<VTKFile type="UnstructuredGrid" version="1,0" byte_order="LittleEndian">
<UnstructuredGrid>
<Piece NumberOfPoints="5802" NumberOfCells="5680">
<Points>
<DataArray type="Float64" NumberOfComponents="3" format="ascii">
-0.1100000000000E+01 -0.4304044648606E+01  0.0000000000000E+00
 0.0000000000000E+00 -0.4304044648606E+01  0.0000000000000E+00
 0.1100000000000E+01 -0.4304044648606E+01  0.0000000000000E+00
-0.1426338184892E+01 -0.1495137730994E+01  0.0000000000000E+00
-0.7131690856113E+00 -0.1351817918288E+01  0.0000000000000E+00
 0.7131690992823E+00 -0.1351817920119E+01  0.0000000000000E+00
 0.1426338184892E+01 -0.1495137730994E+01  0.0000000000000E+00
-0.1297471036855E+01  0.8924645033579E+00  0.0000000000000E+00
 0.1297471037589E+01  0.8924645030013E+00  0.0000000000000E+00
-0.7500000000000E+00  0.3449934570704E+00  0.0000000000000E+00
 0.7500000000000E+00  0.3449934570704E+00  0.0000000000000E+00
-0.1072500000000E+01 -0.4304044648606E+01  0.0000000000000E+00
-0.1045000000000E+01 -0.4304044648606E+01  0.0000000000000E+00
-0.1017500000000E+01 -0.4304044648606E+01  0.0000000000000E+00
-0.9900000000000E+00 -0.4304044648606E+01  0.0000000000000E+00
-0.9625000000000E+00 -0.4304044648606E+01  0.0000000000000E+00
-0.9350000000000E+00 -0.4304044648606E+01  0.0000000000000E+00
-0.9075000000000E+00 -0.4304044648606E+01  0.0000000000000E+00
-0.8800000000000E+00 -0.4304044648606E+01  0.0000000000000E+00
-0.8525000000000E+00 -0.4304044648606E+01  0.0000000000000E+00
-0.8250000000000E+00 -0.4304044648606E+01  0.0000000000000E+00
-0.7975000000000E+00 -0.4304044648606E+01  0.0000000000000E+00
-0.7700000000000E+00 -0.4304044648606E+01  0.0000000000000E+00
-0.7425000000000E+00 -0.4304044648606E+01  0.0000000000000E+00
-0.7150000000000E+00 -0.4304044648606E+01  0.0000000000000E+00
-0.6875000000000E+00 -0.4304044648606E+01  0.0000000000000E+00
-0.6600000000000E+00 -0.4304044648606E+01  0.0000000000000E+00
-0.6325000000000E+00 -0.4304044648606E+01  0.0000000000000E+00
-0.6050000000000E+00 -0.4304044648606E+01  0.0000000000000E+00
-0.5775000000000E+00 -0.4304044648606E+01  0.0000000000000E+00
-0.5500000000000E+00 -0.4304044648606E+01  0.0000000000000E+00
-0.5225000000000E+00 -0.4304044648606E+01  0.0000000000000E+00
-0.4950000000000E+00 -0.4304044648606E+01  0.0000000000000E+00
-0.4675000000000E+00 -0.4304044648606E+01  0.0000000000000E+00
-0.4400000000000E+00 -0.4304044648606E+01  0.0000000000000E+00
-0.4125000000000E+00 -0.4304044648606E+01  0.0000000000000E+00
-0.3850000000000E+00 -0.4304044648606E+01  0.0000000000000E+00
-0.3575000000000E+00 -0.4304044648606E+01  0.0000000000000E+00
-0.3300000000000E+00 -0.4304044648606E+01  0.0000000000000E+00
-0.3025000000000E+00 -0.4304044648606E+01  0.0000000000000E+00
-0.2750000000000E+00 -0.4304044648606E+01  0.0000000000000E+00
-0.2475000000000E+00 -0.4304044648606E+01  0.0000000000000E+00
-0.2200000000000E+00 -0.4304044648606E+01  0.0000000000000E+00
-0.1925000000000E+00 -0.4304044648606E+01  0.0000000000000E+00
-0.1650000000000E+00 -0.4304044648606E+01  0.0000000000000E+00
-0.1375000000000E+00 -0.4304044648606E+01  0.0000000000000E+00
-0.1100000000000E+00 -0.4304044648606E+01  0.0000000000000E+00
-0.8250000000000E-01 -0.4304044648606E+01  0.0000000000000E+00
-0.5500000000000E-01 -0.4304044648606E+01  0.0000000000000E+00
-0.2750000000000E-01 -0.4304044648606E+01  0.0000000000000E+00
 0.2750000000000E-01 -0.4304044648606E+01  0.0000000000000E+00
 0.5500000000000E-01 -0.4304044648606E+01  0.0000000000000E+00
 0.8250000000000E-01 -0.4304044648606E+01  0.0000000000000E+00
 0.1100000000000E+00 -0.4304044648606E+01  0.0000000000000E+00
 0.1375000000000E+00 -0.4304044648606E+01  0.0000000000000E+00
 0.1650000000000E+00 -0.4304044648606E+01  0.0000000000000E+00
 0.1925000000000E+00 -0.4304044648606E+01  0.0000000000000E+00
 0.2200000000000E+00 -0.4304044648606E+01  0.0000000000000E+00
 0.2475000000000E+00 -0.4304044648606E+01  0.0000000000000E+00
 0.2750000000000E+00 -0.4304044648606E+01  0.0000000000000E+00
 0.3025000000000E+00 -0.4304044648606E+01  0.0000000000000E+00
 0.3300000000000E+00 -0.4304044648606E+01  0.0000000000000E+00
 0.3575000000000E+00 -0.4304044648606E+01  0.0000000000000E+00
 0.3850000000000E+00 -0.4304044648606E+01  0.0000000000000E+00
 0.4125000000000E+00 -0.4304044648606E+01  0.0000000000000E+00
 0.4400000000000E+00 -0.4304044648606E+01  0.0000000000000E+00
 0.4675000000000E+00 -0.4304044648606E+01  0.0000000000000E+00
 0.4950000000000E+00 -0.4304044648606E+01  0.0000000000000E+00
 0.5225000000000E+00 -0.4304044648606E+01  0.0000000000000E+00
 0.5500000000000E+00 -0.4304044648606E+01  0.0000000000000E+00
 0.5775000000000E+00 -0.4304044648606E+01  0.0000000000000E+00
 0.6050000000000E+00 -0.4304044648606E+01  0.0000000000000E+00
 0.6325000000000E+00 -0.4304044648606E+01  0.0000000000000E+00
 0.6600000000000E+00 -0.4304044648606E+01  0.0000000000000E+00
 0.6875000000000E+00 -0.4304044648606E+01  0.0000000000000E+00
 0.7150000000000E+00 -0.4304044648606E+01  0.0000000000000E+00
 0.7425000000000E+00 -0.4304044648606E+01  0.0000000000000E+00
 0.7700000000000E+00 -0.4304044648606E+01  0.0000000000000E+00
 0.7975000000000E+00 -0.4304044648606E+01  0.0000000000000E+00
 0.8250000000000E+00 -0.4304044648606E+01  0.0000000000000E+00
 0.8525000000000E+00 -0.4304044648606E+01  0.0000000000000E+00
 0.8800000000000E+00 -0.4304044648606E+01  0.0000000000000E+00
 0.9075000000000E+00 -0.4304044648606E+01  0.0000000000000E+00
 0.9350000000000E+00 -0.4304044648606E+01  0.0000000000000E+00
 0.9625000000000E+00 -0.4304044648606E+01  0.0000000000000E+00
 0.9900000000000E+00 -0.4304044648606E+01  0.0000000000000E+00
 0.1017500000000E+01 -0.4304044648606E+01  0.0000000000000E+00
 0.1045000000000E+01 -0.4304044648606E+01  0.0000000000000E+00
 0.1072500000000E+01 -0.4304044648606E+01  0.0000000000000E+00
-0.1391152984612E+01 -0.1485826169004E+01  0.0000000000000E+00
-0.1355910848380E+01 -0.1476732672072E+01  0.0000000000000E+00
-0.1320612835817E+01 -0.1467858633912E+01  0.0000000000000E+00
-0.1285259981017E+01 -0.1459205415754E+01  0.0000000000000E+00
-0.1249853511796E+01 -0.1450774398559E+01  0.0000000000000E+00
-0.1214394584761E+01 -0.1442566916018E+01  0.0000000000000E+00
-0.1178884329493E+01 -0.1434584266595E+01  0.0000000000000E+00
-0.1143323993112E+01 -0.1426827745365E+01  0.0000000000000E+00
-0.1107714835036E+01 -0.1419298618073E+01  0.0000000000000E+00
-0.1072058114862E+01 -0.1411998118171E+01  0.0000000000000E+00
-0.1036355114016E+01 -0.1404927450906E+01  0.0000000000000E+00
-0.1000607103274E+01 -0.1398087786375E+01  0.0000000000000E+00
-0.9648154637952E+00 -0.1391480281711E+01  0.0000000000000E+00
-0.9289815514207E+00 -0.1385106053576E+01  0.0000000000000E+00
-0.8931067449032E+00 -0.1378966186997E+01  0.0000000000000E+00
-0.8571924453329E+00 -0.1373061734396E+01  0.0000000000000E+00
-0.8212400755349E+00 -0.1367393714636E+01  0.0000000000000E+00
-0.7852510794390E+00 -0.1361963112090E+01  0.0000000000000E+00
-0.7492269214199E+00 -0.1356770875739E+01  0.0000000000000E+00
-0.6777056485815E+00 -0.1347184849055E+01  0.0000000000000E+00
-0.6422126030433E+00 -0.1342784468384E+01  0.0000000000000E+00
-0.6066914054888E+00 -0.1338617534531E+01  0.0000000000000E+00
-0.5711435255488E+00 -0.1334684768748E+01  0.0000000000000E+00
-0.5355704233029E+00 -0.1330986852489E+01  0.0000000000000E+00
-0.4999736369017E+00 -0.1327524435880E+01  0.0000000000000E+00
-0.4643546817971E+00 -0.1324298126257E+01  0.0000000000000E+00
-0.4287150862649E+00 -0.1321308491716E+01  0.0000000000000E+00
-0.3930563807228E+00 -0.1318556059836E+01  0.0000000000000E+00
-0.3573801183139E+00 -0.1316041318931E+01  0.0000000000000E+00
-0.3216878730590E+00 -0.1313764717124E+01  0.0000000000000E+00
-0.2859812157621E+00 -0.1311726660302E+01  0.0000000000000E+00
-0.2502617257092E+00 -0.1309927512732E+01  0.0000000000000E+00
-0.2145309892672E+00 -0.1308367596678E+01  0.0000000000000E+00
-0.1787905926666E+00 -0.1307047191884E+01  0.0000000000000E+00
-0.1430421463503E+00 -0.1305966536203E+01  0.0000000000000E+00
-0.1072872541886E+00 -0.1305125824139E+01  0.0000000000000E+00
-0.7152752388590E-01 -0.1304525207180E+01  0.0000000000000E+00
-0.3576456602431E-01 -0.1304164793652E+01  0.0000000000000E+00
 0.6896563736758E-08 -0.1304044648606E+01  0.0000000000000E+00
 0.3576457981713E-01 -0.1304164793745E+01  0.0000000000000E+00
 0.7152753767778E-01 -0.1304525207365E+01  0.0000000000000E+00
 0.1072872679789E+00 -0.1305125824417E+01  0.0000000000000E+00
 0.1430421601384E+00 -0.1305966536574E+01  0.0000000000000E+00
 0.1787906064519E+00 -0.1307047192347E+01  0.0000000000000E+00
 0.2145310030492E+00 -0.1308367597233E+01  0.0000000000000E+00
 0.2502617394871E+00 -0.1309927513380E+01  0.0000000000000E+00
 0.2859812295354E+00 -0.1311726661042E+01  0.0000000000000E+00
 0.3216878868270E+00 -0.1313764717956E+01  0.0000000000000E+00
 0.3573801320760E+00 -0.1316041319855E+01  0.0000000000000E+00
 0.3930563944785E+00 -0.1318556060852E+01  0.0000000000000E+00
 0.4287151000135E+00 -0.1321308492824E+01  0.0000000000000E+00
 0.4643546955381E+00 -0.1324298127456E+01  0.0000000000000E+00
 0.4999736506343E+00 -0.1327524437170E+01  0.0000000000000E+00
 0.5355704370268E+00 -0.1330986853870E+01  0.0000000000000E+00
 0.5711435392633E+00 -0.1334684770220E+01  0.0000000000000E+00
 0.6066914191932E+00 -0.1338617536093E+01  0.0000000000000E+00
 0.6422126167371E+00 -0.1342784470036E+01  0.0000000000000E+00
 0.6777056622642E+00 -0.1347184850797E+01  0.0000000000000E+00
 0.7492269343955E+00 -0.1356770877566E+01  0.0000000000000E+00
 0.7852510917199E+00 -0.1361963113902E+01  0.0000000000000E+00
 0.8212400871220E+00 -0.1367393716423E+01  0.0000000000000E+00
 0.8571924562271E+00 -0.1373061736151E+01  0.0000000000000E+00
 0.8931067551055E+00 -0.1378966188709E+01  0.0000000000000E+00
 0.9289815609321E+00 -0.1385106055236E+01  0.0000000000000E+00
 0.9648154726170E+00 -0.1391480283310E+01  0.0000000000000E+00
 0.1000607111408E+01 -0.1398087787904E+01  0.0000000000000E+00
 0.1036355121463E+01 -0.1404927452356E+01  0.0000000000000E+00
 0.1072058121623E+01 -0.1411998119533E+01  0.0000000000000E+00
 0.1107714841113E+01 -0.1419298619338E+01  0.0000000000000E+00
 0.1143323998507E+01 -0.1426827746523E+01  0.0000000000000E+00
 0.1178884334206E+01 -0.1434584267638E+01  0.0000000000000E+00
 0.1214394588795E+01 -0.1442566916938E+01  0.0000000000000E+00
 0.1249853515153E+01 -0.1450774399347E+01  0.0000000000000E+00
 0.1285259983698E+01 -0.1459205416402E+01  0.0000000000000E+00
 0.1320612837825E+01 -0.1467858634410E+01  0.0000000000000E+00
 0.1355910849717E+01 -0.1476732672412E+01  0.0000000000000E+00
 0.1391152985279E+01 -0.1485826169179E+01  0.0000000000000E+00
-0.1500282641368E+01 -0.1374379525622E+01  0.0000000000000E+00
-0.1579712636672E+01 -0.1257117726587E+01  0.0000000000000E+00
-0.1659629531058E+01 -0.1140189019983E+01  0.0000000000000E+00
-0.1733164540211E+01 -0.1019175933670E+01  0.0000000000000E+00
-0.1798046249351E+01 -0.8933073152546E+00  0.0000000000000E+00
-0.1854662117542E+01 -0.7635066404071E+00  0.0000000000000E+00
-0.1902918776519E+01 -0.6303741789607E+00  0.0000000000000E+00
-0.1941975481337E+01 -0.4942606593644E+00  0.0000000000000E+00
-0.1971769159893E+01 -0.3558234883184E+00  0.0000000000000E+00
-0.1991516502432E+01 -0.2156092846034E+00  0.0000000000000E+00
-0.1999617540933E+01 -0.7424989119446E-01  0.0000000000000E+00
-0.1998781287050E+01  0.6736447573279E-01  0.0000000000000E+00
-0.1977369471108E+01  0.2070661279160E+00  0.0000000000000E+00
-0.1925316867218E+01  0.3385059547416E+00  0.0000000000000E+00
-0.1849365860808E+01  0.4578477771193E+00  0.0000000000000E+00
-0.1756248887890E+01  0.5644442091257E+00  0.0000000000000E+00
-0.1652195200841E+01  0.6604571002421E+00  0.0000000000000E+00
-0.1540277150090E+01  0.7471961778048E+00  0.0000000000000E+00
-0.1421865714943E+01  0.8248395163169E+00  0.0000000000000E+00
-0.1236157917423E+01  0.9206126839211E+00  0.0000000000000E+00
-0.1173981215584E+01  0.9468055532948E+00  0.0000000000000E+00
-0.1111281399127E+01  0.9717225607392E+00  0.0000000000000E+00
-0.1048246390832E+01  0.9957805369659E+00  0.0000000000000E+00
-0.9850026878781E+00  0.1019284763872E+01  0.0000000000000E+00
-0.9216449825030E+00  0.1042480347406E+01  0.0000000000000E+00
-0.8582438511844E+00  0.1065556940867E+01  0.0000000000000E+00
-0.7946812217419E+00  0.1088183183765E+01  0.0000000000000E+00
-0.7306767253970E+00  0.1109523680148E+01  0.0000000000000E+00
-0.6661180574429E+00  0.1129122063103E+01  0.0000000000000E+00
-0.6010093404920E+00  0.1146807084276E+01  0.0000000000000E+00
-0.5354041844713E+00  0.1162549250252E+01  0.0000000000000E+00
-0.4693692539535E+00  0.1176378185166E+01  0.0000000000000E+00
-0.4029695874389E+00  0.1188340213072E+01  0.0000000000000E+00
-0.3362668810131E+00  0.1198477309315E+01  0.0000000000000E+00
-0.2693161135181E+00  0.1206817739605E+01  0.0000000000000E+00
-0.2021667219355E+00  0.1213370604034E+01  0.0000000000000E+00
-0.1348660417516E+00  0.1218121850014E+01  0.0000000000000E+00
-0.6746061515966E-01  0.1221030416244E+01  0.0000000000000E+00
 0.4058847535558E-09  0.1222022719718E+01  0.0000000000000E+00
 0.6746061597099E-01  0.1221030416217E+01  0.0000000000000E+00
 0.1348660425620E+00  0.1218121849962E+01  0.0000000000000E+00
 0.2021667227442E+00  0.1213370603957E+01  0.0000000000000E+00
 0.2693161143243E+00  0.1206817739504E+01  0.0000000000000E+00
 0.3362668818164E+00  0.1198477309191E+01  0.0000000000000E+00
 0.4029695882387E+00  0.1188340212925E+01  0.0000000000000E+00
 0.4693692547501E+00  0.1176378184996E+01  0.0000000000000E+00
 0.5354041852619E+00  0.1162549250060E+01  0.0000000000000E+00
 0.6010093412774E+00  0.1146807084062E+01  0.0000000000000E+00
 0.6661180582227E+00  0.1129122062868E+01  0.0000000000000E+00
 0.7306767261711E+00  0.1109523679893E+01  0.0000000000000E+00
 0.7946812225112E+00  0.1088183183495E+01  0.0000000000000E+00
 0.8582438519506E+00  0.1065556940589E+01  0.0000000000000E+00
 0.9216449832687E+00  0.1042480347127E+01  0.0000000000000E+00
 0.9850026886429E+00  0.1019284763591E+01  0.0000000000000E+00
 0.1048246391595E+01  0.9957805366789E+00  0.0000000000000E+00
 0.1111281399886E+01  0.9717225604423E+00  0.0000000000000E+00
 0.1173981216337E+01  0.9468055529829E+00  0.0000000000000E+00
 0.1236157918167E+01  0.9206126835887E+00  0.0000000000000E+00
 0.1421865715609E+01  0.8248395159258E+00  0.0000000000000E+00
 0.1540277150686E+01  0.7471961773831E+00  0.0000000000000E+00
 0.1652195201364E+01  0.6604570997956E+00  0.0000000000000E+00
 0.1756248888337E+01  0.5644442086587E+00  0.0000000000000E+00
 0.1849365861169E+01  0.4578477766335E+00  0.0000000000000E+00
 0.1925316867476E+01  0.3385059542402E+00  0.0000000000000E+00
 0.1977369471244E+01  0.2070661274129E+00  0.0000000000000E+00
 0.1998781287072E+01  0.6736447525390E-01  0.0000000000000E+00
 0.1999617540926E+01 -0.7424989163157E-01  0.0000000000000E+00
 0.1991516502379E+01 -0.2156092849952E+00  0.0000000000000E+00
 0.1971769159793E+01 -0.3558234886609E+00  0.0000000000000E+00
 0.1941975481197E+01 -0.4942606596555E+00  0.0000000000000E+00
 0.1902918776353E+01 -0.6303741792004E+00  0.0000000000000E+00
 0.1854662117367E+01 -0.7635066405985E+00  0.0000000000000E+00
 0.1798046249184E+01 -0.8933073154033E+00  0.0000000000000E+00
 0.1733164540072E+01 -0.1019175933786E+01  0.0000000000000E+00
 0.1659629530969E+01 -0.1140189020080E+01  0.0000000000000E+00
 0.1579712636620E+01 -0.1257117726658E+01  0.0000000000000E+00
 0.1500282641316E+01 -0.1374379525643E+01  0.0000000000000E+00
-0.1100000000000E+01 -0.4234290980465E+01  0.0000000000000E+00
-0.1100000000000E+01 -0.4164537374556E+01  0.0000000000000E+00
-0.1100000000000E+01 -0.4094783637185E+01  0.0000000000000E+00
-0.1100000000000E+01 -0.4025029839181E+01  0.0000000000000E+00
-0.1100000000000E+01 -0.3955276133193E+01  0.0000000000000E+00
-0.1100000000000E+01 -0.3885522440291E+01  0.0000000000000E+00
-0.1100000000000E+01 -0.3815768738526E+01  0.0000000000000E+00
-0.1100000000000E+01 -0.3746015026237E+01  0.0000000000000E+00
-0.1100000000000E+01 -0.3676261319430E+01  0.0000000000000E+00
-0.1100000000000E+01 -0.3606507611668E+01  0.0000000000000E+00
-0.1100000000000E+01 -0.3536753776913E+01  0.0000000000000E+00
-0.1100000000000E+01 -0.3467000160269E+01  0.0000000000000E+00
-0.1100000000000E+01 -0.3397246335911E+01  0.0000000000000E+00
-0.1100000000000E+01 -0.3327491483183E+01  0.0000000000000E+00
-0.1100000000000E+01 -0.3257738937264E+01  0.0000000000000E+00
-0.1100000000000E+01 -0.3187985423319E+01  0.0000000000000E+00
-0.1100000000000E+01 -0.3118231710338E+01  0.0000000000000E+00
-0.1100000000000E+01 -0.3048478034801E+01  0.0000000000000E+00
-0.1100000000000E+01 -0.2978724449557E+01  0.0000000000000E+00
-0.1100081949193E+01 -0.2908970897701E+01  0.0000000000000E+00
-0.1100742728942E+01 -0.2839220824704E+01  0.0000000000000E+00
-0.1102521741007E+01 -0.2769490993372E+01  0.0000000000000E+00
-0.1105743074114E+01 -0.2699813216018E+01  0.0000000000000E+00
-0.1110533766938E+01 -0.2630225810104E+01  0.0000000000000E+00
-0.1116908162342E+01 -0.2560765504263E+01  0.0000000000000E+00
-0.1124837122290E+01 -0.2491465260483E+01  0.0000000000000E+00
-0.1134287691960E+01 -0.2422356178019E+01  0.0000000000000E+00
-0.1145243591943E+01 -0.2353469532743E+01  0.0000000000000E+00
-0.1157716694154E+01 -0.2284841544654E+01  0.0000000000000E+00
-0.1171756578450E+01 -0.2216517038769E+01  0.0000000000000E+00
-0.1187382332609E+01 -0.2148537564097E+01  0.0000000000000E+00
-0.1204496719736E+01 -0.2080917362614E+01  0.0000000000000E+00
-0.1223027229037E+01 -0.2013671356569E+01  0.0000000000000E+00
-0.1242939072837E+01 -0.1946821322119E+01  0.0000000000000E+00
-0.1264231112750E+01 -0.1880397992225E+01  0.0000000000000E+00
-0.1286935945292E+01 -0.1814444247962E+01  0.0000000000000E+00
-0.1311124079738E+01 -0.1749020523908E+01  0.0000000000000E+00
-0.1336914565389E+01 -0.1684211332234E+01  0.0000000000000E+00
-0.1364492429937E+01 -0.1620144016975E+01  0.0000000000000E+00
-0.1394146623869E+01 -0.1557011712595E+01  0.0000000000000E+00
 0.1394146623938E+01 -0.1557011712631E+01  0.0000000000000E+00
 0.1364492430018E+01 -0.1620144017018E+01  0.0000000000000E+00
 0.1336914565463E+01 -0.1684211332275E+01  0.0000000000000E+00
 0.1311124079803E+01 -0.1749020523939E+01  0.0000000000000E+00
 0.1286935945344E+01 -0.1814444247990E+01  0.0000000000000E+00
 0.1264231112793E+01 -0.1880397992249E+01  0.0000000000000E+00
 0.1242939072872E+01 -0.1946821322142E+01  0.0000000000000E+00
 0.1223027229066E+01 -0.2013671356589E+01  0.0000000000000E+00
 0.1204496719761E+01 -0.2080917362633E+01  0.0000000000000E+00
 0.1187382332630E+01 -0.2148537564113E+01  0.0000000000000E+00
 0.1171756578464E+01 -0.2216517038784E+01  0.0000000000000E+00
 0.1157716694160E+01 -0.2284841544667E+01  0.0000000000000E+00
 0.1145243591945E+01 -0.2353469532755E+01  0.0000000000000E+00
 0.1134287691960E+01 -0.2422356178030E+01  0.0000000000000E+00
 0.1124837122289E+01 -0.2491465260492E+01  0.0000000000000E+00
 0.1116908162341E+01 -0.2560765504273E+01  0.0000000000000E+00
 0.1110533766937E+01 -0.2630225810113E+01  0.0000000000000E+00
 0.1105743074114E+01 -0.2699813216027E+01  0.0000000000000E+00
 0.1102521741008E+01 -0.2769490993381E+01  0.0000000000000E+00
 0.1100742728943E+01 -0.2839220824713E+01  0.0000000000000E+00
 0.1100081949193E+01 -0.2908970897709E+01  0.0000000000000E+00
 0.1100000000000E+01 -0.2978724449564E+01  0.0000000000000E+00
 0.1100000000000E+01 -0.3048478034808E+01  0.0000000000000E+00
 0.1100000000000E+01 -0.3118231710345E+01  0.0000000000000E+00
 0.1100000000000E+01 -0.3187985423326E+01  0.0000000000000E+00
 0.1100000000000E+01 -0.3257738937270E+01  0.0000000000000E+00
 0.1100000000000E+01 -0.3327491483189E+01  0.0000000000000E+00
 0.1100000000000E+01 -0.3397246335917E+01  0.0000000000000E+00
 0.1100000000000E+01 -0.3467000160274E+01  0.0000000000000E+00
 0.1100000000000E+01 -0.3536753776917E+01  0.0000000000000E+00
 0.1100000000000E+01 -0.3606507611672E+01  0.0000000000000E+00
 0.1100000000000E+01 -0.3676261319434E+01  0.0000000000000E+00
 0.1100000000000E+01 -0.3746015026240E+01  0.0000000000000E+00
 0.1100000000000E+01 -0.3815768738529E+01  0.0000000000000E+00
 0.1100000000000E+01 -0.3885522440293E+01  0.0000000000000E+00
 0.1100000000000E+01 -0.3955276133195E+01  0.0000000000000E+00
 0.1100000000000E+01 -0.4025029839183E+01  0.0000000000000E+00
 0.1100000000000E+01 -0.4094783637186E+01  0.0000000000000E+00
 0.1100000000000E+01 -0.4164537374557E+01  0.0000000000000E+00
 0.1100000000000E+01 -0.4234290980466E+01  0.0000000000000E+00
-0.7132895388975E+00  0.3545892595695E+00  0.0000000000000E+00
-0.6764636662017E+00  0.3637314849837E+00  0.0000000000000E+00
-0.6395267434147E+00  0.3724145815178E+00  0.0000000000000E+00
-0.6024837198702E+00  0.3806330875003E+00  0.0000000000000E+00
-0.5653396500945E+00  0.3883817695657E+00  0.0000000000000E+00
-0.5280996171512E+00  0.3956556459469E+00  0.0000000000000E+00
-0.4907691319433E+00  0.4024499201459E+00  0.0000000000000E+00
-0.4533537451325E+00  0.4087600740826E+00  0.0000000000000E+00
-0.4158592885785E+00  0.4145818366128E+00  0.0000000000000E+00
-0.3782916751723E+00  0.4199112310808E+00  0.0000000000000E+00
-0.3406570303206E+00  0.4247445663511E+00  0.0000000000000E+00
-0.3029616164712E+00  0.4290784607705E+00  0.0000000000000E+00
-0.2652118192254E+00  0.4329098541257E+00  0.0000000000000E+00
-0.2274141490083E+00  0.4362360171118E+00  0.0000000000000E+00
-0.1895752452634E+00  0.4390545606537E+00  0.0000000000000E+00
-0.1517018295911E+00  0.4413634482121E+00  0.0000000000000E+00
-0.1138007051193E+00  0.4431610022710E+00  0.0000000000000E+00
-0.7587874076696E-01  0.4444459110349E+00  0.0000000000000E+00
-0.3794285511804E-01  0.4452172336970E+00  0.0000000000000E+00
-0.3330669073875E-15  0.4454744042321E+00  0.0000000000000E+00
 0.3794285511804E-01  0.4452172336970E+00  0.0000000000000E+00
 0.7587874076696E-01  0.4444459110349E+00  0.0000000000000E+00
 0.1138007051193E+00  0.4431610022710E+00  0.0000000000000E+00
 0.1517018295911E+00  0.4413634482121E+00  0.0000000000000E+00
 0.1895752452634E+00  0.4390545606537E+00  0.0000000000000E+00
 0.2274141490083E+00  0.4362360171118E+00  0.0000000000000E+00
 0.2652118192254E+00  0.4329098541257E+00  0.0000000000000E+00
 0.3029616164712E+00  0.4290784607705E+00  0.0000000000000E+00
 0.3406570303206E+00  0.4247445663511E+00  0.0000000000000E+00
 0.3782916751723E+00  0.4199112310808E+00  0.0000000000000E+00
 0.4158592885785E+00  0.4145818366128E+00  0.0000000000000E+00
 0.4533537451325E+00  0.4087600740826E+00  0.0000000000000E+00
 0.4907691319433E+00  0.4024499201459E+00  0.0000000000000E+00
 0.5280996171512E+00  0.3956556459469E+00  0.0000000000000E+00
 0.5653396500945E+00  0.3883817695657E+00  0.0000000000000E+00
 0.6024837198702E+00  0.3806330875003E+00  0.0000000000000E+00
 0.6395267434147E+00  0.3724145815178E+00  0.0000000000000E+00
 0.6764636662017E+00  0.3637314849837E+00  0.0000000000000E+00
 0.7132895388975E+00  0.3545892595695E+00  0.0000000000000E+00
-0.7498714525667E+00  0.2601244253178E+00  0.0000000000000E+00
-0.7494610908407E+00  0.1752564208624E+00  0.0000000000000E+00
-0.7487273443814E+00  0.9039062493678E-01  0.0000000000000E+00
-0.7476230150202E+00  0.5528898378488E-02  0.0000000000000E+00
-0.7460974662219E+00 -0.7932632445184E-01  0.0000000000000E+00
-0.7441028539882E+00 -0.1641717347835E+00  0.0000000000000E+00
-0.7416076935207E+00 -0.2490040130765E+00  0.0000000000000E+00
-0.7386208425271E+00 -0.3338203224162E+00  0.0000000000000E+00
-0.7352226651418E+00 -0.4186212392773E+00  0.0000000000000E+00
-0.7315845453817E+00 -0.5034122306519E+00  0.0000000000000E+00
-0.7279464255305E+00 -0.5882032220226E+00  0.0000000000000E+00
-0.7245482478836E+00 -0.6730041388732E+00  0.0000000000000E+00
-0.7215613964884E+00 -0.7578204481989E+00  0.0000000000000E+00
-0.7190662355151E+00 -0.8426527264768E+00  0.0000000000000E+00
-0.7170716227036E+00 -0.9274981367952E+00  0.0000000000000E+00
-0.7155460732803E+00 -0.1012353359614E+01  0.0000000000000E+00
-0.7144417432648E+00 -0.1097215086164E+01  0.0000000000000E+00
-0.7137079961342E+00 -0.1182080882084E+01  0.0000000000000E+00
-0.7132976337280E+00 -0.1266948886536E+01  0.0000000000000E+00
 0.7498714525670E+00  0.2601244252411E+00  0.0000000000000E+00
 0.7494610908447E+00  0.1752564207090E+00  0.0000000000000E+00
 0.7487273443980E+00  0.9039062470648E-01  0.0000000000000E+00
 0.7476230150664E+00  0.5528898070996E-02  0.0000000000000E+00
 0.7460974663270E+00 -0.7932632483698E-01  0.0000000000000E+00
 0.7441028541992E+00 -0.1641717352482E+00  0.0000000000000E+00
 0.7416076939094E+00 -0.2490040136230E+00  0.0000000000000E+00
 0.7386208431973E+00 -0.3338203230495E+00  0.0000000000000E+00
 0.7352226662333E+00 -0.4186212400042E+00  0.0000000000000E+00
 0.7315845470645E+00 -0.5034122314810E+00  0.0000000000000E+00
 0.7279464279870E+00 -0.5882032229617E+00  0.0000000000000E+00
 0.7245482512846E+00 -0.6730041399270E+00  0.0000000000000E+00
 0.7215614009742E+00 -0.7578204493675E+00  0.0000000000000E+00
 0.7190662411903E+00 -0.8426527277573E+00  0.0000000000000E+00
 0.7170716296405E+00 -0.9274981381818E+00  0.0000000000000E+00
 0.7155460815261E+00 -0.1012353361101E+01  0.0000000000000E+00
 0.7144417528489E+00 -0.1097215087745E+01  0.0000000000000E+00
 0.7137080070737E+00 -0.1182080883753E+01  0.0000000000000E+00
 0.7132976460316E+00 -0.1266948888289E+01  0.0000000000000E+00
-0.7773735518427E+00  0.3723670093848E+00  0.0000000000000E+00
-0.8047471036855E+00  0.3997405616991E+00  0.0000000000000E+00
-0.8321206555283E+00  0.4271141140135E+00  0.0000000000000E+00
-0.8594942073710E+00  0.4544876663279E+00  0.0000000000000E+00
-0.8868677592138E+00  0.4818612186423E+00  0.0000000000000E+00
-0.9142413110566E+00  0.5092347709566E+00  0.0000000000000E+00
-0.9416148628994E+00  0.5366083232710E+00  0.0000000000000E+00
-0.9689884147421E+00  0.5639818755854E+00  0.0000000000000E+00
-0.9963619665849E+00  0.5913554278998E+00  0.0000000000000E+00
-0.1023735518428E+01  0.6187289802141E+00  0.0000000000000E+00
-0.1051109070270E+01  0.6461025325285E+00  0.0000000000000E+00
-0.1078482622113E+01  0.6734760848429E+00  0.0000000000000E+00
-0.1105856173956E+01  0.7008496371573E+00  0.0000000000000E+00
-0.1133229725799E+01  0.7282231894716E+00  0.0000000000000E+00
-0.1160603277642E+01  0.7555967417860E+00  0.0000000000000E+00
-0.1187976829484E+01  0.7829702941004E+00  0.0000000000000E+00
-0.1215350381327E+01  0.8103438464148E+00  0.0000000000000E+00
-0.1242723933170E+01  0.8377173987291E+00  0.0000000000000E+00
-0.1270097485013E+01  0.8650909510435E+00  0.0000000000000E+00
 0.7773735518794E+00  0.3723670093669E+00  0.0000000000000E+00
 0.8047471037588E+00  0.3997405616635E+00  0.0000000000000E+00
 0.8321206556383E+00  0.4271141139600E+00  0.0000000000000E+00
 0.8594942075177E+00  0.4544876662566E+00  0.0000000000000E+00
 0.8868677593971E+00  0.4818612185531E+00  0.0000000000000E+00
 0.9142413112766E+00  0.5092347708497E+00  0.0000000000000E+00
 0.9416148631560E+00  0.5366083231462E+00  0.0000000000000E+00
 0.9689884150354E+00  0.5639818754428E+00  0.0000000000000E+00
 0.9963619669149E+00  0.5913554277393E+00  0.0000000000000E+00
 0.1023735518794E+01  0.6187289800359E+00  0.0000000000000E+00
 0.1051109070674E+01  0.6461025323324E+00  0.0000000000000E+00
 0.1078482622553E+01  0.6734760846289E+00  0.0000000000000E+00
 0.1105856174433E+01  0.7008496369255E+00  0.0000000000000E+00
 0.1133229726312E+01  0.7282231892220E+00  0.0000000000000E+00
 0.1160603278191E+01  0.7555967415186E+00  0.0000000000000E+00
 0.1187976830071E+01  0.7829702938151E+00  0.0000000000000E+00
 0.1215350381950E+01  0.8103438461117E+00  0.0000000000000E+00
 0.1242723933830E+01  0.8377173984082E+00  0.0000000000000E+00
 0.1270097485709E+01  0.8650909507048E+00  0.0000000000000E+00
-0.1072512531531E+01 -0.4234063866316E+01  0.0000000000000E+00
-0.1072525063052E+01 -0.4164083146461E+01  0.0000000000000E+00
-0.1072537594596E+01 -0.4094102294716E+01  0.0000000000000E+00
-0.1072550126150E+01 -0.4024121382140E+01  0.0000000000000E+00
-0.1072562657689E+01 -0.3954140561879E+01  0.0000000000000E+00
-0.1072575189225E+01 -0.3884159754748E+01  0.0000000000000E+00
-0.1072587720762E+01 -0.3814178938725E+01  0.0000000000000E+00
-0.1072600252302E+01 -0.3744198112143E+01  0.0000000000000E+00
-0.1072612783840E+01 -0.3674217291062E+01  0.0000000000000E+00
-0.1072625315378E+01 -0.3604236469021E+01  0.0000000000000E+00
-0.1072637846940E+01 -0.3534255519575E+01  0.0000000000000E+00
-0.1072650378462E+01 -0.3464274788950E+01  0.0000000000000E+00
-0.1072662910022E+01 -0.3394293849935E+01  0.0000000000000E+00
-0.1072675441766E+01 -0.3324311879201E+01  0.0000000000000E+00
-0.1072687973096E+01 -0.3254332222786E+01  0.0000000000000E+00
-0.1072700504600E+01 -0.3184351595195E+01  0.0000000000000E+00
-0.1072713036139E+01 -0.3114370767918E+01  0.0000000000000E+00
-0.1072725567672E+01 -0.3044389978209E+01  0.0000000000000E+00
-0.1072738099188E+01 -0.2974409279085E+01  0.0000000000000E+00
-0.1072830520992E+01 -0.2904428613303E+01  0.0000000000000E+00
-0.1073487230625E+01 -0.2834451427672E+01  0.0000000000000E+00
-0.1075234077757E+01 -0.2764494485924E+01  0.0000000000000E+00
-0.1078387008707E+01 -0.2694589599196E+01  0.0000000000000E+00
-0.1083069870449E+01 -0.2624775084183E+01  0.0000000000000E+00
-0.1089296645518E+01 -0.2555087669031E+01  0.0000000000000E+00
-0.1097038927970E+01 -0.2485560315349E+01  0.0000000000000E+00
-0.1106264590896E+01 -0.2416224123304E+01  0.0000000000000E+00
-0.1116957763942E+01 -0.2347110367907E+01  0.0000000000000E+00
-0.1129130020690E+01 -0.2278255270224E+01  0.0000000000000E+00
-0.1142829695345E+01 -0.2209703655273E+01  0.0000000000000E+00
-0.1158075396169E+01 -0.2141497071144E+01  0.0000000000000E+00
-0.1174772329272E+01 -0.2073649759721E+01  0.0000000000000E+00
-0.1192849805623E+01 -0.2006176643474E+01  0.0000000000000E+00
-0.1212273911551E+01 -0.1939099498740E+01  0.0000000000000E+00
-0.1233043537267E+01 -0.1872449058536E+01  0.0000000000000E+00
-0.1255190460318E+01 -0.1806268204055E+01  0.0000000000000E+00
-0.1278783418399E+01 -0.1740617371563E+01  0.0000000000000E+00
-0.1303938469955E+01 -0.1675581070262E+01  0.0000000000000E+00
-0.1330835993654E+01 -0.1611286650534E+01  0.0000000000000E+00
-0.1359757680489E+01 -0.1547927244028E+01  0.0000000000000E+00
-0.1045023674207E+01 -0.4233842070895E+01  0.0000000000000E+00
-0.1045047348392E+01 -0.4163639555816E+01  0.0000000000000E+00
-0.1045071022622E+01 -0.4093436908429E+01  0.0000000000000E+00
-0.1045094696873E+01 -0.4023234200019E+01  0.0000000000000E+00
-0.1045118371092E+01 -0.3953031584216E+01  0.0000000000000E+00
-0.1045142045307E+01 -0.3882828981585E+01  0.0000000000000E+00
-0.1045165719525E+01 -0.3812626370033E+01  0.0000000000000E+00
-0.1045189393746E+01 -0.3742423747889E+01  0.0000000000000E+00
-0.1045213067966E+01 -0.3672221131264E+01  0.0000000000000E+00
-0.1045236742186E+01 -0.3602018513676E+01  0.0000000000000E+00
-0.1045260416449E+01 -0.3531815768278E+01  0.0000000000000E+00
-0.1045284090638E+01 -0.3461613242396E+01  0.0000000000000E+00
-0.1045307764898E+01 -0.3391410507462E+01  0.0000000000000E+00
-0.1045331439506E+01 -0.3321206737540E+01  0.0000000000000E+00
-0.1045355113332E+01 -0.3251005289272E+01  0.0000000000000E+00
-0.1045378787486E+01 -0.3180802866750E+01  0.0000000000000E+00
-0.1045402461708E+01 -0.3110600243909E+01  0.0000000000000E+00
-0.1045426135917E+01 -0.3040397658755E+01  0.0000000000000E+00
-0.1045449810095E+01 -0.2970195164473E+01  0.0000000000000E+00
-0.1045551315657E+01 -0.2899992703486E+01  0.0000000000000E+00
-0.1046202566339E+01 -0.2829793723913E+01  0.0000000000000E+00
-0.1047915859739E+01 -0.2759614990390E+01  0.0000000000000E+00
-0.1050998999770E+01 -0.2689488312903E+01  0.0000000000000E+00
-0.1055572641697E+01 -0.2619452007401E+01  0.0000000000000E+00
-0.1061650407731E+01 -0.2549542801550E+01  0.0000000000000E+00
-0.1069204624013E+01 -0.2479793656596E+01  0.0000000000000E+00
-0.1078203991553E+01 -0.2410235673589E+01  0.0000000000000E+00
-0.1088633049045E+01 -0.2340900126704E+01  0.0000000000000E+00
-0.1100503071749E+01 -0.2271823238048E+01  0.0000000000000E+00
-0.1113861148214E+01 -0.2203049832639E+01  0.0000000000000E+00
-0.1128725407183E+01 -0.2134621457671E+01  0.0000000000000E+00
-0.1145003497769E+01 -0.2066552354937E+01  0.0000000000000E+00
-0.1162626552704E+01 -0.1998857447123E+01  0.0000000000000E+00
-0.1181561532320E+01 -0.1931558510742E+01  0.0000000000000E+00
-0.1201807355426E+01 -0.1864686278866E+01  0.0000000000000E+00
-0.1223394980603E+01 -0.1798283632802E+01  0.0000000000000E+00
-0.1246391373975E+01 -0.1732411010466E+01  0.0000000000000E+00
-0.1270909603116E+01 -0.1667152918159E+01  0.0000000000000E+00
-0.1297125397712E+01 -0.1602636712462E+01  0.0000000000000E+00
-0.1325313189253E+01 -0.1539055522277E+01  0.0000000000000E+00
-0.1017533453958E+01 -0.4233625628194E+01  0.0000000000000E+00
-0.1017566907886E+01 -0.4163206670607E+01  0.0000000000000E+00
-0.1017600361877E+01 -0.4092787580305E+01  0.0000000000000E+00
-0.1017633815897E+01 -0.4022368428792E+01  0.0000000000000E+00
-0.1017667269873E+01 -0.3951949370171E+01  0.0000000000000E+00
-0.1017700723842E+01 -0.3881530324762E+01  0.0000000000000E+00
-0.1017734177816E+01 -0.3811111270406E+01  0.0000000000000E+00
-0.1017767631795E+01 -0.3740692205424E+01  0.0000000000000E+00
-0.1017801085772E+01 -0.3670273145978E+01  0.0000000000000E+00
-0.1017834539748E+01 -0.3599854085567E+01  0.0000000000000E+00
-0.1017867993786E+01 -0.3529434896952E+01  0.0000000000000E+00
-0.1017901447719E+01 -0.3459015928528E+01  0.0000000000000E+00
-0.1017934901752E+01 -0.3388596750409E+01  0.0000000000000E+00
-0.1017968356278E+01 -0.3318176534111E+01  0.0000000000000E+00
-0.1018001809697E+01 -0.3247758646625E+01  0.0000000000000E+00
-0.1018035263581E+01 -0.3177339781880E+01  0.0000000000000E+00
-0.1018068717560E+01 -0.3106920716200E+01  0.0000000000000E+00
-0.1018102171522E+01 -0.3036501688322E+01  0.0000000000000E+00
-0.1018135625440E+01 -0.2966082751597E+01  0.0000000000000E+00
-0.1018244851837E+01 -0.2895663848120E+01  0.0000000000000E+00
-0.1018889280661E+01 -0.2825248427290E+01  0.0000000000000E+00
-0.1020567657443E+01 -0.2754853254624E+01  0.0000000000000E+00
-0.1023579643686E+01 -0.2684510138987E+01  0.0000000000000E+00
-0.1028042702948E+01 -0.2614257395599E+01  0.0000000000000E+00
-0.1033970097107E+01 -0.2544131751656E+01  0.0000000000000E+00
-0.1041334884389E+01 -0.2474166168050E+01  0.0000000000000E+00
-0.1050106593729E+01 -0.2404391746694E+01  0.0000000000000E+00
-0.1060270172863E+01 -0.2334839760947E+01  0.0000000000000E+00
-0.1071836598734E+01 -0.2265546433933E+01  0.0000000000000E+00
-0.1084851714238E+01 -0.2196556590667E+01  0.0000000000000E+00
-0.1099333168593E+01 -0.2127911777470E+01  0.0000000000000E+00
-0.1115191053912E+01 -0.2059626236046E+01  0.0000000000000E+00
-0.1132358324692E+01 -0.1991714889293E+01  0.0000000000000E+00
-0.1150802815268E+01 -0.1924199513894E+01  0.0000000000000E+00
-0.1170523473049E+01 -0.1857110842977E+01  0.0000000000000E+00
-0.1191550437648E+01 -0.1790491757958E+01  0.0000000000000E+00
-0.1213948903631E+01 -0.1724402698364E+01  0.0000000000000E+00
-0.1237828947684E+01 -0.1658928167667E+01  0.0000000000000E+00
-0.1263361650553E+01 -0.1594195528494E+01  0.0000000000000E+00
-0.1290814184204E+01 -0.1530397907066E+01  0.0000000000000E+00
-0.9900418962607E+00 -0.4233414571416E+01  0.0000000000000E+00
-0.9900837924840E+00 -0.4162784557239E+01  0.0000000000000E+00
-0.9901256887862E+00 -0.4092154409949E+01  0.0000000000000E+00
-0.9901675851249E+00 -0.4021524201263E+01  0.0000000000000E+00
-0.9902094814083E+00 -0.3950894085750E+01  0.0000000000000E+00
-0.9902513776839E+00 -0.3880263983487E+01  0.0000000000000E+00
-0.9902932739648E+00 -0.3809633872251E+01  0.0000000000000E+00
-0.9903351702520E+00 -0.3739003750357E+01  0.0000000000000E+00
-0.9903770665359E+00 -0.3668373634015E+01  0.0000000000000E+00
-0.9904189628203E+00 -0.3597743516705E+01  0.0000000000000E+00
-0.9904608591811E+00 -0.3527113270807E+01  0.0000000000000E+00
-0.9905027554109E+00 -0.3456483245761E+01  0.0000000000000E+00
-0.9905446517654E+00 -0.3385853010391E+01  0.0000000000000E+00
-0.9905865487375E+00 -0.3315221733730E+01  0.0000000000000E+00
-0.9906284443242E+00 -0.3244592792861E+01  0.0000000000000E+00
-0.9906703404922E+00 -0.3173962871804E+01  0.0000000000000E+00
-0.9907122367799E+00 -0.3103332749209E+01  0.0000000000000E+00
-0.9907541330450E+00 -0.3032702664530E+01  0.0000000000000E+00
-0.9907960292559E+00 -0.2962072671278E+01  0.0000000000000E+00
-0.9909116390403E+00 -0.2891442711229E+01  0.0000000000000E+00
-0.9915479085496E+00 -0.2820816235028E+01  0.0000000000000E+00
-0.9931900312463E+00 -0.2750210009053E+01  0.0000000000000E+00
-0.9961295262075E+00 -0.2679655841074E+01  0.0000000000000E+00
-0.1000480665275E+01 -0.2609192045601E+01  0.0000000000000E+00
-0.1006256349991E+01 -0.2538855349374E+01  0.0000000000000E+00
-0.1013430370667E+01 -0.2468678712937E+01  0.0000000000000E+00
-0.1021973084167E+01 -0.2398693239047E+01  0.0000000000000E+00
-0.1031869847265E+01 -0.2328930200265E+01  0.0000000000000E+00
-0.1043131338593E+01 -0.2259425820705E+01  0.0000000000000E+00
-0.1055802155392E+01 -0.2190224925383E+01  0.0000000000000E+00
-0.1069899467351E+01 -0.2121369059769E+01  0.0000000000000E+00
-0.1085335809584E+01 -0.2052872465477E+01  0.0000000000000E+00
-0.1102045958354E+01 -0.1984750065613E+01  0.0000000000000E+00
-0.1119998622005E+01 -0.1917023637028E+01  0.0000000000000E+00
-0.1139192776541E+01 -0.1849723912900E+01  0.0000000000000E+00
-0.1159657742613E+01 -0.1782893774755E+01  0.0000000000000E+00
-0.1181456943232E+01 -0.1716593663690E+01  0.0000000000000E+00
-0.1204697464179E+01 -0.1650908080416E+01  0.0000000000000E+00
-0.1229545737291E+01 -0.1585964393460E+01  0.0000000000000E+00
-0.1256261674990E+01 -0.1521955726426E+01  0.0000000000000E+00
-0.9625490307744E+00 -0.4233208934242E+01  0.0000000000000E+00
-0.9625980615051E+00 -0.4162373283074E+01  0.0000000000000E+00
-0.9626470923282E+00 -0.4091537498405E+01  0.0000000000000E+00
-0.9626961231939E+00 -0.4020701652163E+01  0.0000000000000E+00
-0.9627451539950E+00 -0.3949865899364E+01  0.0000000000000E+00
-0.9627941847868E+00 -0.3879030159854E+01  0.0000000000000E+00
-0.9628432155849E+00 -0.3808194411344E+01  0.0000000000000E+00
-0.9628922463903E+00 -0.3737358652146E+01  0.0000000000000E+00
-0.9629412771919E+00 -0.3666522898516E+01  0.0000000000000E+00
-0.9629903079942E+00 -0.3595687143916E+01  0.0000000000000E+00
-0.9630393388858E+00 -0.3524851260352E+01  0.0000000000000E+00
-0.9630883696240E+00 -0.3454015598284E+01  0.0000000000000E+00
-0.9631374005082E+00 -0.3383179725279E+01  0.0000000000000E+00
-0.9631864321153E+00 -0.3312342807951E+01  0.0000000000000E+00
-0.9632354621009E+00 -0.3241508233216E+01  0.0000000000000E+00
-0.9632844927670E+00 -0.3170672675440E+01  0.0000000000000E+00
-0.9633335235729E+00 -0.3099836915539E+01  0.0000000000000E+00
-0.9633825543526E+00 -0.3029001193664E+01  0.0000000000000E+00
-0.9634315850687E+00 -0.2958165563482E+01  0.0000000000000E+00
-0.9635522704534E+00 -0.2887329966460E+01  0.0000000000000E+00
-0.9641790728768E+00 -0.2816497854456E+01  0.0000000000000E+00
-0.9657836337437E+00 -0.2745685994687E+01  0.0000000000000E+00
-0.9686493297033E+00 -0.2674926193857E+01  0.0000000000000E+00
-0.9728872408782E+00 -0.2604256765783E+01  0.0000000000000E+00
-0.9785099084739E+00 -0.2533714436761E+01  0.0000000000000E+00
-0.9854918548825E+00 -0.2463332166997E+01  0.0000000000000E+00
-0.9938042649014E+00 -0.2393141060067E+01  0.0000000000000E+00
-0.1003432904341E+01 -0.2323172387757E+01  0.0000000000000E+00
-0.1014388153526E+01 -0.2253462375149E+01  0.0000000000000E+00
-0.1026713364044E+01 -0.2184055847255E+01  0.0000000000000E+00
-0.1040425226048E+01 -0.2114994348714E+01  0.0000000000000E+00
-0.1055438717652E+01 -0.2046292121059E+01  0.0000000000000E+00
-0.1071690436889E+01 -0.1977964087595E+01  0.0000000000000E+00
-0.1089149966106E+01 -0.1910032025335E+01  0.0000000000000E+00
-0.1107816309908E+01 -0.1842526667508E+01  0.0000000000000E+00
-0.1127717969982E+01 -0.1775490895749E+01  0.0000000000000E+00
-0.1148916597798E+01 -0.1708985152681E+01  0.0000000000000E+00
-0.1171516288212E+01 -0.1643093936327E+01  0.0000000000000E+00
-0.1195678824192E+01 -0.1577944620960E+01  0.0000000000000E+00
-0.1221656858605E+01 -0.1513730327639E+01  0.0000000000000E+00
-0.9350548857341E+00 -0.4233008749201E+01  0.0000000000000E+00
-0.9351097714192E+00 -0.4161972913172E+01  0.0000000000000E+00
-0.9351646572077E+00 -0.4090936943265E+01  0.0000000000000E+00
-0.9352195430440E+00 -0.4019900911610E+01  0.0000000000000E+00
-0.9352744288078E+00 -0.3948864973661E+01  0.0000000000000E+00
-0.9353293145614E+00 -0.3877829049040E+01  0.0000000000000E+00
-0.9353842003219E+00 -0.3806793115393E+01  0.0000000000000E+00
-0.9354390860907E+00 -0.3735757171028E+01  0.0000000000000E+00
-0.9354939718552E+00 -0.3664721232247E+01  0.0000000000000E+00
-0.9355488576204E+00 -0.3593685292493E+01  0.0000000000000E+00
-0.9356037434856E+00 -0.3522649223411E+01  0.0000000000000E+00
-0.9356586291791E+00 -0.3451613376450E+01  0.0000000000000E+00
-0.9357135150361E+00 -0.3380577317956E+01  0.0000000000000E+00
-0.9357684017023E+00 -0.3309540212189E+01  0.0000000000000E+00
-0.9358232865533E+00 -0.3238505455634E+01  0.0000000000000E+00
-0.9358781721661E+00 -0.3167469713260E+01  0.0000000000000E+00
-0.9359330579354E+00 -0.3096433768190E+01  0.0000000000000E+00
-0.9359879436753E+00 -0.3025397861254E+01  0.0000000000000E+00
-0.9360428293441E+00 -0.2954362046269E+01  0.0000000000000E+00
-0.9361673107769E+00 -0.2883326264402E+01  0.0000000000000E+00
-0.9367833665756E+00 -0.2812293968694E+01  0.0000000000000E+00
-0.9383490860972E+00 -0.2741281927175E+01  0.0000000000000E+00
-0.9411397035599E+00 -0.2670321945513E+01  0.0000000000000E+00
-0.9452631073643E+00 -0.2599452336852E+01  0.0000000000000E+00
-0.9507314783757E+00 -0.2528709827051E+01  0.0000000000000E+00
-0.9575200710652E+00 -0.2458127375992E+01  0.0000000000000E+00
-0.9656008981693E+00 -0.2387736088047E+01  0.0000000000000E+00
-0.9749601345276E+00 -0.2317567234247E+01  0.0000000000000E+00
-0.9856078621643E+00 -0.2247657040614E+01  0.0000000000000E+00
-0.9975861870151E+00 -0.2178050332159E+01  0.0000000000000E+00
-0.1010911319691E+01 -0.2108788652715E+01  0.0000000000000E+00
-0.1025500681307E+01 -0.2039886243729E+01  0.0000000000000E+00
-0.1041292691662E+01 -0.1971358028703E+01  0.0000000000000E+00
-0.1058257807111E+01 -0.1903225784809E+01  0.0000000000000E+00
-0.1076395060859E+01 -0.1835520245327E+01  0.0000000000000E+00
-0.1095732135628E+01 -0.1768284291992E+01  0.0000000000000E+00
-0.1116328911357E+01 -0.1701578368917E+01  0.0000000000000E+00
-0.1138286491965E+01 -0.1635486971509E+01  0.0000000000000E+00
-0.1161762011589E+01 -0.1570137479634E+01  0.0000000000000E+00
-0.1187000863524E+01 -0.1505723011870E+01  0.0000000000000E+00
-0.9075594888834E+00 -0.4232814047965E+01  0.0000000000000E+00
-0.9076189777137E+00 -0.4161583510873E+01  0.0000000000000E+00
-0.9076784666562E+00 -0.4090352839537E+01  0.0000000000000E+00
-0.9077379556503E+00 -0.4019122106283E+01  0.0000000000000E+00
-0.9077974445660E+00 -0.3947891466993E+01  0.0000000000000E+00
-0.9078569334706E+00 -0.3876660841067E+01  0.0000000000000E+00
-0.9079164223826E+00 -0.3805430206090E+01  0.0000000000000E+00
-0.9079759113037E+00 -0.3734199560366E+01  0.0000000000000E+00
-0.9080354002201E+00 -0.3662968920241E+01  0.0000000000000E+00
-0.9080948891373E+00 -0.3591738279139E+01  0.0000000000000E+00
-0.9081543781628E+00 -0.3520507508356E+01  0.0000000000000E+00
-0.9082138670023E+00 -0.3449276960303E+01  0.0000000000000E+00
-0.9082733560189E+00 -0.3378046200137E+01  0.0000000000000E+00
-0.9083328459126E+00 -0.3306814389827E+01  0.0000000000000E+00
-0.9083923338389E+00 -0.3235584935169E+01  0.0000000000000E+00
-0.9084518225908E+00 -0.3164354491989E+01  0.0000000000000E+00
-0.9085113115124E+00 -0.3093123845558E+01  0.0000000000000E+00
-0.9085708004021E+00 -0.3021893237364E+01  0.0000000000000E+00
-0.9086302892149E+00 -0.2950662721375E+01  0.0000000000000E+00
-0.9087573148855E+00 -0.2879432238462E+01  0.0000000000000E+00
-0.9093613722480E+00 -0.2808205242816E+01  0.0000000000000E+00
-0.9108869986093E+00 -0.2736998503262E+01  0.0000000000000E+00
-0.9136012857450E+00 -0.2665843824457E+01  0.0000000000000E+00
-0.9176089303279E+00 -0.2594779518890E+01  0.0000000000000E+00
-0.9229217528804E+00 -0.2523842311999E+01  0.0000000000000E+00
-0.9295157399506E+00 -0.2453065163345E+01  0.0000000000000E+00
-0.9373637322199E+00 -0.2382479178080E+01  0.0000000000000E+00
-0.9464523135519E+00 -0.2312115626497E+01  0.0000000000000E+00
-0.9567912676773E+00 -0.2242010735533E+01  0.0000000000000E+00
-0.9684214548780E+00 -0.2172209330199E+01  0.0000000000000E+00
-0.9813586062191E+00 -0.2102752953541E+01  0.0000000000000E+00
-0.9955225858144E+00 -0.2033655846927E+01  0.0000000000000E+00
-0.1010853635234E+01 -0.1964932934049E+01  0.0000000000000E+00
-0.1027323084841E+01 -0.1896605992232E+01  0.0000000000000E+00
-0.1044929996441E+01 -0.1828705754805E+01  0.0000000000000E+00
-0.1063701233792E+01 -0.1761275103603E+01  0.0000000000000E+00
-0.1083694905311E+01 -0.1694374484189E+01  0.0000000000000E+00
-0.1105009123960E+01 -0.1628088389422E+01  0.0000000000000E+00
-0.1127796375076E+01 -0.1562544204608E+01  0.0000000000000E+00
-0.1152294792365E+01 -0.1497935045915E+01  0.0000000000000E+00
-0.8800628705364E+00 -0.4232624862121E+01  0.0000000000000E+00
-0.8801257410166E+00 -0.4161205139353E+01  0.0000000000000E+00
-0.8801886116154E+00 -0.4089785281985E+01  0.0000000000000E+00
-0.8802514822688E+00 -0.4018365362534E+01  0.0000000000000E+00
-0.8803143528392E+00 -0.3946945537297E+01  0.0000000000000E+00
-0.8803772233979E+00 -0.3875525725460E+01  0.0000000000000E+00
-0.8804400939646E+00 -0.3804105904547E+01  0.0000000000000E+00
-0.8805029645407E+00 -0.3732686072859E+01  0.0000000000000E+00
-0.8805658351119E+00 -0.3661266246784E+01  0.0000000000000E+00
-0.8806287056840E+00 -0.3589846419731E+01  0.0000000000000E+00
-0.8806915763705E+00 -0.3518426462652E+01  0.0000000000000E+00
-0.8807544468605E+00 -0.3447006728894E+01  0.0000000000000E+00
-0.8808173175376E+00 -0.3375586782460E+01  0.0000000000000E+00
-0.8808801891417E+00 -0.3304165783093E+01  0.0000000000000E+00
-0.8809430586665E+00 -0.3232747145634E+01  0.0000000000000E+00
-0.8810059290639E+00 -0.3161327517028E+01  0.0000000000000E+00
-0.8810687996407E+00 -0.3089907684630E+01  0.0000000000000E+00
-0.8811316701837E+00 -0.3018487890573E+01  0.0000000000000E+00
-0.8811945406453E+00 -0.2947068188964E+01  0.0000000000000E+00
-0.8813228890586E+00 -0.2875648520392E+01  0.0000000000000E+00
-0.8819137264959E+00 -0.2804232340163E+01  0.0000000000000E+00
-0.8833980382182E+00 -0.2732836417874E+01  0.0000000000000E+00
-0.8860347735525E+00 -0.2661492557202E+01  0.0000000000000E+00
-0.8899254374389E+00 -0.2590239069998E+01  0.0000000000000E+00
-0.8950814900544E+00 -0.2519112681292E+01  0.0000000000000E+00
-0.9014796500221E+00 -0.2448146350332E+01  0.0000000000000E+00
-0.9090935859732E+00 -0.2377371183027E+01  0.0000000000000E+00
-0.9179102907911E+00 -0.2306818448954E+01  0.0000000000000E+00
-0.9279392499182E+00 -0.2236524375941E+01  0.0000000000000E+00
-0.9392200779827E+00 -0.2166533788996E+01  0.0000000000000E+00
-0.9517680264986E+00 -0.2096888230403E+01  0.0000000000000E+00
-0.9655054025790E+00 -0.2027601941450E+01  0.0000000000000E+00
-0.9803742695659E+00 -0.1958689846016E+01  0.0000000000000E+00
-0.9963468318319E+00 -0.1890173721573E+01  0.0000000000000E+00
-0.1013422179782E+01 -0.1822084301500E+01  0.0000000000000E+00
-0.1031626358213E+01 -0.1754464467729E+01  0.0000000000000E+00
-0.1051015704027E+01 -0.1687374667227E+01  0.0000000000000E+00
-0.1071685339213E+01 -0.1620899390382E+01  0.0000000000000E+00
-0.1093783100342E+01 -0.1555166027787E+01  0.0000000000000E+00
-0.1117539861519E+01 -0.1490367693265E+01  0.0000000000000E+00
-0.8525650613475E+00 -0.4232441222540E+01  0.0000000000000E+00
-0.8526301226369E+00 -0.4160837860356E+01  0.0000000000000E+00
-0.8526951840489E+00 -0.4089234363225E+01  0.0000000000000E+00
-0.8527602455175E+00 -0.4017630803852E+01  0.0000000000000E+00
-0.8528253069002E+00 -0.3946027338935E+01  0.0000000000000E+00
-0.8528903682708E+00 -0.3874423887452E+01  0.0000000000000E+00
-0.8529554296496E+00 -0.3802820426871E+01  0.0000000000000E+00
-0.8530204910382E+00 -0.3731216955486E+01  0.0000000000000E+00
-0.8530855524217E+00 -0.3659613489729E+01  0.0000000000000E+00
-0.8531506138061E+00 -0.3588010022991E+01  0.0000000000000E+00
-0.8532156753090E+00 -0.3516406425893E+01  0.0000000000000E+00
-0.8532807366084E+00 -0.3444803052690E+01  0.0000000000000E+00
-0.8533457981016E+00 -0.3373199466264E+01  0.0000000000000E+00
-0.8534108605539E+00 -0.3301594824198E+01  0.0000000000000E+00
-0.8534759208546E+00 -0.3229992550113E+01  0.0000000000000E+00
-0.8535409820583E+00 -0.3158389282333E+01  0.0000000000000E+00
-0.8536060434475E+00 -0.3086785810237E+01  0.0000000000000E+00
-0.8536711048019E+00 -0.3015182376580E+01  0.0000000000000E+00
-0.8537361660720E+00 -0.2943579035609E+01  0.0000000000000E+00
-0.8538646463877E+00 -0.2871975727635E+01  0.0000000000000E+00
-0.8544410730703E+00 -0.2800375909051E+01  0.0000000000000E+00
-0.8558828793436E+00 -0.2728796350200E+01  0.0000000000000E+00
-0.8584408720812E+00 -0.2657268853809E+01  0.0000000000000E+00
-0.8622133644880E+00 -0.2585831731108E+01  0.0000000000000E+00
-0.8672114563930E+00 -0.2514521706732E+01  0.0000000000000E+00
-0.8734125984922E+00 -0.2443371739627E+01  0.0000000000000E+00
-0.8807912873710E+00 -0.2372412936434E+01  0.0000000000000E+00
-0.8893349249278E+00 -0.2301676566038E+01  0.0000000000000E+00
-0.8990526983227E+00 -0.2231198857128E+01  0.0000000000000E+00
-0.9099829765306E+00 -0.2161024634712E+01  0.0000000000000E+00
-0.9221405315093E+00 -0.2091195440332E+01  0.0000000000000E+00
-0.9354501133705E+00 -0.2021725515203E+01  0.0000000000000E+00
-0.9498556072284E+00 -0.1952629783379E+01  0.0000000000000E+00
-0.9653300914659E+00 -0.1883930022482E+01  0.0000000000000E+00
-0.9818726850887E+00 -0.1815656965932E+01  0.0000000000000E+00
-0.9995086139303E+00 -0.1747853495759E+01  0.0000000000000E+00
-0.1018292443390E+01 -0.1680580060295E+01  0.0000000000000E+00
-0.1038316304469E+01 -0.1613921147526E+01  0.0000000000000E+00
-0.1059723385008E+01 -0.1548004153177E+01  0.0000000000000E+00
-0.1082737299492E+01 -0.1483022188796E+01  0.0000000000000E+00
-0.8250660920538E+00 -0.4232263159309E+01  0.0000000000000E+00
-0.8251321840486E+00 -0.4160481734051E+01  0.0000000000000E+00
-0.8251982761680E+00 -0.4088700173511E+01  0.0000000000000E+00
-0.8252643683448E+00 -0.4016918550576E+01  0.0000000000000E+00
-0.8253304604344E+00 -0.3945137022330E+01  0.0000000000000E+00
-0.8253965525117E+00 -0.3873355507552E+01  0.0000000000000E+00
-0.8254626445973E+00 -0.3801573983653E+01  0.0000000000000E+00
-0.8255287366929E+00 -0.3729792448923E+01  0.0000000000000E+00
-0.8255948287833E+00 -0.3658010919836E+01  0.0000000000000E+00
-0.8256609208746E+00 -0.3586229389765E+01  0.0000000000000E+00
-0.8257270130863E+00 -0.3514447729009E+01  0.0000000000000E+00
-0.8257931050913E+00 -0.3442666292706E+01  0.0000000000000E+00
-0.8258591972930E+00 -0.3370884642650E+01  0.0000000000000E+00
-0.8259252904692E+00 -0.3299101934328E+01  0.0000000000000E+00
-0.8259913814597E+00 -0.3227321599875E+01  0.0000000000000E+00
-0.8260574733674E+00 -0.3155540269257E+01  0.0000000000000E+00
-0.8261235654636E+00 -0.3083758733815E+01  0.0000000000000E+00
-0.8261896575244E+00 -0.3011977236907E+01  0.0000000000000E+00
-0.8262557494996E+00 -0.2940195832915E+01  0.0000000000000E+00
-0.8263832016146E+00 -0.2868414461884E+01  0.0000000000000E+00
-0.8269440574487E+00 -0.2796636581256E+01  0.0000000000000E+00
-0.8283421981958E+00 -0.2724878962100E+01  0.0000000000000E+00
-0.8308202882722E+00 -0.2653173406220E+01  0.0000000000000E+00
-0.8344734491439E+00 -0.2581558224248E+01  0.0000000000000E+00
-0.8393124202894E+00 -0.2510070140431E+01  0.0000000000000E+00
-0.8453153844756E+00 -0.2438742113425E+01  0.0000000000000E+00
-0.8524576662468E+00 -0.2367605250581E+01  0.0000000000000E+00
-0.8607270765120E+00 -0.2296690820111E+01  0.0000000000000E+00
-0.8701325041541E+00 -0.2226035051540E+01  0.0000000000000E+00
-0.8807110724950E+00 -0.2155682769878E+01  0.0000000000000E+00
-0.8924770739321E+00 -0.2085675515945E+01  0.0000000000000E+00
-0.9053577015745E+00 -0.2016027530883E+01  0.0000000000000E+00
-0.9192986623094E+00 -0.1946753738922E+01  0.0000000000000E+00
-0.9342739085305E+00 -0.1877875917823E+01  0.0000000000000E+00
-0.9502825878444E+00 -0.1809424801052E+01  0.0000000000000E+00
-0.9673491071235E+00 -0.1741443270728E+01  0.0000000000000E+00
-0.9855262602718E+00 -0.1673991776510E+01  0.0000000000000E+00
-0.1004903187288E+01 -0.1607154804054E+01  0.0000000000000E+00
-0.1025618427315E+01 -0.1541059754062E+01  0.0000000000000E+00
-0.1047888335209E+01 -0.1475899735876E+01  0.0000000000000E+00
-0.7975659939323E+00 -0.4232090701822E+01  0.0000000000000E+00
-0.7976319878057E+00 -0.4160136819232E+01  0.0000000000000E+00
-0.7976979818034E+00 -0.4088182801034E+01  0.0000000000000E+00
-0.7977639758586E+00 -0.4016228720290E+01  0.0000000000000E+00
-0.7978299698266E+00 -0.3944274734464E+01  0.0000000000000E+00
-0.7978959637823E+00 -0.3872320762138E+01  0.0000000000000E+00
-0.7979619577464E+00 -0.3800366780669E+01  0.0000000000000E+00
-0.7980279517205E+00 -0.3728412788344E+01  0.0000000000000E+00
-0.7980939456893E+00 -0.3656458801674E+01  0.0000000000000E+00
-0.7981599396591E+00 -0.3584504814019E+01  0.0000000000000E+00
-0.7982259337490E+00 -0.3512550695365E+01  0.0000000000000E+00
-0.7982919276325E+00 -0.3440596801702E+01  0.0000000000000E+00
-0.7983579217126E+00 -0.3368642693773E+01  0.0000000000000E+00
-0.7984239167656E+00 -0.3296687525035E+01  0.0000000000000E+00
-0.7984899096361E+00 -0.3224734735871E+01  0.0000000000000E+00
-0.7985559034225E+00 -0.3152780948147E+01  0.0000000000000E+00
-0.7986218973972E+00 -0.3080826955107E+01  0.0000000000000E+00
-0.7986878913365E+00 -0.3008873000694E+01  0.0000000000000E+00
-0.7987538851903E+00 -0.2936919139421E+01  0.0000000000000E+00
-0.7988791802779E+00 -0.2864965311072E+01  0.0000000000000E+00
-0.7994233364446E+00 -0.2793014974107E+01  0.0000000000000E+00
-0.8007766828600E+00 -0.2721084900299E+01  0.0000000000000E+00
-0.8031737414778E+00 -0.2649206890558E+01  0.0000000000000E+00
-0.8067064420217E+00 -0.2577419254934E+01  0.0000000000000E+00
-0.8113851636173E+00 -0.2505758717304E+01  0.0000000000000E+00
-0.8171888211005E+00 -0.2434258236037E+01  0.0000000000000E+00
-0.8240935669787E+00 -0.2362948919174E+01  0.0000000000000E+00
-0.8320876211673E+00 -0.2291862034276E+01  0.0000000000000E+00
-0.8411795742777E+00 -0.2221033811677E+01  0.0000000000000E+00
-0.8514053039785E+00 -0.2150509076388E+01  0.0000000000000E+00
-0.8627786231021E+00 -0.2080329368531E+01  0.0000000000000E+00
-0.8752291677545E+00 -0.2010508929178E+01  0.0000000000000E+00
-0.8887044665969E+00 -0.1941062682728E+01  0.0000000000000E+00
-0.9031793460348E+00 -0.1872012407076E+01  0.0000000000000E+00
-0.9186529822757E+00 -0.1803388835734E+01  0.0000000000000E+00
-0.9351489632314E+00 -0.1735234850908E+01  0.0000000000000E+00
-0.9527183113194E+00 -0.1667610903540E+01  0.0000000000000E+00
-0.9714471755213E+00 -0.1600601477032E+01  0.0000000000000E+00
-0.9914694463155E+00 -0.1534333976903E+01  0.0000000000000E+00
-0.1012994218913E+01 -0.1469001510359E+01  0.0000000000000E+00
-0.7700647981096E+00 -0.4231923878620E+01  0.0000000000000E+00
-0.7701295961614E+00 -0.4159803172976E+01  0.0000000000000E+00
-0.7701943943354E+00 -0.4087682331411E+01  0.0000000000000E+00
-0.7702591925656E+00 -0.4015561427154E+01  0.0000000000000E+00
-0.7703239907104E+00 -0.3943440618035E+01  0.0000000000000E+00
-0.7703887888430E+00 -0.3871319822448E+01  0.0000000000000E+00
-0.7704535869839E+00 -0.3799199017697E+01  0.0000000000000E+00
-0.7705183851345E+00 -0.3727078202063E+01  0.0000000000000E+00
-0.7705831832801E+00 -0.3654957392099E+01  0.0000000000000E+00
-0.7706479814265E+00 -0.3582836581146E+01  0.0000000000000E+00
-0.7707127796909E+00 -0.3510715638892E+01  0.0000000000000E+00
-0.7707775777527E+00 -0.3438594922150E+01  0.0000000000000E+00
-0.7708423760074E+00 -0.3366473990645E+01  0.0000000000000E+00
-0.7709071752175E+00 -0.3294351995872E+01  0.0000000000000E+00
-0.7709719722846E+00 -0.3222232386190E+01  0.0000000000000E+00
-0.7710367702510E+00 -0.3150111775632E+01  0.0000000000000E+00
-0.7711015684022E+00 -0.3077990959283E+01  0.0000000000000E+00
-0.7711663665187E+00 -0.3005870181650E+01  0.0000000000000E+00
-0.7712311645513E+00 -0.2933749497373E+01  0.0000000000000E+00
-0.7713532049104E+00 -0.2861628845984E+01  0.0000000000000E+00
-0.7718795637062E+00 -0.2789511686930E+01  0.0000000000000E+00
-0.7731870180811E+00 -0.2717414792663E+01  0.0000000000000E+00
-0.7755019475157E+00 -0.2645369963226E+01  0.0000000000000E+00
-0.7789130899857E+00 -0.2573415508111E+01  0.0000000000000E+00
-0.7834304642614E+00 -0.2501588150830E+01  0.0000000000000E+00
-0.7890337172463E+00 -0.2429920849482E+01  0.0000000000000E+00
-0.7956998294157E+00 -0.2358444712771E+01  0.0000000000000E+00
-0.8034174296876E+00 -0.2287191007629E+01  0.0000000000000E+00
-0.8121948104066E+00 -0.2216195965175E+01  0.0000000000000E+00
-0.8220666035875E+00 -0.2145504410416E+01  0.0000000000000E+00
-0.8330461424932E+00 -0.2075157882804E+01  0.0000000000000E+00
-0.8450655062273E+00 -0.2005170623341E+01  0.0000000000000E+00
-0.8580740452271E+00 -0.1935557556587E+01  0.0000000000000E+00
-0.8720474599112E+00 -0.1866340460572E+01  0.0000000000000E+00
-0.8869849550885E+00 -0.1797550068848E+01  0.0000000000000E+00
-0.9029092997104E+00 -0.1729229263707E+01  0.0000000000000E+00
-0.9198697447146E+00 -0.1661438497332E+01  0.0000000000000E+00
-0.9379494480500E+00 -0.1594262250943E+01  0.0000000000000E+00
-0.9572776515575E+00 -0.1527827934722E+01  0.0000000000000E+00
-0.9780561907860E+00 -0.1462328653807E+01  0.0000000000000E+00
-0.7425625381275E+00 -0.4231762717925E+01  0.0000000000000E+00
-0.7426250761992E+00 -0.4159480851731E+01  0.0000000000000E+00
-0.7426876143887E+00 -0.4087198849311E+01  0.0000000000000E+00
-0.7427501526326E+00 -0.4014916784060E+01  0.0000000000000E+00
-0.7428126907940E+00 -0.3942634814159E+01  0.0000000000000E+00
-0.7428752289437E+00 -0.3870352857819E+01  0.0000000000000E+00
-0.7429377671013E+00 -0.3798070892296E+01  0.0000000000000E+00
-0.7430003052684E+00 -0.3725788915866E+01  0.0000000000000E+00
-0.7430628434305E+00 -0.3653506945118E+01  0.0000000000000E+00
-0.7431253815935E+00 -0.3581224973379E+01  0.0000000000000E+00
-0.7431879198704E+00 -0.3508942870045E+01  0.0000000000000E+00
-0.7432504579517E+00 -0.3436660992727E+01  0.0000000000000E+00
-0.7433129962192E+00 -0.3364378900167E+01  0.0000000000000E+00
-0.7433755354087E+00 -0.3292095741962E+01  0.0000000000000E+00
-0.7434380725301E+00 -0.3219814974178E+01  0.0000000000000E+00
-0.7435006105193E+00 -0.3147533203282E+01  0.0000000000000E+00
-0.7435631486870E+00 -0.3075251226135E+01  0.0000000000000E+00
-0.7436256868211E+00 -0.3002969287790E+01  0.0000000000000E+00
-0.7436882248742E+00 -0.2930687443010E+01  0.0000000000000E+00
-0.7438059463465E+00 -0.2858405631084E+01  0.0000000000000E+00
-0.7443134436217E+00 -0.2786127312410E+01  0.0000000000000E+00
-0.7455739418209E+00 -0.2713869260097E+01  0.0000000000000E+00
-0.7478056779474E+00 -0.2641663273355E+01  0.0000000000000E+00
-0.7510941982260E+00 -0.2569547661129E+01  0.0000000000000E+00
-0.7554491610694E+00 -0.2497559146585E+01  0.0000000000000E+00
-0.7608509454467E+00 -0.2425730687557E+01  0.0000000000000E+00
-0.7672773598055E+00 -0.2354093393392E+01  0.0000000000000E+00
-0.7747174420619E+00 -0.2282678530414E+01  0.0000000000000E+00
-0.7831791862991E+00 -0.2211522330498E+01  0.0000000000000E+00
-0.7926959788783E+00 -0.2140669618651E+01  0.0000000000000E+00
-0.8032806734883E+00 -0.2070161933674E+01  0.0000000000000E+00
-0.8148677922298E+00 -0.2000013516502E+01  0.0000000000000E+00
-0.8274085073170E+00 -0.1930239291855E+01  0.0000000000000E+00
-0.8408793931821E+00 -0.1860861037888E+01  0.0000000000000E+00
-0.8552796832357E+00 -0.1791909488193E+01  0.0000000000000E+00
-0.8706313274695E+00 -0.1723427525147E+01  0.0000000000000E+00
-0.8869818053497E+00 -0.1655475602130E+01  0.0000000000000E+00
-0.9044112837790E+00 -0.1588138198255E+01  0.0000000000000E+00
-0.9230443559913E+00 -0.1521542728208E+01  0.0000000000000E+00
-0.9430755978615E+00 -0.1455882295130E+01  0.0000000000000E+00
-0.7150592470639E+00 -0.4231607246974E+01  0.0000000000000E+00
-0.7151184940750E+00 -0.4159169909968E+01  0.0000000000000E+00
-0.7151777411977E+00 -0.4086732436442E+01  0.0000000000000E+00
-0.7152369883719E+00 -0.4014294899951E+01  0.0000000000000E+00
-0.7152962354680E+00 -0.3941857459014E+01  0.0000000000000E+00
-0.7153554825529E+00 -0.3869420031669E+01  0.0000000000000E+00
-0.7154147296454E+00 -0.3796982595119E+01  0.0000000000000E+00
-0.7154739767468E+00 -0.3724545147640E+01  0.0000000000000E+00
-0.7155332238436E+00 -0.3652107705855E+01  0.0000000000000E+00
-0.7155924709412E+00 -0.3579670263077E+01  0.0000000000000E+00
-0.7156517181466E+00 -0.3507232688420E+01  0.0000000000000E+00
-0.7157109651668E+00 -0.3434795340266E+01  0.0000000000000E+00
-0.7157702123634E+00 -0.3362357776407E+01  0.0000000000000E+00
-0.7158294604335E+00 -0.3289919144611E+01  0.0000000000000E+00
-0.7158887065442E+00 -0.3217482908377E+01  0.0000000000000E+00
-0.7159479534771E+00 -0.3145045666874E+01  0.0000000000000E+00
-0.7160072005791E+00 -0.3072608218676E+01  0.0000000000000E+00
-0.7160664476493E+00 -0.3000170809363E+01  0.0000000000000E+00
-0.7161256946429E+00 -0.2927733493817E+01  0.0000000000000E+00
-0.7162380661482E+00 -0.2855296211092E+01  0.0000000000000E+00
-0.7167256708301E+00 -0.2782862422504E+01  0.0000000000000E+00
-0.7179381817940E+00 -0.2710448901796E+01  0.0000000000000E+00
-0.7200856935616E+00 -0.2638087447371E+01  0.0000000000000E+00
-0.7232505606037E+00 -0.2565816367651E+01  0.0000000000000E+00
-0.7274420809730E+00 -0.2493672385468E+01  0.0000000000000E+00
-0.7326413657027E+00 -0.2421688458397E+01  0.0000000000000E+00
-0.7388270512163E+00 -0.2349895696407E+01  0.0000000000000E+00
-0.7459885844246E+00 -0.2278325365235E+01  0.0000000000000E+00
-0.7541336611539E+00 -0.2207013697486E+01  0.0000000000000E+00
-0.7632944221120E+00 -0.2136005518168E+01  0.0000000000000E+00
-0.7734832414096E+00 -0.2065342365452E+01  0.0000000000000E+00
-0.7846370841437E+00 -0.1995038480210E+01  0.0000000000000E+00
-0.7967089443062E+00 -0.1925108787314E+01  0.0000000000000E+00
-0.8096762703438E+00 -0.1855575065041E+01  0.0000000000000E+00
-0.8235383242689E+00 -0.1786468047024E+01  0.0000000000000E+00
-0.8383162371141E+00 -0.1717830615718E+01  0.0000000000000E+00
-0.8540557168821E+00 -0.1649723225659E+01  0.0000000000000E+00
-0.8708339394160E+00 -0.1582230353929E+01  0.0000000000000E+00
-0.8887708493720E+00 -0.1515479419557E+01  0.0000000000000E+00
-0.9080537629396E+00 -0.1449663523759E+01  0.0000000000000E+00
-0.6875549585543E+00 -0.4231457492231E+01  0.0000000000000E+00
-0.6876099170595E+00 -0.4158870400615E+01  0.0000000000000E+00
-0.6876648756684E+00 -0.4086283172198E+01  0.0000000000000E+00
-0.6877198343249E+00 -0.4013695880685E+01  0.0000000000000E+00
-0.6877747929090E+00 -0.3941108684925E+01  0.0000000000000E+00
-0.6878297514828E+00 -0.3868521502783E+01  0.0000000000000E+00
-0.6878847100636E+00 -0.3795934311418E+01  0.0000000000000E+00
-0.6879396686527E+00 -0.3723347109101E+01  0.0000000000000E+00
-0.6879946272374E+00 -0.3650759912490E+01  0.0000000000000E+00
-0.6880495858229E+00 -0.3578172714884E+01  0.0000000000000E+00
-0.6881045445085E+00 -0.3505585385126E+01  0.0000000000000E+00
-0.6881595030222E+00 -0.3432998282340E+01  0.0000000000000E+00
-0.6882144616995E+00 -0.3360410963403E+01  0.0000000000000E+00
-0.6882694211871E+00 -0.3287822574321E+01  0.0000000000000E+00
-0.6883243788572E+00 -0.3215236585753E+01  0.0000000000000E+00
-0.6883793372900E+00 -0.3142649589838E+01  0.0000000000000E+00
-0.6884342958796E+00 -0.3070062386801E+01  0.0000000000000E+00
-0.6884892544397E+00 -0.2997475222730E+01  0.0000000000000E+00
-0.6885442129287E+00 -0.2924888152618E+01  0.0000000000000E+00
-0.6886502370222E+00 -0.2852301115297E+01  0.0000000000000E+00
-0.6891169516725E+00 -0.2779717572965E+01  0.0000000000000E+00
-0.6902804779749E+00 -0.2707154299975E+01  0.0000000000000E+00
-0.6923427679648E+00 -0.2634643093955E+01  0.0000000000000E+00
-0.6953829843556E+00 -0.2562222262823E+01  0.0000000000000E+00
-0.6994100648383E+00 -0.2489928529086E+01  0.0000000000000E+00
-0.7044058525081E+00 -0.2417794850073E+01  0.0000000000000E+00
-0.7103498117688E+00 -0.2345852336351E+01  0.0000000000000E+00
-0.7172317985216E+00 -0.2274132253092E+01  0.0000000000000E+00
-0.7250592103409E+00 -0.2202670833605E+01  0.0000000000000E+00
-0.7338629422812E+00 -0.2131512902894E+01  0.0000000000000E+00
-0.7436548888710E+00 -0.2060699998530E+01  0.0000000000000E+00
-0.7543744582030E+00 -0.1990246361320E+01  0.0000000000000E+00
-0.7659764660477E+00 -0.1920166916283E+01  0.0000000000000E+00
-0.7784392348670E+00 -0.1850483441816E+01  0.0000000000000E+00
-0.7917620552753E+00 -0.1781226671587E+01  0.0000000000000E+00
-0.8059652393467E+00 -0.1712439488130E+01  0.0000000000000E+00
-0.8210927236280E+00 -0.1644182347095E+01  0.0000000000000E+00
-0.8372186928899E+00 -0.1576539723603E+01  0.0000000000000E+00
-0.8544584432393E+00 -0.1509639040870E+01  0.0000000000000E+00
-0.8729920311679E+00 -0.1443673398257E+01  0.0000000000000E+00
-0.6600497067773E+00 -0.4231313479365E+01  0.0000000000000E+00
-0.6600994135103E+00 -0.4158582375012E+01  0.0000000000000E+00
-0.6601491203370E+00 -0.4085851133586E+01  0.0000000000000E+00
-0.6601988272069E+00 -0.4013119828939E+01  0.0000000000000E+00
-0.6602485340112E+00 -0.3940388620235E+01  0.0000000000000E+00
-0.6602982408062E+00 -0.3867657425176E+01  0.0000000000000E+00
-0.6603479476074E+00 -0.3794926220876E+01  0.0000000000000E+00
-0.6603976544162E+00 -0.3722195005602E+01  0.0000000000000E+00
-0.6604473612211E+00 -0.3649463796046E+01  0.0000000000000E+00
-0.6604970680267E+00 -0.3576732585492E+01  0.0000000000000E+00
-0.6605467749228E+00 -0.3504001242525E+01  0.0000000000000E+00
-0.6605964816634E+00 -0.3431270126979E+01  0.0000000000000E+00
-0.6606461885521E+00 -0.3358538794853E+01  0.0000000000000E+00
-0.6606958961735E+00 -0.3285806390460E+01  0.0000000000000E+00
-0.6607456021512E+00 -0.3213076391343E+01  0.0000000000000E+00
-0.6607953088186E+00 -0.3140345382881E+01  0.0000000000000E+00
-0.6608450156279E+00 -0.3067614166885E+01  0.0000000000000E+00
-0.6608947224105E+00 -0.2994882989933E+01  0.0000000000000E+00
-0.6609444291288E+00 -0.2922151907127E+01  0.0000000000000E+00
-0.6610431425442E+00 -0.2849420857080E+01  0.0000000000000E+00
-0.6614880039029E+00 -0.2776693302843E+01  0.0000000000000E+00
-0.6626015822945E+00 -0.2703986019355E+01  0.0000000000000E+00
-0.6645776872636E+00 -0.2631330803497E+01  0.0000000000000E+00
-0.6674922897633E+00 -0.2558765962702E+01  0.0000000000000E+00
-0.6713539671204E+00 -0.2486328219165E+01  0.0000000000000E+00
-0.6761452944910E+00 -0.2414050529980E+01  0.0000000000000E+00
-0.6818465642625E+00 -0.2341964006289E+01  0.0000000000000E+00
-0.6884480413232E+00 -0.2270099912718E+01  0.0000000000000E+00
-0.6959568250001E+00 -0.2198494483253E+01  0.0000000000000E+00
-0.7044025646942E+00 -0.2127192542900E+01  0.0000000000000E+00
-0.7137966753483E+00 -0.2056235628645E+01  0.0000000000000E+00
-0.7240810080500E+00 -0.1985637981238E+01  0.0000000000000E+00
-0.7352122003494E+00 -0.1915414525839E+01  0.0000000000000E+00
-0.7471694487241E+00 -0.1845587040956E+01  0.0000000000000E+00
-0.7599520723911E+00 -0.1776186260296E+01  0.0000000000000E+00
-0.7735795644664E+00 -0.1707255066466E+01  0.0000000000000E+00
-0.7880940900479E+00 -0.1638853916186E+01  0.0000000000000E+00
-0.8035668428218E+00 -0.1571067282696E+01  0.0000000000000E+00
-0.8201084703724E+00 -0.1504022593235E+01  0.0000000000000E+00
-0.8378917694826E+00 -0.1437912945380E+01  0.0000000000000E+00
-0.6325435264408E+00 -0.4231175233227E+01  0.0000000000000E+00
-0.6325870528428E+00 -0.4158305882860E+01  0.0000000000000E+00
-0.6326305793268E+00 -0.4085436395159E+01  0.0000000000000E+00
-0.6326741058486E+00 -0.4012566844116E+01  0.0000000000000E+00
-0.6327176323130E+00 -0.3939697389199E+01  0.0000000000000E+00
-0.6327611587693E+00 -0.3866827947953E+01  0.0000000000000E+00
-0.6328046852310E+00 -0.3793958497448E+01  0.0000000000000E+00
-0.6328482116994E+00 -0.3721089035949E+01  0.0000000000000E+00
-0.6328917381643E+00 -0.3648219580177E+01  0.0000000000000E+00
-0.6329352646298E+00 -0.3575350123407E+01  0.0000000000000E+00
-0.6329787911746E+00 -0.3502480533972E+01  0.0000000000000E+00
-0.6330223175833E+00 -0.3429611172390E+01  0.0000000000000E+00
-0.6330658441215E+00 -0.3356741593817E+01  0.0000000000000E+00
-0.6331093713015E+00 -0.3283870940938E+01  0.0000000000000E+00
-0.6331528970420E+00 -0.3211002697907E+01  0.0000000000000E+00
-0.6331964233866E+00 -0.3138133443612E+01  0.0000000000000E+00
-0.6332399498554E+00 -0.3065263981390E+01  0.0000000000000E+00
-0.6332834763008E+00 -0.2992394558285E+01  0.0000000000000E+00
-0.6333270026899E+00 -0.2919525229505E+01  0.0000000000000E+00
-0.6334174768685E+00 -0.2846655933456E+01  0.0000000000000E+00
-0.6338395563828E+00 -0.2773790134003E+01  0.0000000000000E+00
-0.6349022583205E+00 -0.2700944606649E+01  0.0000000000000E+00
-0.6367912497310E+00 -0.2628151147559E+01  0.0000000000000E+00
-0.6395793098040E+00 -0.2555448063701E+01  0.0000000000000E+00
-0.6432746555003E+00 -0.2482872076970E+01  0.0000000000000E+00
-0.6478605940350E+00 -0.2410456144233E+01  0.0000000000000E+00
-0.6533182457832E+00 -0.2338231377183E+01  0.0000000000000E+00
-0.6596382846166E+00 -0.2266229039926E+01  0.0000000000000E+00
-0.6668275116189E+00 -0.2194485367097E+01  0.0000000000000E+00
-0.6749143305382E+00 -0.2123045183699E+01  0.0000000000000E+00
-0.6839096767271E+00 -0.2051950026162E+01  0.0000000000000E+00
-0.6937578442685E+00 -0.1981214135179E+01  0.0000000000000E+00
-0.7044172924922E+00 -0.1910852436044E+01  0.0000000000000E+00
-0.7158680918929E+00 -0.1840886707377E+01  0.0000000000000E+00
-0.7281095902899E+00 -0.1771347682916E+01  0.0000000000000E+00
-0.7411604618417E+00 -0.1702278245340E+01  0.0000000000000E+00
-0.7550611002044E+00 -0.1633738852398E+01  0.0000000000000E+00
-0.7698797079675E+00 -0.1565813975523E+01  0.0000000000000E+00
-0.7857222842192E+00 -0.1498631045816E+01  0.0000000000000E+00
-0.8027543660217E+00 -0.1432383159141E+01  0.0000000000000E+00
-0.6050364527661E+00 -0.4231042777827E+01  0.0000000000000E+00
-0.6050729054997E+00 -0.4158040972176E+01  0.0000000000000E+00
-0.6051093583019E+00 -0.4085039028943E+01  0.0000000000000E+00
-0.6051458111359E+00 -0.4012037022253E+01  0.0000000000000E+00
-0.6051822639217E+00 -0.3939035111863E+01  0.0000000000000E+00
-0.6052187167008E+00 -0.3866033215170E+01  0.0000000000000E+00
-0.6052551694844E+00 -0.3793031309200E+01  0.0000000000000E+00
-0.6052916222736E+00 -0.3720029392216E+01  0.0000000000000E+00
-0.6053280750599E+00 -0.3647027480971E+01  0.0000000000000E+00
-0.6053645278467E+00 -0.3574025568724E+01  0.0000000000000E+00
-0.6054009806998E+00 -0.3501023523572E+01  0.0000000000000E+00
-0.6054374334390E+00 -0.3428021706688E+01  0.0000000000000E+00
-0.6054738862868E+00 -0.3355019672416E+01  0.0000000000000E+00
-0.6055103396719E+00 -0.3282016561887E+01  0.0000000000000E+00
-0.6055467918515E+00 -0.3209015865587E+01  0.0000000000000E+00
-0.6055832445370E+00 -0.3136014156184E+01  0.0000000000000E+00
-0.6056196973266E+00 -0.3063012238476E+01  0.0000000000000E+00
-0.6056561500965E+00 -0.2990010359956E+01  0.0000000000000E+00
-0.6056926028193E+00 -0.2917008575933E+01  0.0000000000000E+00
-0.6057739444239E+00 -0.2844006824612E+01  0.0000000000000E+00
-0.6061723487616E+00 -0.2771008570642E+01  0.0000000000000E+00
-0.6071832809226E+00 -0.2698030590064E+01  0.0000000000000E+00
-0.6089842654561E+00 -0.2625104678358E+01  0.0000000000000E+00
-0.6116448897857E+00 -0.2552269142045E+01  0.0000000000000E+00
-0.6151730105041E+00 -0.2479560702734E+01  0.0000000000000E+00
-0.6195526668839E+00 -0.2407012317074E+01  0.0000000000000E+00
-0.6247658072915E+00 -0.2334655097287E+01  0.0000000000000E+00
-0.6308035145786E+00 -0.2262520306978E+01  0.0000000000000E+00
-0.6376722915901E+00 -0.2190644181405E+01  0.0000000000000E+00
-0.6453992964206E+00 -0.2119071545571E+01  0.0000000000000E+00
-0.6539949848298E+00 -0.2047843935370E+01  0.0000000000000E+00
-0.6634060938944E+00 -0.1976975591441E+01  0.0000000000000E+00
-0.6735929047258E+00 -0.1906481439207E+01  0.0000000000000E+00
-0.6845363618356E+00 -0.1836383257392E+01  0.0000000000000E+00
-0.6962358416462E+00 -0.1766711779769E+01  0.0000000000000E+00
-0.7087091993589E+00 -0.1697509889085E+01  0.0000000000000E+00
-0.7219950571948E+00 -0.1628838044074E+01  0.0000000000000E+00
-0.7361586266348E+00 -0.1560780714435E+01  0.0000000000000E+00
-0.7513012582960E+00 -0.1493465334972E+01  0.0000000000000E+00
-0.7675812295093E+00 -0.1427084999909E+01  0.0000000000000E+00
-0.5775285214724E+00 -0.4230916136309E+01  0.0000000000000E+00
-0.5775570429194E+00 -0.4157787689254E+01  0.0000000000000E+00
-0.5775855644201E+00 -0.4084659104378E+01  0.0000000000000E+00
-0.5776140859456E+00 -0.4011530455935E+01  0.0000000000000E+00
-0.5776426074335E+00 -0.3938401903959E+01  0.0000000000000E+00
-0.5776711289161E+00 -0.3865273365703E+01  0.0000000000000E+00
-0.5776996504022E+00 -0.3792144818156E+01  0.0000000000000E+00
-0.5777281718927E+00 -0.3719016259574E+01  0.0000000000000E+00
-0.5777566933810E+00 -0.3645887706741E+01  0.0000000000000E+00
-0.5777852148696E+00 -0.3572759152905E+01  0.0000000000000E+00
-0.5778137364101E+00 -0.3499630465933E+01  0.0000000000000E+00
-0.5778422578615E+00 -0.3426502007624E+01  0.0000000000000E+00
-0.5778707793978E+00 -0.3353373331552E+01  0.0000000000000E+00
-0.5778993013546E+00 -0.3280243577355E+01  0.0000000000000E+00
-0.5779278223681E+00 -0.3207116241575E+01  0.0000000000000E+00
-0.5779563437775E+00 -0.3133987890935E+01  0.0000000000000E+00
-0.5779848652682E+00 -0.3060859331627E+01  0.0000000000000E+00
-0.5780133867437E+00 -0.2987730811577E+01  0.0000000000000E+00
-0.5780419081822E+00 -0.2914602386187E+01  0.0000000000000E+00
-0.5781132595947E+00 -0.2841473993472E+01  0.0000000000000E+00
-0.5784871311427E+00 -0.2768349098829E+01  0.0000000000000E+00
-0.5794454359221E+00 -0.2695244478816E+01  0.0000000000000E+00
-0.5811575559778E+00 -0.2622191928255E+01  0.0000000000000E+00
-0.5836898869641E+00 -0.2549229753241E+01  0.0000000000000E+00
-0.5870499251040E+00 -0.2476394675110E+01  0.0000000000000E+00
-0.5912224417263E+00 -0.2403719650301E+01  0.0000000000000E+00
-0.5961902131919E+00 -0.2331235791543E+01  0.0000000000000E+00
-0.6019447313292E+00 -0.2258974361963E+01  0.0000000000000E+00
-0.6084922007484E+00 -0.2186971597412E+01  0.0000000000000E+00
-0.6158585338908E+00 -0.2115272322895E+01  0.0000000000000E+00
-0.6240537069192E+00 -0.2043918073793E+01  0.0000000000000E+00
-0.6330268999046E+00 -0.1972923090693E+01  0.0000000000000E+00
-0.6427402157399E+00 -0.1902302299143E+01  0.0000000000000E+00
-0.6531754729551E+00 -0.1832077477966E+01  0.0000000000000E+00
-0.6643320765753E+00 -0.1762279360967E+01  0.0000000000000E+00
-0.6762270628454E+00 -0.1692950830957E+01  0.0000000000000E+00
-0.6888972825577E+00 -0.1624152347613E+01  0.0000000000000E+00
-0.7024049560735E+00 -0.1555968378978E+01  0.0000000000000E+00
-0.7168467855624E+00 -0.1488526363395E+01  0.0000000000000E+00
-0.7323737886136E+00 -0.1422019393519E+01  0.0000000000000E+00
-0.5500197687602E+00 -0.4230795330937E+01  0.0000000000000E+00
-0.5500395375027E+00 -0.4157546078617E+01  0.0000000000000E+00
-0.5500593062825E+00 -0.4084296688248E+01  0.0000000000000E+00
-0.5500790750795E+00 -0.4011047234207E+01  0.0000000000000E+00
-0.5500988438504E+00 -0.3937797876793E+01  0.0000000000000E+00
-0.5501186126176E+00 -0.3864548533122E+01  0.0000000000000E+00
-0.5501383813873E+00 -0.3791299180143E+01  0.0000000000000E+00
-0.5501581501600E+00 -0.3718049816112E+01  0.0000000000000E+00
-0.5501779189312E+00 -0.3644800457840E+01  0.0000000000000E+00
-0.5501976877026E+00 -0.3571551098563E+01  0.0000000000000E+00
-0.5502174565100E+00 -0.3498301605929E+01  0.0000000000000E+00
-0.5502372252556E+00 -0.3425052342338E+01  0.0000000000000E+00
-0.5502569940600E+00 -0.3351802860622E+01  0.0000000000000E+00
-0.5502767631559E+00 -0.3278552299001E+01  0.0000000000000E+00
-0.5502965315980E+00 -0.3205304159791E+01  0.0000000000000E+00
-0.5503163003145E+00 -0.3132055004046E+01  0.0000000000000E+00
-0.5503360690874E+00 -0.3058805639288E+01  0.0000000000000E+00
-0.5503558378497E+00 -0.2985556313852E+01  0.0000000000000E+00
-0.5503756065864E+00 -0.2912307083233E+01  0.0000000000000E+00
-0.5504361463889E+00 -0.2839057885264E+01  0.0000000000000E+00
-0.5507846637340E+00 -0.2765812186054E+01  0.0000000000000E+00
-0.5516895197264E+00 -0.2692586762654E+01  0.0000000000000E+00
-0.5533119539024E+00 -0.2619413409260E+01  0.0000000000000E+00
-0.5557151701444E+00 -0.2546330431560E+01  0.0000000000000E+00
-0.5589063043036E+00 -0.2473374550628E+01  0.0000000000000E+00
-0.5628708597639E+00 -0.2400578722707E+01  0.0000000000000E+00
-0.5675924408837E+00 -0.2327974061005E+01  0.0000000000000E+00
-0.5730629484655E+00 -0.2255591828195E+01  0.0000000000000E+00
-0.5792882888882E+00 -0.2183468260695E+01  0.0000000000000E+00
-0.5862931289399E+00 -0.2111648183508E+01  0.0000000000000E+00
-0.5940869651833E+00 -0.2040173131530E+01  0.0000000000000E+00
-0.6026214206831E+00 -0.1969057345296E+01  0.0000000000000E+00
-0.6118604201151E+00 -0.1898315750472E+01  0.0000000000000E+00
-0.6217866560276E+00 -0.1827970125978E+01  0.0000000000000E+00
-0.6323995620492E+00 -0.1758051205649E+01  0.0000000000000E+00
-0.6437153554685E+00 -0.1688601872357E+01  0.0000000000000E+00
-0.6557691156551E+00 -0.1619682586678E+01  0.0000000000000E+00
-0.6686200718399E+00 -0.1551377815076E+01  0.0000000000000E+00
-0.6823602777685E+00 -0.1483814999269E+01  0.0000000000000E+00
-0.6971334912775E+00 -0.1417187230416E+01  0.0000000000000E+00
-0.5225235369655E+00 -0.4230682327815E+01  0.0000000000000E+00
-0.5225470739100E+00 -0.4157320072474E+01  0.0000000000000E+00
-0.5225706108988E+00 -0.4083957678871E+01  0.0000000000000E+00
-0.5225941479082E+00 -0.4010595221498E+01  0.0000000000000E+00
-0.5226176848864E+00 -0.3937232860900E+01  0.0000000000000E+00
-0.5226412218603E+00 -0.3863870514067E+01  0.0000000000000E+00
-0.5226647588371E+00 -0.3790508157912E+01  0.0000000000000E+00
-0.5226882958175E+00 -0.3717145790687E+01  0.0000000000000E+00
-0.5227118327961E+00 -0.3643783429230E+01  0.0000000000000E+00
-0.5227353697749E+00 -0.3570421066767E+01  0.0000000000000E+00
-0.5227589067966E+00 -0.3497058570741E+01  0.0000000000000E+00
-0.5227824437448E+00 -0.3423696304111E+01  0.0000000000000E+00
-0.5228059807630E+00 -0.3350333819021E+01  0.0000000000000E+00
-0.5228295181282E+00 -0.3276970252358E+01  0.0000000000000E+00
-0.5228530547150E+00 -0.3203609111845E+01  0.0000000000000E+00
-0.5228765916285E+00 -0.3130246953227E+01  0.0000000000000E+00
-0.5229001286091E+00 -0.3056884585275E+01  0.0000000000000E+00
-0.5229236655771E+00 -0.2983522256705E+01  0.0000000000000E+00
-0.5229472025146E+00 -0.2910160023098E+01  0.0000000000000E+00
-0.5230094719650E+00 -0.2836797822117E+01  0.0000000000000E+00
-0.5233453200490E+00 -0.2763439120539E+01  0.0000000000000E+00
-0.5242096897925E+00 -0.2690100695875E+01  0.0000000000000E+00
-0.5257557587769E+00 -0.2616814341734E+01  0.0000000000000E+00
-0.5280435707054E+00 -0.2543618363426E+01  0.0000000000000E+00
-0.5310799046469E+00 -0.2470549481778E+01  0.0000000000000E+00
-0.5348509888241E+00 -0.2397640652849E+01  0.0000000000000E+00
-0.5393412473588E+00 -0.2324922990298E+01  0.0000000000000E+00
-0.5445429860314E+00 -0.2252427756369E+01  0.0000000000000E+00
-0.5504618158794E+00 -0.2180191188014E+01  0.0000000000000E+00
-0.5571211703511E+00 -0.2108258110234E+01  0.0000000000000E+00
-0.5645300712003E+00 -0.2036670057468E+01  0.0000000000000E+00
-0.5726425603411E+00 -0.1965441270206E+01  0.0000000000000E+00
-0.5814243662114E+00 -0.1894586674225E+01  0.0000000000000E+00
-0.5908590467288E+00 -0.1824128048532E+01  0.0000000000000E+00
-0.6009460638389E+00 -0.1754096126991E+01  0.0000000000000E+00
-0.6117008239636E+00 -0.1684533792533E+01  0.0000000000000E+00
-0.6231566524677E+00 -0.1615501506574E+01  0.0000000000000E+00
-0.6353698171822E+00 -0.1547083734099E+01  0.0000000000000E+00
-0.6484277690306E+00 -0.1479407919987E+01  0.0000000000000E+00
-0.6624670780150E+00 -0.1412667153993E+01  0.0000000000000E+00
-0.4950265829563E+00 -0.4230575000095E+01  0.0000000000000E+00
-0.4950531658889E+00 -0.4157105417131E+01  0.0000000000000E+00
-0.4950797488716E+00 -0.4083635695702E+01  0.0000000000000E+00
-0.4951063318774E+00 -0.4010165910410E+01  0.0000000000000E+00
-0.4951329148482E+00 -0.3936696222035E+01  0.0000000000000E+00
-0.4951594978139E+00 -0.3863226547444E+01  0.0000000000000E+00
-0.4951860807830E+00 -0.3789756863518E+01  0.0000000000000E+00
-0.4952126637562E+00 -0.3716287168507E+01  0.0000000000000E+00
-0.4952392467272E+00 -0.3642817479271E+01  0.0000000000000E+00
-0.4952658296986E+00 -0.3569347789027E+01  0.0000000000000E+00
-0.4952924127185E+00 -0.3495877965026E+01  0.0000000000000E+00
-0.4953189956551E+00 -0.3422408370756E+01  0.0000000000000E+00
-0.4953455786710E+00 -0.3348938557706E+01  0.0000000000000E+00
-0.4953721620788E+00 -0.3275467661502E+01  0.0000000000000E+00
-0.4953987446074E+00 -0.3201999194996E+01  0.0000000000000E+00
-0.4954253275049E+00 -0.3128529708896E+01  0.0000000000000E+00
-0.4954519104783E+00 -0.3055060013155E+01  0.0000000000000E+00
-0.4954784934375E+00 -0.2981590356855E+01  0.0000000000000E+00
-0.4955050763622E+00 -0.2908120795657E+01  0.0000000000000E+00
-0.4955683532472E+00 -0.2834651267061E+01  0.0000000000000E+00
-0.4958908098644E+00 -0.2761185238480E+01  0.0000000000000E+00
-0.4967139711667E+00 -0.2687739487860E+01  0.0000000000000E+00
-0.4981829527790E+00 -0.2614345808257E+01  0.0000000000000E+00
-0.5003546382236E+00 -0.2541042504616E+01  0.0000000000000E+00
-0.5032354497856E+00 -0.2467866297535E+01  0.0000000000000E+00
-0.5068123405251E+00 -0.2394850142894E+01  0.0000000000000E+00
-0.5110705543301E+00 -0.2322025154781E+01  0.0000000000000E+00
-0.5160028019559E+00 -0.2249422595037E+01  0.0000000000000E+00
-0.5216143991022E+00 -0.2177078701116E+01  0.0000000000000E+00
-0.5279275458778E+00 -0.2105038298018E+01  0.0000000000000E+00
-0.5349507892246E+00 -0.2033342919751E+01  0.0000000000000E+00
-0.5426405899055E+00 -0.1962006806759E+01  0.0000000000000E+00
-0.5509644801207E+00 -0.1891044884923E+01  0.0000000000000E+00
-0.5599068831572E+00 -0.1820478933337E+01  0.0000000000000E+00
-0.5694672892784E+00 -0.1750339685891E+01  0.0000000000000E+00
-0.5796602940392E+00 -0.1680670025571E+01  0.0000000000000E+00
-0.5905174688062E+00 -0.1611530414592E+01  0.0000000000000E+00
-0.6020921200010E+00 -0.1543005316536E+01  0.0000000000000E+00
-0.6144670957471E+00 -0.1475222179278E+01  0.0000000000000E+00
-0.6277717782043E+00 -0.1408374091247E+01  0.0000000000000E+00
-0.4675289422681E+00 -0.4230473366273E+01  0.0000000000000E+00
-0.4675578845103E+00 -0.4156902149577E+01  0.0000000000000E+00
-0.4675868268072E+00 -0.4083330794226E+01  0.0000000000000E+00
-0.4676157691291E+00 -0.4009759374922E+01  0.0000000000000E+00
-0.4676447114129E+00 -0.3936188052670E+01  0.0000000000000E+00
-0.4676736536913E+00 -0.3862616744221E+01  0.0000000000000E+00
-0.4677025959733E+00 -0.3789045426423E+01  0.0000000000000E+00
-0.4677315382597E+00 -0.3715474097525E+01  0.0000000000000E+00
-0.4677604805438E+00 -0.3641902774411E+01  0.0000000000000E+00
-0.4677894228283E+00 -0.3568331450288E+01  0.0000000000000E+00
-0.4678183651656E+00 -0.3494759992222E+01  0.0000000000000E+00
-0.4678473074123E+00 -0.3421188764204E+01  0.0000000000000E+00
-0.4678762497452E+00 -0.3347617317104E+01  0.0000000000000E+00
-0.4679051925048E+00 -0.3274044785352E+01  0.0000000000000E+00
-0.4679341343072E+00 -0.3200474686659E+01  0.0000000000000E+00
-0.4679630765113E+00 -0.3126903566961E+01  0.0000000000000E+00
-0.4679920187980E+00 -0.3053332237333E+01  0.0000000000000E+00
-0.4680209610692E+00 -0.2979760947200E+01  0.0000000000000E+00
-0.4680499033029E+00 -0.2906189752300E+01  0.0000000000000E+00
-0.4681135009444E+00 -0.2832618589982E+01  0.0000000000000E+00
-0.4684218794232E+00 -0.2759050928256E+01  0.0000000000000E+00
-0.4692031456246E+00 -0.2685503545485E+01  0.0000000000000E+00
-0.4705943532147E+00 -0.2612008234196E+01  0.0000000000000E+00
-0.4726492255332E+00 -0.2538603298994E+01  0.0000000000000E+00
-0.4753738280800E+00 -0.2465325460254E+01  0.0000000000000E+00
-0.4787558387513E+00 -0.2392207673692E+01  0.0000000000000E+00
-0.4827813212037E+00 -0.2319281053801E+01  0.0000000000000E+00
-0.4874433911652E+00 -0.2246576862038E+01  0.0000000000000E+00
-0.4927470690006E+00 -0.2174131336332E+01  0.0000000000000E+00
-0.4987133214795E+00 -0.2101989301687E+01  0.0000000000000E+00
-0.5053502207294E+00 -0.2030192291697E+01  0.0000000000000E+00
-0.5126166463610E+00 -0.1958754546766E+01  0.0000000000000E+00
-0.5204819343374E+00 -0.1887690992875E+01  0.0000000000000E+00
-0.5289313733153E+00 -0.1817023409196E+01  0.0000000000000E+00
-0.5379644818757E+00 -0.1746782529646E+01  0.0000000000000E+00
-0.5475950447077E+00 -0.1677011237263E+01  0.0000000000000E+00
-0.5578528791844E+00 -0.1607769995018E+01  0.0000000000000E+00
-0.5687883303103E+00 -0.1539143265162E+01  0.0000000000000E+00
-0.5804796434283E+00 -0.1471258498414E+01  0.0000000000000E+00
-0.5930490128488E+00 -0.1404308781941E+01  0.0000000000000E+00
-0.4400306507643E+00 -0.4230377443940E+01  0.0000000000000E+00
-0.4400613015012E+00 -0.4156710304996E+01  0.0000000000000E+00
-0.4400919522959E+00 -0.4083043027216E+01  0.0000000000000E+00
-0.4401226031172E+00 -0.4009375685400E+01  0.0000000000000E+00
-0.4401532538981E+00 -0.3935708440762E+01  0.0000000000000E+00
-0.4401839046733E+00 -0.3862041209946E+01  0.0000000000000E+00
-0.4402145554523E+00 -0.3788373969769E+01  0.0000000000000E+00
-0.4402452062360E+00 -0.3714706718477E+01  0.0000000000000E+00
-0.4402758570172E+00 -0.3641039472976E+01  0.0000000000000E+00
-0.4403065077989E+00 -0.3567372226465E+01  0.0000000000000E+00
-0.4403371586364E+00 -0.3493704845836E+01  0.0000000000000E+00
-0.4403678093781E+00 -0.3420037695556E+01  0.0000000000000E+00
-0.4403984602110E+00 -0.3346370325908E+01  0.0000000000000E+00
-0.4404291114958E+00 -0.3272701870193E+01  0.0000000000000E+00
-0.4404597617669E+00 -0.3199035850710E+01  0.0000000000000E+00
-0.4404904124634E+00 -0.3125368808892E+01  0.0000000000000E+00
-0.4405210632474E+00 -0.3051701556869E+01  0.0000000000000E+00
-0.4405517140149E+00 -0.2978034344391E+01  0.0000000000000E+00
-0.4405823647428E+00 -0.2904367227272E+01  0.0000000000000E+00
-0.4406456323261E+00 -0.2830700142715E+01  0.0000000000000E+00
-0.4409392818568E+00 -0.2757036559295E+01  0.0000000000000E+00
-0.4416780021563E+00 -0.2683393255768E+01  0.0000000000000E+00
-0.4429907849293E+00 -0.2609802024162E+01  0.0000000000000E+00
-0.4449281933311E+00 -0.2536301168759E+01  0.0000000000000E+00
-0.4474959360748E+00 -0.2462927409729E+01  0.0000000000000E+00
-0.4506824158919E+00 -0.2389713702628E+01  0.0000000000000E+00
-0.4544745162100E+00 -0.2316691162333E+01  0.0000000000000E+00
-0.4588657577271E+00 -0.2243891049936E+01  0.0000000000000E+00
-0.4638608654765E+00 -0.2171349603822E+01  0.0000000000000E+00
-0.4694795728885E+00 -0.2099111648990E+01  0.0000000000000E+00
-0.4757294772735E+00 -0.2027218718648E+01  0.0000000000000E+00
-0.4825718770898E+00 -0.1955685053162E+01  0.0000000000000E+00
-0.4899779120636E+00 -0.1884525578604E+01  0.0000000000000E+00
-0.4979337362219E+00 -0.1813762074224E+01  0.0000000000000E+00
-0.5064388964637E+00 -0.1743425273962E+01  0.0000000000000E+00
-0.5155063666123E+00 -0.1673558060906E+01  0.0000000000000E+00
-0.5251642100526E+00 -0.1604220898739E+01  0.0000000000000E+00
-0.5354598103634E+00 -0.1535498248461E+01  0.0000000000000E+00
-0.5464668101259E+00 -0.1467517563467E+01  0.0000000000000E+00
-0.5583002157936E+00 -0.1400471929739E+01  0.0000000000000E+00
-0.4125317441520E+00 -0.4230287249716E+01  0.0000000000000E+00
-0.4125634882758E+00 -0.4156529916629E+01  0.0000000000000E+00
-0.4125952324593E+00 -0.4082772444536E+01  0.0000000000000E+00
-0.4126269766705E+00 -0.4009014908329E+01  0.0000000000000E+00
-0.4126587208397E+00 -0.3935257469419E+01  0.0000000000000E+00
-0.4126904650030E+00 -0.3861500044347E+01  0.0000000000000E+00
-0.4127222091704E+00 -0.3787742609903E+01  0.0000000000000E+00
-0.4127539533425E+00 -0.3713985164330E+01  0.0000000000000E+00
-0.4127856975121E+00 -0.3640227724555E+01  0.0000000000000E+00
-0.4128174416822E+00 -0.3566470283769E+01  0.0000000000000E+00
-0.4128491859101E+00 -0.3492712708702E+01  0.0000000000000E+00
-0.4128809300387E+00 -0.3418955364265E+01  0.0000000000000E+00
-0.4129126742618E+00 -0.3345197800191E+01  0.0000000000000E+00
-0.4129444189530E+00 -0.3271439148721E+01  0.0000000000000E+00
-0.4129761625943E+00 -0.3197682936466E+01  0.0000000000000E+00
-0.4130079066762E+00 -0.3123925700623E+01  0.0000000000000E+00
-0.4130396508486E+00 -0.3050168254318E+01  0.0000000000000E+00
-0.4130713950040E+00 -0.2976410847608E+01  0.0000000000000E+00
-0.4131031391183E+00 -0.2902653536372E+01  0.0000000000000E+00
-0.4131654615348E+00 -0.2828896257679E+01  0.0000000000000E+00
-0.4134437670066E+00 -0.2755142480638E+01  0.0000000000000E+00
-0.4141393262886E+00 -0.2681408984369E+01  0.0000000000000E+00
-0.4153730691176E+00 -0.2607727560436E+01  0.0000000000000E+00
-0.4171923984613E+00 -0.2534136512816E+01  0.0000000000000E+00
-0.4196026662446E+00 -0.2460672561482E+01  0.0000000000000E+00
-0.4225930000332E+00 -0.2387368661845E+01  0.0000000000000E+00
-0.4261511030289E+00 -0.2314255929140E+01  0.0000000000000E+00
-0.4302709008973E+00 -0.2241365624120E+01  0.0000000000000E+00
-0.4349568233429E+00 -0.2168733985590E+01  0.0000000000000E+00
-0.4402273704565E+00 -0.2096405838553E+01  0.0000000000000E+00
-0.4460896647286E+00 -0.2024422715852E+01  0.0000000000000E+00
-0.4525074234658E+00 -0.1952798857813E+01  0.0000000000000E+00
-0.4594535901587E+00 -0.1881549190599E+01  0.0000000000000E+00
-0.4669151842055E+00 -0.1810695493531E+01  0.0000000000000E+00
-0.4748917808231E+00 -0.1740268500570E+01  0.0000000000000E+00
-0.4833955429692E+00 -0.1670311094851E+01  0.0000000000000E+00
-0.4924527800443E+00 -0.1600883740729E+01  0.0000000000000E+00
-0.5021079141925E+00 -0.1532070898023E+01  0.0000000000000E+00
-0.5124299852484E+00 -0.1464000022650E+01  0.0000000000000E+00
-0.5235268117985E+00 -0.1396864199472E+01  0.0000000000000E+00
-0.3850322598414E+00 -0.4230202799459E+01  0.0000000000000E+00
-0.3850645196540E+00 -0.4156361016191E+01  0.0000000000000E+00
-0.3850967795275E+00 -0.4082519093757E+01  0.0000000000000E+00
-0.3851290394289E+00 -0.4008677107136E+01  0.0000000000000E+00
-0.3851612992878E+00 -0.3934835217923E+01  0.0000000000000E+00
-0.3851935591407E+00 -0.3860993342564E+01  0.0000000000000E+00
-0.3852258189976E+00 -0.3787151457823E+01  0.0000000000000E+00
-0.3852580788595E+00 -0.3713309561940E+01  0.0000000000000E+00
-0.3852903387188E+00 -0.3639467671862E+01  0.0000000000000E+00
-0.3853225985785E+00 -0.3565625780771E+01  0.0000000000000E+00
-0.3853548584969E+00 -0.3491783755245E+01  0.0000000000000E+00
-0.3853871183145E+00 -0.3417941960614E+01  0.0000000000000E+00
-0.3854193782282E+00 -0.3344099946094E+01  0.0000000000000E+00
-0.3854516386174E+00 -0.3270256842933E+01  0.0000000000000E+00
-0.3854838979398E+00 -0.3196416181779E+01  0.0000000000000E+00
-0.3855161577099E+00 -0.3122574495866E+01  0.0000000000000E+00
-0.3855484175721E+00 -0.3048732599250E+01  0.0000000000000E+00
-0.3855806774169E+00 -0.2974890742274E+01  0.0000000000000E+00
-0.3856129372200E+00 -0.2901048980883E+01  0.0000000000000E+00
-0.3856737367721E+00 -0.2827207252015E+01  0.0000000000000E+00
-0.3859361204928E+00 -0.2753369025280E+01  0.0000000000000E+00
-0.3865879410748E+00 -0.2679551080143E+01  0.0000000000000E+00
-0.3877420662852E+00 -0.2605785207729E+01  0.0000000000000E+00
-0.3894427389025E+00 -0.2532109711729E+01  0.0000000000000E+00
-0.3916949540622E+00 -0.2458561311938E+01  0.0000000000000E+00
-0.3944885641635E+00 -0.2385172963623E+01  0.0000000000000E+00
-0.3978120921840E+00 -0.2311975782359E+01  0.0000000000000E+00
-0.4016598687551E+00 -0.2239001028580E+01  0.0000000000000E+00
-0.4060360282553E+00 -0.2166284941488E+01  0.0000000000000E+00
-0.4109578374357E+00 -0.2093872346084E+01  0.0000000000000E+00
-0.4164319439649E+00 -0.2021804774870E+01  0.0000000000000E+00
-0.4224244839971E+00 -0.1950096468140E+01  0.0000000000000E+00
-0.4289102047877E+00 -0.1878762352137E+01  0.0000000000000E+00
-0.4358769911063E+00 -0.1807824206249E+01  0.0000000000000E+00
-0.4433244464880E+00 -0.1737312764459E+01  0.0000000000000E+00
-0.4512639230252E+00 -0.1667270909945E+01  0.0000000000000E+00
-0.4597199761387E+00 -0.1597759107689E+01  0.0000000000000E+00
-0.4687340665305E+00 -0.1528861816408E+01  0.0000000000000E+00
-0.4783706313056E+00 -0.1460706494377E+01  0.0000000000000E+00
-0.4887303011774E+00 -0.1393486225414E+01  0.0000000000000E+00
-0.3575322348022E+00 -0.4230124107983E+01  0.0000000000000E+00
-0.3575644695756E+00 -0.4156203633308E+01  0.0000000000000E+00
-0.3575967044098E+00 -0.4082283019319E+01  0.0000000000000E+00
-0.3576289392720E+00 -0.4008362341075E+01  0.0000000000000E+00
-0.3576611740917E+00 -0.3934441760342E+01  0.0000000000000E+00
-0.3576934089054E+00 -0.3860521193479E+01  0.0000000000000E+00
-0.3577256437231E+00 -0.3786600617223E+01  0.0000000000000E+00
-0.3577578785457E+00 -0.3712680029813E+01  0.0000000000000E+00
-0.3577901133658E+00 -0.3638759448214E+01  0.0000000000000E+00
-0.3578223481863E+00 -0.3564838865602E+01  0.0000000000000E+00
-0.3578545830655E+00 -0.3490918148411E+01  0.0000000000000E+00
-0.3578868178439E+00 -0.3416997662361E+01  0.0000000000000E+00
-0.3579190527183E+00 -0.3343076956189E+01  0.0000000000000E+00
-0.3579512880679E+00 -0.3269155160214E+01  0.0000000000000E+00
-0.3579835223515E+00 -0.3195235808850E+01  0.0000000000000E+00
-0.3580157570825E+00 -0.3121315431634E+01  0.0000000000000E+00
-0.3580479919054E+00 -0.3047394843491E+01  0.0000000000000E+00
-0.3580802267110E+00 -0.2973474295030E+01  0.0000000000000E+00
-0.3581124614749E+00 -0.2899553842255E+01  0.0000000000000E+00
-0.3581711974348E+00 -0.2825633421987E+01  0.0000000000000E+00
-0.3584171186813E+00 -0.2751716504300E+01  0.0000000000000E+00
-0.3590246598484E+00 -0.2677819868980E+01  0.0000000000000E+00
-0.3600986267318E+00 -0.2603975306743E+01  0.0000000000000E+00
-0.3616801019192E+00 -0.2530221121018E+01  0.0000000000000E+00
-0.3637737237556E+00 -0.2456594031425E+01  0.0000000000000E+00
-0.3663700694726E+00 -0.2383126993105E+01  0.0000000000000E+00
-0.3694584818260E+00 -0.2309851121947E+01  0.0000000000000E+00
-0.3730336964106E+00 -0.2236797678087E+01  0.0000000000000E+00
-0.3770995522815E+00 -0.2164002901096E+01  0.0000000000000E+00
-0.3816720828503E+00 -0.2091511615977E+01  0.0000000000000E+00
-0.3867574609618E+00 -0.2019365354912E+01  0.0000000000000E+00
-0.3923242416169E+00 -0.1947578358163E+01  0.0000000000000E+00
-0.3983489758364E+00 -0.1876165552051E+01  0.0000000000000E+00
-0.4048204137615E+00 -0.1805148716025E+01  0.0000000000000E+00
-0.4117381872457E+00 -0.1734558584088E+01  0.0000000000000E+00
-0.4191128375166E+00 -0.1664438039460E+01  0.0000000000000E+00
-0.4269671660192E+00 -0.1594847547706E+01  0.0000000000000E+00
-0.4353396720069E+00 -0.1525871566515E+01  0.0000000000000E+00
-0.4442901898707E+00 -0.1457637556361E+01  0.0000000000000E+00
-0.4539121624448E+00 -0.1390338600087E+01  0.0000000000000E+00
-0.3300317063161E+00 -0.4230051189142E+01  0.0000000000000E+00
-0.3300634126040E+00 -0.4156057795692E+01  0.0000000000000E+00
-0.3300951189516E+00 -0.4082064262790E+01  0.0000000000000E+00
-0.3301268253268E+00 -0.4008070665569E+01  0.0000000000000E+00
-0.3301585316601E+00 -0.3934077165957E+01  0.0000000000000E+00
-0.3301902379875E+00 -0.3860083680227E+01  0.0000000000000E+00
-0.3302219443189E+00 -0.3786090185095E+01  0.0000000000000E+00
-0.3302536506551E+00 -0.3712096678799E+01  0.0000000000000E+00
-0.3302853569888E+00 -0.3638103178319E+01  0.0000000000000E+00
-0.3303170633230E+00 -0.3564109676825E+01  0.0000000000000E+00
-0.3303487697148E+00 -0.3490116040619E+01  0.0000000000000E+00
-0.3303804760076E+00 -0.3416122635783E+01  0.0000000000000E+00
-0.3304121823947E+00 -0.3342129010606E+01  0.0000000000000E+00
-0.3304438892493E+00 -0.3268134294553E+01  0.0000000000000E+00
-0.3304755950553E+00 -0.3194142025521E+01  0.0000000000000E+00
-0.3305073013014E+00 -0.3120148729626E+01  0.0000000000000E+00
-0.3305390076379E+00 -0.3046155222595E+01  0.0000000000000E+00
-0.3305707139574E+00 -0.2972161755286E+01  0.0000000000000E+00
-0.3306024202359E+00 -0.2898168383757E+01  0.0000000000000E+00
-0.3306585891574E+00 -0.2824175044720E+01  0.0000000000000E+00
-0.3308875444874E+00 -0.2750185208679E+01  0.0000000000000E+00
-0.3314503028045E+00 -0.2676215655717E+01  0.0000000000000E+00
-0.3324436079309E+00 -0.2602298176172E+01  0.0000000000000E+00
-0.3339053822620E+00 -0.2528471073228E+01  0.0000000000000E+00
-0.3358399073513E+00 -0.2454771066347E+01  0.0000000000000E+00
-0.3382384852618E+00 -0.2381231110551E+01  0.0000000000000E+00
-0.3410912785297E+00 -0.2307882322018E+01  0.0000000000000E+00
-0.3443934277111E+00 -0.2234755960610E+01  0.0000000000000E+00
-0.3481484765401E+00 -0.2161888266242E+01  0.0000000000000E+00
-0.3523712250890E+00 -0.2089324063914E+01  0.0000000000000E+00
-0.3570673713764E+00 -0.2017104885515E+01  0.0000000000000E+00
-0.3622078892501E+00 -0.1945244971277E+01  0.0000000000000E+00
-0.3677711334962E+00 -0.1873759247591E+01  0.0000000000000E+00
-0.3737467196281E+00 -0.1802669493966E+01  0.0000000000000E+00
-0.3801343078177E+00 -0.1732006444421E+01  0.0000000000000E+00
-0.3869436284280E+00 -0.1661812982214E+01  0.0000000000000E+00
-0.3941957289323E+00 -0.1592149573454E+01  0.0000000000000E+00
-0.4019261471290E+00 -0.1523100674874E+01  0.0000000000000E+00
-0.4101901147095E+00 -0.1454793748987E+01  0.0000000000000E+00
-0.4190738866231E+00 -0.1387421877732E+01  0.0000000000000E+00
-0.3025307117473E+00 -0.4229984055806E+01  0.0000000000000E+00
-0.3025614234671E+00 -0.4155923529079E+01  0.0000000000000E+00
-0.3025921352449E+00 -0.4081862862774E+01  0.0000000000000E+00
-0.3026228470493E+00 -0.4007802132092E+01  0.0000000000000E+00
-0.3026535588133E+00 -0.3933741499106E+01  0.0000000000000E+00
-0.3026842705714E+00 -0.3859680880016E+01  0.0000000000000E+00
-0.3027149823335E+00 -0.3785620251516E+01  0.0000000000000E+00
-0.3027456941002E+00 -0.3711559611840E+01  0.0000000000000E+00
-0.3027764058645E+00 -0.3637498977987E+01  0.0000000000000E+00
-0.3028071176292E+00 -0.3563438343118E+01  0.0000000000000E+00
-0.3028378294498E+00 -0.3489377573416E+01  0.0000000000000E+00
-0.3028685411744E+00 -0.3415317035292E+01  0.0000000000000E+00
-0.3028992529905E+00 -0.3341256276629E+01  0.0000000000000E+00
-0.3029299652593E+00 -0.3267194426099E+01  0.0000000000000E+00
-0.3029606765125E+00 -0.3193135024811E+01  0.0000000000000E+00
-0.3029913881918E+00 -0.3119074595728E+01  0.0000000000000E+00
-0.3030220999588E+00 -0.3045013955318E+01  0.0000000000000E+00
-0.3030528117094E+00 -0.2970953354665E+01  0.0000000000000E+00
-0.3030835234201E+00 -0.2896892849879E+01  0.0000000000000E+00
-0.3031366592207E+00 -0.2822832377572E+01  0.0000000000000E+00
-0.3033481825528E+00 -0.2748775408642E+01  0.0000000000000E+00
-0.3038656919401E+00 -0.2674738723447E+01  0.0000000000000E+00
-0.3047778692279E+00 -0.2600754111977E+01  0.0000000000000E+00
-0.3061194766177E+00 -0.2526859877189E+01  0.0000000000000E+00
-0.3078944388703E+00 -0.2453092738402E+01  0.0000000000000E+00
-0.3100947828795E+00 -0.2379485650525E+01  0.0000000000000E+00
-0.3127114909635E+00 -0.2306069730006E+01  0.0000000000000E+00
-0.3157401086385E+00 -0.2232876236452E+01  0.0000000000000E+00
-0.3191838843193E+00 -0.2159941410094E+01  0.0000000000000E+00
-0.3230563847390E+00 -0.2087310075932E+01  0.0000000000000E+00
-0.3273628330882E+00 -0.2015023765584E+01  0.0000000000000E+00
-0.3320766220613E+00 -0.1943096719253E+01  0.0000000000000E+00
-0.3371779102106E+00 -0.1871543863397E+01  0.0000000000000E+00
-0.3426571784222E+00 -0.1800386977578E+01  0.0000000000000E+00
-0.3485141151863E+00 -0.1729656795832E+01  0.0000000000000E+00
-0.3547576400016E+00 -0.1659396201451E+01  0.0000000000000E+00
-0.3614070463731E+00 -0.1589665661042E+01  0.0000000000000E+00
-0.3684949106376E+00 -0.1520549630462E+01  0.0000000000000E+00
-0.3760718617994E+00 -0.1452175574100E+01  0.0000000000000E+00
-0.3842169669163E+00 -0.1384736573063E+01  0.0000000000000E+00
-0.2750292889768E+00 -0.4229922719884E+01  0.0000000000000E+00
-0.2750585779274E+00 -0.4155800857289E+01  0.0000000000000E+00
-0.2750878669333E+00 -0.4081678855002E+01  0.0000000000000E+00
-0.2751171559646E+00 -0.4007556788283E+01  0.0000000000000E+00
-0.2751464449573E+00 -0.3933434819343E+01  0.0000000000000E+00
-0.2751757339445E+00 -0.3859312864309E+01  0.0000000000000E+00
-0.2752050229354E+00 -0.3785190899856E+01  0.0000000000000E+00
-0.2752343119307E+00 -0.3711068924220E+01  0.0000000000000E+00
-0.2752636009237E+00 -0.3636946954411E+01  0.0000000000000E+00
-0.2752928899171E+00 -0.3562824983585E+01  0.0000000000000E+00
-0.2753221789639E+00 -0.3488702877815E+01  0.0000000000000E+00
-0.2753514679190E+00 -0.3414581003814E+01  0.0000000000000E+00
-0.2753807569614E+00 -0.3340458909091E+01  0.0000000000000E+00
-0.2754100464356E+00 -0.3266335721598E+01  0.0000000000000E+00
-0.2754393349412E+00 -0.3192214985375E+01  0.0000000000000E+00
-0.2754686238532E+00 -0.3118093220505E+01  0.0000000000000E+00
-0.2754979128488E+00 -0.3043971244133E+01  0.0000000000000E+00
-0.2755272018287E+00 -0.2969849307552E+01  0.0000000000000E+00
-0.2755564907707E+00 -0.2895727466917E+01  0.0000000000000E+00
-0.2756061652489E+00 -0.2821605658747E+01  0.0000000000000E+00
-0.2757998283827E+00 -0.2747487354304E+01  0.0000000000000E+00
-0.2762716606411E+00 -0.2673389334195E+01  0.0000000000000E+00
-0.2771022818897E+00 -0.2599343388093E+01  0.0000000000000E+00
-0.2783232941339E+00 -0.2525387818747E+01  0.0000000000000E+00
-0.2799382653412E+00 -0.2451559345344E+01  0.0000000000000E+00
-0.2819399472355E+00 -0.2377890922692E+01  0.0000000000000E+00
-0.2843201419189E+00 -0.2304413667485E+01  0.0000000000000E+00
-0.2870747998656E+00 -0.2231158839097E+01  0.0000000000000E+00
-0.2902068741738E+00 -0.2158162678047E+01  0.0000000000000E+00
-0.2937286982369E+00 -0.2085470009335E+01  0.0000000000000E+00
-0.2976450204157E+00 -0.2013122364332E+01  0.0000000000000E+00
-0.3019316522513E+00 -0.1941133983216E+01  0.0000000000000E+00
-0.3065705560629E+00 -0.1869519792505E+01  0.0000000000000E+00
-0.3115530781095E+00 -0.1798301571807E+01  0.0000000000000E+00
-0.3168789352001E+00 -0.1727510055176E+01  0.0000000000000E+00
-0.3225562359690E+00 -0.1657188125934E+01  0.0000000000000E+00
-0.3286025199556E+00 -0.1587396251146E+01  0.0000000000000E+00
-0.3350474020297E+00 -0.1518218885865E+01  0.0000000000000E+00
-0.3419369085198E+00 -0.1449783496195E+01  0.0000000000000E+00
-0.3493429185865E+00 -0.1382283162483E+01  0.0000000000000E+00
-0.2475274763612E+00 -0.4229867192306E+01  0.0000000000000E+00
-0.2475549526979E+00 -0.4155689802184E+01  0.0000000000000E+00
-0.2475824290864E+00 -0.4081512272263E+01  0.0000000000000E+00
-0.2476099054988E+00 -0.4007334677864E+01  0.0000000000000E+00
-0.2476373818750E+00 -0.3933157181315E+01  0.0000000000000E+00
-0.2476648582459E+00 -0.3858979698684E+01  0.0000000000000E+00
-0.2476923346204E+00 -0.3784802206627E+01  0.0000000000000E+00
-0.2477198109990E+00 -0.3710624703378E+01  0.0000000000000E+00
-0.2477472873755E+00 -0.3636447205960E+01  0.0000000000000E+00
-0.2477747637523E+00 -0.3562269707525E+01  0.0000000000000E+00
-0.2478022401792E+00 -0.3488092074044E+01  0.0000000000000E+00
-0.2478297165201E+00 -0.3413914672507E+01  0.0000000000000E+00
-0.2478571929429E+00 -0.3339737050082E+01  0.0000000000000E+00
-0.2478846697707E+00 -0.3265558334068E+01  0.0000000000000E+00
-0.2479121456899E+00 -0.3191382071160E+01  0.0000000000000E+00
-0.2479396219904E+00 -0.3117204778836E+01  0.0000000000000E+00
-0.2479670983693E+00 -0.3043027274851E+01  0.0000000000000E+00
-0.2479945747334E+00 -0.2968849810686E+01  0.0000000000000E+00
-0.2480220510620E+00 -0.2894672442539E+01  0.0000000000000E+00
-0.2480678743733E+00 -0.2820495106846E+01  0.0000000000000E+00
-0.2482432874676E+00 -0.2746321275196E+01  0.0000000000000E+00
-0.2486690527616E+00 -0.2672167728422E+01  0.0000000000000E+00
-0.2494177281399E+00 -0.2598066255909E+01  0.0000000000000E+00
-0.2505177554111E+00 -0.2524055160221E+01  0.0000000000000E+00
-0.2519723457481E+00 -0.2450171160422E+01  0.0000000000000E+00
-0.2537749757042E+00 -0.2376447211231E+01  0.0000000000000E+00
-0.2559182671670E+00 -0.2302914429563E+01  0.0000000000000E+00
-0.2583985755675E+00 -0.2229604074582E+01  0.0000000000000E+00
-0.2612185586887E+00 -0.2156552387068E+01  0.0000000000000E+00
-0.2643893165847E+00 -0.2083804192021E+01  0.0000000000000E+00
-0.2679151227846E+00 -0.2011401020588E+01  0.0000000000000E+00
-0.2717742076764E+00 -0.1939357112923E+01  0.0000000000000E+00
-0.2759503373461E+00 -0.1867687395599E+01  0.0000000000000E+00
-0.2804357234259E+00 -0.1796413648268E+01  0.0000000000000E+00
-0.2852301110435E+00 -0.1725566604998E+01  0.0000000000000E+00
-0.2903407979693E+00 -0.1655189149140E+01  0.0000000000000E+00
-0.2957835697803E+00 -0.1585341748170E+01  0.0000000000000E+00
-0.3015850798740E+00 -0.1516108856418E+01  0.0000000000000E+00
-0.3077867519147E+00 -0.1447617941537E+01  0.0000000000000E+00
-0.3144532771611E+00 -0.1380062083186E+01  0.0000000000000E+00
-0.2200253122177E+00 -0.4229817482972E+01  0.0000000000000E+00
-0.2200506244127E+00 -0.4155590383561E+01  0.0000000000000E+00
-0.2200759366555E+00 -0.4081363144257E+01  0.0000000000000E+00
-0.2201012489203E+00 -0.4007135840432E+01  0.0000000000000E+00
-0.2201265611517E+00 -0.3932908634523E+01  0.0000000000000E+00
-0.2201518733783E+00 -0.3858681442540E+01  0.0000000000000E+00
-0.2201771856082E+00 -0.3784454241126E+01  0.0000000000000E+00
-0.2202024978419E+00 -0.3710227028512E+01  0.0000000000000E+00
-0.2202278100736E+00 -0.3635999821733E+01  0.0000000000000E+00
-0.2202531223056E+00 -0.3561772613937E+01  0.0000000000000E+00
-0.2202784345837E+00 -0.3487545271003E+01  0.0000000000000E+00
-0.2203037467827E+00 -0.3413318160169E+01  0.0000000000000E+00
-0.2203290590570E+00 -0.3339090828300E+01  0.0000000000000E+00
-0.2203543717045E+00 -0.3264862402108E+01  0.0000000000000E+00
-0.2203796835150E+00 -0.3190636430667E+01  0.0000000000000E+00
-0.2204049956767E+00 -0.3116409429118E+01  0.0000000000000E+00
-0.2204303079106E+00 -0.3042182215768E+01  0.0000000000000E+00
-0.2204556201309E+00 -0.2967955042264E+01  0.0000000000000E+00
-0.2204809323185E+00 -0.2893727964843E+01  0.0000000000000E+00
-0.2205225529353E+00 -0.2819500919865E+01  0.0000000000000E+00
-0.2206793644652E+00 -0.2745277379213E+01  0.0000000000000E+00
-0.2210587112750E+00 -0.2671074123923E+01  0.0000000000000E+00
-0.2217250892667E+00 -0.2596922943121E+01  0.0000000000000E+00
-0.2227037800508E+00 -0.2522862139205E+01  0.0000000000000E+00
-0.2239976380052E+00 -0.2448928431131E+01  0.0000000000000E+00
-0.2256008645120E+00 -0.2375154773537E+01  0.0000000000000E+00
-0.2275069012456E+00 -0.2301572283534E+01  0.0000000000000E+00
-0.2297125085923E+00 -0.2228212220101E+01  0.0000000000000E+00
-0.2322200490218E+00 -0.2155110824251E+01  0.0000000000000E+00
-0.2350393892486E+00 -0.2082312920983E+01  0.0000000000000E+00
-0.2381743279693E+00 -0.2009860041244E+01  0.0000000000000E+00
-0.2416055144180E+00 -0.1937766425166E+01  0.0000000000000E+00
-0.2453185184479E+00 -0.1866046999373E+01  0.0000000000000E+00
-0.2493064170647E+00 -0.1794723543554E+01  0.0000000000000E+00
-0.2535689837149E+00 -0.1723826791791E+01  0.0000000000000E+00
-0.2581127053052E+00 -0.1653399627459E+01  0.0000000000000E+00
-0.2629516134529E+00 -0.1583502518406E+01  0.0000000000000E+00
-0.2681094000786E+00 -0.1514219918310E+01  0.0000000000000E+00
-0.2736228861926E+00 -0.1445679296214E+01  0.0000000000000E+00
-0.2795495751478E+00 -0.1378073731162E+01  0.0000000000000E+00
-0.1925228350695E+00 -0.4229773600768E+01  0.0000000000000E+00
-0.1925456701187E+00 -0.4155502619191E+01  0.0000000000000E+00
-0.1925685052109E+00 -0.4081231497639E+01  0.0000000000000E+00
-0.1925913403229E+00 -0.4006960311527E+01  0.0000000000000E+00
-0.1926141754049E+00 -0.3932689223390E+01  0.0000000000000E+00
-0.1926370104825E+00 -0.3858418149187E+01  0.0000000000000E+00
-0.1926598455630E+00 -0.3784147065547E+01  0.0000000000000E+00
-0.1926826806470E+00 -0.3709875970701E+01  0.0000000000000E+00
-0.1927055157292E+00 -0.3635604881693E+01  0.0000000000000E+00
-0.1927283508117E+00 -0.3561333791667E+01  0.0000000000000E+00
-0.1927511859358E+00 -0.3487062566424E+01  0.0000000000000E+00
-0.1927740209885E+00 -0.3412791573417E+01  0.0000000000000E+00
-0.1927968561092E+00 -0.3338520359245E+01  0.0000000000000E+00
-0.1928196915665E+00 -0.3264248050103E+01  0.0000000000000E+00
-0.1928425262686E+00 -0.3189978197163E+01  0.0000000000000E+00
-0.1928653612877E+00 -0.3115707313507E+01  0.0000000000000E+00
-0.1928881963719E+00 -0.3041436217924E+01  0.0000000000000E+00
-0.1929110314439E+00 -0.2967165162210E+01  0.0000000000000E+00
-0.1929338664863E+00 -0.2892894202637E+01  0.0000000000000E+00
-0.1929709714044E+00 -0.2818623275497E+01  0.0000000000000E+00
-0.1931088683680E+00 -0.2744355852933E+01  0.0000000000000E+00
-0.1934414836956E+00 -0.2670108716159E+01  0.0000000000000E+00
-0.1940252513053E+00 -0.2595913654076E+01  0.0000000000000E+00
-0.1948822926087E+00 -0.2521808968931E+01  0.0000000000000E+00
-0.1960151051878E+00 -0.2447831379587E+01  0.0000000000000E+00
-0.1974186152532E+00 -0.2374013840609E+01  0.0000000000000E+00
-0.1990870842670E+00 -0.2300387469284E+01  0.0000000000000E+00
-0.2010176775699E+00 -0.2226983524425E+01  0.0000000000000E+00
-0.2032124623196E+00 -0.2153838247250E+01  0.0000000000000E+00
-0.2056800718913E+00 -0.2080996462759E+01  0.0000000000000E+00
-0.2084238301475E+00 -0.2008499701722E+01  0.0000000000000E+00
-0.2114268051683E+00 -0.1936362204253E+01  0.0000000000000E+00
-0.2146763705746E+00 -0.1864598897017E+01  0.0000000000000E+00
-0.2181664687455E+00 -0.1793231559741E+01  0.0000000000000E+00
-0.2218969014465E+00 -0.1722290926515E+01  0.0000000000000E+00
-0.2258733447208E+00 -0.1651819880738E+01  0.0000000000000E+00
-0.2301080762283E+00 -0.1581878890584E+01  0.0000000000000E+00
-0.2346218264090E+00 -0.1512552409157E+01  0.0000000000000E+00
-0.2394468136277E+00 -0.1443967906727E+01  0.0000000000000E+00
-0.2446333533281E+00 -0.1376318461792E+01  0.0000000000000E+00
-0.1650200836141E+00 -0.4229735553552E+01  0.0000000000000E+00
-0.1650401672104E+00 -0.4155426524793E+01  0.0000000000000E+00
-0.1650602508445E+00 -0.4081117355988E+01  0.0000000000000E+00
-0.1650803344960E+00 -0.4006808122590E+01  0.0000000000000E+00
-0.1651004181210E+00 -0.3932498987216E+01  0.0000000000000E+00
-0.1651205017423E+00 -0.3858189865784E+01  0.0000000000000E+00
-0.1651405853662E+00 -0.3783880734910E+01  0.0000000000000E+00
-0.1651606689930E+00 -0.3709571592824E+01  0.0000000000000E+00
-0.1651807526183E+00 -0.3635262456580E+01  0.0000000000000E+00
-0.1652008362438E+00 -0.3560953319316E+01  0.0000000000000E+00
-0.1652209199060E+00 -0.3486644046767E+01  0.0000000000000E+00
-0.1652410035053E+00 -0.3412335006573E+01  0.0000000000000E+00
-0.1652610871644E+00 -0.3338025745100E+01  0.0000000000000E+00
-0.1652811711196E+00 -0.3263715388096E+01  0.0000000000000E+00
-0.1653012544107E+00 -0.3189407488552E+01  0.0000000000000E+00
-0.1653213379804E+00 -0.3115098557765E+01  0.0000000000000E+00
-0.1653414216075E+00 -0.3040789414941E+01  0.0000000000000E+00
-0.1653615052238E+00 -0.2966480312009E+01  0.0000000000000E+00
-0.1653815888140E+00 -0.2892171305265E+01  0.0000000000000E+00
-0.1654139037265E+00 -0.2817862330946E+01  0.0000000000000E+00
-0.1655326118186E+00 -0.2743556861420E+01  0.0000000000000E+00
-0.1658182213616E+00 -0.2669271678057E+01  0.0000000000000E+00
-0.1663191042885E+00 -0.2595038569558E+01  0.0000000000000E+00
-0.1670542218109E+00 -0.2520895838043E+01  0.0000000000000E+00
-0.1680257147146E+00 -0.2446880202293E+01  0.0000000000000E+00
-0.1692292340380E+00 -0.2373024616811E+01  0.0000000000000E+00
-0.1706598610322E+00 -0.2299360199036E+01  0.0000000000000E+00
-0.1723151659912E+00 -0.2225918207636E+01  0.0000000000000E+00
-0.1741969207619E+00 -0.2152734884009E+01  0.0000000000000E+00
-0.1763125253801E+00 -0.2079855053154E+01  0.0000000000000E+00
-0.1786648288734E+00 -0.2007320245687E+01  0.0000000000000E+00
-0.1812393181677E+00 -0.1935144701707E+01  0.0000000000000E+00
-0.1840251706515E+00 -0.1863343347917E+01  0.0000000000000E+00
-0.1870171940779E+00 -0.1791937964073E+01  0.0000000000000E+00
-0.1902152185315E+00 -0.1720959284274E+01  0.0000000000000E+00
-0.1936241091919E+00 -0.1650450191940E+01  0.0000000000000E+00
-0.1972543897637E+00 -0.1580471155527E+01  0.0000000000000E+00
-0.2011238292027E+00 -0.1511106627642E+01  0.0000000000000E+00
-0.2052600432362E+00 -0.1442484079618E+01  0.0000000000000E+00
-0.2097061593950E+00 -0.1374796589482E+01  0.0000000000000E+00
-0.1375170965664E+00 -0.4229703348149E+01  0.0000000000000E+00
-0.1375341931175E+00 -0.4155362114015E+01  0.0000000000000E+00
-0.1375512897008E+00 -0.4081020739775E+01  0.0000000000000E+00
-0.1375683862990E+00 -0.4006679300913E+01  0.0000000000000E+00
-0.1375854828746E+00 -0.3932337960118E+01  0.0000000000000E+00
-0.1376025794470E+00 -0.3857996633271E+01  0.0000000000000E+00
-0.1376196760216E+00 -0.3783655296978E+01  0.0000000000000E+00
-0.1376367725988E+00 -0.3709313949468E+01  0.0000000000000E+00
-0.1376538691746E+00 -0.3634972607802E+01  0.0000000000000E+00
-0.1376709657507E+00 -0.3560631265117E+01  0.0000000000000E+00
-0.1376880623579E+00 -0.3486289787087E+01  0.0000000000000E+00
-0.1377051589116E+00 -0.3411948541514E+01  0.0000000000000E+00
-0.1377222555162E+00 -0.3337607074565E+01  0.0000000000000E+00
-0.1377393523729E+00 -0.3263264511611E+01  0.0000000000000E+00
-0.1377564486642E+00 -0.3188924407182E+01  0.0000000000000E+00
-0.1377735451928E+00 -0.3114583271062E+01  0.0000000000000E+00
-0.1377906417701E+00 -0.3040241922814E+01  0.0000000000000E+00
-0.1378077383383E+00 -0.2965900614475E+01  0.0000000000000E+00
-0.1378248348843E+00 -0.2891559402366E+01  0.0000000000000E+00
-0.1378521241988E+00 -0.2817218222675E+01  0.0000000000000E+00
-0.1379514078263E+00 -0.2742880547961E+01  0.0000000000000E+00
-0.1381897759909E+00 -0.2668563159723E+01  0.0000000000000E+00
-0.1386075386376E+00 -0.2594297846497E+01  0.0000000000000E+00
-0.1392204967773E+00 -0.2520122910295E+01  0.0000000000000E+00
-0.1400304343989E+00 -0.2446075069828E+01  0.0000000000000E+00
-0.1410337273682E+00 -0.2372187279545E+01  0.0000000000000E+00
-0.1422262767265E+00 -0.2298490657014E+01  0.0000000000000E+00
-0.1436060577199E+00 -0.2225016460781E+01  0.0000000000000E+00
-0.1451745468860E+00 -0.2151800932397E+01  0.0000000000000E+00
-0.1469379109210E+00 -0.2078888896859E+01  0.0000000000000E+00
-0.1488985240163E+00 -0.2006321884654E+01  0.0000000000000E+00
-0.1510442919439E+00 -0.1934114135868E+01  0.0000000000000E+00
-0.1533661958606E+00 -0.1862280577234E+01  0.0000000000000E+00
-0.1558599088936E+00 -0.1790842988534E+01  0.0000000000000E+00
-0.1585252894466E+00 -0.1719832103876E+01  0.0000000000000E+00
-0.1613663918356E+00 -0.1649290806696E+01  0.0000000000000E+00
-0.1643919858117E+00 -0.1579279565690E+01  0.0000000000000E+00
-0.1676168788429E+00 -0.1509882833043E+01  0.0000000000000E+00
-0.1710640840249E+00 -0.1441228080987E+01  0.0000000000000E+00
-0.1747695409720E+00 -0.1373508387153E+01  0.0000000000000E+00
-0.1100139131733E+00 -0.4229676990359E+01  0.0000000000000E+00
-0.1100278263343E+00 -0.4155309398459E+01  0.0000000000000E+00
-0.1100417395214E+00 -0.4080941666402E+01  0.0000000000000E+00
-0.1100556527207E+00 -0.4006573869701E+01  0.0000000000000E+00
-0.1100695659016E+00 -0.3932206171102E+01  0.0000000000000E+00
-0.1100834790799E+00 -0.3857838486456E+01  0.0000000000000E+00
-0.1100973922599E+00 -0.3783470792361E+01  0.0000000000000E+00
-0.1101113054421E+00 -0.3709103087044E+01  0.0000000000000E+00
-0.1101252186231E+00 -0.3634735387573E+01  0.0000000000000E+00
-0.1101391318044E+00 -0.3560367687083E+01  0.0000000000000E+00
-0.1101530450109E+00 -0.3485999851201E+01  0.0000000000000E+00
-0.1101669581740E+00 -0.3411632247857E+01  0.0000000000000E+00
-0.1101808713785E+00 -0.3337264423059E+01  0.0000000000000E+00
-0.1101947847881E+00 -0.3262895501867E+01  0.0000000000000E+00
-0.1102086977376E+00 -0.3188529040072E+01  0.0000000000000E+00
-0.1102226108802E+00 -0.3114161546221E+01  0.0000000000000E+00
-0.1102365240625E+00 -0.3039793840166E+01  0.0000000000000E+00
-0.1102504372373E+00 -0.2965426174034E+01  0.0000000000000E+00
-0.1102643503941E+00 -0.2891058604166E+01  0.0000000000000E+00
-0.1102864177656E+00 -0.2816691066711E+01  0.0000000000000E+00
-0.1103660805855E+00 -0.2742327034383E+01  0.0000000000000E+00
-0.1105570110314E+00 -0.2667983288788E+01  0.0000000000000E+00
-0.1108914570603E+00 -0.2593691618327E+01  0.0000000000000E+00
-0.1113820594814E+00 -0.2519490324921E+01  0.0000000000000E+00
-0.1120302454863E+00 -0.2445416127225E+01  0.0000000000000E+00
-0.1128331157681E+00 -0.2371501979645E+01  0.0000000000000E+00
-0.1137873911589E+00 -0.2297778999854E+01  0.0000000000000E+00
-0.1148914518564E+00 -0.2224278446299E+01  0.0000000000000E+00
-0.1161464790893E+00 -0.2151036560653E+01  0.0000000000000E+00
-0.1175574062147E+00 -0.2078098167915E+01  0.0000000000000E+00
-0.1191261325870E+00 -0.2005504798465E+01  0.0000000000000E+00
-0.1208429828240E+00 -0.1933270692377E+01  0.0000000000000E+00
-0.1227007418508E+00 -0.1861410776411E+01  0.0000000000000E+00
-0.1246959481691E+00 -0.1789946830370E+01  0.0000000000000E+00
-0.1268284885014E+00 -0.1718909588368E+01  0.0000000000000E+00
-0.1291016063007E+00 -0.1648341933855E+01  0.0000000000000E+00
-0.1315223173657E+00 -0.1578304335721E+01  0.0000000000000E+00
-0.1341024676744E+00 -0.1508881245808E+01  0.0000000000000E+00
-0.1368604676965E+00 -0.1440200137086E+01  0.0000000000000E+00
-0.1398250691276E+00 -0.1372454086857E+01  0.0000000000000E+00
-0.8251057255733E-01 -0.4229656484926E+01  0.0000000000000E+00
-0.8252114510523E-01 -0.4155268387612E+01  0.0000000000000E+00
-0.8253171767305E-01 -0.4080880150103E+01  0.0000000000000E+00
-0.8254229025007E-01 -0.4006491847932E+01  0.0000000000000E+00
-0.8255286281313E-01 -0.3932103643889E+01  0.0000000000000E+00
-0.8256343537422E-01 -0.3857715453803E+01  0.0000000000000E+00
-0.8257400793664E-01 -0.3783327254265E+01  0.0000000000000E+00
-0.8258458050067E-01 -0.3708939043503E+01  0.0000000000000E+00
-0.8259515306386E-01 -0.3634550838589E+01  0.0000000000000E+00
-0.8260572562719E-01 -0.3560162632655E+01  0.0000000000000E+00
-0.8261629820978E-01 -0.3485774291291E+01  0.0000000000000E+00
-0.8262687075930E-01 -0.3411386182529E+01  0.0000000000000E+00
-0.8263744334031E-01 -0.3336997852253E+01  0.0000000000000E+00
-0.8264801607719E-01 -0.3262608425281E+01  0.0000000000000E+00
-0.8265858846443E-01 -0.3188221458384E+01  0.0000000000000E+00
-0.8266916099838E-01 -0.3113833459145E+01  0.0000000000000E+00
-0.8267973356251E-01 -0.3039445247645E+01  0.0000000000000E+00
-0.8269030612096E-01 -0.2965057076078E+01  0.0000000000000E+00
-0.8270087866573E-01 -0.2890669000802E+01  0.0000000000000E+00
-0.8271756687138E-01 -0.2816280957935E+01  0.0000000000000E+00
-0.8277745166208E-01 -0.2741896420311E+01  0.0000000000000E+00
-0.8292078717006E-01 -0.2667532169621E+01  0.0000000000000E+00
-0.8317175936353E-01 -0.2593219994158E+01  0.0000000000000E+00
-0.8353984884971E-01 -0.2518998195776E+01  0.0000000000000E+00
-0.8402612602254E-01 -0.2444903493085E+01  0.0000000000000E+00
-0.8462841640204E-01 -0.2370968840455E+01  0.0000000000000E+00
-0.8534426061171E-01 -0.2297225355644E+01  0.0000000000000E+00
-0.8617244380030E-01 -0.2223704297020E+01  0.0000000000000E+00
-0.8711385188860E-01 -0.2150441906354E+01  0.0000000000000E+00
-0.8817218489417E-01 -0.2077483008642E+01  0.0000000000000E+00
-0.8934886733396E-01 -0.2004869134183E+01  0.0000000000000E+00
-0.9063664267160E-01 -0.1932614523043E+01  0.0000000000000E+00
-0.9203009960065E-01 -0.1860734102001E+01  0.0000000000000E+00
-0.9352664199702E-01 -0.1789249650877E+01  0.0000000000000E+00
-0.9512618490244E-01 -0.1718191903789E+01  0.0000000000000E+00
-0.9683116090668E-01 -0.1647603744198E+01  0.0000000000000E+00
-0.9864683185755E-01 -0.1577545641147E+01  0.0000000000000E+00
-0.1005820822409E+00 -0.1508102046211E+01  0.0000000000000E+00
-0.1026507199050E+00 -0.1439400432931E+01  0.0000000000000E+00
-0.1048743086251E+00 -0.1371633878354E+01  0.0000000000000E+00
-0.5500711393383E-01 -0.4229641835546E+01  0.0000000000000E+00
-0.5501422786132E-01 -0.4155239088865E+01  0.0000000000000E+00
-0.5502134180221E-01 -0.4080836201962E+01  0.0000000000000E+00
-0.5502845574929E-01 -0.4006433250383E+01  0.0000000000000E+00
-0.5503556968698E-01 -0.3932030396953E+01  0.0000000000000E+00
-0.5504268362334E-01 -0.3857627557482E+01  0.0000000000000E+00
-0.5504979756060E-01 -0.3783224708557E+01  0.0000000000000E+00
-0.5505691149894E-01 -0.3708821848406E+01  0.0000000000000E+00
-0.5506402543671E-01 -0.3634418994103E+01  0.0000000000000E+00
-0.5507113937459E-01 -0.3560016138781E+01  0.0000000000000E+00
-0.5507825332541E-01 -0.3485613148002E+01  0.0000000000000E+00
-0.5508536725399E-01 -0.3411210389871E+01  0.0000000000000E+00
-0.5509248120376E-01 -0.3336807410182E+01  0.0000000000000E+00
-0.5509959525840E-01 -0.3262403333581E+01  0.0000000000000E+00
-0.5510670907779E-01 -0.3188001717540E+01  0.0000000000000E+00
-0.5511382299589E-01 -0.3113599068954E+01  0.0000000000000E+00
-0.5512093693430E-01 -0.3039196208064E+01  0.0000000000000E+00
-0.5512805086889E-01 -0.2964793387116E+01  0.0000000000000E+00
-0.5513516479427E-01 -0.2890390662477E+01  0.0000000000000E+00
-0.5514635582678E-01 -0.2815987970245E+01  0.0000000000000E+00
-0.5518634458180E-01 -0.2741588783338E+01  0.0000000000000E+00
-0.5528196714690E-01 -0.2667209883509E+01  0.0000000000000E+00
-0.5544934750096E-01 -0.2592883058975E+01  0.0000000000000E+00
-0.5569480604889E-01 -0.2518646611538E+01  0.0000000000000E+00
-0.5601905638671E-01 -0.2444537259779E+01  0.0000000000000E+00
-0.5642064886117E-01 -0.2370587958044E+01  0.0000000000000E+00
-0.5689794388766E-01 -0.2296829824147E+01  0.0000000000000E+00
-0.5745013156543E-01 -0.2223294116403E+01  0.0000000000000E+00
-0.5807780250795E-01 -0.2150017076651E+01  0.0000000000000E+00
-0.5878342339336E-01 -0.2077043529887E+01  0.0000000000000E+00
-0.5956794390064E-01 -0.2004415006351E+01  0.0000000000000E+00
-0.6042652633910E-01 -0.1932145746102E+01  0.0000000000000E+00
-0.6135556317081E-01 -0.1860250675935E+01  0.0000000000000E+00
-0.6235332364616E-01 -0.1788751575680E+01  0.0000000000000E+00
-0.6341975112603E-01 -0.1717679179460E+01  0.0000000000000E+00
-0.6455646733708E-01 -0.1647076370742E+01  0.0000000000000E+00
-0.6576698017705E-01 -0.1577003618680E+01  0.0000000000000E+00
-0.6705721263822E-01 -0.1507545374656E+01  0.0000000000000E+00
-0.6843636995069E-01 -0.1438829112620E+01  0.0000000000000E+00
-0.6991882796803E-01 -0.1371047909439E+01  0.0000000000000E+00
-0.2750357658843E-01 -0.4229633044861E+01  0.0000000000000E+00
-0.2750715317366E-01 -0.4155221507503E+01  0.0000000000000E+00
-0.2751072976564E-01 -0.4080809829905E+01  0.0000000000000E+00
-0.2751430636072E-01 -0.4006398087624E+01  0.0000000000000E+00
-0.2751788295109E-01 -0.3931986443504E+01  0.0000000000000E+00
-0.2752145954079E-01 -0.3857574813344E+01  0.0000000000000E+00
-0.2752503613094E-01 -0.3783163173730E+01  0.0000000000000E+00
-0.2752861272163E-01 -0.3708751522888E+01  0.0000000000000E+00
-0.2753218931203E-01 -0.3634339877895E+01  0.0000000000000E+00
-0.2753576590249E-01 -0.3559928231882E+01  0.0000000000000E+00
-0.2753934249946E-01 -0.3485516450397E+01  0.0000000000000E+00
-0.2754291908525E-01 -0.3411104901588E+01  0.0000000000000E+00
-0.2754649568168E-01 -0.3336693131194E+01  0.0000000000000E+00
-0.2755007233085E-01 -0.3262280263758E+01  0.0000000000000E+00
-0.2755364886173E-01 -0.3187869857173E+01  0.0000000000000E+00
-0.2755722544225E-01 -0.3113458417920E+01  0.0000000000000E+00
-0.2756080203298E-01 -0.3039046766340E+01  0.0000000000000E+00
-0.2756437862178E-01 -0.2964635154705E+01  0.0000000000000E+00
-0.2756795520596E-01 -0.2890223639392E+01  0.0000000000000E+00
-0.2757357034351E-01 -0.2815812156483E+01  0.0000000000000E+00
-0.2759358434146E-01 -0.2741404178949E+01  0.0000000000000E+00
-0.2764141524306E-01 -0.2667016488579E+01  0.0000000000000E+00
-0.2772512503744E-01 -0.2592680873544E+01  0.0000000000000E+00
-0.2784787392694E-01 -0.2518435635618E+01  0.0000000000000E+00
-0.2801001870949E-01 -0.2444317493361E+01  0.0000000000000E+00
-0.2821083455843E-01 -0.2370359401105E+01  0.0000000000000E+00
-0.2844950168136E-01 -0.2296592476699E+01  0.0000000000000E+00
-0.2872561512776E-01 -0.2223047978426E+01  0.0000000000000E+00
-0.2903947020410E-01 -0.2149762148164E+01  0.0000000000000E+00
-0.2939230024913E-01 -0.2076779810912E+01  0.0000000000000E+00
-0.2978458010354E-01 -0.2004142496872E+01  0.0000000000000E+00
-0.3021389092229E-01 -0.1931864446101E+01  0.0000000000000E+00
-0.3067842893605E-01 -0.1859960585402E+01  0.0000000000000E+00
-0.3117732876971E-01 -0.1788452694611E+01  0.0000000000000E+00
-0.3171056210335E-01 -0.1717371507854E+01  0.0000000000000E+00
-0.3227893980056E-01 -0.1646759908603E+01  0.0000000000000E+00
-0.3288421580958E-01 -0.1576678366077E+01  0.0000000000000E+00
-0.3352935162807E-01 -0.1507211331542E+01  0.0000000000000E+00
-0.3421894987024E-01 -0.1438486279195E+01  0.0000000000000E+00
-0.3496019846693E-01 -0.1370696285795E+01  0.0000000000000E+00
 0.1466269727017E-09 -0.4229630114457E+01  0.0000000000000E+00
 0.2932532055263E-09 -0.4155215646697E+01  0.0000000000000E+00
 0.4398803798697E-09 -0.4080801038692E+01  0.0000000000000E+00
 0.5865072632801E-09 -0.4006386366002E+01  0.0000000000000E+00
 0.7331339456125E-09 -0.3931971791476E+01  0.0000000000000E+00
 0.8797607629187E-09 -0.3857557230911E+01  0.0000000000000E+00
 0.1026387601599E-08 -0.3783142660891E+01  0.0000000000000E+00
 0.1173014146470E-08 -0.3708728079643E+01  0.0000000000000E+00
 0.1319641038940E-08 -0.3634313504245E+01  0.0000000000000E+00
 0.1466267822695E-08 -0.3559898927826E+01  0.0000000000000E+00
 0.1612894884936E-08 -0.3485484215930E+01  0.0000000000000E+00
 0.1759521559980E-08 -0.3411069736718E+01  0.0000000000000E+00
 0.1906148624904E-08 -0.3336655035914E+01  0.0000000000000E+00
 0.2052777753410E-08 -0.3262239238024E+01  0.0000000000000E+00
 0.2199402290491E-08 -0.3187825901082E+01  0.0000000000000E+00
 0.2346028468075E-08 -0.3113411531432E+01  0.0000000000000E+00
 0.2492655403194E-08 -0.3038996949445E+01  0.0000000000000E+00
 0.2639282414546E-08 -0.2964582407406E+01  0.0000000000000E+00
 0.2785908708559E-08 -0.2890167961692E+01  0.0000000000000E+00
 0.2932963750762E-08 -0.2815753548382E+01  0.0000000000000E+00
 0.3081668126355E-08 -0.2741342640464E+01  0.0000000000000E+00
 0.3233148692405E-08 -0.2666952019738E+01  0.0000000000000E+00
 0.3388282564229E-08 -0.2592613474360E+01  0.0000000000000E+00
 0.3547520115210E-08 -0.2518365306095E+01  0.0000000000000E+00
 0.3711086251809E-08 -0.2444244233496E+01  0.0000000000000E+00
 0.3879109370085E-08 -0.2370283210891E+01  0.0000000000000E+00
 0.4051601455226E-08 -0.2296513356140E+01  0.0000000000000E+00
 0.4229037818245E-08 -0.2222965927515E+01  0.0000000000000E+00
 0.4411708547429E-08 -0.2149677166908E+01  0.0000000000000E+00
 0.4600299816833E-08 -0.2076691899317E+01  0.0000000000000E+00
 0.4792582977744E-08 -0.2004051654933E+01  0.0000000000000E+00
 0.4987928936109E-08 -0.1931770673812E+01  0.0000000000000E+00
 0.5187018094136E-08 -0.1859863882760E+01  0.0000000000000E+00
 0.5390384780373E-08 -0.1788353061614E+01  0.0000000000000E+00
 0.5598754705489E-08 -0.1717268944503E+01  0.0000000000000E+00
 0.5811610974171E-08 -0.1646654414899E+01  0.0000000000000E+00
 0.6029914565701E-08 -0.1576569942042E+01  0.0000000000000E+00
 0.6251219526846E-08 -0.1507099977162E+01  0.0000000000000E+00
 0.6476122786694E-08 -0.1438371994536E+01  0.0000000000000E+00
 0.6697123319916E-08 -0.1370579070886E+01  0.0000000000000E+00
 0.2750357688167E-01 -0.4229633044863E+01  0.0000000000000E+00
 0.2750715376015E-01 -0.4155221507507E+01  0.0000000000000E+00
 0.2751073064538E-01 -0.4080809829911E+01  0.0000000000000E+00
 0.2751430753371E-01 -0.4006398087633E+01  0.0000000000000E+00
 0.2751788441732E-01 -0.3931986443515E+01  0.0000000000000E+00
 0.2752146130026E-01 -0.3857574813358E+01  0.0000000000000E+00
 0.2752503818366E-01 -0.3783163173746E+01  0.0000000000000E+00
 0.2752861506759E-01 -0.3708751522906E+01  0.0000000000000E+00
 0.2753219195125E-01 -0.3634339877916E+01  0.0000000000000E+00
 0.2753576883495E-01 -0.3559928231905E+01  0.0000000000000E+00
 0.2753934572517E-01 -0.3485516450422E+01  0.0000000000000E+00
 0.2754292260420E-01 -0.3411104901615E+01  0.0000000000000E+00
 0.2754649949388E-01 -0.3336693131223E+01  0.0000000000000E+00
 0.2755007643630E-01 -0.3262280263790E+01  0.0000000000000E+00
 0.2755365326042E-01 -0.3187869857207E+01  0.0000000000000E+00
 0.2755723013419E-01 -0.3113458417957E+01  0.0000000000000E+00
 0.2756080701816E-01 -0.3039046766379E+01  0.0000000000000E+00
 0.2756438390021E-01 -0.2964635154746E+01  0.0000000000000E+00
 0.2756796077763E-01 -0.2890223639435E+01  0.0000000000000E+00
 0.2757357620929E-01 -0.2815812156528E+01  0.0000000000000E+00
 0.2759359050464E-01 -0.2741404178997E+01  0.0000000000000E+00
 0.2764142170919E-01 -0.2667016488629E+01  0.0000000000000E+00
 0.2772513181383E-01 -0.2592680873597E+01  0.0000000000000E+00
 0.2784788102180E-01 -0.2518435635673E+01  0.0000000000000E+00
 0.2801002613147E-01 -0.2444317493417E+01  0.0000000000000E+00
 0.2821084231645E-01 -0.2370359401164E+01  0.0000000000000E+00
 0.2844950978436E-01 -0.2296592476761E+01  0.0000000000000E+00
 0.2872562358562E-01 -0.2223047978490E+01  0.0000000000000E+00
 0.2903947902730E-01 -0.2149762148230E+01  0.0000000000000E+00
 0.2939230944951E-01 -0.2076779810981E+01  0.0000000000000E+00
 0.2978458968848E-01 -0.2004142496943E+01  0.0000000000000E+00
 0.3021390089791E-01 -0.1931864446174E+01  0.0000000000000E+00
 0.3067843930983E-01 -0.1859960585477E+01  0.0000000000000E+00
 0.3117733955022E-01 -0.1788452694688E+01  0.0000000000000E+00
 0.3171057330060E-01 -0.1717371507933E+01  0.0000000000000E+00
 0.3227895142350E-01 -0.1646759908685E+01  0.0000000000000E+00
 0.3288422786913E-01 -0.1576678366161E+01  0.0000000000000E+00
 0.3352936413022E-01 -0.1507211331629E+01  0.0000000000000E+00
 0.3421896282219E-01 -0.1438486279285E+01  0.0000000000000E+00
 0.3496021186087E-01 -0.1370696285886E+01  0.0000000000000E+00
 0.5500711422706E-01 -0.4229641835551E+01  0.0000000000000E+00
 0.5501422844776E-01 -0.4155239088874E+01  0.0000000000000E+00
 0.5502134268188E-01 -0.4080836201975E+01  0.0000000000000E+00
 0.5502845692218E-01 -0.4006433250401E+01  0.0000000000000E+00
 0.5503557115310E-01 -0.3932030396975E+01  0.0000000000000E+00
 0.5504268538268E-01 -0.3857627557509E+01  0.0000000000000E+00
 0.5504979961317E-01 -0.3783224708589E+01  0.0000000000000E+00
 0.5505691384472E-01 -0.3708821848442E+01  0.0000000000000E+00
 0.5506402807572E-01 -0.3634418994144E+01  0.0000000000000E+00
 0.5507114230682E-01 -0.3560016138826E+01  0.0000000000000E+00
 0.5507825655087E-01 -0.3485613148052E+01  0.0000000000000E+00
 0.5508537077267E-01 -0.3411210389926E+01  0.0000000000000E+00
 0.5509248501566E-01 -0.3336807410241E+01  0.0000000000000E+00
 0.5509959936354E-01 -0.3262403333645E+01  0.0000000000000E+00
 0.5510671347613E-01 -0.3188001717608E+01  0.0000000000000E+00
 0.5511382768746E-01 -0.3113599069026E+01  0.0000000000000E+00
 0.5512094191909E-01 -0.3039196208141E+01  0.0000000000000E+00
 0.5512805614690E-01 -0.2964793387197E+01  0.0000000000000E+00
 0.5513517036551E-01 -0.2890390662564E+01  0.0000000000000E+00
 0.5514636169210E-01 -0.2815987970336E+01  0.0000000000000E+00
 0.5518635074450E-01 -0.2741588783433E+01  0.0000000000000E+00
 0.5528197361253E-01 -0.2667209883609E+01  0.0000000000000E+00
 0.5544935427683E-01 -0.2592883059079E+01  0.0000000000000E+00
 0.5569481314320E-01 -0.2518646611647E+01  0.0000000000000E+00
 0.5601906380812E-01 -0.2444537259892E+01  0.0000000000000E+00
 0.5642065661860E-01 -0.2370587958162E+01  0.0000000000000E+00
 0.5689795199004E-01 -0.2296829824270E+01  0.0000000000000E+00
 0.5745014002266E-01 -0.2223294116531E+01  0.0000000000000E+00
 0.5807781133049E-01 -0.2150017076782E+01  0.0000000000000E+00
 0.5878343259305E-01 -0.2077043530024E+01  0.0000000000000E+00
 0.5956795348486E-01 -0.2004415006491E+01  0.0000000000000E+00
 0.6042653631398E-01 -0.1932145746248E+01  0.0000000000000E+00
 0.6135557354385E-01 -0.1860250676085E+01  0.0000000000000E+00
 0.6235333442590E-01 -0.1788751575835E+01  0.0000000000000E+00
 0.6341976232248E-01 -0.1717679179619E+01  0.0000000000000E+00
 0.6455647895921E-01 -0.1647076370906E+01  0.0000000000000E+00
 0.6576699223576E-01 -0.1577003618849E+01  0.0000000000000E+00
 0.6705722513951E-01 -0.1507545374830E+01  0.0000000000000E+00
 0.6843638290175E-01 -0.1438829112798E+01  0.0000000000000E+00
 0.6991884136106E-01 -0.1371047909622E+01  0.0000000000000E+00
 0.8251057285052E-01 -0.4229656484933E+01  0.0000000000000E+00
 0.8252114569160E-01 -0.4155268387626E+01  0.0000000000000E+00
 0.8253171855261E-01 -0.4080880150123E+01  0.0000000000000E+00
 0.8254229142281E-01 -0.4006491847959E+01  0.0000000000000E+00
 0.8255286427906E-01 -0.3932103643923E+01  0.0000000000000E+00
 0.8256343713333E-01 -0.3857715453844E+01  0.0000000000000E+00
 0.8257400998894E-01 -0.3783327254313E+01  0.0000000000000E+00
 0.8258458284615E-01 -0.3708939043558E+01  0.0000000000000E+00
 0.8259515570252E-01 -0.3634550838650E+01  0.0000000000000E+00
 0.8260572855905E-01 -0.3560162632723E+01  0.0000000000000E+00
 0.8261630143482E-01 -0.3485774291366E+01  0.0000000000000E+00
 0.8262687427753E-01 -0.3411386182611E+01  0.0000000000000E+00
 0.8263744715172E-01 -0.3336997852342E+01  0.0000000000000E+00
 0.8264802018179E-01 -0.3262608425376E+01  0.0000000000000E+00
 0.8265859286221E-01 -0.3188221458486E+01  0.0000000000000E+00
 0.8266916568935E-01 -0.3113833459254E+01  0.0000000000000E+00
 0.8267973854666E-01 -0.3039445247761E+01  0.0000000000000E+00
 0.8269031139830E-01 -0.2965057076200E+01  0.0000000000000E+00
 0.8270088423625E-01 -0.2890669000931E+01  0.0000000000000E+00
 0.8271757273595E-01 -0.2816280958071E+01  0.0000000000000E+00
 0.8277745782398E-01 -0.2741896420454E+01  0.0000000000000E+00
 0.8292079363485E-01 -0.2667532169771E+01  0.0000000000000E+00
 0.8317176613852E-01 -0.2593219994315E+01  0.0000000000000E+00
 0.8353985594311E-01 -0.2518998195939E+01  0.0000000000000E+00
 0.8402613344300E-01 -0.2444903493255E+01  0.0000000000000E+00
 0.8462842415848E-01 -0.2370968840632E+01  0.0000000000000E+00
 0.8534426871307E-01 -0.2297225355828E+01  0.0000000000000E+00
 0.8617245225646E-01 -0.2223704297211E+01  0.0000000000000E+00
 0.8711386071004E-01 -0.2150441906551E+01  0.0000000000000E+00
 0.8817219409272E-01 -0.2077483008847E+01  0.0000000000000E+00
 0.8934887691701E-01 -0.2004869134394E+01  0.0000000000000E+00
 0.9063665264527E-01 -0.1932614523261E+01  0.0000000000000E+00
 0.9203010997243E-01 -0.1860734102227E+01  0.0000000000000E+00
 0.9352665277546E-01 -0.1789249651109E+01  0.0000000000000E+00
 0.9512619609756E-01 -0.1718191904028E+01  0.0000000000000E+00
 0.9683117252744E-01 -0.1647603744444E+01  0.0000000000000E+00
 0.9864684391485E-01 -0.1577545641400E+01  0.0000000000000E+00
 0.1005820947408E+00 -0.1508102046472E+01  0.0000000000000E+00
 0.1026507328546E+00 -0.1439400433198E+01  0.0000000000000E+00
 0.1048743220166E+00 -0.1371633878628E+01  0.0000000000000E+00
 0.1100139134665E+00 -0.4229676990368E+01  0.0000000000000E+00
 0.1100278269205E+00 -0.4155309398477E+01  0.0000000000000E+00
 0.1100417404008E+00 -0.4080941666429E+01  0.0000000000000E+00
 0.1100556538932E+00 -0.4006573869738E+01  0.0000000000000E+00
 0.1100695673672E+00 -0.3932206171148E+01  0.0000000000000E+00
 0.1100834808386E+00 -0.3857838486511E+01  0.0000000000000E+00
 0.1100973943118E+00 -0.3783470792424E+01  0.0000000000000E+00
 0.1101113077871E+00 -0.3709103087117E+01  0.0000000000000E+00
 0.1101252212613E+00 -0.3634735387655E+01  0.0000000000000E+00
 0.1101391347357E+00 -0.3560367687174E+01  0.0000000000000E+00
 0.1101530482354E+00 -0.3485999851300E+01  0.0000000000000E+00
 0.1101669616916E+00 -0.3411632247966E+01  0.0000000000000E+00
 0.1101808751892E+00 -0.3337264423177E+01  0.0000000000000E+00
 0.1101947888920E+00 -0.3262895501994E+01  0.0000000000000E+00
 0.1102087021346E+00 -0.3188529040208E+01  0.0000000000000E+00
 0.1102226155703E+00 -0.3114161546366E+01  0.0000000000000E+00
 0.1102365290458E+00 -0.3039793840320E+01  0.0000000000000E+00
 0.1102504425137E+00 -0.2965426174197E+01  0.0000000000000E+00
 0.1102643559636E+00 -0.2891058604338E+01  0.0000000000000E+00
 0.1102864236291E+00 -0.2816691066893E+01  0.0000000000000E+00
 0.1103660867463E+00 -0.2742327034573E+01  0.0000000000000E+00
 0.1105570174950E+00 -0.2667983288988E+01  0.0000000000000E+00
 0.1108914638340E+00 -0.2593691618536E+01  0.0000000000000E+00
 0.1113820665735E+00 -0.2519490325139E+01  0.0000000000000E+00
 0.1120302529054E+00 -0.2445416127452E+01  0.0000000000000E+00
 0.1128331235231E+00 -0.2371501979881E+01  0.0000000000000E+00
 0.1137873992588E+00 -0.2297779000099E+01  0.0000000000000E+00
 0.1148914603110E+00 -0.2224278446553E+01  0.0000000000000E+00
 0.1161464879092E+00 -0.2151036560917E+01  0.0000000000000E+00
 0.1175574154117E+00 -0.2078098168188E+01  0.0000000000000E+00
 0.1191261421684E+00 -0.2005504798746E+01  0.0000000000000E+00
 0.1208429927959E+00 -0.1933270692668E+01  0.0000000000000E+00
 0.1227007522209E+00 -0.1861410776712E+01  0.0000000000000E+00
 0.1246959589458E+00 -0.1789946830680E+01  0.0000000000000E+00
 0.1268284996947E+00 -0.1718909588687E+01  0.0000000000000E+00
 0.1291016179195E+00 -0.1648341934183E+01  0.0000000000000E+00
 0.1315223294210E+00 -0.1578304336058E+01  0.0000000000000E+00
 0.1341024801722E+00 -0.1508881246156E+01  0.0000000000000E+00
 0.1368604806440E+00 -0.1440200137443E+01  0.0000000000000E+00
 0.1398250825170E+00 -0.1372454087222E+01  0.0000000000000E+00
 0.1375170968594E+00 -0.4229703348160E+01  0.0000000000000E+00
 0.1375341937036E+00 -0.4155362114038E+01  0.0000000000000E+00
 0.1375512905800E+00 -0.4081020739809E+01  0.0000000000000E+00
 0.1375683874712E+00 -0.4006679300958E+01  0.0000000000000E+00
 0.1375854843399E+00 -0.3932337960175E+01  0.0000000000000E+00
 0.1376025812054E+00 -0.3857996633339E+01  0.0000000000000E+00
 0.1376196780730E+00 -0.3783655297058E+01  0.0000000000000E+00
 0.1376367749433E+00 -0.3709313949559E+01  0.0000000000000E+00
 0.1376538718122E+00 -0.3634972607904E+01  0.0000000000000E+00
 0.1376709686813E+00 -0.3560631265231E+01  0.0000000000000E+00
 0.1376880655816E+00 -0.3486289787212E+01  0.0000000000000E+00
 0.1377051624283E+00 -0.3411948541650E+01  0.0000000000000E+00
 0.1377222593261E+00 -0.3337607074712E+01  0.0000000000000E+00
 0.1377393564758E+00 -0.3263264511770E+01  0.0000000000000E+00
 0.1377564530602E+00 -0.3188924407352E+01  0.0000000000000E+00
 0.1377735498818E+00 -0.3114583271243E+01  0.0000000000000E+00
 0.1377906467522E+00 -0.3040241923007E+01  0.0000000000000E+00
 0.1378077436134E+00 -0.2965900614679E+01  0.0000000000000E+00
 0.1378248404525E+00 -0.2891559402581E+01  0.0000000000000E+00
 0.1378521300609E+00 -0.2817218222902E+01  0.0000000000000E+00
 0.1379514139857E+00 -0.2742880548199E+01  0.0000000000000E+00
 0.1381897824530E+00 -0.2668563159972E+01  0.0000000000000E+00
 0.1386075454098E+00 -0.2594297846758E+01  0.0000000000000E+00
 0.1392205038678E+00 -0.2520122910568E+01  0.0000000000000E+00
 0.1400304418163E+00 -0.2446075070112E+01  0.0000000000000E+00
 0.1410337351215E+00 -0.2372187279840E+01  0.0000000000000E+00
 0.1422262848245E+00 -0.2298490657320E+01  0.0000000000000E+00
 0.1436060661727E+00 -0.2225016461099E+01  0.0000000000000E+00
 0.1451745557039E+00 -0.2151800932726E+01  0.0000000000000E+00
 0.1469379201159E+00 -0.2078888897200E+01  0.0000000000000E+00
 0.1488985335956E+00 -0.2006321885006E+01  0.0000000000000E+00
 0.1510443019137E+00 -0.1934114136231E+01  0.0000000000000E+00
 0.1533662062284E+00 -0.1862280577609E+01  0.0000000000000E+00
 0.1558599196680E+00 -0.1790842988921E+01  0.0000000000000E+00
 0.1585253006374E+00 -0.1719832104274E+01  0.0000000000000E+00
 0.1613664034520E+00 -0.1649290807107E+01  0.0000000000000E+00
 0.1643919978645E+00 -0.1579279566112E+01  0.0000000000000E+00
 0.1676168913382E+00 -0.1509882833477E+01  0.0000000000000E+00
 0.1710640969698E+00 -0.1441228081433E+01  0.0000000000000E+00
 0.1747695543587E+00 -0.1373508387609E+01  0.0000000000000E+00
 0.1650200839071E+00 -0.4229735553566E+01  0.0000000000000E+00
 0.1650401677963E+00 -0.4155426524821E+01  0.0000000000000E+00
 0.1650602517234E+00 -0.4081117356029E+01  0.0000000000000E+00
 0.1650803356679E+00 -0.4006808122644E+01  0.0000000000000E+00
 0.1651004195859E+00 -0.3932498987284E+01  0.0000000000000E+00
 0.1651205035002E+00 -0.3858189865866E+01  0.0000000000000E+00
 0.1651405874170E+00 -0.3783880735006E+01  0.0000000000000E+00
 0.1651606713369E+00 -0.3709571592933E+01  0.0000000000000E+00
 0.1651807552551E+00 -0.3635262456702E+01  0.0000000000000E+00
 0.1652008391737E+00 -0.3560953319452E+01  0.0000000000000E+00
 0.1652209231288E+00 -0.3486644046916E+01  0.0000000000000E+00
 0.1652410070211E+00 -0.3412335006736E+01  0.0000000000000E+00
 0.1652610909732E+00 -0.3338025745277E+01  0.0000000000000E+00
 0.1652811752214E+00 -0.3263715388287E+01  0.0000000000000E+00
 0.1653012588054E+00 -0.3189407488756E+01  0.0000000000000E+00
 0.1653213426681E+00 -0.3115098557982E+01  0.0000000000000E+00
 0.1653414265882E+00 -0.3040789415173E+01  0.0000000000000E+00
 0.1653615104974E+00 -0.2966480312253E+01  0.0000000000000E+00
 0.1653815943807E+00 -0.2892171305523E+01  0.0000000000000E+00
 0.1654139095870E+00 -0.2817862331218E+01  0.0000000000000E+00
 0.1655326179762E+00 -0.2743556861706E+01  0.0000000000000E+00
 0.1658182278219E+00 -0.2669271678356E+01  0.0000000000000E+00
 0.1663191110588E+00 -0.2595038569871E+01  0.0000000000000E+00
 0.1670542288993E+00 -0.2520895838369E+01  0.0000000000000E+00
 0.1680257221299E+00 -0.2446880202634E+01  0.0000000000000E+00
 0.1692292417891E+00 -0.2373024617165E+01  0.0000000000000E+00
 0.1706598691281E+00 -0.2299360199403E+01  0.0000000000000E+00
 0.1723151744417E+00 -0.2225918208017E+01  0.0000000000000E+00
 0.1741969295774E+00 -0.2152734884404E+01  0.0000000000000E+00
 0.1763125345726E+00 -0.2079855053562E+01  0.0000000000000E+00
 0.1786648384501E+00 -0.2007320246109E+01  0.0000000000000E+00
 0.1812393281348E+00 -0.1935144702143E+01  0.0000000000000E+00
 0.1840251810165E+00 -0.1863343348367E+01  0.0000000000000E+00
 0.1870172048494E+00 -0.1791937964537E+01  0.0000000000000E+00
 0.1902152297195E+00 -0.1720959284752E+01  0.0000000000000E+00
 0.1936241208052E+00 -0.1650450192432E+01  0.0000000000000E+00
 0.1972544018134E+00 -0.1580471156033E+01  0.0000000000000E+00
 0.2011238416948E+00 -0.1511106628163E+01  0.0000000000000E+00
 0.2052600561778E+00 -0.1442484080152E+01  0.0000000000000E+00
 0.2097061727783E+00 -0.1374796590029E+01  0.0000000000000E+00
 0.1925228353624E+00 -0.4229773600784E+01  0.0000000000000E+00
 0.1925456707045E+00 -0.4155502619222E+01  0.0000000000000E+00
 0.1925685060895E+00 -0.4081231497687E+01  0.0000000000000E+00
 0.1925913414945E+00 -0.4006960311591E+01  0.0000000000000E+00
 0.1926141768693E+00 -0.3932689223469E+01  0.0000000000000E+00
 0.1926370122398E+00 -0.3858418149282E+01  0.0000000000000E+00
 0.1926598476132E+00 -0.3784147065658E+01  0.0000000000000E+00
 0.1926826829901E+00 -0.3709875970828E+01  0.0000000000000E+00
 0.1927055183652E+00 -0.3635604881835E+01  0.0000000000000E+00
 0.1927283537406E+00 -0.3561333791825E+01  0.0000000000000E+00
 0.1927511891575E+00 -0.3487062566598E+01  0.0000000000000E+00
 0.1927740245031E+00 -0.3412791573608E+01  0.0000000000000E+00
 0.1927968599166E+00 -0.3338520359451E+01  0.0000000000000E+00
 0.1928196956668E+00 -0.3264248050325E+01  0.0000000000000E+00
 0.1928425306619E+00 -0.3189978197401E+01  0.0000000000000E+00
 0.1928653659738E+00 -0.3115707313761E+01  0.0000000000000E+00
 0.1928882013509E+00 -0.3041436218193E+01  0.0000000000000E+00
 0.1929110367158E+00 -0.2967165162496E+01  0.0000000000000E+00
 0.1929338720510E+00 -0.2892894202938E+01  0.0000000000000E+00
 0.1929709772629E+00 -0.2818623275814E+01  0.0000000000000E+00
 0.1931088745236E+00 -0.2744355853266E+01  0.0000000000000E+00
 0.1934414901538E+00 -0.2670108716509E+01  0.0000000000000E+00
 0.1940252580734E+00 -0.2595913654441E+01  0.0000000000000E+00
 0.1948822996948E+00 -0.2521808969312E+01  0.0000000000000E+00
 0.1960151126007E+00 -0.2447831379984E+01  0.0000000000000E+00
 0.1974186230017E+00 -0.2374013841021E+01  0.0000000000000E+00
 0.1990870923602E+00 -0.2300387469712E+01  0.0000000000000E+00
 0.2010176860176E+00 -0.2226983524869E+01  0.0000000000000E+00
 0.2032124711323E+00 -0.2153838247711E+01  0.0000000000000E+00
 0.2056800810808E+00 -0.2080996463236E+01  0.0000000000000E+00
 0.2084238397212E+00 -0.2008499702214E+01  0.0000000000000E+00
 0.2114268151323E+00 -0.1936362204762E+01  0.0000000000000E+00
 0.2146763809363E+00 -0.1864598897542E+01  0.0000000000000E+00
 0.2181664795136E+00 -0.1793231560282E+01  0.0000000000000E+00
 0.2218969126310E+00 -0.1722290927072E+01  0.0000000000000E+00
 0.2258733563306E+00 -0.1651819881312E+01  0.0000000000000E+00
 0.2301080882744E+00 -0.1581878891174E+01  0.0000000000000E+00
 0.2346218388973E+00 -0.1512552409764E+01  0.0000000000000E+00
 0.2394468265655E+00 -0.1443967907350E+01  0.0000000000000E+00
 0.2446333667075E+00 -0.1376318462430E+01  0.0000000000000E+00
 0.2200253125104E+00 -0.4229817482990E+01  0.0000000000000E+00
 0.2200506249983E+00 -0.4155590383597E+01  0.0000000000000E+00
 0.2200759375338E+00 -0.4081363144312E+01  0.0000000000000E+00
 0.2201012500914E+00 -0.4007135840505E+01  0.0000000000000E+00
 0.2201265626155E+00 -0.3932908634614E+01  0.0000000000000E+00
 0.2201518751349E+00 -0.3858681442649E+01  0.0000000000000E+00
 0.2201771876576E+00 -0.3784454241253E+01  0.0000000000000E+00
 0.2202025001840E+00 -0.3710227028657E+01  0.0000000000000E+00
 0.2202278127085E+00 -0.3635999821897E+01  0.0000000000000E+00
 0.2202531252333E+00 -0.3561772614118E+01  0.0000000000000E+00
 0.2202784378042E+00 -0.3487545271203E+01  0.0000000000000E+00
 0.2203037502959E+00 -0.3413318160387E+01  0.0000000000000E+00
 0.2203290628630E+00 -0.3339090828536E+01  0.0000000000000E+00
 0.2203543758033E+00 -0.3264862402362E+01  0.0000000000000E+00
 0.2203796879065E+00 -0.3190636430938E+01  0.0000000000000E+00
 0.2204050003610E+00 -0.3116409429408E+01  0.0000000000000E+00
 0.2204303128877E+00 -0.3042182216076E+01  0.0000000000000E+00
 0.2204556254008E+00 -0.2967955042590E+01  0.0000000000000E+00
 0.2204809378811E+00 -0.2893727965187E+01  0.0000000000000E+00
 0.2205225587916E+00 -0.2819500920227E+01  0.0000000000000E+00
 0.2206793706184E+00 -0.2745277379593E+01  0.0000000000000E+00
 0.2210587177307E+00 -0.2671074124321E+01  0.0000000000000E+00
 0.2217250960322E+00 -0.2596922943538E+01  0.0000000000000E+00
 0.2227037871342E+00 -0.2522862139640E+01  0.0000000000000E+00
 0.2239976454152E+00 -0.2448928431584E+01  0.0000000000000E+00
 0.2256008722577E+00 -0.2375154774008E+01  0.0000000000000E+00
 0.2275069093357E+00 -0.2301572284024E+01  0.0000000000000E+00
 0.2297125170368E+00 -0.2228212220609E+01  0.0000000000000E+00
 0.2322200578312E+00 -0.2155110824777E+01  0.0000000000000E+00
 0.2350393984347E+00 -0.2082312921528E+01  0.0000000000000E+00
 0.2381743375395E+00 -0.2009860041806E+01  0.0000000000000E+00
 0.2416055243783E+00 -0.1937766425747E+01  0.0000000000000E+00
 0.2453185288059E+00 -0.1866046999972E+01  0.0000000000000E+00
 0.2493064278290E+00 -0.1794723544173E+01  0.0000000000000E+00
 0.2535689948955E+00 -0.1723826792427E+01  0.0000000000000E+00
 0.2581127169110E+00 -0.1653399628115E+01  0.0000000000000E+00
 0.2629516254948E+00 -0.1583502519080E+01  0.0000000000000E+00
 0.2681094125627E+00 -0.1514219919004E+01  0.0000000000000E+00
 0.2736228991260E+00 -0.1445679296927E+01  0.0000000000000E+00
 0.2795495885227E+00 -0.1378073731891E+01  0.0000000000000E+00
 0.2475274766539E+00 -0.4229867192326E+01  0.0000000000000E+00
 0.2475549532832E+00 -0.4155689802224E+01  0.0000000000000E+00
 0.2475824299644E+00 -0.4081512272324E+01  0.0000000000000E+00
 0.2476099066694E+00 -0.4007334677945E+01  0.0000000000000E+00
 0.2476373833382E+00 -0.3933157181417E+01  0.0000000000000E+00
 0.2476648600018E+00 -0.3858979698806E+01  0.0000000000000E+00
 0.2476923366689E+00 -0.3784802206770E+01  0.0000000000000E+00
 0.2477198133402E+00 -0.3710624703541E+01  0.0000000000000E+00
 0.2477472900093E+00 -0.3636447206144E+01  0.0000000000000E+00
 0.2477747666787E+00 -0.3562269707729E+01  0.0000000000000E+00
 0.2478022433982E+00 -0.3488092074268E+01  0.0000000000000E+00
 0.2478297200318E+00 -0.3413914672752E+01  0.0000000000000E+00
 0.2478571967472E+00 -0.3339737050347E+01  0.0000000000000E+00
 0.2478846738677E+00 -0.3265558334353E+01  0.0000000000000E+00
 0.2479121500795E+00 -0.3191382071466E+01  0.0000000000000E+00
 0.2479396266726E+00 -0.3117204779162E+01  0.0000000000000E+00
 0.2479671033442E+00 -0.3043027275197E+01  0.0000000000000E+00
 0.2479945800010E+00 -0.2968849811053E+01  0.0000000000000E+00
 0.2480220566222E+00 -0.2894672442926E+01  0.0000000000000E+00
 0.2480678802269E+00 -0.2820495107254E+01  0.0000000000000E+00
 0.2482432936180E+00 -0.2746321275624E+01  0.0000000000000E+00
 0.2486690592144E+00 -0.2672167728870E+01  0.0000000000000E+00
 0.2494177349024E+00 -0.2598066256378E+01  0.0000000000000E+00
 0.2505177624914E+00 -0.2524055160710E+01  0.0000000000000E+00
 0.2519723531549E+00 -0.2450171160932E+01  0.0000000000000E+00
 0.2537749834465E+00 -0.2376447211761E+01  0.0000000000000E+00
 0.2559182752537E+00 -0.2302914430113E+01  0.0000000000000E+00
 0.2583985840084E+00 -0.2229604075153E+01  0.0000000000000E+00
 0.2612185674944E+00 -0.2156552387660E+01  0.0000000000000E+00
 0.2643893257669E+00 -0.2083804192633E+01  0.0000000000000E+00
 0.2679151323508E+00 -0.2011401021221E+01  0.0000000000000E+00
 0.2717742176326E+00 -0.1939357113576E+01  0.0000000000000E+00
 0.2759503476999E+00 -0.1867687396273E+01  0.0000000000000E+00
 0.2804357341858E+00 -0.1796413648963E+01  0.0000000000000E+00
 0.2852301222195E+00 -0.1725566605714E+01  0.0000000000000E+00
 0.2903408095704E+00 -0.1655189149877E+01  0.0000000000000E+00
 0.2957835818175E+00 -0.1585341748928E+01  0.0000000000000E+00
 0.3015850923532E+00 -0.1516108857198E+01  0.0000000000000E+00
 0.3077867648430E+00 -0.1447617942338E+01  0.0000000000000E+00
 0.3144532905308E+00 -0.1380062084006E+01  0.0000000000000E+00
 0.2750292892693E+00 -0.4229922719906E+01  0.0000000000000E+00
 0.2750585785124E+00 -0.4155800857335E+01  0.0000000000000E+00
 0.2750878678108E+00 -0.4081678855069E+01  0.0000000000000E+00
 0.2751171571346E+00 -0.4007556788374E+01  0.0000000000000E+00
 0.2751464464198E+00 -0.3933434819456E+01  0.0000000000000E+00
 0.2751757356995E+00 -0.3859312864444E+01  0.0000000000000E+00
 0.2752050249829E+00 -0.3785190900015E+01  0.0000000000000E+00
 0.2752343142707E+00 -0.3711068924401E+01  0.0000000000000E+00
 0.2752636035562E+00 -0.3636946954615E+01  0.0000000000000E+00
 0.2752928928421E+00 -0.3562824983812E+01  0.0000000000000E+00
 0.2753221821814E+00 -0.3488702878064E+01  0.0000000000000E+00
 0.2753514714290E+00 -0.3414581004086E+01  0.0000000000000E+00
 0.2753807607639E+00 -0.3340458909386E+01  0.0000000000000E+00
 0.2754100505306E+00 -0.3266335721915E+01  0.0000000000000E+00
 0.2754393393287E+00 -0.3192214985714E+01  0.0000000000000E+00
 0.2754686285332E+00 -0.3118093220867E+01  0.0000000000000E+00
 0.2754979178213E+00 -0.3043971244518E+01  0.0000000000000E+00
 0.2755272070937E+00 -0.2969849307959E+01  0.0000000000000E+00
 0.2755564963282E+00 -0.2895727467347E+01  0.0000000000000E+00
 0.2756061710997E+00 -0.2821605659200E+01  0.0000000000000E+00
 0.2757998345302E+00 -0.2747487354780E+01  0.0000000000000E+00
 0.2762716670907E+00 -0.2673389334693E+01  0.0000000000000E+00
 0.2771022886488E+00 -0.2599343388614E+01  0.0000000000000E+00
 0.2783233012108E+00 -0.2525387819291E+01  0.0000000000000E+00
 0.2799382727445E+00 -0.2451559345910E+01  0.0000000000000E+00
 0.2819399549741E+00 -0.2377890923281E+01  0.0000000000000E+00
 0.2843201500017E+00 -0.2304413668096E+01  0.0000000000000E+00
 0.2870748083025E+00 -0.2231158839731E+01  0.0000000000000E+00
 0.2902068829753E+00 -0.2158162678704E+01  0.0000000000000E+00
 0.2937287074149E+00 -0.2085470010015E+01  0.0000000000000E+00
 0.2976450299774E+00 -0.2013122365035E+01  0.0000000000000E+00
 0.3019316622029E+00 -0.1941133983942E+01  0.0000000000000E+00
 0.3065705664120E+00 -0.1869519793253E+01  0.0000000000000E+00
 0.3115530888646E+00 -0.1798301572579E+01  0.0000000000000E+00
 0.3168789463712E+00 -0.1727510055970E+01  0.0000000000000E+00
 0.3225562475650E+00 -0.1657188126752E+01  0.0000000000000E+00
 0.3286025319875E+00 -0.1587396251987E+01  0.0000000000000E+00
 0.3350474145034E+00 -0.1518218886732E+01  0.0000000000000E+00
 0.3419369214426E+00 -0.1449783497085E+01  0.0000000000000E+00
 0.3493429319505E+00 -0.1382283163393E+01  0.0000000000000E+00
 0.3025307120396E+00 -0.4229984055830E+01  0.0000000000000E+00
 0.3025614240518E+00 -0.4155923529129E+01  0.0000000000000E+00
 0.3025921361219E+00 -0.4081862862849E+01  0.0000000000000E+00
 0.3026228482187E+00 -0.4007802132191E+01  0.0000000000000E+00
 0.3026535602750E+00 -0.3933741499231E+01  0.0000000000000E+00
 0.3026842723255E+00 -0.3859680880166E+01  0.0000000000000E+00
 0.3027149843799E+00 -0.3785620251690E+01  0.0000000000000E+00
 0.3027456964389E+00 -0.3711559612040E+01  0.0000000000000E+00
 0.3027764084955E+00 -0.3637498978211E+01  0.0000000000000E+00
 0.3028071205526E+00 -0.3563438343367E+01  0.0000000000000E+00
 0.3028378326656E+00 -0.3489377573690E+01  0.0000000000000E+00
 0.3028685446825E+00 -0.3415317035591E+01  0.0000000000000E+00
 0.3028992567909E+00 -0.3341256276953E+01  0.0000000000000E+00
 0.3029299693521E+00 -0.3267194426448E+01  0.0000000000000E+00
 0.3029606808976E+00 -0.3193135025185E+01  0.0000000000000E+00
 0.3029913928693E+00 -0.3119074596126E+01  0.0000000000000E+00
 0.3030221049286E+00 -0.3045013955741E+01  0.0000000000000E+00
 0.3030528169715E+00 -0.2970953355113E+01  0.0000000000000E+00
 0.3030835289746E+00 -0.2896892850352E+01  0.0000000000000E+00
 0.3031366650683E+00 -0.2822832378069E+01  0.0000000000000E+00
 0.3033481886970E+00 -0.2748775409164E+01  0.0000000000000E+00
 0.3038656983863E+00 -0.2674738723994E+01  0.0000000000000E+00
 0.3047778759835E+00 -0.2600754112549E+01  0.0000000000000E+00
 0.3061194836908E+00 -0.2526859877786E+01  0.0000000000000E+00
 0.3078944462696E+00 -0.2453092739024E+01  0.0000000000000E+00
 0.3100947906140E+00 -0.2379485651171E+01  0.0000000000000E+00
 0.3127114990421E+00 -0.2306069730678E+01  0.0000000000000E+00
 0.3157401170710E+00 -0.2232876237149E+01  0.0000000000000E+00
 0.3191838931162E+00 -0.2159941410816E+01  0.0000000000000E+00
 0.3230563939122E+00 -0.2087310076679E+01  0.0000000000000E+00
 0.3273628426451E+00 -0.2015023766356E+01  0.0000000000000E+00
 0.3320766320079E+00 -0.1943096720051E+01  0.0000000000000E+00
 0.3371779205545E+00 -0.1871543864221E+01  0.0000000000000E+00
 0.3426571891719E+00 -0.1800386978427E+01  0.0000000000000E+00
 0.3485141263518E+00 -0.1729656796705E+01  0.0000000000000E+00
 0.3547576515920E+00 -0.1659396202350E+01  0.0000000000000E+00
 0.3614070583991E+00 -0.1589665661967E+01  0.0000000000000E+00
 0.3684949231053E+00 -0.1520549631415E+01  0.0000000000000E+00
 0.3760718747160E+00 -0.1452175575078E+01  0.0000000000000E+00
 0.3842169802741E+00 -0.1384736574064E+01  0.0000000000000E+00
 0.3300317066083E+00 -0.4230051189169E+01  0.0000000000000E+00
 0.3300634131883E+00 -0.4156057795746E+01  0.0000000000000E+00
 0.3300951198281E+00 -0.4082064262871E+01  0.0000000000000E+00
 0.3301268264954E+00 -0.4008070665678E+01  0.0000000000000E+00
 0.3301585331209E+00 -0.3934077166092E+01  0.0000000000000E+00
 0.3301902397405E+00 -0.3860083680390E+01  0.0000000000000E+00
 0.3302219463641E+00 -0.3786090185285E+01  0.0000000000000E+00
 0.3302536529925E+00 -0.3712096679016E+01  0.0000000000000E+00
 0.3302853596183E+00 -0.3638103178563E+01  0.0000000000000E+00
 0.3303170662447E+00 -0.3564109677096E+01  0.0000000000000E+00
 0.3303487729287E+00 -0.3490116040918E+01  0.0000000000000E+00
 0.3303804795136E+00 -0.3416122636108E+01  0.0000000000000E+00
 0.3304121861929E+00 -0.3342129010959E+01  0.0000000000000E+00
 0.3304438933397E+00 -0.3268134294932E+01  0.0000000000000E+00
 0.3304755994379E+00 -0.3194142025928E+01  0.0000000000000E+00
 0.3305073059761E+00 -0.3120148730060E+01  0.0000000000000E+00
 0.3305390126048E+00 -0.3046155223056E+01  0.0000000000000E+00
 0.3305707192164E+00 -0.2972161755774E+01  0.0000000000000E+00
 0.3306024257871E+00 -0.2898168384272E+01  0.0000000000000E+00
 0.3306585950016E+00 -0.2824175045263E+01  0.0000000000000E+00
 0.3308875506280E+00 -0.2750185209249E+01  0.0000000000000E+00
 0.3314503092469E+00 -0.2676215656314E+01  0.0000000000000E+00
 0.3324436146825E+00 -0.2602298176796E+01  0.0000000000000E+00
 0.3339053893309E+00 -0.2528471073879E+01  0.0000000000000E+00
 0.3358399147463E+00 -0.2454771067025E+01  0.0000000000000E+00
 0.3382384929918E+00 -0.2381231111256E+01  0.0000000000000E+00
 0.3410912866036E+00 -0.2307882322751E+01  0.0000000000000E+00
 0.3443934361388E+00 -0.2234755961370E+01  0.0000000000000E+00
 0.3481484853320E+00 -0.2161888267029E+01  0.0000000000000E+00
 0.3523712342570E+00 -0.2089324064728E+01  0.0000000000000E+00
 0.3570673809279E+00 -0.2017104886358E+01  0.0000000000000E+00
 0.3622078991912E+00 -0.1945244972146E+01  0.0000000000000E+00
 0.3677711438344E+00 -0.1873759248489E+01  0.0000000000000E+00
 0.3737467303719E+00 -0.1802669494891E+01  0.0000000000000E+00
 0.3801343189772E+00 -0.1732006445373E+01  0.0000000000000E+00
 0.3869436400121E+00 -0.1661812983195E+01  0.0000000000000E+00
 0.3941957409519E+00 -0.1592149574463E+01  0.0000000000000E+00
 0.4019261595902E+00 -0.1523100675912E+01  0.0000000000000E+00
 0.4101901276194E+00 -0.1454793750053E+01  0.0000000000000E+00
 0.4190738999739E+00 -0.1387421878824E+01  0.0000000000000E+00
 0.3575322350942E+00 -0.4230124108012E+01  0.0000000000000E+00
 0.3575644701596E+00 -0.4156203633367E+01  0.0000000000000E+00
 0.3575967052858E+00 -0.4082283019407E+01  0.0000000000000E+00
 0.3576289404400E+00 -0.4008362341192E+01  0.0000000000000E+00
 0.3576611755516E+00 -0.3934441760489E+01  0.0000000000000E+00
 0.3576934106573E+00 -0.3860521193655E+01  0.0000000000000E+00
 0.3577256457670E+00 -0.3786600617428E+01  0.0000000000000E+00
 0.3577578808816E+00 -0.3712680030048E+01  0.0000000000000E+00
 0.3577901159936E+00 -0.3638759448479E+01  0.0000000000000E+00
 0.3578223511061E+00 -0.3564838865896E+01  0.0000000000000E+00
 0.3578545862773E+00 -0.3490918148735E+01  0.0000000000000E+00
 0.3578868213477E+00 -0.3416997662714E+01  0.0000000000000E+00
 0.3579190565140E+00 -0.3343076956571E+01  0.0000000000000E+00
 0.3579512921557E+00 -0.3269155160625E+01  0.0000000000000E+00
 0.3579835267312E+00 -0.3195235809291E+01  0.0000000000000E+00
 0.3580157617542E+00 -0.3121315432104E+01  0.0000000000000E+00
 0.3580479968691E+00 -0.3047394843990E+01  0.0000000000000E+00
 0.3580802319667E+00 -0.2973474295559E+01  0.0000000000000E+00
 0.3581124670225E+00 -0.2899553842813E+01  0.0000000000000E+00
 0.3581712032753E+00 -0.2825633422575E+01  0.0000000000000E+00
 0.3584171248179E+00 -0.2751716504917E+01  0.0000000000000E+00
 0.3590246662867E+00 -0.2677819869626E+01  0.0000000000000E+00
 0.3600986334791E+00 -0.2603975307419E+01  0.0000000000000E+00
 0.3616801089837E+00 -0.2530221121722E+01  0.0000000000000E+00
 0.3637737311460E+00 -0.2456594032159E+01  0.0000000000000E+00
 0.3663700771977E+00 -0.2383126993868E+01  0.0000000000000E+00
 0.3694584898948E+00 -0.2309851122740E+01  0.0000000000000E+00
 0.3730337048331E+00 -0.2236797678909E+01  0.0000000000000E+00
 0.3770995610680E+00 -0.2164002901948E+01  0.0000000000000E+00
 0.3816720920128E+00 -0.2091511616858E+01  0.0000000000000E+00
 0.3867574705075E+00 -0.2019365355824E+01  0.0000000000000E+00
 0.3923242515520E+00 -0.1947578359104E+01  0.0000000000000E+00
 0.3983489861684E+00 -0.1876165553022E+01  0.0000000000000E+00
 0.4048204244990E+00 -0.1805148717026E+01  0.0000000000000E+00
 0.4117381983987E+00 -0.1734558585119E+01  0.0000000000000E+00
 0.4191128490940E+00 -0.1664438040521E+01  0.0000000000000E+00
 0.4269671780319E+00 -0.1594847548798E+01  0.0000000000000E+00
 0.4353396844610E+00 -0.1525871567639E+01  0.0000000000000E+00
 0.4442902027733E+00 -0.1457637557515E+01  0.0000000000000E+00
 0.4539121757881E+00 -0.1390338601268E+01  0.0000000000000E+00
 0.3850322601332E+00 -0.4230202799491E+01  0.0000000000000E+00
 0.3850645202376E+00 -0.4156361016254E+01  0.0000000000000E+00
 0.3850967804028E+00 -0.4082519093852E+01  0.0000000000000E+00
 0.3851290405960E+00 -0.4008677107263E+01  0.0000000000000E+00
 0.3851613007467E+00 -0.3934835218081E+01  0.0000000000000E+00
 0.3851935608914E+00 -0.3860993342754E+01  0.0000000000000E+00
 0.3852258210401E+00 -0.3787151458044E+01  0.0000000000000E+00
 0.3852580811937E+00 -0.3713309562193E+01  0.0000000000000E+00
 0.3852903413448E+00 -0.3639467672146E+01  0.0000000000000E+00
 0.3853226014963E+00 -0.3565625781087E+01  0.0000000000000E+00
 0.3853548617065E+00 -0.3491783755593E+01  0.0000000000000E+00
 0.3853871218159E+00 -0.3417941960993E+01  0.0000000000000E+00
 0.3854193820213E+00 -0.3344099946505E+01  0.0000000000000E+00
 0.3854516427024E+00 -0.3270256843375E+01  0.0000000000000E+00
 0.3854839023165E+00 -0.3196416182253E+01  0.0000000000000E+00
 0.3855161623784E+00 -0.3122574496372E+01  0.0000000000000E+00
 0.3855484225323E+00 -0.3048732599788E+01  0.0000000000000E+00
 0.3855806826689E+00 -0.2974890742843E+01  0.0000000000000E+00
 0.3856129427638E+00 -0.2901048981483E+01  0.0000000000000E+00
 0.3856737426085E+00 -0.2827207252647E+01  0.0000000000000E+00
 0.3859361266252E+00 -0.2753369025944E+01  0.0000000000000E+00
 0.3865879475086E+00 -0.2679551080838E+01  0.0000000000000E+00
 0.3877420730279E+00 -0.2605785208455E+01  0.0000000000000E+00
 0.3894427459622E+00 -0.2532109712488E+01  0.0000000000000E+00
 0.3916949614475E+00 -0.2458561312728E+01  0.0000000000000E+00
 0.3944885718833E+00 -0.2385172964444E+01  0.0000000000000E+00
 0.3978121002474E+00 -0.2311975783213E+01  0.0000000000000E+00
 0.4016598771719E+00 -0.2239001029465E+01  0.0000000000000E+00
 0.4060360370360E+00 -0.2166284942405E+01  0.0000000000000E+00
 0.4109578465920E+00 -0.2093872347033E+01  0.0000000000000E+00
 0.4164319535044E+00 -0.2021804775852E+01  0.0000000000000E+00
 0.4224244939258E+00 -0.1950096469153E+01  0.0000000000000E+00
 0.4289102151131E+00 -0.1878762353182E+01  0.0000000000000E+00
 0.4358770018369E+00 -0.1807824207326E+01  0.0000000000000E+00
 0.4433244576339E+00 -0.1737312765568E+01  0.0000000000000E+00
 0.4512639345954E+00 -0.1667270911087E+01  0.0000000000000E+00
 0.4597199881440E+00 -0.1597759108864E+01  0.0000000000000E+00
 0.4687340789769E+00 -0.1528861817618E+01  0.0000000000000E+00
 0.4783706442004E+00 -0.1460706495619E+01  0.0000000000000E+00
 0.4887303145127E+00 -0.1393486226685E+01  0.0000000000000E+00
 0.4125317444436E+00 -0.4230287249750E+01  0.0000000000000E+00
 0.4125634888589E+00 -0.4156529916697E+01  0.0000000000000E+00
 0.4125952333340E+00 -0.4082772444637E+01  0.0000000000000E+00
 0.4126269778367E+00 -0.4009014908464E+01  0.0000000000000E+00
 0.4126587222975E+00 -0.3935257469588E+01  0.0000000000000E+00
 0.4126904667524E+00 -0.3861500044550E+01  0.0000000000000E+00
 0.4127222112113E+00 -0.3787742610140E+01  0.0000000000000E+00
 0.4127539556750E+00 -0.3713985164601E+01  0.0000000000000E+00
 0.4127857001362E+00 -0.3640227724860E+01  0.0000000000000E+00
 0.4128174445979E+00 -0.3566470284108E+01  0.0000000000000E+00
 0.4128491891173E+00 -0.3492712709074E+01  0.0000000000000E+00
 0.4128809335375E+00 -0.3418955364671E+01  0.0000000000000E+00
 0.4129126780522E+00 -0.3345197800631E+01  0.0000000000000E+00
 0.4129444230349E+00 -0.3271439149195E+01  0.0000000000000E+00
 0.4129761669678E+00 -0.3197682936973E+01  0.0000000000000E+00
 0.4130079113412E+00 -0.3123925701164E+01  0.0000000000000E+00
 0.4130396558052E+00 -0.3050168254893E+01  0.0000000000000E+00
 0.4130714002522E+00 -0.2976410848217E+01  0.0000000000000E+00
 0.4131031446580E+00 -0.2902653537015E+01  0.0000000000000E+00
 0.4131654673669E+00 -0.2828896258356E+01  0.0000000000000E+00
 0.4134437731345E+00 -0.2755142481348E+01  0.0000000000000E+00
 0.4141393327177E+00 -0.2681408985113E+01  0.0000000000000E+00
 0.4153730758553E+00 -0.2607727561214E+01  0.0000000000000E+00
 0.4171924055158E+00 -0.2534136513627E+01  0.0000000000000E+00
 0.4196026736245E+00 -0.2460672562328E+01  0.0000000000000E+00
 0.4225930077475E+00 -0.2387368662724E+01  0.0000000000000E+00
 0.4261511110864E+00 -0.2314255930053E+01  0.0000000000000E+00
 0.4302709093080E+00 -0.2241365625067E+01  0.0000000000000E+00
 0.4349568321173E+00 -0.2168733986572E+01  0.0000000000000E+00
 0.4402273796064E+00 -0.2096405839569E+01  0.0000000000000E+00
 0.4460896742614E+00 -0.2024422716902E+01  0.0000000000000E+00
 0.4525074333876E+00 -0.1952798858897E+01  0.0000000000000E+00
 0.4594536004770E+00 -0.1881549191718E+01  0.0000000000000E+00
 0.4669151949288E+00 -0.1810695494684E+01  0.0000000000000E+00
 0.4748917919615E+00 -0.1740268501757E+01  0.0000000000000E+00
 0.4833955545316E+00 -0.1670311096074E+01  0.0000000000000E+00
 0.4924527920416E+00 -0.1600883741987E+01  0.0000000000000E+00
 0.5021079266308E+00 -0.1532070899318E+01  0.0000000000000E+00
 0.5124299981347E+00 -0.1464000023979E+01  0.0000000000000E+00
 0.5235268251251E+00 -0.1396864200833E+01  0.0000000000000E+00
 0.4400306510556E+00 -0.4230377443976E+01  0.0000000000000E+00
 0.4400613020839E+00 -0.4156710305068E+01  0.0000000000000E+00
 0.4400919531699E+00 -0.4083043027324E+01  0.0000000000000E+00
 0.4401226042826E+00 -0.4009375685544E+01  0.0000000000000E+00
 0.4401532553548E+00 -0.3935708440943E+01  0.0000000000000E+00
 0.4401839064213E+00 -0.3862041210162E+01  0.0000000000000E+00
 0.4402145574917E+00 -0.3788373970022E+01  0.0000000000000E+00
 0.4402452085667E+00 -0.3714706718766E+01  0.0000000000000E+00
 0.4402758596393E+00 -0.3641039473300E+01  0.0000000000000E+00
 0.4403065107123E+00 -0.3567372226825E+01  0.0000000000000E+00
 0.4403371618411E+00 -0.3493704846233E+01  0.0000000000000E+00
 0.4403678128741E+00 -0.3420037695989E+01  0.0000000000000E+00
 0.4403984639983E+00 -0.3346370326377E+01  0.0000000000000E+00
 0.4404291155744E+00 -0.3272701870698E+01  0.0000000000000E+00
 0.4404597661369E+00 -0.3199035851251E+01  0.0000000000000E+00
 0.4404904171248E+00 -0.3125368809468E+01  0.0000000000000E+00
 0.4405210682001E+00 -0.3051701557481E+01  0.0000000000000E+00
 0.4405517192589E+00 -0.2978034345040E+01  0.0000000000000E+00
 0.4405823702781E+00 -0.2904367227957E+01  0.0000000000000E+00
 0.4406456381536E+00 -0.2830700143436E+01  0.0000000000000E+00
 0.4409392879798E+00 -0.2757036560052E+01  0.0000000000000E+00
 0.4416780085804E+00 -0.2683393256561E+01  0.0000000000000E+00
 0.4429907916617E+00 -0.2609802024991E+01  0.0000000000000E+00
 0.4449282003801E+00 -0.2536301169624E+01  0.0000000000000E+00
 0.4474959434490E+00 -0.2462927410630E+01  0.0000000000000E+00
 0.4506824236002E+00 -0.2389713703565E+01  0.0000000000000E+00
 0.4544745242614E+00 -0.2316691163306E+01  0.0000000000000E+00
 0.4588657661314E+00 -0.2243891050946E+01  0.0000000000000E+00
 0.4638608742442E+00 -0.2171349604868E+01  0.0000000000000E+00
 0.4694795820315E+00 -0.2099111650073E+01  0.0000000000000E+00
 0.4757294867991E+00 -0.2027218719768E+01  0.0000000000000E+00
 0.4825718870042E+00 -0.1955685054318E+01  0.0000000000000E+00
 0.4899779223743E+00 -0.1884525579796E+01  0.0000000000000E+00
 0.4979337469374E+00 -0.1813762075454E+01  0.0000000000000E+00
 0.5064389075941E+00 -0.1743425275228E+01  0.0000000000000E+00
 0.5155063781664E+00 -0.1673558062210E+01  0.0000000000000E+00
 0.5251642220414E+00 -0.1604220900080E+01  0.0000000000000E+00
 0.5354598227929E+00 -0.1535498249841E+01  0.0000000000000E+00
 0.5464668230032E+00 -0.1467517564884E+01  0.0000000000000E+00
 0.5583002291111E+00 -0.1400471931189E+01  0.0000000000000E+00
 0.4675289425592E+00 -0.4230473366311E+01  0.0000000000000E+00
 0.4675578850925E+00 -0.4156902149654E+01  0.0000000000000E+00
 0.4675868276804E+00 -0.4083330794340E+01  0.0000000000000E+00
 0.4676157702935E+00 -0.4009759375075E+01  0.0000000000000E+00
 0.4676447128684E+00 -0.3936188052861E+01  0.0000000000000E+00
 0.4676736554378E+00 -0.3862616744450E+01  0.0000000000000E+00
 0.4677025980109E+00 -0.3789045426691E+01  0.0000000000000E+00
 0.4677315405884E+00 -0.3715474097832E+01  0.0000000000000E+00
 0.4677604831636E+00 -0.3641902774755E+01  0.0000000000000E+00
 0.4677894257392E+00 -0.3568331450670E+01  0.0000000000000E+00
 0.4678183683676E+00 -0.3494759992643E+01  0.0000000000000E+00
 0.4678473109054E+00 -0.3421188764663E+01  0.0000000000000E+00
 0.4678762535293E+00 -0.3347617317602E+01  0.0000000000000E+00
 0.4679051965800E+00 -0.3274044785887E+01  0.0000000000000E+00
 0.4679341386736E+00 -0.3200474687233E+01  0.0000000000000E+00
 0.4679630811688E+00 -0.3126903567574E+01  0.0000000000000E+00
 0.4679920237465E+00 -0.3053332237984E+01  0.0000000000000E+00
 0.4680209663088E+00 -0.2979760947889E+01  0.0000000000000E+00
 0.4680499088336E+00 -0.2906189753027E+01  0.0000000000000E+00
 0.4681135067670E+00 -0.2832618590747E+01  0.0000000000000E+00
 0.4684218855411E+00 -0.2759050929060E+01  0.0000000000000E+00
 0.4692031520433E+00 -0.2685503546327E+01  0.0000000000000E+00
 0.4705943599415E+00 -0.2612008235077E+01  0.0000000000000E+00
 0.4726492325763E+00 -0.2538603299912E+01  0.0000000000000E+00
 0.4753738354481E+00 -0.2465325461211E+01  0.0000000000000E+00
 0.4787558464532E+00 -0.2392207674687E+01  0.0000000000000E+00
 0.4827813292485E+00 -0.2319281054835E+01  0.0000000000000E+00
 0.4874433995627E+00 -0.2246576863109E+01  0.0000000000000E+00
 0.4927470777613E+00 -0.2174131337442E+01  0.0000000000000E+00
 0.4987133306152E+00 -0.2101989302836E+01  0.0000000000000E+00
 0.5053502302475E+00 -0.2030192292885E+01  0.0000000000000E+00
 0.5126166562676E+00 -0.1958754547993E+01  0.0000000000000E+00
 0.5204819446400E+00 -0.1887690994141E+01  0.0000000000000E+00
 0.5289313840225E+00 -0.1817023410501E+01  0.0000000000000E+00
 0.5379644929975E+00 -0.1746782530989E+01  0.0000000000000E+00
 0.5475950562530E+00 -0.1677011238647E+01  0.0000000000000E+00
 0.5578528911642E+00 -0.1607769996440E+01  0.0000000000000E+00
 0.5687883427305E+00 -0.1539143266628E+01  0.0000000000000E+00
 0.5804796562961E+00 -0.1471258499918E+01  0.0000000000000E+00
 0.5930490261565E+00 -0.1404308783480E+01  0.0000000000000E+00
 0.4950265832471E+00 -0.4230575000136E+01  0.0000000000000E+00
 0.4950531664706E+00 -0.4157105417212E+01  0.0000000000000E+00
 0.4950797497441E+00 -0.4083635695824E+01  0.0000000000000E+00
 0.4951063330407E+00 -0.4010165910572E+01  0.0000000000000E+00
 0.4951329163023E+00 -0.3936696222237E+01  0.0000000000000E+00
 0.4951594995589E+00 -0.3863226547687E+01  0.0000000000000E+00
 0.4951860828189E+00 -0.3789756863802E+01  0.0000000000000E+00
 0.4952126660828E+00 -0.3716287168831E+01  0.0000000000000E+00
 0.4952392493447E+00 -0.3642817479635E+01  0.0000000000000E+00
 0.4952658326070E+00 -0.3569347789432E+01  0.0000000000000E+00
 0.4952924159176E+00 -0.3495877965472E+01  0.0000000000000E+00
 0.4953189991451E+00 -0.3422408371242E+01  0.0000000000000E+00
 0.4953455824518E+00 -0.3348938558232E+01  0.0000000000000E+00
 0.4953721661504E+00 -0.3275467662068E+01  0.0000000000000E+00
 0.4953987489699E+00 -0.3201999195603E+01  0.0000000000000E+00
 0.4954253321582E+00 -0.3128529709543E+01  0.0000000000000E+00
 0.4954519154225E+00 -0.3055060013843E+01  0.0000000000000E+00
 0.4954784986724E+00 -0.2981590357583E+01  0.0000000000000E+00
 0.4955050818880E+00 -0.2908120796426E+01  0.0000000000000E+00
 0.4955683590647E+00 -0.2834651267871E+01  0.0000000000000E+00
 0.4958908159768E+00 -0.2761185239330E+01  0.0000000000000E+00
 0.4967139775797E+00 -0.2687739488751E+01  0.0000000000000E+00
 0.4981829594999E+00 -0.2614345809188E+01  0.0000000000000E+00
 0.5003546452605E+00 -0.2541042505588E+01  0.0000000000000E+00
 0.5032354571473E+00 -0.2467866298547E+01  0.0000000000000E+00
 0.5068123482204E+00 -0.2394850143946E+01  0.0000000000000E+00
 0.5110705623679E+00 -0.2322025155875E+01  0.0000000000000E+00
 0.5160028103462E+00 -0.2249422596171E+01  0.0000000000000E+00
 0.5216144078554E+00 -0.2177078702290E+01  0.0000000000000E+00
 0.5279275550057E+00 -0.2105038299234E+01  0.0000000000000E+00
 0.5349507987347E+00 -0.2033342921007E+01  0.0000000000000E+00
 0.5426405998039E+00 -0.1962006808056E+01  0.0000000000000E+00
 0.5509644904148E+00 -0.1891044886262E+01  0.0000000000000E+00
 0.5599068938557E+00 -0.1820478934717E+01  0.0000000000000E+00
 0.5694673003911E+00 -0.1750339687312E+01  0.0000000000000E+00
 0.5796603055753E+00 -0.1680670027035E+01  0.0000000000000E+00
 0.5905174807764E+00 -0.1611530416097E+01  0.0000000000000E+00
 0.6020921324114E+00 -0.1543005318085E+01  0.0000000000000E+00
 0.6144671086049E+00 -0.1475222180869E+01  0.0000000000000E+00
 0.6277717915016E+00 -0.1408374092875E+01  0.0000000000000E+00
 0.5225235372561E+00 -0.4230682327857E+01  0.0000000000000E+00
 0.5225470744911E+00 -0.4157320072559E+01  0.0000000000000E+00
 0.5225706117705E+00 -0.4083957678999E+01  0.0000000000000E+00
 0.5225941490704E+00 -0.4010595221668E+01  0.0000000000000E+00
 0.5226176863392E+00 -0.3937232861114E+01  0.0000000000000E+00
 0.5226412236036E+00 -0.3863870514323E+01  0.0000000000000E+00
 0.5226647608710E+00 -0.3790508158210E+01  0.0000000000000E+00
 0.5226882981420E+00 -0.3717145791029E+01  0.0000000000000E+00
 0.5227118354111E+00 -0.3643783429614E+01  0.0000000000000E+00
 0.5227353726805E+00 -0.3570421067194E+01  0.0000000000000E+00
 0.5227589099928E+00 -0.3497058571211E+01  0.0000000000000E+00
 0.5227824472315E+00 -0.3423696304623E+01  0.0000000000000E+00
 0.5228059845402E+00 -0.3350333819576E+01  0.0000000000000E+00
 0.5228295221960E+00 -0.3276970252956E+01  0.0000000000000E+00
 0.5228530590734E+00 -0.3203609112485E+01  0.0000000000000E+00
 0.5228765962774E+00 -0.3130246953910E+01  0.0000000000000E+00
 0.5229001335486E+00 -0.3056884586000E+01  0.0000000000000E+00
 0.5229236708072E+00 -0.2983522257473E+01  0.0000000000000E+00
 0.5229472080352E+00 -0.2910160023909E+01  0.0000000000000E+00
 0.5230094777771E+00 -0.2836797822971E+01  0.0000000000000E+00
 0.5233453261558E+00 -0.2763439121435E+01  0.0000000000000E+00
 0.5242096961996E+00 -0.2690100696814E+01  0.0000000000000E+00
 0.5257557654915E+00 -0.2616814342716E+01  0.0000000000000E+00
 0.5280435777358E+00 -0.2543618364450E+01  0.0000000000000E+00
 0.5310799120018E+00 -0.2470549482845E+01  0.0000000000000E+00
 0.5348509965123E+00 -0.2397640653958E+01  0.0000000000000E+00
 0.5393412553893E+00 -0.2324922991450E+01  0.0000000000000E+00
 0.5445429944141E+00 -0.2252427757564E+01  0.0000000000000E+00
 0.5504618246247E+00 -0.2180191189252E+01  0.0000000000000E+00
 0.5571211794709E+00 -0.2108258111516E+01  0.0000000000000E+00
 0.5645300807020E+00 -0.2036670058793E+01  0.0000000000000E+00
 0.5726425702308E+00 -0.1965441271575E+01  0.0000000000000E+00
 0.5814243764965E+00 -0.1894586675636E+01  0.0000000000000E+00
 0.5908590574180E+00 -0.1824128049987E+01  0.0000000000000E+00
 0.6009460749422E+00 -0.1754096128489E+01  0.0000000000000E+00
 0.6117008354898E+00 -0.1684533794076E+01  0.0000000000000E+00
 0.6231566644279E+00 -0.1615501508160E+01  0.0000000000000E+00
 0.6353698295822E+00 -0.1547083735733E+01  0.0000000000000E+00
 0.6484277818778E+00 -0.1479407921664E+01  0.0000000000000E+00
 0.6624670913015E+00 -0.1412667155710E+01  0.0000000000000E+00
 0.5500197690505E+00 -0.4230795330981E+01  0.0000000000000E+00
 0.5500395380833E+00 -0.4157546078707E+01  0.0000000000000E+00
 0.5500593071533E+00 -0.4084296688383E+01  0.0000000000000E+00
 0.5500790762406E+00 -0.4011047234387E+01  0.0000000000000E+00
 0.5500988453018E+00 -0.3937797877017E+01  0.0000000000000E+00
 0.5501186143593E+00 -0.3864548533391E+01  0.0000000000000E+00
 0.5501383834192E+00 -0.3791299180457E+01  0.0000000000000E+00
 0.5501581524822E+00 -0.3718049816471E+01  0.0000000000000E+00
 0.5501779215436E+00 -0.3644800458244E+01  0.0000000000000E+00
 0.5501976906053E+00 -0.3571551099011E+01  0.0000000000000E+00
 0.5502174597030E+00 -0.3498301606423E+01  0.0000000000000E+00
 0.5502372287388E+00 -0.3425052342876E+01  0.0000000000000E+00
 0.5502569978336E+00 -0.3351802861205E+01  0.0000000000000E+00
 0.5502767672198E+00 -0.3278552299629E+01  0.0000000000000E+00
 0.5502965359522E+00 -0.3205304160464E+01  0.0000000000000E+00
 0.5503163049589E+00 -0.3132055004764E+01  0.0000000000000E+00
 0.5503360740221E+00 -0.3058805640051E+01  0.0000000000000E+00
 0.5503558430746E+00 -0.2985556314660E+01  0.0000000000000E+00
 0.5503756121016E+00 -0.2912307084086E+01  0.0000000000000E+00
 0.5504361521952E+00 -0.2839057886161E+01  0.0000000000000E+00
 0.5507846698348E+00 -0.2765812186996E+01  0.0000000000000E+00
 0.5516895261272E+00 -0.2692586763641E+01  0.0000000000000E+00
 0.5533119606105E+00 -0.2619413410292E+01  0.0000000000000E+00
 0.5557151771680E+00 -0.2546330432637E+01  0.0000000000000E+00
 0.5589063116513E+00 -0.2473374551750E+01  0.0000000000000E+00
 0.5628708674447E+00 -0.2400578723873E+01  0.0000000000000E+00
 0.5675924489065E+00 -0.2327974062217E+01  0.0000000000000E+00
 0.5730629568402E+00 -0.2255591829452E+01  0.0000000000000E+00
 0.5792882976252E+00 -0.2183468261997E+01  0.0000000000000E+00
 0.5862931380511E+00 -0.2111648184856E+01  0.0000000000000E+00
 0.5940869746762E+00 -0.2040173132923E+01  0.0000000000000E+00
 0.6026214305636E+00 -0.1969057346735E+01  0.0000000000000E+00
 0.6118604303908E+00 -0.1898315751957E+01  0.0000000000000E+00
 0.6217866667071E+00 -0.1827970127509E+01  0.0000000000000E+00
 0.6323995731424E+00 -0.1758051207224E+01  0.0000000000000E+00
 0.6437153669844E+00 -0.1688601873979E+01  0.0000000000000E+00
 0.6557691276047E+00 -0.1619682588347E+01  0.0000000000000E+00
 0.6686200842292E+00 -0.1551377816794E+01  0.0000000000000E+00
 0.6823602906046E+00 -0.1483815001033E+01  0.0000000000000E+00
 0.6971335045526E+00 -0.1417187232221E+01  0.0000000000000E+00
 0.5775285217479E+00 -0.4230916136354E+01  0.0000000000000E+00
 0.5775570434703E+00 -0.4157787689344E+01  0.0000000000000E+00
 0.5775855652465E+00 -0.4084659104512E+01  0.0000000000000E+00
 0.5776140870475E+00 -0.4011530456114E+01  0.0000000000000E+00
 0.5776426088109E+00 -0.3938401904183E+01  0.0000000000000E+00
 0.5776711305689E+00 -0.3865273365972E+01  0.0000000000000E+00
 0.5776996523305E+00 -0.3792144818469E+01  0.0000000000000E+00
 0.5777281740965E+00 -0.3719016259932E+01  0.0000000000000E+00
 0.5777566958602E+00 -0.3645887707143E+01  0.0000000000000E+00
 0.5777852176243E+00 -0.3572759153353E+01  0.0000000000000E+00
 0.5778137394403E+00 -0.3499630466425E+01  0.0000000000000E+00
 0.5778422611671E+00 -0.3426502008162E+01  0.0000000000000E+00
 0.5778707829789E+00 -0.3353373332134E+01  0.0000000000000E+00
 0.5778993052112E+00 -0.3280243577982E+01  0.0000000000000E+00
 0.5779278265002E+00 -0.3207116242246E+01  0.0000000000000E+00
 0.5779563481850E+00 -0.3133987891651E+01  0.0000000000000E+00
 0.5779848699513E+00 -0.3060859332388E+01  0.0000000000000E+00
 0.5780133917022E+00 -0.2987730812382E+01  0.0000000000000E+00
 0.5780419134162E+00 -0.2914602387037E+01  0.0000000000000E+00
 0.5781132651049E+00 -0.2841473994368E+01  0.0000000000000E+00
 0.5784871369324E+00 -0.2768349099769E+01  0.0000000000000E+00
 0.5794454419965E+00 -0.2695244479801E+01  0.0000000000000E+00
 0.5811575623438E+00 -0.2622191929285E+01  0.0000000000000E+00
 0.5836898936295E+00 -0.2549229754315E+01  0.0000000000000E+00
 0.5870499320770E+00 -0.2476394676228E+01  0.0000000000000E+00
 0.5912224490155E+00 -0.2403719651464E+01  0.0000000000000E+00
 0.5961902208056E+00 -0.2331235792752E+01  0.0000000000000E+00
 0.6019447392772E+00 -0.2258974363216E+01  0.0000000000000E+00
 0.6084922090405E+00 -0.2186971598711E+01  0.0000000000000E+00
 0.6158585425385E+00 -0.2115272324239E+01  0.0000000000000E+00
 0.6240537159295E+00 -0.2043918075183E+01  0.0000000000000E+00
 0.6330269092831E+00 -0.1972923092128E+01  0.0000000000000E+00
 0.6427402254938E+00 -0.1902302300624E+01  0.0000000000000E+00
 0.6531754830925E+00 -0.1832077479492E+01  0.0000000000000E+00
 0.6643320871059E+00 -0.1762279362538E+01  0.0000000000000E+00
 0.6762270737778E+00 -0.1692950832575E+01  0.0000000000000E+00
 0.6888972939023E+00 -0.1624152349277E+01  0.0000000000000E+00
 0.7024049678359E+00 -0.1555968380692E+01  0.0000000000000E+00
 0.7168467977495E+00 -0.1488526365155E+01  0.0000000000000E+00
 0.7323738012168E+00 -0.1422019395320E+01  0.0000000000000E+00
 0.6050364530268E+00 -0.4231042777871E+01  0.0000000000000E+00
 0.6050729060210E+00 -0.4158040972265E+01  0.0000000000000E+00
 0.6051093590840E+00 -0.4085039029076E+01  0.0000000000000E+00
 0.6051458121786E+00 -0.4012037022431E+01  0.0000000000000E+00
 0.6051822652252E+00 -0.3939035112085E+01  0.0000000000000E+00
 0.6052187182649E+00 -0.3866033215436E+01  0.0000000000000E+00
 0.6052551713092E+00 -0.3793031309511E+01  0.0000000000000E+00
 0.6052916243591E+00 -0.3720029392571E+01  0.0000000000000E+00
 0.6053280774061E+00 -0.3647027481370E+01  0.0000000000000E+00
 0.6053645304536E+00 -0.3574025569168E+01  0.0000000000000E+00
 0.6054009835674E+00 -0.3501023524060E+01  0.0000000000000E+00
 0.6054374365673E+00 -0.3428021707220E+01  0.0000000000000E+00
 0.6054738896757E+00 -0.3355019672994E+01  0.0000000000000E+00
 0.6055103433215E+00 -0.3282016562509E+01  0.0000000000000E+00
 0.6055467957618E+00 -0.3209015866253E+01  0.0000000000000E+00
 0.6055832487080E+00 -0.3136014156895E+01  0.0000000000000E+00
 0.6056197017582E+00 -0.3063012239231E+01  0.0000000000000E+00
 0.6056561547889E+00 -0.2990010360755E+01  0.0000000000000E+00
 0.6056926077723E+00 -0.2917008576777E+01  0.0000000000000E+00
 0.6057739496384E+00 -0.2844006825500E+01  0.0000000000000E+00
 0.6061723542407E+00 -0.2771008571574E+01  0.0000000000000E+00
 0.6071832866711E+00 -0.2698030591041E+01  0.0000000000000E+00
 0.6089842714805E+00 -0.2625104679380E+01  0.0000000000000E+00
 0.6116448960934E+00 -0.2552269143111E+01  0.0000000000000E+00
 0.6151730171029E+00 -0.2479560703844E+01  0.0000000000000E+00
 0.6195526737819E+00 -0.2407012318228E+01  0.0000000000000E+00
 0.6247658144968E+00 -0.2334655098486E+01  0.0000000000000E+00
 0.6308035221003E+00 -0.2262520308222E+01  0.0000000000000E+00
 0.6376722994378E+00 -0.2190644182693E+01  0.0000000000000E+00
 0.6453993046053E+00 -0.2119071546904E+01  0.0000000000000E+00
 0.6539949933580E+00 -0.2047843936749E+01  0.0000000000000E+00
 0.6634061027715E+00 -0.1976975592865E+01  0.0000000000000E+00
 0.6735929139584E+00 -0.1906481440676E+01  0.0000000000000E+00
 0.6845363714316E+00 -0.1836383258907E+01  0.0000000000000E+00
 0.6962358516148E+00 -0.1766711781329E+01  0.0000000000000E+00
 0.7087092097083E+00 -0.1697509890691E+01  0.0000000000000E+00
 0.7219950679352E+00 -0.1628838045726E+01  0.0000000000000E+00
 0.7361586377713E+00 -0.1560780716136E+01  0.0000000000000E+00
 0.7513012698347E+00 -0.1493465336719E+01  0.0000000000000E+00
 0.7675812414413E+00 -0.1427085001696E+01  0.0000000000000E+00
 0.6325435266867E+00 -0.4231175233271E+01  0.0000000000000E+00
 0.6325870533346E+00 -0.4158305882947E+01  0.0000000000000E+00
 0.6326305800645E+00 -0.4085436395290E+01  0.0000000000000E+00
 0.6326741068323E+00 -0.4012566844291E+01  0.0000000000000E+00
 0.6327176335426E+00 -0.3939697389418E+01  0.0000000000000E+00
 0.6327611602448E+00 -0.3866827948216E+01  0.0000000000000E+00
 0.6328046869525E+00 -0.3793958497755E+01  0.0000000000000E+00
 0.6328482136668E+00 -0.3721089036299E+01  0.0000000000000E+00
 0.6328917403776E+00 -0.3648219580572E+01  0.0000000000000E+00
 0.6329352670890E+00 -0.3575350123845E+01  0.0000000000000E+00
 0.6329787938797E+00 -0.3502480534454E+01  0.0000000000000E+00
 0.6330223205343E+00 -0.3429611172916E+01  0.0000000000000E+00
 0.6330658473185E+00 -0.3356741594387E+01  0.0000000000000E+00
 0.6331093747444E+00 -0.3283870941551E+01  0.0000000000000E+00
 0.6331529007309E+00 -0.3211002698565E+01  0.0000000000000E+00
 0.6331964273214E+00 -0.3138133444314E+01  0.0000000000000E+00
 0.6332399540361E+00 -0.3065263982135E+01  0.0000000000000E+00
 0.6332834807274E+00 -0.2992394559074E+01  0.0000000000000E+00
 0.6333270073624E+00 -0.2919525230338E+01  0.0000000000000E+00
 0.6334174817877E+00 -0.2846655934332E+01  0.0000000000000E+00
 0.6338395615515E+00 -0.2773790134923E+01  0.0000000000000E+00
 0.6349022637435E+00 -0.2700944607613E+01  0.0000000000000E+00
 0.6367912554143E+00 -0.2628151148567E+01  0.0000000000000E+00
 0.6395793157545E+00 -0.2555448064753E+01  0.0000000000000E+00
 0.6432746617255E+00 -0.2482872078066E+01  0.0000000000000E+00
 0.6478606005424E+00 -0.2410456145372E+01  0.0000000000000E+00
 0.6533182525806E+00 -0.2338231378367E+01  0.0000000000000E+00
 0.6596382917126E+00 -0.2266229041154E+01  0.0000000000000E+00
 0.6668275190228E+00 -0.2194485368369E+01  0.0000000000000E+00
 0.6749143382604E+00 -0.2123045185016E+01  0.0000000000000E+00
 0.6839096847739E+00 -0.2051950027523E+01  0.0000000000000E+00
 0.6937578526447E+00 -0.1981214136585E+01  0.0000000000000E+00
 0.7044173012042E+00 -0.1910852437495E+01  0.0000000000000E+00
 0.7158681009481E+00 -0.1840886708872E+01  0.0000000000000E+00
 0.7281095996972E+00 -0.1771347684455E+01  0.0000000000000E+00
 0.7411604716089E+00 -0.1702278246925E+01  0.0000000000000E+00
 0.7550611103412E+00 -0.1633738854029E+01  0.0000000000000E+00
 0.7698797184786E+00 -0.1565813977203E+01  0.0000000000000E+00
 0.7857222951103E+00 -0.1498631047541E+01  0.0000000000000E+00
 0.8027543772834E+00 -0.1432383160906E+01  0.0000000000000E+00
 0.6600497070085E+00 -0.4231313479408E+01  0.0000000000000E+00
 0.6600994139727E+00 -0.4158582375098E+01  0.0000000000000E+00
 0.6601491210305E+00 -0.4085851133716E+01  0.0000000000000E+00
 0.6601988281316E+00 -0.4013119829111E+01  0.0000000000000E+00
 0.6602485351671E+00 -0.3940388620450E+01  0.0000000000000E+00
 0.6602982421932E+00 -0.3867657425435E+01  0.0000000000000E+00
 0.6603479492257E+00 -0.3794926221178E+01  0.0000000000000E+00
 0.6603976562657E+00 -0.3722195005947E+01  0.0000000000000E+00
 0.6604473633017E+00 -0.3649463796433E+01  0.0000000000000E+00
 0.6604970703385E+00 -0.3576732585922E+01  0.0000000000000E+00
 0.6605467774657E+00 -0.3504001242998E+01  0.0000000000000E+00
 0.6605964844376E+00 -0.3431270127496E+01  0.0000000000000E+00
 0.6606461915574E+00 -0.3358538795412E+01  0.0000000000000E+00
 0.6606958994101E+00 -0.3285806391062E+01  0.0000000000000E+00
 0.6607456056189E+00 -0.3213076391989E+01  0.0000000000000E+00
 0.6607953125175E+00 -0.3140345383569E+01  0.0000000000000E+00
 0.6608450195580E+00 -0.3067614167617E+01  0.0000000000000E+00
 0.6608947265717E+00 -0.2994882990707E+01  0.0000000000000E+00
 0.6609444335212E+00 -0.2922151907945E+01  0.0000000000000E+00
 0.6610431471685E+00 -0.2849420857941E+01  0.0000000000000E+00
 0.6614880087619E+00 -0.2776693303747E+01  0.0000000000000E+00
 0.6626015873924E+00 -0.2703986020302E+01  0.0000000000000E+00
 0.6645776926062E+00 -0.2631330804486E+01  0.0000000000000E+00
 0.6674922953571E+00 -0.2558765963735E+01  0.0000000000000E+00
 0.6713539729724E+00 -0.2486328220241E+01  0.0000000000000E+00
 0.6761453006083E+00 -0.2414050531099E+01  0.0000000000000E+00
 0.6818465706525E+00 -0.2341964007451E+01  0.0000000000000E+00
 0.6884480479942E+00 -0.2270099913923E+01  0.0000000000000E+00
 0.6959568319607E+00 -0.2198494484502E+01  0.0000000000000E+00
 0.7044025719548E+00 -0.2127192544193E+01  0.0000000000000E+00
 0.7137966829144E+00 -0.2056235629981E+01  0.0000000000000E+00
 0.7240810159262E+00 -0.1985637982619E+01  0.0000000000000E+00
 0.7352122085415E+00 -0.1915414527263E+01  0.0000000000000E+00
 0.7471694572393E+00 -0.1845587042425E+01  0.0000000000000E+00
 0.7599520812379E+00 -0.1776186261808E+01  0.0000000000000E+00
 0.7735795736522E+00 -0.1707255068023E+01  0.0000000000000E+00
 0.7880940995820E+00 -0.1638853917788E+01  0.0000000000000E+00
 0.8035668527085E+00 -0.1571067284346E+01  0.0000000000000E+00
 0.8201084806169E+00 -0.1504022594929E+01  0.0000000000000E+00
 0.8378917800749E+00 -0.1437912947113E+01  0.0000000000000E+00
 0.6875549587707E+00 -0.4231457492273E+01  0.0000000000000E+00
 0.6876099174925E+00 -0.4158870400699E+01  0.0000000000000E+00
 0.6876648763177E+00 -0.4086283172324E+01  0.0000000000000E+00
 0.6877198351908E+00 -0.4013695880853E+01  0.0000000000000E+00
 0.6877747939914E+00 -0.3941108685135E+01  0.0000000000000E+00
 0.6878297527816E+00 -0.3868521503035E+01  0.0000000000000E+00
 0.6878847115788E+00 -0.3795934311712E+01  0.0000000000000E+00
 0.6879396703844E+00 -0.3723347109437E+01  0.0000000000000E+00
 0.6879946291856E+00 -0.3650759912868E+01  0.0000000000000E+00
 0.6880495879875E+00 -0.3578172715304E+01  0.0000000000000E+00
 0.6881045468895E+00 -0.3505585385588E+01  0.0000000000000E+00
 0.6881595056197E+00 -0.3432998282844E+01  0.0000000000000E+00
 0.6882144645135E+00 -0.3360410963949E+01  0.0000000000000E+00
 0.6882694242176E+00 -0.3287822574909E+01  0.0000000000000E+00
 0.6883243821042E+00 -0.3215236586383E+01  0.0000000000000E+00
 0.6883793407534E+00 -0.3142649590510E+01  0.0000000000000E+00
 0.6884342995595E+00 -0.3070062387515E+01  0.0000000000000E+00
 0.6884892583360E+00 -0.2997475223486E+01  0.0000000000000E+00
 0.6885442170415E+00 -0.2924888153416E+01  0.0000000000000E+00
 0.6886502413522E+00 -0.2852301116137E+01  0.0000000000000E+00
 0.6891169562223E+00 -0.2779717573847E+01  0.0000000000000E+00
 0.6902804827484E+00 -0.2707154300899E+01  0.0000000000000E+00
 0.6923427729674E+00 -0.2634643094921E+01  0.0000000000000E+00
 0.6953829895934E+00 -0.2562222263831E+01  0.0000000000000E+00
 0.6994100703178E+00 -0.2489928530135E+01  0.0000000000000E+00
 0.7044058582361E+00 -0.2417794851164E+01  0.0000000000000E+00
 0.7103498177522E+00 -0.2345852337485E+01  0.0000000000000E+00
 0.7172318047682E+00 -0.2274132254268E+01  0.0000000000000E+00
 0.7250592168591E+00 -0.2202670834823E+01  0.0000000000000E+00
 0.7338629490808E+00 -0.2131512904156E+01  0.0000000000000E+00
 0.7436548959572E+00 -0.2060699999834E+01  0.0000000000000E+00
 0.7543744655799E+00 -0.1990246362667E+01  0.0000000000000E+00
 0.7659764737208E+00 -0.1920166917674E+01  0.0000000000000E+00
 0.7784392428430E+00 -0.1850483443250E+01  0.0000000000000E+00
 0.7917620635625E+00 -0.1781226673063E+01  0.0000000000000E+00
 0.8059652479520E+00 -0.1712439489651E+01  0.0000000000000E+00
 0.8210927325603E+00 -0.1644182348659E+01  0.0000000000000E+00
 0.8372187021531E+00 -0.1576539725215E+01  0.0000000000000E+00
 0.8544584528381E+00 -0.1509639042525E+01  0.0000000000000E+00
 0.8729920410917E+00 -0.1443673399950E+01  0.0000000000000E+00
 0.7150592472657E+00 -0.4231607247015E+01  0.0000000000000E+00
 0.7151184944785E+00 -0.4159169910049E+01  0.0000000000000E+00
 0.7151777418030E+00 -0.4086732436564E+01  0.0000000000000E+00
 0.7152369891790E+00 -0.4014294900114E+01  0.0000000000000E+00
 0.7152962364768E+00 -0.3941857459218E+01  0.0000000000000E+00
 0.7153554837636E+00 -0.3869420031913E+01  0.0000000000000E+00
 0.7154147310578E+00 -0.3796982595404E+01  0.0000000000000E+00
 0.7154739783610E+00 -0.3724545147966E+01  0.0000000000000E+00
 0.7155332256595E+00 -0.3652107706221E+01  0.0000000000000E+00
 0.7155924729589E+00 -0.3579670263484E+01  0.0000000000000E+00
 0.7156517203661E+00 -0.3507232688868E+01  0.0000000000000E+00
 0.7157109675880E+00 -0.3434795340755E+01  0.0000000000000E+00
 0.7157702149864E+00 -0.3362357776937E+01  0.0000000000000E+00
 0.7158294632583E+00 -0.3289919145182E+01  0.0000000000000E+00
 0.7158887095708E+00 -0.3217482908988E+01  0.0000000000000E+00
 0.7159479567055E+00 -0.3145045667526E+01  0.0000000000000E+00
 0.7160072040093E+00 -0.3072608219369E+01  0.0000000000000E+00
 0.7160664512812E+00 -0.3000170810097E+01  0.0000000000000E+00
 0.7161256984765E+00 -0.2927733494591E+01  0.0000000000000E+00
 0.7162380701844E+00 -0.2855296211907E+01  0.0000000000000E+00
 0.7167256750711E+00 -0.2782862423360E+01  0.0000000000000E+00
 0.7179381862435E+00 -0.2710448902693E+01  0.0000000000000E+00
 0.7200856982247E+00 -0.2638087448308E+01  0.0000000000000E+00
 0.7232505654860E+00 -0.2565816368629E+01  0.0000000000000E+00
 0.7274420860806E+00 -0.2493672386486E+01  0.0000000000000E+00
 0.7326413710420E+00 -0.2421688459455E+01  0.0000000000000E+00
 0.7388270567937E+00 -0.2349895697507E+01  0.0000000000000E+00
 0.7459885902476E+00 -0.2278325366376E+01  0.0000000000000E+00
 0.7541336672304E+00 -0.2207013698669E+01  0.0000000000000E+00
 0.7632944284514E+00 -0.2136005519392E+01  0.0000000000000E+00
 0.7734832480167E+00 -0.2065342366718E+01  0.0000000000000E+00
 0.7846370910221E+00 -0.1995038481518E+01  0.0000000000000E+00
 0.7967089514612E+00 -0.1925108788663E+01  0.0000000000000E+00
 0.8096762777816E+00 -0.1855575066432E+01  0.0000000000000E+00
 0.8235383319973E+00 -0.1786468048456E+01  0.0000000000000E+00
 0.8383162451398E+00 -0.1717830617193E+01  0.0000000000000E+00
 0.8540557252136E+00 -0.1649723227177E+01  0.0000000000000E+00
 0.8708339480567E+00 -0.1582230355494E+01  0.0000000000000E+00
 0.8887708583262E+00 -0.1515479421163E+01  0.0000000000000E+00
 0.9080537721960E+00 -0.1449663525402E+01  0.0000000000000E+00
 0.7425625383146E+00 -0.4231762717964E+01  0.0000000000000E+00
 0.7426250765734E+00 -0.4159480851809E+01  0.0000000000000E+00
 0.7426876149500E+00 -0.4087198849429E+01  0.0000000000000E+00
 0.7427501533810E+00 -0.4014916784217E+01  0.0000000000000E+00
 0.7428126917296E+00 -0.3942634814355E+01  0.0000000000000E+00
 0.7428752300663E+00 -0.3870352858055E+01  0.0000000000000E+00
 0.7429377684111E+00 -0.3798070892571E+01  0.0000000000000E+00
 0.7430003067652E+00 -0.3725788916180E+01  0.0000000000000E+00
 0.7430628451145E+00 -0.3653506945471E+01  0.0000000000000E+00
 0.7431253834646E+00 -0.3581224973772E+01  0.0000000000000E+00
 0.7431879219286E+00 -0.3508942870477E+01  0.0000000000000E+00
 0.7432504601970E+00 -0.3436660993198E+01  0.0000000000000E+00
 0.7433129986516E+00 -0.3364378900677E+01  0.0000000000000E+00
 0.7433755380283E+00 -0.3292095742512E+01  0.0000000000000E+00
 0.7434380753367E+00 -0.3219814974767E+01  0.0000000000000E+00
 0.7435006135130E+00 -0.3147533203911E+01  0.0000000000000E+00
 0.7435631518678E+00 -0.3075251226803E+01  0.0000000000000E+00
 0.7436256901890E+00 -0.3002969288497E+01  0.0000000000000E+00
 0.7436882284293E+00 -0.2930687443756E+01  0.0000000000000E+00
 0.7438059500894E+00 -0.2858405631870E+01  0.0000000000000E+00
 0.7443134475546E+00 -0.2786127313235E+01  0.0000000000000E+00
 0.7455739459472E+00 -0.2713869260962E+01  0.0000000000000E+00
 0.7478056822717E+00 -0.2641663274258E+01  0.0000000000000E+00
 0.7510942027536E+00 -0.2569547662071E+01  0.0000000000000E+00
 0.7554491658059E+00 -0.2497559147567E+01  0.0000000000000E+00
 0.7608509503981E+00 -0.2425730688578E+01  0.0000000000000E+00
 0.7672773649777E+00 -0.2354093394452E+01  0.0000000000000E+00
 0.7747174474621E+00 -0.2282678531514E+01  0.0000000000000E+00
 0.7831791919347E+00 -0.2211522331637E+01  0.0000000000000E+00
 0.7926959847584E+00 -0.2140669619831E+01  0.0000000000000E+00
 0.8032806796171E+00 -0.2070161934894E+01  0.0000000000000E+00
 0.8148677986107E+00 -0.2000013517763E+01  0.0000000000000E+00
 0.8274085139547E+00 -0.1930239293156E+01  0.0000000000000E+00
 0.8408794000826E+00 -0.1860861039229E+01  0.0000000000000E+00
 0.8552796904064E+00 -0.1791909489574E+01  0.0000000000000E+00
 0.8706313349167E+00 -0.1723427526570E+01  0.0000000000000E+00
 0.8869818130815E+00 -0.1655475603594E+01  0.0000000000000E+00
 0.9044112917983E+00 -0.1588138199765E+01  0.0000000000000E+00
 0.9230443643019E+00 -0.1521542729758E+01  0.0000000000000E+00
 0.9430756064517E+00 -0.1455882296715E+01  0.0000000000000E+00
 0.7700647982821E+00 -0.4231923878657E+01  0.0000000000000E+00
 0.7701295965064E+00 -0.4159803173051E+01  0.0000000000000E+00
 0.7701943948528E+00 -0.4087682331523E+01  0.0000000000000E+00
 0.7702591932555E+00 -0.4015561427305E+01  0.0000000000000E+00
 0.7703239915728E+00 -0.3943440618223E+01  0.0000000000000E+00
 0.7703887898779E+00 -0.3871319822673E+01  0.0000000000000E+00
 0.7704535881912E+00 -0.3799199017960E+01  0.0000000000000E+00
 0.7705183865143E+00 -0.3727078202364E+01  0.0000000000000E+00
 0.7705831848324E+00 -0.3654957392437E+01  0.0000000000000E+00
 0.7706479831513E+00 -0.3582836581522E+01  0.0000000000000E+00
 0.7707127815881E+00 -0.3510715639305E+01  0.0000000000000E+00
 0.7707775798224E+00 -0.3438594922601E+01  0.0000000000000E+00
 0.7708423782496E+00 -0.3366473991133E+01  0.0000000000000E+00
 0.7709071776321E+00 -0.3294351996398E+01  0.0000000000000E+00
 0.7709719748717E+00 -0.3222232386753E+01  0.0000000000000E+00
 0.7710367730106E+00 -0.3150111776233E+01  0.0000000000000E+00
 0.7711015713344E+00 -0.3077990959922E+01  0.0000000000000E+00
 0.7711663696233E+00 -0.3005870182326E+01  0.0000000000000E+00
 0.7712311678284E+00 -0.2933749498087E+01  0.0000000000000E+00
 0.7713532083606E+00 -0.2861628846736E+01  0.0000000000000E+00
 0.7718795673317E+00 -0.2789511687719E+01  0.0000000000000E+00
 0.7731870218849E+00 -0.2717414793489E+01  0.0000000000000E+00
 0.7755019515019E+00 -0.2645369964090E+01  0.0000000000000E+00
 0.7789130941592E+00 -0.2573415509012E+01  0.0000000000000E+00
 0.7834304686275E+00 -0.2501588151769E+01  0.0000000000000E+00
 0.7890337218105E+00 -0.2429920850458E+01  0.0000000000000E+00
 0.7956998341836E+00 -0.2358444713785E+01  0.0000000000000E+00
 0.8034174346658E+00 -0.2287191008681E+01  0.0000000000000E+00
 0.8121948156023E+00 -0.2216195966265E+01  0.0000000000000E+00
 0.8220666090092E+00 -0.2145504411545E+01  0.0000000000000E+00
 0.8330461481448E+00 -0.2075157883972E+01  0.0000000000000E+00
 0.8450655121117E+00 -0.2005170624547E+01  0.0000000000000E+00
 0.8580740513487E+00 -0.1935557557832E+01  0.0000000000000E+00
 0.8720474662756E+00 -0.1866340461856E+01  0.0000000000000E+00
 0.8869849617026E+00 -0.1797550070169E+01  0.0000000000000E+00
 0.9029093065802E+00 -0.1729229265069E+01  0.0000000000000E+00
 0.9198697518478E+00 -0.1661438498734E+01  0.0000000000000E+00
 0.9379494554491E+00 -0.1594262252389E+01  0.0000000000000E+00
 0.9572776592258E+00 -0.1527827936206E+01  0.0000000000000E+00
 0.9780561987112E+00 -0.1462328655324E+01  0.0000000000000E+00
 0.7975659940902E+00 -0.4232090701858E+01  0.0000000000000E+00
 0.7976319881214E+00 -0.4160136819303E+01  0.0000000000000E+00
 0.7976979822771E+00 -0.4088182801141E+01  0.0000000000000E+00
 0.7977639764901E+00 -0.4016228720433E+01  0.0000000000000E+00
 0.7978299706160E+00 -0.3944274734643E+01  0.0000000000000E+00
 0.7978959647296E+00 -0.3872320762352E+01  0.0000000000000E+00
 0.7979619588516E+00 -0.3800366780919E+01  0.0000000000000E+00
 0.7980279529835E+00 -0.3728412788629E+01  0.0000000000000E+00
 0.7980939471102E+00 -0.3656458801995E+01  0.0000000000000E+00
 0.7981599412379E+00 -0.3584504814375E+01  0.0000000000000E+00
 0.7982259354857E+00 -0.3512550695757E+01  0.0000000000000E+00
 0.7982919295271E+00 -0.3440596802130E+01  0.0000000000000E+00
 0.7983579237650E+00 -0.3368642694236E+01  0.0000000000000E+00
 0.7984239189759E+00 -0.3296687525534E+01  0.0000000000000E+00
 0.7984899120043E+00 -0.3224734736406E+01  0.0000000000000E+00
 0.7985559059486E+00 -0.3152780948717E+01  0.0000000000000E+00
 0.7986219000812E+00 -0.3080826955713E+01  0.0000000000000E+00
 0.7986878941783E+00 -0.3008873001336E+01  0.0000000000000E+00
 0.7987538881900E+00 -0.2936919140098E+01  0.0000000000000E+00
 0.7988791834362E+00 -0.2864965311785E+01  0.0000000000000E+00
 0.7994233397633E+00 -0.2793014974856E+01  0.0000000000000E+00
 0.8007766863419E+00 -0.2721084901084E+01  0.0000000000000E+00
 0.8031737451268E+00 -0.2649206891378E+01  0.0000000000000E+00
 0.8067064458421E+00 -0.2577419255790E+01  0.0000000000000E+00
 0.8113851676139E+00 -0.2505758718195E+01  0.0000000000000E+00
 0.8171888252784E+00 -0.2434258236964E+01  0.0000000000000E+00
 0.8240935713432E+00 -0.2362948920137E+01  0.0000000000000E+00
 0.8320876257245E+00 -0.2291862035274E+01  0.0000000000000E+00
 0.8411795790344E+00 -0.2221033812712E+01  0.0000000000000E+00
 0.8514053089427E+00 -0.2150509077459E+01  0.0000000000000E+00
 0.8627786282774E+00 -0.2080329369639E+01  0.0000000000000E+00
 0.8752291731434E+00 -0.2010508930323E+01  0.0000000000000E+00
 0.8887044722034E+00 -0.1941062683910E+01  0.0000000000000E+00
 0.9031793518640E+00 -0.1872012408295E+01  0.0000000000000E+00
 0.9186529883343E+00 -0.1803388836989E+01  0.0000000000000E+00
 0.9351489695250E+00 -0.1735234852202E+01  0.0000000000000E+00
 0.9527183178552E+00 -0.1667610904871E+01  0.0000000000000E+00
 0.9714471823014E+00 -0.1600601478405E+01  0.0000000000000E+00
 0.9914694533427E+00 -0.1534333978313E+01  0.0000000000000E+00
 0.1012994226174E+01 -0.1469001511800E+01  0.0000000000000E+00
 0.8250660921971E+00 -0.4232263159342E+01  0.0000000000000E+00
 0.8251321843352E+00 -0.4160481734118E+01  0.0000000000000E+00
 0.8251982765979E+00 -0.4088700173612E+01  0.0000000000000E+00
 0.8252643689180E+00 -0.4016918550710E+01  0.0000000000000E+00
 0.8253304611510E+00 -0.3945137022497E+01  0.0000000000000E+00
 0.8253965533715E+00 -0.3873355507753E+01  0.0000000000000E+00
 0.8254626456005E+00 -0.3801573983887E+01  0.0000000000000E+00
 0.8255287378394E+00 -0.3729792449191E+01  0.0000000000000E+00
 0.8255948300731E+00 -0.3658010920137E+01  0.0000000000000E+00
 0.8256609223078E+00 -0.3586229390100E+01  0.0000000000000E+00
 0.8257270146627E+00 -0.3514447729378E+01  0.0000000000000E+00
 0.8257931068110E+00 -0.3442666293108E+01  0.0000000000000E+00
 0.8258591991561E+00 -0.3370884643085E+01  0.0000000000000E+00
 0.8259252924756E+00 -0.3299101934797E+01  0.0000000000000E+00
 0.8259913836094E+00 -0.3227321600378E+01  0.0000000000000E+00
 0.8260574756604E+00 -0.3155540269793E+01  0.0000000000000E+00
 0.8261235679000E+00 -0.3083758734385E+01  0.0000000000000E+00
 0.8261896601041E+00 -0.3011977237510E+01  0.0000000000000E+00
 0.8262557522226E+00 -0.2940195833552E+01  0.0000000000000E+00
 0.8263832044815E+00 -0.2868414462554E+01  0.0000000000000E+00
 0.8269440604613E+00 -0.2796636581959E+01  0.0000000000000E+00
 0.8283422013566E+00 -0.2724878962837E+01  0.0000000000000E+00
 0.8308202915846E+00 -0.2653173406991E+01  0.0000000000000E+00
 0.8344734526118E+00 -0.2581558225052E+01  0.0000000000000E+00
 0.8393124239173E+00 -0.2510070141269E+01  0.0000000000000E+00
 0.8453153882681E+00 -0.2438742114296E+01  0.0000000000000E+00
 0.8524576702087E+00 -0.2367605251486E+01  0.0000000000000E+00
 0.8607270806491E+00 -0.2296690821050E+01  0.0000000000000E+00
 0.8701325084729E+00 -0.2226035052513E+01  0.0000000000000E+00
 0.8807110770029E+00 -0.2155682770885E+01  0.0000000000000E+00
 0.8924770786323E+00 -0.2085675516987E+01  0.0000000000000E+00
 0.9053577064690E+00 -0.2016027531960E+01  0.0000000000000E+00
 0.9192986674019E+00 -0.1946753740033E+01  0.0000000000000E+00
 0.9342739138258E+00 -0.1877875918969E+01  0.0000000000000E+00
 0.9502825933488E+00 -0.1809424802232E+01  0.0000000000000E+00
 0.9673491128421E+00 -0.1741443271944E+01  0.0000000000000E+00
 0.9855262662115E+00 -0.1673991777762E+01  0.0000000000000E+00
 0.1004903193450E+01 -0.1607154805347E+01  0.0000000000000E+00
 0.1025618433703E+01 -0.1541059755389E+01  0.0000000000000E+00
 0.1047888341808E+01 -0.1475899737231E+01  0.0000000000000E+00
 0.8525650614762E+00 -0.4232441222572E+01  0.0000000000000E+00
 0.8526301228944E+00 -0.4160837860419E+01  0.0000000000000E+00
 0.8526951844352E+00 -0.4089234363318E+01  0.0000000000000E+00
 0.8527602460326E+00 -0.4017630803977E+01  0.0000000000000E+00
 0.8528253075442E+00 -0.3946027339091E+01  0.0000000000000E+00
 0.8528903690435E+00 -0.3874423887639E+01  0.0000000000000E+00
 0.8529554305511E+00 -0.3802820427089E+01  0.0000000000000E+00
 0.8530204920685E+00 -0.3731216955735E+01  0.0000000000000E+00
 0.8530855535808E+00 -0.3659613490009E+01  0.0000000000000E+00
 0.8531506150940E+00 -0.3588010023303E+01  0.0000000000000E+00
 0.8532156767257E+00 -0.3516406426235E+01  0.0000000000000E+00
 0.8532807381539E+00 -0.3444803053064E+01  0.0000000000000E+00
 0.8533457997758E+00 -0.3373199466669E+01  0.0000000000000E+00
 0.8534108623570E+00 -0.3301594824634E+01  0.0000000000000E+00
 0.8534759227865E+00 -0.3229992550580E+01  0.0000000000000E+00
 0.8535409841189E+00 -0.3158389282831E+01  0.0000000000000E+00
 0.8536060456369E+00 -0.3086785810767E+01  0.0000000000000E+00
 0.8536711071201E+00 -0.3015182377140E+01  0.0000000000000E+00
 0.8537361685190E+00 -0.2943579036201E+01  0.0000000000000E+00
 0.8538646489641E+00 -0.2871975728258E+01  0.0000000000000E+00
 0.8544410757777E+00 -0.2800375909705E+01  0.0000000000000E+00
 0.8558828821841E+00 -0.2728796350886E+01  0.0000000000000E+00
 0.8584408750580E+00 -0.2657268854525E+01  0.0000000000000E+00
 0.8622133676045E+00 -0.2585831731856E+01  0.0000000000000E+00
 0.8672114596532E+00 -0.2514521707511E+01  0.0000000000000E+00
 0.8734126019002E+00 -0.2443371740437E+01  0.0000000000000E+00
 0.8807912909314E+00 -0.2372412937276E+01  0.0000000000000E+00
 0.8893349286460E+00 -0.2301676566911E+01  0.0000000000000E+00
 0.8990527022045E+00 -0.2231198858032E+01  0.0000000000000E+00
 0.9099829805832E+00 -0.2161024635649E+01  0.0000000000000E+00
 0.9221405357354E+00 -0.2091195441301E+01  0.0000000000000E+00
 0.9354501177719E+00 -0.2021725516204E+01  0.0000000000000E+00
 0.9498556118082E+00 -0.1952629784413E+01  0.0000000000000E+00
 0.9653300962285E+00 -0.1883930023548E+01  0.0000000000000E+00
 0.9818726900401E+00 -0.1815656967030E+01  0.0000000000000E+00
 0.9995086190752E+00 -0.1747853496891E+01  0.0000000000000E+00
 0.1018292448735E+01 -0.1680580061460E+01  0.0000000000000E+00
 0.1038316310015E+01 -0.1613921148730E+01  0.0000000000000E+00
 0.1059723390757E+01 -0.1548004154413E+01  0.0000000000000E+00
 0.1082737305430E+01 -0.1483022190057E+01  0.0000000000000E+00
 0.8800628706507E+00 -0.4232624862149E+01  0.0000000000000E+00
 0.8801257412452E+00 -0.4161205139410E+01  0.0000000000000E+00
 0.8801886119583E+00 -0.4089785282070E+01  0.0000000000000E+00
 0.8802514827260E+00 -0.4018365362649E+01  0.0000000000000E+00
 0.8803143534107E+00 -0.3946945537440E+01  0.0000000000000E+00
 0.8803772240837E+00 -0.3875525725631E+01  0.0000000000000E+00
 0.8804400947647E+00 -0.3804105904747E+01  0.0000000000000E+00
 0.8805029654551E+00 -0.3732686073087E+01  0.0000000000000E+00
 0.8805658361406E+00 -0.3661266247042E+01  0.0000000000000E+00
 0.8806287068270E+00 -0.3589846420017E+01  0.0000000000000E+00
 0.8806915776278E+00 -0.3518426462966E+01  0.0000000000000E+00
 0.8807544482321E+00 -0.3447006729237E+01  0.0000000000000E+00
 0.8808173190235E+00 -0.3375586782831E+01  0.0000000000000E+00
 0.8808801907419E+00 -0.3304165783493E+01  0.0000000000000E+00
 0.8809430603810E+00 -0.3232747146062E+01  0.0000000000000E+00
 0.8810059308927E+00 -0.3161327517485E+01  0.0000000000000E+00
 0.8810688015838E+00 -0.3089907685116E+01  0.0000000000000E+00
 0.8811316722411E+00 -0.3018487891087E+01  0.0000000000000E+00
 0.8811945428171E+00 -0.2947068189507E+01  0.0000000000000E+00
 0.8813228913452E+00 -0.2875648520963E+01  0.0000000000000E+00
 0.8819137288988E+00 -0.2804232340763E+01  0.0000000000000E+00
 0.8833980407394E+00 -0.2732836418503E+01  0.0000000000000E+00
 0.8860347761945E+00 -0.2661492557860E+01  0.0000000000000E+00
 0.8899254402048E+00 -0.2590239070684E+01  0.0000000000000E+00
 0.8950814929478E+00 -0.2519112682006E+01  0.0000000000000E+00
 0.9014796530467E+00 -0.2448146351075E+01  0.0000000000000E+00
 0.9090935891332E+00 -0.2377371183799E+01  0.0000000000000E+00
 0.9179102940913E+00 -0.2306818449755E+01  0.0000000000000E+00
 0.9279392533642E+00 -0.2236524376770E+01  0.0000000000000E+00
 0.9392200815813E+00 -0.2166533789856E+01  0.0000000000000E+00
 0.9517680302519E+00 -0.2096888231292E+01  0.0000000000000E+00
 0.9655054064884E+00 -0.2027601942369E+01  0.0000000000000E+00
 0.9803742736342E+00 -0.1958689846964E+01  0.0000000000000E+00
 0.9963468360632E+00 -0.1890173722552E+01  0.0000000000000E+00
 0.1013422184182E+01 -0.1822084302508E+01  0.0000000000000E+00
 0.1031626362785E+01 -0.1754464468768E+01  0.0000000000000E+00
 0.1051015708778E+01 -0.1687374668298E+01  0.0000000000000E+00
 0.1071685344144E+01 -0.1620899391489E+01  0.0000000000000E+00
 0.1093783105455E+01 -0.1555166028923E+01  0.0000000000000E+00
 0.1117539866798E+01 -0.1490367694424E+01  0.0000000000000E+00
 0.9075594889833E+00 -0.4232814047991E+01  0.0000000000000E+00
 0.9076189779134E+00 -0.4161583510925E+01  0.0000000000000E+00
 0.9076784669557E+00 -0.4090352839614E+01  0.0000000000000E+00
 0.9077379560498E+00 -0.4019122106386E+01  0.0000000000000E+00
 0.9077974450653E+00 -0.3947891467122E+01  0.0000000000000E+00
 0.9078569340697E+00 -0.3876660841222E+01  0.0000000000000E+00
 0.9079164230816E+00 -0.3805430206271E+01  0.0000000000000E+00
 0.9079759121025E+00 -0.3734199560572E+01  0.0000000000000E+00
 0.9080354011187E+00 -0.3662968920473E+01  0.0000000000000E+00
 0.9080948901358E+00 -0.3591738279397E+01  0.0000000000000E+00
 0.9081543792612E+00 -0.3520507508640E+01  0.0000000000000E+00
 0.9082138682005E+00 -0.3449276960612E+01  0.0000000000000E+00
 0.9082733573170E+00 -0.3378046200472E+01  0.0000000000000E+00
 0.9083328473105E+00 -0.3306814390188E+01  0.0000000000000E+00
 0.9083923353367E+00 -0.3235584935555E+01  0.0000000000000E+00
 0.9084518241884E+00 -0.3164354492402E+01  0.0000000000000E+00
 0.9085113132099E+00 -0.3093123845996E+01  0.0000000000000E+00
 0.9085708021995E+00 -0.3021893237829E+01  0.0000000000000E+00
 0.9086302911121E+00 -0.2950662721865E+01  0.0000000000000E+00
 0.9087573168832E+00 -0.2879432238978E+01  0.0000000000000E+00
 0.9093613743473E+00 -0.2808205243358E+01  0.0000000000000E+00
 0.9108870008119E+00 -0.2736998503829E+01  0.0000000000000E+00
 0.9136012880531E+00 -0.2665843825050E+01  0.0000000000000E+00
 0.9176089327442E+00 -0.2594779519508E+01  0.0000000000000E+00
 0.9229217554080E+00 -0.2523842312644E+01  0.0000000000000E+00
 0.9295157425928E+00 -0.2453065164015E+01  0.0000000000000E+00
 0.9373637349804E+00 -0.2382479178777E+01  0.0000000000000E+00
 0.9464523164353E+00 -0.2312115627219E+01  0.0000000000000E+00
 0.9567912706887E+00 -0.2242010736282E+01  0.0000000000000E+00
 0.9684214580236E+00 -0.2172209330975E+01  0.0000000000000E+00
 0.9813586095009E+00 -0.2102752954344E+01  0.0000000000000E+00
 0.9955225892331E+00 -0.2033655847757E+01  0.0000000000000E+00
 0.1010853638792E+01 -0.1964932934906E+01  0.0000000000000E+00
 0.1027323088543E+01 -0.1896605993116E+01  0.0000000000000E+00
 0.1044930000291E+01 -0.1828705755716E+01  0.0000000000000E+00
 0.1063701237794E+01 -0.1761275104543E+01  0.0000000000000E+00
 0.1083694909471E+01 -0.1694374485157E+01  0.0000000000000E+00
 0.1105009128278E+01 -0.1628088390423E+01  0.0000000000000E+00
 0.1127796379553E+01 -0.1562544205636E+01  0.0000000000000E+00
 0.1152294796986E+01 -0.1497935046963E+01  0.0000000000000E+00
 0.9350548858195E+00 -0.4233008749224E+01  0.0000000000000E+00
 0.9351097715901E+00 -0.4161972913217E+01  0.0000000000000E+00
 0.9351646574641E+00 -0.4090936943333E+01  0.0000000000000E+00
 0.9352195433858E+00 -0.4019900911701E+01  0.0000000000000E+00
 0.9352744292350E+00 -0.3948864973775E+01  0.0000000000000E+00
 0.9353293150740E+00 -0.3877829049177E+01  0.0000000000000E+00
 0.9353842009200E+00 -0.3806793115553E+01  0.0000000000000E+00
 0.9354390867743E+00 -0.3735757171211E+01  0.0000000000000E+00
 0.9354939726242E+00 -0.3664721232452E+01  0.0000000000000E+00
 0.9355488584749E+00 -0.3593685292720E+01  0.0000000000000E+00
 0.9356037444255E+00 -0.3522649223661E+01  0.0000000000000E+00
 0.9356586302045E+00 -0.3451613376723E+01  0.0000000000000E+00
 0.9357135161469E+00 -0.3380577318253E+01  0.0000000000000E+00
 0.9357684028986E+00 -0.3309540212508E+01  0.0000000000000E+00
 0.9358232878350E+00 -0.3238505455976E+01  0.0000000000000E+00
 0.9358781735332E+00 -0.3167469713625E+01  0.0000000000000E+00
 0.9359330593880E+00 -0.3096433768578E+01  0.0000000000000E+00
 0.9359879452134E+00 -0.3025397861664E+01  0.0000000000000E+00
 0.9360428309677E+00 -0.2954362046702E+01  0.0000000000000E+00
 0.9361673124864E+00 -0.2883326264858E+01  0.0000000000000E+00
 0.9367833683722E+00 -0.2812293969172E+01  0.0000000000000E+00
 0.9383490879822E+00 -0.2741281927676E+01  0.0000000000000E+00
 0.9411397055351E+00 -0.2670321946037E+01  0.0000000000000E+00
 0.9452631094320E+00 -0.2599452337398E+01  0.0000000000000E+00
 0.9507314805386E+00 -0.2528709827621E+01  0.0000000000000E+00
 0.9575200733262E+00 -0.2458127376583E+01  0.0000000000000E+00
 0.9656009005317E+00 -0.2387736088663E+01  0.0000000000000E+00
 0.9749601369954E+00 -0.2317567234886E+01  0.0000000000000E+00
 0.9856078647423E+00 -0.2247657041276E+01  0.0000000000000E+00
 0.9975861897091E+00 -0.2178050332845E+01  0.0000000000000E+00
 0.1010911322503E+01 -0.2108788653425E+01  0.0000000000000E+00
 0.1025500684237E+01 -0.2039886244463E+01  0.0000000000000E+00
 0.1041292694711E+01 -0.1971358029462E+01  0.0000000000000E+00
 0.1058257810283E+01 -0.1903225785592E+01  0.0000000000000E+00
 0.1076395064160E+01 -0.1835520246133E+01  0.0000000000000E+00
 0.1095732139060E+01 -0.1768284292824E+01  0.0000000000000E+00
 0.1116328914927E+01 -0.1701578369774E+01  0.0000000000000E+00
 0.1138286495672E+01 -0.1635486972397E+01  0.0000000000000E+00
 0.1161762015432E+01 -0.1570137480546E+01  0.0000000000000E+00
 0.1187000867489E+01 -0.1505723012798E+01  0.0000000000000E+00
 0.9625490308455E+00 -0.4233208934261E+01  0.0000000000000E+00
 0.9625980616473E+00 -0.4162373283113E+01  0.0000000000000E+00
 0.9626470925415E+00 -0.4091537498464E+01  0.0000000000000E+00
 0.9626961234783E+00 -0.4020701652242E+01  0.0000000000000E+00
 0.9627451543504E+00 -0.3949865899462E+01  0.0000000000000E+00
 0.9627941852133E+00 -0.3879030159972E+01  0.0000000000000E+00
 0.9628432160825E+00 -0.3808194411481E+01  0.0000000000000E+00
 0.9628922469590E+00 -0.3737358652303E+01  0.0000000000000E+00
 0.9629412778317E+00 -0.3666522898693E+01  0.0000000000000E+00
 0.9629903087051E+00 -0.3595687144111E+01  0.0000000000000E+00
 0.9630393396677E+00 -0.3524851260568E+01  0.0000000000000E+00
 0.9630883704770E+00 -0.3454015598519E+01  0.0000000000000E+00
 0.9631374014324E+00 -0.3383179725533E+01  0.0000000000000E+00
 0.9631864331105E+00 -0.3312342808225E+01  0.0000000000000E+00
 0.9632354631672E+00 -0.3241508233510E+01  0.0000000000000E+00
 0.9632844939044E+00 -0.3170672675753E+01  0.0000000000000E+00
 0.9633335247814E+00 -0.3099836915872E+01  0.0000000000000E+00
 0.9633825556321E+00 -0.3029001194016E+01  0.0000000000000E+00
 0.9634315864194E+00 -0.2958165563854E+01  0.0000000000000E+00
 0.9635522718756E+00 -0.2887329966851E+01  0.0000000000000E+00
 0.9641790743716E+00 -0.2816497854867E+01  0.0000000000000E+00
 0.9657836353121E+00 -0.2745685995118E+01  0.0000000000000E+00
 0.9686493313466E+00 -0.2674926194307E+01  0.0000000000000E+00
 0.9728872425984E+00 -0.2604256766253E+01  0.0000000000000E+00
 0.9785099102731E+00 -0.2533714437250E+01  0.0000000000000E+00
 0.9854918567633E+00 -0.2463332167505E+01  0.0000000000000E+00
 0.9938042668667E+00 -0.2393141060596E+01  0.0000000000000E+00
 0.1003432906395E+01 -0.2323172388306E+01  0.0000000000000E+00
 0.1014388155672E+01 -0.2253462375718E+01  0.0000000000000E+00
 0.1026713366288E+01 -0.2184055847844E+01  0.0000000000000E+00
 0.1040425228390E+01 -0.2114994349325E+01  0.0000000000000E+00
 0.1055438720094E+01 -0.2046292121691E+01  0.0000000000000E+00
 0.1071690439431E+01 -0.1977964088247E+01  0.0000000000000E+00
 0.1089149968751E+01 -0.1910032026008E+01  0.0000000000000E+00
 0.1107816312662E+01 -0.1842526668202E+01  0.0000000000000E+00
 0.1127717972847E+01 -0.1775490896466E+01  0.0000000000000E+00
 0.1148916600779E+01 -0.1708985153419E+01  0.0000000000000E+00
 0.1171516291308E+01 -0.1643093937094E+01  0.0000000000000E+00
 0.1195678827404E+01 -0.1577944621747E+01  0.0000000000000E+00
 0.1221656861916E+01 -0.1513730328440E+01  0.0000000000000E+00
 0.9900418963175E+00 -0.4233414571432E+01  0.0000000000000E+00
 0.9900837925975E+00 -0.4162784557271E+01  0.0000000000000E+00
 0.9901256889566E+00 -0.4092154409997E+01  0.0000000000000E+00
 0.9901675853520E+00 -0.4021524201328E+01  0.0000000000000E+00
 0.9902094816922E+00 -0.3950894085830E+01  0.0000000000000E+00
 0.9902513780245E+00 -0.3880263983584E+01  0.0000000000000E+00
 0.9902932743622E+00 -0.3809633872364E+01  0.0000000000000E+00
 0.9903351707061E+00 -0.3739003750486E+01  0.0000000000000E+00
 0.9903770670468E+00 -0.3668373634161E+01  0.0000000000000E+00
 0.9904189633881E+00 -0.3597743516867E+01  0.0000000000000E+00
 0.9904608598056E+00 -0.3527113270985E+01  0.0000000000000E+00
 0.9905027560921E+00 -0.3456483245955E+01  0.0000000000000E+00
 0.9905446525034E+00 -0.3385853010601E+01  0.0000000000000E+00
 0.9905865495323E+00 -0.3315221733956E+01  0.0000000000000E+00
 0.9906284451757E+00 -0.3244592793103E+01  0.0000000000000E+00
 0.9906703414006E+00 -0.3173962872062E+01  0.0000000000000E+00
 0.9907122377450E+00 -0.3103332749484E+01  0.0000000000000E+00
 0.9907541340669E+00 -0.3032702664821E+01  0.0000000000000E+00
 0.9907960303345E+00 -0.2962072671585E+01  0.0000000000000E+00
 0.9909116401763E+00 -0.2891442711552E+01  0.0000000000000E+00
 0.9915479097436E+00 -0.2820816235367E+01  0.0000000000000E+00
 0.9931900324991E+00 -0.2750210009408E+01  0.0000000000000E+00
 0.9961295275201E+00 -0.2679655841445E+01  0.0000000000000E+00
 0.1000480666649E+01 -0.2609192045989E+01  0.0000000000000E+00
 0.1006256351428E+01 -0.2538855349777E+01  0.0000000000000E+00
 0.1013430372169E+01 -0.2468678713357E+01  0.0000000000000E+00
 0.1021973085736E+01 -0.2398693239484E+01  0.0000000000000E+00
 0.1031869848906E+01 -0.2328930200717E+01  0.0000000000000E+00
 0.1043131340308E+01 -0.2259425821175E+01  0.0000000000000E+00
 0.1055802157187E+01 -0.2190224925870E+01  0.0000000000000E+00
 0.1069899469226E+01 -0.2121369060273E+01  0.0000000000000E+00
 0.1085335811539E+01 -0.2052872465999E+01  0.0000000000000E+00
 0.1102045960391E+01 -0.1984750066153E+01  0.0000000000000E+00
 0.1119998624125E+01 -0.1917023637585E+01  0.0000000000000E+00
 0.1139192778749E+01 -0.1849723913474E+01  0.0000000000000E+00
 0.1159657744912E+01 -0.1782893775349E+01  0.0000000000000E+00
 0.1181456945627E+01 -0.1716593664302E+01  0.0000000000000E+00
 0.1204697466668E+01 -0.1650908081054E+01  0.0000000000000E+00
 0.1229545739873E+01 -0.1585964394114E+01  0.0000000000000E+00
 0.1256261677649E+01 -0.1521955727091E+01  0.0000000000000E+00
 0.1017533454000E+01 -0.4233625628207E+01  0.0000000000000E+00
 0.1017566907971E+01 -0.4163206670632E+01  0.0000000000000E+00
 0.1017600362004E+01 -0.4092787580343E+01  0.0000000000000E+00
 0.1017633816067E+01 -0.4022368428842E+01  0.0000000000000E+00
 0.1017667270085E+01 -0.3951949370234E+01  0.0000000000000E+00
 0.1017700724097E+01 -0.3881530324838E+01  0.0000000000000E+00
 0.1017734178114E+01 -0.3811111270494E+01  0.0000000000000E+00
 0.1017767632135E+01 -0.3740692205524E+01  0.0000000000000E+00
 0.1017801086154E+01 -0.3670273146091E+01  0.0000000000000E+00
 0.1017834540173E+01 -0.3599854085692E+01  0.0000000000000E+00
 0.1017867994254E+01 -0.3529434897089E+01  0.0000000000000E+00
 0.1017901448229E+01 -0.3459015928678E+01  0.0000000000000E+00
 0.1017934902304E+01 -0.3388596750572E+01  0.0000000000000E+00
 0.1017968356873E+01 -0.3318176534286E+01  0.0000000000000E+00
 0.1018001810335E+01 -0.3247758646812E+01  0.0000000000000E+00
 0.1018035264261E+01 -0.3177339782080E+01  0.0000000000000E+00
 0.1018068718283E+01 -0.3106920716413E+01  0.0000000000000E+00
 0.1018102172287E+01 -0.3036501688547E+01  0.0000000000000E+00
 0.1018135626247E+01 -0.2966082751835E+01  0.0000000000000E+00
 0.1018244852688E+01 -0.2895663848371E+01  0.0000000000000E+00
 0.1018889281555E+01 -0.2825248427553E+01  0.0000000000000E+00
 0.1020567658381E+01 -0.2754853254900E+01  0.0000000000000E+00
 0.1023579644669E+01 -0.2684510139275E+01  0.0000000000000E+00
 0.1028042703977E+01 -0.2614257395899E+01  0.0000000000000E+00
 0.1033970098182E+01 -0.2544131751969E+01  0.0000000000000E+00
 0.1041334885514E+01 -0.2474166168375E+01  0.0000000000000E+00
 0.1050106594904E+01 -0.2404391747033E+01  0.0000000000000E+00
 0.1060270174092E+01 -0.2334839761298E+01  0.0000000000000E+00
 0.1071836600020E+01 -0.2265546434297E+01  0.0000000000000E+00
 0.1084851715585E+01 -0.2196556591045E+01  0.0000000000000E+00
 0.1099333170002E+01 -0.2127911777862E+01  0.0000000000000E+00
 0.1115191055382E+01 -0.2059626236452E+01  0.0000000000000E+00
 0.1132358326224E+01 -0.1991714889712E+01  0.0000000000000E+00
 0.1150802816865E+01 -0.1924199514328E+01  0.0000000000000E+00
 0.1170523474713E+01 -0.1857110843424E+01  0.0000000000000E+00
 0.1191550439383E+01 -0.1790491758421E+01  0.0000000000000E+00
 0.1213948905440E+01 -0.1724402698843E+01  0.0000000000000E+00
 0.1237828949566E+01 -0.1658928168167E+01  0.0000000000000E+00
 0.1263361652507E+01 -0.1594195529007E+01  0.0000000000000E+00
 0.1290814186213E+01 -0.1530397907585E+01  0.0000000000000E+00
 0.1045023674235E+01 -0.4233842070904E+01  0.0000000000000E+00
 0.1045047348449E+01 -0.4163639555833E+01  0.0000000000000E+00
 0.1045071022707E+01 -0.4093436908455E+01  0.0000000000000E+00
 0.1045094696986E+01 -0.4023234200054E+01  0.0000000000000E+00
 0.1045118371233E+01 -0.3953031584260E+01  0.0000000000000E+00
 0.1045142045477E+01 -0.3882828981637E+01  0.0000000000000E+00
 0.1045165719723E+01 -0.3812626370094E+01  0.0000000000000E+00
 0.1045189393973E+01 -0.3742423747959E+01  0.0000000000000E+00
 0.1045213068221E+01 -0.3672221131342E+01  0.0000000000000E+00
 0.1045236742469E+01 -0.3602018513763E+01  0.0000000000000E+00
 0.1045260416760E+01 -0.3531815768374E+01  0.0000000000000E+00
 0.1045284090977E+01 -0.3461613242500E+01  0.0000000000000E+00
 0.1045307765265E+01 -0.3391410507575E+01  0.0000000000000E+00
 0.1045331439902E+01 -0.3321206737662E+01  0.0000000000000E+00
 0.1045355113756E+01 -0.3251005289403E+01  0.0000000000000E+00
 0.1045378787939E+01 -0.3180802866889E+01  0.0000000000000E+00
 0.1045402462189E+01 -0.3110600244057E+01  0.0000000000000E+00
 0.1045426136426E+01 -0.3040397658911E+01  0.0000000000000E+00
 0.1045449810633E+01 -0.2970195164638E+01  0.0000000000000E+00
 0.1045551316223E+01 -0.2899992703660E+01  0.0000000000000E+00
 0.1046202566935E+01 -0.2829793724095E+01  0.0000000000000E+00
 0.1047915860364E+01 -0.2759614990581E+01  0.0000000000000E+00
 0.1050999000424E+01 -0.2689488313102E+01  0.0000000000000E+00
 0.1055572642382E+01 -0.2619452007610E+01  0.0000000000000E+00
 0.1061650408446E+01 -0.2549542801767E+01  0.0000000000000E+00
 0.1069204624761E+01 -0.2479793656821E+01  0.0000000000000E+00
 0.1078203992335E+01 -0.2410235673824E+01  0.0000000000000E+00
 0.1088633049863E+01 -0.2340900126947E+01  0.0000000000000E+00
 0.1100503072607E+01 -0.2271823238302E+01  0.0000000000000E+00
 0.1113861149115E+01 -0.2203049832902E+01  0.0000000000000E+00
 0.1128725408128E+01 -0.2134621457944E+01  0.0000000000000E+00
 0.1145003498756E+01 -0.2066552355220E+01  0.0000000000000E+00
 0.1162626553734E+01 -0.1998857447416E+01  0.0000000000000E+00
 0.1181561533394E+01 -0.1931558511045E+01  0.0000000000000E+00
 0.1201807356548E+01 -0.1864686279179E+01  0.0000000000000E+00
 0.1223394981775E+01 -0.1798283633127E+01  0.0000000000000E+00
 0.1246391375200E+01 -0.1732411010803E+01  0.0000000000000E+00
 0.1270909604393E+01 -0.1667152918514E+01  0.0000000000000E+00
 0.1297125399040E+01 -0.1602636712827E+01  0.0000000000000E+00
 0.1325313190613E+01 -0.1539055522643E+01  0.0000000000000E+00
 0.1072512531546E+01 -0.4234063866321E+01  0.0000000000000E+00
 0.1072525063080E+01 -0.4164083146470E+01  0.0000000000000E+00
 0.1072537594638E+01 -0.4094102294730E+01  0.0000000000000E+00
 0.1072550126207E+01 -0.4024121382159E+01  0.0000000000000E+00
 0.1072562657759E+01 -0.3954140561902E+01  0.0000000000000E+00
 0.1072575189309E+01 -0.3884159754776E+01  0.0000000000000E+00
 0.1072587720861E+01 -0.3814178938758E+01  0.0000000000000E+00
 0.1072600252414E+01 -0.3744198112180E+01  0.0000000000000E+00
 0.1072612783967E+01 -0.3674217291104E+01  0.0000000000000E+00
 0.1072625315520E+01 -0.3604236469068E+01  0.0000000000000E+00
 0.1072637847095E+01 -0.3534255519626E+01  0.0000000000000E+00
 0.1072650378631E+01 -0.3464274789006E+01  0.0000000000000E+00
 0.1072662910205E+01 -0.3394293849995E+01  0.0000000000000E+00
 0.1072675441964E+01 -0.3324311879266E+01  0.0000000000000E+00
 0.1072687973307E+01 -0.3254332222856E+01  0.0000000000000E+00
 0.1072700504825E+01 -0.3184351595269E+01  0.0000000000000E+00
 0.1072713036379E+01 -0.3114370767997E+01  0.0000000000000E+00
 0.1072725567926E+01 -0.3044389978293E+01  0.0000000000000E+00
 0.1072738099457E+01 -0.2974409279174E+01  0.0000000000000E+00
 0.1072830521275E+01 -0.2904428613396E+01  0.0000000000000E+00
 0.1073487230923E+01 -0.2834451427769E+01  0.0000000000000E+00
 0.1075234078069E+01 -0.2764494486027E+01  0.0000000000000E+00
 0.1078387009034E+01 -0.2694589599303E+01  0.0000000000000E+00
 0.1083069870790E+01 -0.2624775084295E+01  0.0000000000000E+00
 0.1089296645875E+01 -0.2555087669146E+01  0.0000000000000E+00
 0.1097038928343E+01 -0.2485560315469E+01  0.0000000000000E+00
 0.1106264591286E+01 -0.2416224123429E+01  0.0000000000000E+00
 0.1116957764351E+01 -0.2347110368037E+01  0.0000000000000E+00
 0.1129130021121E+01 -0.2278255270360E+01  0.0000000000000E+00
 0.1142829695801E+01 -0.2209703655415E+01  0.0000000000000E+00
 0.1158075396650E+01 -0.2141497071292E+01  0.0000000000000E+00
 0.1174772329777E+01 -0.2073649759875E+01  0.0000000000000E+00
 0.1192849806151E+01 -0.2006176643634E+01  0.0000000000000E+00
 0.1212273912104E+01 -0.1939099498907E+01  0.0000000000000E+00
 0.1233043537849E+01 -0.1872449058708E+01  0.0000000000000E+00
 0.1255190460929E+01 -0.1806268204236E+01  0.0000000000000E+00
 0.1278783419043E+01 -0.1740617371751E+01  0.0000000000000E+00
 0.1303938470630E+01 -0.1675581070464E+01  0.0000000000000E+00
 0.1330835994357E+01 -0.1611286650742E+01  0.0000000000000E+00
 0.1359757681202E+01 -0.1547927244234E+01  0.0000000000000E+00
-0.6778574956198E+00 -0.1262067680153E+01  0.0000000000000E+00
-0.6782770661586E+00 -0.1176951538939E+01  0.0000000000000E+00
-0.6790038521434E+00 -0.1091837606340E+01  0.0000000000000E+00
-0.6800826918120E+00 -0.1006727743275E+01  0.0000000000000E+00
-0.6815616898838E+00 -0.9216243838726E+00  0.0000000000000E+00
-0.6834862980979E+00 -0.8365308372119E+00  0.0000000000000E+00
-0.6858864270538E+00 -0.7514504222619E+00  0.0000000000000E+00
-0.6887536618310E+00 -0.6663859764994E+00  0.0000000000000E+00
-0.6920116565350E+00 -0.5813369229450E+00  0.0000000000000E+00
-0.6954975963156E+00 -0.4962977947840E+00  0.0000000000000E+00
-0.6989835360050E+00 -0.4112586666193E+00  0.0000000000000E+00
-0.7022415304475E+00 -0.3262096130549E+00  0.0000000000000E+00
-0.7051087648230E+00 -0.2411451672791E+00  0.0000000000000E+00
-0.7075088932732E+00 -0.1560647523149E+00  0.0000000000000E+00
-0.7094335009094E+00 -0.7097120564155E-01  0.0000000000000E+00
-0.7109124983562E+00  0.1413215377165E-01  0.0000000000000E+00
-0.7119913373706E+00  0.9924201684453E-01  0.0000000000000E+00
-0.7127181226840E+00  0.1843559494488E+00  0.0000000000000E+00
-0.7131376925427E+00  0.2694720906668E+00  0.0000000000000E+00
-0.6423834586364E+00 -0.1257430206780E+01  0.0000000000000E+00
-0.6428079469815E+00 -0.1172076973233E+01  0.0000000000000E+00
-0.6435234815340E+00 -0.1086725948382E+01  0.0000000000000E+00
-0.6445725406163E+00 -0.1001378993222E+01  0.0000000000000E+00
-0.6460006971461E+00 -0.9160385416585E+00  0.0000000000000E+00
-0.6478510106322E+00 -0.8307079030675E+00  0.0000000000000E+00
-0.6501518174942E+00 -0.7453903958721E+00  0.0000000000000E+00
-0.6528951456395E+00 -0.6600888580888E+00  0.0000000000000E+00
-0.6560086674312E+00 -0.5748027122585E+00  0.0000000000000E+00
-0.6593381371986E+00 -0.4895264917391E+00  0.0000000000000E+00
-0.6626676068748E+00 -0.4042502712162E+00  0.0000000000000E+00
-0.6657811284050E+00 -0.3189641253765E+00  0.0000000000000E+00
-0.6685244561486E+00 -0.2336625875806E+00  0.0000000000000E+00
-0.6708252625048E+00 -0.1483450803717E+00  0.0000000000000E+00
-0.6726755754131E+00 -0.6301444176865E-01  0.0000000000000E+00
-0.6741037313179E+00  0.2232600980478E-01  0.0000000000000E+00
-0.6751527897460E+00  0.1076729649727E+00  0.0000000000000E+00
-0.6758683236271E+00  0.1930239898287E+00  0.0000000000000E+00
-0.6762928112920E+00  0.2783772233786E+00  0.0000000000000E+00
-0.6068771248225E+00 -0.1253037464350E+01  0.0000000000000E+00
-0.6073023861501E+00 -0.1167458422578E+01  0.0000000000000E+00
-0.6080025244294E+00 -0.1081881589579E+01  0.0000000000000E+00
-0.6090176580661E+00 -0.9963088264196E+00  0.0000000000000E+00
-0.6103908281695E+00 -0.9107425667951E+00  0.0000000000000E+00
-0.6121627020206E+00 -0.8251861203621E+00  0.0000000000000E+00
-0.6143600418475E+00 -0.7396428050247E+00  0.0000000000000E+00
-0.6169753183957E+00 -0.6541154593135E+00  0.0000000000000E+00
-0.6199402222819E+00 -0.5686035053123E+00  0.0000000000000E+00
-0.6231090770279E+00 -0.4831014765433E+00  0.0000000000000E+00
-0.6262779316826E+00 -0.3975994477710E+00  0.0000000000000E+00
-0.6292428353073E+00 -0.3120874937608E+00  0.0000000000000E+00
-0.6318581114538E+00 -0.2265601480377E+00  0.0000000000000E+00
-0.6340554507749E+00 -0.1410168326875E+00  0.0000000000000E+00
-0.6358273240482E+00 -0.5546038624327E-01  0.0000000000000E+00
-0.6372004935266E+00  0.3010587339095E-01  0.0000000000000E+00
-0.6382156265091E+00  0.1156786365575E+00  0.0000000000000E+00
-0.6389157641170E+00  0.2012554695615E+00  0.0000000000000E+00
-0.6393410247644E+00  0.2868345113357E+00  0.0000000000000E+00
-0.5713401376445E+00 -0.1248890411137E+01  0.0000000000000E+00
-0.5717622009905E+00 -0.1163097082270E+01  0.0000000000000E+00
-0.5724429720439E+00 -0.1077305962247E+01  0.0000000000000E+00
-0.5734202092963E+00 -0.9915189122057E+00  0.0000000000000E+00
-0.5747344220463E+00 -0.9057383656401E+00  0.0000000000000E+00
-0.5764238853537E+00 -0.8199676324743E+00  0.0000000000000E+00
-0.5785137872467E+00 -0.7342100301194E+00  0.0000000000000E+00
-0.5809970413178E+00 -0.6484683975936E+00  0.0000000000000E+00
-0.5838093564268E+00 -0.5627421565474E+00  0.0000000000000E+00
-0.5868136252857E+00 -0.4770258406587E+00  0.0000000000000E+00
-0.5898178940533E+00 -0.3913095247669E+00  0.0000000000000E+00
-0.5926302089008E+00 -0.3055832837122E+00  0.0000000000000E+00
-0.5951134625703E+00 -0.2198416511753E+00  0.0000000000000E+00
-0.5972033639575E+00 -0.1340840488083E+00  0.0000000000000E+00
-0.5988928266870E+00 -0.4831331563190E-01  0.0000000000000E+00
-0.6002070388120E+00  0.3746723094278E-01  0.0000000000000E+00
-0.6011842754101E+00  0.1232542809908E+00  0.0000000000000E+00
-0.6018650457922E+00  0.2090454010180E+00  0.0000000000000E+00
-0.6022871084581E+00  0.2948387298880E+00  0.0000000000000E+00
-0.5357741369022E+00 -0.1244989956190E+01  0.0000000000000E+00
-0.5361892110234E+00 -0.1158994088951E+01  0.0000000000000E+00
-0.5368468236192E+00 -0.1073000430625E+01  0.0000000000000E+00
-0.5377823732698E+00 -0.9870108424148E+00  0.0000000000000E+00
-0.5390338374614E+00 -0.9010277576241E+00  0.0000000000000E+00
-0.5406370990385E+00 -0.8150544864300E+00  0.0000000000000E+00
-0.5426157718221E+00 -0.7290943457776E+00  0.0000000000000E+00
-0.5449632122597E+00 -0.6431501751464E+00  0.0000000000000E+00
-0.5476191474442E+00 -0.5572213957766E+00  0.0000000000000E+00
-0.5504550392749E+00 -0.4713025414940E+00  0.0000000000000E+00
-0.5532909310144E+00 -0.3853836872084E+00  0.0000000000000E+00
-0.5559468659374E+00 -0.2994549078308E+00  0.0000000000000E+00
-0.5582943059733E+00 -0.2135107371891E+00  0.0000000000000E+00
-0.5602729782511E+00 -0.1275505965254E+00  0.0000000000000E+00
-0.5618762392504E+00 -0.4157732532137E-01  0.0000000000000E+00
-0.5631277028170E+00  0.4440575947785E-01  0.0000000000000E+00
-0.5640632518133E+00  0.1303953476947E+00  0.0000000000000E+00
-0.5647208637377E+00  0.2163890060246E+00  0.0000000000000E+00
-0.5651359371787E+00  0.3023848732658E+00  0.0000000000000E+00
-0.5001808381180E+00 -0.1241336966218E+01  0.0000000000000E+00
-0.5005853091216E+00 -0.1155150525915E+01  0.0000000000000E+00
-0.5012161493549E+00 -0.1068966294589E+01  0.0000000000000E+00
-0.5021063974859E+00 -0.9827861335033E+00  0.0000000000000E+00
-0.5032914991826E+00 -0.8966124757853E+00  0.0000000000000E+00
-0.5048049450772E+00 -0.8104486318491E+00  0.0000000000000E+00
-0.5066687747735E+00 -0.7242979182013E+00  0.0000000000000E+00
-0.5088767875828E+00 -0.6381631747553E+00  0.0000000000000E+00
-0.5113727288271E+00 -0.5520438223657E+00  0.0000000000000E+00
-0.5140366296026E+00 -0.4659343949968E+00  0.0000000000000E+00
-0.5167005302870E+00 -0.3798249676253E+00  0.0000000000000E+00
-0.5191964712696E+00 -0.2937056152283E+00  0.0000000000000E+00
-0.5214044836774E+00 -0.2075708717725E+00  0.0000000000000E+00
-0.5232683128678E+00 -0.1214201581142E+00  0.0000000000000E+00
-0.5247817581846E+00 -0.3525631416868E-01  0.0000000000000E+00
-0.5259668592563E+00  0.5091734355727E-01  0.0000000000000E+00
-0.5268571067330E+00  0.1370975046484E+00  0.0000000000000E+00
-0.5274879462949E+00  0.2232817359786E+00  0.0000000000000E+00
-0.5278924166184E+00  0.3094681762846E+00  0.0000000000000E+00
-0.4645619564064E+00 -0.1237932258017E+01  0.0000000000000E+00
-0.4649524100802E+00 -0.1151567419413E+01  0.0000000000000E+00
-0.4655530637473E+00 -0.1065204789847E+01  0.0000000000000E+00
-0.4663945961656E+00 -0.9788462306392E+00  0.0000000000000E+00
-0.4675099211833E+00 -0.8924941747498E+00  0.0000000000000E+00
-0.4689301372252E+00 -0.8061519328155E+00  0.0000000000000E+00
-0.4706757096711E+00 -0.7198228209325E+00  0.0000000000000E+00
-0.4727408807035E+00 -0.6335096794204E+00  0.0000000000000E+00
-0.4750734138646E+00 -0.5472119287727E+00  0.0000000000000E+00
-0.4775619094464E+00 -0.4609241030837E+00  0.0000000000000E+00
-0.4800504049371E+00 -0.3746362773921E+00  0.0000000000000E+00
-0.4823829378366E+00 -0.2883385267376E+00  0.0000000000000E+00
-0.4844481084674E+00 -0.2020253852164E+00  0.0000000000000E+00
-0.4861936804074E+00 -0.1156962733237E+00  0.0000000000000E+00
-0.4876138958714E+00 -0.2935403138074E-01  0.0000000000000E+00
-0.4887292202642E+00  0.5699802451606E-01  0.0000000000000E+00
-0.4895707520282E+00  0.1433565837290E+00  0.0000000000000E+00
-0.4901714050239E+00  0.2297192132988E+00  0.0000000000000E+00
-0.4905618580176E+00  0.3160840519049E+00  0.0000000000000E+00
-0.4289192212257E+00 -0.1234776597180E+01  0.0000000000000E+00
-0.4292924445295E+00 -0.1148245732540E+01  0.0000000000000E+00
-0.4298596985868E+00 -0.1061717076994E+01  0.0000000000000E+00
-0.4306493022459E+00 -0.9751924919160E+00  0.0000000000000E+00
-0.4316916375313E+00 -0.8886744101102E+00  0.0000000000000E+00
-0.4330154106638E+00 -0.8021661424208E+00  0.0000000000000E+00
-0.4346395127912E+00 -0.7156710045621E+00  0.0000000000000E+00
-0.4365586289750E+00 -0.6291918372315E+00  0.0000000000000E+00
-0.4387245409721E+00 -0.5427280605867E+00  0.0000000000000E+00
-0.4410344182749E+00 -0.4562742088428E+00  0.0000000000000E+00
-0.4433442954865E+00 -0.3698203570966E+00  0.0000000000000E+00
-0.4455102072220E+00 -0.2833565804456E+00  0.0000000000000E+00
-0.4474293230042E+00 -0.1968774131066E+00  0.0000000000000E+00
-0.4490534246258E+00 -0.1103822752388E+00  0.0000000000000E+00
-0.4503771971804E+00 -0.2387400754147E-01  0.0000000000000E+00
-0.4514195318408E+00  0.6264407427117E-01  0.0000000000000E+00
-0.4522091348456E+00  0.1491686593542E+00  0.0000000000000E+00
-0.4527763882315E+00  0.2356973149040E+00  0.0000000000000E+00
-0.4531496108551E+00  0.3222281795461E+00  0.0000000000000E+00
-0.3932543780196E+00 -0.1231870698467E+01  0.0000000000000E+00
-0.3936073729461E+00 -0.1145186367233E+01  0.0000000000000E+00
-0.3941382293917E+00 -0.1058504245145E+01  0.0000000000000E+00
-0.3948729062967E+00 -0.9718261936258E+00  0.0000000000000E+00
-0.3958392538597E+00 -0.8851546453368E+00  0.0000000000000E+00
-0.3970635861021E+00 -0.7984929113133E+00  0.0000000000000E+00
-0.3985632199332E+00 -0.7118443069165E+00  0.0000000000000E+00
-0.4003332833000E+00 -0.6252116731933E+00  0.0000000000000E+00
-0.4023295761670E+00 -0.5385944299907E+00  0.0000000000000E+00
-0.4044578372269E+00 -0.4519871116356E+00  0.0000000000000E+00
-0.4065860981956E+00 -0.3653797932784E+00  0.0000000000000E+00
-0.4085823908010E+00 -0.2787625500701E+00  0.0000000000000E+00
-0.4103524537661E+00 -0.1921299163392E+00  0.0000000000000E+00
-0.4118520870914E+00 -0.1054813119341E+00  0.0000000000000E+00
-0.4130764187560E+00 -0.1881957790332E-01  0.0000000000000E+00
-0.4140427656940E+00  0.6785197039194E-01  0.0000000000000E+00
-0.4147774419447E+00  0.1545300219154E+00  0.0000000000000E+00
-0.4153082977189E+00  0.2412121440070E+00  0.0000000000000E+00
-0.4156612919653E+00  0.3278964752429E+00  0.0000000000000E+00
-0.3575691979619E+00 -0.1229215224608E+01  0.0000000000000E+00
-0.3578991845277E+00 -0.1142390160639E+01  0.0000000000000E+00
-0.3583908633752E+00 -0.1055567305864E+01  0.0000000000000E+00
-0.3590678335372E+00 -0.9687485217511E+00  0.0000000000000E+00
-0.3599554133833E+00 -0.8819362408292E+00  0.0000000000000E+00
-0.3610775247381E+00 -0.7951337743095E+00  0.0000000000000E+00
-0.3624499102658E+00 -0.7083444372294E+00  0.0000000000000E+00
-0.3640681408054E+00 -0.6215710709562E+00  0.0000000000000E+00
-0.3658920345241E+00 -0.5348130950523E+00  0.0000000000000E+00
-0.3678358993193E+00 -0.4480650439469E+00  0.0000000000000E+00
-0.3697797640233E+00 -0.3613169928396E+00  0.0000000000000E+00
-0.3716036574805E+00 -0.2745590169304E+00  0.0000000000000E+00
-0.3732218876184E+00 -0.1877856506502E+00  0.0000000000000E+00
-0.3745942726403E+00 -0.1009963135626E+00  0.0000000000000E+00
-0.3757163834173E+00 -0.1419384703630E-01  0.0000000000000E+00
-0.3766039626383E+00  0.7261843389131E-01  0.0000000000000E+00
-0.3772809321460E+00  0.1594372180084E+00  0.0000000000000E+00
-0.3777726103222E+00  0.2462600727866E+00  0.0000000000000E+00
-0.3781025962077E+00  0.3330851367569E+00  0.0000000000000E+00
-0.3218654826118E+00 -0.1226810785876E+01  0.0000000000000E+00
-0.3221699083761E+00 -0.1139857885184E+01  0.0000000000000E+00
-0.3226198571880E+00 -0.1052907193727E+01  0.0000000000000E+00
-0.3232365681736E+00 -0.9659605730175E+00  0.0000000000000E+00
-0.3240428278714E+00 -0.8790204554635E+00  0.0000000000000E+00
-0.3250601659129E+00 -0.7920901524360E+00  0.0000000000000E+00
-0.3263027507117E+00 -0.7051729786780E+00  0.0000000000000E+00
-0.3277665960040E+00 -0.6182717758481E+00  0.0000000000000E+00
-0.3294155381548E+00 -0.5313859632499E+00  0.0000000000000E+00
-0.3311724542660E+00 -0.4445100754058E+00  0.0000000000000E+00
-0.3329293702861E+00 -0.3576341875599E+00  0.0000000000000E+00
-0.3345783121753E+00 -0.2707483749570E+00  0.0000000000000E+00
-0.3360421570660E+00 -0.1838471721208E+00  0.0000000000000E+00
-0.3372847413589E+00 -0.9692999835613E-01  0.0000000000000E+00
-0.3383020788226E+00 -0.9999695322564E-02  0.0000000000000E+00
-0.3391083378954E+00  0.7694042223655E-01  0.0000000000000E+00
-0.3397250482267E+00  0.1638870429499E+00  0.0000000000000E+00
-0.3401749963672E+00  0.2508377344090E+00  0.0000000000000E+00
-0.3404794214513E+00  0.3377906351034E+00  0.0000000000000E+00
-0.2861450373520E+00 -0.1224657936950E+01  0.0000000000000E+00
-0.2864215844532E+00 -0.1137590244331E+01  0.0000000000000E+00
-0.2868274853715E+00 -0.1050524760987E+01  0.0000000000000E+00
-0.2873816193277E+00 -0.9634633484665E+00  0.0000000000000E+00
-0.2881042410273E+00 -0.8764084390695E+00  0.0000000000000E+00
-0.2890144879123E+00 -0.7893633443104E+00  0.0000000000000E+00
-0.2901249541400E+00 -0.7023313786683E+00  0.0000000000000E+00
-0.2914320963498E+00 -0.6153153840630E+00  0.0000000000000E+00
-0.2929037690984E+00 -0.5283147795659E+00  0.0000000000000E+00
-0.2944714186929E+00 -0.4413240997829E+00  0.0000000000000E+00
-0.2960390681962E+00 -0.3543334199984E+00  0.0000000000000E+00
-0.2975107406832E+00 -0.2673328154971E+00  0.0000000000000E+00
-0.2988178824914E+00 -0.1803168208862E+00  0.0000000000000E+00
-0.2999283482133E+00 -0.9328485523812E-01  0.0000000000000E+00
-0.3008385945204E+00 -0.6239760473675E-02  0.0000000000000E+00
-0.3015612155950E+00  0.8081514892790E-01  0.0000000000000E+00
-0.3021153488969E+00  0.1678765614522E+00  0.0000000000000E+00
-0.3025212491438E+00  0.2549420447980E+00  0.0000000000000E+00
-0.3027977955648E+00  0.3420097374179E+00  0.0000000000000E+00
-0.2504096817960E+00 -0.1222757176891E+01  0.0000000000000E+00
-0.2506562726981E+00 -0.1135587871943E+01  0.0000000000000E+00
-0.2510160481881E+00 -0.1048420776304E+01  0.0000000000000E+00
-0.2515055275823E+00 -0.9612577515542E+00  0.0000000000000E+00
-0.2521424337517E+00 -0.8741012299005E+00  0.0000000000000E+00
-0.2529435119511E+00 -0.7869545229834E+00  0.0000000000000E+00
-0.2539197820773E+00 -0.6998209450482E+00  0.0000000000000E+00
-0.2550681436771E+00 -0.6127033382460E+00  0.0000000000000E+00
-0.2563604694946E+00 -0.5256011214427E+00  0.0000000000000E+00
-0.2577367750435E+00 -0.4385088293183E+00  0.0000000000000E+00
-0.2591130805012E+00 -0.3514165371924E+00  0.0000000000000E+00
-0.2604054060573E+00 -0.2643143203854E+00  0.0000000000000E+00
-0.2615537672554E+00 -0.1771967135784E+00  0.0000000000000E+00
-0.2625300368757E+00 -0.9006313563793E-01  0.0000000000000E+00
-0.2633311144972E+00 -0.2916428716145E-02  0.0000000000000E+00
-0.2639680200416E+00  0.8424009294153E-01  0.0000000000000E+00
-0.2644574987815E+00  0.1714031176939E+00  0.0000000000000E+00
-0.2648172736002E+00  0.2585702133351E+00  0.0000000000000E+00
-0.2650638638220E+00  0.3457395182847E+00  0.0000000000000E+00
-0.2146612485249E+00 -0.1221108948317E+01  0.0000000000000E+00
-0.2148760519034E+00 -0.1133851330987E+01  0.0000000000000E+00
-0.2151878706402E+00 -0.1046595922996E+01  0.0000000000000E+00
-0.2156108641473E+00 -0.9593445859525E+00  0.0000000000000E+00
-0.2161602234591E+00 -0.8720997519805E+00  0.0000000000000E+00
-0.2168503016456E+00 -0.7848647328308E+00  0.0000000000000E+00
-0.2176905443385E+00 -0.6976428425456E+00  0.0000000000000E+00
-0.2186782939965E+00 -0.6104369234771E+00  0.0000000000000E+00
-0.2197894415477E+00 -0.5232463943124E+00  0.0000000000000E+00
-0.2209725717140E+00 -0.4360657897959E+00  0.0000000000000E+00
-0.2221557017892E+00 -0.3488851852782E+00  0.0000000000000E+00
-0.2232668490789E+00 -0.2616946561104E+00  0.0000000000000E+00
-0.2242545983352E+00 -0.1744887370377E+00  0.0000000000000E+00
-0.2250948405222E+00 -0.8726684674795E-01  0.0000000000000E+00
-0.2257849181308E+00 -0.3182759427317E-04  0.0000000000000E+00
-0.2263342768177E+00  0.8721300638113E-01  0.0000000000000E+00
-0.2267572696704E+00  0.1744643434270E+00  0.0000000000000E+00
-0.2270690877358E+00  0.2617197514199E+00  0.0000000000000E+00
-0.2272838904341E+00  0.3489773687512E+00  0.0000000000000E+00
-0.1789015764263E+00 -0.1219713636439E+01  0.0000000000000E+00
-0.1790830136144E+00 -0.1132381112142E+01  0.0000000000000E+00
-0.1793452969311E+00 -0.1045050797208E+01  0.0000000000000E+00
-0.1797002258847E+00 -0.9577245532724E+00  0.0000000000000E+00
-0.1801604596716E+00 -0.8704048123869E+00  0.0000000000000E+00
-0.1807379591784E+00 -0.7830948863965E+00  0.0000000000000E+00
-0.1814405957685E+00 -0.6957980891710E+00  0.0000000000000E+00
-0.1822661548159E+00 -0.6085172632330E+00  0.0000000000000E+00
-0.1831945454296E+00 -0.5212518271183E+00  0.0000000000000E+00
-0.1841829215412E+00 -0.4339963156258E+00  0.0000000000000E+00
-0.1851712975617E+00 -0.3467408041322E+00  0.0000000000000E+00
-0.1860996879139E+00 -0.2594753680149E+00  0.0000000000000E+00
-0.1869252465596E+00 -0.1721945420735E+00  0.0000000000000E+00
-0.1876278826438E+00 -0.8489774484416E-01  0.0000000000000E+00
-0.1882053815728E+00  0.2412181149585E-02  0.0000000000000E+00
-0.1886656147347E+00  0.8973192203785E-01  0.0000000000000E+00
-0.1890205430340E+00  0.1770581659759E+00  0.0000000000000E+00
-0.1892828256793E+00  0.2643884809106E+00  0.0000000000000E+00
-0.1894642621872E+00  0.3517210052090E+00  0.0000000000000E+00
-0.1431325314919E+00 -0.1218571569045E+01  0.0000000000000E+00
-0.1432792793728E+00 -0.1131177633129E+01  0.0000000000000E+00
-0.1434907041544E+00 -0.1043785906598E+01  0.0000000000000E+00
-0.1437762454418E+00 -0.9563982511045E+00  0.0000000000000E+00
-0.1441460305922E+00 -0.8690170986448E+00  0.0000000000000E+00
-0.1446096283113E+00 -0.7816457611397E+00  0.0000000000000E+00
-0.1451733356905E+00 -0.6942875523177E+00  0.0000000000000E+00
-0.1458353810224E+00 -0.6069453148415E+00  0.0000000000000E+00
-0.1465796915941E+00 -0.5196184671224E+00  0.0000000000000E+00
-0.1473719905470E+00 -0.4323015440042E+00  0.0000000000000E+00
-0.1481642894086E+00 -0.3449846208852E+00  0.0000000000000E+00
-0.1489085997188E+00 -0.2576577731640E+00  0.0000000000000E+00
-0.1495706446490E+00 -0.1703155356850E+00  0.0000000000000E+00
-0.1501343515224E+00 -0.8295732686004E-01  0.0000000000000E+00
-0.1505979486635E+00  0.4414010647753E-02  0.0000000000000E+00
-0.1509677331890E+00  0.9179516310974E-01  0.0000000000000E+00
-0.1512532738221E+00  0.1791828186046E+00  0.0000000000000E+00
-0.1514646979322E+00  0.2665745451367E+00  0.0000000000000E+00
-0.1516114451329E+00  0.3539684810533E+00  0.0000000000000E+00
-0.1073559775584E+00 -0.1217683014787E+01  0.0000000000000E+00
-0.1074669729805E+00 -0.1130241236752E+01  0.0000000000000E+00
-0.1076264760765E+00 -0.1042801668119E+01  0.0000000000000E+00
-0.1078415665488E+00 -0.9553661705542E+00  0.0000000000000E+00
-0.1081198399148E+00 -0.8679371760100E+00  0.0000000000000E+00
-0.1084684727000E+00 -0.7805179964667E+00  0.0000000000000E+00
-0.1088921877222E+00 -0.6931119455429E+00  0.0000000000000E+00
-0.1093896561947E+00 -0.6057218660102E+00  0.0000000000000E+00
-0.1099488235801E+00 -0.5183471761831E+00  0.0000000000000E+00
-0.1105439822303E+00 -0.4309824109404E+00  0.0000000000000E+00
-0.1111391407892E+00 -0.3436176456970E+00  0.0000000000000E+00
-0.1116983079131E+00 -0.2562429558684E+00  0.0000000000000E+00
-0.1121957759839E+00 -0.1688528763335E+00  0.0000000000000E+00
-0.1126194905003E+00 -0.8144682540749E-01  0.0000000000000E+00
-0.1129681227076E+00  0.5972354137743E-02  0.0000000000000E+00
-0.1132463954486E+00  0.9340134868365E-01  0.0000000000000E+00
-0.1134614852666E+00  0.1808368462493E+00  0.0000000000000E+00
-0.1136209876912E+00  0.2682764148838E+00  0.0000000000000E+00
-0.1137319824330E+00  0.3557181929189E+00  0.0000000000000E+00
-0.7157378539324E-01 -0.1217048183171E+01  0.0000000000000E+00
-0.7164822826765E-01 -0.1129572190533E+01  0.0000000000000E+00
-0.7175500958976E-01 -0.1042098407307E+01  0.0000000000000E+00
-0.7189884915972E-01 -0.9546286951723E+00  0.0000000000000E+00
-0.7208481065407E-01 -0.8671654860487E+00  0.0000000000000E+00
-0.7231767841974E-01 -0.7797120919591E+00  0.0000000000000E+00
-0.7260060099874E-01 -0.6922718264434E+00  0.0000000000000E+00
-0.7293269252678E-01 -0.6048475323512E+00  0.0000000000000E+00
-0.7330591664062E-01 -0.5174386279278E+00  0.0000000000000E+00
-0.7370313490275E-01 -0.4300396480768E+00  0.0000000000000E+00
-0.7410035307365E-01 -0.3426406682255E+00  0.0000000000000E+00
-0.7447357692595E-01 -0.2552317638011E+00  0.0000000000000E+00
-0.7480566805232E-01 -0.1678074697074E+00  0.0000000000000E+00
-0.7508859012547E-01 -0.8036720419022E-01  0.0000000000000E+00
-0.7532145731324E-01  0.7086189900652E-02  0.0000000000000E+00
-0.7550741818259E-01  0.9454939902542E-01  0.0000000000000E+00
-0.7565125709823E-01  0.1820191111605E+00  0.0000000000000E+00
-0.7575803774893E-01  0.2694928943870E+00  0.0000000000000E+00
-0.7583247994311E-01  0.3569688870258E+00  0.0000000000000E+00
-0.3578783098112E-01 -0.1216667224146E+01  0.0000000000000E+00
-0.3582518662058E-01 -0.1129170686043E+01  0.0000000000000E+00
-0.3587871148179E-01 -0.1041676357359E+01  0.0000000000000E+00
-0.3595076546273E-01 -0.9541860997805E+00  0.0000000000000E+00
-0.3604388039874E-01 -0.8667023452065E+00  0.0000000000000E+00
-0.3616044845866E-01 -0.7792284056865E+00  0.0000000000000E+00
-0.3630204390757E-01 -0.6917675947129E+00  0.0000000000000E+00
-0.3646822380494E-01 -0.6043227551822E+00  0.0000000000000E+00
-0.3665496996040E-01 -0.5168933052982E+00  0.0000000000000E+00
-0.3685371314750E-01 -0.4294737799797E+00  0.0000000000000E+00
-0.3705245624338E-01 -0.3420542546609E+00  0.0000000000000E+00
-0.3723920213730E-01 -0.2546248047764E+00  0.0000000000000E+00
-0.3740538163300E-01 -0.1671799652449E+00  0.0000000000000E+00
-0.3754697657605E-01 -0.7971915427061E-01  0.0000000000000E+00
-0.3766354405808E-01  0.7754785250058E-02  0.0000000000000E+00
-0.3775665836908E-01  0.9523853982455E-01  0.0000000000000E+00
-0.3782871169569E-01  0.1827287974037E+00  0.0000000000000E+00
-0.3788223588549E-01  0.2702231260879E+00  0.0000000000000E+00
-0.3791959084473E-01  0.3577196641912E+00  0.0000000000000E+00
 0.6209850736676E-08 -0.1216540227813E+01  0.0000000000000E+00
 0.5524735811083E-08 -0.1129036838433E+01  0.0000000000000E+00
 0.4843998396465E-08 -0.1041535658474E+01  0.0000000000000E+00
 0.4171790525972E-08 -0.9540385496249E+00  0.0000000000000E+00
 0.3514266425853E-08 -0.8665479437785E+00  0.0000000000000E+00
 0.2880364529407E-08 -0.7790671529925E+00  0.0000000000000E+00
 0.2282599226633E-08 -0.6915994907437E+00  0.0000000000000E+00
 0.1737109434959E-08 -0.6041477999442E+00  0.0000000000000E+00
 0.1261877266097E-08 -0.5167114987841E+00  0.0000000000000E+00
 0.8719449662753E-09 -0.4292851221871E+00  0.0000000000000E+00
 0.5732300334473E-09 -0.3418587455901E+00  0.0000000000000E+00
 0.3595447320818E-09 -0.2544224444300E+00  0.0000000000000E+00
 0.2157243325992E-09 -0.1669707536305E+00  0.0000000000000E+00
 0.1238229916565E-09 -0.7950309138169E-01  0.0000000000000E+00
 0.6781348193177E-10  0.7977699404264E-02  0.0000000000000E+00
 0.3529812102035E-10  0.9546830525066E-01  0.0000000000000E+00
 0.1742641910935E-10  0.1829654140998E+00  0.0000000000000E+00
 0.8104205705961E-11  0.2704665940585E+00  0.0000000000000E+00
 0.3215440234396E-11  0.3579699834387E+00  0.0000000000000E+00
 0.3578784340053E-01 -0.1216667224235E+01  0.0000000000000E+00
 0.3582519766977E-01 -0.1129170686128E+01  0.0000000000000E+00
 0.3587872116953E-01 -0.1041676357439E+01  0.0000000000000E+00
 0.3595077380607E-01 -0.9541860998557E+00  0.0000000000000E+00
 0.3604388742704E-01 -0.8667023452767E+00  0.0000000000000E+00
 0.3616045421917E-01 -0.7792284057513E+00  0.0000000000000E+00
 0.3630204847257E-01 -0.6917675947721E+00  0.0000000000000E+00
 0.3646822727897E-01 -0.6043227552356E+00  0.0000000000000E+00
 0.3665497248399E-01 -0.5168933053458E+00  0.0000000000000E+00
 0.3685371489124E-01 -0.4294737800217E+00  0.0000000000000E+00
 0.3705245738970E-01 -0.3420542546977E+00  0.0000000000000E+00
 0.3723920285627E-01 -0.2546248048085E+00  0.0000000000000E+00
 0.3740538206434E-01 -0.1671799652727E+00  0.0000000000000E+00
 0.3754697682360E-01 -0.7971915429417E-01  0.0000000000000E+00
 0.3766354419363E-01  0.7754785230528E-02  0.0000000000000E+00
 0.3775665843962E-01  0.9523853980896E-01  0.0000000000000E+00
 0.3782871173050E-01  0.1827287973920E+00  0.0000000000000E+00
 0.3788223590167E-01  0.2702231260801E+00  0.0000000000000E+00
 0.3791959085114E-01  0.3577196641874E+00  0.0000000000000E+00
 0.7157379781176E-01 -0.1217048183348E+01  0.0000000000000E+00
 0.7164823931600E-01 -0.1129572190701E+01  0.0000000000000E+00
 0.7175501927670E-01 -0.1042098407466E+01  0.0000000000000E+00
 0.7189885750231E-01 -0.9546286953227E+00  0.0000000000000E+00
 0.7208481768167E-01 -0.8671654861889E+00  0.0000000000000E+00
 0.7231768417959E-01 -0.7797120920887E+00  0.0000000000000E+00
 0.7260060556313E-01 -0.6922718265617E+00  0.0000000000000E+00
 0.7293269600025E-01 -0.6048475324578E+00  0.0000000000000E+00
 0.7330591916369E-01 -0.5174386280229E+00  0.0000000000000E+00
 0.7370313664601E-01 -0.4300396481608E+00  0.0000000000000E+00
 0.7410035421955E-01 -0.3426406682992E+00  0.0000000000000E+00
 0.7447357764454E-01 -0.2552317638653E+00  0.0000000000000E+00
 0.7480566848334E-01 -0.1678074697628E+00  0.0000000000000E+00
 0.7508859037274E-01 -0.8036720423734E-01  0.0000000000000E+00
 0.7532145744856E-01  0.7086189861597E-02  0.0000000000000E+00
 0.7550741825294E-01  0.9454939899424E-01  0.0000000000000E+00
 0.7565125713289E-01  0.1820191111371E+00  0.0000000000000E+00
 0.7575803776501E-01  0.2694928943715E+00  0.0000000000000E+00
 0.7583247994948E-01  0.3569688870181E+00  0.0000000000000E+00
 0.1073559899754E+00 -0.1217683015053E+01  0.0000000000000E+00
 0.1074669840274E+00 -0.1130241237005E+01  0.0000000000000E+00
 0.1076264857621E+00 -0.1042801668358E+01  0.0000000000000E+00
 0.1078415748901E+00 -0.9553661707798E+00  0.0000000000000E+00
 0.1081198469412E+00 -0.8679371762203E+00  0.0000000000000E+00
 0.1084684784588E+00 -0.7805179966610E+00  0.0000000000000E+00
 0.1088921922856E+00 -0.6931119457203E+00  0.0000000000000E+00
 0.1093896596672E+00 -0.6057218661702E+00  0.0000000000000E+00
 0.1099488261023E+00 -0.5183471763258E+00  0.0000000000000E+00
 0.1105439839728E+00 -0.4309824110663E+00  0.0000000000000E+00
 0.1111391419344E+00 -0.3436176458075E+00  0.0000000000000E+00
 0.1116983086311E+00 -0.2562429559646E+00  0.0000000000000E+00
 0.1121957764143E+00 -0.1688528764166E+00  0.0000000000000E+00
 0.1126194907471E+00 -0.8144682547815E-01  0.0000000000000E+00
 0.1129681228425E+00  0.5972354079172E-02  0.0000000000000E+00
 0.1132463955186E+00  0.9340134863688E-01  0.0000000000000E+00
 0.1134614853010E+00  0.1808368462143E+00  0.0000000000000E+00
 0.1136209877071E+00  0.2682764148604E+00  0.0000000000000E+00
 0.1137319824393E+00  0.3557181929073E+00  0.0000000000000E+00
 0.1431325439069E+00 -0.1218571569399E+01  0.0000000000000E+00
 0.1432792904178E+00 -0.1131177633466E+01  0.0000000000000E+00
 0.1434907138381E+00 -0.1043785906917E+01  0.0000000000000E+00
 0.1437762537814E+00 -0.9563982514053E+00  0.0000000000000E+00
 0.1441460376170E+00 -0.8690170989253E+00  0.0000000000000E+00
 0.1446096340685E+00 -0.7816457613987E+00  0.0000000000000E+00
 0.1451733402525E+00 -0.6942875525541E+00  0.0000000000000E+00
 0.1458353844936E+00 -0.6069453150547E+00  0.0000000000000E+00
 0.1465796941151E+00 -0.5196184673125E+00  0.0000000000000E+00
 0.1473719922884E+00 -0.4323015441721E+00  0.0000000000000E+00
 0.1481642905529E+00 -0.3449846210325E+00  0.0000000000000E+00
 0.1489086004358E+00 -0.2576577732924E+00  0.0000000000000E+00
 0.1495706450787E+00 -0.1703155357958E+00  0.0000000000000E+00
 0.1501343517685E+00 -0.8295732695422E-01  0.0000000000000E+00
 0.1505979487979E+00  0.4414010569677E-02  0.0000000000000E+00
 0.1509677332586E+00  0.9179516304740E-01  0.0000000000000E+00
 0.1512532738562E+00  0.1791828185579E+00  0.0000000000000E+00
 0.1514646979479E+00  0.2665745451056E+00  0.0000000000000E+00
 0.1516114451391E+00  0.3539684810378E+00  0.0000000000000E+00
 0.1789015888386E+00 -0.1219713636882E+01  0.0000000000000E+00
 0.1790830246568E+00 -0.1132381112564E+01  0.0000000000000E+00
 0.1793453066125E+00 -0.1045050797608E+01  0.0000000000000E+00
 0.1797002342220E+00 -0.9577245536482E+00  0.0000000000000E+00
 0.1801604666943E+00 -0.8704048127374E+00  0.0000000000000E+00
 0.1807379649337E+00 -0.7830948867202E+00  0.0000000000000E+00
 0.1814406003287E+00 -0.6957980894664E+00  0.0000000000000E+00
 0.1822661582854E+00 -0.6085172634995E+00  0.0000000000000E+00
 0.1831945479491E+00 -0.5212518273559E+00  0.0000000000000E+00
 0.1841829232813E+00 -0.4339963158356E+00  0.0000000000000E+00
 0.1851712987046E+00 -0.3467408043163E+00  0.0000000000000E+00
 0.1860996886299E+00 -0.2594753681753E+00  0.0000000000000E+00
 0.1869252469883E+00 -0.1721945422119E+00  0.0000000000000E+00
 0.1876278828891E+00 -0.8489774496185E-01  0.0000000000000E+00
 0.1882053817065E+00  0.2412181052021E-02  0.0000000000000E+00
 0.1886656148037E+00  0.8973192195995E-01  0.0000000000000E+00
 0.1890205430676E+00  0.1770581659176E+00  0.0000000000000E+00
 0.1892828256947E+00  0.2643884808718E+00  0.0000000000000E+00
 0.1894642621932E+00  0.3517210051896E+00  0.0000000000000E+00
 0.2146612609340E+00 -0.1221108948849E+01  0.0000000000000E+00
 0.2148760629428E+00 -0.1133851331493E+01  0.0000000000000E+00
 0.2151878803187E+00 -0.1046595923475E+01  0.0000000000000E+00
 0.2156108724819E+00 -0.9593445864034E+00  0.0000000000000E+00
 0.2161602304793E+00 -0.8720997524010E+00  0.0000000000000E+00
 0.2168503073985E+00 -0.7848647332192E+00  0.0000000000000E+00
 0.2176905488964E+00 -0.6976428429001E+00  0.0000000000000E+00
 0.2186782974640E+00 -0.6104369237968E+00  0.0000000000000E+00
 0.2197894440653E+00 -0.5232463945975E+00  0.0000000000000E+00
 0.2209725734523E+00 -0.4360657900476E+00  0.0000000000000E+00
 0.2221557029306E+00 -0.3488851854990E+00  0.0000000000000E+00
 0.2232668497935E+00 -0.2616946563028E+00  0.0000000000000E+00
 0.2242545987627E+00 -0.1744887372037E+00  0.0000000000000E+00
 0.2250948407665E+00 -0.8726684688914E-01  0.0000000000000E+00
 0.2257849182636E+00 -0.3182771130406E-04  0.0000000000000E+00
 0.2263342768860E+00  0.8721300628769E-01  0.0000000000000E+00
 0.2267572697036E+00  0.1744643433570E+00  0.0000000000000E+00
 0.2270690877509E+00  0.2617197513733E+00  0.0000000000000E+00
 0.2272838904400E+00  0.3489773687279E+00  0.0000000000000E+00
 0.2504096942013E+00 -0.1222757177511E+01  0.0000000000000E+00
 0.2506562837339E+00 -0.1135587872533E+01  0.0000000000000E+00
 0.2510160578632E+00 -0.1048420776863E+01  0.0000000000000E+00
 0.2515055359137E+00 -0.9612577520800E+00  0.0000000000000E+00
 0.2521424407689E+00 -0.8741012303908E+00  0.0000000000000E+00
 0.2529435177012E+00 -0.7869545234362E+00  0.0000000000000E+00
 0.2539197866326E+00 -0.6998209454615E+00  0.0000000000000E+00
 0.2550681471422E+00 -0.6127033386189E+00  0.0000000000000E+00
 0.2563604720100E+00 -0.5256011217751E+00  0.0000000000000E+00
 0.2577367767798E+00 -0.4385088296118E+00  0.0000000000000E+00
 0.2591130816408E+00 -0.3514165374499E+00  0.0000000000000E+00
 0.2604054067703E+00 -0.2643143206098E+00  0.0000000000000E+00
 0.2615537676815E+00 -0.1771967137720E+00  0.0000000000000E+00
 0.2625300371188E+00 -0.9006313580257E-01  0.0000000000000E+00
 0.2633311146290E+00 -0.2916428852618E-02  0.0000000000000E+00
 0.2639680201092E+00  0.8424009283257E-01  0.0000000000000E+00
 0.2644574988141E+00  0.1714031176123E+00  0.0000000000000E+00
 0.2648172736148E+00  0.2585702132807E+00  0.0000000000000E+00
 0.2650638638277E+00  0.3457395182575E+00  0.0000000000000E+00
 0.2861450497528E+00 -0.1224657937658E+01  0.0000000000000E+00
 0.2864215954848E+00 -0.1137590245005E+01  0.0000000000000E+00
 0.2868274950427E+00 -0.1050524761626E+01  0.0000000000000E+00
 0.2873816276554E+00 -0.9634633490672E+00  0.0000000000000E+00
 0.2881042480409E+00 -0.8764084396296E+00  0.0000000000000E+00
 0.2890144936591E+00 -0.7893633448277E+00  0.0000000000000E+00
 0.2901249586923E+00 -0.7023313791405E+00  0.0000000000000E+00
 0.2914320998121E+00 -0.6153153844889E+00  0.0000000000000E+00
 0.2929037716112E+00 -0.5283147799456E+00  0.0000000000000E+00
 0.2944714204269E+00 -0.4413241001183E+00  0.0000000000000E+00
 0.2960390693338E+00 -0.3543334202925E+00  0.0000000000000E+00
 0.2975107413944E+00 -0.2673328157534E+00  0.0000000000000E+00
 0.2988178829159E+00 -0.1803168211074E+00  0.0000000000000E+00
 0.2999283484550E+00 -0.9328485542617E-01  0.0000000000000E+00
 0.3008385946511E+00 -0.6239760629561E-02  0.0000000000000E+00
 0.3015612156617E+00  0.8081514880343E-01  0.0000000000000E+00
 0.3021153489287E+00  0.1678765613589E+00  0.0000000000000E+00
 0.3025212491580E+00  0.2549420447359E+00  0.0000000000000E+00
 0.3027977955703E+00  0.3420097373869E+00  0.0000000000000E+00
 0.3218654950076E+00 -0.1226810786673E+01  0.0000000000000E+00
 0.3221699194030E+00 -0.1139857885942E+01  0.0000000000000E+00
 0.3226198668546E+00 -0.1052907194445E+01  0.0000000000000E+00
 0.3232365764971E+00 -0.9659605736929E+00  0.0000000000000E+00
 0.3240428348810E+00 -0.8790204560934E+00  0.0000000000000E+00
 0.3250601716561E+00 -0.7920901530176E+00  0.0000000000000E+00
 0.3263027552606E+00 -0.7051729792090E+00  0.0000000000000E+00
 0.3277665994632E+00 -0.6182717763270E+00  0.0000000000000E+00
 0.3294155406647E+00 -0.5313859636768E+00  0.0000000000000E+00
 0.3311724559974E+00 -0.4445100757828E+00  0.0000000000000E+00
 0.3329293714212E+00 -0.3576341878906E+00  0.0000000000000E+00
 0.3345783128843E+00 -0.2707483752451E+00  0.0000000000000E+00
 0.3360421574886E+00 -0.1838471723695E+00  0.0000000000000E+00
 0.3372847415990E+00 -0.9692999856756E-01  0.0000000000000E+00
 0.3383020789519E+00 -0.9999695497830E-02  0.0000000000000E+00
 0.3391083379610E+00  0.7694042209661E-01  0.0000000000000E+00
 0.3397250482577E+00  0.1638870428451E+00  0.0000000000000E+00
 0.3401749963809E+00  0.2508377343392E+00  0.0000000000000E+00
 0.3404794214564E+00  0.3377906350684E+00  0.0000000000000E+00
 0.3575692103522E+00 -0.1229215225492E+01  0.0000000000000E+00
 0.3578991955492E+00 -0.1142390161481E+01  0.0000000000000E+00
 0.3583908730369E+00 -0.1055567306661E+01  0.0000000000000E+00
 0.3590678418560E+00 -0.9687485225011E+00  0.0000000000000E+00
 0.3599554203886E+00 -0.8819362415286E+00  0.0000000000000E+00
 0.3610775304771E+00 -0.7951337749554E+00  0.0000000000000E+00
 0.3624499148109E+00 -0.7083444378190E+00  0.0000000000000E+00
 0.3640681442610E+00 -0.6215710714880E+00  0.0000000000000E+00
 0.3658920370309E+00 -0.5348130955263E+00  0.0000000000000E+00
 0.3678359010477E+00 -0.4480650443656E+00  0.0000000000000E+00
 0.3697797651558E+00 -0.3613169932067E+00  0.0000000000000E+00
 0.3716036581872E+00 -0.2745590172503E+00  0.0000000000000E+00
 0.3732218880390E+00 -0.1877856509263E+00  0.0000000000000E+00
 0.3745942728787E+00 -0.1009963137974E+00  0.0000000000000E+00
 0.3757163835452E+00 -0.1419384723091E-01  0.0000000000000E+00
 0.3766039627027E+00  0.7261843373593E-01  0.0000000000000E+00
 0.3772809321762E+00  0.1594372178920E+00  0.0000000000000E+00
 0.3777726103353E+00  0.2462600727091E+00  0.0000000000000E+00
 0.3781025962126E+00  0.3330851367181E+00  0.0000000000000E+00
 0.3932543904037E+00 -0.1231870699439E+01  0.0000000000000E+00
 0.3936073839619E+00 -0.1145186368159E+01  0.0000000000000E+00
 0.3941382390479E+00 -0.1058504246021E+01  0.0000000000000E+00
 0.3948729146103E+00 -0.9718261944503E+00  0.0000000000000E+00
 0.3958392608602E+00 -0.8851546461056E+00  0.0000000000000E+00
 0.3970635918366E+00 -0.7984929120234E+00  0.0000000000000E+00
 0.3985632244741E+00 -0.7118443075646E+00  0.0000000000000E+00
 0.4003332867518E+00 -0.6252116737778E+00  0.0000000000000E+00
 0.4023295786701E+00 -0.5385944305118E+00  0.0000000000000E+00
 0.4044578389521E+00 -0.4519871120958E+00  0.0000000000000E+00
 0.4065860993252E+00 -0.3653797936820E+00  0.0000000000000E+00
 0.4085823915051E+00 -0.2787625504218E+00  0.0000000000000E+00
 0.4103524541845E+00 -0.1921299166427E+00  0.0000000000000E+00
 0.4118520873278E+00 -0.1054813121922E+00  0.0000000000000E+00
 0.4130764188822E+00 -0.1881957811723E-01  0.0000000000000E+00
 0.4140427657571E+00  0.6785197022115E-01  0.0000000000000E+00
 0.4147774419739E+00  0.1545300217875E+00  0.0000000000000E+00
 0.4153082977314E+00  0.2412121439217E+00  0.0000000000000E+00
 0.4156612919698E+00  0.3278964752003E+00  0.0000000000000E+00
 0.4289192336032E+00 -0.1234776598240E+01  0.0000000000000E+00
 0.4292924555389E+00 -0.1148245733549E+01  0.0000000000000E+00
 0.4298597082370E+00 -0.1061717077950E+01  0.0000000000000E+00
 0.4306493105539E+00 -0.9751924928149E+00  0.0000000000000E+00
 0.4316916445264E+00 -0.8886744109484E+00  0.0000000000000E+00
 0.4330154163933E+00 -0.8021661431949E+00  0.0000000000000E+00
 0.4346395173275E+00 -0.7156710052686E+00  0.0000000000000E+00
 0.4365586324225E+00 -0.6291918378687E+00  0.0000000000000E+00
 0.4387245434713E+00 -0.5427280611548E+00  0.0000000000000E+00
 0.4410344199965E+00 -0.4562742093445E+00  0.0000000000000E+00
 0.4433442966129E+00 -0.3698203575366E+00  0.0000000000000E+00
 0.4455102079233E+00 -0.2833565808289E+00  0.0000000000000E+00
 0.4474293234200E+00 -0.1968774134374E+00  0.0000000000000E+00
 0.4490534248601E+00 -0.1103822755201E+00  0.0000000000000E+00
 0.4503771973049E+00 -0.2387400777464E-01  0.0000000000000E+00
 0.4514195319025E+00  0.6264407408500E-01  0.0000000000000E+00
 0.4522091348738E+00  0.1491686592148E+00  0.0000000000000E+00
 0.4527763882432E+00  0.2356973148111E+00  0.0000000000000E+00
 0.4531496108593E+00  0.3222281794997E+00  0.0000000000000E+00
 0.4645619687765E+00 -0.1237932259164E+01  0.0000000000000E+00
 0.4649524210827E+00 -0.1151567420505E+01  0.0000000000000E+00
 0.4655530733909E+00 -0.1065204790881E+01  0.0000000000000E+00
 0.4663946044674E+00 -0.9788462316122E+00  0.0000000000000E+00
 0.4675099281727E+00 -0.8924941756571E+00  0.0000000000000E+00
 0.4689301429494E+00 -0.8061519336535E+00  0.0000000000000E+00
 0.4706757142023E+00 -0.7198228216974E+00  0.0000000000000E+00
 0.4727408841464E+00 -0.6335096801102E+00  0.0000000000000E+00
 0.4750734163596E+00 -0.5472119293876E+00  0.0000000000000E+00
 0.4775619111642E+00 -0.4609241036267E+00  0.0000000000000E+00
 0.4800504060600E+00 -0.3746362778683E+00  0.0000000000000E+00
 0.4823829385348E+00 -0.2883385271526E+00  0.0000000000000E+00
 0.4844481088806E+00 -0.2020253855745E+00  0.0000000000000E+00
 0.4861936806394E+00 -0.1156962736281E+00  0.0000000000000E+00
 0.4876138959940E+00 -0.2935403163311E-01  0.0000000000000E+00
 0.4887292203243E+00  0.5699802431457E-01  0.0000000000000E+00
 0.4895707520552E+00  0.1433565835781E+00  0.0000000000000E+00
 0.4901714050349E+00  0.2297192131983E+00  0.0000000000000E+00
 0.4905618580214E+00  0.3160840518546E+00  0.0000000000000E+00
 0.5001808504803E+00 -0.1241336967453E+01  0.0000000000000E+00
 0.5005853201167E+00 -0.1155150527090E+01  0.0000000000000E+00
 0.5012161589915E+00 -0.1068966295702E+01  0.0000000000000E+00
 0.5021064057811E+00 -0.9827861345503E+00  0.0000000000000E+00
 0.5032915061658E+00 -0.8966124767617E+00  0.0000000000000E+00
 0.5048049507956E+00 -0.8104486327508E+00  0.0000000000000E+00
 0.5066687792994E+00 -0.7242979190243E+00  0.0000000000000E+00
 0.5088767910208E+00 -0.6381631754975E+00  0.0000000000000E+00
 0.5113727313176E+00 -0.5520438230273E+00  0.0000000000000E+00
 0.5140366313163E+00 -0.4659343955811E+00  0.0000000000000E+00
 0.5167005314062E+00 -0.3798249681376E+00  0.0000000000000E+00
 0.5191964719646E+00 -0.2937056156747E+00  0.0000000000000E+00
 0.5214044840877E+00 -0.2075708721577E+00  0.0000000000000E+00
 0.5232683130974E+00 -0.1214201584418E+00  0.0000000000000E+00
 0.5247817583051E+00 -0.3525631444021E-01  0.0000000000000E+00
 0.5259668593148E+00  0.5091734334048E-01  0.0000000000000E+00
 0.5268571067588E+00  0.1370975044860E+00  0.0000000000000E+00
 0.5274879463051E+00  0.2232817358704E+00  0.0000000000000E+00
 0.5278924166218E+00  0.3094681762305E+00  0.0000000000000E+00
 0.5357741492561E+00 -0.1244989957511E+01  0.0000000000000E+00
 0.5361892220105E+00 -0.1158994090209E+01  0.0000000000000E+00
 0.5368468332483E+00 -0.1073000431817E+01  0.0000000000000E+00
 0.5377823815580E+00 -0.9870108435357E+00  0.0000000000000E+00
 0.5390338444379E+00 -0.9010277586693E+00  0.0000000000000E+00
 0.5406371047507E+00 -0.8150544873953E+00  0.0000000000000E+00
 0.5426157763422E+00 -0.7290943466587E+00  0.0000000000000E+00
 0.5449632156924E+00 -0.6431501759410E+00  0.0000000000000E+00
 0.5476191499298E+00 -0.5572213964849E+00  0.0000000000000E+00
 0.5504550409842E+00 -0.4713025421194E+00  0.0000000000000E+00
 0.5532909321297E+00 -0.3853836877569E+00  0.0000000000000E+00
 0.5559468666287E+00 -0.2994549083086E+00  0.0000000000000E+00
 0.5582943063805E+00 -0.2135107376014E+00  0.0000000000000E+00
 0.5602729784780E+00 -0.1275505968760E+00  0.0000000000000E+00
 0.5618762393687E+00 -0.4157732561200E-01  0.0000000000000E+00
 0.5631277028737E+00  0.4440575924581E-01  0.0000000000000E+00
 0.5640632518377E+00  0.1303953475209E+00  0.0000000000000E+00
 0.5647208637470E+00  0.2163890059088E+00  0.0000000000000E+00
 0.5651359371817E+00  0.3023848732079E+00  0.0000000000000E+00
 0.5713401499894E+00 -0.1248890412545E+01  0.0000000000000E+00
 0.5717622119691E+00 -0.1163097083611E+01  0.0000000000000E+00
 0.5724429816650E+00 -0.1077305963517E+01  0.0000000000000E+00
 0.5734202175769E+00 -0.9915189134002E+00  0.0000000000000E+00
 0.5747344290158E+00 -0.9057383667540E+00  0.0000000000000E+00
 0.5764238910593E+00 -0.8199676335031E+00  0.0000000000000E+00
 0.5785137917608E+00 -0.7342100310583E+00  0.0000000000000E+00
 0.5809970447448E+00 -0.6484683984404E+00  0.0000000000000E+00
 0.5838093589073E+00 -0.5627421573021E+00  0.0000000000000E+00
 0.5868136269902E+00 -0.4770258413251E+00  0.0000000000000E+00
 0.5898178951644E+00 -0.3913095253513E+00  0.0000000000000E+00
 0.5926302095884E+00 -0.3055832842213E+00  0.0000000000000E+00
 0.5951134629742E+00 -0.2198416516146E+00  0.0000000000000E+00
 0.5972033641815E+00 -0.1340840491819E+00  0.0000000000000E+00
 0.5988928268029E+00 -0.4831331594156E-01  0.0000000000000E+00
 0.6002070388669E+00  0.3746723069555E-01  0.0000000000000E+00
 0.6011842754332E+00  0.1232542808057E+00  0.0000000000000E+00
 0.6018650458005E+00  0.2090454008946E+00  0.0000000000000E+00
 0.6022871084605E+00  0.2948387298263E+00  0.0000000000000E+00
 0.6068771371579E+00 -0.1253037465844E+01  0.0000000000000E+00
 0.6073023971197E+00 -0.1167458424002E+01  0.0000000000000E+00
 0.6080025340419E+00 -0.1081881590927E+01  0.0000000000000E+00
 0.6090176663387E+00 -0.9963088276876E+00  0.0000000000000E+00
 0.6103908351315E+00 -0.9107425679775E+00  0.0000000000000E+00
 0.6121627077193E+00 -0.8251861214541E+00  0.0000000000000E+00
 0.6143600463551E+00 -0.7396428060213E+00  0.0000000000000E+00
 0.6169753218167E+00 -0.6541154602123E+00  0.0000000000000E+00
 0.6199402247568E+00 -0.5686035061133E+00  0.0000000000000E+00
 0.6231090787274E+00 -0.4831014772506E+00  0.0000000000000E+00
 0.6262779327892E+00 -0.3975994483912E+00  0.0000000000000E+00
 0.6292428359909E+00 -0.3120874943012E+00  0.0000000000000E+00
 0.6318581118542E+00 -0.2265601485040E+00  0.0000000000000E+00
 0.6340554509959E+00 -0.1410168330840E+00  0.0000000000000E+00
 0.6358273241616E+00 -0.5546038657190E-01  0.0000000000000E+00
 0.6372004935795E+00  0.3010587312856E-01  0.0000000000000E+00
 0.6382156265306E+00  0.1156786363610E+00  0.0000000000000E+00
 0.6389157641243E+00  0.2012554694305E+00  0.0000000000000E+00
 0.6393410247663E+00  0.2868345112703E+00  0.0000000000000E+00
 0.6423834709618E+00 -0.1257430208361E+01  0.0000000000000E+00
 0.6428079579416E+00 -0.1172076974739E+01  0.0000000000000E+00
 0.6435234911376E+00 -0.1086725949808E+01  0.0000000000000E+00
 0.6445725488804E+00 -0.1001378994563E+01  0.0000000000000E+00
 0.6460007041001E+00 -0.9160385429092E+00  0.0000000000000E+00
 0.6478510163235E+00 -0.8307079042225E+00  0.0000000000000E+00
 0.6501518219949E+00 -0.7453903969262E+00  0.0000000000000E+00
 0.6528951490542E+00 -0.6600888590394E+00  0.0000000000000E+00
 0.6560086699003E+00 -0.5748027131058E+00  0.0000000000000E+00
 0.6593381388929E+00 -0.4895264924872E+00  0.0000000000000E+00
 0.6626676079766E+00 -0.4042502718721E+00  0.0000000000000E+00
 0.6657811290843E+00 -0.3189641259479E+00  0.0000000000000E+00
 0.6685244565453E+00 -0.2336625880737E+00  0.0000000000000E+00
 0.6708252627226E+00 -0.1483450807910E+00  0.0000000000000E+00
 0.6726755755239E+00 -0.6301444211619E-01  0.0000000000000E+00
 0.6741037313687E+00  0.2232600952730E-01  0.0000000000000E+00
 0.6751527897659E+00  0.1076729647648E+00  0.0000000000000E+00
 0.6758683236333E+00  0.1930239896902E+00  0.0000000000000E+00
 0.6762928112935E+00  0.2783772233094E+00  0.0000000000000E+00
 0.6778575079345E+00 -0.1262067681820E+01  0.0000000000000E+00
 0.6782770771087E+00 -0.1176951540526E+01  0.0000000000000E+00
 0.6790038617375E+00 -0.1091837607843E+01  0.0000000000000E+00
 0.6800827000673E+00 -0.1006727744689E+01  0.0000000000000E+00
 0.6815616968295E+00 -0.9216243851913E+00  0.0000000000000E+00
 0.6834863037813E+00 -0.8365308384297E+00  0.0000000000000E+00
 0.6858864315472E+00 -0.7514504233734E+00  0.0000000000000E+00
 0.6887536652390E+00 -0.6663859775017E+00  0.0000000000000E+00
 0.6920116589981E+00 -0.5813369238382E+00  0.0000000000000E+00
 0.6954975980043E+00 -0.4962977955727E+00  0.0000000000000E+00
 0.6989835371017E+00 -0.4112586673108E+00  0.0000000000000E+00
 0.7022415311224E+00 -0.3262096136574E+00  0.0000000000000E+00
 0.7051087652158E+00 -0.2411451677989E+00  0.0000000000000E+00
 0.7075088934877E+00 -0.1560647527569E+00  0.0000000000000E+00
 0.7094335010174E+00 -0.7097120600793E-01  0.0000000000000E+00
 0.7109124984047E+00  0.1413215347913E-01  0.0000000000000E+00
 0.7119913373889E+00  0.9924201662545E-01  0.0000000000000E+00
 0.7127181226891E+00  0.1843559493029E+00  0.0000000000000E+00
 0.7131376925436E+00  0.2694720905938E+00  0.0000000000000E+00
-0.1461382977135E+01 -0.1366969715354E+01  0.0000000000000E+00
-0.1536838318740E+01 -0.1251434914183E+01  0.0000000000000E+00
-0.1612772383862E+01 -0.1136216660518E+01  0.0000000000000E+00
-0.1682662190134E+01 -0.1017118437211E+01  0.0000000000000E+00
-0.1744352422289E+01 -0.8934077853993E+00  0.0000000000000E+00
-0.1798213558619E+01 -0.7659621724060E+00  0.0000000000000E+00
-0.1844158474103E+01 -0.6353520178781E+00  0.0000000000000E+00
-0.1881388018209E+01 -0.5019106555406E+00  0.0000000000000E+00
-0.1909838253907E+01 -0.3662625943974E+00  0.0000000000000E+00
-0.1928756468757E+01 -0.2289268443260E+00  0.0000000000000E+00
-0.1936610695830E+01 -0.9050316094402E-01  0.0000000000000E+00
-0.1935962495635E+01  0.4816323147748E-01  0.0000000000000E+00
-0.1915746975476E+01  0.1850134490903E+00  0.0000000000000E+00
-0.1866398119172E+01  0.3140157130469E+00  0.0000000000000E+00
-0.1794320744535E+01  0.4315254877347E+00  0.0000000000000E+00
-0.1705912240744E+01  0.5369275948221E+00  0.0000000000000E+00
-0.1607092793437E+01  0.6322756433932E+00  0.0000000000000E+00
-0.1500783670345E+01  0.7188137666816E+00  0.0000000000000E+00
-0.1388289662873E+01  0.7967110478414E+00  0.0000000000000E+00
-0.1422429226874E+01 -0.1359767065380E+01  0.0000000000000E+00
-0.1493912765281E+01 -0.1245948355879E+01  0.0000000000000E+00
-0.1565866851627E+01 -0.1132429649044E+01  0.0000000000000E+00
-0.1632114304946E+01 -0.1015235383770E+01  0.0000000000000E+00
-0.1690615909786E+01 -0.8936717932586E+00  0.0000000000000E+00
-0.1741725163678E+01 -0.7685703365138E+00  0.0000000000000E+00
-0.1785361184768E+01 -0.6404715832861E+00  0.0000000000000E+00
-0.1820766416911E+01 -0.5096914726017E+00  0.0000000000000E+00
-0.1847876058184E+01 -0.3768216156395E+00  0.0000000000000E+00
-0.1865967993324E+01 -0.2423534138595E+00  0.0000000000000E+00
-0.1873578256475E+01 -0.1068545354329E+00  0.0000000000000E+00
-0.1873120957503E+01  0.2887478878923E-01  0.0000000000000E+00
-0.1854104576422E+01  0.1628844644037E+00  0.0000000000000E+00
-0.1807462310472E+01  0.2894600596444E+00  0.0000000000000E+00
-0.1739261410714E+01  0.4051486846621E+00  0.0000000000000E+00
-0.1655564219598E+01  0.5093673682636E+00  0.0000000000000E+00
-0.1561981855766E+01  0.6040614774211E+00  0.0000000000000E+00
-0.1461284503982E+01  0.6904095498839E+00  0.0000000000000E+00
-0.1354710767645E+01  0.7685716769124E+00  0.0000000000000E+00
-0.1383422395682E+01 -0.1352772899744E+01  0.0000000000000E+00
-0.1450936926762E+01 -0.1240659305974E+01  0.0000000000000E+00
-0.1518913830188E+01 -0.1128829170111E+01  0.0000000000000E+00
-0.1581521725986E+01 -0.1013527888229E+01  0.0000000000000E+00
-0.1636837498850E+01 -0.8941003841387E+00  0.0000000000000E+00
-0.1685197665562E+01 -0.7713321085327E+00  0.0000000000000E+00
-0.1726527587358E+01 -0.6457337815459E+00  0.0000000000000E+00
-0.1760111302466E+01 -0.5176039475250E+00  0.0000000000000E+00
-0.1785883144110E+01 -0.3875013196816E+00  0.0000000000000E+00
-0.1803151594074E+01 -0.2558896915364E+00  0.0000000000000E+00
-0.1810520687586E+01 -0.1233046437126E+00  0.0000000000000E+00
-0.1810257084305E+01  0.9498587900696E-02  0.0000000000000E+00
-0.1792442632968E+01  0.1406786833209E+00  0.0000000000000E+00
-0.1748509748075E+01  0.2648385733975E+00  0.0000000000000E+00
-0.1684188114646E+01  0.3787170164180E+00  0.0000000000000E+00
-0.1605205028395E+01  0.4817632478827E+00  0.0000000000000E+00
-0.1516862540600E+01  0.5758143908855E+00  0.0000000000000E+00
-0.1421779752733E+01  0.6619833862764E+00  0.0000000000000E+00
-0.1321129080072E+01  0.7404213328697E+00  0.0000000000000E+00
-0.1344363461517E+01 -0.1345988511677E+01  0.0000000000000E+00
-0.1407911724722E+01 -0.1235568989505E+01  0.0000000000000E+00
-0.1471914184652E+01 -0.1125416380539E+01  0.0000000000000E+00
-0.1530885262298E+01 -0.1011997039425E+01  0.0000000000000E+00
-0.1583017942955E+01 -0.8946945791509E+00  0.0000000000000E+00
-0.1628631762636E+01 -0.7742484420609E+00  0.0000000000000E+00
-0.1667658325614E+01 -0.6511394989236E+00  0.0000000000000E+00
-0.1699423264513E+01 -0.5256488994063E+00  0.0000000000000E+00
-0.1723860047741E+01 -0.3983024585749E+00  0.0000000000000E+00
-0.1740307754039E+01 -0.2695363624626E+00  0.0000000000000E+00
-0.1747438419795E+01 -0.1398541040076E+00  0.0000000000000E+00
-0.1747371254740E+01 -0.9965922536359E-02  0.0000000000000E+00
-0.1730761473034E+01  0.1183956213862E+00  0.0000000000000E+00
-0.1689540710730E+01  0.2401508372010E+00  0.0000000000000E+00
-0.1629101087155E+01  0.3522301339270E+00  0.0000000000000E+00
-0.1554834850913E+01  0.4541149533462E+00  0.0000000000000E+00
-0.1471734985227E+01  0.5475341727792E+00  0.0000000000000E+00
-0.1382269507802E+01  0.6335351346815E+00  0.0000000000000E+00
-0.1287544645600E+01  0.7122599448561E+00  0.0000000000000E+00
-0.1305253595826E+01 -0.1339415213000E+01  0.0000000000000E+00
-0.1364838274543E+01 -0.1230678649356E+01  0.0000000000000E+00
-0.1424868974351E+01 -0.1122192454299E+01  0.0000000000000E+00
-0.1480205916758E+01 -0.1010643942172E+01  0.0000000000000E+00
-0.1529158187961E+01 -0.8954554136531E+00  0.0000000000000E+00
-0.1572028343215E+01 -0.7773203027582E+00  0.0000000000000E+00
-0.1608754229756E+01 -0.6566896311765E+00  0.0000000000000E+00
-0.1638703074586E+01 -0.5338271539178E+00  0.0000000000000E+00
-0.1661807481336E+01 -0.4092257877632E+00  0.0000000000000E+00
-0.1677437125571E+01 -0.2832941117465E+00  0.0000000000000E+00
-0.1684332044841E+01 -0.1565035310225E+00  0.0000000000000E+00
-0.1684463999390E+01 -0.2951928680034E-01  0.0000000000000E+00
-0.1669061564887E+01  0.9603480454536E-01  0.0000000000000E+00
-0.1630555602536E+01  0.2153964467291E+00  0.0000000000000E+00
-0.1574000666711E+01  0.3256877018770E+00  0.0000000000000E+00
-0.1504453958951E+01  0.4264222175976E+00  0.0000000000000E+00
-0.1426599394119E+01  0.5192206236651E+00  0.0000000000000E+00
-0.1342753905869E+01  0.6050646627177E+00  0.0000000000000E+00
-0.1253957532744E+01  0.6840874469890E+00  0.0000000000000E+00
-0.1266093896943E+01 -0.1333054270719E+01  0.0000000000000E+00
-0.1321717616255E+01 -0.1225989485819E+01  0.0000000000000E+00
-0.1377779181010E+01 -0.1119158524968E+01  0.0000000000000E+00
-0.1429484612826E+01 -0.1009469663358E+01  0.0000000000000E+00
-0.1475259099109E+01 -0.8963838878734E+00  0.0000000000000E+00
-0.1515388214367E+01 -0.7805486242106E+00  0.0000000000000E+00
-0.1549816048729E+01 -0.6623850452667E+00  0.0000000000000E+00
-0.1577951423558E+01 -0.5421395114141E+00  0.0000000000000E+00
-0.1599726077743E+01 -0.4202720410058E+00  0.0000000000000E+00
-0.1614540283554E+01 -0.2971636065640E+00  0.0000000000000E+00
-0.1621202079703E+01 -0.1732535253581E+00  0.0000000000000E+00
-0.1621535777370E+01 -0.4916203891051E-01  0.0000000000000E+00
-0.1607343309956E+01  0.7359576528685E-01  0.0000000000000E+00
-0.1571554767384E+01  0.1905750010332E+00  0.0000000000000E+00
-0.1518887139772E+01  0.2990893859719E+00  0.0000000000000E+00
-0.1454062581599E+01  0.3986847730844E+00  0.0000000000000E+00
-0.1381455939042E+01  0.4908735428029E+00  0.0000000000000E+00
-0.1303233061414E+01  0.5765718365090E+00  0.0000000000000E+00
-0.1220367798727E+01  0.6559037723053E+00  0.0000000000000E+00
-0.1226885434598E+01 -0.1326906918420E+01  0.0000000000000E+00
-0.1278550759514E+01 -0.1221502667451E+01  0.0000000000000E+00
-0.1330645754203E+01 -0.1116315696059E+01  0.0000000000000E+00
-0.1378722240279E+01 -0.1008475241632E+01  0.0000000000000E+00
-0.1421321506754E+01 -0.8974809757901E+00  0.0000000000000E+00
-0.1458712147377E+01 -0.7839343158880E+00  0.0000000000000E+00
-0.1490844495113E+01 -0.6682265862935E+00  0.0000000000000E+00
-0.1517168965702E+01 -0.5505867527475E+00  0.0000000000000E+00
-0.1537616433326E+01 -0.4314419350033E+00  0.0000000000000E+00
-0.1551617766864E+01 -0.3111454995403E+00  0.0000000000000E+00
-0.1558049006250E+01 -0.1901046756128E+00  0.0000000000000E+00
-0.1558587013893E+01 -0.6889470344107E-01  0.0000000000000E+00
-0.1545607077695E+01  0.5107804305651E-01  0.0000000000000E+00
-0.1512538520197E+01  0.1656861039298E+00  0.0000000000000E+00
-0.1463760767663E+01  0.2724348549213E+00  0.0000000000000E+00
-0.1403660927249E+01  0.3709023539556E+00  0.0000000000000E+00
-0.1336304775877E+01  0.4624927302273E+00  0.0000000000000E+00
-0.1263707078111E+01  0.5480565223604E+00  0.0000000000000E+00
-0.1186775495267E+01  0.6277088537534E+00  0.0000000000000E+00
-0.1187629395366E+01 -0.1320974386387E+01  0.0000000000000E+00
-0.1235338830454E+01 -0.1217219359810E+01  0.0000000000000E+00
-0.1283469759628E+01 -0.1113665068416E+01  0.0000000000000E+00
-0.1327919804237E+01 -0.1007661713037E+01  0.0000000000000E+00
-0.1367346355235E+01 -0.8987476485388E+00  0.0000000000000E+00
-0.1402001025609E+01 -0.7874782839299E+00  0.0000000000000E+00
-0.1431840391102E+01 -0.6742150953269E+00  0.0000000000000E+00
-0.1456356461827E+01 -0.5591696538526E+00  0.0000000000000E+00
-0.1475479247296E+01 -0.4427361805032E+00  0.0000000000000E+00
-0.1488670212889E+01 -0.3252404361983E+00  0.0000000000000E+00
-0.1494873399790E+01 -0.2070575620616E+00  0.0000000000000E+00
-0.1495618221986E+01 -0.8871779540677E-01  0.0000000000000E+00
-0.1483853318484E+01  0.2848118797714E-01  0.0000000000000E+00
-0.1453507248027E+01  0.1407293705068E+00  0.0000000000000E+00
-0.1408621873567E+01  0.2457237885353E+00  0.0000000000000E+00
-0.1353249254825E+01  0.3430747044833E+00  0.0000000000000E+00
-0.1291146099045E+01  0.4340779944504E+00  0.0000000000000E+00
-0.1224176085705E+01  0.5195185928221E+00  0.0000000000000E+00
-0.1153180687300E+01  0.5995026277207E+00  0.0000000000000E+00
-0.1148326976788E+01 -0.1315257877050E+01  0.0000000000000E+00
-0.1192082964804E+01 -0.1213140702054E+01  0.0000000000000E+00
-0.1236252271205E+01 -0.1111207717923E+01  0.0000000000000E+00
-0.1277078316727E+01 -0.1007030090139E+01  0.0000000000000E+00
-0.1313334594560E+01 -0.9001848553013E+00  0.0000000000000E+00
-0.1345255736939E+01 -0.7911814140789E+00  0.0000000000000E+00
-0.1372804562317E+01 -0.6803513946257E+00  0.0000000000000E+00
-0.1395514675171E+01 -0.5678889734651E+00  0.0000000000000E+00
-0.1413315220375E+01 -0.4541554726861E+00  0.0000000000000E+00
-0.1425698259699E+01 -0.3394490481422E+00  0.0000000000000E+00
-0.1431675835588E+01 -0.2241127527187E+00  0.0000000000000E+00
-0.1432629913986E+01 -0.1086318192211E+00  0.0000000000000E+00
-0.1422082481537E+01  0.5804759131052E-02  0.0000000000000E+00
-0.1394461336550E+01  0.1157044232416E+00  0.0000000000000E+00
-0.1353470779282E+01  0.2189558725478E+00  0.0000000000000E+00
-0.1302827821999E+01  0.3152015735085E+00  0.0000000000000E+00
-0.1245980101937E+01  0.4056291472893E+00  0.0000000000000E+00
-0.1184640213205E+01  0.4909579225658E+00  0.0000000000000E+00
-0.1119583439366E+01  0.5712850316116E+00  0.0000000000000E+00
-0.1108979375216E+01 -0.1309758562184E+01  0.0000000000000E+00
-0.1148784295643E+01 -0.1209267804259E+01  0.0000000000000E+00
-0.1188994358740E+01 -0.1108944692962E+01  0.0000000000000E+00
-0.1226198784311E+01 -0.1006581359642E+01  0.0000000000000E+00
-0.1259287168077E+01 -0.9017935211183E+00  0.0000000000000E+00
-0.1288477161522E+01 -0.7950445697246E+00  0.0000000000000E+00
-0.1313737825754E+01 -0.6866362859398E+00  0.0000000000000E+00
-0.1334644359599E+01 -0.5767454517047E+00  0.0000000000000E+00
-0.1351125043330E+01 -0.4657004900490E+00  0.0000000000000E+00
-0.1362702534998E+01 -0.3537719522543E+00  0.0000000000000E+00
-0.1368456878322E+01 -0.2412708028569E+00  0.0000000000000E+00
-0.1369622591563E+01 -0.1286372685415E+00  0.0000000000000E+00
-0.1360295005660E+01 -0.1695167559519E-01  0.0000000000000E+00
-0.1335401161793E+01  0.9061089160135E-01  0.0000000000000E+00
-0.1298307798104E+01  0.1921307980690E+00  0.0000000000000E+00
-0.1252396879368E+01  0.2872827138462E+00  0.0000000000000E+00
-0.1200806972471E+01  0.3771460033088E+00  0.0000000000000E+00
-0.1145099585870E+01  0.4623743879392E+00  0.0000000000000E+00
-0.1085983814086E+01  0.5430560035856E+00  0.0000000000000E+00
-0.1069587807609E+01 -0.1304477586773E+01  0.0000000000000E+00
-0.1105443975430E+01 -0.1205601751120E+01  0.0000000000000E+00
-0.1141697110190E+01 -0.1106877017936E+01  0.0000000000000E+00
-0.1175282230482E+01 -0.1006316485686E+01  0.0000000000000E+00
-0.1205205034859E+01 -0.9035745498883E+00  0.0000000000000E+00
-0.1231666194052E+01 -0.7990685945414E+00  0.0000000000000E+00
-0.1254641011766E+01 -0.6930705527353E+00  0.0000000000000E+00
-0.1273746281175E+01 -0.5857398118447E+00  0.0000000000000E+00
-0.1288909417977E+01 -0.4773718956829E+00  0.0000000000000E+00
-0.1299683676407E+01 -0.3682097514539E+00  0.0000000000000E+00
-0.1305217101473E+01 -0.2585322552314E+00  0.0000000000000E+00
-0.1306596764096E+01 -0.1487346259530E+00  0.0000000000000E+00
-0.1298491336305E+01 -0.3978853868330E-01  0.0000000000000E+00
-0.1276327105409E+01  0.6544841325714E-01  0.0000000000000E+00
-0.1243133247977E+01  0.1652482630036E+00  0.0000000000000E+00
-0.1201956681219E+01  0.2593178837163E+00  0.0000000000000E+00
-0.1155626901319E+01  0.3486283811055E+00  0.0000000000000E+00
-0.1105554330784E+01  0.4337678679626E+00  0.0000000000000E+00
-0.1052381874987E+01  0.5148154831302E+00  0.0000000000000E+00
-0.1030153478891E+01 -0.1299416062439E+01  0.0000000000000E+00
-0.1062063143085E+01 -0.1202143595677E+01  0.0000000000000E+00
-0.1094361598468E+01 -0.1105005687296E+01  0.0000000000000E+00
-0.1124329662344E+01 -0.1006236404253E+01  0.0000000000000E+00
-0.1151089136449E+01 -0.9055288192595E+00  0.0000000000000E+00
-0.1174823710759E+01 -0.8032543079536E+00  0.0000000000000E+00
-0.1195514931520E+01 -0.6996549563073E+00  0.0000000000000E+00
-0.1212821186271E+01 -0.5948727571351E+00  0.0000000000000E+00
-0.1226669026167E+01 -0.4891703348581E+00  0.0000000000000E+00
-0.1236642301545E+01 -0.3827630330845E+00  0.0000000000000E+00
-0.1241957058761E+01 -0.2758976392924E+00  0.0000000000000E+00
-0.1243552921638E+01 -0.1689243630130E+00  0.0000000000000E+00
-0.1236671900503E+01 -0.6270624381806E-01  0.0000000000000E+00
-0.1217239532245E+01  0.4021663263883E-01  0.0000000000000E+00
-0.1187947432191E+01  0.1383079702589E+00  0.0000000000000E+00
-0.1151507469733E+01  0.2313068448822E+00  0.0000000000000E+00
-0.1110440069832E+01  0.3200761016069E+00  0.0000000000000E+00
-0.1066004568682E+01  0.4051382429913E+00  0.0000000000000E+00
-0.1018777682354E+01  0.4865634102839E+00  0.0000000000000E+00
-0.9906777036991E+00 -0.1294575088408E+01  0.0000000000000E+00
-0.1018643046870E+01 -0.1198894379352E+01  0.0000000000000E+00
-0.1046989005467E+01 -0.1103331684666E+01  0.0000000000000E+00
-0.1073342195220E+01 -0.1006342041053E+01  0.0000000000000E+00
-0.1096940521322E+01 -0.9076571968749E+00  0.0000000000000E+00
-0.1117950692994E+01 -0.8076025194146E+00  0.0000000000000E+00
-0.1136360498971E+01 -0.7063902478163E+00  0.0000000000000E+00
-0.1151869921146E+01 -0.6041449803516E+00  0.0000000000000E+00
-0.1164404646165E+01 -0.5010964418930E+00  0.0000000000000E+00
-0.1173579120367E+01 -0.3974323729538E+00  0.0000000000000E+00
-0.1178677391469E+01 -0.2933674723030E+00  0.0000000000000E+00
-0.1180491636525E+01 -0.1892069384262E+00  0.0000000000000E+00
-0.1174837201104E+01 -0.8570519127675E-01  0.0000000000000E+00
-0.1158138874721E+01  0.1491520765000E-01  0.0000000000000E+00
-0.1132750711982E+01  0.1113096355665E+00  0.0000000000000E+00
-0.1101049534424E+01  0.2032493705286E+00  0.0000000000000E+00
-0.1065246695464E+01  0.2914889951333E+00  0.0000000000000E+00
-0.1026450444716E+01  0.3764854001971E+00  0.0000000000000E+00
-0.9851713088512E+00  0.4582997287889E+00  0.0000000000000E+00
-0.9511617699266E+00 -0.1289955725504E+01  0.0000000000000E+00
-0.9751849067139E+00 -0.1195855107115E+01  0.0000000000000E+00
-0.9995804831506E+00 -0.1101855959167E+01  0.0000000000000E+00
-0.1022320913129E+01 -0.1006634289366E+01  0.0000000000000E+00
-0.1042760205564E+01 -0.9099605201844E+00  0.0000000000000E+00
-0.1061048088928E+01 -0.8121140105493E+00  0.0000000000000E+00
-0.1077178594388E+01 -0.7132771530690E+00  0.0000000000000E+00
-0.1090893298189E+01 -0.6135571514881E+00  0.0000000000000E+00
-0.1102117022494E+01 -0.5131508309729E+00  0.0000000000000E+00
-0.1110494809551E+01 -0.4122183294437E+00  0.0000000000000E+00
-0.1115378708452E+01 -0.3109422568459E+00  0.0000000000000E+00
-0.1117413449799E+01 -0.2095827989697E+00  0.0000000000000E+00
-0.1112987711460E+01 -0.1087857720977E+00  0.0000000000000E+00
-0.1099025538536E+01 -0.1045619698468E-01  0.0000000000000E+00
-0.1077543425416E+01  0.8425297945760E-01  0.0000000000000E+00
-0.1050583145725E+01  0.1751452370352E+00  0.0000000000000E+00
-0.1020046981025E+01  0.2628668939426E+00  0.0000000000000E+00
-0.9868920940821E+00  0.3478092277359E+00  0.0000000000000E+00
-0.9515628220696E+00  0.4300243827152E+00  0.0000000000000E+00
-0.9116069872608E+00 -0.1285559004498E+01  0.0000000000000E+00
-0.9316899632209E+00 -0.1193026755469E+01  0.0000000000000E+00
-0.9521372030405E+00 -0.1100579433030E+01  0.0000000000000E+00
-0.9712669185257E+00 -0.1007114017167E+01  0.0000000000000E+00
-0.9885492225798E+00 -0.9124396029110E+00  0.0000000000000E+00
-0.1004116862923E+01 -0.8167895408345E+00  0.0000000000000E+00
-0.1017970113108E+01 -0.7203163773010E+00  0.0000000000000E+00
-0.1029892143722E+01 -0.6231099215445E+00  0.0000000000000E+00
-0.1039806912476E+01 -0.5253340988647E+00  0.0000000000000E+00
-0.1047390057437E+01 -0.4271214450931E+00  0.0000000000000E+00
-0.1052061629091E+01 -0.3286224812346E+00  0.0000000000000E+00
-0.1054318911882E+01 -0.2300523787265E+00  0.0000000000000E+00
-0.1051123913148E+01 -0.1319483661985E+00  0.0000000000000E+00
-0.1039899936456E+01 -0.3589790699629E-01  0.0000000000000E+00
-0.1022325916455E+01  0.5713773042639E-01  0.0000000000000E+00
-0.1000108578797E+01  0.1469942271592E+00  0.0000000000000E+00
-0.9748411328702E+00  0.2342096350805E+00  0.0000000000000E+00
-0.9473296543422E+00  0.3191096169583E+00  0.0000000000000E+00
-0.9179522907849E+00  0.4017373177321E+00  0.0000000000000E+00
-0.8720146866331E+00 -0.1281385925185E+01  0.0000000000000E+00
-0.8881594771479E+00 -0.1190410271569E+01  0.0000000000000E+00
-0.9046603557195E+00 -0.1099503000773E+01  0.0000000000000E+00
-0.9201813318361E+00 -0.1007782066347E+01  0.0000000000000E+00
-0.9343086226444E+00 -0.9150952343233E+00  0.0000000000000E+00
-0.9471579951153E+00 -0.8216298469200E+00  0.0000000000000E+00
-0.9587359651358E+00 -0.7275086045478E+00  0.0000000000000E+00
-0.9688672976347E+00 -0.6328039219456E+00  0.0000000000000E+00
-0.9774750858942E+00 -0.5376468243853E+00  0.0000000000000E+00
-0.9842655637184E+00 -0.4421422461151E+00  0.0000000000000E+00
-0.9887267829990E+00 -0.3464086190817E+00  0.0000000000000E+00
-0.9912085823139E+00 -0.2506160987026E+00  0.0000000000000E+00
-0.9892462957472E+00 -0.1551933420424E+00  0.0000000000000E+00
-0.9807624881220E+00 -0.6141023828673E-01  0.0000000000000E+00
-0.9670985347967E+00  0.2996362516681E-01  0.0000000000000E+00
-0.9496261133913E+00  0.1187961302237E+00  0.0000000000000E+00
-0.9296293608063E+00  0.2055170605213E+00  0.0000000000000E+00
-0.9077632653588E+00  0.2903864625034E+00  0.0000000000000E+00
-0.8843397849235E+00  0.3734384811542E+00  0.0000000000000E+00
-0.8323862196444E+00 -0.1277437455478E+01  0.0000000000000E+00
-0.8445947288565E+00 -0.1188006572371E+01  0.0000000000000E+00
-0.8571511503101E+00 -0.1098627528392E+01  0.0000000000000E+00
-0.8690652909581E+00 -0.1008639251951E+01  0.0000000000000E+00
-0.8800394724388E+00 -0.9179281785215E+00  0.0000000000000E+00
-0.8901724809746E+00 -0.8266356419629E+00  0.0000000000000E+00
-0.8994770747405E+00 -0.7348544970267E+00  0.0000000000000E+00
-0.9078196130017E+00 -0.6426397639724E+00  0.0000000000000E+00
-0.9151223246404E+00 -0.5500895678812E+00  0.0000000000000E+00
-0.9211220391125E+00 -0.4572812419253E+00  0.0000000000000E+00
-0.9253748097363E+00 -0.3643011288742E+00  0.0000000000000E+00
-0.9280830294945E+00 -0.2712743664508E+00  0.0000000000000E+00
-0.9273553566028E+00 -0.1785210563106E+00  0.0000000000000E+00
-0.9216136198406E+00 -0.8699349664939E-01  0.0000000000000E+00
-0.9118616357056E+00  0.2730408804202E-02  0.0000000000000E+00
-0.8991360337160E+00  0.9055074230215E-01  0.0000000000000E+00
-0.8844118779828E+00  0.1767890173054E+00  0.0000000000000E+00
-0.8681930692261E+00  0.2616396623902E+00  0.0000000000000E+00
-0.8507253755287E+00  0.3451278219878E+00  0.0000000000000E+00
-0.7927229579626E+00 -0.1273714530528E+01  0.0000000000000E+00
-0.8009970177392E+00 -0.1185816543790E+01  0.0000000000000E+00
-0.8096108139298E+00 -0.1097953852569E+01  0.0000000000000E+00
-0.8179199507468E+00 -0.1009686361438E+01  0.0000000000000E+00
-0.8257428545609E+00 -0.9209391737407E+00  0.0000000000000E+00
-0.8331613308469E+00 -0.8318076149775E+00  0.0000000000000E+00
-0.8401943800219E+00 -0.7423546945341E+00  0.0000000000000E+00
-0.8467499556851E+00 -0.6526180382057E+00  0.0000000000000E+00
-0.8527494223438E+00 -0.5626628707190E+00  0.0000000000000E+00
-0.8579602050271E+00 -0.4725389246792E+00  0.0000000000000E+00
-0.8620063584978E+00 -0.3823004535589E+00  0.0000000000000E+00
-0.8649428304042E+00 -0.2920275757042E+00  0.0000000000000E+00
-0.8654516005855E+00 -0.2019318535823E+00  0.0000000000000E+00
-0.8624537643804E+00 -0.1126479774958E+00  0.0000000000000E+00
-0.8566155798348E+00 -0.2456216487784E-01  0.0000000000000E+00
-0.8486386282961E+00  0.6225786639916E-01  0.0000000000000E+00
-0.8391889007890E+00  0.1480253576752E+00  0.0000000000000E+00
-0.8286192101987E+00  0.2328691181076E+00  0.0000000000000E+00
-0.8171091347244E+00  0.3168052909748E+00  0.0000000000000E+00
-0.7530262926939E+00 -0.1270218051859E+01  0.0000000000000E+00
-0.7573676616205E+00 -0.1183841039890E+01  0.0000000000000E+00
-0.7620405911220E+00 -0.1097482779905E+01  0.0000000000000E+00
-0.7667464824764E+00 -0.1010924153951E+01  0.0000000000000E+00
-0.7714198670190E+00 -0.9241289316708E+00  0.0000000000000E+00
-0.7761255694772E+00 -0.8371464302010E+00  0.0000000000000E+00
-0.7808888324672E+00 -0.7500098138566E+00  0.0000000000000E+00
-0.7856592039196E+00 -0.6627393139834E+00  0.0000000000000E+00
-0.7903571839912E+00 -0.5753672547891E+00  0.0000000000000E+00
-0.7947807932090E+00 -0.4879157688224E+00  0.0000000000000E+00
-0.7986220877978E+00 -0.4004070201384E+00  0.0000000000000E+00
-0.8017885703212E+00 -0.3128761060169E+00  0.0000000000000E+00
-0.8035355398389E+00 -0.2254260660222E+00  0.0000000000000E+00
-0.8032833607526E+00 -0.1383739655889E+00  0.0000000000000E+00
-0.8013607330460E+00 -0.5191433321603E-01  0.0000000000000E+00
-0.7981341898262E+00  0.3391731262723E-01  0.0000000000000E+00
-0.7939606487436E+00  0.1192259392064E+00  0.0000000000000E+00
-0.7890418346189E+00  0.2040747347020E+00  0.0000000000000E+00
-0.7834911356789E+00  0.2884708406368E+00  0.0000000000000E+00
 0.7530263043685E+00 -0.1270218053608E+01  0.0000000000000E+00
 0.7573676719998E+00 -0.1183841041557E+01  0.0000000000000E+00
 0.7620406002124E+00 -0.1097482781485E+01  0.0000000000000E+00
 0.7667464902935E+00 -0.1010924155438E+01  0.0000000000000E+00
 0.7714198735918E+00 -0.9241289330601E+00  0.0000000000000E+00
 0.7761255748516E+00 -0.8371464314874E+00  0.0000000000000E+00
 0.7808888367128E+00 -0.7500098150348E+00  0.0000000000000E+00
 0.7856592071364E+00 -0.6627393150508E+00  0.0000000000000E+00
 0.7903571863134E+00 -0.5753672557459E+00  0.0000000000000E+00
 0.7947807947991E+00 -0.4879157696728E+00  0.0000000000000E+00
 0.7986220888290E+00 -0.4004070208897E+00  0.0000000000000E+00
 0.8017885709542E+00 -0.3128761066771E+00  0.0000000000000E+00
 0.8035355402108E+00 -0.2254260665967E+00  0.0000000000000E+00
 0.8032833609624E+00 -0.1383739660813E+00  0.0000000000000E+00
 0.8013607331609E+00 -0.5191433362778E-01  0.0000000000000E+00
 0.7981341898900E+00  0.3391731229450E-01  0.0000000000000E+00
 0.7939606487837E+00  0.1192259389523E+00  0.0000000000000E+00
 0.7890418346513E+00  0.2040747345265E+00  0.0000000000000E+00
 0.7834911357119E+00  0.2884708405401E+00  0.0000000000000E+00
 0.7927229690089E+00 -0.1273714532262E+01  0.0000000000000E+00
 0.8009970275589E+00 -0.1185816545447E+01  0.0000000000000E+00
 0.8096108225272E+00 -0.1097953854141E+01  0.0000000000000E+00
 0.8179199581358E+00 -0.1009686362918E+01  0.0000000000000E+00
 0.8257428607702E+00 -0.9209391751259E+00  0.0000000000000E+00
 0.8331613359210E+00 -0.8318076162633E+00  0.0000000000000E+00
 0.8401943840277E+00 -0.7423546957159E+00  0.0000000000000E+00
 0.8467499587182E+00 -0.6526180392811E+00  0.0000000000000E+00
 0.8527494245320E+00 -0.5626628716882E+00  0.0000000000000E+00
 0.8579602065249E+00 -0.4725389255462E+00  0.0000000000000E+00
 0.8620063594690E+00 -0.3823004543303E+00  0.0000000000000E+00
 0.8649428310004E+00 -0.2920275763873E+00  0.0000000000000E+00
 0.8654516009409E+00 -0.2019318541816E+00  0.0000000000000E+00
 0.8624537645892E+00 -0.1126479780131E+00  0.0000000000000E+00
 0.8566155799597E+00 -0.2456216531384E-01  0.0000000000000E+00
 0.8486386283778E+00  0.6225786604307E-01  0.0000000000000E+00
 0.8391889008528E+00  0.1480253573988E+00  0.0000000000000E+00
 0.8286192102596E+00  0.2328691179110E+00  0.0000000000000E+00
 0.8171091347902E+00  0.3168052908585E+00  0.0000000000000E+00
 0.8323862300631E+00 -0.1277437457190E+01  0.0000000000000E+00
 0.8445947381175E+00 -0.1188006574008E+01  0.0000000000000E+00
 0.8571511584150E+00 -0.1098627529947E+01  0.0000000000000E+00
 0.8690652979196E+00 -0.1008639253417E+01  0.0000000000000E+00
 0.8800394782851E+00 -0.9179281798955E+00  0.0000000000000E+00
 0.8901724857490E+00 -0.8266356432415E+00  0.0000000000000E+00
 0.8994770785070E+00 -0.7348544982060E+00  0.0000000000000E+00
 0.9078196158517E+00 -0.6426397650503E+00  0.0000000000000E+00
 0.9151223266951E+00 -0.5500895688577E+00  0.0000000000000E+00
 0.9211220405183E+00 -0.4572812428042E+00  0.0000000000000E+00
 0.9253748106480E+00 -0.3643011296615E+00  0.0000000000000E+00
 0.9280830300542E+00 -0.2712743671533E+00  0.0000000000000E+00
 0.9273553569420E+00 -0.1785210569313E+00  0.0000000000000E+00
 0.9216136200487E+00 -0.8699349718877E-01  0.0000000000000E+00
 0.9118616358407E+00  0.2730408346272E-02  0.0000000000000E+00
 0.8991360338156E+00  0.9055074192457E-01  0.0000000000000E+00
 0.8844118780703E+00  0.1767890170080E+00  0.0000000000000E+00
 0.8681930693155E+00  0.2616396621734E+00  0.0000000000000E+00
 0.8507253756273E+00  0.3451278218524E+00  0.0000000000000E+00
 0.8720146964251E+00 -0.1281385926866E+01  0.0000000000000E+00
 0.8881594858509E+00 -0.1190410273179E+01  0.0000000000000E+00
 0.9046603633328E+00 -0.1099503002303E+01  0.0000000000000E+00
 0.9201813383709E+00 -0.1007782067791E+01  0.0000000000000E+00
 0.9343086281286E+00 -0.9150952356790E+00  0.0000000000000E+00
 0.9471579995906E+00 -0.8216298481850E+00  0.0000000000000E+00
 0.9587359686636E+00 -0.7275086057185E+00  0.0000000000000E+00
 0.9688673003020E+00 -0.6328039230203E+00  0.0000000000000E+00
 0.9774750878159E+00 -0.5376468253640E+00  0.0000000000000E+00
 0.9842655650327E+00 -0.4421422470013E+00  0.0000000000000E+00
 0.9887267838514E+00 -0.3464086198808E+00  0.0000000000000E+00
 0.9912085828374E+00 -0.2506160994206E+00  0.0000000000000E+00
 0.9892462960706E+00 -0.1551933426814E+00  0.0000000000000E+00
 0.9807624883295E+00 -0.6141023884543E-01  0.0000000000000E+00
 0.9670985349422E+00  0.2996362468928E-01  0.0000000000000E+00
 0.9496261135090E+00  0.1187961298265E+00  0.0000000000000E+00
 0.9296293609177E+00  0.2055170602043E+00  0.0000000000000E+00
 0.9077632654769E+00  0.2903864622674E+00  0.0000000000000E+00
 0.8843397850549E+00  0.3734384810002E+00  0.0000000000000E+00
 0.9116069964270E+00 -0.1285559006139E+01  0.0000000000000E+00
 0.9316899713668E+00 -0.1193026757043E+01  0.0000000000000E+00
 0.9521372101630E+00 -0.1100579434527E+01  0.0000000000000E+00
 0.9712669246345E+00 -0.1007114018582E+01  0.0000000000000E+00
 0.9885492277025E+00 -0.9124396042416E+00  0.0000000000000E+00
 0.1004116867100E+01 -0.8167895420793E+00  0.0000000000000E+00
 0.1017970116397E+01 -0.7203163784571E+00  0.0000000000000E+00
 0.1029892146207E+01 -0.6231099226104E+00  0.0000000000000E+00
 0.1039806914265E+01 -0.5253340998405E+00  0.0000000000000E+00
 0.1047390058661E+01 -0.4271214459819E+00  0.0000000000000E+00
 0.1052061629884E+01 -0.3286224820412E+00  0.0000000000000E+00
 0.1054318912369E+01 -0.2300523794564E+00  0.0000000000000E+00
 0.1051123913456E+01 -0.1319483668524E+00  0.0000000000000E+00
 0.1039899936664E+01 -0.3589790757152E-01  0.0000000000000E+00
 0.1022325916611E+01  0.5713772993158E-01  0.0000000000000E+00
 0.1000108578933E+01  0.1469942267442E+00  0.0000000000000E+00
 0.9748411330057E+00  0.2342096347455E+00  0.0000000000000E+00
 0.9473296544890E+00  0.3191096167040E+00  0.0000000000000E+00
 0.9179522909491E+00  0.4017373175599E+00  0.0000000000000E+00
 0.9511617784682E+00 -0.1289955727096E+01  0.0000000000000E+00
 0.9751849143037E+00 -0.1195855108645E+01  0.0000000000000E+00
 0.9995804897833E+00 -0.1101855960624E+01  0.0000000000000E+00
 0.1022320918812E+01 -0.1006634290744E+01  0.0000000000000E+00
 0.1042760210326E+01 -0.9099605214829E+00  0.0000000000000E+00
 0.1061048092807E+01 -0.8121140117675E+00  0.0000000000000E+00
 0.1077178597441E+01 -0.7132771542044E+00  0.0000000000000E+00
 0.1090893300493E+01 -0.6135571525397E+00  0.0000000000000E+00
 0.1102117024151E+01 -0.5131508319408E+00  0.0000000000000E+00
 0.1110494810684E+01 -0.4122183303305E+00  0.0000000000000E+00
 0.1115378709188E+01 -0.3109422576558E+00  0.0000000000000E+00
 0.1117413450252E+01 -0.2095827997078E+00  0.0000000000000E+00
 0.1112987711753E+01 -0.1087857727634E+00  0.0000000000000E+00
 0.1099025538743E+01 -0.1045619757369E-01  0.0000000000000E+00
 0.1077543425583E+01  0.8425297894781E-01  0.0000000000000E+00
 0.1050583145880E+01  0.1751452366042E+00  0.0000000000000E+00
 0.1020046981184E+01  0.2628668935907E+00  0.0000000000000E+00
 0.9868920942577E+00  0.3478092274642E+00  0.0000000000000E+00
 0.9515628222668E+00  0.4300243825253E+00  0.0000000000000E+00
 0.9906777116171E+00 -0.1294575089943E+01  0.0000000000000E+00
 0.1018643053905E+01 -0.1198894380829E+01  0.0000000000000E+00
 0.1046989011611E+01 -0.1103331686075E+01  0.0000000000000E+00
 0.1073342200480E+01 -0.1006342042387E+01  0.0000000000000E+00
 0.1096940525724E+01 -0.9076571981345E+00  0.0000000000000E+00
 0.1117950696577E+01 -0.8076025205997E+00  0.0000000000000E+00
 0.1136360501787E+01 -0.7063902489253E+00  0.0000000000000E+00
 0.1151869923269E+01 -0.6041449813834E+00  0.0000000000000E+00
 0.1164404647691E+01 -0.5010964428479E+00  0.0000000000000E+00
 0.1173579121410E+01 -0.3974323738340E+00  0.0000000000000E+00
 0.1178677392146E+01 -0.2933674731123E+00  0.0000000000000E+00
 0.1180491636942E+01 -0.1892069391688E+00  0.0000000000000E+00
 0.1174837201382E+01 -0.8570519195099E-01  0.0000000000000E+00
 0.1158138874929E+01  0.1491520704997E-01  0.0000000000000E+00
 0.1132750712161E+01  0.1113096350441E+00  0.0000000000000E+00
 0.1101049534597E+01  0.2032493700836E+00  0.0000000000000E+00
 0.1065246695648E+01  0.2914889947660E+00  0.0000000000000E+00
 0.1026450444921E+01  0.3764853999090E+00  0.0000000000000E+00
 0.9851713090814E+00  0.4582997285817E+00  0.0000000000000E+00
 0.1030153486187E+01 -0.1299416063908E+01  0.0000000000000E+00
 0.1062063149566E+01 -0.1202143597094E+01  0.0000000000000E+00
 0.1094361604124E+01 -0.1105005688649E+01  0.0000000000000E+00
 0.1124329667181E+01 -0.1006236405536E+01  0.0000000000000E+00
 0.1151089140492E+01 -0.9055288204733E+00  0.0000000000000E+00
 0.1174823714046E+01 -0.8032543090994E+00  0.0000000000000E+00
 0.1195514934100E+01 -0.6996549573837E+00  0.0000000000000E+00
 0.1212821188214E+01 -0.5948727581417E+00  0.0000000000000E+00
 0.1226669027563E+01 -0.4891703357950E+00  0.0000000000000E+00
 0.1236642302499E+01 -0.3827630339536E+00  0.0000000000000E+00
 0.1241957059382E+01 -0.2758976400968E+00  0.0000000000000E+00
 0.1243552922021E+01 -0.1689243637565E+00  0.0000000000000E+00
 0.1236671900766E+01 -0.6270624449766E-01  0.0000000000000E+00
 0.1217239532454E+01  0.4021663203052E-01  0.0000000000000E+00
 0.1187947432381E+01  0.1383079697260E+00  0.0000000000000E+00
 0.1151507469925E+01  0.2313068444249E+00  0.0000000000000E+00
 0.1110440070041E+01  0.3200761012256E+00  0.0000000000000E+00
 0.1066004568916E+01  0.4051382426875E+00  0.0000000000000E+00
 0.1018777682617E+01  0.4865634100600E+00  0.0000000000000E+00
 0.1069587814283E+01 -0.1304477588167E+01  0.0000000000000E+00
 0.1105443981358E+01 -0.1205601752468E+01  0.0000000000000E+00
 0.1141697115360E+01 -0.1106877019225E+01  0.0000000000000E+00
 0.1175282234897E+01 -0.1006316486910E+01  0.0000000000000E+00
 0.1205205038544E+01 -0.9035745510495E+00  0.0000000000000E+00
 0.1231666197044E+01 -0.7990685956414E+00  0.0000000000000E+00
 0.1254641014112E+01 -0.6930705537734E+00  0.0000000000000E+00
 0.1273746282939E+01 -0.5857398128207E+00  0.0000000000000E+00
 0.1288909419242E+01 -0.4773718965968E+00  0.0000000000000E+00
 0.1299683677272E+01 -0.3682097523073E+00  0.0000000000000E+00
 0.1305217102037E+01 -0.2585322560269E+00  0.0000000000000E+00
 0.1306596764446E+01 -0.1487346266938E+00  0.0000000000000E+00
 0.1298491336554E+01 -0.3978853936507E-01  0.0000000000000E+00
 0.1276327105619E+01  0.6544841264325E-01  0.0000000000000E+00
 0.1243133248179E+01  0.1652482624626E+00  0.0000000000000E+00
 0.1201956681431E+01  0.2593178832485E+00  0.0000000000000E+00
 0.1155626901552E+01  0.3486283807115E+00  0.0000000000000E+00
 0.1105554331047E+01  0.4337678676442E+00  0.0000000000000E+00
 0.1052381875283E+01  0.5148154828900E+00  0.0000000000000E+00
 0.1108979381271E+01 -0.1309758563495E+01  0.0000000000000E+00
 0.1148784301020E+01 -0.1209267805530E+01  0.0000000000000E+00
 0.1188994363424E+01 -0.1108944694180E+01  0.0000000000000E+00
 0.1226198788305E+01 -0.1006581360800E+01  0.0000000000000E+00
 0.1259287171406E+01 -0.9017935222202E+00  0.0000000000000E+00
 0.1288477164220E+01 -0.7950445707726E+00  0.0000000000000E+00
 0.1313737827865E+01 -0.6866362869336E+00  0.0000000000000E+00
 0.1334644361185E+01 -0.5767454526446E+00  0.0000000000000E+00
 0.1351125044467E+01 -0.4657004909350E+00  0.0000000000000E+00
 0.1362702535776E+01 -0.3537719530876E+00  0.0000000000000E+00
 0.1368456878830E+01 -0.2412708036395E+00  0.0000000000000E+00
 0.1369622591879E+01 -0.1286372692759E+00  0.0000000000000E+00
 0.1360295005896E+01 -0.1695167627600E-01  0.0000000000000E+00
 0.1335401162004E+01  0.9061089098460E-01  0.0000000000000E+00
 0.1298307798319E+01  0.1921307975221E+00  0.0000000000000E+00
 0.1252396879599E+01  0.2872827133698E+00  0.0000000000000E+00
 0.1200806972730E+01  0.3771460029035E+00  0.0000000000000E+00
 0.1145099586162E+01  0.4623743876070E+00  0.0000000000000E+00
 0.1085983814416E+01  0.5430560033294E+00  0.0000000000000E+00
 0.1148326982225E+01 -0.1315257878269E+01  0.0000000000000E+00
 0.1192082969631E+01 -0.1213140703241E+01  0.0000000000000E+00
 0.1236252275405E+01 -0.1111207719063E+01  0.0000000000000E+00
 0.1277078320301E+01 -0.1007030091224E+01  0.0000000000000E+00
 0.1313334597533E+01 -0.9001848563373E+00  0.0000000000000E+00
 0.1345255739343E+01 -0.7911814150685E+00  0.0000000000000E+00
 0.1372804564196E+01 -0.6803513955696E+00  0.0000000000000E+00
 0.1395514676580E+01 -0.5678889743635E+00  0.0000000000000E+00
 0.1413315221384E+01 -0.4541554735392E+00  0.0000000000000E+00
 0.1425698260390E+01 -0.3394490489509E+00  0.0000000000000E+00
 0.1431675836041E+01 -0.2241127534843E+00  0.0000000000000E+00
 0.1432629914269E+01 -0.1086318199455E+00  0.0000000000000E+00
 0.1422082481760E+01  0.5804758454327E-02  0.0000000000000E+00
 0.1394461336764E+01  0.1157044226246E+00  0.0000000000000E+00
 0.1353470779509E+01  0.2189558719973E+00  0.0000000000000E+00
 0.1302827822250E+01  0.3152015730252E+00  0.0000000000000E+00
 0.1245980102221E+01  0.4056291468740E+00  0.0000000000000E+00
 0.1184640213527E+01  0.4909579222208E+00  0.0000000000000E+00
 0.1119583439729E+01  0.5712850313400E+00  0.0000000000000E+00
 0.1187629400186E+01 -0.1320974387505E+01  0.0000000000000E+00
 0.1235338834732E+01 -0.1217219360904E+01  0.0000000000000E+00
 0.1283469763345E+01 -0.1113665069469E+01  0.0000000000000E+00
 0.1327919807393E+01 -0.1007661714042E+01  0.0000000000000E+00
 0.1367346357854E+01 -0.8987476495021E+00  0.0000000000000E+00
 0.1402001027722E+01 -0.7874782848550E+00  0.0000000000000E+00
 0.1431840392749E+01 -0.6742150962150E+00  0.0000000000000E+00
 0.1456356463060E+01 -0.5591696547043E+00  0.0000000000000E+00
 0.1475479248178E+01 -0.4427361813186E+00  0.0000000000000E+00
 0.1488670213493E+01 -0.3252404369779E+00  0.0000000000000E+00
 0.1494873400188E+01 -0.2070575628063E+00  0.0000000000000E+00
 0.1495618222237E+01 -0.8871779611777E-01  0.0000000000000E+00
 0.1483853318695E+01  0.2848118730761E-01  0.0000000000000E+00
 0.1453507248244E+01  0.1407293698923E+00  0.0000000000000E+00
 0.1408621873807E+01  0.2457237879833E+00  0.0000000000000E+00
 0.1353249255096E+01  0.3430747039949E+00  0.0000000000000E+00
 0.1291146099354E+01  0.4340779940265E+00  0.0000000000000E+00
 0.1224176086056E+01  0.5195185924651E+00  0.0000000000000E+00
 0.1153180687696E+01  0.5995026274340E+00  0.0000000000000E+00
 0.1226885438803E+01 -0.1326906919430E+01  0.0000000000000E+00
 0.1278550763245E+01 -0.1221502668444E+01  0.0000000000000E+00
 0.1330645757439E+01 -0.1116315697018E+01  0.0000000000000E+00
 0.1378722243017E+01 -0.1008475242550E+01  0.0000000000000E+00
 0.1421321509020E+01 -0.8974809766741E+00  0.0000000000000E+00
 0.1458712149199E+01 -0.7839343167424E+00  0.0000000000000E+00
 0.1490844496529E+01 -0.6682265871201E+00  0.0000000000000E+00
 0.1517168966759E+01 -0.5505867535472E+00  0.0000000000000E+00
 0.1537616434081E+01 -0.4314419357761E+00  0.0000000000000E+00
 0.1551617767383E+01 -0.3111455002865E+00  0.0000000000000E+00
 0.1558049006595E+01 -0.1901046763326E+00  0.0000000000000E+00
 0.1558587014113E+01 -0.6889470413509E-01  0.0000000000000E+00
 0.1545607077895E+01  0.5107804239726E-01  0.0000000000000E+00
 0.1512538520417E+01  0.1656861033204E+00  0.0000000000000E+00
 0.1463760767916E+01  0.2724348543701E+00  0.0000000000000E+00
 0.1403660927541E+01  0.3709023534638E+00  0.0000000000000E+00
 0.1336304776212E+01  0.4624927297960E+00  0.0000000000000E+00
 0.1263707078492E+01  0.5480565219923E+00  0.0000000000000E+00
 0.1186775495697E+01  0.6277088534522E+00  0.0000000000000E+00
 0.1266093900534E+01 -0.1333054271612E+01  0.0000000000000E+00
 0.1321717619441E+01 -0.1225989486703E+01  0.0000000000000E+00
 0.1377779183766E+01 -0.1119158525826E+01  0.0000000000000E+00
 0.1429484615149E+01 -0.1009469664182E+01  0.0000000000000E+00
 0.1475259101023E+01 -0.8963838886716E+00  0.0000000000000E+00
 0.1515388215900E+01 -0.7805486249883E+00  0.0000000000000E+00
 0.1549816049915E+01 -0.6623850460261E+00  0.0000000000000E+00
 0.1577951424441E+01 -0.5421395121565E+00  0.0000000000000E+00
 0.1599726078373E+01 -0.4202720417312E+00  0.0000000000000E+00
 0.1614540283988E+01 -0.2971636072724E+00  0.0000000000000E+00
 0.1621202079995E+01 -0.1732535260491E+00  0.0000000000000E+00
 0.1621535777559E+01 -0.4916203958404E-01  0.0000000000000E+00
 0.1607343310144E+01  0.7359576464093E-01  0.0000000000000E+00
 0.1571554767608E+01  0.1905750004316E+00  0.0000000000000E+00
 0.1518887140039E+01  0.2990893854236E+00  0.0000000000000E+00
 0.1454062581912E+01  0.3986847725911E+00  0.0000000000000E+00
 0.1381455939403E+01  0.4908735423656E+00  0.0000000000000E+00
 0.1303233061826E+01  0.5765718361307E+00  0.0000000000000E+00
 0.1220367799190E+01  0.6559037719900E+00  0.0000000000000E+00
 0.1305253598805E+01 -0.1339415213768E+01  0.0000000000000E+00
 0.1364838277184E+01 -0.1230678650124E+01  0.0000000000000E+00
 0.1424868976629E+01 -0.1122192455048E+01  0.0000000000000E+00
 0.1480205918667E+01 -0.1010643942895E+01  0.0000000000000E+00
 0.1529158189524E+01 -0.8954554143590E+00  0.0000000000000E+00
 0.1572028344460E+01 -0.7773203034531E+00  0.0000000000000E+00
 0.1608754230714E+01 -0.6566896318631E+00  0.0000000000000E+00
 0.1638703075296E+01 -0.5338271545977E+00  0.0000000000000E+00
 0.1661807481841E+01 -0.4092257884365E+00  0.0000000000000E+00
 0.1677437125922E+01 -0.2832941124128E+00  0.0000000000000E+00
 0.1684332045081E+01 -0.1565035316807E+00  0.0000000000000E+00
 0.1684463999550E+01 -0.2951928744993E-01  0.0000000000000E+00
 0.1669061565065E+01  0.9603480391581E-01  0.0000000000000E+00
 0.1630555602763E+01  0.2153964461378E+00  0.0000000000000E+00
 0.1574000666993E+01  0.3256877013338E+00  0.0000000000000E+00
 0.1504453959286E+01  0.4264222171044E+00  0.0000000000000E+00
 0.1426599394506E+01  0.5192206232231E+00  0.0000000000000E+00
 0.1342753906311E+01  0.6050646623300E+00  0.0000000000000E+00
 0.1253957533241E+01  0.6840874466600E+00  0.0000000000000E+00
 0.1344363463886E+01 -0.1345988512312E+01  0.0000000000000E+00
 0.1407911726821E+01 -0.1235568990149E+01  0.0000000000000E+00
 0.1471914186453E+01 -0.1125416381172E+01  0.0000000000000E+00
 0.1530885263794E+01 -0.1011997040041E+01  0.0000000000000E+00
 0.1583017944169E+01 -0.8946945797580E+00  0.0000000000000E+00
 0.1628631763594E+01 -0.7742484426668E+00  0.0000000000000E+00
 0.1667658326345E+01 -0.6511394995318E+00  0.0000000000000E+00
 0.1699423265050E+01 -0.5256489000186E+00  0.0000000000000E+00
 0.1723860048123E+01 -0.3983024591913E+00  0.0000000000000E+00
 0.1740307754306E+01 -0.2695363630824E+00  0.0000000000000E+00
 0.1747438419983E+01 -0.1398541046292E+00  0.0000000000000E+00
 0.1747371254871E+01 -0.9965923158563E-02  0.0000000000000E+00
 0.1730761473203E+01  0.1183956207761E+00  0.0000000000000E+00
 0.1689540710963E+01  0.2401508366226E+00  0.0000000000000E+00
 0.1629101087451E+01  0.3522301333911E+00  0.0000000000000E+00
 0.1554834851269E+01  0.4541149528549E+00  0.0000000000000E+00
 0.1471734985641E+01  0.5475341723337E+00  0.0000000000000E+00
 0.1382269508274E+01  0.6335351342853E+00  0.0000000000000E+00
 0.1287544646131E+01  0.7122599445139E+00  0.0000000000000E+00
 0.1383422397442E+01 -0.1352772900237E+01  0.0000000000000E+00
 0.1450936928321E+01 -0.1240659306487E+01  0.0000000000000E+00
 0.1518913831514E+01 -0.1128829170621E+01  0.0000000000000E+00
 0.1581521727071E+01 -0.1013527888730E+01  0.0000000000000E+00
 0.1636837499717E+01 -0.8941003846407E+00  0.0000000000000E+00
 0.1685197666234E+01 -0.7713321090438E+00  0.0000000000000E+00
 0.1726527587863E+01 -0.6457337820702E+00  0.0000000000000E+00
 0.1760111302833E+01 -0.5176039480646E+00  0.0000000000000E+00
 0.1785883144369E+01 -0.3875013202364E+00  0.0000000000000E+00
 0.1803151594260E+01 -0.2558896921055E+00  0.0000000000000E+00
 0.1810520687724E+01 -0.1233046442937E+00  0.0000000000000E+00
 0.1810257084407E+01  0.9498587309285E-02  0.0000000000000E+00
 0.1792442633128E+01  0.1406786827331E+00  0.0000000000000E+00
 0.1748509748313E+01  0.2648385728346E+00  0.0000000000000E+00
 0.1684188114957E+01  0.3787170158914E+00  0.0000000000000E+00
 0.1605205028773E+01  0.4817632473949E+00  0.0000000000000E+00
 0.1516862541040E+01  0.5758143904379E+00  0.0000000000000E+00
 0.1421779753236E+01  0.6619833858726E+00  0.0000000000000E+00
 0.1321129080636E+01  0.7404213325146E+00  0.0000000000000E+00
 0.1422429228029E+01 -0.1359767065724E+01  0.0000000000000E+00
 0.1493912766301E+01 -0.1245948356251E+01  0.0000000000000E+00
 0.1565866852479E+01 -0.1132429649424E+01  0.0000000000000E+00
 0.1632114305621E+01 -0.1015235384149E+01  0.0000000000000E+00
 0.1690615910306E+01 -0.8936717936491E+00  0.0000000000000E+00
 0.1741725164067E+01 -0.7685703369241E+00  0.0000000000000E+00
 0.1785361185048E+01 -0.6404715837209E+00  0.0000000000000E+00
 0.1820766417108E+01 -0.5096914730635E+00  0.0000000000000E+00
 0.1847876058322E+01 -0.3768216161282E+00  0.0000000000000E+00
 0.1865967993429E+01 -0.2423534143737E+00  0.0000000000000E+00
 0.1873578256564E+01 -0.1068545359697E+00  0.0000000000000E+00
 0.1873120957578E+01  0.2887478823199E-01  0.0000000000000E+00
 0.1854104576573E+01  0.1628844638412E+00  0.0000000000000E+00
 0.1807462310716E+01  0.2894600590995E+00  0.0000000000000E+00
 0.1739261411041E+01  0.4051486841471E+00  0.0000000000000E+00
 0.1655564219998E+01  0.5093673677810E+00  0.0000000000000E+00
 0.1561981856234E+01  0.6040614769726E+00  0.0000000000000E+00
 0.1461284504515E+01  0.6904095494733E+00  0.0000000000000E+00
 0.1354710768243E+01  0.7685716765449E+00  0.0000000000000E+00
 0.1461382977685E+01 -0.1366969715541E+01  0.0000000000000E+00
 0.1536838319223E+01 -0.1251434914409E+01  0.0000000000000E+00
 0.1612772384243E+01 -0.1136216660760E+01  0.0000000000000E+00
 0.1682662190401E+01 -0.1017118437462E+01  0.0000000000000E+00
 0.1744352422465E+01 -0.8934077856720E+00  0.0000000000000E+00
 0.1798213558725E+01 -0.7659621727097E+00  0.0000000000000E+00
 0.1844158474159E+01 -0.6353520182180E+00  0.0000000000000E+00
 0.1881388018237E+01 -0.5019106559195E+00  0.0000000000000E+00
 0.1909838253925E+01 -0.3662625948152E+00  0.0000000000000E+00
 0.1928756468782E+01 -0.2289268447810E+00  0.0000000000000E+00
 0.1936610695870E+01 -0.9050316143287E-01  0.0000000000000E+00
 0.1935962495682E+01  0.4816323095776E-01  0.0000000000000E+00
 0.1915746975620E+01  0.1850134485560E+00  0.0000000000000E+00
 0.1866398119422E+01  0.3140157125225E+00  0.0000000000000E+00
 0.1794320744879E+01  0.4315254872332E+00  0.0000000000000E+00
 0.1705912241167E+01  0.5369275943465E+00  0.0000000000000E+00
 0.1607092793932E+01  0.6322756429451E+00  0.0000000000000E+00
 0.1500783670909E+01  0.7188137662650E+00  0.0000000000000E+00
 0.1388289663505E+01  0.7967110474620E+00  0.0000000000000E+00
-0.7394329578238E+00  0.3828904307871E+00  0.0000000000000E+00
-0.7655763767500E+00  0.4111916020047E+00  0.0000000000000E+00
-0.7917197956763E+00  0.4394927732223E+00  0.0000000000000E+00
-0.8178632146026E+00  0.4677939444398E+00  0.0000000000000E+00
-0.8440066335289E+00  0.4960951156574E+00  0.0000000000000E+00
-0.8701500524552E+00  0.5243962868750E+00  0.0000000000000E+00
-0.8962934713814E+00  0.5526974580926E+00  0.0000000000000E+00
-0.9224368903077E+00  0.5809986293101E+00  0.0000000000000E+00
-0.9485803092340E+00  0.6092998005277E+00  0.0000000000000E+00
-0.9747237281603E+00  0.6376009717453E+00  0.0000000000000E+00
-0.1000867147087E+01  0.6659021429629E+00  0.0000000000000E+00
-0.1027010566013E+01  0.6942033141804E+00  0.0000000000000E+00
-0.1053153984939E+01  0.7225044853980E+00  0.0000000000000E+00
-0.1079297403865E+01  0.7508056566156E+00  0.0000000000000E+00
-0.1105440822792E+01  0.7791068278332E+00  0.0000000000000E+00
-0.1131584241718E+01  0.8074079990507E+00  0.0000000000000E+00
-0.1157727660644E+01  0.8357091702683E+00  0.0000000000000E+00
-0.1183871079571E+01  0.8640103414859E+00  0.0000000000000E+00
-0.1210014498497E+01  0.8923115127035E+00  0.0000000000000E+00
-0.7013395436708E+00  0.3928851883992E+00  0.0000000000000E+00
-0.7262154211400E+00  0.4220388918148E+00  0.0000000000000E+00
-0.7510912986091E+00  0.4511925952303E+00  0.0000000000000E+00
-0.7759671760782E+00  0.4803462986459E+00  0.0000000000000E+00
-0.8008430535474E+00  0.5095000020614E+00  0.0000000000000E+00
-0.8257189310165E+00  0.5386537054770E+00  0.0000000000000E+00
-0.8505948084856E+00  0.5678074088926E+00  0.0000000000000E+00
-0.8754706859548E+00  0.5969611123081E+00  0.0000000000000E+00
-0.9003465634239E+00  0.6261148157237E+00  0.0000000000000E+00
-0.9252224408930E+00  0.6552685191392E+00  0.0000000000000E+00
-0.9500983183622E+00  0.6844222225548E+00  0.0000000000000E+00
-0.9749741958313E+00  0.7135759259704E+00  0.0000000000000E+00
-0.9998500733004E+00  0.7427296293859E+00  0.0000000000000E+00
-0.1024725950770E+01  0.7718833328015E+00  0.0000000000000E+00
-0.1049601828239E+01  0.8010370362170E+00  0.0000000000000E+00
-0.1074477705708E+01  0.8301907396326E+00  0.0000000000000E+00
-0.1099353583177E+01  0.8593444430482E+00  0.0000000000000E+00
-0.1124229460646E+01  0.8884981464637E+00  0.0000000000000E+00
-0.1149105338115E+01  0.9176518498793E+00  0.0000000000000E+00
-0.6631144762003E+00  0.4023799804788E+00  0.0000000000000E+00
-0.6867022089859E+00  0.4323453794399E+00  0.0000000000000E+00
-0.7102899417715E+00  0.4623107784010E+00  0.0000000000000E+00
-0.7338776745571E+00  0.4922761773621E+00  0.0000000000000E+00
-0.7574654073427E+00  0.5222415763231E+00  0.0000000000000E+00
-0.7810531401284E+00  0.5522069752842E+00  0.0000000000000E+00
-0.8046408729140E+00  0.5821723742453E+00  0.0000000000000E+00
-0.8282286056996E+00  0.6121377732064E+00  0.0000000000000E+00
-0.8518163384852E+00  0.6421031721674E+00  0.0000000000000E+00
-0.8754040712708E+00  0.6720685711285E+00  0.0000000000000E+00
-0.8989918040564E+00  0.7020339700896E+00  0.0000000000000E+00
-0.9225795368421E+00  0.7319993690506E+00  0.0000000000000E+00
-0.9461672696277E+00  0.7619647680117E+00  0.0000000000000E+00
-0.9697550024133E+00  0.7919301669728E+00  0.0000000000000E+00
-0.9933427351989E+00  0.8218955659339E+00  0.0000000000000E+00
-0.1016930467985E+01  0.8518609648949E+00  0.0000000000000E+00
-0.1040518200770E+01  0.8818263638560E+00  0.0000000000000E+00
-0.1064105933556E+01  0.9117917628171E+00  0.0000000000000E+00
-0.1087693666341E+01  0.9417571617782E+00  0.0000000000000E+00
-0.6247718534183E+00  0.4113904599736E+00  0.0000000000000E+00
-0.6470599869664E+00  0.4421478324469E+00  0.0000000000000E+00
-0.6693481205145E+00  0.4729052049202E+00  0.0000000000000E+00
-0.6916362540626E+00  0.5036625773935E+00  0.0000000000000E+00
-0.7139243876107E+00  0.5344199498667E+00  0.0000000000000E+00
-0.7362125211588E+00  0.5651773223400E+00  0.0000000000000E+00
-0.7585006547069E+00  0.5959346948133E+00  0.0000000000000E+00
-0.7807887882550E+00  0.6266920672866E+00  0.0000000000000E+00
-0.8030769218031E+00  0.6574494397599E+00  0.0000000000000E+00
-0.8253650553512E+00  0.6882068122331E+00  0.0000000000000E+00
-0.8476531888993E+00  0.7189641847064E+00  0.0000000000000E+00
-0.8699413224474E+00  0.7497215571797E+00  0.0000000000000E+00
-0.8922294559955E+00  0.7804789296530E+00  0.0000000000000E+00
-0.9145175895436E+00  0.8112363021263E+00  0.0000000000000E+00
-0.9368057230917E+00  0.8419936745995E+00  0.0000000000000E+00
-0.9590938566398E+00  0.8727510470728E+00  0.0000000000000E+00
-0.9813819901879E+00  0.9035084195461E+00  0.0000000000000E+00
-0.1003670123736E+01  0.9342657920194E+00  0.0000000000000E+00
-0.1025958257284E+01  0.9650231644927E+00  0.0000000000000E+00
-0.5863228019837E+00  0.4199269192811E+00  0.0000000000000E+00
-0.6073059538729E+00  0.4514720689964E+00  0.0000000000000E+00
-0.6282891057621E+00  0.4830172187117E+00  0.0000000000000E+00
-0.6492722576512E+00  0.5145623684270E+00  0.0000000000000E+00
-0.6702554095404E+00  0.5461075181424E+00  0.0000000000000E+00
-0.6912385614296E+00  0.5776526678577E+00  0.0000000000000E+00
-0.7122217133188E+00  0.6091978175730E+00  0.0000000000000E+00
-0.7332048652079E+00  0.6407429672884E+00  0.0000000000000E+00
-0.7541880170971E+00  0.6722881170037E+00  0.0000000000000E+00
-0.7751711689863E+00  0.7038332667190E+00  0.0000000000000E+00
-0.7961543208755E+00  0.7353784164343E+00  0.0000000000000E+00
-0.8171374727647E+00  0.7669235661497E+00  0.0000000000000E+00
-0.8381206246538E+00  0.7984687158650E+00  0.0000000000000E+00
-0.8591037765430E+00  0.8300138655803E+00  0.0000000000000E+00
-0.8800869284322E+00  0.8615590152956E+00  0.0000000000000E+00
-0.9010700803214E+00  0.8931041650110E+00  0.0000000000000E+00
-0.9220532322105E+00  0.9246493147263E+00  0.0000000000000E+00
-0.9430363840997E+00  0.9561944644416E+00  0.0000000000000E+00
-0.9640195359889E+00  0.9877396141569E+00  0.0000000000000E+00
-0.5477768854188E+00  0.4279968810199E+00  0.0000000000000E+00
-0.5674541536864E+00  0.4603381160929E+00  0.0000000000000E+00
-0.5871314219540E+00  0.4926793511658E+00  0.0000000000000E+00
-0.6068086902216E+00  0.5250205862388E+00  0.0000000000000E+00
-0.6264859584892E+00  0.5573618213118E+00  0.0000000000000E+00
-0.6461632267567E+00  0.5897030563848E+00  0.0000000000000E+00
-0.6658404950243E+00  0.6220442914577E+00  0.0000000000000E+00
-0.6855177632919E+00  0.6543855265307E+00  0.0000000000000E+00
-0.7051950315595E+00  0.6867267616037E+00  0.0000000000000E+00
-0.7248722998271E+00  0.7190679966767E+00  0.0000000000000E+00
-0.7445495680947E+00  0.7514092317496E+00  0.0000000000000E+00
-0.7642268363623E+00  0.7837504668226E+00  0.0000000000000E+00
-0.7839041046299E+00  0.8160917018956E+00  0.0000000000000E+00
-0.8035813728974E+00  0.8484329369686E+00  0.0000000000000E+00
-0.8232586411650E+00  0.8807741720415E+00  0.0000000000000E+00
-0.8429359094326E+00  0.9131154071145E+00  0.0000000000000E+00
-0.8626131777002E+00  0.9454566421875E+00  0.0000000000000E+00
-0.8822904459678E+00  0.9777978772605E+00  0.0000000000000E+00
-0.9019677142354E+00  0.1010139112333E+01  0.0000000000000E+00
-0.5091428679054E+00  0.4356052711820E+00  0.0000000000000E+00
-0.5275166038674E+00  0.4687606222180E+00  0.0000000000000E+00
-0.5458903398295E+00  0.5019159732541E+00  0.0000000000000E+00
-0.5642640757915E+00  0.5350713242901E+00  0.0000000000000E+00
-0.5826378117536E+00  0.5682266753261E+00  0.0000000000000E+00
-0.6010115477157E+00  0.6013820263622E+00  0.0000000000000E+00
-0.6193852836777E+00  0.6345373773982E+00  0.0000000000000E+00
-0.6377590196398E+00  0.6676927284343E+00  0.0000000000000E+00
-0.6561327556018E+00  0.7008480794703E+00  0.0000000000000E+00
-0.6745064915639E+00  0.7340034305064E+00  0.0000000000000E+00
-0.6928802275259E+00  0.7671587815424E+00  0.0000000000000E+00
-0.7112539634880E+00  0.8003141325785E+00  0.0000000000000E+00
-0.7296276994500E+00  0.8334694836145E+00  0.0000000000000E+00
-0.7480014354121E+00  0.8666248346506E+00  0.0000000000000E+00
-0.7663751713741E+00  0.8997801856866E+00  0.0000000000000E+00
-0.7847489073362E+00  0.9329355367227E+00  0.0000000000000E+00
-0.8031226432983E+00  0.9660908877587E+00  0.0000000000000E+00
-0.8214963792603E+00  0.9992462387948E+00  0.0000000000000E+00
-0.8398701152224E+00  0.1032401589831E+01  0.0000000000000E+00
-0.4704201189630E+00  0.4427312295667E+00  0.0000000000000E+00
-0.4874864927934E+00  0.4767023850508E+00  0.0000000000000E+00
-0.5045528666239E+00  0.5106735405349E+00  0.0000000000000E+00
-0.5216192404544E+00  0.5446446960190E+00  0.0000000000000E+00
-0.5386856142848E+00  0.5786158515031E+00  0.0000000000000E+00
-0.5557519881153E+00  0.6125870069873E+00  0.0000000000000E+00
-0.5728183619458E+00  0.6465581624714E+00  0.0000000000000E+00
-0.5898847357762E+00  0.6805293179555E+00  0.0000000000000E+00
-0.6069511096067E+00  0.7145004734396E+00  0.0000000000000E+00
-0.6240174834372E+00  0.7484716289237E+00  0.0000000000000E+00
-0.6410838572677E+00  0.7824427844079E+00  0.0000000000000E+00
-0.6581502310981E+00  0.8164139398920E+00  0.0000000000000E+00
-0.6752166049286E+00  0.8503850953761E+00  0.0000000000000E+00
-0.6922829787591E+00  0.8843562508602E+00  0.0000000000000E+00
-0.7093493525895E+00  0.9183274063443E+00  0.0000000000000E+00
-0.7264157264200E+00  0.9522985618284E+00  0.0000000000000E+00
-0.7434821002505E+00  0.9862697173126E+00  0.0000000000000E+00
-0.7605484740810E+00  0.1020240872797E+01  0.0000000000000E+00
-0.7776148479114E+00  0.1054212028281E+01  0.0000000000000E+00
-0.4316001604194E+00  0.4493289287895E+00  0.0000000000000E+00
-0.4473410322604E+00  0.4840760209663E+00  0.0000000000000E+00
-0.4630819041013E+00  0.5188231131430E+00  0.0000000000000E+00
-0.4788227759422E+00  0.5535702053198E+00  0.0000000000000E+00
-0.4945636477831E+00  0.5883172974965E+00  0.0000000000000E+00
-0.5103045196240E+00  0.6230643896733E+00  0.0000000000000E+00
-0.5260453914650E+00  0.6578114818500E+00  0.0000000000000E+00
-0.5417862633059E+00  0.6925585740268E+00  0.0000000000000E+00
-0.5575271351468E+00  0.7273056662035E+00  0.0000000000000E+00
-0.5732680069877E+00  0.7620527583802E+00  0.0000000000000E+00
-0.5890088788287E+00  0.7967998505570E+00  0.0000000000000E+00
-0.6047497506696E+00  0.8315469427337E+00  0.0000000000000E+00
-0.6204906225105E+00  0.8662940349105E+00  0.0000000000000E+00
-0.6362314943514E+00  0.9010411270872E+00  0.0000000000000E+00
-0.6519723661924E+00  0.9357882192640E+00  0.0000000000000E+00
-0.6677132380333E+00  0.9705353114407E+00  0.0000000000000E+00
-0.6834541098742E+00  0.1005282403617E+01  0.0000000000000E+00
-0.6991949817151E+00  0.1040029495794E+01  0.0000000000000E+00
-0.7149358535560E+00  0.1074776587971E+01  0.0000000000000E+00
-0.3926829942859E+00  0.4553717726819E+00  0.0000000000000E+00
-0.4070743133994E+00  0.4908323142830E+00  0.0000000000000E+00
-0.4214656325129E+00  0.5262928558841E+00  0.0000000000000E+00
-0.4358569516264E+00  0.5617533974853E+00  0.0000000000000E+00
-0.4502482707400E+00  0.5972139390864E+00  0.0000000000000E+00
-0.4646395898535E+00  0.6326744806875E+00  0.0000000000000E+00
-0.4790309089670E+00  0.6681350222886E+00  0.0000000000000E+00
-0.4934222280806E+00  0.7035955638897E+00  0.0000000000000E+00
-0.5078135471941E+00  0.7390561054908E+00  0.0000000000000E+00
-0.5222048663076E+00  0.7745166470919E+00  0.0000000000000E+00
-0.5365961854212E+00  0.8099771886930E+00  0.0000000000000E+00
-0.5509875045347E+00  0.8454377302941E+00  0.0000000000000E+00
-0.5653788236482E+00  0.8808982718952E+00  0.0000000000000E+00
-0.5797701427618E+00  0.9163588134963E+00  0.0000000000000E+00
-0.5941614618753E+00  0.9518193550975E+00  0.0000000000000E+00
-0.6085527809888E+00  0.9872798966986E+00  0.0000000000000E+00
-0.6229441001024E+00  0.1022740438300E+01  0.0000000000000E+00
-0.6373354192159E+00  0.1058200979901E+01  0.0000000000000E+00
-0.6517267383294E+00  0.1093661521502E+01  0.0000000000000E+00
-0.3536746458292E+00  0.4608476922473E+00  0.0000000000000E+00
-0.3666922613378E+00  0.4969508181436E+00  0.0000000000000E+00
-0.3797098768463E+00  0.5330539440399E+00  0.0000000000000E+00
-0.3927274923549E+00  0.5691570699361E+00  0.0000000000000E+00
-0.4057451078635E+00  0.6052601958324E+00  0.0000000000000E+00
-0.4187627233720E+00  0.6413633217287E+00  0.0000000000000E+00
-0.4317803388806E+00  0.6774664476250E+00  0.0000000000000E+00
-0.4447979543892E+00  0.7135695735212E+00  0.0000000000000E+00
-0.4578155698977E+00  0.7496726994175E+00  0.0000000000000E+00
-0.4708331854063E+00  0.7857758253138E+00  0.0000000000000E+00
-0.4838508009149E+00  0.8218789512100E+00  0.0000000000000E+00
-0.4968684164235E+00  0.8579820771063E+00  0.0000000000000E+00
-0.5098860319320E+00  0.8940852030026E+00  0.0000000000000E+00
-0.5229036474406E+00  0.9301883288989E+00  0.0000000000000E+00
-0.5359212629492E+00  0.9662914547951E+00  0.0000000000000E+00
-0.5489388784577E+00  0.1002394580691E+01  0.0000000000000E+00
-0.5619564939663E+00  0.1038497706588E+01  0.0000000000000E+00
-0.5749741094749E+00  0.1074600832484E+01  0.0000000000000E+00
-0.5879917249834E+00  0.1110703958380E+01  0.0000000000000E+00
-0.3145837448712E+00  0.4657520002446E+00  0.0000000000000E+00
-0.3262058732712E+00  0.5024255397187E+00  0.0000000000000E+00
-0.3378280016712E+00  0.5390990791928E+00  0.0000000000000E+00
-0.3494501300712E+00  0.5757726186668E+00  0.0000000000000E+00
-0.3610722584712E+00  0.6124461581409E+00  0.0000000000000E+00
-0.3726943868712E+00  0.6491196976150E+00  0.0000000000000E+00
-0.3843165152712E+00  0.6857932370891E+00  0.0000000000000E+00
-0.3959386436712E+00  0.7224667765632E+00  0.0000000000000E+00
-0.4075607720712E+00  0.7591403160373E+00  0.0000000000000E+00
-0.4191829004712E+00  0.7958138555114E+00  0.0000000000000E+00
-0.4308050288712E+00  0.8324873949855E+00  0.0000000000000E+00
-0.4424271572712E+00  0.8691609344596E+00  0.0000000000000E+00
-0.4540492856712E+00  0.9058344739336E+00  0.0000000000000E+00
-0.4656714140712E+00  0.9425080134077E+00  0.0000000000000E+00
-0.4772935424712E+00  0.9791815528818E+00  0.0000000000000E+00
-0.4889156708713E+00  0.1015855092356E+01  0.0000000000000E+00
-0.5005377992713E+00  0.1052528631830E+01  0.0000000000000E+00
-0.5121599276713E+00  0.1089202171304E+01  0.0000000000000E+00
-0.5237820560713E+00  0.1125875710778E+01  0.0000000000000E+00
-0.2754196909618E+00  0.4700832706777E+00  0.0000000000000E+00
-0.2856275626982E+00  0.5072566872297E+00  0.0000000000000E+00
-0.2958354344346E+00  0.5444301037817E+00  0.0000000000000E+00
-0.3060433061710E+00  0.5816035203337E+00  0.0000000000000E+00
-0.3162511779074E+00  0.6187769368857E+00  0.0000000000000E+00
-0.3264590496438E+00  0.6559503534378E+00  0.0000000000000E+00
-0.3366669213802E+00  0.6931237699898E+00  0.0000000000000E+00
-0.3468747931166E+00  0.7302971865418E+00  0.0000000000000E+00
-0.3570826648530E+00  0.7674706030938E+00  0.0000000000000E+00
-0.3672905365894E+00  0.8046440196458E+00  0.0000000000000E+00
-0.3774984083258E+00  0.8418174361978E+00  0.0000000000000E+00
-0.3877062800623E+00  0.8789908527498E+00  0.0000000000000E+00
-0.3979141517987E+00  0.9161642693018E+00  0.0000000000000E+00
-0.4081220235351E+00  0.9533376858538E+00  0.0000000000000E+00
-0.4183298952715E+00  0.9905111024059E+00  0.0000000000000E+00
-0.4285377670079E+00  0.1027684518958E+01  0.0000000000000E+00
-0.4387456387443E+00  0.1064857935510E+01  0.0000000000000E+00
-0.4489535104807E+00  0.1102031352062E+01  0.0000000000000E+00
-0.4591613822171E+00  0.1139204768614E+01  0.0000000000000E+00
-0.2361919209299E+00  0.4738412269098E+00  0.0000000000000E+00
-0.2449696928514E+00  0.5114464367078E+00  0.0000000000000E+00
-0.2537474647729E+00  0.5490516465058E+00  0.0000000000000E+00
-0.2625252366944E+00  0.5866568563038E+00  0.0000000000000E+00
-0.2713030086160E+00  0.6242620661018E+00  0.0000000000000E+00
-0.2800807805375E+00  0.6618672758998E+00  0.0000000000000E+00
-0.2888585524590E+00  0.6994724856977E+00  0.0000000000000E+00
-0.2976363243805E+00  0.7370776954957E+00  0.0000000000000E+00
-0.3064140963021E+00  0.7746829052937E+00  0.0000000000000E+00
-0.3151918682236E+00  0.8122881150917E+00  0.0000000000000E+00
-0.3239696401451E+00  0.8498933248897E+00  0.0000000000000E+00
-0.3327474120667E+00  0.8874985346877E+00  0.0000000000000E+00
-0.3415251839882E+00  0.9251037444857E+00  0.0000000000000E+00
-0.3503029559097E+00  0.9627089542837E+00  0.0000000000000E+00
-0.3590807278312E+00  0.1000314164082E+01  0.0000000000000E+00
-0.3678584997528E+00  0.1037919373880E+01  0.0000000000000E+00
-0.3766362716743E+00  0.1075524583678E+01  0.0000000000000E+00
-0.3854140435958E+00  0.1113129793476E+01  0.0000000000000E+00
-0.3941918155173E+00  0.1150735003274E+01  0.0000000000000E+00
-0.1969098270509E+00  0.4770256980868E+00  0.0000000000000E+00
-0.2042444088384E+00  0.5149968355198E+00  0.0000000000000E+00
-0.2115789906258E+00  0.5529679729529E+00  0.0000000000000E+00
-0.2189135724133E+00  0.5909391103860E+00  0.0000000000000E+00
-0.2262481542008E+00  0.6289102478191E+00  0.0000000000000E+00
-0.2335827359883E+00  0.6668813852521E+00  0.0000000000000E+00
-0.2409173177758E+00  0.7048525226852E+00  0.0000000000000E+00
-0.2482518995633E+00  0.7428236601183E+00  0.0000000000000E+00
-0.2555864813508E+00  0.7807947975513E+00  0.0000000000000E+00
-0.2629210631383E+00  0.8187659349844E+00  0.0000000000000E+00
-0.2702556449257E+00  0.8567370724175E+00  0.0000000000000E+00
-0.2775902267132E+00  0.8947082098506E+00  0.0000000000000E+00
-0.2849248085007E+00  0.9326793472836E+00  0.0000000000000E+00
-0.2922593902882E+00  0.9706504847167E+00  0.0000000000000E+00
-0.2995939720757E+00  0.1008621622150E+01  0.0000000000000E+00
-0.3069285538632E+00  0.1046592759583E+01  0.0000000000000E+00
-0.3142631356507E+00  0.1084563897016E+01  0.0000000000000E+00
-0.3215977174382E+00  0.1122535034449E+01  0.0000000000000E+00
-0.3289322992256E+00  0.1160506171882E+01  0.0000000000000E+00
-0.1575825437874E+00  0.4796361627817E+00  0.0000000000000E+00
-0.1634632579838E+00  0.5179088773513E+00  0.0000000000000E+00
-0.1693439721801E+00  0.5561815919210E+00  0.0000000000000E+00
-0.1752246863765E+00  0.5944543064906E+00  0.0000000000000E+00
-0.1811054005728E+00  0.6327270210602E+00  0.0000000000000E+00
-0.1869861147692E+00  0.6709997356298E+00  0.0000000000000E+00
-0.1928668289655E+00  0.7092724501995E+00  0.0000000000000E+00
-0.1987475431619E+00  0.7475451647691E+00  0.0000000000000E+00
-0.2046282573582E+00  0.7858178793387E+00  0.0000000000000E+00
-0.2105089715546E+00  0.8240905939083E+00  0.0000000000000E+00
-0.2163896857509E+00  0.8623633084779E+00  0.0000000000000E+00
-0.2222703999473E+00  0.9006360230476E+00  0.0000000000000E+00
-0.2281511141436E+00  0.9389087376172E+00  0.0000000000000E+00
-0.2340318283400E+00  0.9771814521868E+00  0.0000000000000E+00
-0.2399125425363E+00  0.1015454166756E+01  0.0000000000000E+00
-0.2457932567327E+00  0.1053726881326E+01  0.0000000000000E+00
-0.2516739709290E+00  0.1091999595896E+01  0.0000000000000E+00
-0.2575546851254E+00  0.1130272310465E+01  0.0000000000000E+00
-0.2634353993217E+00  0.1168545025035E+01  0.0000000000000E+00
-0.1182190059601E+00  0.4816714823591E+00  0.0000000000000E+00
-0.1226373068009E+00  0.5201819624472E+00  0.0000000000000E+00
-0.1270556076417E+00  0.5586924425354E+00  0.0000000000000E+00
-0.1314739084825E+00  0.5972029226235E+00  0.0000000000000E+00
-0.1358922093234E+00  0.6357134027116E+00  0.0000000000000E+00
-0.1403105101642E+00  0.6742238827997E+00  0.0000000000000E+00
-0.1447288110050E+00  0.7127343628879E+00  0.0000000000000E+00
-0.1491471118458E+00  0.7512448429760E+00  0.0000000000000E+00
-0.1535654126866E+00  0.7897553230641E+00  0.0000000000000E+00
-0.1579837135274E+00  0.8282658031523E+00  0.0000000000000E+00
-0.1624020143682E+00  0.8667762832404E+00  0.0000000000000E+00
-0.1668203152090E+00  0.9052867633285E+00  0.0000000000000E+00
-0.1712386160498E+00  0.9437972434166E+00  0.0000000000000E+00
-0.1756569168906E+00  0.9823077235048E+00  0.0000000000000E+00
-0.1800752177314E+00  0.1020818203593E+01  0.0000000000000E+00
-0.1844935185722E+00  0.1059328683681E+01  0.0000000000000E+00
-0.1889118194131E+00  0.1097839163769E+01  0.0000000000000E+00
-0.1933301202539E+00  0.1136349643857E+01  0.0000000000000E+00
-0.1977484210947E+00  0.1174860123945E+01  0.0000000000000E+00
-0.7882810581620E-01  0.4831297079839E+00  0.0000000000000E+00
-0.8177747086543E-01  0.5218135049328E+00  0.0000000000000E+00
-0.8472683591466E-01  0.5604973018818E+00  0.0000000000000E+00
-0.8767620096390E-01  0.5991810988308E+00  0.0000000000000E+00
-0.9062556601313E-01  0.6378648957797E+00  0.0000000000000E+00
-0.9357493106237E-01  0.6765486927287E+00  0.0000000000000E+00
-0.9652429611160E-01  0.7152324896776E+00  0.0000000000000E+00
-0.9947366116083E-01  0.7539162866266E+00  0.0000000000000E+00
-0.1024230262101E+00  0.7926000835756E+00  0.0000000000000E+00
-0.1053723912593E+00  0.8312838805245E+00  0.0000000000000E+00
-0.1083217563085E+00  0.8699676774735E+00  0.0000000000000E+00
-0.1112711213578E+00  0.9086514744224E+00  0.0000000000000E+00
-0.1142204864070E+00  0.9473352713714E+00  0.0000000000000E+00
-0.1171698514562E+00  0.9860190683204E+00  0.0000000000000E+00
-0.1201192165055E+00  0.1024702865269E+01  0.0000000000000E+00
-0.1230685815547E+00  0.1063386662218E+01  0.0000000000000E+00
-0.1260179466039E+00  0.1102070459167E+01  0.0000000000000E+00
-0.1289673116532E+00  0.1140754256116E+01  0.0000000000000E+00
-0.1319166767024E+00  0.1179438053065E+01  0.0000000000000E+00
-0.3941874312013E-01  0.4840078928243E+00  0.0000000000000E+00
-0.4089463112221E-01  0.5227985519517E+00  0.0000000000000E+00
-0.4237051912429E-01  0.5615892110790E+00  0.0000000000000E+00
-0.4384640712637E-01  0.6003798702064E+00  0.0000000000000E+00
-0.4532229512845E-01  0.6391705293337E+00  0.0000000000000E+00
-0.4679818313053E-01  0.6779611884610E+00  0.0000000000000E+00
-0.4827407113261E-01  0.7167518475884E+00  0.0000000000000E+00
-0.4974995913469E-01  0.7555425067157E+00  0.0000000000000E+00
-0.5122584713677E-01  0.7943331658430E+00  0.0000000000000E+00
-0.5270173513885E-01  0.8331238249704E+00  0.0000000000000E+00
-0.5417762314093E-01  0.8719144840977E+00  0.0000000000000E+00
-0.5565351114301E-01  0.9107051432250E+00  0.0000000000000E+00
-0.5712939914509E-01  0.9494958023524E+00  0.0000000000000E+00
-0.5860528714717E-01  0.9882864614797E+00  0.0000000000000E+00
-0.6008117514925E-01  0.1027077120607E+01  0.0000000000000E+00
-0.6155706315133E-01  0.1065867779734E+01  0.0000000000000E+00
-0.6303295115341E-01  0.1104658438862E+01  0.0000000000000E+00
-0.6450883915549E-01  0.1143449097989E+01  0.0000000000000E+00
-0.6598472715757E-01  0.1182239757116E+01  0.0000000000000E+00
 0.2029389626142E-10  0.4843018200064E+00  0.0000000000000E+00
 0.4058818043640E-10  0.5231292357807E+00  0.0000000000000E+00
 0.6088245073360E-10  0.5619566515550E+00  0.0000000000000E+00
 0.8117677654195E-10  0.6007840673293E+00  0.0000000000000E+00
 0.1014709774502E-09  0.6396114831037E+00  0.0000000000000E+00
 0.1217652893808E-09  0.6784388988780E+00  0.0000000000000E+00
 0.1420595458002E-09  0.7172663146523E+00  0.0000000000000E+00
 0.1623538299752E-09  0.7560937304266E+00  0.0000000000000E+00
 0.1826479198611E-09  0.7949211462009E+00  0.0000000000000E+00
 0.2029422873028E-09  0.8337485619753E+00  0.0000000000000E+00
 0.2232365992334E-09  0.8725759777496E+00  0.0000000000000E+00
 0.2435308556528E-09  0.9114033935239E+00  0.0000000000000E+00
 0.2638250010499E-09  0.9502308092982E+00  0.0000000000000E+00
 0.2841192574693E-09  0.9890582250725E+00  0.0000000000000E+00
 0.3044134583776E-09  0.1027885640847E+01  0.0000000000000E+00
 0.3247076037747E-09  0.1066713056621E+01  0.0000000000000E+00
 0.3450020822387E-09  0.1105540472396E+01  0.0000000000000E+00
 0.3652963386581E-09  0.1144367888170E+01  0.0000000000000E+00
 0.3855903730329E-09  0.1183195303944E+01  0.0000000000000E+00
 0.3941874316069E-01  0.4840078928230E+00  0.0000000000000E+00
 0.4089463120334E-01  0.5227985519491E+00  0.0000000000000E+00
 0.4237051924599E-01  0.5615892110751E+00  0.0000000000000E+00
 0.4384640728863E-01  0.6003798702011E+00  0.0000000000000E+00
 0.4532229533128E-01  0.6391705293271E+00  0.0000000000000E+00
 0.4679818337393E-01  0.6779611884531E+00  0.0000000000000E+00
 0.4827407141658E-01  0.7167518475791E+00  0.0000000000000E+00
 0.4974995945922E-01  0.7555425067052E+00  0.0000000000000E+00
 0.5122584750187E-01  0.7943331658312E+00  0.0000000000000E+00
 0.5270173554452E-01  0.8331238249572E+00  0.0000000000000E+00
 0.5417762358717E-01  0.8719144840832E+00  0.0000000000000E+00
 0.5565351162981E-01  0.9107051432092E+00  0.0000000000000E+00
 0.5712939967246E-01  0.9494958023353E+00  0.0000000000000E+00
 0.5860528771511E-01  0.9882864614613E+00  0.0000000000000E+00
 0.6008117575775E-01  0.1027077120587E+01  0.0000000000000E+00
 0.6155706380040E-01  0.1065867779713E+01  0.0000000000000E+00
 0.6303295184305E-01  0.1104658438839E+01  0.0000000000000E+00
 0.6450883988570E-01  0.1143449097965E+01  0.0000000000000E+00
 0.6598472792834E-01  0.1182239757091E+01  0.0000000000000E+00
 0.7882810585671E-01  0.4831297079813E+00  0.0000000000000E+00
 0.8177747094646E-01  0.5218135049277E+00  0.0000000000000E+00
 0.8472683603621E-01  0.5604973018741E+00  0.0000000000000E+00
 0.8767620112596E-01  0.5991810988204E+00  0.0000000000000E+00
 0.9062556621572E-01  0.6378648957668E+00  0.0000000000000E+00
 0.9357493130547E-01  0.6765486927132E+00  0.0000000000000E+00
 0.9652429639522E-01  0.7152324896596E+00  0.0000000000000E+00
 0.9947366148497E-01  0.7539162866059E+00  0.0000000000000E+00
 0.1024230265747E+00  0.7926000835523E+00  0.0000000000000E+00
 0.1053723916645E+00  0.8312838804987E+00  0.0000000000000E+00
 0.1083217567542E+00  0.8699676774451E+00  0.0000000000000E+00
 0.1112711218440E+00  0.9086514743914E+00  0.0000000000000E+00
 0.1142204869337E+00  0.9473352713378E+00  0.0000000000000E+00
 0.1171698520235E+00  0.9860190682842E+00  0.0000000000000E+00
 0.1201192171132E+00  0.1024702865231E+01  0.0000000000000E+00
 0.1230685822030E+00  0.1063386662177E+01  0.0000000000000E+00
 0.1260179472927E+00  0.1102070459123E+01  0.0000000000000E+00
 0.1289673123825E+00  0.1140754256070E+01  0.0000000000000E+00
 0.1319166774722E+00  0.1179438053016E+01  0.0000000000000E+00
 0.1182190060006E+00  0.4816714823553E+00  0.0000000000000E+00
 0.1226373068818E+00  0.5201819624396E+00  0.0000000000000E+00
 0.1270556077630E+00  0.5586924425239E+00  0.0000000000000E+00
 0.1314739086443E+00  0.5972029226082E+00  0.0000000000000E+00
 0.1358922095255E+00  0.6357134026926E+00  0.0000000000000E+00
 0.1403105104068E+00  0.6742238827769E+00  0.0000000000000E+00
 0.1447288112880E+00  0.7127343628612E+00  0.0000000000000E+00
 0.1491471121693E+00  0.7512448429455E+00  0.0000000000000E+00
 0.1535654130505E+00  0.7897553230298E+00  0.0000000000000E+00
 0.1579837139318E+00  0.8282658031141E+00  0.0000000000000E+00
 0.1624020148130E+00  0.8667762831985E+00  0.0000000000000E+00
 0.1668203156943E+00  0.9052867632828E+00  0.0000000000000E+00
 0.1712386165755E+00  0.9437972433671E+00  0.0000000000000E+00
 0.1756569174567E+00  0.9823077234514E+00  0.0000000000000E+00
 0.1800752183380E+00  0.1020818203536E+01  0.0000000000000E+00
 0.1844935192192E+00  0.1059328683620E+01  0.0000000000000E+00
 0.1889118201005E+00  0.1097839163704E+01  0.0000000000000E+00
 0.1933301209817E+00  0.1136349643789E+01  0.0000000000000E+00
 0.1977484218630E+00  0.1174860123873E+01  0.0000000000000E+00
 0.1575825438277E+00  0.4796361627767E+00  0.0000000000000E+00
 0.1634632580644E+00  0.5179088773413E+00  0.0000000000000E+00
 0.1693439723011E+00  0.5561815919059E+00  0.0000000000000E+00
 0.1752246865377E+00  0.5944543064706E+00  0.0000000000000E+00
 0.1811054007744E+00  0.6327270210352E+00  0.0000000000000E+00
 0.1869861150110E+00  0.6709997355998E+00  0.0000000000000E+00
 0.1928668292477E+00  0.7092724501644E+00  0.0000000000000E+00
 0.1987475434844E+00  0.7475451647290E+00  0.0000000000000E+00
 0.2046282577210E+00  0.7858178792936E+00  0.0000000000000E+00
 0.2105089719577E+00  0.8240905938582E+00  0.0000000000000E+00
 0.2163896861943E+00  0.8623633084229E+00  0.0000000000000E+00
 0.2222704004310E+00  0.9006360229875E+00  0.0000000000000E+00
 0.2281511146677E+00  0.9389087375521E+00  0.0000000000000E+00
 0.2340318289043E+00  0.9771814521167E+00  0.0000000000000E+00
 0.2399125431410E+00  0.1015454166681E+01  0.0000000000000E+00
 0.2457932573776E+00  0.1053726881246E+01  0.0000000000000E+00
 0.2516739716143E+00  0.1091999595811E+01  0.0000000000000E+00
 0.2575546858510E+00  0.1130272310375E+01  0.0000000000000E+00
 0.2634354000876E+00  0.1168545024940E+01  0.0000000000000E+00
 0.1969098270910E+00  0.4770256980806E+00  0.0000000000000E+00
 0.2042444089187E+00  0.5149968355075E+00  0.0000000000000E+00
 0.2115789907463E+00  0.5529679729344E+00  0.0000000000000E+00
 0.2189135725740E+00  0.5909391103613E+00  0.0000000000000E+00
 0.2262481544016E+00  0.6289102477881E+00  0.0000000000000E+00
 0.2335827362293E+00  0.6668813852150E+00  0.0000000000000E+00
 0.2409173180569E+00  0.7048525226419E+00  0.0000000000000E+00
 0.2482518998846E+00  0.7428236600688E+00  0.0000000000000E+00
 0.2555864817122E+00  0.7807947974957E+00  0.0000000000000E+00
 0.2629210635399E+00  0.8187659349226E+00  0.0000000000000E+00
 0.2702556453675E+00  0.8567370723495E+00  0.0000000000000E+00
 0.2775902271952E+00  0.8947082097764E+00  0.0000000000000E+00
 0.2849248090228E+00  0.9326793472033E+00  0.0000000000000E+00
 0.2922593908505E+00  0.9706504846302E+00  0.0000000000000E+00
 0.2995939726781E+00  0.1008621622057E+01  0.0000000000000E+00
 0.3069285545058E+00  0.1046592759484E+01  0.0000000000000E+00
 0.3142631363334E+00  0.1084563896911E+01  0.0000000000000E+00
 0.3215977181611E+00  0.1122535034338E+01  0.0000000000000E+00
 0.3289322999887E+00  0.1160506171765E+01  0.0000000000000E+00
 0.2361919209698E+00  0.4738412269025E+00  0.0000000000000E+00
 0.2449696929314E+00  0.5114464366931E+00  0.0000000000000E+00
 0.2537474648929E+00  0.5490516464838E+00  0.0000000000000E+00
 0.2625252368544E+00  0.5866568562744E+00  0.0000000000000E+00
 0.2713030088159E+00  0.6242620660651E+00  0.0000000000000E+00
 0.2800807807774E+00  0.6618672758557E+00  0.0000000000000E+00
 0.2888585527389E+00  0.6994724856464E+00  0.0000000000000E+00
 0.2976363247005E+00  0.7370776954370E+00  0.0000000000000E+00
 0.3064140966620E+00  0.7746829052277E+00  0.0000000000000E+00
 0.3151918686235E+00  0.8122881150183E+00  0.0000000000000E+00
 0.3239696405850E+00  0.8498933248090E+00  0.0000000000000E+00
 0.3327474125465E+00  0.8874985345996E+00  0.0000000000000E+00
 0.3415251845080E+00  0.9251037443903E+00  0.0000000000000E+00
 0.3503029564696E+00  0.9627089541809E+00  0.0000000000000E+00
 0.3590807284311E+00  0.1000314163972E+01  0.0000000000000E+00
 0.3678585003926E+00  0.1037919373762E+01  0.0000000000000E+00
 0.3766362723541E+00  0.1075524583553E+01  0.0000000000000E+00
 0.3854140443156E+00  0.1113129793344E+01  0.0000000000000E+00
 0.3941918162772E+00  0.1150735003134E+01  0.0000000000000E+00
 0.2754196910016E+00  0.4700832706692E+00  0.0000000000000E+00
 0.2856275627779E+00  0.5072566872127E+00  0.0000000000000E+00
 0.2958354345541E+00  0.5444301037562E+00  0.0000000000000E+00
 0.3060433063303E+00  0.5816035202998E+00  0.0000000000000E+00
 0.3162511781066E+00  0.6187769368433E+00  0.0000000000000E+00
 0.3264590498828E+00  0.6559503533868E+00  0.0000000000000E+00
 0.3366669216591E+00  0.6931237699303E+00  0.0000000000000E+00
 0.3468747934353E+00  0.7302971864738E+00  0.0000000000000E+00
 0.3570826652115E+00  0.7674706030173E+00  0.0000000000000E+00
 0.3672905369878E+00  0.8046440195609E+00  0.0000000000000E+00
 0.3774984087640E+00  0.8418174361044E+00  0.0000000000000E+00
 0.3877062805402E+00  0.8789908526479E+00  0.0000000000000E+00
 0.3979141523165E+00  0.9161642691914E+00  0.0000000000000E+00
 0.4081220240927E+00  0.9533376857349E+00  0.0000000000000E+00
 0.4183298958690E+00  0.9905111022785E+00  0.0000000000000E+00
 0.4285377676452E+00  0.1027684518822E+01  0.0000000000000E+00
 0.4387456394214E+00  0.1064857935365E+01  0.0000000000000E+00
 0.4489535111977E+00  0.1102031351909E+01  0.0000000000000E+00
 0.4591613829739E+00  0.1139204768453E+01  0.0000000000000E+00
 0.3145837449108E+00  0.4657520002350E+00  0.0000000000000E+00
 0.3262058733503E+00  0.5024255396995E+00  0.0000000000000E+00
 0.3378280017898E+00  0.5390990791639E+00  0.0000000000000E+00
 0.3494501302294E+00  0.5757726186284E+00  0.0000000000000E+00
 0.3610722586689E+00  0.6124461580929E+00  0.0000000000000E+00
 0.3726943871084E+00  0.6491196975574E+00  0.0000000000000E+00
 0.3843165155480E+00  0.6857932370219E+00  0.0000000000000E+00
 0.3959386439875E+00  0.7224667764863E+00  0.0000000000000E+00
 0.4075607724270E+00  0.7591403159508E+00  0.0000000000000E+00
 0.4191829008666E+00  0.7958138554153E+00  0.0000000000000E+00
 0.4308050293061E+00  0.8324873948798E+00  0.0000000000000E+00
 0.4424271577456E+00  0.8691609343443E+00  0.0000000000000E+00
 0.4540492861852E+00  0.9058344738087E+00  0.0000000000000E+00
 0.4656714146247E+00  0.9425080132732E+00  0.0000000000000E+00
 0.4772935430642E+00  0.9791815527377E+00  0.0000000000000E+00
 0.4889156715038E+00  0.1015855092202E+01  0.0000000000000E+00
 0.5005377999433E+00  0.1052528631667E+01  0.0000000000000E+00
 0.5121599283828E+00  0.1089202171131E+01  0.0000000000000E+00
 0.5237820568224E+00  0.1125875710596E+01  0.0000000000000E+00
 0.3536746458685E+00  0.4608476922366E+00  0.0000000000000E+00
 0.3666922614163E+00  0.4969508181222E+00  0.0000000000000E+00
 0.3797098769641E+00  0.5330539440077E+00  0.0000000000000E+00
 0.3927274925120E+00  0.5691570698933E+00  0.0000000000000E+00
 0.4057451080598E+00  0.6052601957789E+00  0.0000000000000E+00
 0.4187627236076E+00  0.6413633216644E+00  0.0000000000000E+00
 0.4317803391555E+00  0.6774664475500E+00  0.0000000000000E+00
 0.4447979547033E+00  0.7135695734356E+00  0.0000000000000E+00
 0.4578155702512E+00  0.7496726993211E+00  0.0000000000000E+00
 0.4708331857990E+00  0.7857758252067E+00  0.0000000000000E+00
 0.4838508013468E+00  0.8218789510922E+00  0.0000000000000E+00
 0.4968684168947E+00  0.8579820769778E+00  0.0000000000000E+00
 0.5098860324425E+00  0.8940852028634E+00  0.0000000000000E+00
 0.5229036479903E+00  0.9301883287489E+00  0.0000000000000E+00
 0.5359212635382E+00  0.9662914546345E+00  0.0000000000000E+00
 0.5489388790860E+00  0.1002394580520E+01  0.0000000000000E+00
 0.5619564946338E+00  0.1038497706406E+01  0.0000000000000E+00
 0.5749741101817E+00  0.1074600832291E+01  0.0000000000000E+00
 0.5879917257295E+00  0.1110703958177E+01  0.0000000000000E+00
 0.3926829943248E+00  0.4553717726702E+00  0.0000000000000E+00
 0.4070743134774E+00  0.4908323142595E+00  0.0000000000000E+00
 0.4214656326299E+00  0.5262928558488E+00  0.0000000000000E+00
 0.4358569517824E+00  0.5617533974382E+00  0.0000000000000E+00
 0.4502482709349E+00  0.5972139390275E+00  0.0000000000000E+00
 0.4646395900874E+00  0.6326744806169E+00  0.0000000000000E+00
 0.4790309092400E+00  0.6681350222062E+00  0.0000000000000E+00
 0.4934222283925E+00  0.7035955637956E+00  0.0000000000000E+00
 0.5078135475450E+00  0.7390561053849E+00  0.0000000000000E+00
 0.5222048666975E+00  0.7745166469743E+00  0.0000000000000E+00
 0.5365961858501E+00  0.8099771885636E+00  0.0000000000000E+00
 0.5509875050026E+00  0.8454377301529E+00  0.0000000000000E+00
 0.5653788241551E+00  0.8808982717423E+00  0.0000000000000E+00
 0.5797701433076E+00  0.9163588133316E+00  0.0000000000000E+00
 0.5941614624601E+00  0.9518193549210E+00  0.0000000000000E+00
 0.6085527816127E+00  0.9872798965103E+00  0.0000000000000E+00
 0.6229441007652E+00  0.1022740438100E+01  0.0000000000000E+00
 0.6373354199177E+00  0.1058200979689E+01  0.0000000000000E+00
 0.6517267390702E+00  0.1093661521278E+01  0.0000000000000E+00
 0.4316001604581E+00  0.4493289287768E+00  0.0000000000000E+00
 0.4473410323378E+00  0.4840760209408E+00  0.0000000000000E+00
 0.4630819042174E+00  0.5188231131049E+00  0.0000000000000E+00
 0.4788227760970E+00  0.5535702052689E+00  0.0000000000000E+00
 0.4945636479767E+00  0.5883172974329E+00  0.0000000000000E+00
 0.5103045198563E+00  0.6230643895969E+00  0.0000000000000E+00
 0.5260453917359E+00  0.6578114817609E+00  0.0000000000000E+00
 0.5417862636155E+00  0.6925585739250E+00  0.0000000000000E+00
 0.5575271354952E+00  0.7273056660890E+00  0.0000000000000E+00
 0.5732680073748E+00  0.7620527582530E+00  0.0000000000000E+00
 0.5890088792544E+00  0.7967998504170E+00  0.0000000000000E+00
 0.6047497511341E+00  0.8315469425810E+00  0.0000000000000E+00
 0.6204906230137E+00  0.8662940347451E+00  0.0000000000000E+00
 0.6362314948933E+00  0.9010411269091E+00  0.0000000000000E+00
 0.6519723667730E+00  0.9357882190731E+00  0.0000000000000E+00
 0.6677132386526E+00  0.9705353112371E+00  0.0000000000000E+00
 0.6834541105322E+00  0.1005282403401E+01  0.0000000000000E+00
 0.6991949824118E+00  0.1040029495565E+01  0.0000000000000E+00
 0.7149358542915E+00  0.1074776587729E+01  0.0000000000000E+00
 0.4704201190014E+00  0.4427312295532E+00  0.0000000000000E+00
 0.4874864928703E+00  0.4767023850238E+00  0.0000000000000E+00
 0.5045528667393E+00  0.5106735404944E+00  0.0000000000000E+00
 0.5216192406082E+00  0.5446446959651E+00  0.0000000000000E+00
 0.5386856144772E+00  0.5786158514357E+00  0.0000000000000E+00
 0.5557519883461E+00  0.6125870069063E+00  0.0000000000000E+00
 0.5728183622150E+00  0.6465581623769E+00  0.0000000000000E+00
 0.5898847360840E+00  0.6805293178476E+00  0.0000000000000E+00
 0.6069511099529E+00  0.7145004733182E+00  0.0000000000000E+00
 0.6240174838218E+00  0.7484716287888E+00  0.0000000000000E+00
 0.6410838576908E+00  0.7824427842594E+00  0.0000000000000E+00
 0.6581502315597E+00  0.8164139397300E+00  0.0000000000000E+00
 0.6752166054286E+00  0.8503850952007E+00  0.0000000000000E+00
 0.6922829792976E+00  0.8843562506713E+00  0.0000000000000E+00
 0.7093493531665E+00  0.9183274061419E+00  0.0000000000000E+00
 0.7264157270354E+00  0.9522985616125E+00  0.0000000000000E+00
 0.7434821009044E+00  0.9862697170832E+00  0.0000000000000E+00
 0.7605484747733E+00  0.1020240872554E+01  0.0000000000000E+00
 0.7776148486422E+00  0.1054212028024E+01  0.0000000000000E+00
 0.5091428679437E+00  0.4356052711680E+00  0.0000000000000E+00
 0.5275166039441E+00  0.4687606221902E+00  0.0000000000000E+00
 0.5458903399444E+00  0.5019159732123E+00  0.0000000000000E+00
 0.5642640759448E+00  0.5350713242345E+00  0.0000000000000E+00
 0.5826378119451E+00  0.5682266752566E+00  0.0000000000000E+00
 0.6010115479455E+00  0.6013820262787E+00  0.0000000000000E+00
 0.6193852839459E+00  0.6345373773009E+00  0.0000000000000E+00
 0.6377590199462E+00  0.6676927283230E+00  0.0000000000000E+00
 0.6561327559466E+00  0.7008480793452E+00  0.0000000000000E+00
 0.6745064919470E+00  0.7340034303673E+00  0.0000000000000E+00
 0.6928802279473E+00  0.7671587813894E+00  0.0000000000000E+00
 0.7112539639477E+00  0.8003141324116E+00  0.0000000000000E+00
 0.7296276999480E+00  0.8334694834337E+00  0.0000000000000E+00
 0.7480014359484E+00  0.8666248344558E+00  0.0000000000000E+00
 0.7663751719488E+00  0.8997801854780E+00  0.0000000000000E+00
 0.7847489079491E+00  0.9329355365001E+00  0.0000000000000E+00
 0.8031226439495E+00  0.9660908875223E+00  0.0000000000000E+00
 0.8214963799499E+00  0.9992462385444E+00  0.0000000000000E+00
 0.8398701159502E+00  0.1032401589567E+01  0.0000000000000E+00
 0.5477768854571E+00  0.4279968810059E+00  0.0000000000000E+00
 0.5674541537630E+00  0.4603381160649E+00  0.0000000000000E+00
 0.5871314220688E+00  0.4926793511240E+00  0.0000000000000E+00
 0.6068086903747E+00  0.5250205861830E+00  0.0000000000000E+00
 0.6264859586806E+00  0.5573618212420E+00  0.0000000000000E+00
 0.6461632269865E+00  0.5897030563010E+00  0.0000000000000E+00
 0.6658404952923E+00  0.6220442913601E+00  0.0000000000000E+00
 0.6855177635982E+00  0.6543855264191E+00  0.0000000000000E+00
 0.7051950319041E+00  0.6867267614781E+00  0.0000000000000E+00
 0.7248723002099E+00  0.7190679965371E+00  0.0000000000000E+00
 0.7445495685158E+00  0.7514092315961E+00  0.0000000000000E+00
 0.7642268368217E+00  0.7837504666552E+00  0.0000000000000E+00
 0.7839041051276E+00  0.8160917017142E+00  0.0000000000000E+00
 0.8035813734334E+00  0.8484329367732E+00  0.0000000000000E+00
 0.8232586417393E+00  0.8807741718322E+00  0.0000000000000E+00
 0.8429359100452E+00  0.9131154068912E+00  0.0000000000000E+00
 0.8626131783511E+00  0.9454566419503E+00  0.0000000000000E+00
 0.8822904466569E+00  0.9777978770093E+00  0.0000000000000E+00
 0.9019677149628E+00  0.1010139112068E+01  0.0000000000000E+00
 0.5863228020220E+00  0.4199269192670E+00  0.0000000000000E+00
 0.6073059539494E+00  0.4514720689682E+00  0.0000000000000E+00
 0.6282891058768E+00  0.4830172186695E+00  0.0000000000000E+00
 0.6492722578042E+00  0.5145623683708E+00  0.0000000000000E+00
 0.6702554097316E+00  0.5461075180720E+00  0.0000000000000E+00
 0.6912385616590E+00  0.5776526677733E+00  0.0000000000000E+00
 0.7122217135865E+00  0.6091978174745E+00  0.0000000000000E+00
 0.7332048655139E+00  0.6407429671758E+00  0.0000000000000E+00
 0.7541880174413E+00  0.6722881168770E+00  0.0000000000000E+00
 0.7751711693687E+00  0.7038332665783E+00  0.0000000000000E+00
 0.7961543212961E+00  0.7353784162796E+00  0.0000000000000E+00
 0.8171374732236E+00  0.7669235659808E+00  0.0000000000000E+00
 0.8381206251510E+00  0.7984687156821E+00  0.0000000000000E+00
 0.8591037770784E+00  0.8300138653833E+00  0.0000000000000E+00
 0.8800869290058E+00  0.8615590150846E+00  0.0000000000000E+00
 0.9010700809332E+00  0.8931041647858E+00  0.0000000000000E+00
 0.9220532328607E+00  0.9246493144871E+00  0.0000000000000E+00
 0.9430363847881E+00  0.9561944641884E+00  0.0000000000000E+00
 0.9640195367155E+00  0.9877396138896E+00  0.0000000000000E+00
 0.6247718534565E+00  0.4113904599593E+00  0.0000000000000E+00
 0.6470599870427E+00  0.4421478324182E+00  0.0000000000000E+00
 0.6693481206289E+00  0.4729052048771E+00  0.0000000000000E+00
 0.6916362542152E+00  0.5036625773361E+00  0.0000000000000E+00
 0.7139243878014E+00  0.5344199497950E+00  0.0000000000000E+00
 0.7362125213877E+00  0.5651773222539E+00  0.0000000000000E+00
 0.7585006549739E+00  0.5959346947128E+00  0.0000000000000E+00
 0.7807887885601E+00  0.6266920671718E+00  0.0000000000000E+00
 0.8030769221464E+00  0.6574494396307E+00  0.0000000000000E+00
 0.8253650557326E+00  0.6882068120896E+00  0.0000000000000E+00
 0.8476531893188E+00  0.7189641845486E+00  0.0000000000000E+00
 0.8699413229051E+00  0.7497215570075E+00  0.0000000000000E+00
 0.8922294564913E+00  0.7804789294664E+00  0.0000000000000E+00
 0.9145175900776E+00  0.8112363019254E+00  0.0000000000000E+00
 0.9368057236638E+00  0.8419936743843E+00  0.0000000000000E+00
 0.9590938572500E+00  0.8727510468432E+00  0.0000000000000E+00
 0.9813819908363E+00  0.9035084193021E+00  0.0000000000000E+00
 0.1003670124423E+01  0.9342657917611E+00  0.0000000000000E+00
 0.1025958258009E+01  0.9650231642200E+00  0.0000000000000E+00
 0.6631144762382E+00  0.4023799804640E+00  0.0000000000000E+00
 0.6867022090618E+00  0.4323453794102E+00  0.0000000000000E+00
 0.7102899418854E+00  0.4623107783564E+00  0.0000000000000E+00
 0.7338776747089E+00  0.4922761773027E+00  0.0000000000000E+00
 0.7574654075325E+00  0.5222415762489E+00  0.0000000000000E+00
 0.7810531403561E+00  0.5522069751951E+00  0.0000000000000E+00
 0.8046408731796E+00  0.5821723741413E+00  0.0000000000000E+00
 0.8282286060032E+00  0.6121377730876E+00  0.0000000000000E+00
 0.8518163388268E+00  0.6421031720338E+00  0.0000000000000E+00
 0.8754040716504E+00  0.6720685709800E+00  0.0000000000000E+00
 0.8989918044739E+00  0.7020339699262E+00  0.0000000000000E+00
 0.9225795372975E+00  0.7319993688725E+00  0.0000000000000E+00
 0.9461672701211E+00  0.7619647678187E+00  0.0000000000000E+00
 0.9697550029446E+00  0.7919301667649E+00  0.0000000000000E+00
 0.9933427357682E+00  0.8218955657111E+00  0.0000000000000E+00
 0.1016930468592E+01  0.8518609646574E+00  0.0000000000000E+00
 0.1040518201415E+01  0.8818263636036E+00  0.0000000000000E+00
 0.1064105934239E+01  0.9117917625498E+00  0.0000000000000E+00
 0.1087693667062E+01  0.9417571614961E+00  0.0000000000000E+00
 0.7013395437085E+00  0.3928851883836E+00  0.0000000000000E+00
 0.7262154212153E+00  0.4220388917836E+00  0.0000000000000E+00
 0.7510912987220E+00  0.4511925951835E+00  0.0000000000000E+00
 0.7759671762288E+00  0.4803462985835E+00  0.0000000000000E+00
 0.8008430537356E+00  0.5095000019835E+00  0.0000000000000E+00
 0.8257189312424E+00  0.5386537053834E+00  0.0000000000000E+00
 0.8505948087492E+00  0.5678074087834E+00  0.0000000000000E+00
 0.8754706862560E+00  0.5969611121833E+00  0.0000000000000E+00
 0.9003465637627E+00  0.6261148155833E+00  0.0000000000000E+00
 0.9252224412695E+00  0.6552685189833E+00  0.0000000000000E+00
 0.9500983187763E+00  0.6844222223832E+00  0.0000000000000E+00
 0.9749741962831E+00  0.7135759257832E+00  0.0000000000000E+00
 0.9998500737899E+00  0.7427296291831E+00  0.0000000000000E+00
 0.1024725951297E+01  0.7718833325831E+00  0.0000000000000E+00
 0.1049601828803E+01  0.8010370359831E+00  0.0000000000000E+00
 0.1074477706310E+01  0.8301907393830E+00  0.0000000000000E+00
 0.1099353583817E+01  0.8593444427830E+00  0.0000000000000E+00
 0.1124229461324E+01  0.8884981461829E+00  0.0000000000000E+00
 0.1149105338831E+01  0.9176518495829E+00  0.0000000000000E+00
 0.7394329578610E+00  0.3828904307705E+00  0.0000000000000E+00
 0.7655763768245E+00  0.4111916019715E+00  0.0000000000000E+00
 0.7917197957880E+00  0.4394927731724E+00  0.0000000000000E+00
 0.8178632147515E+00  0.4677939443734E+00  0.0000000000000E+00
 0.8440066337150E+00  0.4960951155743E+00  0.0000000000000E+00
 0.8701500526785E+00  0.5243962867753E+00  0.0000000000000E+00
 0.8962934716420E+00  0.5526974579763E+00  0.0000000000000E+00
 0.9224368906055E+00  0.5809986291772E+00  0.0000000000000E+00
 0.9485803095690E+00  0.6092998003782E+00  0.0000000000000E+00
 0.9747237285325E+00  0.6376009715791E+00  0.0000000000000E+00
 0.1000867147496E+01  0.6659021427801E+00  0.0000000000000E+00
 0.1027010566459E+01  0.6942033139810E+00  0.0000000000000E+00
 0.1053153985423E+01  0.7225044851820E+00  0.0000000000000E+00
 0.1079297404386E+01  0.7508056563830E+00  0.0000000000000E+00
 0.1105440823350E+01  0.7791068275839E+00  0.0000000000000E+00
 0.1131584242313E+01  0.8074079987849E+00  0.0000000000000E+00
 0.1157727661277E+01  0.8357091699858E+00  0.0000000000000E+00
 0.1183871080240E+01  0.8640103411868E+00  0.0000000000000E+00
 0.1210014499204E+01  0.8923115123877E+00  0.0000000000000E+00
</DataArray>
</Points>
<Cells>
<DataArray type="Int64" Name="connectivity" format="ascii">
0 11 438 243
243 438 439 244
244 439 440 245
245 440 441 246
246 441 442 247
247 442 443 248
248 443 444 249
249 444 445 250
250 445 446 251
251 446 447 252
252 447 448 253
253 448 449 254
254 449 450 255
255 450 451 256
256 451 452 257
257 452 453 258
258 453 454 259
259 454 455 260
260 455 456 261
261 456 457 262
262 457 458 263
263 458 459 264
264 459 460 265
265 460 461 266
266 461 462 267
267 462 463 268
268 463 464 269
269 464 465 270
270 465 466 271
271 466 467 272
272 467 468 273
273 468 469 274
274 469 470 275
275 470 471 276
276 471 472 277
277 472 473 278
278 473 474 279
279 474 475 280
280 475 476 281
281 476 477 282
282 477 89 3
11 12 478 438
438 478 479 439
439 479 480 440
440 480 481 441
441 481 482 442
442 482 483 443
443 483 484 444
444 484 485 445
445 485 486 446
446 486 487 447
447 487 488 448
448 488 489 449
449 489 490 450
450 490 491 451
451 491 492 452
452 492 493 453
453 493 494 454
454 494 495 455
455 495 496 456
456 496 497 457
457 497 498 458
458 498 499 459
459 499 500 460
460 500 501 461
461 501 502 462
462 502 503 463
463 503 504 464
464 504 505 465
465 505 506 466
466 506 507 467
467 507 508 468
468 508 509 469
469 509 510 470
470 510 511 471
471 511 512 472
472 512 513 473
473 513 514 474
474 514 515 475
475 515 516 476
476 516 517 477
477 517 90 89
12 13 518 478
478 518 519 479
479 519 520 480
480 520 521 481
481 521 522 482
482 522 523 483
483 523 524 484
484 524 525 485
485 525 526 486
486 526 527 487
487 527 528 488
488 528 529 489
489 529 530 490
490 530 531 491
491 531 532 492
492 532 533 493
493 533 534 494
494 534 535 495
495 535 536 496
496 536 537 497
497 537 538 498
498 538 539 499
499 539 540 500
500 540 541 501
501 541 542 502
502 542 543 503
503 543 544 504
504 544 545 505
505 545 546 506
506 546 547 507
507 547 548 508
508 548 549 509
509 549 550 510
510 550 551 511
511 551 552 512
512 552 553 513
513 553 554 514
514 554 555 515
515 555 556 516
516 556 557 517
517 557 91 90
13 14 558 518
518 558 559 519
519 559 560 520
520 560 561 521
521 561 562 522
522 562 563 523
523 563 564 524
524 564 565 525
525 565 566 526
526 566 567 527
527 567 568 528
528 568 569 529
529 569 570 530
530 570 571 531
531 571 572 532
532 572 573 533
533 573 574 534
534 574 575 535
535 575 576 536
536 576 577 537
537 577 578 538
538 578 579 539
539 579 580 540
540 580 581 541
541 581 582 542
542 582 583 543
543 583 584 544
544 584 585 545
545 585 586 546
546 586 587 547
547 587 588 548
548 588 589 549
549 589 590 550
550 590 591 551
551 591 592 552
552 592 593 553
553 593 594 554
554 594 595 555
555 595 596 556
556 596 597 557
557 597 92 91
14 15 598 558
558 598 599 559
559 599 600 560
560 600 601 561
561 601 602 562
562 602 603 563
563 603 604 564
564 604 605 565
565 605 606 566
566 606 607 567
567 607 608 568
568 608 609 569
569 609 610 570
570 610 611 571
571 611 612 572
572 612 613 573
573 613 614 574
574 614 615 575
575 615 616 576
576 616 617 577
577 617 618 578
578 618 619 579
579 619 620 580
580 620 621 581
581 621 622 582
582 622 623 583
583 623 624 584
584 624 625 585
585 625 626 586
586 626 627 587
587 627 628 588
588 628 629 589
589 629 630 590
590 630 631 591
591 631 632 592
592 632 633 593
593 633 634 594
594 634 635 595
595 635 636 596
596 636 637 597
597 637 93 92
15 16 638 598
598 638 639 599
599 639 640 600
600 640 641 601
601 641 642 602
602 642 643 603
603 643 644 604
604 644 645 605
605 645 646 606
606 646 647 607
607 647 648 608
608 648 649 609
609 649 650 610
610 650 651 611
611 651 652 612
612 652 653 613
613 653 654 614
614 654 655 615
615 655 656 616
616 656 657 617
617 657 658 618
618 658 659 619
619 659 660 620
620 660 661 621
621 661 662 622
622 662 663 623
623 663 664 624
624 664 665 625
625 665 666 626
626 666 667 627
627 667 668 628
628 668 669 629
629 669 670 630
630 670 671 631
631 671 672 632
632 672 673 633
633 673 674 634
634 674 675 635
635 675 676 636
636 676 677 637
637 677 94 93
16 17 678 638
638 678 679 639
639 679 680 640
640 680 681 641
641 681 682 642
642 682 683 643
643 683 684 644
644 684 685 645
645 685 686 646
646 686 687 647
647 687 688 648
648 688 689 649
649 689 690 650
650 690 691 651
651 691 692 652
652 692 693 653
653 693 694 654
654 694 695 655
655 695 696 656
656 696 697 657
657 697 698 658
658 698 699 659
659 699 700 660
660 700 701 661
661 701 702 662
662 702 703 663
663 703 704 664
664 704 705 665
665 705 706 666
666 706 707 667
667 707 708 668
668 708 709 669
669 709 710 670
670 710 711 671
671 711 712 672
672 712 713 673
673 713 714 674
674 714 715 675
675 715 716 676
676 716 717 677
677 717 95 94
17 18 718 678
678 718 719 679
679 719 720 680
680 720 721 681
681 721 722 682
682 722 723 683
683 723 724 684
684 724 725 685
685 725 726 686
686 726 727 687
687 727 728 688
688 728 729 689
689 729 730 690
690 730 731 691
691 731 732 692
692 732 733 693
693 733 734 694
694 734 735 695
695 735 736 696
696 736 737 697
697 737 738 698
698 738 739 699
699 739 740 700
700 740 741 701
701 741 742 702
702 742 743 703
703 743 744 704
704 744 745 705
705 745 746 706
706 746 747 707
707 747 748 708
708 748 749 709
709 749 750 710
710 750 751 711
711 751 752 712
712 752 753 713
713 753 754 714
714 754 755 715
715 755 756 716
716 756 757 717
717 757 96 95
18 19 758 718
718 758 759 719
719 759 760 720
720 760 761 721
721 761 762 722
722 762 763 723
723 763 764 724
724 764 765 725
725 765 766 726
726 766 767 727
727 767 768 728
728 768 769 729
729 769 770 730
730 770 771 731
731 771 772 732
732 772 773 733
733 773 774 734
734 774 775 735
735 775 776 736
736 776 777 737
737 777 778 738
738 778 779 739
739 779 780 740
740 780 781 741
741 781 782 742
742 782 783 743
743 783 784 744
744 784 785 745
745 785 786 746
746 786 787 747
747 787 788 748
748 788 789 749
749 789 790 750
750 790 791 751
751 791 792 752
752 792 793 753
753 793 794 754
754 794 795 755
755 795 796 756
756 796 797 757
757 797 97 96
19 20 798 758
758 798 799 759
759 799 800 760
760 800 801 761
761 801 802 762
762 802 803 763
763 803 804 764
764 804 805 765
765 805 806 766
766 806 807 767
767 807 808 768
768 808 809 769
769 809 810 770
770 810 811 771
771 811 812 772
772 812 813 773
773 813 814 774
774 814 815 775
775 815 816 776
776 816 817 777
777 817 818 778
778 818 819 779
779 819 820 780
780 820 821 781
781 821 822 782
782 822 823 783
783 823 824 784
784 824 825 785
785 825 826 786
786 826 827 787
787 827 828 788
788 828 829 789
789 829 830 790
790 830 831 791
791 831 832 792
792 832 833 793
793 833 834 794
794 834 835 795
795 835 836 796
796 836 837 797
797 837 98 97
20 21 838 798
798 838 839 799
799 839 840 800
800 840 841 801
801 841 842 802
802 842 843 803
803 843 844 804
804 844 845 805
805 845 846 806
806 846 847 807
807 847 848 808
808 848 849 809
809 849 850 810
810 850 851 811
811 851 852 812
812 852 853 813
813 853 854 814
814 854 855 815
815 855 856 816
816 856 857 817
817 857 858 818
818 858 859 819
819 859 860 820
820 860 861 821
821 861 862 822
822 862 863 823
823 863 864 824
824 864 865 825
825 865 866 826
826 866 867 827
827 867 868 828
828 868 869 829
829 869 870 830
830 870 871 831
831 871 872 832
832 872 873 833
833 873 874 834
834 874 875 835
835 875 876 836
836 876 877 837
837 877 99 98
21 22 878 838
838 878 879 839
839 879 880 840
840 880 881 841
841 881 882 842
842 882 883 843
843 883 884 844
844 884 885 845
845 885 886 846
846 886 887 847
847 887 888 848
848 888 889 849
849 889 890 850
850 890 891 851
851 891 892 852
852 892 893 853
853 893 894 854
854 894 895 855
855 895 896 856
856 896 897 857
857 897 898 858
858 898 899 859
859 899 900 860
860 900 901 861
861 901 902 862
862 902 903 863
863 903 904 864
864 904 905 865
865 905 906 866
866 906 907 867
867 907 908 868
868 908 909 869
869 909 910 870
870 910 911 871
871 911 912 872
872 912 913 873
873 913 914 874
874 914 915 875
875 915 916 876
876 916 917 877
877 917 100 99
22 23 918 878
878 918 919 879
879 919 920 880
880 920 921 881
881 921 922 882
882 922 923 883
883 923 924 884
884 924 925 885
885 925 926 886
886 926 927 887
887 927 928 888
888 928 929 889
889 929 930 890
890 930 931 891
891 931 932 892
892 932 933 893
893 933 934 894
894 934 935 895
895 935 936 896
896 936 937 897
897 937 938 898
898 938 939 899
899 939 940 900
900 940 941 901
901 941 942 902
902 942 943 903
903 943 944 904
904 944 945 905
905 945 946 906
906 946 947 907
907 947 948 908
908 948 949 909
909 949 950 910
910 950 951 911
911 951 952 912
912 952 953 913
913 953 954 914
914 954 955 915
915 955 956 916
916 956 957 917
917 957 101 100
23 24 958 918
918 958 959 919
919 959 960 920
920 960 961 921
921 961 962 922
922 962 963 923
923 963 964 924
924 964 965 925
925 965 966 926
926 966 967 927
927 967 968 928
928 968 969 929
929 969 970 930
930 970 971 931
931 971 972 932
932 972 973 933
933 973 974 934
934 974 975 935
935 975 976 936
936 976 977 937
937 977 978 938
938 978 979 939
939 979 980 940
940 980 981 941
941 981 982 942
942 982 983 943
943 983 984 944
944 984 985 945
945 985 986 946
946 986 987 947
947 987 988 948
948 988 989 949
949 989 990 950
950 990 991 951
951 991 992 952
952 992 993 953
953 993 994 954
954 994 995 955
955 995 996 956
956 996 997 957
957 997 102 101
24 25 998 958
958 998 999 959
959 999 1000 960
960 1000 1001 961
961 1001 1002 962
962 1002 1003 963
963 1003 1004 964
964 1004 1005 965
965 1005 1006 966
966 1006 1007 967
967 1007 1008 968
968 1008 1009 969
969 1009 1010 970
970 1010 1011 971
971 1011 1012 972
972 1012 1013 973
973 1013 1014 974
974 1014 1015 975
975 1015 1016 976
976 1016 1017 977
977 1017 1018 978
978 1018 1019 979
979 1019 1020 980
980 1020 1021 981
981 1021 1022 982
982 1022 1023 983
983 1023 1024 984
984 1024 1025 985
985 1025 1026 986
986 1026 1027 987
987 1027 1028 988
988 1028 1029 989
989 1029 1030 990
990 1030 1031 991
991 1031 1032 992
992 1032 1033 993
993 1033 1034 994
994 1034 1035 995
995 1035 1036 996
996 1036 1037 997
997 1037 103 102
25 26 1038 998
998 1038 1039 999
999 1039 1040 1000
1000 1040 1041 1001
1001 1041 1042 1002
1002 1042 1043 1003
1003 1043 1044 1004
1004 1044 1045 1005
1005 1045 1046 1006
1006 1046 1047 1007
1007 1047 1048 1008
1008 1048 1049 1009
1009 1049 1050 1010
1010 1050 1051 1011
1011 1051 1052 1012
1012 1052 1053 1013
1013 1053 1054 1014
1014 1054 1055 1015
1015 1055 1056 1016
1016 1056 1057 1017
1017 1057 1058 1018
1018 1058 1059 1019
1019 1059 1060 1020
1020 1060 1061 1021
1021 1061 1062 1022
1022 1062 1063 1023
1023 1063 1064 1024
1024 1064 1065 1025
1025 1065 1066 1026
1026 1066 1067 1027
1027 1067 1068 1028
1028 1068 1069 1029
1029 1069 1070 1030
1030 1070 1071 1031
1031 1071 1072 1032
1032 1072 1073 1033
1033 1073 1074 1034
1034 1074 1075 1035
1035 1075 1076 1036
1036 1076 1077 1037
1037 1077 104 103
26 27 1078 1038
1038 1078 1079 1039
1039 1079 1080 1040
1040 1080 1081 1041
1041 1081 1082 1042
1042 1082 1083 1043
1043 1083 1084 1044
1044 1084 1085 1045
1045 1085 1086 1046
1046 1086 1087 1047
1047 1087 1088 1048
1048 1088 1089 1049
1049 1089 1090 1050
1050 1090 1091 1051
1051 1091 1092 1052
1052 1092 1093 1053
1053 1093 1094 1054
1054 1094 1095 1055
1055 1095 1096 1056
1056 1096 1097 1057
1057 1097 1098 1058
1058 1098 1099 1059
1059 1099 1100 1060
1060 1100 1101 1061
1061 1101 1102 1062
1062 1102 1103 1063
1063 1103 1104 1064
1064 1104 1105 1065
1065 1105 1106 1066
1066 1106 1107 1067
1067 1107 1108 1068
1068 1108 1109 1069
1069 1109 1110 1070
1070 1110 1111 1071
1071 1111 1112 1072
1072 1112 1113 1073
1073 1113 1114 1074
1074 1114 1115 1075
1075 1115 1116 1076
1076 1116 1117 1077
1077 1117 105 104
27 28 1118 1078
1078 1118 1119 1079
1079 1119 1120 1080
1080 1120 1121 1081
1081 1121 1122 1082
1082 1122 1123 1083
1083 1123 1124 1084
1084 1124 1125 1085
1085 1125 1126 1086
1086 1126 1127 1087
1087 1127 1128 1088
1088 1128 1129 1089
1089 1129 1130 1090
1090 1130 1131 1091
1091 1131 1132 1092
1092 1132 1133 1093
1093 1133 1134 1094
1094 1134 1135 1095
1095 1135 1136 1096
1096 1136 1137 1097
1097 1137 1138 1098
1098 1138 1139 1099
1099 1139 1140 1100
1100 1140 1141 1101
1101 1141 1142 1102
1102 1142 1143 1103
1103 1143 1144 1104
1104 1144 1145 1105
1105 1145 1146 1106
1106 1146 1147 1107
1107 1147 1148 1108
1108 1148 1149 1109
1109 1149 1150 1110
1110 1150 1151 1111
1111 1151 1152 1112
1112 1152 1153 1113
1113 1153 1154 1114
1114 1154 1155 1115
1115 1155 1156 1116
1116 1156 1157 1117
1117 1157 106 105
28 29 1158 1118
1118 1158 1159 1119
1119 1159 1160 1120
1120 1160 1161 1121
1121 1161 1162 1122
1122 1162 1163 1123
1123 1163 1164 1124
1124 1164 1165 1125
1125 1165 1166 1126
1126 1166 1167 1127
1127 1167 1168 1128
1128 1168 1169 1129
1129 1169 1170 1130
1130 1170 1171 1131
1131 1171 1172 1132
1132 1172 1173 1133
1133 1173 1174 1134
1134 1174 1175 1135
1135 1175 1176 1136
1136 1176 1177 1137
1137 1177 1178 1138
1138 1178 1179 1139
1139 1179 1180 1140
1140 1180 1181 1141
1141 1181 1182 1142
1142 1182 1183 1143
1143 1183 1184 1144
1144 1184 1185 1145
1145 1185 1186 1146
1146 1186 1187 1147
1147 1187 1188 1148
1148 1188 1189 1149
1149 1189 1190 1150
1150 1190 1191 1151
1151 1191 1192 1152
1152 1192 1193 1153
1153 1193 1194 1154
1154 1194 1195 1155
1155 1195 1196 1156
1156 1196 1197 1157
1157 1197 107 106
29 30 1198 1158
1158 1198 1199 1159
1159 1199 1200 1160
1160 1200 1201 1161
1161 1201 1202 1162
1162 1202 1203 1163
1163 1203 1204 1164
1164 1204 1205 1165
1165 1205 1206 1166
1166 1206 1207 1167
1167 1207 1208 1168
1168 1208 1209 1169
1169 1209 1210 1170
1170 1210 1211 1171
1171 1211 1212 1172
1172 1212 1213 1173
1173 1213 1214 1174
1174 1214 1215 1175
1175 1215 1216 1176
1176 1216 1217 1177
1177 1217 1218 1178
1178 1218 1219 1179
1179 1219 1220 1180
1180 1220 1221 1181
1181 1221 1222 1182
1182 1222 1223 1183
1183 1223 1224 1184
1184 1224 1225 1185
1185 1225 1226 1186
1186 1226 1227 1187
1187 1227 1228 1188
1188 1228 1229 1189
1189 1229 1230 1190
1190 1230 1231 1191
1191 1231 1232 1192
1192 1232 1233 1193
1193 1233 1234 1194
1194 1234 1235 1195
1195 1235 1236 1196
1196 1236 1237 1197
1197 1237 4 107
30 31 1238 1198
1198 1238 1239 1199
1199 1239 1240 1200
1200 1240 1241 1201
1201 1241 1242 1202
1202 1242 1243 1203
1203 1243 1244 1204
1204 1244 1245 1205
1205 1245 1246 1206
1206 1246 1247 1207
1207 1247 1248 1208
1208 1248 1249 1209
1209 1249 1250 1210
1210 1250 1251 1211
1211 1251 1252 1212
1212 1252 1253 1213
1213 1253 1254 1214
1214 1254 1255 1215
1215 1255 1256 1216
1216 1256 1257 1217
1217 1257 1258 1218
1218 1258 1259 1219
1219 1259 1260 1220
1220 1260 1261 1221
1221 1261 1262 1222
1222 1262 1263 1223
1223 1263 1264 1224
1224 1264 1265 1225
1225 1265 1266 1226
1226 1266 1267 1227
1227 1267 1268 1228
1228 1268 1269 1229
1229 1269 1270 1230
1230 1270 1271 1231
1231 1271 1272 1232
1232 1272 1273 1233
1233 1273 1274 1234
1234 1274 1275 1235
1235 1275 1276 1236
1236 1276 1277 1237
1237 1277 108 4
31 32 1278 1238
1238 1278 1279 1239
1239 1279 1280 1240
1240 1280 1281 1241
1241 1281 1282 1242
1242 1282 1283 1243
1243 1283 1284 1244
1244 1284 1285 1245
1245 1285 1286 1246
1246 1286 1287 1247
1247 1287 1288 1248
1248 1288 1289 1249
1249 1289 1290 1250
1250 1290 1291 1251
1251 1291 1292 1252
1252 1292 1293 1253
1253 1293 1294 1254
1254 1294 1295 1255
1255 1295 1296 1256
1256 1296 1297 1257
1257 1297 1298 1258
1258 1298 1299 1259
1259 1299 1300 1260
1260 1300 1301 1261
1261 1301 1302 1262
1262 1302 1303 1263
1263 1303 1304 1264
1264 1304 1305 1265
1265 1305 1306 1266
1266 1306 1307 1267
1267 1307 1308 1268
1268 1308 1309 1269
1269 1309 1310 1270
1270 1310 1311 1271
1271 1311 1312 1272
1272 1312 1313 1273
1273 1313 1314 1274
1274 1314 1315 1275
1275 1315 1316 1276
1276 1316 1317 1277
1277 1317 109 108
32 33 1318 1278
1278 1318 1319 1279
1279 1319 1320 1280
1280 1320 1321 1281
1281 1321 1322 1282
1282 1322 1323 1283
1283 1323 1324 1284
1284 1324 1325 1285
1285 1325 1326 1286
1286 1326 1327 1287
1287 1327 1328 1288
1288 1328 1329 1289
1289 1329 1330 1290
1290 1330 1331 1291
1291 1331 1332 1292
1292 1332 1333 1293
1293 1333 1334 1294
1294 1334 1335 1295
1295 1335 1336 1296
1296 1336 1337 1297
1297 1337 1338 1298
1298 1338 1339 1299
1299 1339 1340 1300
1300 1340 1341 1301
1301 1341 1342 1302
1302 1342 1343 1303
1303 1343 1344 1304
1304 1344 1345 1305
1305 1345 1346 1306
1306 1346 1347 1307
1307 1347 1348 1308
1308 1348 1349 1309
1309 1349 1350 1310
1310 1350 1351 1311
1311 1351 1352 1312
1312 1352 1353 1313
1313 1353 1354 1314
1314 1354 1355 1315
1315 1355 1356 1316
1316 1356 1357 1317
1317 1357 110 109
33 34 1358 1318
1318 1358 1359 1319
1319 1359 1360 1320
1320 1360 1361 1321
1321 1361 1362 1322
1322 1362 1363 1323
1323 1363 1364 1324
1324 1364 1365 1325
1325 1365 1366 1326
1326 1366 1367 1327
1327 1367 1368 1328
1328 1368 1369 1329
1329 1369 1370 1330
1330 1370 1371 1331
1331 1371 1372 1332
1332 1372 1373 1333
1333 1373 1374 1334
1334 1374 1375 1335
1335 1375 1376 1336
1336 1376 1377 1337
1337 1377 1378 1338
1338 1378 1379 1339
1339 1379 1380 1340
1340 1380 1381 1341
1341 1381 1382 1342
1342 1382 1383 1343
1343 1383 1384 1344
1344 1384 1385 1345
1345 1385 1386 1346
1346 1386 1387 1347
1347 1387 1388 1348
1348 1388 1389 1349
1349 1389 1390 1350
1350 1390 1391 1351
1351 1391 1392 1352
1352 1392 1393 1353
1353 1393 1394 1354
1354 1394 1395 1355
1355 1395 1396 1356
1356 1396 1397 1357
1357 1397 111 110
34 35 1398 1358
1358 1398 1399 1359
1359 1399 1400 1360
1360 1400 1401 1361
1361 1401 1402 1362
1362 1402 1403 1363
1363 1403 1404 1364
1364 1404 1405 1365
1365 1405 1406 1366
1366 1406 1407 1367
1367 1407 1408 1368
1368 1408 1409 1369
1369 1409 1410 1370
1370 1410 1411 1371
1371 1411 1412 1372
1372 1412 1413 1373
1373 1413 1414 1374
1374 1414 1415 1375
1375 1415 1416 1376
1376 1416 1417 1377
1377 1417 1418 1378
1378 1418 1419 1379
1379 1419 1420 1380
1380 1420 1421 1381
1381 1421 1422 1382
1382 1422 1423 1383
1383 1423 1424 1384
1384 1424 1425 1385
1385 1425 1426 1386
1386 1426 1427 1387
1387 1427 1428 1388
1388 1428 1429 1389
1389 1429 1430 1390
1390 1430 1431 1391
1391 1431 1432 1392
1392 1432 1433 1393
1393 1433 1434 1394
1394 1434 1435 1395
1395 1435 1436 1396
1396 1436 1437 1397
1397 1437 112 111
35 36 1438 1398
1398 1438 1439 1399
1399 1439 1440 1400
1400 1440 1441 1401
1401 1441 1442 1402
1402 1442 1443 1403
1403 1443 1444 1404
1404 1444 1445 1405
1405 1445 1446 1406
1406 1446 1447 1407
1407 1447 1448 1408
1408 1448 1449 1409
1409 1449 1450 1410
1410 1450 1451 1411
1411 1451 1452 1412
1412 1452 1453 1413
1413 1453 1454 1414
1414 1454 1455 1415
1415 1455 1456 1416
1416 1456 1457 1417
1417 1457 1458 1418
1418 1458 1459 1419
1419 1459 1460 1420
1420 1460 1461 1421
1421 1461 1462 1422
1422 1462 1463 1423
1423 1463 1464 1424
1424 1464 1465 1425
1425 1465 1466 1426
1426 1466 1467 1427
1427 1467 1468 1428
1428 1468 1469 1429
1429 1469 1470 1430
1430 1470 1471 1431
1431 1471 1472 1432
1432 1472 1473 1433
1433 1473 1474 1434
1434 1474 1475 1435
1435 1475 1476 1436
1436 1476 1477 1437
1437 1477 113 112
36 37 1478 1438
1438 1478 1479 1439
1439 1479 1480 1440
1440 1480 1481 1441
1441 1481 1482 1442
1442 1482 1483 1443
1443 1483 1484 1444
1444 1484 1485 1445
1445 1485 1486 1446
1446 1486 1487 1447
1447 1487 1488 1448
1448 1488 1489 1449
1449 1489 1490 1450
1450 1490 1491 1451
1451 1491 1492 1452
1452 1492 1493 1453
1453 1493 1494 1454
1454 1494 1495 1455
1455 1495 1496 1456
1456 1496 1497 1457
1457 1497 1498 1458
1458 1498 1499 1459
1459 1499 1500 1460
1460 1500 1501 1461
1461 1501 1502 1462
1462 1502 1503 1463
1463 1503 1504 1464
1464 1504 1505 1465
1465 1505 1506 1466
1466 1506 1507 1467
1467 1507 1508 1468
1468 1508 1509 1469
1469 1509 1510 1470
1470 1510 1511 1471
1471 1511 1512 1472
1472 1512 1513 1473
1473 1513 1514 1474
1474 1514 1515 1475
1475 1515 1516 1476
1476 1516 1517 1477
1477 1517 114 113
37 38 1518 1478
1478 1518 1519 1479
1479 1519 1520 1480
1480 1520 1521 1481
1481 1521 1522 1482
1482 1522 1523 1483
1483 1523 1524 1484
1484 1524 1525 1485
1485 1525 1526 1486
1486 1526 1527 1487
1487 1527 1528 1488
1488 1528 1529 1489
1489 1529 1530 1490
1490 1530 1531 1491
1491 1531 1532 1492
1492 1532 1533 1493
1493 1533 1534 1494
1494 1534 1535 1495
1495 1535 1536 1496
1496 1536 1537 1497
1497 1537 1538 1498
1498 1538 1539 1499
1499 1539 1540 1500
1500 1540 1541 1501
1501 1541 1542 1502
1502 1542 1543 1503
1503 1543 1544 1504
1504 1544 1545 1505
1505 1545 1546 1506
1506 1546 1547 1507
1507 1547 1548 1508
1508 1548 1549 1509
1509 1549 1550 1510
1510 1550 1551 1511
1511 1551 1552 1512
1512 1552 1553 1513
1513 1553 1554 1514
1514 1554 1555 1515
1515 1555 1556 1516
1516 1556 1557 1517
1517 1557 115 114
38 39 1558 1518
1518 1558 1559 1519
1519 1559 1560 1520
1520 1560 1561 1521
1521 1561 1562 1522
1522 1562 1563 1523
1523 1563 1564 1524
1524 1564 1565 1525
1525 1565 1566 1526
1526 1566 1567 1527
1527 1567 1568 1528
1528 1568 1569 1529
1529 1569 1570 1530
1530 1570 1571 1531
1531 1571 1572 1532
1532 1572 1573 1533
1533 1573 1574 1534
1534 1574 1575 1535
1535 1575 1576 1536
1536 1576 1577 1537
1537 1577 1578 1538
1538 1578 1579 1539
1539 1579 1580 1540
1540 1580 1581 1541
1541 1581 1582 1542
1542 1582 1583 1543
1543 1583 1584 1544
1544 1584 1585 1545
1545 1585 1586 1546
1546 1586 1587 1547
1547 1587 1588 1548
1548 1588 1589 1549
1549 1589 1590 1550
1550 1590 1591 1551
1551 1591 1592 1552
1552 1592 1593 1553
1553 1593 1594 1554
1554 1594 1595 1555
1555 1595 1596 1556
1556 1596 1597 1557
1557 1597 116 115
39 40 1598 1558
1558 1598 1599 1559
1559 1599 1600 1560
1560 1600 1601 1561
1561 1601 1602 1562
1562 1602 1603 1563
1563 1603 1604 1564
1564 1604 1605 1565
1565 1605 1606 1566
1566 1606 1607 1567
1567 1607 1608 1568
1568 1608 1609 1569
1569 1609 1610 1570
1570 1610 1611 1571
1571 1611 1612 1572
1572 1612 1613 1573
1573 1613 1614 1574
1574 1614 1615 1575
1575 1615 1616 1576
1576 1616 1617 1577
1577 1617 1618 1578
1578 1618 1619 1579
1579 1619 1620 1580
1580 1620 1621 1581
1581 1621 1622 1582
1582 1622 1623 1583
1583 1623 1624 1584
1584 1624 1625 1585
1585 1625 1626 1586
1586 1626 1627 1587
1587 1627 1628 1588
1588 1628 1629 1589
1589 1629 1630 1590
1590 1630 1631 1591
1591 1631 1632 1592
1592 1632 1633 1593
1593 1633 1634 1594
1594 1634 1635 1595
1595 1635 1636 1596
1596 1636 1637 1597
1597 1637 117 116
40 41 1638 1598
1598 1638 1639 1599
1599 1639 1640 1600
1600 1640 1641 1601
1601 1641 1642 1602
1602 1642 1643 1603
1603 1643 1644 1604
1604 1644 1645 1605
1605 1645 1646 1606
1606 1646 1647 1607
1607 1647 1648 1608
1608 1648 1649 1609
1609 1649 1650 1610
1610 1650 1651 1611
1611 1651 1652 1612
1612 1652 1653 1613
1613 1653 1654 1614
1614 1654 1655 1615
1615 1655 1656 1616
1616 1656 1657 1617
1617 1657 1658 1618
1618 1658 1659 1619
1619 1659 1660 1620
1620 1660 1661 1621
1621 1661 1662 1622
1622 1662 1663 1623
1623 1663 1664 1624
1624 1664 1665 1625
1625 1665 1666 1626
1626 1666 1667 1627
1627 1667 1668 1628
1628 1668 1669 1629
1629 1669 1670 1630
1630 1670 1671 1631
1631 1671 1672 1632
1632 1672 1673 1633
1633 1673 1674 1634
1634 1674 1675 1635
1635 1675 1676 1636
1636 1676 1677 1637
1637 1677 118 117
41 42 1678 1638
1638 1678 1679 1639
1639 1679 1680 1640
1640 1680 1681 1641
1641 1681 1682 1642
1642 1682 1683 1643
1643 1683 1684 1644
1644 1684 1685 1645
1645 1685 1686 1646
1646 1686 1687 1647
1647 1687 1688 1648
1648 1688 1689 1649
1649 1689 1690 1650
1650 1690 1691 1651
1651 1691 1692 1652
1652 1692 1693 1653
1653 1693 1694 1654
1654 1694 1695 1655
1655 1695 1696 1656
1656 1696 1697 1657
1657 1697 1698 1658
1658 1698 1699 1659
1659 1699 1700 1660
1660 1700 1701 1661
1661 1701 1702 1662
1662 1702 1703 1663
1663 1703 1704 1664
1664 1704 1705 1665
1665 1705 1706 1666
1666 1706 1707 1667
1667 1707 1708 1668
1668 1708 1709 1669
1669 1709 1710 1670
1670 1710 1711 1671
1671 1711 1712 1672
1672 1712 1713 1673
1673 1713 1714 1674
1674 1714 1715 1675
1675 1715 1716 1676
1676 1716 1717 1677
1677 1717 119 118
42 43 1718 1678
1678 1718 1719 1679
1679 1719 1720 1680
1680 1720 1721 1681
1681 1721 1722 1682
1682 1722 1723 1683
1683 1723 1724 1684
1684 1724 1725 1685
1685 1725 1726 1686
1686 1726 1727 1687
1687 1727 1728 1688
1688 1728 1729 1689
1689 1729 1730 1690
1690 1730 1731 1691
1691 1731 1732 1692
1692 1732 1733 1693
1693 1733 1734 1694
1694 1734 1735 1695
1695 1735 1736 1696
1696 1736 1737 1697
1697 1737 1738 1698
1698 1738 1739 1699
1699 1739 1740 1700
1700 1740 1741 1701
1701 1741 1742 1702
1702 1742 1743 1703
1703 1743 1744 1704
1704 1744 1745 1705
1705 1745 1746 1706
1706 1746 1747 1707
1707 1747 1748 1708
1708 1748 1749 1709
1709 1749 1750 1710
1710 1750 1751 1711
1711 1751 1752 1712
1712 1752 1753 1713
1713 1753 1754 1714
1714 1754 1755 1715
1715 1755 1756 1716
1716 1756 1757 1717
1717 1757 120 119
43 44 1758 1718
1718 1758 1759 1719
1719 1759 1760 1720
1720 1760 1761 1721
1721 1761 1762 1722
1722 1762 1763 1723
1723 1763 1764 1724
1724 1764 1765 1725
1725 1765 1766 1726
1726 1766 1767 1727
1727 1767 1768 1728
1728 1768 1769 1729
1729 1769 1770 1730
1730 1770 1771 1731
1731 1771 1772 1732
1732 1772 1773 1733
1733 1773 1774 1734
1734 1774 1775 1735
1735 1775 1776 1736
1736 1776 1777 1737
1737 1777 1778 1738
1738 1778 1779 1739
1739 1779 1780 1740
1740 1780 1781 1741
1741 1781 1782 1742
1742 1782 1783 1743
1743 1783 1784 1744
1744 1784 1785 1745
1745 1785 1786 1746
1746 1786 1787 1747
1747 1787 1788 1748
1748 1788 1789 1749
1749 1789 1790 1750
1750 1790 1791 1751
1751 1791 1792 1752
1752 1792 1793 1753
1753 1793 1794 1754
1754 1794 1795 1755
1755 1795 1796 1756
1756 1796 1797 1757
1757 1797 121 120
44 45 1798 1758
1758 1798 1799 1759
1759 1799 1800 1760
1760 1800 1801 1761
1761 1801 1802 1762
1762 1802 1803 1763
1763 1803 1804 1764
1764 1804 1805 1765
1765 1805 1806 1766
1766 1806 1807 1767
1767 1807 1808 1768
1768 1808 1809 1769
1769 1809 1810 1770
1770 1810 1811 1771
1771 1811 1812 1772
1772 1812 1813 1773
1773 1813 1814 1774
1774 1814 1815 1775
1775 1815 1816 1776
1776 1816 1817 1777
1777 1817 1818 1778
1778 1818 1819 1779
1779 1819 1820 1780
1780 1820 1821 1781
1781 1821 1822 1782
1782 1822 1823 1783
1783 1823 1824 1784
1784 1824 1825 1785
1785 1825 1826 1786
1786 1826 1827 1787
1787 1827 1828 1788
1788 1828 1829 1789
1789 1829 1830 1790
1790 1830 1831 1791
1791 1831 1832 1792
1792 1832 1833 1793
1793 1833 1834 1794
1794 1834 1835 1795
1795 1835 1836 1796
1796 1836 1837 1797
1797 1837 122 121
45 46 1838 1798
1798 1838 1839 1799
1799 1839 1840 1800
1800 1840 1841 1801
1801 1841 1842 1802
1802 1842 1843 1803
1803 1843 1844 1804
1804 1844 1845 1805
1805 1845 1846 1806
1806 1846 1847 1807
1807 1847 1848 1808
1808 1848 1849 1809
1809 1849 1850 1810
1810 1850 1851 1811
1811 1851 1852 1812
1812 1852 1853 1813
1813 1853 1854 1814
1814 1854 1855 1815
1815 1855 1856 1816
1816 1856 1857 1817
1817 1857 1858 1818
1818 1858 1859 1819
1819 1859 1860 1820
1820 1860 1861 1821
1821 1861 1862 1822
1822 1862 1863 1823
1823 1863 1864 1824
1824 1864 1865 1825
1825 1865 1866 1826
1826 1866 1867 1827
1827 1867 1868 1828
1828 1868 1869 1829
1829 1869 1870 1830
1830 1870 1871 1831
1831 1871 1872 1832
1832 1872 1873 1833
1833 1873 1874 1834
1834 1874 1875 1835
1835 1875 1876 1836
1836 1876 1877 1837
1837 1877 123 122
46 47 1878 1838
1838 1878 1879 1839
1839 1879 1880 1840
1840 1880 1881 1841
1841 1881 1882 1842
1842 1882 1883 1843
1843 1883 1884 1844
1844 1884 1885 1845
1845 1885 1886 1846
1846 1886 1887 1847
1847 1887 1888 1848
1848 1888 1889 1849
1849 1889 1890 1850
1850 1890 1891 1851
1851 1891 1892 1852
1852 1892 1893 1853
1853 1893 1894 1854
1854 1894 1895 1855
1855 1895 1896 1856
1856 1896 1897 1857
1857 1897 1898 1858
1858 1898 1899 1859
1859 1899 1900 1860
1860 1900 1901 1861
1861 1901 1902 1862
1862 1902 1903 1863
1863 1903 1904 1864
1864 1904 1905 1865
1865 1905 1906 1866
1866 1906 1907 1867
1867 1907 1908 1868
1868 1908 1909 1869
1869 1909 1910 1870
1870 1910 1911 1871
1871 1911 1912 1872
1872 1912 1913 1873
1873 1913 1914 1874
1874 1914 1915 1875
1875 1915 1916 1876
1876 1916 1917 1877
1877 1917 124 123
47 48 1918 1878
1878 1918 1919 1879
1879 1919 1920 1880
1880 1920 1921 1881
1881 1921 1922 1882
1882 1922 1923 1883
1883 1923 1924 1884
1884 1924 1925 1885
1885 1925 1926 1886
1886 1926 1927 1887
1887 1927 1928 1888
1888 1928 1929 1889
1889 1929 1930 1890
1890 1930 1931 1891
1891 1931 1932 1892
1892 1932 1933 1893
1893 1933 1934 1894
1894 1934 1935 1895
1895 1935 1936 1896
1896 1936 1937 1897
1897 1937 1938 1898
1898 1938 1939 1899
1899 1939 1940 1900
1900 1940 1941 1901
1901 1941 1942 1902
1902 1942 1943 1903
1903 1943 1944 1904
1904 1944 1945 1905
1905 1945 1946 1906
1906 1946 1947 1907
1907 1947 1948 1908
1908 1948 1949 1909
1909 1949 1950 1910
1910 1950 1951 1911
1911 1951 1952 1912
1912 1952 1953 1913
1913 1953 1954 1914
1914 1954 1955 1915
1915 1955 1956 1916
1916 1956 1957 1917
1917 1957 125 124
48 49 1958 1918
1918 1958 1959 1919
1919 1959 1960 1920
1920 1960 1961 1921
1921 1961 1962 1922
1922 1962 1963 1923
1923 1963 1964 1924
1924 1964 1965 1925
1925 1965 1966 1926
1926 1966 1967 1927
1927 1967 1968 1928
1928 1968 1969 1929
1929 1969 1970 1930
1930 1970 1971 1931
1931 1971 1972 1932
1932 1972 1973 1933
1933 1973 1974 1934
1934 1974 1975 1935
1935 1975 1976 1936
1936 1976 1977 1937
1937 1977 1978 1938
1938 1978 1979 1939
1939 1979 1980 1940
1940 1980 1981 1941
1941 1981 1982 1942
1942 1982 1983 1943
1943 1983 1984 1944
1944 1984 1985 1945
1945 1985 1986 1946
1946 1986 1987 1947
1947 1987 1988 1948
1948 1988 1989 1949
1949 1989 1990 1950
1950 1990 1991 1951
1951 1991 1992 1952
1952 1992 1993 1953
1953 1993 1994 1954
1954 1994 1995 1955
1955 1995 1996 1956
1956 1996 1997 1957
1957 1997 126 125
49 1 1998 1958
1958 1998 1999 1959
1959 1999 2000 1960
1960 2000 2001 1961
1961 2001 2002 1962
1962 2002 2003 1963
1963 2003 2004 1964
1964 2004 2005 1965
1965 2005 2006 1966
1966 2006 2007 1967
1967 2007 2008 1968
1968 2008 2009 1969
1969 2009 2010 1970
1970 2010 2011 1971
1971 2011 2012 1972
1972 2012 2013 1973
1973 2013 2014 1974
1974 2014 2015 1975
1975 2015 2016 1976
1976 2016 2017 1977
1977 2017 2018 1978
1978 2018 2019 1979
1979 2019 2020 1980
1980 2020 2021 1981
1981 2021 2022 1982
1982 2022 2023 1983
1983 2023 2024 1984
1984 2024 2025 1985
1985 2025 2026 1986
1986 2026 2027 1987
1987 2027 2028 1988
1988 2028 2029 1989
1989 2029 2030 1990
1990 2030 2031 1991
1991 2031 2032 1992
1992 2032 2033 1993
1993 2033 2034 1994
1994 2034 2035 1995
1995 2035 2036 1996
1996 2036 2037 1997
1997 2037 127 126
1 50 2038 1998
1998 2038 2039 1999
1999 2039 2040 2000
2000 2040 2041 2001
2001 2041 2042 2002
2002 2042 2043 2003
2003 2043 2044 2004
2004 2044 2045 2005
2005 2045 2046 2006
2006 2046 2047 2007
2007 2047 2048 2008
2008 2048 2049 2009
2009 2049 2050 2010
2010 2050 2051 2011
2011 2051 2052 2012
2012 2052 2053 2013
2013 2053 2054 2014
2014 2054 2055 2015
2015 2055 2056 2016
2016 2056 2057 2017
2017 2057 2058 2018
2018 2058 2059 2019
2019 2059 2060 2020
2020 2060 2061 2021
2021 2061 2062 2022
2022 2062 2063 2023
2023 2063 2064 2024
2024 2064 2065 2025
2025 2065 2066 2026
2026 2066 2067 2027
2027 2067 2068 2028
2028 2068 2069 2029
2029 2069 2070 2030
2030 2070 2071 2031
2031 2071 2072 2032
2032 2072 2073 2033
2033 2073 2074 2034
2034 2074 2075 2035
2035 2075 2076 2036
2036 2076 2077 2037
2037 2077 128 127
50 51 2078 2038
2038 2078 2079 2039
2039 2079 2080 2040
2040 2080 2081 2041
2041 2081 2082 2042
2042 2082 2083 2043
2043 2083 2084 2044
2044 2084 2085 2045
2045 2085 2086 2046
2046 2086 2087 2047
2047 2087 2088 2048
2048 2088 2089 2049
2049 2089 2090 2050
2050 2090 2091 2051
2051 2091 2092 2052
2052 2092 2093 2053
2053 2093 2094 2054
2054 2094 2095 2055
2055 2095 2096 2056
2056 2096 2097 2057
2057 2097 2098 2058
2058 2098 2099 2059
2059 2099 2100 2060
2060 2100 2101 2061
2061 2101 2102 2062
2062 2102 2103 2063
2063 2103 2104 2064
2064 2104 2105 2065
2065 2105 2106 2066
2066 2106 2107 2067
2067 2107 2108 2068
2068 2108 2109 2069
2069 2109 2110 2070
2070 2110 2111 2071
2071 2111 2112 2072
2072 2112 2113 2073
2073 2113 2114 2074
2074 2114 2115 2075
2075 2115 2116 2076
2076 2116 2117 2077
2077 2117 129 128
51 52 2118 2078
2078 2118 2119 2079
2079 2119 2120 2080
2080 2120 2121 2081
2081 2121 2122 2082
2082 2122 2123 2083
2083 2123 2124 2084
2084 2124 2125 2085
2085 2125 2126 2086
2086 2126 2127 2087
2087 2127 2128 2088
2088 2128 2129 2089
2089 2129 2130 2090
2090 2130 2131 2091
2091 2131 2132 2092
2092 2132 2133 2093
2093 2133 2134 2094
2094 2134 2135 2095
2095 2135 2136 2096
2096 2136 2137 2097
2097 2137 2138 2098
2098 2138 2139 2099
2099 2139 2140 2100
2100 2140 2141 2101
2101 2141 2142 2102
2102 2142 2143 2103
2103 2143 2144 2104
2104 2144 2145 2105
2105 2145 2146 2106
2106 2146 2147 2107
2107 2147 2148 2108
2108 2148 2149 2109
2109 2149 2150 2110
2110 2150 2151 2111
2111 2151 2152 2112
2112 2152 2153 2113
2113 2153 2154 2114
2114 2154 2155 2115
2115 2155 2156 2116
2116 2156 2157 2117
2117 2157 130 129
52 53 2158 2118
2118 2158 2159 2119
2119 2159 2160 2120
2120 2160 2161 2121
2121 2161 2162 2122
2122 2162 2163 2123
2123 2163 2164 2124
2124 2164 2165 2125
2125 2165 2166 2126
2126 2166 2167 2127
2127 2167 2168 2128
2128 2168 2169 2129
2129 2169 2170 2130
2130 2170 2171 2131
2131 2171 2172 2132
2132 2172 2173 2133
2133 2173 2174 2134
2134 2174 2175 2135
2135 2175 2176 2136
2136 2176 2177 2137
2137 2177 2178 2138
2138 2178 2179 2139
2139 2179 2180 2140
2140 2180 2181 2141
2141 2181 2182 2142
2142 2182 2183 2143
2143 2183 2184 2144
2144 2184 2185 2145
2145 2185 2186 2146
2146 2186 2187 2147
2147 2187 2188 2148
2148 2188 2189 2149
2149 2189 2190 2150
2150 2190 2191 2151
2151 2191 2192 2152
2152 2192 2193 2153
2153 2193 2194 2154
2154 2194 2195 2155
2155 2195 2196 2156
2156 2196 2197 2157
2157 2197 131 130
53 54 2198 2158
2158 2198 2199 2159
2159 2199 2200 2160
2160 2200 2201 2161
2161 2201 2202 2162
2162 2202 2203 2163
2163 2203 2204 2164
2164 2204 2205 2165
2165 2205 2206 2166
2166 2206 2207 2167
2167 2207 2208 2168
2168 2208 2209 2169
2169 2209 2210 2170
2170 2210 2211 2171
2171 2211 2212 2172
2172 2212 2213 2173
2173 2213 2214 2174
2174 2214 2215 2175
2175 2215 2216 2176
2176 2216 2217 2177
2177 2217 2218 2178
2178 2218 2219 2179
2179 2219 2220 2180
2180 2220 2221 2181
2181 2221 2222 2182
2182 2222 2223 2183
2183 2223 2224 2184
2184 2224 2225 2185
2185 2225 2226 2186
2186 2226 2227 2187
2187 2227 2228 2188
2188 2228 2229 2189
2189 2229 2230 2190
2190 2230 2231 2191
2191 2231 2232 2192
2192 2232 2233 2193
2193 2233 2234 2194
2194 2234 2235 2195
2195 2235 2236 2196
2196 2236 2237 2197
2197 2237 132 131
54 55 2238 2198
2198 2238 2239 2199
2199 2239 2240 2200
2200 2240 2241 2201
2201 2241 2242 2202
2202 2242 2243 2203
2203 2243 2244 2204
2204 2244 2245 2205
2205 2245 2246 2206
2206 2246 2247 2207
2207 2247 2248 2208
2208 2248 2249 2209
2209 2249 2250 2210
2210 2250 2251 2211
2211 2251 2252 2212
2212 2252 2253 2213
2213 2253 2254 2214
2214 2254 2255 2215
2215 2255 2256 2216
2216 2256 2257 2217
2217 2257 2258 2218
2218 2258 2259 2219
2219 2259 2260 2220
2220 2260 2261 2221
2221 2261 2262 2222
2222 2262 2263 2223
2223 2263 2264 2224
2224 2264 2265 2225
2225 2265 2266 2226
2226 2266 2267 2227
2227 2267 2268 2228
2228 2268 2269 2229
2229 2269 2270 2230
2230 2270 2271 2231
2231 2271 2272 2232
2232 2272 2273 2233
2233 2273 2274 2234
2234 2274 2275 2235
2235 2275 2276 2236
2236 2276 2277 2237
2237 2277 133 132
55 56 2278 2238
2238 2278 2279 2239
2239 2279 2280 2240
2240 2280 2281 2241
2241 2281 2282 2242
2242 2282 2283 2243
2243 2283 2284 2244
2244 2284 2285 2245
2245 2285 2286 2246
2246 2286 2287 2247
2247 2287 2288 2248
2248 2288 2289 2249
2249 2289 2290 2250
2250 2290 2291 2251
2251 2291 2292 2252
2252 2292 2293 2253
2253 2293 2294 2254
2254 2294 2295 2255
2255 2295 2296 2256
2256 2296 2297 2257
2257 2297 2298 2258
2258 2298 2299 2259
2259 2299 2300 2260
2260 2300 2301 2261
2261 2301 2302 2262
2262 2302 2303 2263
2263 2303 2304 2264
2264 2304 2305 2265
2265 2305 2306 2266
2266 2306 2307 2267
2267 2307 2308 2268
2268 2308 2309 2269
2269 2309 2310 2270
2270 2310 2311 2271
2271 2311 2312 2272
2272 2312 2313 2273
2273 2313 2314 2274
2274 2314 2315 2275
2275 2315 2316 2276
2276 2316 2317 2277
2277 2317 134 133
56 57 2318 2278
2278 2318 2319 2279
2279 2319 2320 2280
2280 2320 2321 2281
2281 2321 2322 2282
2282 2322 2323 2283
2283 2323 2324 2284
2284 2324 2325 2285
2285 2325 2326 2286
2286 2326 2327 2287
2287 2327 2328 2288
2288 2328 2329 2289
2289 2329 2330 2290
2290 2330 2331 2291
2291 2331 2332 2292
2292 2332 2333 2293
2293 2333 2334 2294
2294 2334 2335 2295
2295 2335 2336 2296
2296 2336 2337 2297
2297 2337 2338 2298
2298 2338 2339 2299
2299 2339 2340 2300
2300 2340 2341 2301
2301 2341 2342 2302
2302 2342 2343 2303
2303 2343 2344 2304
2304 2344 2345 2305
2305 2345 2346 2306
2306 2346 2347 2307
2307 2347 2348 2308
2308 2348 2349 2309
2309 2349 2350 2310
2310 2350 2351 2311
2311 2351 2352 2312
2312 2352 2353 2313
2313 2353 2354 2314
2314 2354 2355 2315
2315 2355 2356 2316
2316 2356 2357 2317
2317 2357 135 134
57 58 2358 2318
2318 2358 2359 2319
2319 2359 2360 2320
2320 2360 2361 2321
2321 2361 2362 2322
2322 2362 2363 2323
2323 2363 2364 2324
2324 2364 2365 2325
2325 2365 2366 2326
2326 2366 2367 2327
2327 2367 2368 2328
2328 2368 2369 2329
2329 2369 2370 2330
2330 2370 2371 2331
2331 2371 2372 2332
2332 2372 2373 2333
2333 2373 2374 2334
2334 2374 2375 2335
2335 2375 2376 2336
2336 2376 2377 2337
2337 2377 2378 2338
2338 2378 2379 2339
2339 2379 2380 2340
2340 2380 2381 2341
2341 2381 2382 2342
2342 2382 2383 2343
2343 2383 2384 2344
2344 2384 2385 2345
2345 2385 2386 2346
2346 2386 2387 2347
2347 2387 2388 2348
2348 2388 2389 2349
2349 2389 2390 2350
2350 2390 2391 2351
2351 2391 2392 2352
2352 2392 2393 2353
2353 2393 2394 2354
2354 2394 2395 2355
2355 2395 2396 2356
2356 2396 2397 2357
2357 2397 136 135
58 59 2398 2358
2358 2398 2399 2359
2359 2399 2400 2360
2360 2400 2401 2361
2361 2401 2402 2362
2362 2402 2403 2363
2363 2403 2404 2364
2364 2404 2405 2365
2365 2405 2406 2366
2366 2406 2407 2367
2367 2407 2408 2368
2368 2408 2409 2369
2369 2409 2410 2370
2370 2410 2411 2371
2371 2411 2412 2372
2372 2412 2413 2373
2373 2413 2414 2374
2374 2414 2415 2375
2375 2415 2416 2376
2376 2416 2417 2377
2377 2417 2418 2378
2378 2418 2419 2379
2379 2419 2420 2380
2380 2420 2421 2381
2381 2421 2422 2382
2382 2422 2423 2383
2383 2423 2424 2384
2384 2424 2425 2385
2385 2425 2426 2386
2386 2426 2427 2387
2387 2427 2428 2388
2388 2428 2429 2389
2389 2429 2430 2390
2390 2430 2431 2391
2391 2431 2432 2392
2392 2432 2433 2393
2393 2433 2434 2394
2394 2434 2435 2395
2395 2435 2436 2396
2396 2436 2437 2397
2397 2437 137 136
59 60 2438 2398
2398 2438 2439 2399
2399 2439 2440 2400
2400 2440 2441 2401
2401 2441 2442 2402
2402 2442 2443 2403
2403 2443 2444 2404
2404 2444 2445 2405
2405 2445 2446 2406
2406 2446 2447 2407
2407 2447 2448 2408
2408 2448 2449 2409
2409 2449 2450 2410
2410 2450 2451 2411
2411 2451 2452 2412
2412 2452 2453 2413
2413 2453 2454 2414
2414 2454 2455 2415
2415 2455 2456 2416
2416 2456 2457 2417
2417 2457 2458 2418
2418 2458 2459 2419
2419 2459 2460 2420
2420 2460 2461 2421
2421 2461 2462 2422
2422 2462 2463 2423
2423 2463 2464 2424
2424 2464 2465 2425
2425 2465 2466 2426
2426 2466 2467 2427
2427 2467 2468 2428
2428 2468 2469 2429
2429 2469 2470 2430
2430 2470 2471 2431
2431 2471 2472 2432
2432 2472 2473 2433
2433 2473 2474 2434
2434 2474 2475 2435
2435 2475 2476 2436
2436 2476 2477 2437
2437 2477 138 137
60 61 2478 2438
2438 2478 2479 2439
2439 2479 2480 2440
2440 2480 2481 2441
2441 2481 2482 2442
2442 2482 2483 2443
2443 2483 2484 2444
2444 2484 2485 2445
2445 2485 2486 2446
2446 2486 2487 2447
2447 2487 2488 2448
2448 2488 2489 2449
2449 2489 2490 2450
2450 2490 2491 2451
2451 2491 2492 2452
2452 2492 2493 2453
2453 2493 2494 2454
2454 2494 2495 2455
2455 2495 2496 2456
2456 2496 2497 2457
2457 2497 2498 2458
2458 2498 2499 2459
2459 2499 2500 2460
2460 2500 2501 2461
2461 2501 2502 2462
2462 2502 2503 2463
2463 2503 2504 2464
2464 2504 2505 2465
2465 2505 2506 2466
2466 2506 2507 2467
2467 2507 2508 2468
2468 2508 2509 2469
2469 2509 2510 2470
2470 2510 2511 2471
2471 2511 2512 2472
2472 2512 2513 2473
2473 2513 2514 2474
2474 2514 2515 2475
2475 2515 2516 2476
2476 2516 2517 2477
2477 2517 139 138
61 62 2518 2478
2478 2518 2519 2479
2479 2519 2520 2480
2480 2520 2521 2481
2481 2521 2522 2482
2482 2522 2523 2483
2483 2523 2524 2484
2484 2524 2525 2485
2485 2525 2526 2486
2486 2526 2527 2487
2487 2527 2528 2488
2488 2528 2529 2489
2489 2529 2530 2490
2490 2530 2531 2491
2491 2531 2532 2492
2492 2532 2533 2493
2493 2533 2534 2494
2494 2534 2535 2495
2495 2535 2536 2496
2496 2536 2537 2497
2497 2537 2538 2498
2498 2538 2539 2499
2499 2539 2540 2500
2500 2540 2541 2501
2501 2541 2542 2502
2502 2542 2543 2503
2503 2543 2544 2504
2504 2544 2545 2505
2505 2545 2546 2506
2506 2546 2547 2507
2507 2547 2548 2508
2508 2548 2549 2509
2509 2549 2550 2510
2510 2550 2551 2511
2511 2551 2552 2512
2512 2552 2553 2513
2513 2553 2554 2514
2514 2554 2555 2515
2515 2555 2556 2516
2516 2556 2557 2517
2517 2557 140 139
62 63 2558 2518
2518 2558 2559 2519
2519 2559 2560 2520
2520 2560 2561 2521
2521 2561 2562 2522
2522 2562 2563 2523
2523 2563 2564 2524
2524 2564 2565 2525
2525 2565 2566 2526
2526 2566 2567 2527
2527 2567 2568 2528
2528 2568 2569 2529
2529 2569 2570 2530
2530 2570 2571 2531
2531 2571 2572 2532
2532 2572 2573 2533
2533 2573 2574 2534
2534 2574 2575 2535
2535 2575 2576 2536
2536 2576 2577 2537
2537 2577 2578 2538
2538 2578 2579 2539
2539 2579 2580 2540
2540 2580 2581 2541
2541 2581 2582 2542
2542 2582 2583 2543
2543 2583 2584 2544
2544 2584 2585 2545
2545 2585 2586 2546
2546 2586 2587 2547
2547 2587 2588 2548
2548 2588 2589 2549
2549 2589 2590 2550
2550 2590 2591 2551
2551 2591 2592 2552
2552 2592 2593 2553
2553 2593 2594 2554
2554 2594 2595 2555
2555 2595 2596 2556
2556 2596 2597 2557
2557 2597 141 140
63 64 2598 2558
2558 2598 2599 2559
2559 2599 2600 2560
2560 2600 2601 2561
2561 2601 2602 2562
2562 2602 2603 2563
2563 2603 2604 2564
2564 2604 2605 2565
2565 2605 2606 2566
2566 2606 2607 2567
2567 2607 2608 2568
2568 2608 2609 2569
2569 2609 2610 2570
2570 2610 2611 2571
2571 2611 2612 2572
2572 2612 2613 2573
2573 2613 2614 2574
2574 2614 2615 2575
2575 2615 2616 2576
2576 2616 2617 2577
2577 2617 2618 2578
2578 2618 2619 2579
2579 2619 2620 2580
2580 2620 2621 2581
2581 2621 2622 2582
2582 2622 2623 2583
2583 2623 2624 2584
2584 2624 2625 2585
2585 2625 2626 2586
2586 2626 2627 2587
2587 2627 2628 2588
2588 2628 2629 2589
2589 2629 2630 2590
2590 2630 2631 2591
2591 2631 2632 2592
2592 2632 2633 2593
2593 2633 2634 2594
2594 2634 2635 2595
2595 2635 2636 2596
2596 2636 2637 2597
2597 2637 142 141
64 65 2638 2598
2598 2638 2639 2599
2599 2639 2640 2600
2600 2640 2641 2601
2601 2641 2642 2602
2602 2642 2643 2603
2603 2643 2644 2604
2604 2644 2645 2605
2605 2645 2646 2606
2606 2646 2647 2607
2607 2647 2648 2608
2608 2648 2649 2609
2609 2649 2650 2610
2610 2650 2651 2611
2611 2651 2652 2612
2612 2652 2653 2613
2613 2653 2654 2614
2614 2654 2655 2615
2615 2655 2656 2616
2616 2656 2657 2617
2617 2657 2658 2618
2618 2658 2659 2619
2619 2659 2660 2620
2620 2660 2661 2621
2621 2661 2662 2622
2622 2662 2663 2623
2623 2663 2664 2624
2624 2664 2665 2625
2625 2665 2666 2626
2626 2666 2667 2627
2627 2667 2668 2628
2628 2668 2669 2629
2629 2669 2670 2630
2630 2670 2671 2631
2631 2671 2672 2632
2632 2672 2673 2633
2633 2673 2674 2634
2634 2674 2675 2635
2635 2675 2676 2636
2636 2676 2677 2637
2637 2677 143 142
65 66 2678 2638
2638 2678 2679 2639
2639 2679 2680 2640
2640 2680 2681 2641
2641 2681 2682 2642
2642 2682 2683 2643
2643 2683 2684 2644
2644 2684 2685 2645
2645 2685 2686 2646
2646 2686 2687 2647
2647 2687 2688 2648
2648 2688 2689 2649
2649 2689 2690 2650
2650 2690 2691 2651
2651 2691 2692 2652
2652 2692 2693 2653
2653 2693 2694 2654
2654 2694 2695 2655
2655 2695 2696 2656
2656 2696 2697 2657
2657 2697 2698 2658
2658 2698 2699 2659
2659 2699 2700 2660
2660 2700 2701 2661
2661 2701 2702 2662
2662 2702 2703 2663
2663 2703 2704 2664
2664 2704 2705 2665
2665 2705 2706 2666
2666 2706 2707 2667
2667 2707 2708 2668
2668 2708 2709 2669
2669 2709 2710 2670
2670 2710 2711 2671
2671 2711 2712 2672
2672 2712 2713 2673
2673 2713 2714 2674
2674 2714 2715 2675
2675 2715 2716 2676
2676 2716 2717 2677
2677 2717 144 143
66 67 2718 2678
2678 2718 2719 2679
2679 2719 2720 2680
2680 2720 2721 2681
2681 2721 2722 2682
2682 2722 2723 2683
2683 2723 2724 2684
2684 2724 2725 2685
2685 2725 2726 2686
2686 2726 2727 2687
2687 2727 2728 2688
2688 2728 2729 2689
2689 2729 2730 2690
2690 2730 2731 2691
2691 2731 2732 2692
2692 2732 2733 2693
2693 2733 2734 2694
2694 2734 2735 2695
2695 2735 2736 2696
2696 2736 2737 2697
2697 2737 2738 2698
2698 2738 2739 2699
2699 2739 2740 2700
2700 2740 2741 2701
2701 2741 2742 2702
2702 2742 2743 2703
2703 2743 2744 2704
2704 2744 2745 2705
2705 2745 2746 2706
2706 2746 2747 2707
2707 2747 2748 2708
2708 2748 2749 2709
2709 2749 2750 2710
2710 2750 2751 2711
2711 2751 2752 2712
2712 2752 2753 2713
2713 2753 2754 2714
2714 2754 2755 2715
2715 2755 2756 2716
2716 2756 2757 2717
2717 2757 145 144
67 68 2758 2718
2718 2758 2759 2719
2719 2759 2760 2720
2720 2760 2761 2721
2721 2761 2762 2722
2722 2762 2763 2723
2723 2763 2764 2724
2724 2764 2765 2725
2725 2765 2766 2726
2726 2766 2767 2727
2727 2767 2768 2728
2728 2768 2769 2729
2729 2769 2770 2730
2730 2770 2771 2731
2731 2771 2772 2732
2732 2772 2773 2733
2733 2773 2774 2734
2734 2774 2775 2735
2735 2775 2776 2736
2736 2776 2777 2737
2737 2777 2778 2738
2738 2778 2779 2739
2739 2779 2780 2740
2740 2780 2781 2741
2741 2781 2782 2742
2742 2782 2783 2743
2743 2783 2784 2744
2744 2784 2785 2745
2745 2785 2786 2746
2746 2786 2787 2747
2747 2787 2788 2748
2748 2788 2789 2749
2749 2789 2790 2750
2750 2790 2791 2751
2751 2791 2792 2752
2752 2792 2793 2753
2753 2793 2794 2754
2754 2794 2795 2755
2755 2795 2796 2756
2756 2796 2797 2757
2757 2797 146 145
68 69 2798 2758
2758 2798 2799 2759
2759 2799 2800 2760
2760 2800 2801 2761
2761 2801 2802 2762
2762 2802 2803 2763
2763 2803 2804 2764
2764 2804 2805 2765
2765 2805 2806 2766
2766 2806 2807 2767
2767 2807 2808 2768
2768 2808 2809 2769
2769 2809 2810 2770
2770 2810 2811 2771
2771 2811 2812 2772
2772 2812 2813 2773
2773 2813 2814 2774
2774 2814 2815 2775
2775 2815 2816 2776
2776 2816 2817 2777
2777 2817 2818 2778
2778 2818 2819 2779
2779 2819 2820 2780
2780 2820 2821 2781
2781 2821 2822 2782
2782 2822 2823 2783
2783 2823 2824 2784
2784 2824 2825 2785
2785 2825 2826 2786
2786 2826 2827 2787
2787 2827 2828 2788
2788 2828 2829 2789
2789 2829 2830 2790
2790 2830 2831 2791
2791 2831 2832 2792
2792 2832 2833 2793
2793 2833 2834 2794
2794 2834 2835 2795
2795 2835 2836 2796
2796 2836 2837 2797
2797 2837 5 146
69 70 2838 2798
2798 2838 2839 2799
2799 2839 2840 2800
2800 2840 2841 2801
2801 2841 2842 2802
2802 2842 2843 2803
2803 2843 2844 2804
2804 2844 2845 2805
2805 2845 2846 2806
2806 2846 2847 2807
2807 2847 2848 2808
2808 2848 2849 2809
2809 2849 2850 2810
2810 2850 2851 2811
2811 2851 2852 2812
2812 2852 2853 2813
2813 2853 2854 2814
2814 2854 2855 2815
2815 2855 2856 2816
2816 2856 2857 2817
2817 2857 2858 2818
2818 2858 2859 2819
2819 2859 2860 2820
2820 2860 2861 2821
2821 2861 2862 2822
2822 2862 2863 2823
2823 2863 2864 2824
2824 2864 2865 2825
2825 2865 2866 2826
2826 2866 2867 2827
2827 2867 2868 2828
2828 2868 2869 2829
2829 2869 2870 2830
2830 2870 2871 2831
2831 2871 2872 2832
2832 2872 2873 2833
2833 2873 2874 2834
2834 2874 2875 2835
2835 2875 2876 2836
2836 2876 2877 2837
2837 2877 147 5
70 71 2878 2838
2838 2878 2879 2839
2839 2879 2880 2840
2840 2880 2881 2841
2841 2881 2882 2842
2842 2882 2883 2843
2843 2883 2884 2844
2844 2884 2885 2845
2845 2885 2886 2846
2846 2886 2887 2847
2847 2887 2888 2848
2848 2888 2889 2849
2849 2889 2890 2850
2850 2890 2891 2851
2851 2891 2892 2852
2852 2892 2893 2853
2853 2893 2894 2854
2854 2894 2895 2855
2855 2895 2896 2856
2856 2896 2897 2857
2857 2897 2898 2858
2858 2898 2899 2859
2859 2899 2900 2860
2860 2900 2901 2861
2861 2901 2902 2862
2862 2902 2903 2863
2863 2903 2904 2864
2864 2904 2905 2865
2865 2905 2906 2866
2866 2906 2907 2867
2867 2907 2908 2868
2868 2908 2909 2869
2869 2909 2910 2870
2870 2910 2911 2871
2871 2911 2912 2872
2872 2912 2913 2873
2873 2913 2914 2874
2874 2914 2915 2875
2875 2915 2916 2876
2876 2916 2917 2877
2877 2917 148 147
71 72 2918 2878
2878 2918 2919 2879
2879 2919 2920 2880
2880 2920 2921 2881
2881 2921 2922 2882
2882 2922 2923 2883
2883 2923 2924 2884
2884 2924 2925 2885
2885 2925 2926 2886
2886 2926 2927 2887
2887 2927 2928 2888
2888 2928 2929 2889
2889 2929 2930 2890
2890 2930 2931 2891
2891 2931 2932 2892
2892 2932 2933 2893
2893 2933 2934 2894
2894 2934 2935 2895
2895 2935 2936 2896
2896 2936 2937 2897
2897 2937 2938 2898
2898 2938 2939 2899
2899 2939 2940 2900
2900 2940 2941 2901
2901 2941 2942 2902
2902 2942 2943 2903
2903 2943 2944 2904
2904 2944 2945 2905
2905 2945 2946 2906
2906 2946 2947 2907
2907 2947 2948 2908
2908 2948 2949 2909
2909 2949 2950 2910
2910 2950 2951 2911
2911 2951 2952 2912
2912 2952 2953 2913
2913 2953 2954 2914
2914 2954 2955 2915
2915 2955 2956 2916
2916 2956 2957 2917
2917 2957 149 148
72 73 2958 2918
2918 2958 2959 2919
2919 2959 2960 2920
2920 2960 2961 2921
2921 2961 2962 2922
2922 2962 2963 2923
2923 2963 2964 2924
2924 2964 2965 2925
2925 2965 2966 2926
2926 2966 2967 2927
2927 2967 2968 2928
2928 2968 2969 2929
2929 2969 2970 2930
2930 2970 2971 2931
2931 2971 2972 2932
2932 2972 2973 2933
2933 2973 2974 2934
2934 2974 2975 2935
2935 2975 2976 2936
2936 2976 2977 2937
2937 2977 2978 2938
2938 2978 2979 2939
2939 2979 2980 2940
2940 2980 2981 2941
2941 2981 2982 2942
2942 2982 2983 2943
2943 2983 2984 2944
2944 2984 2985 2945
2945 2985 2986 2946
2946 2986 2987 2947
2947 2987 2988 2948
2948 2988 2989 2949
2949 2989 2990 2950
2950 2990 2991 2951
2951 2991 2992 2952
2952 2992 2993 2953
2953 2993 2994 2954
2954 2994 2995 2955
2955 2995 2996 2956
2956 2996 2997 2957
2957 2997 150 149
73 74 2998 2958
2958 2998 2999 2959
2959 2999 3000 2960
2960 3000 3001 2961
2961 3001 3002 2962
2962 3002 3003 2963
2963 3003 3004 2964
2964 3004 3005 2965
2965 3005 3006 2966
2966 3006 3007 2967
2967 3007 3008 2968
2968 3008 3009 2969
2969 3009 3010 2970
2970 3010 3011 2971
2971 3011 3012 2972
2972 3012 3013 2973
2973 3013 3014 2974
2974 3014 3015 2975
2975 3015 3016 2976
2976 3016 3017 2977
2977 3017 3018 2978
2978 3018 3019 2979
2979 3019 3020 2980
2980 3020 3021 2981
2981 3021 3022 2982
2982 3022 3023 2983
2983 3023 3024 2984
2984 3024 3025 2985
2985 3025 3026 2986
2986 3026 3027 2987
2987 3027 3028 2988
2988 3028 3029 2989
2989 3029 3030 2990
2990 3030 3031 2991
2991 3031 3032 2992
2992 3032 3033 2993
2993 3033 3034 2994
2994 3034 3035 2995
2995 3035 3036 2996
2996 3036 3037 2997
2997 3037 151 150
74 75 3038 2998
2998 3038 3039 2999
2999 3039 3040 3000
3000 3040 3041 3001
3001 3041 3042 3002
3002 3042 3043 3003
3003 3043 3044 3004
3004 3044 3045 3005
3005 3045 3046 3006
3006 3046 3047 3007
3007 3047 3048 3008
3008 3048 3049 3009
3009 3049 3050 3010
3010 3050 3051 3011
3011 3051 3052 3012
3012 3052 3053 3013
3013 3053 3054 3014
3014 3054 3055 3015
3015 3055 3056 3016
3016 3056 3057 3017
3017 3057 3058 3018
3018 3058 3059 3019
3019 3059 3060 3020
3020 3060 3061 3021
3021 3061 3062 3022
3022 3062 3063 3023
3023 3063 3064 3024
3024 3064 3065 3025
3025 3065 3066 3026
3026 3066 3067 3027
3027 3067 3068 3028
3028 3068 3069 3029
3029 3069 3070 3030
3030 3070 3071 3031
3031 3071 3072 3032
3032 3072 3073 3033
3033 3073 3074 3034
3034 3074 3075 3035
3035 3075 3076 3036
3036 3076 3077 3037
3037 3077 152 151
75 76 3078 3038
3038 3078 3079 3039
3039 3079 3080 3040
3040 3080 3081 3041
3041 3081 3082 3042
3042 3082 3083 3043
3043 3083 3084 3044
3044 3084 3085 3045
3045 3085 3086 3046
3046 3086 3087 3047
3047 3087 3088 3048
3048 3088 3089 3049
3049 3089 3090 3050
3050 3090 3091 3051
3051 3091 3092 3052
3052 3092 3093 3053
3053 3093 3094 3054
3054 3094 3095 3055
3055 3095 3096 3056
3056 3096 3097 3057
3057 3097 3098 3058
3058 3098 3099 3059
3059 3099 3100 3060
3060 3100 3101 3061
3061 3101 3102 3062
3062 3102 3103 3063
3063 3103 3104 3064
3064 3104 3105 3065
3065 3105 3106 3066
3066 3106 3107 3067
3067 3107 3108 3068
3068 3108 3109 3069
3069 3109 3110 3070
3070 3110 3111 3071
3071 3111 3112 3072
3072 3112 3113 3073
3073 3113 3114 3074
3074 3114 3115 3075
3075 3115 3116 3076
3076 3116 3117 3077
3077 3117 153 152
76 77 3118 3078
3078 3118 3119 3079
3079 3119 3120 3080
3080 3120 3121 3081
3081 3121 3122 3082
3082 3122 3123 3083
3083 3123 3124 3084
3084 3124 3125 3085
3085 3125 3126 3086
3086 3126 3127 3087
3087 3127 3128 3088
3088 3128 3129 3089
3089 3129 3130 3090
3090 3130 3131 3091
3091 3131 3132 3092
3092 3132 3133 3093
3093 3133 3134 3094
3094 3134 3135 3095
3095 3135 3136 3096
3096 3136 3137 3097
3097 3137 3138 3098
3098 3138 3139 3099
3099 3139 3140 3100
3100 3140 3141 3101
3101 3141 3142 3102
3102 3142 3143 3103
3103 3143 3144 3104
3104 3144 3145 3105
3105 3145 3146 3106
3106 3146 3147 3107
3107 3147 3148 3108
3108 3148 3149 3109
3109 3149 3150 3110
3110 3150 3151 3111
3111 3151 3152 3112
3112 3152 3153 3113
3113 3153 3154 3114
3114 3154 3155 3115
3115 3155 3156 3116
3116 3156 3157 3117
3117 3157 154 153
77 78 3158 3118
3118 3158 3159 3119
3119 3159 3160 3120
3120 3160 3161 3121
3121 3161 3162 3122
3122 3162 3163 3123
3123 3163 3164 3124
3124 3164 3165 3125
3125 3165 3166 3126
3126 3166 3167 3127
3127 3167 3168 3128
3128 3168 3169 3129
3129 3169 3170 3130
3130 3170 3171 3131
3131 3171 3172 3132
3132 3172 3173 3133
3133 3173 3174 3134
3134 3174 3175 3135
3135 3175 3176 3136
3136 3176 3177 3137
3137 3177 3178 3138
3138 3178 3179 3139
3139 3179 3180 3140
3140 3180 3181 3141
3141 3181 3182 3142
3142 3182 3183 3143
3143 3183 3184 3144
3144 3184 3185 3145
3145 3185 3186 3146
3146 3186 3187 3147
3147 3187 3188 3148
3148 3188 3189 3149
3149 3189 3190 3150
3150 3190 3191 3151
3151 3191 3192 3152
3152 3192 3193 3153
3153 3193 3194 3154
3154 3194 3195 3155
3155 3195 3196 3156
3156 3196 3197 3157
3157 3197 155 154
78 79 3198 3158
3158 3198 3199 3159
3159 3199 3200 3160
3160 3200 3201 3161
3161 3201 3202 3162
3162 3202 3203 3163
3163 3203 3204 3164
3164 3204 3205 3165
3165 3205 3206 3166
3166 3206 3207 3167
3167 3207 3208 3168
3168 3208 3209 3169
3169 3209 3210 3170
3170 3210 3211 3171
3171 3211 3212 3172
3172 3212 3213 3173
3173 3213 3214 3174
3174 3214 3215 3175
3175 3215 3216 3176
3176 3216 3217 3177
3177 3217 3218 3178
3178 3218 3219 3179
3179 3219 3220 3180
3180 3220 3221 3181
3181 3221 3222 3182
3182 3222 3223 3183
3183 3223 3224 3184
3184 3224 3225 3185
3185 3225 3226 3186
3186 3226 3227 3187
3187 3227 3228 3188
3188 3228 3229 3189
3189 3229 3230 3190
3190 3230 3231 3191
3191 3231 3232 3192
3192 3232 3233 3193
3193 3233 3234 3194
3194 3234 3235 3195
3195 3235 3236 3196
3196 3236 3237 3197
3197 3237 156 155
79 80 3238 3198
3198 3238 3239 3199
3199 3239 3240 3200
3200 3240 3241 3201
3201 3241 3242 3202
3202 3242 3243 3203
3203 3243 3244 3204
3204 3244 3245 3205
3205 3245 3246 3206
3206 3246 3247 3207
3207 3247 3248 3208
3208 3248 3249 3209
3209 3249 3250 3210
3210 3250 3251 3211
3211 3251 3252 3212
3212 3252 3253 3213
3213 3253 3254 3214
3214 3254 3255 3215
3215 3255 3256 3216
3216 3256 3257 3217
3217 3257 3258 3218
3218 3258 3259 3219
3219 3259 3260 3220
3220 3260 3261 3221
3221 3261 3262 3222
3222 3262 3263 3223
3223 3263 3264 3224
3224 3264 3265 3225
3225 3265 3266 3226
3226 3266 3267 3227
3227 3267 3268 3228
3228 3268 3269 3229
3229 3269 3270 3230
3230 3270 3271 3231
3231 3271 3272 3232
3232 3272 3273 3233
3233 3273 3274 3234
3234 3274 3275 3235
3235 3275 3276 3236
3236 3276 3277 3237
3237 3277 157 156
80 81 3278 3238
3238 3278 3279 3239
3239 3279 3280 3240
3240 3280 3281 3241
3241 3281 3282 3242
3242 3282 3283 3243
3243 3283 3284 3244
3244 3284 3285 3245
3245 3285 3286 3246
3246 3286 3287 3247
3247 3287 3288 3248
3248 3288 3289 3249
3249 3289 3290 3250
3250 3290 3291 3251
3251 3291 3292 3252
3252 3292 3293 3253
3253 3293 3294 3254
3254 3294 3295 3255
3255 3295 3296 3256
3256 3296 3297 3257
3257 3297 3298 3258
3258 3298 3299 3259
3259 3299 3300 3260
3260 3300 3301 3261
3261 3301 3302 3262
3262 3302 3303 3263
3263 3303 3304 3264
3264 3304 3305 3265
3265 3305 3306 3266
3266 3306 3307 3267
3267 3307 3308 3268
3268 3308 3309 3269
3269 3309 3310 3270
3270 3310 3311 3271
3271 3311 3312 3272
3272 3312 3313 3273
3273 3313 3314 3274
3274 3314 3315 3275
3275 3315 3316 3276
3276 3316 3317 3277
3277 3317 158 157
81 82 3318 3278
3278 3318 3319 3279
3279 3319 3320 3280
3280 3320 3321 3281
3281 3321 3322 3282
3282 3322 3323 3283
3283 3323 3324 3284
3284 3324 3325 3285
3285 3325 3326 3286
3286 3326 3327 3287
3287 3327 3328 3288
3288 3328 3329 3289
3289 3329 3330 3290
3290 3330 3331 3291
3291 3331 3332 3292
3292 3332 3333 3293
3293 3333 3334 3294
3294 3334 3335 3295
3295 3335 3336 3296
3296 3336 3337 3297
3297 3337 3338 3298
3298 3338 3339 3299
3299 3339 3340 3300
3300 3340 3341 3301
3301 3341 3342 3302
3302 3342 3343 3303
3303 3343 3344 3304
3304 3344 3345 3305
3305 3345 3346 3306
3306 3346 3347 3307
3307 3347 3348 3308
3308 3348 3349 3309
3309 3349 3350 3310
3310 3350 3351 3311
3311 3351 3352 3312
3312 3352 3353 3313
3313 3353 3354 3314
3314 3354 3355 3315
3315 3355 3356 3316
3316 3356 3357 3317
3317 3357 159 158
82 83 3358 3318
3318 3358 3359 3319
3319 3359 3360 3320
3320 3360 3361 3321
3321 3361 3362 3322
3322 3362 3363 3323
3323 3363 3364 3324
3324 3364 3365 3325
3325 3365 3366 3326
3326 3366 3367 3327
3327 3367 3368 3328
3328 3368 3369 3329
3329 3369 3370 3330
3330 3370 3371 3331
3331 3371 3372 3332
3332 3372 3373 3333
3333 3373 3374 3334
3334 3374 3375 3335
3335 3375 3376 3336
3336 3376 3377 3337
3337 3377 3378 3338
3338 3378 3379 3339
3339 3379 3380 3340
3340 3380 3381 3341
3341 3381 3382 3342
3342 3382 3383 3343
3343 3383 3384 3344
3344 3384 3385 3345
3345 3385 3386 3346
3346 3386 3387 3347
3347 3387 3388 3348
3348 3388 3389 3349
3349 3389 3390 3350
3350 3390 3391 3351
3351 3391 3392 3352
3352 3392 3393 3353
3353 3393 3394 3354
3354 3394 3395 3355
3355 3395 3396 3356
3356 3396 3397 3357
3357 3397 160 159
83 84 3398 3358
3358 3398 3399 3359
3359 3399 3400 3360
3360 3400 3401 3361
3361 3401 3402 3362
3362 3402 3403 3363
3363 3403 3404 3364
3364 3404 3405 3365
3365 3405 3406 3366
3366 3406 3407 3367
3367 3407 3408 3368
3368 3408 3409 3369
3369 3409 3410 3370
3370 3410 3411 3371
3371 3411 3412 3372
3372 3412 3413 3373
3373 3413 3414 3374
3374 3414 3415 3375
3375 3415 3416 3376
3376 3416 3417 3377
3377 3417 3418 3378
3378 3418 3419 3379
3379 3419 3420 3380
3380 3420 3421 3381
3381 3421 3422 3382
3382 3422 3423 3383
3383 3423 3424 3384
3384 3424 3425 3385
3385 3425 3426 3386
3386 3426 3427 3387
3387 3427 3428 3388
3388 3428 3429 3389
3389 3429 3430 3390
3390 3430 3431 3391
3391 3431 3432 3392
3392 3432 3433 3393
3393 3433 3434 3394
3394 3434 3435 3395
3395 3435 3436 3396
3396 3436 3437 3397
3397 3437 161 160
84 85 3438 3398
3398 3438 3439 3399
3399 3439 3440 3400
3400 3440 3441 3401
3401 3441 3442 3402
3402 3442 3443 3403
3403 3443 3444 3404
3404 3444 3445 3405
3405 3445 3446 3406
3406 3446 3447 3407
3407 3447 3448 3408
3408 3448 3449 3409
3409 3449 3450 3410
3410 3450 3451 3411
3411 3451 3452 3412
3412 3452 3453 3413
3413 3453 3454 3414
3414 3454 3455 3415
3415 3455 3456 3416
3416 3456 3457 3417
3417 3457 3458 3418
3418 3458 3459 3419
3419 3459 3460 3420
3420 3460 3461 3421
3421 3461 3462 3422
3422 3462 3463 3423
3423 3463 3464 3424
3424 3464 3465 3425
3425 3465 3466 3426
3426 3466 3467 3427
3427 3467 3468 3428
3428 3468 3469 3429
3429 3469 3470 3430
3430 3470 3471 3431
3431 3471 3472 3432
3432 3472 3473 3433
3433 3473 3474 3434
3434 3474 3475 3435
3435 3475 3476 3436
3436 3476 3477 3437
3437 3477 162 161
85 86 3478 3438
3438 3478 3479 3439
3439 3479 3480 3440
3440 3480 3481 3441
3441 3481 3482 3442
3442 3482 3483 3443
3443 3483 3484 3444
3444 3484 3485 3445
3445 3485 3486 3446
3446 3486 3487 3447
3447 3487 3488 3448
3448 3488 3489 3449
3449 3489 3490 3450
3450 3490 3491 3451
3451 3491 3492 3452
3452 3492 3493 3453
3453 3493 3494 3454
3454 3494 3495 3455
3455 3495 3496 3456
3456 3496 3497 3457
3457 3497 3498 3458
3458 3498 3499 3459
3459 3499 3500 3460
3460 3500 3501 3461
3461 3501 3502 3462
3462 3502 3503 3463
3463 3503 3504 3464
3464 3504 3505 3465
3465 3505 3506 3466
3466 3506 3507 3467
3467 3507 3508 3468
3468 3508 3509 3469
3469 3509 3510 3470
3470 3510 3511 3471
3471 3511 3512 3472
3472 3512 3513 3473
3473 3513 3514 3474
3474 3514 3515 3475
3475 3515 3516 3476
3476 3516 3517 3477
3477 3517 163 162
86 87 3518 3478
3478 3518 3519 3479
3479 3519 3520 3480
3480 3520 3521 3481
3481 3521 3522 3482
3482 3522 3523 3483
3483 3523 3524 3484
3484 3524 3525 3485
3485 3525 3526 3486
3486 3526 3527 3487
3487 3527 3528 3488
3488 3528 3529 3489
3489 3529 3530 3490
3490 3530 3531 3491
3491 3531 3532 3492
3492 3532 3533 3493
3493 3533 3534 3494
3494 3534 3535 3495
3495 3535 3536 3496
3496 3536 3537 3497
3497 3537 3538 3498
3498 3538 3539 3499
3499 3539 3540 3500
3500 3540 3541 3501
3501 3541 3542 3502
3502 3542 3543 3503
3503 3543 3544 3504
3504 3544 3545 3505
3505 3545 3546 3506
3506 3546 3547 3507
3507 3547 3548 3508
3508 3548 3549 3509
3509 3549 3550 3510
3510 3550 3551 3511
3511 3551 3552 3512
3512 3552 3553 3513
3513 3553 3554 3514
3514 3554 3555 3515
3515 3555 3556 3516
3516 3556 3557 3517
3517 3557 164 163
87 88 3558 3518
3518 3558 3559 3519
3519 3559 3560 3520
3520 3560 3561 3521
3521 3561 3562 3522
3522 3562 3563 3523
3523 3563 3564 3524
3524 3564 3565 3525
3525 3565 3566 3526
3526 3566 3567 3527
3527 3567 3568 3528
3528 3568 3569 3529
3529 3569 3570 3530
3530 3570 3571 3531
3531 3571 3572 3532
3532 3572 3573 3533
3533 3573 3574 3534
3534 3574 3575 3535
3535 3575 3576 3536
3536 3576 3577 3537
3537 3577 3578 3538
3538 3578 3579 3539
3539 3579 3580 3540
3540 3580 3581 3541
3541 3581 3582 3542
3542 3582 3583 3543
3543 3583 3584 3544
3544 3584 3585 3545
3545 3585 3586 3546
3546 3586 3587 3547
3547 3587 3588 3548
3548 3588 3589 3549
3549 3589 3590 3550
3550 3590 3591 3551
3551 3591 3592 3552
3552 3592 3593 3553
3553 3593 3594 3554
3554 3594 3595 3555
3555 3595 3596 3556
3556 3596 3597 3557
3557 3597 165 164
88 2 322 3558
3558 322 321 3559
3559 321 320 3560
3560 320 319 3561
3561 319 318 3562
3562 318 317 3563
3563 317 316 3564
3564 316 315 3565
3565 315 314 3566
3566 314 313 3567
3567 313 312 3568
3568 312 311 3569
3569 311 310 3570
3570 310 309 3571
3571 309 308 3572
3572 308 307 3573
3573 307 306 3574
3574 306 305 3575
3575 305 304 3576
3576 304 303 3577
3577 303 302 3578
3578 302 301 3579
3579 301 300 3580
3580 300 299 3581
3581 299 298 3582
3582 298 297 3583
3583 297 296 3584
3584 296 295 3585
3585 295 294 3586
3586 294 293 3587
3587 293 292 3588
3588 292 291 3589
3589 291 290 3590
3590 290 289 3591
3591 289 288 3592
3592 288 287 3593
3593 287 286 3594
3594 286 285 3595
3595 285 284 3596
3596 284 283 3597
3597 283 6 165
4 108 3598 380
380 3598 3599 379
379 3599 3600 378
378 3600 3601 377
377 3601 3602 376
376 3602 3603 375
375 3603 3604 374
374 3604 3605 373
373 3605 3606 372
372 3606 3607 371
371 3607 3608 370
370 3608 3609 369
369 3609 3610 368
368 3610 3611 367
367 3611 3612 366
366 3612 3613 365
365 3613 3614 364
364 3614 3615 363
363 3615 3616 362
362 3616 323 9
108 109 3617 3598
3598 3617 3618 3599
3599 3618 3619 3600
3600 3619 3620 3601
3601 3620 3621 3602
3602 3621 3622 3603
3603 3622 3623 3604
3604 3623 3624 3605
3605 3624 3625 3606
3606 3625 3626 3607
3607 3626 3627 3608
3608 3627 3628 3609
3609 3628 3629 3610
3610 3629 3630 3611
3611 3630 3631 3612
3612 3631 3632 3613
3613 3632 3633 3614
3614 3633 3634 3615
3615 3634 3635 3616
3616 3635 324 323
109 110 3636 3617
3617 3636 3637 3618
3618 3637 3638 3619
3619 3638 3639 3620
3620 3639 3640 3621
3621 3640 3641 3622
3622 3641 3642 3623
3623 3642 3643 3624
3624 3643 3644 3625
3625 3644 3645 3626
3626 3645 3646 3627
3627 3646 3647 3628
3628 3647 3648 3629
3629 3648 3649 3630
3630 3649 3650 3631
3631 3650 3651 3632
3632 3651 3652 3633
3633 3652 3653 3634
3634 3653 3654 3635
3635 3654 325 324
110 111 3655 3636
3636 3655 3656 3637
3637 3656 3657 3638
3638 3657 3658 3639
3639 3658 3659 3640
3640 3659 3660 3641
3641 3660 3661 3642
3642 3661 3662 3643
3643 3662 3663 3644
3644 3663 3664 3645
3645 3664 3665 3646
3646 3665 3666 3647
3647 3666 3667 3648
3648 3667 3668 3649
3649 3668 3669 3650
3650 3669 3670 3651
3651 3670 3671 3652
3652 3671 3672 3653
3653 3672 3673 3654
3654 3673 326 325
111 112 3674 3655
3655 3674 3675 3656
3656 3675 3676 3657
3657 3676 3677 3658
3658 3677 3678 3659
3659 3678 3679 3660
3660 3679 3680 3661
3661 3680 3681 3662
3662 3681 3682 3663
3663 3682 3683 3664
3664 3683 3684 3665
3665 3684 3685 3666
3666 3685 3686 3667
3667 3686 3687 3668
3668 3687 3688 3669
3669 3688 3689 3670
3670 3689 3690 3671
3671 3690 3691 3672
3672 3691 3692 3673
3673 3692 327 326
112 113 3693 3674
3674 3693 3694 3675
3675 3694 3695 3676
3676 3695 3696 3677
3677 3696 3697 3678
3678 3697 3698 3679
3679 3698 3699 3680
3680 3699 3700 3681
3681 3700 3701 3682
3682 3701 3702 3683
3683 3702 3703 3684
3684 3703 3704 3685
3685 3704 3705 3686
3686 3705 3706 3687
3687 3706 3707 3688
3688 3707 3708 3689
3689 3708 3709 3690
3690 3709 3710 3691
3691 3710 3711 3692
3692 3711 328 327
113 114 3712 3693
3693 3712 3713 3694
3694 3713 3714 3695
3695 3714 3715 3696
3696 3715 3716 3697
3697 3716 3717 3698
3698 3717 3718 3699
3699 3718 3719 3700
3700 3719 3720 3701
3701 3720 3721 3702
3702 3721 3722 3703
3703 3722 3723 3704
3704 3723 3724 3705
3705 3724 3725 3706
3706 3725 3726 3707
3707 3726 3727 3708
3708 3727 3728 3709
3709 3728 3729 3710
3710 3729 3730 3711
3711 3730 329 328
114 115 3731 3712
3712 3731 3732 3713
3713 3732 3733 3714
3714 3733 3734 3715
3715 3734 3735 3716
3716 3735 3736 3717
3717 3736 3737 3718
3718 3737 3738 3719
3719 3738 3739 3720
3720 3739 3740 3721
3721 3740 3741 3722
3722 3741 3742 3723
3723 3742 3743 3724
3724 3743 3744 3725
3725 3744 3745 3726
3726 3745 3746 3727
3727 3746 3747 3728
3728 3747 3748 3729
3729 3748 3749 3730
3730 3749 330 329
115 116 3750 3731
3731 3750 3751 3732
3732 3751 3752 3733
3733 3752 3753 3734
3734 3753 3754 3735
3735 3754 3755 3736
3736 3755 3756 3737
3737 3756 3757 3738
3738 3757 3758 3739
3739 3758 3759 3740
3740 3759 3760 3741
3741 3760 3761 3742
3742 3761 3762 3743
3743 3762 3763 3744
3744 3763 3764 3745
3745 3764 3765 3746
3746 3765 3766 3747
3747 3766 3767 3748
3748 3767 3768 3749
3749 3768 331 330
116 117 3769 3750
3750 3769 3770 3751
3751 3770 3771 3752
3752 3771 3772 3753
3753 3772 3773 3754
3754 3773 3774 3755
3755 3774 3775 3756
3756 3775 3776 3757
3757 3776 3777 3758
3758 3777 3778 3759
3759 3778 3779 3760
3760 3779 3780 3761
3761 3780 3781 3762
3762 3781 3782 3763
3763 3782 3783 3764
3764 3783 3784 3765
3765 3784 3785 3766
3766 3785 3786 3767
3767 3786 3787 3768
3768 3787 332 331
117 118 3788 3769
3769 3788 3789 3770
3770 3789 3790 3771
3771 3790 3791 3772
3772 3791 3792 3773
3773 3792 3793 3774
3774 3793 3794 3775
3775 3794 3795 3776
3776 3795 3796 3777
3777 3796 3797 3778
3778 3797 3798 3779
3779 3798 3799 3780
3780 3799 3800 3781
3781 3800 3801 3782
3782 3801 3802 3783
3783 3802 3803 3784
3784 3803 3804 3785
3785 3804 3805 3786
3786 3805 3806 3787
3787 3806 333 332
118 119 3807 3788
3788 3807 3808 3789
3789 3808 3809 3790
3790 3809 3810 3791
3791 3810 3811 3792
3792 3811 3812 3793
3793 3812 3813 3794
3794 3813 3814 3795
3795 3814 3815 3796
3796 3815 3816 3797
3797 3816 3817 3798
3798 3817 3818 3799
3799 3818 3819 3800
3800 3819 3820 3801
3801 3820 3821 3802
3802 3821 3822 3803
3803 3822 3823 3804
3804 3823 3824 3805
3805 3824 3825 3806
3806 3825 334 333
119 120 3826 3807
3807 3826 3827 3808
3808 3827 3828 3809
3809 3828 3829 3810
3810 3829 3830 3811
3811 3830 3831 3812
3812 3831 3832 3813
3813 3832 3833 3814
3814 3833 3834 3815
3815 3834 3835 3816
3816 3835 3836 3817
3817 3836 3837 3818
3818 3837 3838 3819
3819 3838 3839 3820
3820 3839 3840 3821
3821 3840 3841 3822
3822 3841 3842 3823
3823 3842 3843 3824
3824 3843 3844 3825
3825 3844 335 334
120 121 3845 3826
3826 3845 3846 3827
3827 3846 3847 3828
3828 3847 3848 3829
3829 3848 3849 3830
3830 3849 3850 3831
3831 3850 3851 3832
3832 3851 3852 3833
3833 3852 3853 3834
3834 3853 3854 3835
3835 3854 3855 3836
3836 3855 3856 3837
3837 3856 3857 3838
3838 3857 3858 3839
3839 3858 3859 3840
3840 3859 3860 3841
3841 3860 3861 3842
3842 3861 3862 3843
3843 3862 3863 3844
3844 3863 336 335
121 122 3864 3845
3845 3864 3865 3846
3846 3865 3866 3847
3847 3866 3867 3848
3848 3867 3868 3849
3849 3868 3869 3850
3850 3869 3870 3851
3851 3870 3871 3852
3852 3871 3872 3853
3853 3872 3873 3854
3854 3873 3874 3855
3855 3874 3875 3856
3856 3875 3876 3857
3857 3876 3877 3858
3858 3877 3878 3859
3859 3878 3879 3860
3860 3879 3880 3861
3861 3880 3881 3862
3862 3881 3882 3863
3863 3882 337 336
122 123 3883 3864
3864 3883 3884 3865
3865 3884 3885 3866
3866 3885 3886 3867
3867 3886 3887 3868
3868 3887 3888 3869
3869 3888 3889 3870
3870 3889 3890 3871
3871 3890 3891 3872
3872 3891 3892 3873
3873 3892 3893 3874
3874 3893 3894 3875
3875 3894 3895 3876
3876 3895 3896 3877
3877 3896 3897 3878
3878 3897 3898 3879
3879 3898 3899 3880
3880 3899 3900 3881
3881 3900 3901 3882
3882 3901 338 337
123 124 3902 3883
3883 3902 3903 3884
3884 3903 3904 3885
3885 3904 3905 3886
3886 3905 3906 3887
3887 3906 3907 3888
3888 3907 3908 3889
3889 3908 3909 3890
3890 3909 3910 3891
3891 3910 3911 3892
3892 3911 3912 3893
3893 3912 3913 3894
3894 3913 3914 3895
3895 3914 3915 3896
3896 3915 3916 3897
3897 3916 3917 3898
3898 3917 3918 3899
3899 3918 3919 3900
3900 3919 3920 3901
3901 3920 339 338
124 125 3921 3902
3902 3921 3922 3903
3903 3922 3923 3904
3904 3923 3924 3905
3905 3924 3925 3906
3906 3925 3926 3907
3907 3926 3927 3908
3908 3927 3928 3909
3909 3928 3929 3910
3910 3929 3930 3911
3911 3930 3931 3912
3912 3931 3932 3913
3913 3932 3933 3914
3914 3933 3934 3915
3915 3934 3935 3916
3916 3935 3936 3917
3917 3936 3937 3918
3918 3937 3938 3919
3919 3938 3939 3920
3920 3939 340 339
125 126 3940 3921
3921 3940 3941 3922
3922 3941 3942 3923
3923 3942 3943 3924
3924 3943 3944 3925
3925 3944 3945 3926
3926 3945 3946 3927
3927 3946 3947 3928
3928 3947 3948 3929
3929 3948 3949 3930
3930 3949 3950 3931
3931 3950 3951 3932
3932 3951 3952 3933
3933 3952 3953 3934
3934 3953 3954 3935
3935 3954 3955 3936
3936 3955 3956 3937
3937 3956 3957 3938
3938 3957 3958 3939
3939 3958 341 340
126 127 3959 3940
3940 3959 3960 3941
3941 3960 3961 3942
3942 3961 3962 3943
3943 3962 3963 3944
3944 3963 3964 3945
3945 3964 3965 3946
3946 3965 3966 3947
3947 3966 3967 3948
3948 3967 3968 3949
3949 3968 3969 3950
3950 3969 3970 3951
3951 3970 3971 3952
3952 3971 3972 3953
3953 3972 3973 3954
3954 3973 3974 3955
3955 3974 3975 3956
3956 3975 3976 3957
3957 3976 3977 3958
3958 3977 342 341
127 128 3978 3959
3959 3978 3979 3960
3960 3979 3980 3961
3961 3980 3981 3962
3962 3981 3982 3963
3963 3982 3983 3964
3964 3983 3984 3965
3965 3984 3985 3966
3966 3985 3986 3967
3967 3986 3987 3968
3968 3987 3988 3969
3969 3988 3989 3970
3970 3989 3990 3971
3971 3990 3991 3972
3972 3991 3992 3973
3973 3992 3993 3974
3974 3993 3994 3975
3975 3994 3995 3976
3976 3995 3996 3977
3977 3996 343 342
128 129 3997 3978
3978 3997 3998 3979
3979 3998 3999 3980
3980 3999 4000 3981
3981 4000 4001 3982
3982 4001 4002 3983
3983 4002 4003 3984
3984 4003 4004 3985
3985 4004 4005 3986
3986 4005 4006 3987
3987 4006 4007 3988
3988 4007 4008 3989
3989 4008 4009 3990
3990 4009 4010 3991
3991 4010 4011 3992
3992 4011 4012 3993
3993 4012 4013 3994
3994 4013 4014 3995
3995 4014 4015 3996
3996 4015 344 343
129 130 4016 3997
3997 4016 4017 3998
3998 4017 4018 3999
3999 4018 4019 4000
4000 4019 4020 4001
4001 4020 4021 4002
4002 4021 4022 4003
4003 4022 4023 4004
4004 4023 4024 4005
4005 4024 4025 4006
4006 4025 4026 4007
4007 4026 4027 4008
4008 4027 4028 4009
4009 4028 4029 4010
4010 4029 4030 4011
4011 4030 4031 4012
4012 4031 4032 4013
4013 4032 4033 4014
4014 4033 4034 4015
4015 4034 345 344
130 131 4035 4016
4016 4035 4036 4017
4017 4036 4037 4018
4018 4037 4038 4019
4019 4038 4039 4020
4020 4039 4040 4021
4021 4040 4041 4022
4022 4041 4042 4023
4023 4042 4043 4024
4024 4043 4044 4025
4025 4044 4045 4026
4026 4045 4046 4027
4027 4046 4047 4028
4028 4047 4048 4029
4029 4048 4049 4030
4030 4049 4050 4031
4031 4050 4051 4032
4032 4051 4052 4033
4033 4052 4053 4034
4034 4053 346 345
131 132 4054 4035
4035 4054 4055 4036
4036 4055 4056 4037
4037 4056 4057 4038
4038 4057 4058 4039
4039 4058 4059 4040
4040 4059 4060 4041
4041 4060 4061 4042
4042 4061 4062 4043
4043 4062 4063 4044
4044 4063 4064 4045
4045 4064 4065 4046
4046 4065 4066 4047
4047 4066 4067 4048
4048 4067 4068 4049
4049 4068 4069 4050
4050 4069 4070 4051
4051 4070 4071 4052
4052 4071 4072 4053
4053 4072 347 346
132 133 4073 4054
4054 4073 4074 4055
4055 4074 4075 4056
4056 4075 4076 4057
4057 4076 4077 4058
4058 4077 4078 4059
4059 4078 4079 4060
4060 4079 4080 4061
4061 4080 4081 4062
4062 4081 4082 4063
4063 4082 4083 4064
4064 4083 4084 4065
4065 4084 4085 4066
4066 4085 4086 4067
4067 4086 4087 4068
4068 4087 4088 4069
4069 4088 4089 4070
4070 4089 4090 4071
4071 4090 4091 4072
4072 4091 348 347
133 134 4092 4073
4073 4092 4093 4074
4074 4093 4094 4075
4075 4094 4095 4076
4076 4095 4096 4077
4077 4096 4097 4078
4078 4097 4098 4079
4079 4098 4099 4080
4080 4099 4100 4081
4081 4100 4101 4082
4082 4101 4102 4083
4083 4102 4103 4084
4084 4103 4104 4085
4085 4104 4105 4086
4086 4105 4106 4087
4087 4106 4107 4088
4088 4107 4108 4089
4089 4108 4109 4090
4090 4109 4110 4091
4091 4110 349 348
134 135 4111 4092
4092 4111 4112 4093
4093 4112 4113 4094
4094 4113 4114 4095
4095 4114 4115 4096
4096 4115 4116 4097
4097 4116 4117 4098
4098 4117 4118 4099
4099 4118 4119 4100
4100 4119 4120 4101
4101 4120 4121 4102
4102 4121 4122 4103
4103 4122 4123 4104
4104 4123 4124 4105
4105 4124 4125 4106
4106 4125 4126 4107
4107 4126 4127 4108
4108 4127 4128 4109
4109 4128 4129 4110
4110 4129 350 349
135 136 4130 4111
4111 4130 4131 4112
4112 4131 4132 4113
4113 4132 4133 4114
4114 4133 4134 4115
4115 4134 4135 4116
4116 4135 4136 4117
4117 4136 4137 4118
4118 4137 4138 4119
4119 4138 4139 4120
4120 4139 4140 4121
4121 4140 4141 4122
4122 4141 4142 4123
4123 4142 4143 4124
4124 4143 4144 4125
4125 4144 4145 4126
4126 4145 4146 4127
4127 4146 4147 4128
4128 4147 4148 4129
4129 4148 351 350
136 137 4149 4130
4130 4149 4150 4131
4131 4150 4151 4132
4132 4151 4152 4133
4133 4152 4153 4134
4134 4153 4154 4135
4135 4154 4155 4136
4136 4155 4156 4137
4137 4156 4157 4138
4138 4157 4158 4139
4139 4158 4159 4140
4140 4159 4160 4141
4141 4160 4161 4142
4142 4161 4162 4143
4143 4162 4163 4144
4144 4163 4164 4145
4145 4164 4165 4146
4146 4165 4166 4147
4147 4166 4167 4148
4148 4167 352 351
137 138 4168 4149
4149 4168 4169 4150
4150 4169 4170 4151
4151 4170 4171 4152
4152 4171 4172 4153
4153 4172 4173 4154
4154 4173 4174 4155
4155 4174 4175 4156
4156 4175 4176 4157
4157 4176 4177 4158
4158 4177 4178 4159
4159 4178 4179 4160
4160 4179 4180 4161
4161 4180 4181 4162
4162 4181 4182 4163
4163 4182 4183 4164
4164 4183 4184 4165
4165 4184 4185 4166
4166 4185 4186 4167
4167 4186 353 352
138 139 4187 4168
4168 4187 4188 4169
4169 4188 4189 4170
4170 4189 4190 4171
4171 4190 4191 4172
4172 4191 4192 4173
4173 4192 4193 4174
4174 4193 4194 4175
4175 4194 4195 4176
4176 4195 4196 4177
4177 4196 4197 4178
4178 4197 4198 4179
4179 4198 4199 4180
4180 4199 4200 4181
4181 4200 4201 4182
4182 4201 4202 4183
4183 4202 4203 4184
4184 4203 4204 4185
4185 4204 4205 4186
4186 4205 354 353
139 140 4206 4187
4187 4206 4207 4188
4188 4207 4208 4189
4189 4208 4209 4190
4190 4209 4210 4191
4191 4210 4211 4192
4192 4211 4212 4193
4193 4212 4213 4194
4194 4213 4214 4195
4195 4214 4215 4196
4196 4215 4216 4197
4197 4216 4217 4198
4198 4217 4218 4199
4199 4218 4219 4200
4200 4219 4220 4201
4201 4220 4221 4202
4202 4221 4222 4203
4203 4222 4223 4204
4204 4223 4224 4205
4205 4224 355 354
140 141 4225 4206
4206 4225 4226 4207
4207 4226 4227 4208
4208 4227 4228 4209
4209 4228 4229 4210
4210 4229 4230 4211
4211 4230 4231 4212
4212 4231 4232 4213
4213 4232 4233 4214
4214 4233 4234 4215
4215 4234 4235 4216
4216 4235 4236 4217
4217 4236 4237 4218
4218 4237 4238 4219
4219 4238 4239 4220
4220 4239 4240 4221
4221 4240 4241 4222
4222 4241 4242 4223
4223 4242 4243 4224
4224 4243 356 355
141 142 4244 4225
4225 4244 4245 4226
4226 4245 4246 4227
4227 4246 4247 4228
4228 4247 4248 4229
4229 4248 4249 4230
4230 4249 4250 4231
4231 4250 4251 4232
4232 4251 4252 4233
4233 4252 4253 4234
4234 4253 4254 4235
4235 4254 4255 4236
4236 4255 4256 4237
4237 4256 4257 4238
4238 4257 4258 4239
4239 4258 4259 4240
4240 4259 4260 4241
4241 4260 4261 4242
4242 4261 4262 4243
4243 4262 357 356
142 143 4263 4244
4244 4263 4264 4245
4245 4264 4265 4246
4246 4265 4266 4247
4247 4266 4267 4248
4248 4267 4268 4249
4249 4268 4269 4250
4250 4269 4270 4251
4251 4270 4271 4252
4252 4271 4272 4253
4253 4272 4273 4254
4254 4273 4274 4255
4255 4274 4275 4256
4256 4275 4276 4257
4257 4276 4277 4258
4258 4277 4278 4259
4259 4278 4279 4260
4260 4279 4280 4261
4261 4280 4281 4262
4262 4281 358 357
143 144 4282 4263
4263 4282 4283 4264
4264 4283 4284 4265
4265 4284 4285 4266
4266 4285 4286 4267
4267 4286 4287 4268
4268 4287 4288 4269
4269 4288 4289 4270
4270 4289 4290 4271
4271 4290 4291 4272
4272 4291 4292 4273
4273 4292 4293 4274
4274 4293 4294 4275
4275 4294 4295 4276
4276 4295 4296 4277
4277 4296 4297 4278
4278 4297 4298 4279
4279 4298 4299 4280
4280 4299 4300 4281
4281 4300 359 358
144 145 4301 4282
4282 4301 4302 4283
4283 4302 4303 4284
4284 4303 4304 4285
4285 4304 4305 4286
4286 4305 4306 4287
4287 4306 4307 4288
4288 4307 4308 4289
4289 4308 4309 4290
4290 4309 4310 4291
4291 4310 4311 4292
4292 4311 4312 4293
4293 4312 4313 4294
4294 4313 4314 4295
4295 4314 4315 4296
4296 4315 4316 4297
4297 4316 4317 4298
4298 4317 4318 4299
4299 4318 4319 4300
4300 4319 360 359
145 146 4320 4301
4301 4320 4321 4302
4302 4321 4322 4303
4303 4322 4323 4304
4304 4323 4324 4305
4305 4324 4325 4306
4306 4325 4326 4307
4307 4326 4327 4308
4308 4327 4328 4309
4309 4328 4329 4310
4310 4329 4330 4311
4311 4330 4331 4312
4312 4331 4332 4313
4313 4332 4333 4314
4314 4333 4334 4315
4315 4334 4335 4316
4316 4335 4336 4317
4317 4336 4337 4318
4318 4337 4338 4319
4319 4338 361 360
146 5 399 4320
4320 399 398 4321
4321 398 397 4322
4322 397 396 4323
4323 396 395 4324
4324 395 394 4325
4325 394 393 4326
4326 393 392 4327
4327 392 391 4328
4328 391 390 4329
4329 390 389 4330
4330 389 388 4331
4331 388 387 4332
4332 387 386 4333
4333 386 385 4334
4334 385 384 4335
4335 384 383 4336
4336 383 382 4337
4337 382 381 4338
4338 381 10 361
3 89 4339 166
166 4339 4340 167
167 4340 4341 168
168 4341 4342 169
169 4342 4343 170
170 4343 4344 171
171 4344 4345 172
172 4345 4346 173
173 4346 4347 174
174 4347 4348 175
175 4348 4349 176
176 4349 4350 177
177 4350 4351 178
178 4351 4352 179
179 4352 4353 180
180 4353 4354 181
181 4354 4355 182
182 4355 4356 183
183 4356 4357 184
184 4357 418 7
89 90 4358 4339
4339 4358 4359 4340
4340 4359 4360 4341
4341 4360 4361 4342
4342 4361 4362 4343
4343 4362 4363 4344
4344 4363 4364 4345
4345 4364 4365 4346
4346 4365 4366 4347
4347 4366 4367 4348
4348 4367 4368 4349
4349 4368 4369 4350
4350 4369 4370 4351
4351 4370 4371 4352
4352 4371 4372 4353
4353 4372 4373 4354
4354 4373 4374 4355
4355 4374 4375 4356
4356 4375 4376 4357
4357 4376 417 418
90 91 4377 4358
4358 4377 4378 4359
4359 4378 4379 4360
4360 4379 4380 4361
4361 4380 4381 4362
4362 4381 4382 4363
4363 4382 4383 4364
4364 4383 4384 4365
4365 4384 4385 4366
4366 4385 4386 4367
4367 4386 4387 4368
4368 4387 4388 4369
4369 4388 4389 4370
4370 4389 4390 4371
4371 4390 4391 4372
4372 4391 4392 4373
4373 4392 4393 4374
4374 4393 4394 4375
4375 4394 4395 4376
4376 4395 416 417
91 92 4396 4377
4377 4396 4397 4378
4378 4397 4398 4379
4379 4398 4399 4380
4380 4399 4400 4381
4381 4400 4401 4382
4382 4401 4402 4383
4383 4402 4403 4384
4384 4403 4404 4385
4385 4404 4405 4386
4386 4405 4406 4387
4387 4406 4407 4388
4388 4407 4408 4389
4389 4408 4409 4390
4390 4409 4410 4391
4391 4410 4411 4392
4392 4411 4412 4393
4393 4412 4413 4394
4394 4413 4414 4395
4395 4414 415 416
92 93 4415 4396
4396 4415 4416 4397
4397 4416 4417 4398
4398 4417 4418 4399
4399 4418 4419 4400
4400 4419 4420 4401
4401 4420 4421 4402
4402 4421 4422 4403
4403 4422 4423 4404
4404 4423 4424 4405
4405 4424 4425 4406
4406 4425 4426 4407
4407 4426 4427 4408
4408 4427 4428 4409
4409 4428 4429 4410
4410 4429 4430 4411
4411 4430 4431 4412
4412 4431 4432 4413
4413 4432 4433 4414
4414 4433 414 415
93 94 4434 4415
4415 4434 4435 4416
4416 4435 4436 4417
4417 4436 4437 4418
4418 4437 4438 4419
4419 4438 4439 4420
4420 4439 4440 4421
4421 4440 4441 4422
4422 4441 4442 4423
4423 4442 4443 4424
4424 4443 4444 4425
4425 4444 4445 4426
4426 4445 4446 4427
4427 4446 4447 4428
4428 4447 4448 4429
4429 4448 4449 4430
4430 4449 4450 4431
4431 4450 4451 4432
4432 4451 4452 4433
4433 4452 413 414
94 95 4453 4434
4434 4453 4454 4435
4435 4454 4455 4436
4436 4455 4456 4437
4437 4456 4457 4438
4438 4457 4458 4439
4439 4458 4459 4440
4440 4459 4460 4441
4441 4460 4461 4442
4442 4461 4462 4443
4443 4462 4463 4444
4444 4463 4464 4445
4445 4464 4465 4446
4446 4465 4466 4447
4447 4466 4467 4448
4448 4467 4468 4449
4449 4468 4469 4450
4450 4469 4470 4451
4451 4470 4471 4452
4452 4471 412 413
95 96 4472 4453
4453 4472 4473 4454
4454 4473 4474 4455
4455 4474 4475 4456
4456 4475 4476 4457
4457 4476 4477 4458
4458 4477 4478 4459
4459 4478 4479 4460
4460 4479 4480 4461
4461 4480 4481 4462
4462 4481 4482 4463
4463 4482 4483 4464
4464 4483 4484 4465
4465 4484 4485 4466
4466 4485 4486 4467
4467 4486 4487 4468
4468 4487 4488 4469
4469 4488 4489 4470
4470 4489 4490 4471
4471 4490 411 412
96 97 4491 4472
4472 4491 4492 4473
4473 4492 4493 4474
4474 4493 4494 4475
4475 4494 4495 4476
4476 4495 4496 4477
4477 4496 4497 4478
4478 4497 4498 4479
4479 4498 4499 4480
4480 4499 4500 4481
4481 4500 4501 4482
4482 4501 4502 4483
4483 4502 4503 4484
4484 4503 4504 4485
4485 4504 4505 4486
4486 4505 4506 4487
4487 4506 4507 4488
4488 4507 4508 4489
4489 4508 4509 4490
4490 4509 410 411
97 98 4510 4491
4491 4510 4511 4492
4492 4511 4512 4493
4493 4512 4513 4494
4494 4513 4514 4495
4495 4514 4515 4496
4496 4515 4516 4497
4497 4516 4517 4498
4498 4517 4518 4499
4499 4518 4519 4500
4500 4519 4520 4501
4501 4520 4521 4502
4502 4521 4522 4503
4503 4522 4523 4504
4504 4523 4524 4505
4505 4524 4525 4506
4506 4525 4526 4507
4507 4526 4527 4508
4508 4527 4528 4509
4509 4528 409 410
98 99 4529 4510
4510 4529 4530 4511
4511 4530 4531 4512
4512 4531 4532 4513
4513 4532 4533 4514
4514 4533 4534 4515
4515 4534 4535 4516
4516 4535 4536 4517
4517 4536 4537 4518
4518 4537 4538 4519
4519 4538 4539 4520
4520 4539 4540 4521
4521 4540 4541 4522
4522 4541 4542 4523
4523 4542 4543 4524
4524 4543 4544 4525
4525 4544 4545 4526
4526 4545 4546 4527
4527 4546 4547 4528
4528 4547 408 409
99 100 4548 4529
4529 4548 4549 4530
4530 4549 4550 4531
4531 4550 4551 4532
4532 4551 4552 4533
4533 4552 4553 4534
4534 4553 4554 4535
4535 4554 4555 4536
4536 4555 4556 4537
4537 4556 4557 4538
4538 4557 4558 4539
4539 4558 4559 4540
4540 4559 4560 4541
4541 4560 4561 4542
4542 4561 4562 4543
4543 4562 4563 4544
4544 4563 4564 4545
4545 4564 4565 4546
4546 4565 4566 4547
4547 4566 407 408
100 101 4567 4548
4548 4567 4568 4549
4549 4568 4569 4550
4550 4569 4570 4551
4551 4570 4571 4552
4552 4571 4572 4553
4553 4572 4573 4554
4554 4573 4574 4555
4555 4574 4575 4556
4556 4575 4576 4557
4557 4576 4577 4558
4558 4577 4578 4559
4559 4578 4579 4560
4560 4579 4580 4561
4561 4580 4581 4562
4562 4581 4582 4563
4563 4582 4583 4564
4564 4583 4584 4565
4565 4584 4585 4566
4566 4585 406 407
101 102 4586 4567
4567 4586 4587 4568
4568 4587 4588 4569
4569 4588 4589 4570
4570 4589 4590 4571
4571 4590 4591 4572
4572 4591 4592 4573
4573 4592 4593 4574
4574 4593 4594 4575
4575 4594 4595 4576
4576 4595 4596 4577
4577 4596 4597 4578
4578 4597 4598 4579
4579 4598 4599 4580
4580 4599 4600 4581
4581 4600 4601 4582
4582 4601 4602 4583
4583 4602 4603 4584
4584 4603 4604 4585
4585 4604 405 406
102 103 4605 4586
4586 4605 4606 4587
4587 4606 4607 4588
4588 4607 4608 4589
4589 4608 4609 4590
4590 4609 4610 4591
4591 4610 4611 4592
4592 4611 4612 4593
4593 4612 4613 4594
4594 4613 4614 4595
4595 4614 4615 4596
4596 4615 4616 4597
4597 4616 4617 4598
4598 4617 4618 4599
4599 4618 4619 4600
4600 4619 4620 4601
4601 4620 4621 4602
4602 4621 4622 4603
4603 4622 4623 4604
4604 4623 404 405
103 104 4624 4605
4605 4624 4625 4606
4606 4625 4626 4607
4607 4626 4627 4608
4608 4627 4628 4609
4609 4628 4629 4610
4610 4629 4630 4611
4611 4630 4631 4612
4612 4631 4632 4613
4613 4632 4633 4614
4614 4633 4634 4615
4615 4634 4635 4616
4616 4635 4636 4617
4617 4636 4637 4618
4618 4637 4638 4619
4619 4638 4639 4620
4620 4639 4640 4621
4621 4640 4641 4622
4622 4641 4642 4623
4623 4642 403 404
104 105 4643 4624
4624 4643 4644 4625
4625 4644 4645 4626
4626 4645 4646 4627
4627 4646 4647 4628
4628 4647 4648 4629
4629 4648 4649 4630
4630 4649 4650 4631
4631 4650 4651 4632
4632 4651 4652 4633
4633 4652 4653 4634
4634 4653 4654 4635
4635 4654 4655 4636
4636 4655 4656 4637
4637 4656 4657 4638
4638 4657 4658 4639
4639 4658 4659 4640
4640 4659 4660 4641
4641 4660 4661 4642
4642 4661 402 403
105 106 4662 4643
4643 4662 4663 4644
4644 4663 4664 4645
4645 4664 4665 4646
4646 4665 4666 4647
4647 4666 4667 4648
4648 4667 4668 4649
4649 4668 4669 4650
4650 4669 4670 4651
4651 4670 4671 4652
4652 4671 4672 4653
4653 4672 4673 4654
4654 4673 4674 4655
4655 4674 4675 4656
4656 4675 4676 4657
4657 4676 4677 4658
4658 4677 4678 4659
4659 4678 4679 4660
4660 4679 4680 4661
4661 4680 401 402
106 107 4681 4662
4662 4681 4682 4663
4663 4682 4683 4664
4664 4683 4684 4665
4665 4684 4685 4666
4666 4685 4686 4667
4667 4686 4687 4668
4668 4687 4688 4669
4669 4688 4689 4670
4670 4689 4690 4671
4671 4690 4691 4672
4672 4691 4692 4673
4673 4692 4693 4674
4674 4693 4694 4675
4675 4694 4695 4676
4676 4695 4696 4677
4677 4696 4697 4678
4678 4697 4698 4679
4679 4698 4699 4680
4680 4699 400 401
107 4 380 4681
4681 380 379 4682
4682 379 378 4683
4683 378 377 4684
4684 377 376 4685
4685 376 375 4686
4686 375 374 4687
4687 374 373 4688
4688 373 372 4689
4689 372 371 4690
4690 371 370 4691
4691 370 369 4692
4692 369 368 4693
4693 368 367 4694
4694 367 366 4695
4695 366 365 4696
4696 365 364 4697
4697 364 363 4698
4698 363 362 4699
4699 362 9 400
5 147 4700 399
399 4700 4701 398
398 4701 4702 397
397 4702 4703 396
396 4703 4704 395
395 4704 4705 394
394 4705 4706 393
393 4706 4707 392
392 4707 4708 391
391 4708 4709 390
390 4709 4710 389
389 4710 4711 388
388 4711 4712 387
387 4712 4713 386
386 4713 4714 385
385 4714 4715 384
384 4715 4716 383
383 4716 4717 382
382 4717 4718 381
381 4718 419 10
147 148 4719 4700
4700 4719 4720 4701
4701 4720 4721 4702
4702 4721 4722 4703
4703 4722 4723 4704
4704 4723 4724 4705
4705 4724 4725 4706
4706 4725 4726 4707
4707 4726 4727 4708
4708 4727 4728 4709
4709 4728 4729 4710
4710 4729 4730 4711
4711 4730 4731 4712
4712 4731 4732 4713
4713 4732 4733 4714
4714 4733 4734 4715
4715 4734 4735 4716
4716 4735 4736 4717
4717 4736 4737 4718
4718 4737 420 419
148 149 4738 4719
4719 4738 4739 4720
4720 4739 4740 4721
4721 4740 4741 4722
4722 4741 4742 4723
4723 4742 4743 4724
4724 4743 4744 4725
4725 4744 4745 4726
4726 4745 4746 4727
4727 4746 4747 4728
4728 4747 4748 4729
4729 4748 4749 4730
4730 4749 4750 4731
4731 4750 4751 4732
4732 4751 4752 4733
4733 4752 4753 4734
4734 4753 4754 4735
4735 4754 4755 4736
4736 4755 4756 4737
4737 4756 421 420
149 150 4757 4738
4738 4757 4758 4739
4739 4758 4759 4740
4740 4759 4760 4741
4741 4760 4761 4742
4742 4761 4762 4743
4743 4762 4763 4744
4744 4763 4764 4745
4745 4764 4765 4746
4746 4765 4766 4747
4747 4766 4767 4748
4748 4767 4768 4749
4749 4768 4769 4750
4750 4769 4770 4751
4751 4770 4771 4752
4752 4771 4772 4753
4753 4772 4773 4754
4754 4773 4774 4755
4755 4774 4775 4756
4756 4775 422 421
150 151 4776 4757
4757 4776 4777 4758
4758 4777 4778 4759
4759 4778 4779 4760
4760 4779 4780 4761
4761 4780 4781 4762
4762 4781 4782 4763
4763 4782 4783 4764
4764 4783 4784 4765
4765 4784 4785 4766
4766 4785 4786 4767
4767 4786 4787 4768
4768 4787 4788 4769
4769 4788 4789 4770
4770 4789 4790 4771
4771 4790 4791 4772
4772 4791 4792 4773
4773 4792 4793 4774
4774 4793 4794 4775
4775 4794 423 422
151 152 4795 4776
4776 4795 4796 4777
4777 4796 4797 4778
4778 4797 4798 4779
4779 4798 4799 4780
4780 4799 4800 4781
4781 4800 4801 4782
4782 4801 4802 4783
4783 4802 4803 4784
4784 4803 4804 4785
4785 4804 4805 4786
4786 4805 4806 4787
4787 4806 4807 4788
4788 4807 4808 4789
4789 4808 4809 4790
4790 4809 4810 4791
4791 4810 4811 4792
4792 4811 4812 4793
4793 4812 4813 4794
4794 4813 424 423
152 153 4814 4795
4795 4814 4815 4796
4796 4815 4816 4797
4797 4816 4817 4798
4798 4817 4818 4799
4799 4818 4819 4800
4800 4819 4820 4801
4801 4820 4821 4802
4802 4821 4822 4803
4803 4822 4823 4804
4804 4823 4824 4805
4805 4824 4825 4806
4806 4825 4826 4807
4807 4826 4827 4808
4808 4827 4828 4809
4809 4828 4829 4810
4810 4829 4830 4811
4811 4830 4831 4812
4812 4831 4832 4813
4813 4832 425 424
153 154 4833 4814
4814 4833 4834 4815
4815 4834 4835 4816
4816 4835 4836 4817
4817 4836 4837 4818
4818 4837 4838 4819
4819 4838 4839 4820
4820 4839 4840 4821
4821 4840 4841 4822
4822 4841 4842 4823
4823 4842 4843 4824
4824 4843 4844 4825
4825 4844 4845 4826
4826 4845 4846 4827
4827 4846 4847 4828
4828 4847 4848 4829
4829 4848 4849 4830
4830 4849 4850 4831
4831 4850 4851 4832
4832 4851 426 425
154 155 4852 4833
4833 4852 4853 4834
4834 4853 4854 4835
4835 4854 4855 4836
4836 4855 4856 4837
4837 4856 4857 4838
4838 4857 4858 4839
4839 4858 4859 4840
4840 4859 4860 4841
4841 4860 4861 4842
4842 4861 4862 4843
4843 4862 4863 4844
4844 4863 4864 4845
4845 4864 4865 4846
4846 4865 4866 4847
4847 4866 4867 4848
4848 4867 4868 4849
4849 4868 4869 4850
4850 4869 4870 4851
4851 4870 427 426
155 156 4871 4852
4852 4871 4872 4853
4853 4872 4873 4854
4854 4873 4874 4855
4855 4874 4875 4856
4856 4875 4876 4857
4857 4876 4877 4858
4858 4877 4878 4859
4859 4878 4879 4860
4860 4879 4880 4861
4861 4880 4881 4862
4862 4881 4882 4863
4863 4882 4883 4864
4864 4883 4884 4865
4865 4884 4885 4866
4866 4885 4886 4867
4867 4886 4887 4868
4868 4887 4888 4869
4869 4888 4889 4870
4870 4889 428 427
156 157 4890 4871
4871 4890 4891 4872
4872 4891 4892 4873
4873 4892 4893 4874
4874 4893 4894 4875
4875 4894 4895 4876
4876 4895 4896 4877
4877 4896 4897 4878
4878 4897 4898 4879
4879 4898 4899 4880
4880 4899 4900 4881
4881 4900 4901 4882
4882 4901 4902 4883
4883 4902 4903 4884
4884 4903 4904 4885
4885 4904 4905 4886
4886 4905 4906 4887
4887 4906 4907 4888
4888 4907 4908 4889
4889 4908 429 428
157 158 4909 4890
4890 4909 4910 4891
4891 4910 4911 4892
4892 4911 4912 4893
4893 4912 4913 4894
4894 4913 4914 4895
4895 4914 4915 4896
4896 4915 4916 4897
4897 4916 4917 4898
4898 4917 4918 4899
4899 4918 4919 4900
4900 4919 4920 4901
4901 4920 4921 4902
4902 4921 4922 4903
4903 4922 4923 4904
4904 4923 4924 4905
4905 4924 4925 4906
4906 4925 4926 4907
4907 4926 4927 4908
4908 4927 430 429
158 159 4928 4909
4909 4928 4929 4910
4910 4929 4930 4911
4911 4930 4931 4912
4912 4931 4932 4913
4913 4932 4933 4914
4914 4933 4934 4915
4915 4934 4935 4916
4916 4935 4936 4917
4917 4936 4937 4918
4918 4937 4938 4919
4919 4938 4939 4920
4920 4939 4940 4921
4921 4940 4941 4922
4922 4941 4942 4923
4923 4942 4943 4924
4924 4943 4944 4925
4925 4944 4945 4926
4926 4945 4946 4927
4927 4946 431 430
159 160 4947 4928
4928 4947 4948 4929
4929 4948 4949 4930
4930 4949 4950 4931
4931 4950 4951 4932
4932 4951 4952 4933
4933 4952 4953 4934
4934 4953 4954 4935
4935 4954 4955 4936
4936 4955 4956 4937
4937 4956 4957 4938
4938 4957 4958 4939
4939 4958 4959 4940
4940 4959 4960 4941
4941 4960 4961 4942
4942 4961 4962 4943
4943 4962 4963 4944
4944 4963 4964 4945
4945 4964 4965 4946
4946 4965 432 431
160 161 4966 4947
4947 4966 4967 4948
4948 4967 4968 4949
4949 4968 4969 4950
4950 4969 4970 4951
4951 4970 4971 4952
4952 4971 4972 4953
4953 4972 4973 4954
4954 4973 4974 4955
4955 4974 4975 4956
4956 4975 4976 4957
4957 4976 4977 4958
4958 4977 4978 4959
4959 4978 4979 4960
4960 4979 4980 4961
4961 4980 4981 4962
4962 4981 4982 4963
4963 4982 4983 4964
4964 4983 4984 4965
4965 4984 433 432
161 162 4985 4966
4966 4985 4986 4967
4967 4986 4987 4968
4968 4987 4988 4969
4969 4988 4989 4970
4970 4989 4990 4971
4971 4990 4991 4972
4972 4991 4992 4973
4973 4992 4993 4974
4974 4993 4994 4975
4975 4994 4995 4976
4976 4995 4996 4977
4977 4996 4997 4978
4978 4997 4998 4979
4979 4998 4999 4980
4980 4999 5000 4981
4981 5000 5001 4982
4982 5001 5002 4983
4983 5002 5003 4984
4984 5003 434 433
162 163 5004 4985
4985 5004 5005 4986
4986 5005 5006 4987
4987 5006 5007 4988
4988 5007 5008 4989
4989 5008 5009 4990
4990 5009 5010 4991
4991 5010 5011 4992
4992 5011 5012 4993
4993 5012 5013 4994
4994 5013 5014 4995
4995 5014 5015 4996
4996 5015 5016 4997
4997 5016 5017 4998
4998 5017 5018 4999
4999 5018 5019 5000
5000 5019 5020 5001
5001 5020 5021 5002
5002 5021 5022 5003
5003 5022 435 434
163 164 5023 5004
5004 5023 5024 5005
5005 5024 5025 5006
5006 5025 5026 5007
5007 5026 5027 5008
5008 5027 5028 5009
5009 5028 5029 5010
5010 5029 5030 5011
5011 5030 5031 5012
5012 5031 5032 5013
5013 5032 5033 5014
5014 5033 5034 5015
5015 5034 5035 5016
5016 5035 5036 5017
5017 5036 5037 5018
5018 5037 5038 5019
5019 5038 5039 5020
5020 5039 5040 5021
5021 5040 5041 5022
5022 5041 436 435
164 165 5042 5023
5023 5042 5043 5024
5024 5043 5044 5025
5025 5044 5045 5026
5026 5045 5046 5027
5027 5046 5047 5028
5028 5047 5048 5029
5029 5048 5049 5030
5030 5049 5050 5031
5031 5050 5051 5032
5032 5051 5052 5033
5033 5052 5053 5034
5034 5053 5054 5035
5035 5054 5055 5036
5036 5055 5056 5037
5037 5056 5057 5038
5038 5057 5058 5039
5039 5058 5059 5040
5040 5059 5060 5041
5041 5060 437 436
165 6 242 5042
5042 242 241 5043
5043 241 240 5044
5044 240 239 5045
5045 239 238 5046
5046 238 237 5047
5047 237 236 5048
5048 236 235 5049
5049 235 234 5050
5050 234 233 5051
5051 233 232 5052
5052 232 231 5053
5053 231 230 5054
5054 230 229 5055
5055 229 228 5056
5056 228 227 5057
5057 227 226 5058
5058 226 225 5059
5059 225 224 5060
5060 224 8 437
9 323 5061 400
400 5061 5062 401
401 5062 5063 402
402 5063 5064 403
403 5064 5065 404
404 5065 5066 405
405 5066 5067 406
406 5067 5068 407
407 5068 5069 408
408 5069 5070 409
409 5070 5071 410
410 5071 5072 411
411 5072 5073 412
412 5073 5074 413
413 5074 5075 414
414 5075 5076 415
415 5076 5077 416
416 5077 5078 417
417 5078 5079 418
418 5079 185 7
323 324 5080 5061
5061 5080 5081 5062
5062 5081 5082 5063
5063 5082 5083 5064
5064 5083 5084 5065
5065 5084 5085 5066
5066 5085 5086 5067
5067 5086 5087 5068
5068 5087 5088 5069
5069 5088 5089 5070
5070 5089 5090 5071
5071 5090 5091 5072
5072 5091 5092 5073
5073 5092 5093 5074
5074 5093 5094 5075
5075 5094 5095 5076
5076 5095 5096 5077
5077 5096 5097 5078
5078 5097 5098 5079
5079 5098 186 185
324 325 5099 5080
5080 5099 5100 5081
5081 5100 5101 5082
5082 5101 5102 5083
5083 5102 5103 5084
5084 5103 5104 5085
5085 5104 5105 5086
5086 5105 5106 5087
5087 5106 5107 5088
5088 5107 5108 5089
5089 5108 5109 5090
5090 5109 5110 5091
5091 5110 5111 5092
5092 5111 5112 5093
5093 5112 5113 5094
5094 5113 5114 5095
5095 5114 5115 5096
5096 5115 5116 5097
5097 5116 5117 5098
5098 5117 187 186
325 326 5118 5099
5099 5118 5119 5100
5100 5119 5120 5101
5101 5120 5121 5102
5102 5121 5122 5103
5103 5122 5123 5104
5104 5123 5124 5105
5105 5124 5125 5106
5106 5125 5126 5107
5107 5126 5127 5108
5108 5127 5128 5109
5109 5128 5129 5110
5110 5129 5130 5111
5111 5130 5131 5112
5112 5131 5132 5113
5113 5132 5133 5114
5114 5133 5134 5115
5115 5134 5135 5116
5116 5135 5136 5117
5117 5136 188 187
326 327 5137 5118
5118 5137 5138 5119
5119 5138 5139 5120
5120 5139 5140 5121
5121 5140 5141 5122
5122 5141 5142 5123
5123 5142 5143 5124
5124 5143 5144 5125
5125 5144 5145 5126
5126 5145 5146 5127
5127 5146 5147 5128
5128 5147 5148 5129
5129 5148 5149 5130
5130 5149 5150 5131
5131 5150 5151 5132
5132 5151 5152 5133
5133 5152 5153 5134
5134 5153 5154 5135
5135 5154 5155 5136
5136 5155 189 188
327 328 5156 5137
5137 5156 5157 5138
5138 5157 5158 5139
5139 5158 5159 5140
5140 5159 5160 5141
5141 5160 5161 5142
5142 5161 5162 5143
5143 5162 5163 5144
5144 5163 5164 5145
5145 5164 5165 5146
5146 5165 5166 5147
5147 5166 5167 5148
5148 5167 5168 5149
5149 5168 5169 5150
5150 5169 5170 5151
5151 5170 5171 5152
5152 5171 5172 5153
5153 5172 5173 5154
5154 5173 5174 5155
5155 5174 190 189
328 329 5175 5156
5156 5175 5176 5157
5157 5176 5177 5158
5158 5177 5178 5159
5159 5178 5179 5160
5160 5179 5180 5161
5161 5180 5181 5162
5162 5181 5182 5163
5163 5182 5183 5164
5164 5183 5184 5165
5165 5184 5185 5166
5166 5185 5186 5167
5167 5186 5187 5168
5168 5187 5188 5169
5169 5188 5189 5170
5170 5189 5190 5171
5171 5190 5191 5172
5172 5191 5192 5173
5173 5192 5193 5174
5174 5193 191 190
329 330 5194 5175
5175 5194 5195 5176
5176 5195 5196 5177
5177 5196 5197 5178
5178 5197 5198 5179
5179 5198 5199 5180
5180 5199 5200 5181
5181 5200 5201 5182
5182 5201 5202 5183
5183 5202 5203 5184
5184 5203 5204 5185
5185 5204 5205 5186
5186 5205 5206 5187
5187 5206 5207 5188
5188 5207 5208 5189
5189 5208 5209 5190
5190 5209 5210 5191
5191 5210 5211 5192
5192 5211 5212 5193
5193 5212 192 191
330 331 5213 5194
5194 5213 5214 5195
5195 5214 5215 5196
5196 5215 5216 5197
5197 5216 5217 5198
5198 5217 5218 5199
5199 5218 5219 5200
5200 5219 5220 5201
5201 5220 5221 5202
5202 5221 5222 5203
5203 5222 5223 5204
5204 5223 5224 5205
5205 5224 5225 5206
5206 5225 5226 5207
5207 5226 5227 5208
5208 5227 5228 5209
5209 5228 5229 5210
5210 5229 5230 5211
5211 5230 5231 5212
5212 5231 193 192
331 332 5232 5213
5213 5232 5233 5214
5214 5233 5234 5215
5215 5234 5235 5216
5216 5235 5236 5217
5217 5236 5237 5218
5218 5237 5238 5219
5219 5238 5239 5220
5220 5239 5240 5221
5221 5240 5241 5222
5222 5241 5242 5223
5223 5242 5243 5224
5224 5243 5244 5225
5225 5244 5245 5226
5226 5245 5246 5227
5227 5246 5247 5228
5228 5247 5248 5229
5229 5248 5249 5230
5230 5249 5250 5231
5231 5250 194 193
332 333 5251 5232
5232 5251 5252 5233
5233 5252 5253 5234
5234 5253 5254 5235
5235 5254 5255 5236
5236 5255 5256 5237
5237 5256 5257 5238
5238 5257 5258 5239
5239 5258 5259 5240
5240 5259 5260 5241
5241 5260 5261 5242
5242 5261 5262 5243
5243 5262 5263 5244
5244 5263 5264 5245
5245 5264 5265 5246
5246 5265 5266 5247
5247 5266 5267 5248
5248 5267 5268 5249
5249 5268 5269 5250
5250 5269 195 194
333 334 5270 5251
5251 5270 5271 5252
5252 5271 5272 5253
5253 5272 5273 5254
5254 5273 5274 5255
5255 5274 5275 5256
5256 5275 5276 5257
5257 5276 5277 5258
5258 5277 5278 5259
5259 5278 5279 5260
5260 5279 5280 5261
5261 5280 5281 5262
5262 5281 5282 5263
5263 5282 5283 5264
5264 5283 5284 5265
5265 5284 5285 5266
5266 5285 5286 5267
5267 5286 5287 5268
5268 5287 5288 5269
5269 5288 196 195
334 335 5289 5270
5270 5289 5290 5271
5271 5290 5291 5272
5272 5291 5292 5273
5273 5292 5293 5274
5274 5293 5294 5275
5275 5294 5295 5276
5276 5295 5296 5277
5277 5296 5297 5278
5278 5297 5298 5279
5279 5298 5299 5280
5280 5299 5300 5281
5281 5300 5301 5282
5282 5301 5302 5283
5283 5302 5303 5284
5284 5303 5304 5285
5285 5304 5305 5286
5286 5305 5306 5287
5287 5306 5307 5288
5288 5307 197 196
335 336 5308 5289
5289 5308 5309 5290
5290 5309 5310 5291
5291 5310 5311 5292
5292 5311 5312 5293
5293 5312 5313 5294
5294 5313 5314 5295
5295 5314 5315 5296
5296 5315 5316 5297
5297 5316 5317 5298
5298 5317 5318 5299
5299 5318 5319 5300
5300 5319 5320 5301
5301 5320 5321 5302
5302 5321 5322 5303
5303 5322 5323 5304
5304 5323 5324 5305
5305 5324 5325 5306
5306 5325 5326 5307
5307 5326 198 197
336 337 5327 5308
5308 5327 5328 5309
5309 5328 5329 5310
5310 5329 5330 5311
5311 5330 5331 5312
5312 5331 5332 5313
5313 5332 5333 5314
5314 5333 5334 5315
5315 5334 5335 5316
5316 5335 5336 5317
5317 5336 5337 5318
5318 5337 5338 5319
5319 5338 5339 5320
5320 5339 5340 5321
5321 5340 5341 5322
5322 5341 5342 5323
5323 5342 5343 5324
5324 5343 5344 5325
5325 5344 5345 5326
5326 5345 199 198
337 338 5346 5327
5327 5346 5347 5328
5328 5347 5348 5329
5329 5348 5349 5330
5330 5349 5350 5331
5331 5350 5351 5332
5332 5351 5352 5333
5333 5352 5353 5334
5334 5353 5354 5335
5335 5354 5355 5336
5336 5355 5356 5337
5337 5356 5357 5338
5338 5357 5358 5339
5339 5358 5359 5340
5340 5359 5360 5341
5341 5360 5361 5342
5342 5361 5362 5343
5343 5362 5363 5344
5344 5363 5364 5345
5345 5364 200 199
338 339 5365 5346
5346 5365 5366 5347
5347 5366 5367 5348
5348 5367 5368 5349
5349 5368 5369 5350
5350 5369 5370 5351
5351 5370 5371 5352
5352 5371 5372 5353
5353 5372 5373 5354
5354 5373 5374 5355
5355 5374 5375 5356
5356 5375 5376 5357
5357 5376 5377 5358
5358 5377 5378 5359
5359 5378 5379 5360
5360 5379 5380 5361
5361 5380 5381 5362
5362 5381 5382 5363
5363 5382 5383 5364
5364 5383 201 200
339 340 5384 5365
5365 5384 5385 5366
5366 5385 5386 5367
5367 5386 5387 5368
5368 5387 5388 5369
5369 5388 5389 5370
5370 5389 5390 5371
5371 5390 5391 5372
5372 5391 5392 5373
5373 5392 5393 5374
5374 5393 5394 5375
5375 5394 5395 5376
5376 5395 5396 5377
5377 5396 5397 5378
5378 5397 5398 5379
5379 5398 5399 5380
5380 5399 5400 5381
5381 5400 5401 5382
5382 5401 5402 5383
5383 5402 202 201
340 341 5403 5384
5384 5403 5404 5385
5385 5404 5405 5386
5386 5405 5406 5387
5387 5406 5407 5388
5388 5407 5408 5389
5389 5408 5409 5390
5390 5409 5410 5391
5391 5410 5411 5392
5392 5411 5412 5393
5393 5412 5413 5394
5394 5413 5414 5395
5395 5414 5415 5396
5396 5415 5416 5397
5397 5416 5417 5398
5398 5417 5418 5399
5399 5418 5419 5400
5400 5419 5420 5401
5401 5420 5421 5402
5402 5421 203 202
341 342 5422 5403
5403 5422 5423 5404
5404 5423 5424 5405
5405 5424 5425 5406
5406 5425 5426 5407
5407 5426 5427 5408
5408 5427 5428 5409
5409 5428 5429 5410
5410 5429 5430 5411
5411 5430 5431 5412
5412 5431 5432 5413
5413 5432 5433 5414
5414 5433 5434 5415
5415 5434 5435 5416
5416 5435 5436 5417
5417 5436 5437 5418
5418 5437 5438 5419
5419 5438 5439 5420
5420 5439 5440 5421
5421 5440 204 203
342 343 5441 5422
5422 5441 5442 5423
5423 5442 5443 5424
5424 5443 5444 5425
5425 5444 5445 5426
5426 5445 5446 5427
5427 5446 5447 5428
5428 5447 5448 5429
5429 5448 5449 5430
5430 5449 5450 5431
5431 5450 5451 5432
5432 5451 5452 5433
5433 5452 5453 5434
5434 5453 5454 5435
5435 5454 5455 5436
5436 5455 5456 5437
5437 5456 5457 5438
5438 5457 5458 5439
5439 5458 5459 5440
5440 5459 205 204
343 344 5460 5441
5441 5460 5461 5442
5442 5461 5462 5443
5443 5462 5463 5444
5444 5463 5464 5445
5445 5464 5465 5446
5446 5465 5466 5447
5447 5466 5467 5448
5448 5467 5468 5449
5449 5468 5469 5450
5450 5469 5470 5451
5451 5470 5471 5452
5452 5471 5472 5453
5453 5472 5473 5454
5454 5473 5474 5455
5455 5474 5475 5456
5456 5475 5476 5457
5457 5476 5477 5458
5458 5477 5478 5459
5459 5478 206 205
344 345 5479 5460
5460 5479 5480 5461
5461 5480 5481 5462
5462 5481 5482 5463
5463 5482 5483 5464
5464 5483 5484 5465
5465 5484 5485 5466
5466 5485 5486 5467
5467 5486 5487 5468
5468 5487 5488 5469
5469 5488 5489 5470
5470 5489 5490 5471
5471 5490 5491 5472
5472 5491 5492 5473
5473 5492 5493 5474
5474 5493 5494 5475
5475 5494 5495 5476
5476 5495 5496 5477
5477 5496 5497 5478
5478 5497 207 206
345 346 5498 5479
5479 5498 5499 5480
5480 5499 5500 5481
5481 5500 5501 5482
5482 5501 5502 5483
5483 5502 5503 5484
5484 5503 5504 5485
5485 5504 5505 5486
5486 5505 5506 5487
5487 5506 5507 5488
5488 5507 5508 5489
5489 5508 5509 5490
5490 5509 5510 5491
5491 5510 5511 5492
5492 5511 5512 5493
5493 5512 5513 5494
5494 5513 5514 5495
5495 5514 5515 5496
5496 5515 5516 5497
5497 5516 208 207
346 347 5517 5498
5498 5517 5518 5499
5499 5518 5519 5500
5500 5519 5520 5501
5501 5520 5521 5502
5502 5521 5522 5503
5503 5522 5523 5504
5504 5523 5524 5505
5505 5524 5525 5506
5506 5525 5526 5507
5507 5526 5527 5508
5508 5527 5528 5509
5509 5528 5529 5510
5510 5529 5530 5511
5511 5530 5531 5512
5512 5531 5532 5513
5513 5532 5533 5514
5514 5533 5534 5515
5515 5534 5535 5516
5516 5535 209 208
347 348 5536 5517
5517 5536 5537 5518
5518 5537 5538 5519
5519 5538 5539 5520
5520 5539 5540 5521
5521 5540 5541 5522
5522 5541 5542 5523
5523 5542 5543 5524
5524 5543 5544 5525
5525 5544 5545 5526
5526 5545 5546 5527
5527 5546 5547 5528
5528 5547 5548 5529
5529 5548 5549 5530
5530 5549 5550 5531
5531 5550 5551 5532
5532 5551 5552 5533
5533 5552 5553 5534
5534 5553 5554 5535
5535 5554 210 209
348 349 5555 5536
5536 5555 5556 5537
5537 5556 5557 5538
5538 5557 5558 5539
5539 5558 5559 5540
5540 5559 5560 5541
5541 5560 5561 5542
5542 5561 5562 5543
5543 5562 5563 5544
5544 5563 5564 5545
5545 5564 5565 5546
5546 5565 5566 5547
5547 5566 5567 5548
5548 5567 5568 5549
5549 5568 5569 5550
5550 5569 5570 5551
5551 5570 5571 5552
5552 5571 5572 5553
5553 5572 5573 5554
5554 5573 211 210
349 350 5574 5555
5555 5574 5575 5556
5556 5575 5576 5557
5557 5576 5577 5558
5558 5577 5578 5559
5559 5578 5579 5560
5560 5579 5580 5561
5561 5580 5581 5562
5562 5581 5582 5563
5563 5582 5583 5564
5564 5583 5584 5565
5565 5584 5585 5566
5566 5585 5586 5567
5567 5586 5587 5568
5568 5587 5588 5569
5569 5588 5589 5570
5570 5589 5590 5571
5571 5590 5591 5572
5572 5591 5592 5573
5573 5592 212 211
350 351 5593 5574
5574 5593 5594 5575
5575 5594 5595 5576
5576 5595 5596 5577
5577 5596 5597 5578
5578 5597 5598 5579
5579 5598 5599 5580
5580 5599 5600 5581
5581 5600 5601 5582
5582 5601 5602 5583
5583 5602 5603 5584
5584 5603 5604 5585
5585 5604 5605 5586
5586 5605 5606 5587
5587 5606 5607 5588
5588 5607 5608 5589
5589 5608 5609 5590
5590 5609 5610 5591
5591 5610 5611 5592
5592 5611 213 212
351 352 5612 5593
5593 5612 5613 5594
5594 5613 5614 5595
5595 5614 5615 5596
5596 5615 5616 5597
5597 5616 5617 5598
5598 5617 5618 5599
5599 5618 5619 5600
5600 5619 5620 5601
5601 5620 5621 5602
5602 5621 5622 5603
5603 5622 5623 5604
5604 5623 5624 5605
5605 5624 5625 5606
5606 5625 5626 5607
5607 5626 5627 5608
5608 5627 5628 5609
5609 5628 5629 5610
5610 5629 5630 5611
5611 5630 214 213
352 353 5631 5612
5612 5631 5632 5613
5613 5632 5633 5614
5614 5633 5634 5615
5615 5634 5635 5616
5616 5635 5636 5617
5617 5636 5637 5618
5618 5637 5638 5619
5619 5638 5639 5620
5620 5639 5640 5621
5621 5640 5641 5622
5622 5641 5642 5623
5623 5642 5643 5624
5624 5643 5644 5625
5625 5644 5645 5626
5626 5645 5646 5627
5627 5646 5647 5628
5628 5647 5648 5629
5629 5648 5649 5630
5630 5649 215 214
353 354 5650 5631
5631 5650 5651 5632
5632 5651 5652 5633
5633 5652 5653 5634
5634 5653 5654 5635
5635 5654 5655 5636
5636 5655 5656 5637
5637 5656 5657 5638
5638 5657 5658 5639
5639 5658 5659 5640
5640 5659 5660 5641
5641 5660 5661 5642
5642 5661 5662 5643
5643 5662 5663 5644
5644 5663 5664 5645
5645 5664 5665 5646
5646 5665 5666 5647
5647 5666 5667 5648
5648 5667 5668 5649
5649 5668 216 215
354 355 5669 5650
5650 5669 5670 5651
5651 5670 5671 5652
5652 5671 5672 5653
5653 5672 5673 5654
5654 5673 5674 5655
5655 5674 5675 5656
5656 5675 5676 5657
5657 5676 5677 5658
5658 5677 5678 5659
5659 5678 5679 5660
5660 5679 5680 5661
5661 5680 5681 5662
5662 5681 5682 5663
5663 5682 5683 5664
5664 5683 5684 5665
5665 5684 5685 5666
5666 5685 5686 5667
5667 5686 5687 5668
5668 5687 217 216
355 356 5688 5669
5669 5688 5689 5670
5670 5689 5690 5671
5671 5690 5691 5672
5672 5691 5692 5673
5673 5692 5693 5674
5674 5693 5694 5675
5675 5694 5695 5676
5676 5695 5696 5677
5677 5696 5697 5678
5678 5697 5698 5679
5679 5698 5699 5680
5680 5699 5700 5681
5681 5700 5701 5682
5682 5701 5702 5683
5683 5702 5703 5684
5684 5703 5704 5685
5685 5704 5705 5686
5686 5705 5706 5687
5687 5706 218 217
356 357 5707 5688
5688 5707 5708 5689
5689 5708 5709 5690
5690 5709 5710 5691
5691 5710 5711 5692
5692 5711 5712 5693
5693 5712 5713 5694
5694 5713 5714 5695
5695 5714 5715 5696
5696 5715 5716 5697
5697 5716 5717 5698
5698 5717 5718 5699
5699 5718 5719 5700
5700 5719 5720 5701
5701 5720 5721 5702
5702 5721 5722 5703
5703 5722 5723 5704
5704 5723 5724 5705
5705 5724 5725 5706
5706 5725 219 218
357 358 5726 5707
5707 5726 5727 5708
5708 5727 5728 5709
5709 5728 5729 5710
5710 5729 5730 5711
5711 5730 5731 5712
5712 5731 5732 5713
5713 5732 5733 5714
5714 5733 5734 5715
5715 5734 5735 5716
5716 5735 5736 5717
5717 5736 5737 5718
5718 5737 5738 5719
5719 5738 5739 5720
5720 5739 5740 5721
5721 5740 5741 5722
5722 5741 5742 5723
5723 5742 5743 5724
5724 5743 5744 5725
5725 5744 220 219
358 359 5745 5726
5726 5745 5746 5727
5727 5746 5747 5728
5728 5747 5748 5729
5729 5748 5749 5730
5730 5749 5750 5731
5731 5750 5751 5732
5732 5751 5752 5733
5733 5752 5753 5734
5734 5753 5754 5735
5735 5754 5755 5736
5736 5755 5756 5737
5737 5756 5757 5738
5738 5757 5758 5739
5739 5758 5759 5740
5740 5759 5760 5741
5741 5760 5761 5742
5742 5761 5762 5743
5743 5762 5763 5744
5744 5763 221 220
359 360 5764 5745
5745 5764 5765 5746
5746 5765 5766 5747
5747 5766 5767 5748
5748 5767 5768 5749
5749 5768 5769 5750
5750 5769 5770 5751
5751 5770 5771 5752
5752 5771 5772 5753
5753 5772 5773 5754
5754 5773 5774 5755
5755 5774 5775 5756
5756 5775 5776 5757
5757 5776 5777 5758
5758 5777 5778 5759
5759 5778 5779 5760
5760 5779 5780 5761
5761 5780 5781 5762
5762 5781 5782 5763
5763 5782 222 221
360 361 5783 5764
5764 5783 5784 5765
5765 5784 5785 5766
5766 5785 5786 5767
5767 5786 5787 5768
5768 5787 5788 5769
5769 5788 5789 5770
5770 5789 5790 5771
5771 5790 5791 5772
5772 5791 5792 5773
5773 5792 5793 5774
5774 5793 5794 5775
5775 5794 5795 5776
5776 5795 5796 5777
5777 5796 5797 5778
5778 5797 5798 5779
5779 5798 5799 5780
5780 5799 5800 5781
5781 5800 5801 5782
5782 5801 223 222
361 10 419 5783
5783 419 420 5784
5784 420 421 5785
5785 421 422 5786
5786 422 423 5787
5787 423 424 5788
5788 424 425 5789
5789 425 426 5790
5790 426 427 5791
5791 427 428 5792
5792 428 429 5793
5793 429 430 5794
5794 430 431 5795
5795 431 432 5796
5796 432 433 5797
5797 433 434 5798
5798 434 435 5799
5799 435 436 5800
5800 436 437 5801
5801 437 8 223
</DataArray>
<DataArray type="Int64" Name="offsets" format="ascii">
4
8
12
16
20
24
28
32
36
40
44
48
52
56
60
64
68
72
76
80
84
88
92
96
100
104
108
112
116
120
124
128
132
136
140
144
148
152
156
160
164
168
172
176
180
184
188
192
196
200
204
208
212
216
220
224
228
232
236
240
244
248
252
256
260
264
268
272
276
280
284
288
292
296
300
304
308
312
316
320
324
328
332
336
340
344
348
352
356
360
364
368
372
376
380
384
388
392
396
400
404
408
412
416
420
424
428
432
436
440
444
448
452
456
460
464
468
472
476
480
484
488
492
496
500
504
508
512
516
520
524
528
532
536
540
544
548
552
556
560
564
568
572
576
580
584
588
592
596
600
604
608
612
616
620
624
628
632
636
640
644
648
652
656
660
664
668
672
676
680
684
688
692
696
700
704
708
712
716
720
724
728
732
736
740
744
748
752
756
760
764
768
772
776
780
784
788
792
796
800
804
808
812
816
820
824
828
832
836
840
844
848
852
856
860
864
868
872
876
880
884
888
892
896
900
904
908
912
916
920
924
928
932
936
940
944
948
952
956
960
964
968
972
976
980
984
988
992
996
1000
1004
1008
1012
1016
1020
1024
1028
1032
1036
1040
1044
1048
1052
1056
1060
1064
1068
1072
1076
1080
1084
1088
1092
1096
1100
1104
1108
1112
1116
1120
1124
1128
1132
1136
1140
1144
1148
1152
1156
1160
1164
1168
1172
1176
1180
1184
1188
1192
1196
1200
1204
1208
1212
1216
1220
1224
1228
1232
1236
1240
1244
1248
1252
1256
1260
1264
1268
1272
1276
1280
1284
1288
1292
1296
1300
1304
1308
1312
1316
1320
1324
1328
1332
1336
1340
1344
1348
1352
1356
1360
1364
1368
1372
1376
1380
1384
1388
1392
1396
1400
1404
1408
1412
1416
1420
1424
1428
1432
1436
1440
1444
1448
1452
1456
1460
1464
1468
1472
1476
1480
1484
1488
1492
1496
1500
1504
1508
1512
1516
1520
1524
1528
1532
1536
1540
1544
1548
1552
1556
1560
1564
1568
1572
1576
1580
1584
1588
1592
1596
1600
1604
1608
1612
1616
1620
1624
1628
1632
1636
1640
1644
1648
1652
1656
1660
1664
1668
1672
1676
1680
1684
1688
1692
1696
1700
1704
1708
1712
1716
1720
1724
1728
1732
1736
1740
1744
1748
1752
1756
1760
1764
1768
1772
1776
1780
1784
1788
1792
1796
1800
1804
1808
1812
1816
1820
1824
1828
1832
1836
1840
1844
1848
1852
1856
1860
1864
1868
1872
1876
1880
1884
1888
1892
1896
1900
1904
1908
1912
1916
1920
1924
1928
1932
1936
1940
1944
1948
1952
1956
1960
1964
1968
1972
1976
1980
1984
1988
1992
1996
2000
2004
2008
2012
2016
2020
2024
2028
2032
2036
2040
2044
2048
2052
2056
2060
2064
2068
2072
2076
2080
2084
2088
2092
2096
2100
2104
2108
2112
2116
2120
2124
2128
2132
2136
2140
2144
2148
2152
2156
2160
2164
2168
2172
2176
2180
2184
2188
2192
2196
2200
2204
2208
2212
2216
2220
2224
2228
2232
2236
2240
2244
2248
2252
2256
2260
2264
2268
2272
2276
2280
2284
2288
2292
2296
2300
2304
2308
2312
2316
2320
2324
2328
2332
2336
2340
2344
2348
2352
2356
2360
2364
2368
2372
2376
2380
2384
2388
2392
2396
2400
2404
2408
2412
2416
2420
2424
2428
2432
2436
2440
2444
2448
2452
2456
2460
2464
2468
2472
2476
2480
2484
2488
2492
2496
2500
2504
2508
2512
2516
2520
2524
2528
2532
2536
2540
2544
2548
2552
2556
2560
2564
2568
2572
2576
2580
2584
2588
2592
2596
2600
2604
2608
2612
2616
2620
2624
2628
2632
2636
2640
2644
2648
2652
2656
2660
2664
2668
2672
2676
2680
2684
2688
2692
2696
2700
2704
2708
2712
2716
2720
2724
2728
2732
2736
2740
2744
2748
2752
2756
2760
2764
2768
2772
2776
2780
2784
2788
2792
2796
2800
2804
2808
2812
2816
2820
2824
2828
2832
2836
2840
2844
2848
2852
2856
2860
2864
2868
2872
2876
2880
2884
2888
2892
2896
2900
2904
2908
2912
2916
2920
2924
2928
2932
2936
2940
2944
2948
2952
2956
2960
2964
2968
2972
2976
2980
2984
2988
2992
2996
3000
3004
3008
3012
3016
3020
3024
3028
3032
3036
3040
3044
3048
3052
3056
3060
3064
3068
3072
3076
3080
3084
3088
3092
3096
3100
3104
3108
3112
3116
3120
3124
3128
3132
3136
3140
3144
3148
3152
3156
3160
3164
3168
3172
3176
3180
3184
3188
3192
3196
3200
3204
3208
3212
3216
3220
3224
3228
3232
3236
3240
3244
3248
3252
3256
3260
3264
3268
3272
3276
3280
3284
3288
3292
3296
3300
3304
3308
3312
3316
3320
3324
3328
3332
3336
3340
3344
3348
3352
3356
3360
3364
3368
3372
3376
3380
3384
3388
3392
3396
3400
3404
3408
3412
3416
3420
3424
3428
3432
3436
3440
3444
3448
3452
3456
3460
3464
3468
3472
3476
3480
3484
3488
3492
3496
3500
3504
3508
3512
3516
3520
3524
3528
3532
3536
3540
3544
3548
3552
3556
3560
3564
3568
3572
3576
3580
3584
3588
3592
3596
3600
3604
3608
3612
3616
3620
3624
3628
3632
3636
3640
3644
3648
3652
3656
3660
3664
3668
3672
3676
3680
3684
3688
3692
3696
3700
3704
3708
3712
3716
3720
3724
3728
3732
3736
3740
3744
3748
3752
3756
3760
3764
3768
3772
3776
3780
3784
3788
3792
3796
3800
3804
3808
3812
3816
3820
3824
3828
3832
3836
3840
3844
3848
3852
3856
3860
3864
3868
3872
3876
3880
3884
3888
3892
3896
3900
3904
3908
3912
3916
3920
3924
3928
3932
3936
3940
3944
3948
3952
3956
3960
3964
3968
3972
3976
3980
3984
3988
3992
3996
4000
4004
4008
4012
4016
4020
4024
4028
4032
4036
4040
4044
4048
4052
4056
4060
4064
4068
4072
4076
4080
4084
4088
4092
4096
4100
4104
4108
4112
4116
4120
4124
4128
4132
4136
4140
4144
4148
4152
4156
4160
4164
4168
4172
4176
4180
4184
4188
4192
4196
4200
4204
4208
4212
4216
4220
4224
4228
4232
4236
4240
4244
4248
4252
4256
4260
4264
4268
4272
4276
4280
4284
4288
4292
4296
4300
4304
4308
4312
4316
4320
4324
4328
4332
4336
4340
4344
4348
4352
4356
4360
4364
4368
4372
4376
4380
4384
4388
4392
4396
4400
4404
4408
4412
4416
4420
4424
4428
4432
4436
4440
4444
4448
4452
4456
4460
4464
4468
4472
4476
4480
4484
4488
4492
4496
4500
4504
4508
4512
4516
4520
4524
4528
4532
4536
4540
4544
4548
4552
4556
4560
4564
4568
4572
4576
4580
4584
4588
4592
4596
4600
4604
4608
4612
4616
4620
4624
4628
4632
4636
4640
4644
4648
4652
4656
4660
4664
4668
4672
4676
4680
4684
4688
4692
4696
4700
4704
4708
4712
4716
4720
4724
4728
4732
4736
4740
4744
4748
4752
4756
4760
4764
4768
4772
4776
4780
4784
4788
4792
4796
4800
4804
4808
4812
4816
4820
4824
4828
4832
4836
4840
4844
4848
4852
4856
4860
4864
4868
4872
4876
4880
4884
4888
4892
4896
4900
4904
4908
4912
4916
4920
4924
4928
4932
4936
4940
4944
4948
4952
4956
4960
4964
4968
4972
4976
4980
4984
4988
4992
4996
5000
5004
5008
5012
5016
5020
5024
5028
5032
5036
5040
5044
5048
5052
5056
5060
5064
5068
5072
5076
5080
5084
5088
5092
5096
5100
5104
5108
5112
5116
5120
5124
5128
5132
5136
5140
5144
5148
5152
5156
5160
5164
5168
5172
5176
5180
5184
5188
5192
5196
5200
5204
5208
5212
5216
5220
5224
5228
5232
5236
5240
5244
5248
5252
5256
5260
5264
5268
5272
5276
5280
5284
5288
5292
5296
5300
5304
5308
5312
5316
5320
5324
5328
5332
5336
5340
5344
5348
5352
5356
5360
5364
5368
5372
5376
5380
5384
5388
5392
5396
5400
5404
5408
5412
5416
5420
5424
5428
5432
5436
5440
5444
5448
5452
5456
5460
5464
5468
5472
5476
5480
5484
5488
5492
5496
5500
5504
5508
5512
5516
5520
5524
5528
5532
5536
5540
5544
5548
5552
5556
5560
5564
5568
5572
5576
5580
5584
5588
5592
5596
5600
5604
5608
5612
5616
5620
5624
5628
5632
5636
5640
5644
5648
5652
5656
5660
5664
5668
5672
5676
5680
5684
5688
5692
5696
5700
5704
5708
5712
5716
5720
5724
5728
5732
5736
5740
5744
5748
5752
5756
5760
5764
5768
5772
5776
5780
5784
5788
5792
5796
5800
5804
5808
5812
5816
5820
5824
5828
5832
5836
5840
5844
5848
5852
5856
5860
5864
5868
5872
5876
5880
5884
5888
5892
5896
5900
5904
5908
5912
5916
5920
5924
5928
5932
5936
5940
5944
5948
5952
5956
5960
5964
5968
5972
5976
5980
5984
5988
5992
5996
6000
6004
6008
6012
6016
6020
6024
6028
6032
6036
6040
6044
6048
6052
6056
6060
6064
6068
6072
6076
6080
6084
6088
6092
6096
6100
6104
6108
6112
6116
6120
6124
6128
6132
6136
6140
6144
6148
6152
6156
6160
6164
6168
6172
6176
6180
6184
6188
6192
6196
6200
6204
6208
6212
6216
6220
6224
6228
6232
6236
6240
6244
6248
6252
6256
6260
6264
6268
6272
6276
6280
6284
6288
6292
6296
6300
6304
6308
6312
6316
6320
6324
6328
6332
6336
6340
6344
6348
6352
6356
6360
6364
6368
6372
6376
6380
6384
6388
6392
6396
6400
6404
6408
6412
6416
6420
6424
6428
6432
6436
6440
6444
6448
6452
6456
6460
6464
6468
6472
6476
6480
6484
6488
6492
6496
6500
6504
6508
6512
6516
6520
6524
6528
6532
6536
6540
6544
6548
6552
6556
6560
6564
6568
6572
6576
6580
6584
6588
6592
6596
6600
6604
6608
6612
6616
6620
6624
6628
6632
6636
6640
6644
6648
6652
6656
6660
6664
6668
6672
6676
6680
6684
6688
6692
6696
6700
6704
6708
6712
6716
6720
6724
6728
6732
6736
6740
6744
6748
6752
6756
6760
6764
6768
6772
6776
6780
6784
6788
6792
6796
6800
6804
6808
6812
6816
6820
6824
6828
6832
6836
6840
6844
6848
6852
6856
6860
6864
6868
6872
6876
6880
6884
6888
6892
6896
6900
6904
6908
6912
6916
6920
6924
6928
6932
6936
6940
6944
6948
6952
6956
6960
6964
6968
6972
6976
6980
6984
6988
6992
6996
7000
7004
7008
7012
7016
7020
7024
7028
7032
7036
7040
7044
7048
7052
7056
7060
7064
7068
7072
7076
7080
7084
7088
7092
7096
7100
7104
7108
7112
7116
7120
7124
7128
7132
7136
7140
7144
7148
7152
7156
7160
7164
7168
7172
7176
7180
7184
7188
7192
7196
7200
7204
7208
7212
7216
7220
7224
7228
7232
7236
7240
7244
7248
7252
7256
7260
7264
7268
7272
7276
7280
7284
7288
7292
7296
7300
7304
7308
7312
7316
7320
7324
7328
7332
7336
7340
7344
7348
7352
7356
7360
7364
7368
7372
7376
7380
7384
7388
7392
7396
7400
7404
7408
7412
7416
7420
7424
7428
7432
7436
7440
7444
7448
7452
7456
7460
7464
7468
7472
7476
7480
7484
7488
7492
7496
7500
7504
7508
7512
7516
7520
7524
7528
7532
7536
7540
7544
7548
7552
7556
7560
7564
7568
7572
7576
7580
7584
7588
7592
7596
7600
7604
7608
7612
7616
7620
7624
7628
7632
7636
7640
7644
7648
7652
7656
7660
7664
7668
7672
7676
7680
7684
7688
7692
7696
7700
7704
7708
7712
7716
7720
7724
7728
7732
7736
7740
7744
7748
7752
7756
7760
7764
7768
7772
7776
7780
7784
7788
7792
7796
7800
7804
7808
7812
7816
7820
7824
7828
7832
7836
7840
7844
7848
7852
7856
7860
7864
7868
7872
7876
7880
7884
7888
7892
7896
7900
7904
7908
7912
7916
7920
7924
7928
7932
7936
7940
7944
7948
7952
7956
7960
7964
7968
7972
7976
7980
7984
7988
7992
7996
8000
8004
8008
8012
8016
8020
8024
8028
8032
8036
8040
8044
8048
8052
8056
8060
8064
8068
8072
8076
8080
8084
8088
8092
8096
8100
8104
8108
8112
8116
8120
8124
8128
8132
8136
8140
8144
8148
8152
8156
8160
8164
8168
8172
8176
8180
8184
8188
8192
8196
8200
8204
8208
8212
8216
8220
8224
8228
8232
8236
8240
8244
8248
8252
8256
8260
8264
8268
8272
8276
8280
8284
8288
8292
8296
8300
8304
8308
8312
8316
8320
8324
8328
8332
8336
8340
8344
8348
8352
8356
8360
8364
8368
8372
8376
8380
8384
8388
8392
8396
8400
8404
8408
8412
8416
8420
8424
8428
8432
8436
8440
8444
8448
8452
8456
8460
8464
8468
8472
8476
8480
8484
8488
8492
8496
8500
8504
8508
8512
8516
8520
8524
8528
8532
8536
8540
8544
8548
8552
8556
8560
8564
8568
8572
8576
8580
8584
8588
8592
8596
8600
8604
8608
8612
8616
8620
8624
8628
8632
8636
8640
8644
8648
8652
8656
8660
8664
8668
8672
8676
8680
8684
8688
8692
8696
8700
8704
8708
8712
8716
8720
8724
8728
8732
8736
8740
8744
8748
8752
8756
8760
8764
8768
8772
8776
8780
8784
8788
8792
8796
8800
8804
8808
8812
8816
8820
8824
8828
8832
8836
8840
8844
8848
8852
8856
8860
8864
8868
8872
8876
8880
8884
8888
8892
8896
8900
8904
8908
8912
8916
8920
8924
8928
8932
8936
8940
8944
8948
8952
8956
8960
8964
8968
8972
8976
8980
8984
8988
8992
8996
9000
9004
9008
9012
9016
9020
9024
9028
9032
9036
9040
9044
9048
9052
9056
9060
9064
9068
9072
9076
9080
9084
9088
9092
9096
9100
9104
9108
9112
9116
9120
9124
9128
9132
9136
9140
9144
9148
9152
9156
9160
9164
9168
9172
9176
9180
9184
9188
9192
9196
9200
9204
9208
9212
9216
9220
9224
9228
9232
9236
9240
9244
9248
9252
9256
9260
9264
9268
9272
9276
9280
9284
9288
9292
9296
9300
9304
9308
9312
9316
9320
9324
9328
9332
9336
9340
9344
9348
9352
9356
9360
9364
9368
9372
9376
9380
9384
9388
9392
9396
9400
9404
9408
9412
9416
9420
9424
9428
9432
9436
9440
9444
9448
9452
9456
9460
9464
9468
9472
9476
9480
9484
9488
9492
9496
9500
9504
9508
9512
9516
9520
9524
9528
9532
9536
9540
9544
9548
9552
9556
9560
9564
9568
9572
9576
9580
9584
9588
9592
9596
9600
9604
9608
9612
9616
9620
9624
9628
9632
9636
9640
9644
9648
9652
9656
9660
9664
9668
9672
9676
9680
9684
9688
9692
9696
9700
9704
9708
9712
9716
9720
9724
9728
9732
9736
9740
9744
9748
9752
9756
9760
9764
9768
9772
9776
9780
9784
9788
9792
9796
9800
9804
9808
9812
9816
9820
9824
9828
9832
9836
9840
9844
9848
9852
9856
9860
9864
9868
9872
9876
9880
9884
9888
9892
9896
9900
9904
9908
9912
9916
9920
9924
9928
9932
9936
9940
9944
9948
9952
9956
9960
9964
9968
9972
9976
9980
9984
9988
9992
9996
10000
10004
10008
10012
10016
10020
10024
10028
10032
10036
10040
10044
10048
10052
10056
10060
10064
10068
10072
10076
10080
10084
10088
10092
10096
10100
10104
10108
10112
10116
10120
10124
10128
10132
10136
10140
10144
10148
10152
10156
10160
10164
10168
10172
10176
10180
10184
10188
10192
10196
10200
10204
10208
10212
10216
10220
10224
10228
10232
10236
10240
10244
10248
10252
10256
10260
10264
10268
10272
10276
10280
10284
10288
10292
10296
10300
10304
10308
10312
10316
10320
10324
10328
10332
10336
10340
10344
10348
10352
10356
10360
10364
10368
10372
10376
10380
10384
10388
10392
10396
10400
10404
10408
10412
10416
10420
10424
10428
10432
10436
10440
10444
10448
10452
10456
10460
10464
10468
10472
10476
10480
10484
10488
10492
10496
10500
10504
10508
10512
10516
10520
10524
10528
10532
10536
10540
10544
10548
10552
10556
10560
10564
10568
10572
10576
10580
10584
10588
10592
10596
10600
10604
10608
10612
10616
10620
10624
10628
10632
10636
10640
10644
10648
10652
10656
10660
10664
10668
10672
10676
10680
10684
10688
10692
10696
10700
10704
10708
10712
10716
10720
10724
10728
10732
10736
10740
10744
10748
10752
10756
10760
10764
10768
10772
10776
10780
10784
10788
10792
10796
10800
10804
10808
10812
10816
10820
10824
10828
10832
10836
10840
10844
10848
10852
10856
10860
10864
10868
10872
10876
10880
10884
10888
10892
10896
10900
10904
10908
10912
10916
10920
10924
10928
10932
10936
10940
10944
10948
10952
10956
10960
10964
10968
10972
10976
10980
10984
10988
10992
10996
11000
11004
11008
11012
11016
11020
11024
11028
11032
11036
11040
11044
11048
11052
11056
11060
11064
11068
11072
11076
11080
11084
11088
11092
11096
11100
11104
11108
11112
11116
11120
11124
11128
11132
11136
11140
11144
11148
11152
11156
11160
11164
11168
11172
11176
11180
11184
11188
11192
11196
11200
11204
11208
11212
11216
11220
11224
11228
11232
11236
11240
11244
11248
11252
11256
11260
11264
11268
11272
11276
11280
11284
11288
11292
11296
11300
11304
11308
11312
11316
11320
11324
11328
11332
11336
11340
11344
11348
11352
11356
11360
11364
11368
11372
11376
11380
11384
11388
11392
11396
11400
11404
11408
11412
11416
11420
11424
11428
11432
11436
11440
11444
11448
11452
11456
11460
11464
11468
11472
11476
11480
11484
11488
11492
11496
11500
11504
11508
11512
11516
11520
11524
11528
11532
11536
11540
11544
11548
11552
11556
11560
11564
11568
11572
11576
11580
11584
11588
11592
11596
11600
11604
11608
11612
11616
11620
11624
11628
11632
11636
11640
11644
11648
11652
11656
11660
11664
11668
11672
11676
11680
11684
11688
11692
11696
11700
11704
11708
11712
11716
11720
11724
11728
11732
11736
11740
11744
11748
11752
11756
11760
11764
11768
11772
11776
11780
11784
11788
11792
11796
11800
11804
11808
11812
11816
11820
11824
11828
11832
11836
11840
11844
11848
11852
11856
11860
11864
11868
11872
11876
11880
11884
11888
11892
11896
11900
11904
11908
11912
11916
11920
11924
11928
11932
11936
11940
11944
11948
11952
11956
11960
11964
11968
11972
11976
11980
11984
11988
11992
11996
12000
12004
12008
12012
12016
12020
12024
12028
12032
12036
12040
12044
12048
12052
12056
12060
12064
12068
12072
12076
12080
12084
12088
12092
12096
12100
12104
12108
12112
12116
12120
12124
12128
12132
12136
12140
12144
12148
12152
12156
12160
12164
12168
12172
12176
12180
12184
12188
12192
12196
12200
12204
12208
12212
12216
12220
12224
12228
12232
12236
12240
12244
12248
12252
12256
12260
12264
12268
12272
12276
12280
12284
12288
12292
12296
12300
12304
12308
12312
12316
12320
12324
12328
12332
12336
12340
12344
12348
12352
12356
12360
12364
12368
12372
12376
12380
12384
12388
12392
12396
12400
12404
12408
12412
12416
12420
12424
12428
12432
12436
12440
12444
12448
12452
12456
12460
12464
12468
12472
12476
12480
12484
12488
12492
12496
12500
12504
12508
12512
12516
12520
12524
12528
12532
12536
12540
12544
12548
12552
12556
12560
12564
12568
12572
12576
12580
12584
12588
12592
12596
12600
12604
12608
12612
12616
12620
12624
12628
12632
12636
12640
12644
12648
12652
12656
12660
12664
12668
12672
12676
12680
12684
12688
12692
12696
12700
12704
12708
12712
12716
12720
12724
12728
12732
12736
12740
12744
12748
12752
12756
12760
12764
12768
12772
12776
12780
12784
12788
12792
12796
12800
12804
12808
12812
12816
12820
12824
12828
12832
12836
12840
12844
12848
12852
12856
12860
12864
12868
12872
12876
12880
12884
12888
12892
12896
12900
12904
12908
12912
12916
12920
12924
12928
12932
12936
12940
12944
12948
12952
12956
12960
12964
12968
12972
12976
12980
12984
12988
12992
12996
13000
13004
13008
13012
13016
13020
13024
13028
13032
13036
13040
13044
13048
13052
13056
13060
13064
13068
13072
13076
13080
13084
13088
13092
13096
13100
13104
13108
13112
13116
13120
13124
13128
13132
13136
13140
13144
13148
13152
13156
13160
13164
13168
13172
13176
13180
13184
13188
13192
13196
13200
13204
13208
13212
13216
13220
13224
13228
13232
13236
13240
13244
13248
13252
13256
13260
13264
13268
13272
13276
13280
13284
13288
13292
13296
13300
13304
13308
13312
13316
13320
13324
13328
13332
13336
13340
13344
13348
13352
13356
13360
13364
13368
13372
13376
13380
13384
13388
13392
13396
13400
13404
13408
13412
13416
13420
13424
13428
13432
13436
13440
13444
13448
13452
13456
13460
13464
13468
13472
13476
13480
13484
13488
13492
13496
13500
13504
13508
13512
13516
13520
13524
13528
13532
13536
13540
13544
13548
13552
13556
13560
13564
13568
13572
13576
13580
13584
13588
13592
13596
13600
13604
13608
13612
13616
13620
13624
13628
13632
13636
13640
13644
13648
13652
13656
13660
13664
13668
13672
13676
13680
13684
13688
13692
13696
13700
13704
13708
13712
13716
13720
13724
13728
13732
13736
13740
13744
13748
13752
13756
13760
13764
13768
13772
13776
13780
13784
13788
13792
13796
13800
13804
13808
13812
13816
13820
13824
13828
13832
13836
13840
13844
13848
13852
13856
13860
13864
13868
13872
13876
13880
13884
13888
13892
13896
13900
13904
13908
13912
13916
13920
13924
13928
13932
13936
13940
13944
13948
13952
13956
13960
13964
13968
13972
13976
13980
13984
13988
13992
13996
14000
14004
14008
14012
14016
14020
14024
14028
14032
14036
14040
14044
14048
14052
14056
14060
14064
14068
14072
14076
14080
14084
14088
14092
14096
14100
14104
14108
14112
14116
14120
14124
14128
14132
14136
14140
14144
14148
14152
14156
14160
14164
14168
14172
14176
14180
14184
14188
14192
14196
14200
14204
14208
14212
14216
14220
14224
14228
14232
14236
14240
14244
14248
14252
14256
14260
14264
14268
14272
14276
14280
14284
14288
14292
14296
14300
14304
14308
14312
14316
14320
14324
14328
14332
14336
14340
14344
14348
14352
14356
14360
14364
14368
14372
14376
14380
14384
14388
14392
14396
14400
14404
14408
14412
14416
14420
14424
14428
14432
14436
14440
14444
14448
14452
14456
14460
14464
14468
14472
14476
14480
14484
14488
14492
14496
14500
14504
14508
14512
14516
14520
14524
14528
14532
14536
14540
14544
14548
14552
14556
14560
14564
14568
14572
14576
14580
14584
14588
14592
14596
14600
14604
14608
14612
14616
14620
14624
14628
14632
14636
14640
14644
14648
14652
14656
14660
14664
14668
14672
14676
14680
14684
14688
14692
14696
14700
14704
14708
14712
14716
14720
14724
14728
14732
14736
14740
14744
14748
14752
14756
14760
14764
14768
14772
14776
14780
14784
14788
14792
14796
14800
14804
14808
14812
14816
14820
14824
14828
14832
14836
14840
14844
14848
14852
14856
14860
14864
14868
14872
14876
14880
14884
14888
14892
14896
14900
14904
14908
14912
14916
14920
14924
14928
14932
14936
14940
14944
14948
14952
14956
14960
14964
14968
14972
14976
14980
14984
14988
14992
14996
15000
15004
15008
15012
15016
15020
15024
15028
15032
15036
15040
15044
15048
15052
15056
15060
15064
15068
15072
15076
15080
15084
15088
15092
15096
15100
15104
15108
15112
15116
15120
15124
15128
15132
15136
15140
15144
15148
15152
15156
15160
15164
15168
15172
15176
15180
15184
15188
15192
15196
15200
15204
15208
15212
15216
15220
15224
15228
15232
15236
15240
15244
15248
15252
15256
15260
15264
15268
15272
15276
15280
15284
15288
15292
15296
15300
15304
15308
15312
15316
15320
15324
15328
15332
15336
15340
15344
15348
15352
15356
15360
15364
15368
15372
15376
15380
15384
15388
15392
15396
15400
15404
15408
15412
15416
15420
15424
15428
15432
15436
15440
15444
15448
15452
15456
15460
15464
15468
15472
15476
15480
15484
15488
15492
15496
15500
15504
15508
15512
15516
15520
15524
15528
15532
15536
15540
15544
15548
15552
15556
15560
15564
15568
15572
15576
15580
15584
15588
15592
15596
15600
15604
15608
15612
15616
15620
15624
15628
15632
15636
15640
15644
15648
15652
15656
15660
15664
15668
15672
15676
15680
15684
15688
15692
15696
15700
15704
15708
15712
15716
15720
15724
15728
15732
15736
15740
15744
15748
15752
15756
15760
15764
15768
15772
15776
15780
15784
15788
15792
15796
15800
15804
15808
15812
15816
15820
15824
15828
15832
15836
15840
15844
15848
15852
15856
15860
15864
15868
15872
15876
15880
15884
15888
15892
15896
15900
15904
15908
15912
15916
15920
15924
15928
15932
15936
15940
15944
15948
15952
15956
15960
15964
15968
15972
15976
15980
15984
15988
15992
15996
16000
16004
16008
16012
16016
16020
16024
16028
16032
16036
16040
16044
16048
16052
16056
16060
16064
16068
16072
16076
16080
16084
16088
16092
16096
16100
16104
16108
16112
16116
16120
16124
16128
16132
16136
16140
16144
16148
16152
16156
16160
16164
16168
16172
16176
16180
16184
16188
16192
16196
16200
16204
16208
16212
16216
16220
16224
16228
16232
16236
16240
16244
16248
16252
16256
16260
16264
16268
16272
16276
16280
16284
16288
16292
16296
16300
16304
16308
16312
16316
16320
16324
16328
16332
16336
16340
16344
16348
16352
16356
16360
16364
16368
16372
16376
16380
16384
16388
16392
16396
16400
16404
16408
16412
16416
16420
16424
16428
16432
16436
16440
16444
16448
16452
16456
16460
16464
16468
16472
16476
16480
16484
16488
16492
16496
16500
16504
16508
16512
16516
16520
16524
16528
16532
16536
16540
16544
16548
16552
16556
16560
16564
16568
16572
16576
16580
16584
16588
16592
16596
16600
16604
16608
16612
16616
16620
16624
16628
16632
16636
16640
16644
16648
16652
16656
16660
16664
16668
16672
16676
16680
16684
16688
16692
16696
16700
16704
16708
16712
16716
16720
16724
16728
16732
16736
16740
16744
16748
16752
16756
16760
16764
16768
16772
16776
16780
16784
16788
16792
16796
16800
16804
16808
16812
16816
16820
16824
16828
16832
16836
16840
16844
16848
16852
16856
16860
16864
16868
16872
16876
16880
16884
16888
16892
16896
16900
16904
16908
16912
16916
16920
16924
16928
16932
16936
16940
16944
16948
16952
16956
16960
16964
16968
16972
16976
16980
16984
16988
16992
16996
17000
17004
17008
17012
17016
17020
17024
17028
17032
17036
17040
17044
17048
17052
17056
17060
17064
17068
17072
17076
17080
17084
17088
17092
17096
17100
17104
17108
17112
17116
17120
17124
17128
17132
17136
17140
17144
17148
17152
17156
17160
17164
17168
17172
17176
17180
17184
17188
17192
17196
17200
17204
17208
17212
17216
17220
17224
17228
17232
17236
17240
17244
17248
17252
17256
17260
17264
17268
17272
17276
17280
17284
17288
17292
17296
17300
17304
17308
17312
17316
17320
17324
17328
17332
17336
17340
17344
17348
17352
17356
17360
17364
17368
17372
17376
17380
17384
17388
17392
17396
17400
17404
17408
17412
17416
17420
17424
17428
17432
17436
17440
17444
17448
17452
17456
17460
17464
17468
17472
17476
17480
17484
17488
17492
17496
17500
17504
17508
17512
17516
17520
17524
17528
17532
17536
17540
17544
17548
17552
17556
17560
17564
17568
17572
17576
17580
17584
17588
17592
17596
17600
17604
17608
17612
17616
17620
17624
17628
17632
17636
17640
17644
17648
17652
17656
17660
17664
17668
17672
17676
17680
17684
17688
17692
17696
17700
17704
17708
17712
17716
17720
17724
17728
17732
17736
17740
17744
17748
17752
17756
17760
17764
17768
17772
17776
17780
17784
17788
17792
17796
17800
17804
17808
17812
17816
17820
17824
17828
17832
17836
17840
17844
17848
17852
17856
17860
17864
17868
17872
17876
17880
17884
17888
17892
17896
17900
17904
17908
17912
17916
17920
17924
17928
17932
17936
17940
17944
17948
17952
17956
17960
17964
17968
17972
17976
17980
17984
17988
17992
17996
18000
18004
18008
18012
18016
18020
18024
18028
18032
18036
18040
18044
18048
18052
18056
18060
18064
18068
18072
18076
18080
18084
18088
18092
18096
18100
18104
18108
18112
18116
18120
18124
18128
18132
18136
18140
18144
18148
18152
18156
18160
18164
18168
18172
18176
18180
18184
18188
18192
18196
18200
18204
18208
18212
18216
18220
18224
18228
18232
18236
18240
18244
18248
18252
18256
18260
18264
18268
18272
18276
18280
18284
18288
18292
18296
18300
18304
18308
18312
18316
18320
18324
18328
18332
18336
18340
18344
18348
18352
18356
18360
18364
18368
18372
18376
18380
18384
18388
18392
18396
18400
18404
18408
18412
18416
18420
18424
18428
18432
18436
18440
18444
18448
18452
18456
18460
18464
18468
18472
18476
18480
18484
18488
18492
18496
18500
18504
18508
18512
18516
18520
18524
18528
18532
18536
18540
18544
18548
18552
18556
18560
18564
18568
18572
18576
18580
18584
18588
18592
18596
18600
18604
18608
18612
18616
18620
18624
18628
18632
18636
18640
18644
18648
18652
18656
18660
18664
18668
18672
18676
18680
18684
18688
18692
18696
18700
18704
18708
18712
18716
18720
18724
18728
18732
18736
18740
18744
18748
18752
18756
18760
18764
18768
18772
18776
18780
18784
18788
18792
18796
18800
18804
18808
18812
18816
18820
18824
18828
18832
18836
18840
18844
18848
18852
18856
18860
18864
18868
18872
18876
18880
18884
18888
18892
18896
18900
18904
18908
18912
18916
18920
18924
18928
18932
18936
18940
18944
18948
18952
18956
18960
18964
18968
18972
18976
18980
18984
18988
18992
18996
19000
19004
19008
19012
19016
19020
19024
19028
19032
19036
19040
19044
19048
19052
19056
19060
19064
19068
19072
19076
19080
19084
19088
19092
19096
19100
19104
19108
19112
19116
19120
19124
19128
19132
19136
19140
19144
19148
19152
19156
19160
19164
19168
19172
19176
19180
19184
19188
19192
19196
19200
19204
19208
19212
19216
19220
19224
19228
19232
19236
19240
19244
19248
19252
19256
19260
19264
19268
19272
19276
19280
19284
19288
19292
19296
19300
19304
19308
19312
19316
19320
19324
19328
19332
19336
19340
19344
19348
19352
19356
19360
19364
19368
19372
19376
19380
19384
19388
19392
19396
19400
19404
19408
19412
19416
19420
19424
19428
19432
19436
19440
19444
19448
19452
19456
19460
19464
19468
19472
19476
19480
19484
19488
19492
19496
19500
19504
19508
19512
19516
19520
19524
19528
19532
19536
19540
19544
19548
19552
19556
19560
19564
19568
19572
19576
19580
19584
19588
19592
19596
19600
19604
19608
19612
19616
19620
19624
19628
19632
19636
19640
19644
19648
19652
19656
19660
19664
19668
19672
19676
19680
19684
19688
19692
19696
19700
19704
19708
19712
19716
19720
19724
19728
19732
19736
19740
19744
19748
19752
19756
19760
19764
19768
19772
19776
19780
19784
19788
19792
19796
19800
19804
19808
19812
19816
19820
19824
19828
19832
19836
19840
19844
19848
19852
19856
19860
19864
19868
19872
19876
19880
19884
19888
19892
19896
19900
19904
19908
19912
19916
19920
19924
19928
19932
19936
19940
19944
19948
19952
19956
19960
19964
19968
19972
19976
19980
19984
19988
19992
19996
20000
20004
20008
20012
20016
20020
20024
20028
20032
20036
20040
20044
20048
20052
20056
20060
20064
20068
20072
20076
20080
20084
20088
20092
20096
20100
20104
20108
20112
20116
20120
20124
20128
20132
20136
20140
20144
20148
20152
20156
20160
20164
20168
20172
20176
20180
20184
20188
20192
20196
20200
20204
20208
20212
20216
20220
20224
20228
20232
20236
20240
20244
20248
20252
20256
20260
20264
20268
20272
20276
20280
20284
20288
20292
20296
20300
20304
20308
20312
20316
20320
20324
20328
20332
20336
20340
20344
20348
20352
20356
20360
20364
20368
20372
20376
20380
20384
20388
20392
20396
20400
20404
20408
20412
20416
20420
20424
20428
20432
20436
20440
20444
20448
20452
20456
20460
20464
20468
20472
20476
20480
20484
20488
20492
20496
20500
20504
20508
20512
20516
20520
20524
20528
20532
20536
20540
20544
20548
20552
20556
20560
20564
20568
20572
20576
20580
20584
20588
20592
20596
20600
20604
20608
20612
20616
20620
20624
20628
20632
20636
20640
20644
20648
20652
20656
20660
20664
20668
20672
20676
20680
20684
20688
20692
20696
20700
20704
20708
20712
20716
20720
20724
20728
20732
20736
20740
20744
20748
20752
20756
20760
20764
20768
20772
20776
20780
20784
20788
20792
20796
20800
20804
20808
20812
20816
20820
20824
20828
20832
20836
20840
20844
20848
20852
20856
20860
20864
20868
20872
20876
20880
20884
20888
20892
20896
20900
20904
20908
20912
20916
20920
20924
20928
20932
20936
20940
20944
20948
20952
20956
20960
20964
20968
20972
20976
20980
20984
20988
20992
20996
21000
21004
21008
21012
21016
21020
21024
21028
21032
21036
21040
21044
21048
21052
21056
21060
21064
21068
21072
21076
21080
21084
21088
21092
21096
21100
21104
21108
21112
21116
21120
21124
21128
21132
21136
21140
21144
21148
21152
21156
21160
21164
21168
21172
21176
21180
21184
21188
21192
21196
21200
21204
21208
21212
21216
21220
21224
21228
21232
21236
21240
21244
21248
21252
21256
21260
21264
21268
21272
21276
21280
21284
21288
21292
21296
21300
21304
21308
21312
21316
21320
21324
21328
21332
21336
21340
21344
21348
21352
21356
21360
21364
21368
21372
21376
21380
21384
21388
21392
21396
21400
21404
21408
21412
21416
21420
21424
21428
21432
21436
21440
21444
21448
21452
21456
21460
21464
21468
21472
21476
21480
21484
21488
21492
21496
21500
21504
21508
21512
21516
21520
21524
21528
21532
21536
21540
21544
21548
21552
21556
21560
21564
21568
21572
21576
21580
21584
21588
21592
21596
21600
21604
21608
21612
21616
21620
21624
21628
21632
21636
21640
21644
21648
21652
21656
21660
21664
21668
21672
21676
21680
21684
21688
21692
21696
21700
21704
21708
21712
21716
21720
21724
21728
21732
21736
21740
21744
21748
21752
21756
21760
21764
21768
21772
21776
21780
21784
21788
21792
21796
21800
21804
21808
21812
21816
21820
21824
21828
21832
21836
21840
21844
21848
21852
21856
21860
21864
21868
21872
21876
21880
21884
21888
21892
21896
21900
21904
21908
21912
21916
21920
21924
21928
21932
21936
21940
21944
21948
21952
21956
21960
21964
21968
21972
21976
21980
21984
21988
21992
21996
22000
22004
22008
22012
22016
22020
22024
22028
22032
22036
22040
22044
22048
22052
22056
22060
22064
22068
22072
22076
22080
22084
22088
22092
22096
22100
22104
22108
22112
22116
22120
22124
22128
22132
22136
22140
22144
22148
22152
22156
22160
22164
22168
22172
22176
22180
22184
22188
22192
22196
22200
22204
22208
22212
22216
22220
22224
22228
22232
22236
22240
22244
22248
22252
22256
22260
22264
22268
22272
22276
22280
22284
22288
22292
22296
22300
22304
22308
22312
22316
22320
22324
22328
22332
22336
22340
22344
22348
22352
22356
22360
22364
22368
22372
22376
22380
22384
22388
22392
22396
22400
22404
22408
22412
22416
22420
22424
22428
22432
22436
22440
22444
22448
22452
22456
22460
22464
22468
22472
22476
22480
22484
22488
22492
22496
22500
22504
22508
22512
22516
22520
22524
22528
22532
22536
22540
22544
22548
22552
22556
22560
22564
22568
22572
22576
22580
22584
22588
22592
22596
22600
22604
22608
22612
22616
22620
22624
22628
22632
22636
22640
22644
22648
22652
22656
22660
22664
22668
22672
22676
22680
22684
22688
22692
22696
22700
22704
22708
22712
22716
22720
</DataArray>
<DataArray type="Int64" Name="types" format="ascii">
9
9
9
9
9
9
9
9
9
9
9
9
9
9
9
9
9
9
9
9
9
9
9
9
9
9
9
9
9
9
9
9
9
9
9
9
9
9
9
9
9
9
9
9
9
9
9
9
9
9
9
9
9
9
9
9
9
9
9
9
9
9
9
9
9
9
9
9
9
9
9
9
9
9
9
9
9
9
9
9
9
9
9
9
9
9
9
9
9
9
9
9
9
9
9
9
9
9
9
9
9
9
9
9
9
9
9
9
9
9
9
9
9
9
9
9
9
9
9
9
9
9
9
9
9
9
9
9
9
9
9
9
9
9
9
9
9
9
9
9
9
9
9
9
9
9
9
9
9
9
9
9
9
9
9
9
9
9
9
9
9
9
9
9
9
9
9
9
9
9
9
9
9
9
9
9
9
9
9
9
9
9
9
9
9
9
9
9
9
9
9
9
9
9
9
9
9
9
9
9
9
9
9
9
9
9
9
9
9
9
9
9
9
9
9
9
9
9
9
9
9
9
9
9
9
9
9
9
9
9
9
9
9
9
9
9
9
9
9
9
9
9
9
9
9
9
9
9
9
9
9
9
9
9
9
9
9
9
9
9
9
9
9
9
9
9
9
9
9
9
9
9
9
9
9
9
9
9
9
9
9
9
9
9
9
9
9
9
9
9
9
9
9
9
9
9
9
9
9
9
9
9
9
9
9
9
9
9
9
9
9
9
9
9
9
9
9
9
9
9
9
9
9
9
9
9
9
9
9
9
9
9
9
9
9
9
9
9
9
9
9
9
9
9
9
9
9
9
9
9
9
9
9
9
9
9
9
9
9
9
9
9
9
9
9
9
9
9
9
9
9
9
9
9
9
9
9
9
9
9
9
9
9
9
9
9
9
9
9
9
9
9
9
9
9
9
9
9
9
9
9
9
9
9
9
9
9
9
9
9
9
9
9
9
9
9
9
9
9
9
9
9
9
9
9
9
9
9
9
9
9
9
9
9
9
9
9
9
9
9
9
9
9
9
9
9
9
9
9
9
9
9
9
9
9
9
9
9
9
9
9
9
9
9
9
9
9
9
9
9
9
9
9
9
9
9
9
9
9
9
9
9
9
9
9
9
9
9
9
9
9
9
9
9
9
9
9
9
9
9
9
9
9
9
9
9
9
9
9
9
9
9
9
9
9
9
9
9
9
9
9
9
9
9
9
9
9
9
9
9
9
9
9
9
9
9
9
9
9
9
9
9
9
9
9
9
9
9
9
9
9
9
9
9
9
9
9
9
9
9
9
9
9
9
9
9
9
9
9
9
9
9
9
9
9
9
9
9
9
9
9
9
9
9
9
9
9
9
9
9
9
9
9
9
9
9
9
9
9
9
9
9
9
9
9
9
9
9
9
9
9
9
9
9
9
9
9
9
9
9
9
9
9
9
9
9
9
9
9
9
9
9
9
9
9
9
9
9
9
9
9
9
9
9
9
9
9
9
9
9
9
9
9
9
9
9
9
9
9
9
9
9
9
9
9
9
9
9
9
9
9
9
9
9
9
9
9
9
9
9
9
9
9
9
9
9
9
9
9
9
9
9
9
9
9
9
9
9
9
9
9
9
9
9
9
9
9
9
9
9
9
9
9
9
9
9
9
9
9
9
9
9
9
9
9
9
9
9
9
9
9
9
9
9
9
9
9
9
9
9
9
9
9
9
9
9
9
9
9
9
9
9
9
9
9
9
9
9
9
9
9
9
9
9
9
9
9
9
9
9
9
9
9
9
9
9
9
9
9
9
9
9
9
9
9
9
9
9
9
9
9
9
9
9
9
9
9
9
9
9
9
9
9
9
9
9
9
9
9
9
9
9
9
9
9
9
9
9
9
9
9
9
9
9
9
9
9
9
9
9
9
9
9
9
9
9
9
9
9
9
9
9
9
9
9
9
9
9
9
9
9
9
9
9
9
9
9
9
9
9
9
9
9
9
9
9
9
9
9
9
9
9
9
9
9
9
9
9
9
9
9
9
9
9
9
9
9
9
9
9
9
9
9
9
9
9
9
9
9
9
9
9
9
9
9
9
9
9
9
9
9
9
9
9
9
9
9
9
9
9
9
9
9
9
9
9
9
9
9
9
9
9
9
9
9
9
9
9
9
9
9
9
9
9
9
9
9
9
9
9
9
9
9
9
9
9
9
9
9
9
9
9
9
9
9
9
9
9
9
9
9
9
9
9
9
9
9
9
9
9
9
9
9
9
9
9
9
9
9
9
9
9
9
9
9
9
9
9
9
9
9
9
9
9
9
9
9
9
9
9
9
9
9
9
9
9
9
9
9
9
9
9
9
9
9
9
9
9
9
9
9
9
9
9
9
9
9
9
9
9
9
9
9
9
9
9
9
9
9
9
9
9
9
9
9
9
9
9
9
9
9
9
9
9
9
9
9
9
9
9
9
9
9
9
9
9
9
9
9
9
9
9
9
9
9
9
9
9
9
9
9
9
9
9
9
9
9
9
9
9
9
9
9
9
9
9
9
9
9
9
9
9
9
9
9
9
9
9
9
9
9
9
9
9
9
9
9
9
9
9
9
9
9
9
9
9
9
9
9
9
9
9
9
9
9
9
9
9
9
9
9
9
9
9
9
9
9
9
9
9
9
9
9
9
9
9
9
9
9
9
9
9
9
9
9
9
9
9
9
9
9
9
9
9
9
9
9
9
9
9
9
9
9
9
9
9
9
9
9
9
9
9
9
9
9
9
9
9
9
9
9
9
9
9
9
9
9
9
9
9
9
9
9
9
9
9
9
9
9
9
9
9
9
9
9
9
9
9
9
9
9
9
9
9
9
9
9
9
9
9
9
9
9
9
9
9
9
9
9
9
9
9
9
9
9
9
9
9
9
9
9
9
9
9
9
9
9
9
9
9
9
9
9
9
9
9
9
9
9
9
9
9
9
9
9
9
9
9
9
9
9
9
9
9
9
9
9
9
9
9
9
9
9
9
9
9
9
9
9
9
9
9
9
9
9
9
9
9
9
9
9
9
9
9
9
9
9
9
9
9
9
9
9
9
9
9
9
9
9
9
9
9
9
9
9
9
9
9
9
9
9
9
9
9
9
9
9
9
9
9
9
9
9
9
9
9
9
9
9
9
9
9
9
9
9
9
9
9
9
9
9
9
9
9
9
9
9
9
9
9
9
9
9
9
9
9
9
9
9
9
9
9
9
9
9
9
9
9
9
9
9
9
9
9
9
9
9
9
9
9
9
9
9
9
9
9
9
9
9
9
9
9
9
9
9
9
9
9
9
9
9
9
9
9
9
9
9
9
9
9
9
9
9
9
9
9
9
9
9
9
9
9
9
9
9
9
9
9
9
9
9
9
9
9
9
9
9
9
9
9
9
9
9
9
9
9
9
9
9
9
9
9
9
9
9
9
9
9
9
9
9
9
9
9
9
9
9
9
9
9
9
9
9
9
9
9
9
9
9
9
9
9
9
9
9
9
9
9
9
9
9
9
9
9
9
9
9
9
9
9
9
9
9
9
9
9
9
9
9
9
9
9
9
9
9
9
9
9
9
9
9
9
9
9
9
9
9
9
9
9
9
9
9
9
9
9
9
9
9
9
9
9
9
9
9
9
9
9
9
9
9
9
9
9
9
9
9
9
9
9
9
9
9
9
9
9
9
9
9
9
9
9
9
9
9
9
9
9
9
9
9
9
9
9
9
9
9
9
9
9
9
9
9
9
9
9
9
9
9
9
9
9
9
9
9
9
9
9
9
9
9
9
9
9
9
9
9
9
9
9
9
9
9
9
9
9
9
9
9
9
9
9
9
9
9
9
9
9
9
9
9
9
9
9
9
9
9
9
9
9
9
9
9
9
9
9
9
9
9
9
9
9
9
9
9
9
9
9
9
9
9
9
9
9
9
9
9
9
9
9
9
9
9
9
9
9
9
9
9
9
9
9
9
9
9
9
9
9
9
9
9
9
9
9
9
9
9
9
9
9
9
9
9
9
9
9
9
9
9
9
9
9
9
9
9
9
9
9
9
9
9
9
9
9
9
9
9
9
9
9
9
9
9
9
9
9
9
9
9
9
9
9
9
9
9
9
9
9
9
9
9
9
9
9
9
9
9
9
9
9
9
9
9
9
9
9
9
9
9
9
9
9
9
9
9
9
9
9
9
9
9
9
9
9
9
9
9
9
9
9
9
9
9
9
9
9
9
9
9
9
9
9
9
9
9
9
9
9
9
9
9
9
9
9
9
9
9
9
9
9
9
9
9
9
9
9
9
9
9
9
9
9
9
9
9
9
9
9
9
9
9
9
9
9
9
9
9
9
9
9
9
9
9
9
9
9
9
9
9
9
9
9
9
9
9
9
9
9
9
9
9
9
9
9
9
9
9
9
9
9
9
9
9
9
9
9
9
9
9
9
9
9
9
9
9
9
9
9
9
9
9
9
9
9
9
9
9
9
9
9
9
9
9
9
9
9
9
9
9
9
9
9
9
9
9
9
9
9
9
9
9
9
9
9
9
9
9
9
9
9
9
9
9
9
9
9
9
9
9
9
9
9
9
9
9
9
9
9
9
9
9
9
9
9
9
9
9
9
9
9
9
9
9
9
9
9
9
9
9
9
9
9
9
9
9
9
9
9
9
9
9
9
9
9
9
9
9
9
9
9
9
9
9
9
9
9
9
9
9
9
9
9
9
9
9
9
9
9
9
9
9
9
9
9
9
9
9
9
9
9
9
9
9
9
9
9
9
9
9
9
9
9
9
9
9
9
9
9
9
9
9
9
9
9
9
9
9
9
9
9
9
9
9
9
9
9
9
9
9
9
9
9
9
9
9
9
9
9
9
9
9
9
9
9
9
9
9
9
9
9
9
9
9
9
9
9
9
9
9
9
9
9
9
9
9
9
9
9
9
9
9
9
9
9
9
9
9
9
9
9
9
9
9
9
9
9
9
9
9
9
9
9
9
9
9
9
9
9
9
9
9
9
9
9
9
9
9
9
9
9
9
9
9
9
9
9
9
9
9
9
9
9
9
9
9
9
9
9
9
9
9
9
9
9
9
9
9
9
9
9
9
9
9
9
9
9
9
9
9
9
9
9
9
9
9
9
9
9
9
9
9
9
9
9
9
9
9
9
9
9
9
9
9
9
9
9
9
9
9
9
9
9
9
9
9
9
9
9
9
9
9
9
9
9
9
9
9
9
9
9
9
9
9
9
9
9
9
9
9
9
9
9
9
9
9
9
9
9
9
9
9
9
9
9
9
9
9
9
9
9
9
9
9
9
9
9
9
9
9
9
9
9
9
9
9
9
9
9
9
9
9
9
9
9
9
9
9
9
9
9
9
9
9
9
9
9
9
9
9
9
9
9
9
9
9
9
9
9
9
9
9
9
9
9
9
9
9
9
9
9
9
9
9
9
9
9
9
9
9
9
9
9
9
9
9
9
9
9
9
9
9
9
9
9
9
9
9
9
9
9
9
9
9
9
9
9
9
9
9
9
9
9
9
9
9
9
9
9
9
9
9
9
9
9
9
9
9
9
9
9
9
9
9
9
9
9
9
9
9
9
9
9
9
9
9
9
9
9
9
9
9
9
9
9
9
9
9
9
9
9
9
9
9
9
9
9
9
9
9
9
9
9
9
9
9
9
9
9
9
9
9
9
9
9
9
9
9
9
9
9
9
9
9
9
9
9
9
9
9
9
9
9
9
9
9
9
9
9
9
9
9
9
9
9
9
9
9
9
9
9
9
9
9
9
9
9
9
9
9
9
9
9
9
9
9
9
9
9
9
9
9
9
9
9
9
9
9
9
9
9
9
9
9
9
9
9
9
9
9
9
9
9
9
9
9
9
9
9
9
9
9
9
9
9
9
9
9
9
9
9
9
9
9
9
9
9
9
9
9
9
9
9
9
9
9
9
9
9
9
9
9
9
9
9
9
9
9
9
9
9
9
9
9
9
9
9
9
9
9
9
9
9
9
9
9
9
9
9
9
9
9
9
9
9
9
9
9
9
9
9
9
9
9
9
9
9
9
9
9
9
9
9
9
9
9
9
9
9
9
9
9
9
9
9
9
9
9
9
9
9
9
9
9
9
9
9
9
9
9
9
9
9
9
9
9
9
9
9
9
9
9
9
9
9
9
9
9
9
9
9
9
9
9
9
9
9
9
9
9
9
9
9
9
9
9
9
9
9
9
9
9
9
9
9
9
9
9
9
9
9
9
9
9
9
9
9
9
9
9
9
9
9
9
9
9
9
9
9
9
9
9
9
9
9
9
9
9
9
9
9
9
9
9
9
9
9
9
9
9
9
9
9
9
9
9
9
9
9
9
9
9
9
9
9
9
9
9
9
9
9
9
9
9
9
9
9
9
9
9
9
9
9
9
9
9
9
9
9
9
9
9
9
9
9
9
9
9
9
9
9
9
9
9
9
9
9
9
9
9
9
9
9
9
9
9
9
9
9
9
9
9
9
9
9
9
9
9
9
9
9
9
9
9
9
9
9
9
9
9
9
9
9
9
9
9
9
9
9
9
9
9
9
9
9
9
9
9
9
9
9
9
9
9
9
9
9
9
9
9
9
9
9
9
9
9
9
9
9
9
9
9
9
9
9
9
9
9
9
9
9
9
9
9
9
9
9
9
9
9
9
9
9
9
9
9
9
9
9
9
9
9
9
9
9
9
9
9
9
9
9
9
9
9
9
9
9
9
9
9
9
9
9
9
9
9
9
9
9
9
9
9
9
9
9
9
9
9
9
9
9
9
9
9
9
9
9
9
9
9
9
9
9
9
9
9
9
9
9
9
9
9
9
9
9
9
9
9
9
9
9
9
9
9
9
9
9
9
9
9
9
9
9
9
9
9
9
9
9
9
9
9
9
9
9
9
9
9
9
9
9
9
9
9
9
9
9
9
9
9
9
9
9
9
9
9
9
9
9
9
9
9
9
9
9
9
9
9
9
9
9
9
9
9
9
9
9
9
9
9
9
9
9
9
9
9
9
9
9
9
9
9
9
9
9
9
9
9
9
9
9
9
9
9
9
9
9
9
9
9
9
9
9
9
9
9
9
9
9
9
9
9
9
9
9
9
9
9
9
9
9
9
9
9
9
9
9
9
9
9
9
9
9
9
9
9
9
9
9
9
9
9
9
9
9
9
9
9
9
9
9
9
9
9
9
9
9
9
9
9
9
9
9
9
9
9
9
9
9
9
9
9
9
9
9
9
9
9
9
9
9
9
9
9
9
9
9
9
9
9
9
9
9
9
9
9
9
9
9
9
9
9
9
9
9
9
9
9
9
9
9
9
9
9
9
9
9
9
9
9
9
9
9
9
9
9
9
9
9
9
9
9
9
9
9
9
9
9
9
9
9
9
9
9
9
9
9
9
9
9
9
9
9
9
9
9
9
9
9
9
9
9
9
9
9
9
9
9
9
9
9
9
9
9
9
9
9
9
9
9
9
9
9
9
9
9
9
9
9
9
9
9
9
9
9
9
9
9
9
9
9
9
9
9
9
9
9
9
9
9
9
9
9
9
9
9
9
9
9
9
9
9
9
9
9
9
9
9
9
9
9
9
9
9
9
9
9
9
9
9
9
9
9
9
9
9
9
9
9
9
9
9
9
9
9
9
9
9
9
9
9
9
9
9
9
9
9
9
9
9
9
9
9
9
9
9
9
9
9
9
9
9
9
9
9
9
9
9
9
9
9
9
9
9
9
9
9
9
9
9
9
9
9
9
9
9
9
9
9
9
9
9
9
9
9
9
9
9
9
9
9
9
9
9
9
9
9
9
9
9
9
9
9
9
9
9
9
9
9
9
9
9
9
9
9
9
9
9
9
9
9
9
9
9
9
9
9
9
9
9
9
9
9
9
9
9
9
9
9
9
9
9
9
9
9
9
9
9
9
9
9
9
9
9
9
9
9
9
9
9
9
9
9
9
9
9
9
9
9
9
9
9
9
9
9
9
9
9
9
9
9
9
9
9
9
9
9
9
9
9
9
9
9
9
9
9
9
9
9
9
9
9
9
9
9
9
9
9
9
9
9
9
9
9
9
9
9
9
9
9
9
9
9
9
9
9
9
9
9
9
9
9
9
9
9
9
9
9
9
9
9
9
9
9
9
9
9
9
9
9
9
9
9
9
9
9
9
9
9
9
9
9
9
9
9
9
9
9
9
9
9
9
9
9
9
9
9
9
9
9
9
9
9
9
9
9
9
9
9
9
9
9
9
9
9
9
9
9
9
9
9
9
9
9
9
9
9
9
9
9
9
9
9
9
9
9
9
9
9
9
9
9
9
9
9
9
9
9
9
9
9
9
9
9
9
9
9
9
9
9
9
9
9
9
9
9
9
9
9
9
9
9
9
9
9
9
9
9
9
9
9
9
9
9
9
9
9
9
9
9
9
9
9
9
9
9
9
9
9
9
9
9
9
9
9
9
9
9
9
9
9
9
9
9
9
9
9
9
9
9
9
9
9
9
9
9
9
9
9
9
9
9
9
9
9
9
9
9
9
9
9
9
9
9
9
9
9
9
9
9
9
9
9
9
9
9
9
9
9
9
9
9
9
9
9
9
9
9
9
9
9
9
9
9
9
9
9
9
9
9
9
9
9
9
9
9
9
9
9
9
9
9
9
9
9
9
9
9
9
9
9
9
9
9
9
9
9
9
9
9
9
9
9
9
9
9
9
9
9
9
9
9
9
9
9
9
9
9
9
9
9
9
9
9
9
9
9
9
9
9
9
9
9
9
9
9
9
9
9
9
9
9
9
9
9
9
9
9
9
9
9
9
9
9
9
9
9
9
9
9
9
9
9
9
9
9
9
9
9
9
9
9
9
9
9
9
9
9
9
9
9
9
9
9
9
9
9
9
9
9
9
9
9
9
9
9
9
9
9
9
9
9
9
9
9
9
9
9
9
9
9
9
9
9
9
9
9
9
9
9
9
9
9
9
9
9
9
9
9
9
9
9
9
9
9
9
9
9
9
9
9
9
9
9
9
9
9
9
9
9
9
9
9
9
9
9
9
9
9
9
9
9
9
9
9
9
9
9
9
9
9
9
9
9
9
9
9
9
9
9
9
9
9
9
9
9
9
9
9
9
9
9
9
9
9
9
9
9
9
9
9
9
9
9
9
9
9
9
9
9
9
9
9
9
9
9
9
9
9
9
9
9
9
9
9
9
9
9
9
9
9
9
9
9
9
9
9
9
9
9
9
9
9
9
9
9
9
9
9
9
9
9
9
9
9
9
9
9
9
9
9
9
9
9
9
9
9
9
9
9
9
9
9
9
9
9
9
9
9
9
9
9
9
9
9
9
9
9
9
9
9
9
9
9
9
9
9
9
9
9
9
9
9
9
9
9
9
9
9
9
9
9
9
9
9
9
9
9
9
9
9
9
9
9
9
9
9
9
9
9
9
9
9
9
9
9
9
9
9
9
9
9
9
9
9
9
9
9
9
9
9
9
9
9
9
9
9
9
9
9
9
9
9
9
9
9
9
9
9
9
9
9
9
9
9
9
9
9
9
9
9
9
9
9
9
9
9
9
9
9
9
9
9
9
9
9
9
9
9
9
9
9
9
9
9
9
9
9
9
9
9
9
9
9
9
9
9
9
9
9
9
9
9
9
9
9
9
9
9
9
9
9
9
9
9
9
9
9
9
9
9
9
9
9
9
9
9
9
9
9
9
9
9
9
9
9
9
9
9
9
9
9
9
9
9
9
9
9
9
9
9
9
9
9
9
9
9
9
9
9
9
9
9
9
9
9
9
9
9
9
9
9
9
9
9
9
9
9
9
9
9
9
9
9
9
9
9
9
9
9
9
9
9
9
9
9
9
9
9
9
9
9
9
9
9
9
9
9
9
9
9
9
9
9
9
9
9
9
9
9
9
9
9
9
9
9
9
9
9
9
9
9
9
9
9
9
9
9
9
9
9
9
9
9
9
9
9
9
9
9
9
9
9
9
9
9
9
9
9
9
9
9
9
9
9
9
9
9
9
9
9
9
9
9
9
9
9
9
9
9
9
9
9
9
9
9
9
9
9
9
9
9
9
9
9
9
9
9
9
9
9
9
9
9
9
9
9
9
9
9
9
9
9
9
9
9
9
9
9
9
9
9
9
9
9
9
9
9
9
9
9
9
9
9
9
9
9
9
9
9
9
9
9
9
9
9
9
9
9
9
9
9
9
9
9
9
9
9
9
9
9
9
9
9
9
9
9
9
9
9
9
9
9
9
9
9
9
9
9
9
9
9
9
9
9
9
9
9
9
9
9
9
9
9
9
9
9
9
9
9
9
9
9
9
9
9
9
9
9
9
9
9
9
9
9
9
9
9
9
9
9
9
9
9
9
9
9
9
9
9
9
9
9
9
9
9
9
9
9
9
9
9
9
9
9
9
9
9
9
9
9
9
9
9
9
9
9
9
9
9
9
9
9
9
9
9
9
9
9
9
9
9
9
9
9
9
9
9
9
9
9
9
9
9
9
9
9
9
9
9
9
9
9
9
9
9
9
9
9
9
9
9
9
9
9
9
9
9
9
9
9
9
9
9
9
9
9
9
9
9
9
9
9
9
9
9
9
9
9
9
9
9
9
9
9
9
9
9
9
9
9
9
9
9
9
9
9
9
9
9
9
9
9
9
9
9
9
9
9
9
9
9
9
9
9
9
9
9
9
9
9
9
9
9
9
9
9
9
9
9
9
9
9
9
9
9
9
9
9
9
9
9
9
9
9
9
9
9
9
9
9
9
9
9
9
9
9
9
9
9
9
9
9
9
9
9
9
9
9
9
9
9
9
9
9
9
9
9
9
9
9
9
9
9
9
9
9
9
9
9
9
9
9
9
9
9
9
9
9
9
9
9
9
9
9
9
9
9
9
9
9
9
9
9
9
9
9
9
9
9
9
9
9
9
9
9
9
9
9
9
9
9
9
9
9
9
9
9
9
9
9
9
9
9
9
9
9
9
9
9
9
9
9
9
9
9
9
9
9
9
9
9
9
9
9
9
9
9
9
9
9
9
9
9
9
9
9
9
9
9
9
9
9
9
9
9
9
9
9
9
9
9
9
9
9
9
9
9
9
9
9
9
9
9
9
9
9
9
9
9
9
9
9
9
9
9
9
9
9
9
9
9
9
9
9
9
9
9
9
9
9
9
9
9
9
9
9
9
9
9
9
9
9
9
9
9
9
9
9
9
9
9
9
9
9
9
9
9
9
9
9
9
9
9
9
9
9
9
9
9
9
9
9
9
9
9
9
9
9
9
9
9
9
9
9
9
9
9
9
9
9
9
9
9
9
9
9
9
9
9
9
9
9
9
9
9
9
9
9
9
9
9
9
9
9
9
9
9
9
9
9
9
9
9
9
9
9
9
9
9
9
9
9
9
9
9
9
9
9
9
9
9
9
9
9
9
9
9
9
9
9
9
9
9
9
9
9
9
9
9
9
9
9
9
9
9
9
9
9
9
9
9
9
9
9
9
9
9
9
9
9
9
9
9
9
9
9
9
9
9
9
9
9
9
9
9
9
9
9
9
9
9
9
9
9
9
9
9
9
9
9
9
9
9
9
9
9
9
9
9
9
9
9
9
9
9
9
9
9
9
9
9
9
9
9
9
9
9
9
9
9
9
9
9
9
9
9
9
9
9
9
9
9
9
9
9
9
9
9
9
9
9
9
9
9
9
9
9
9
9
9
9
9
9
9
9
9
9
9
9
9
9
9
9
9
9
9
9
9
9
9
9
9
9
9
9
9
9
9
9
9
9
9
9
9
9
9
9
9
9
9
9
9
9
9
9
9
9
9
9
9
9
9
9
9
9
9
9
9
9
9
9
9
9
9
9
9
9
9
9
9
9
9
9
9
9
9
9
9
9
9
9
9
9
9
9
9
9
9
9
9
9
9
9
9
9
9
9
9
9
9
9
9
9
9
9
9
9
9
9
9
9
9
9
9
9
9
9
9
9
9
9
9
9
9
9
9
9
9
9
9
9
9
9
9
9
9
9
9
9
9
9
9
9
9
9
9
9
9
9
9
9
9
9
9
9
9
9
9
9
9
9
9
9
9
9
9
9
9
9
9
9
9
9
9
9
9
9
9
9
9
9
9
9
9
9
9
9
9
9
9
9
9
9
9
9
9
9
9
9
9
9
9
9
9
9
9
9
9
9
9
9
9
9
9
9
9
9
9
9
9
9
9
9
9
9
9
9
9
9
9
9
9
9
9
9
9
9
9
9
9
9
9
9
9
9
9
9
9
9
9
9
9
9
9
9
9
9
9
9
9
9
9
9
9
9
9
9
9
9
9
9
9
9
9
9
9
9
9
9
9
9
9
9
9
9
9
9
9
9
9
9
9
9
9
9
9
9
9
9
9
9
9
9
9
9
9
9
9
9
9
9
9
9
9
9
9
9
9
9
9
9
9
9
9
9
9
9
9
9
9
9
9
9
9
9
9
9
9
9
9
9
9
9
9
9
9
9
9
9
9
9
9
9
9
9
9
9
9
9
9
9
9
9
9
9
9
9
9
9
9
9
9
9
9
9
9
9
9
9
9
9
9
9
9
9
9
9
9
9
9
9
9
9
9
9
9
9
9
9
9
9
9
9
9
9
9
9
9
9
9
9
9
9
9
9
9
9
9
9
9
9
9
9
9
9
9
9
9
9
9
9
9
9
9
9
9
9
9
9
9
9
9
9
9
9
9
9
9
9
9
9
9
9
9
9
9
9
9
9
9
9
9
9
9
9
9
9
9
9
9
9
9
9
9
9
9
9
9
9
9
9
9
9
9
9
9
9
9
9
9
9
9
9
9
9
9
9
9
9
9
</DataArray>
</Cells>
<PointData Vectors="'U'">
<DataArray type="Float64" Name="U" NumberOfComponents="2" ComponentName0="U1" ComponentName1="U2" format="ascii">
-0.2096724546466E-37 -0.5363013899754E-37
-0.3236319828410E-37 -0.3975067203633E-37
-0.2096724546710E-37  0.5363013899784E-37
-0.2126446444097E-01 -0.4404306278367E-01
-0.1378922079622E-01 -0.1944632722978E-01
-0.1752618324487E-03 -0.1599694927368E-01
 0.7705937501011E-02 -0.3525395151616E-01
-0.3936487279939E+00 -0.3408109127997E+00
 0.2020940039816E+00 -0.3568748239018E+00
-0.4399678833454E+00 -0.4942599625820E+00
 0.2721523496721E+00 -0.5553059087458E+00
-0.3567474518005E-37 -0.1293135682982E-36
-0.3634199574038E-37 -0.1163136909311E-36
-0.3574525128819E-37 -0.1083420554889E-36
-0.3502969590905E-37 -0.1025768585535E-36
-0.3438768330444E-37 -0.9803489282918E-37
-0.3384576744348E-37 -0.9426048061164E-37
-0.3339633179631E-37 -0.9100604861447E-37
-0.3302565712608E-37 -0.8812331118048E-37
-0.3272059219160E-37 -0.8551732155145E-37
-0.3246997601764E-37 -0.8312420001928E-37
-0.3226467870760E-37 -0.8089927016888E-37
-0.3209730760482E-37 -0.7881028599125E-37
-0.3196187608389E-37 -0.7683335727597E-37
-0.3185351401557E-37 -0.7495038177039E-37
-0.3176823381031E-37 -0.7314737466114E-37
-0.3170274638393E-37 -0.7141334440312E-37
-0.3165431779953E-37 -0.6973951630565E-37
-0.3162065769064E-37 -0.6811878364620E-37
-0.3159983207875E-37 -0.6654531160012E-37
-0.3159042401792E-37 -0.6501438587424E-37
-0.3159068389196E-37 -0.6354028373082E-37
-0.3159921223487E-37 -0.6210137050644E-37
-0.3161509764199E-37 -0.6069453242395E-37
-0.3163740960433E-37 -0.5931709163600E-37
-0.3166531948418E-37 -0.5796666592426E-37
-0.3169808376671E-37 -0.5664110724637E-37
-0.3173502941933E-37 -0.5533844896136E-37
-0.3177554169065E-37 -0.5405686721632E-37
-0.3181905405154E-37 -0.5279464866428E-37
-0.3186503990696E-37 -0.5155016521070E-37
-0.3191300579293E-37 -0.5032185291293E-37
-0.3196248585058E-37 -0.4910819407032E-37
-0.3201303731719E-37 -0.4790770359596E-37
-0.3206423689996E-37 -0.4671891756927E-37
-0.3211567792171E-37 -0.4554038372524E-37
-0.3216696806965E-37 -0.4437065470656E-37
-0.3221772777089E-37 -0.4320828098218E-37
-0.3226758903275E-37 -0.4205180627241E-37
-0.3231619472849E-37 -0.4089976358457E-37
-0.3240826372609E-37 -0.3860303436129E-37
-0.3245106606987E-37 -0.3745533479543E-37
-0.3249129202699E-37 -0.3630603732027E-37
-0.3252864101121E-37 -0.3515358425151E-37
-0.3256282644111E-37 -0.3399639489697E-37
-0.3259357733925E-37 -0.3283286422375E-37
-0.3262064019711E-37 -0.3166136180549E-37
-0.3264378122236E-37 -0.3048022911516E-37
-0.3266278881997E-37 -0.2928777835238E-37
-0.3267747645362E-37 -0.2808228967288E-37
-0.3268768587846E-37 -0.2686200793639E-37
-0.3269329074551E-37 -0.2562513904291E-37
-0.3269420073080E-37 -0.2436984389388E-37
-0.3269036615880E-37 -0.2309423175739E-37
-0.3268178315409E-37 -0.2179635274076E-37
-0.3266849953750E-37 -0.2047418703823E-37
-0.3265062135473E-37 -0.1912563322442E-37
-0.3262832069566E-37 -0.1774848834858E-37
-0.3260184452680E-37 -0.1634043126766E-37
-0.3257126443288E-37 -0.1489885371326E-37
-0.3253892963900E-37 -0.1339755401894E-37
-0.3250398238986E-37 -0.1185704908269E-37
-0.3246699861119E-37 -0.1027428019068E-37
-0.3242880511691E-37 -0.8645802561836E-38
-0.3239039632756E-37 -0.6967762228002E-38
-0.3235295270604E-37 -0.5235800972052E-38
-0.3231785965496E-37 -0.3444933340674E-38
-0.3228672099539E-37 -0.1589391676771E-38
-0.3226135766619E-37  0.3375654193944E-39
-0.3224377355750E-37  0.2343878620916E-38
-0.3223605684725E-37  0.4438937227631E-38
-0.3224015830950E-37  0.6633758592691E-38
-0.3225746548386E-37  0.8940870684767E-38
-0.3228811912133E-37  0.1137314030659E-37
-0.3233042116460E-37  0.1393917117342E-37
-0.3238308375696E-37  0.1662710818050E-37
-0.3246645229763E-37  0.1934502755083E-37
-0.3276144245908E-37  0.2166826659720E-37
-0.3459300318891E-37  0.2147261727648E-37
-0.2101668053937E-01 -0.3841517527032E-01
-0.2048643784472E-01 -0.3503973375550E-01
-0.1995291795204E-01 -0.3264396430164E-01
-0.1947023042763E-01 -0.3079210336627E-01
-0.1903282410057E-01 -0.2928215026430E-01
-0.1862798872656E-01 -0.2800687343229E-01
-0.1824523296552E-01 -0.2690393899646E-01
-0.1787732332811E-01 -0.2593421935891E-01
-0.1751950256538E-01 -0.2507149311645E-01
-0.1716865415900E-01 -0.2429720194752E-01
-0.1682270296140E-01 -0.2359761428249E-01
-0.1648023122932E-01 -0.2296219928516E-01
-0.1614024337598E-01 -0.2238264711951E-01
-0.1580202061594E-01 -0.2185224447751E-01
-0.1546503416584E-01 -0.2136546526823E-01
-0.1512889415577E-01 -0.2091769065437E-01
-0.1479332470977E-01 -0.2050501275311E-01
-0.1445816381060E-01 -0.2012409245379E-01
-0.1412339797329E-01 -0.1977204708181E-01
-0.1346059869450E-01 -0.1915004109944E-01
-0.1313076785729E-01 -0.1887420869748E-01
-0.1280010742015E-01 -0.1861726053439E-01
-0.1246863467767E-01 -0.1837775287724E-01
-0.1213633715291E-01 -0.1815430181431E-01
-0.1180318999835E-01 -0.1794563778518E-01
-0.1146916946230E-01 -0.1775060136804E-01
-0.1113425812479E-01 -0.1756813721642E-01
-0.1079844713751E-01 -0.1739728647735E-01
-0.1046173737423E-01 -0.1723718001845E-01
-0.1012413967046E-01 -0.1708703245944E-01
-0.9785674457739E-02 -0.1694613706628E-01
-0.9446371476564E-02 -0.1681386167593E-01
-0.9106269185020E-02 -0.1668964531258E-01
-0.8765413971716E-02 -0.1657299543687E-01
-0.8423859560360E-02 -0.1646348585987E-01
-0.8081665789462E-02 -0.1636075495918E-01
-0.7738897705669E-02 -0.1626450445483E-01
-0.7395624479598E-02 -0.1617449851387E-01
-0.7051918264243E-02 -0.1609056318347E-01
-0.6707853022879E-02 -0.1601258612734E-01
-0.6363503291747E-02 -0.1594051663552E-01
-0.6018942920224E-02 -0.1587436590856E-01
-0.5674243831940E-02 -0.1581420762243E-01
-0.5329474773498E-02 -0.1576017877509E-01
-0.4984700079941E-02 -0.1571248084006E-01
-0.4639978582239E-02 -0.1567138127264E-01
-0.4295362162482E-02 -0.1563721534818E-01
-0.3950894913197E-02 -0.1561038851156E-01
-0.3606612081369E-02 -0.1559137919096E-01
-0.3262539197318E-02 -0.1558074220334E-01
-0.2918691512374E-02 -0.1557911282981E-01
-0.2575073368523E-02 -0.1558721163656E-01
-0.2231678217475E-02 -0.1560585009898E-01
-0.1888489631275E-02 -0.1563593688705E-01
-0.1545483475505E-02 -0.1567848433856E-01
-0.1202633158748E-02 -0.1573461277987E-01
-0.8599222001027E-03 -0.1580554969310E-01
-0.5173598847565E-03 -0.1589256976542E-01
 0.1732643727090E-03 -0.1612436710356E-01
 0.5233889518550E-03 -0.1627503184655E-01
 0.8748139950022E-03 -0.1645125663541E-01
 0.1227531603303E-02 -0.1665573148271E-01
 0.1581706015325E-02 -0.1689159366441E-01
 0.1937624364800E-02 -0.1716253419900E-01
 0.2295688512087E-02 -0.1747293002415E-01
 0.2656434064861E-02 -0.1782802826600E-01
 0.3020574732008E-02 -0.1823420964245E-01
 0.3389079641022E-02 -0.1869937379465E-01
 0.3763304314666E-02 -0.1923352531358E-01
 0.4145202921906E-02 -0.1984969346347E-01
 0.4537675497006E-02 -0.2056545482980E-01
 0.4945108965381E-02 -0.2140558553464E-01
 0.5374125551412E-02 -0.2240695657016E-01
 0.5834256772365E-02 -0.2362813766633E-01
 0.6336872943653E-02 -0.2516960197707E-01
 0.6886253429827E-02 -0.2722013824781E-01
 0.7430288993111E-02 -0.3018617950779E-01
-0.1462486960066E+00 -0.1485828098182E+00
-0.2199144734142E+00 -0.2231239981666E+00
-0.2827721607020E+00 -0.2695224886328E+00
-0.3359331100871E+00 -0.2978234136257E+00
-0.3807081343313E+00 -0.3137948026763E+00
-0.4178054967154E+00 -0.3216955435849E+00
-0.4478998605220E+00 -0.3239258486502E+00
-0.4715189539395E+00 -0.3219798238324E+00
-0.4890343723453E+00 -0.3171608346891E+00
-0.5007696538903E+00 -0.3105067099820E+00
-0.5070977138979E+00 -0.3029432892988E+00
-0.5084075125042E+00 -0.2956766222793E+00
-0.5054042156608E+00 -0.2895785107523E+00
-0.4990220037742E+00 -0.2853538190439E+00
-0.4895468715707E+00 -0.2834882276010E+00
-0.4769090426050E+00 -0.2847006590945E+00
-0.4609134415199E+00 -0.2898216334888E+00
-0.4415672551809E+00 -0.2999319200007E+00
-0.4191115791574E+00 -0.3163608504616E+00
-0.3811316544604E+00 -0.3553832618260E+00
-0.3678530565605E+00 -0.3727681936707E+00
-0.3537684191181E+00 -0.3930534899801E+00
-0.3387678917345E+00 -0.4165394691104E+00
-0.3226899589376E+00 -0.4436666308238E+00
-0.3053090259696E+00 -0.4750535202787E+00
-0.2863251845449E+00 -0.5116038246427E+00
-0.2656540122186E+00 -0.5549386463097E+00
-0.2431671791596E+00 -0.6084867134321E+00
-0.2184368173873E+00 -0.6758207586211E+00
-0.1933216483581E+00 -0.7536151686436E+00
-0.1706101982040E+00 -0.8347136400911E+00
-0.1514543473557E+00 -0.9149026938423E+00
-0.1361689769147E+00 -0.9912315492998E+00
-0.1246901490120E+00 -0.1061466946457E+01
-0.1167417138155E+00 -0.1123863500701E+01
-0.1119092100960E+00 -0.1177043148415E+01
-0.1096753032154E+00 -0.1219924682359E+01
-0.1094354917476E+00 -0.1251682357044E+01
-0.1105011949243E+00 -0.1271716271369E+01
-0.1120930647186E+00 -0.1279646395082E+01
-0.1133868865937E+00 -0.1275360664022E+01
-0.1136103950160E+00 -0.1258959558768E+01
-0.1120484253828E+00 -0.1230745015962E+01
-0.1080375632664E+00 -0.1191229110195E+01
-0.1009683263716E+00 -0.1141146572056E+01
-0.9029635270208E-01 -0.1081477126926E+01
-0.7556625334588E-01 -0.1013479473371E+01
-0.5645638930171E-01 -0.9387406574570E+00
-0.3286701076382E-01 -0.8592634191444E+00
-0.5096922478798E-02 -0.7776149253903E+00
 0.2576705826342E-01 -0.6972133635327E+00
 0.5699362901872E-01 -0.6233108028825E+00
 0.8463802632132E-01 -0.5618662327256E+00
 0.1082400453995E+00 -0.5126671863808E+00
 0.1296607716259E+00 -0.4714922881379E+00
 0.1494661647127E+00 -0.4362519567050E+00
 0.1679996636315E+00 -0.4057928083957E+00
 0.1854975959476E+00 -0.3794263824653E+00
 0.2366236092735E+00 -0.3175106170316E+00
 0.2680066731573E+00 -0.2886911809214E+00
 0.2963047823074E+00 -0.2679975934372E+00
 0.3213808990625E+00 -0.2537850612732E+00
 0.3434042848575E+00 -0.2449486139771E+00
 0.3627759985374E+00 -0.2409523469436E+00
 0.3795163291517E+00 -0.2414062357726E+00
 0.3930159165071E+00 -0.2461385013881E+00
 0.4019042360307E+00 -0.2535082060158E+00
 0.4053985940465E+00 -0.2617034121971E+00
 0.4030910522458E+00 -0.2696531613444E+00
 0.3946400507136E+00 -0.2762901367048E+00
 0.3797563516693E+00 -0.2805204129178E+00
 0.3580896647880E+00 -0.2810561800740E+00
 0.3291507561637E+00 -0.2764018593183E+00
 0.2922735508391E+00 -0.2642477059123E+00
 0.2467050307640E+00 -0.2405404702267E+00
 0.1911121042867E+00 -0.1997072449244E+00
 0.1242630663572E+00 -0.1320425456608E+00
-0.4917300928693E-03 -0.8646359717444E-03
-0.8104667124013E-03 -0.1488805697569E-02
-0.1072352805258E-02 -0.2071220624059E-02
-0.1295907283502E-02 -0.2628350296263E-02
-0.1493865381366E-02 -0.3171100229410E-02
-0.1672449515115E-02 -0.3705093097150E-02
-0.1836132874540E-02 -0.4233759059668E-02
-0.1987950767988E-02 -0.4759441551677E-02
-0.2130154279542E-02 -0.5283871424179E-02
-0.2264432821301E-02 -0.5808444910921E-02
-0.2392086984034E-02 -0.6334386174188E-02
-0.2514130422212E-02 -0.6862854239415E-02
-0.2631366098260E-02 -0.7395037634974E-02
-0.2744438917865E-02 -0.7932227641965E-02
-0.2853869374670E-02 -0.8475862224814E-02
-0.2960101081989E-02 -0.9027708612534E-02
-0.3063505851424E-02 -0.9589928457726E-02
-0.3164391370936E-02 -0.1016538050733E-01
-0.3263037141605E-02 -0.1075843142323E-01
-0.3360863714126E-02 -0.1137667327581E-01
-0.3462090897192E-02 -0.1202789711136E-01
-0.3571958273893E-02 -0.1271495195271E-01
-0.3694893091034E-02 -0.1343708526982E-01
-0.3834369235363E-02 -0.1419291260623E-01
-0.3993451515903E-02 -0.1498201471036E-01
-0.4175340152361E-02 -0.1580543651521E-01
-0.4383757531629E-02 -0.1666568185788E-01
-0.4623225756484E-02 -0.1756661847485E-01
-0.4899349723300E-02 -0.1851336761386E-01
-0.5219099118814E-02 -0.1951173910060E-01
-0.5590554321254E-02 -0.2056725691109E-01
-0.6022475203558E-02 -0.2168662985406E-01
-0.6525148281828E-02 -0.2288108690067E-01
-0.7111776713784E-02 -0.2416710638103E-01
-0.7800122228434E-02 -0.2556873328006E-01
-0.8614795540152E-02 -0.2712221135940E-01
-0.9595120919511E-02 -0.2888663915322E-01
-0.1079823454794E-01 -0.3096497934407E-01
-0.1238611411204E-01 -0.3356776951165E-01
-0.1448196464798E-01 -0.3734905108688E-01
 0.1696180638910E-02 -0.2917148252115E-01
 0.6664308826207E-04 -0.2578545386331E-01
-0.1076828624686E-02 -0.2348724299278E-01
-0.1852838807674E-02 -0.2166966606569E-01
-0.2413702455120E-02 -0.2013821997126E-01
-0.2813647174923E-02 -0.1879847709267E-01
-0.3090124724044E-02 -0.1759669695599E-01
-0.3266857202303E-02 -0.1650023129319E-01
-0.3361219057407E-02 -0.1548758374837E-01
-0.3386400014731E-02 -0.1454407278030E-01
-0.3352949438016E-02 -0.1365962599788E-01
-0.3270087696887E-02 -0.1282811141471E-01
-0.3146601898932E-02 -0.1204499391852E-01
-0.2990284571682E-02 -0.1130553983926E-01
-0.2807633691603E-02 -0.1060536852376E-01
-0.2604134326880E-02 -0.9941009494000E-02
-0.2384537676376E-02 -0.9310023253345E-02
-0.2153102425330E-02 -0.8711124341534E-02
-0.1913900017301E-02 -0.8144292024222E-02
-0.1671188211027E-02 -0.7610589424513E-02
-0.1429712557486E-02 -0.7111206020221E-02
-0.1194467288786E-02 -0.6645271273191E-02
-0.9693051302720E-03 -0.6207938476687E-02
-0.7557807622245E-03 -0.5792958410351E-02
-0.5545613239332E-03 -0.5396413722488E-02
-0.3663260045638E-03 -0.5015655722327E-02
-0.1917894512951E-03 -0.4648647566183E-02
-0.3169130674554E-04 -0.4293716270172E-02
 0.1131609286286E-03 -0.3949483334250E-02
 0.2418951004680E-03 -0.3614725323976E-02
 0.3535328190572E-03 -0.3288333454158E-02
 0.4469513143430E-03 -0.2969255998636E-02
 0.5208347539028E-03 -0.2656429804235E-02
 0.5736041488514E-03 -0.2348705812956E-02
 0.6033064176993E-03 -0.2044740684041E-02
 0.6074705501705E-03 -0.1742817748889E-02
 0.5827163476944E-03 -0.1440545060706E-02
 0.5245408195744E-03 -0.1134165140070E-02
 0.4246392830018E-03 -0.8166936144289E-03
 0.2710695852178E-03 -0.4772333031539E-03
-0.4320198964415E+00 -0.5123305390193E+00
-0.4234141384133E+00 -0.5311690615055E+00
-0.4140298326771E+00 -0.5506102975583E+00
-0.4038086890085E+00 -0.5705248164927E+00
-0.3927031450514E+00 -0.5907772837371E+00
-0.3806733163836E+00 -0.6112197742823E+00
-0.3676873229497E+00 -0.6316902268026E+00
-0.3537224856837E+00 -0.6520141445723E+00
-0.3387668114453E+00 -0.6720059628805E+00
-0.3228205216991E+00 -0.6914713562864E+00
-0.3058971887451E+00 -0.7102124537805E+00
-0.2880239455016E+00 -0.7280330315228E+00
-0.2692410280188E+00 -0.7447428867444E+00
-0.2496008817260E+00 -0.7601614142466E+00
-0.2291670147308E+00 -0.7741205725605E+00
-0.2080126916199E+00 -0.7864673781159E+00
-0.1862196083680E+00 -0.7970659268084E+00
-0.1638765805345E+00 -0.8057990368426E+00
-0.1410782871272E+00 -0.8125695625870E+00
-0.1179240856302E+00 -0.8173014113987E+00
-0.9451689777028E-01 -0.8199403065114E+00
-0.7096215560092E-01 -0.8204543164719E+00
-0.4736678803544E-01 -0.8188342167293E+00
-0.2383821218613E-01 -0.8150935991460E+00
-0.4833127559579E-03 -0.8092687964144E+00
 0.2259262190148E-01 -0.8014186226619E+00
 0.4528703799293E-01 -0.7916239202993E+00
 0.6750134316258E-01 -0.7799868889558E+00
 0.8914226806627E-01 -0.7666301274385E+00
 0.1101233000749E+00 -0.7516953790317E+00
 0.1303661950233E+00 -0.7353418345401E+00
 0.1498024938417E+00 -0.7177437629693E+00
 0.1683749024604E+00 -0.6990870926080E+00
 0.1860381674214E+00 -0.6795649606677E+00
 0.2027598119493E+00 -0.6593750518301E+00
 0.2185207805495E+00 -0.6387168781298E+00
 0.2333161840123E+00 -0.6177873785402E+00
 0.2471562982599E+00 -0.5967785892720E+00
 0.2600697969598E+00 -0.5758783927432E+00
-0.4349938086184E+00 -0.4717295880559E+00
-0.4280824547872E+00 -0.4481004891201E+00
-0.4195150618844E+00 -0.4234139098674E+00
-0.4095375660496E+00 -0.3978635602901E+00
-0.3983013720090E+00 -0.3716406584203E+00
-0.3858800192329E+00 -0.3449110410915E+00
-0.3722692535435E+00 -0.3178167614077E+00
-0.3574042536184E+00 -0.2904842157462E+00
-0.3411599201930E+00 -0.2630553176195E+00
-0.3234318712954E+00 -0.2357049566468E+00
-0.3041362303946E+00 -0.2086317687528E+00
-0.2831263946780E+00 -0.1820616158804E+00
-0.2601900432277E+00 -0.1562499365245E+00
-0.2350400367794E+00 -0.1314707615609E+00
-0.2073182391176E+00 -0.1080075425821E+00
-0.1766081698587E+00 -0.8614449240501E-01
-0.1424447785355E+00 -0.6615502933063E-01
-0.1043178391735E+00 -0.4828226965297E-01
-0.6165479710968E-01 -0.3270283970325E-01
 0.2734476819869E+00 -0.5250086959884E+00
 0.2730914386370E+00 -0.4943050538181E+00
 0.2713426148326E+00 -0.4631775361125E+00
 0.2684161522156E+00 -0.4317875071257E+00
 0.2644314486079E+00 -0.4002877454514E+00
 0.2594321259931E+00 -0.3688038913991E+00
 0.2533895112939E+00 -0.3374379584916E+00
 0.2462195079393E+00 -0.3062773553981E+00
 0.2377815247054E+00 -0.2754287749997E+00
 0.2279607270952E+00 -0.2450347170328E+00
 0.2166684039162E+00 -0.2152629662093E+00
 0.2037510426859E+00 -0.1863133211908E+00
 0.1889859748807E+00 -0.1584214560670E+00
 0.1720714925147E+00 -0.1318491719237E+00
 0.1526299034490E+00 -0.1068769368251E+00
 0.1302195177579E+00 -0.8379741279609E-01
 0.1043413235645E+00 -0.6290720014663E-01
 0.7443554279617E-01 -0.4449316197640E-01
 0.3985481049815E-01 -0.2880662795710E-01
-0.4472098128293E+00 -0.4896243061753E+00
-0.4533981183827E+00 -0.4840107879649E+00
-0.4584307118513E+00 -0.4775306677024E+00
-0.4622718229721E+00 -0.4702849243853E+00
-0.4649076606807E+00 -0.4623713030044E+00
-0.4663388130988E+00 -0.4538920146040E+00
-0.4665782468024E+00 -0.4449559596957E+00
-0.4656519204999E+00 -0.4356793233568E+00
-0.4636002107131E+00 -0.4261849161636E+00
-0.4604794080114E+00 -0.4166005265762E+00
-0.4563628074457E+00 -0.4070563799357E+00
-0.4513410485373E+00 -0.3976817959854E+00
-0.4455214161250E+00 -0.3886011871531E+00
-0.4390258816982E+00 -0.3799296443448E+00
-0.4319878185009E+00 -0.3717684998594E+00
-0.4245476623015E+00 -0.3642014140982E+00
-0.4168481656165E+00 -0.3572914864847E+00
-0.4090313717227E+00 -0.3510800657318E+00
-0.4012367878716E+00 -0.3455850566614E+00
 0.2799246610317E+00 -0.5519083251083E+00
 0.2867031138736E+00 -0.5471938650012E+00
 0.2923527869213E+00 -0.5412243766971E+00
 0.2967948902193E+00 -0.5340655801200E+00
 0.2999677118232E+00 -0.5257854504963E+00
 0.3018199147723E+00 -0.5164633772842E+00
 0.3023095292369E+00 -0.5061938963736E+00
 0.3014058715702E+00 -0.4950891949802E+00
 0.2990928542691E+00 -0.4832804803678E+00
 0.2953731142341E+00 -0.4709183231910E+00
 0.2902726020750E+00 -0.4581718229581E+00
 0.2838453118049E+00 -0.4452263372716E+00
 0.2761777017462E+00 -0.4322794274809E+00
 0.2673920843022E+00 -0.4195346268281E+00
 0.2576478610647E+00 -0.4071926860021E+00
 0.2471391107582E+00 -0.3954402617059E+00
 0.2360870189980E+00 -0.3844367528027E+00
 0.2247284284990E+00 -0.3743019218825E+00
 0.2133010813763E+00 -0.3651050276171E+00
-0.4127564150791E-03 -0.7224104118317E-03
-0.7554057826031E-03 -0.1390417763175E-02
-0.1017968329437E-02 -0.1986427128175E-02
-0.1244454397473E-02 -0.2555738181913E-02
-0.1443760226107E-02 -0.3107821893848E-02
-0.1623397766187E-02 -0.3649479874139E-02
-0.1787782367297E-02 -0.4184590913583E-02
-0.1940090609470E-02 -0.4715825663210E-02
-0.2082613114538E-02 -0.5245135748073E-02
-0.2217071411850E-02 -0.5774077924802E-02
-0.2344779955098E-02 -0.6303996533684E-02
-0.2466756666074E-02 -0.6836143240368E-02
-0.2583800170720E-02 -0.7371779535778E-02
-0.2696543389420E-02 -0.7912255095216E-02
-0.2805486377694E-02 -0.8459055136150E-02
-0.2911041332200E-02 -0.9013985521164E-02
-0.3013531386856E-02 -0.9579236305371E-02
-0.3113176433411E-02 -0.1015768892709E-01
-0.3210175257239E-02 -0.1075335503000E-01
-0.3306035676550E-02 -0.1137131356496E-01
-0.3405322483991E-02 -0.1201651969909E-01
-0.3513712970429E-02 -0.1269171781698E-01
-0.3635893339385E-02 -0.1339750559928E-01
-0.3775409526147E-02 -0.1413371256097E-01
-0.3935323055807E-02 -0.1490048781617E-01
-0.4118850176244E-02 -0.1569882075646E-01
-0.4329800399809E-02 -0.1653069355091E-01
-0.4572885305147E-02 -0.1739909038950E-01
-0.4854034946685E-02 -0.1830790847946E-01
-0.5180574087170E-02 -0.1926192896943E-01
-0.5560688642372E-02 -0.2026655951251E-01
-0.6003245817872E-02 -0.2132770640066E-01
-0.6519015739062E-02 -0.2245397511763E-01
-0.7122089570990E-02 -0.2365787625706E-01
-0.7831513612171E-02 -0.2495727113753E-01
-0.8675033214408E-02 -0.2637809246522E-01
-0.9693999639608E-02 -0.2796000655179E-01
-0.1097075943749E-01 -0.2976380091045E-01
-0.1262369842550E-01 -0.3191294929090E-01
-0.1533927656398E-01 -0.3448121543067E-01
-0.3592878474784E-03 -0.6533233944310E-03
-0.6960346717107E-03 -0.1304032722995E-02
-0.9644625233280E-03 -0.1911832322037E-02
-0.1192387692647E-02 -0.2488582512794E-02
-0.1393301196462E-02 -0.3048027411240E-02
-0.1573943620060E-02 -0.3595972722310E-02
-0.1739072834810E-02 -0.4136593495457E-02
-0.1891897199907E-02 -0.4672669184396E-02
-0.2034766248998E-02 -0.5206279935536E-02
-0.2169427382553E-02 -0.5739080936162E-02
-0.2297210414362E-02 -0.6272495831454E-02
-0.2419137923776E-02 -0.6807837324978E-02
-0.2536005332800E-02 -0.7346412061950E-02
-0.2648435065590E-02 -0.7889599368948E-02
-0.2756909196487E-02 -0.8438896594603E-02
-0.2861813459738E-02 -0.8996097230748E-02
-0.2963431771043E-02 -0.9563335716441E-02
-0.3061946233912E-02 -0.1014329483826E-01
-0.3157707081790E-02 -0.1073919626063E-01
-0.3252521612871E-02 -0.1135443049252E-01
-0.3351075233769E-02 -0.1199245386606E-01
-0.3459087929942E-02 -0.1265578686079E-01
-0.3581362003440E-02 -0.1334569432032E-01
-0.3721571770161E-02 -0.1406272377848E-01
-0.3882893038495E-02 -0.1480737857221E-01
-0.4068664382323E-02 -0.1558057240577E-01
-0.4282858158694E-02 -0.1638384289573E-01
-0.4530422625091E-02 -0.1721943208970E-01
-0.4817568074592E-02 -0.1809031965462E-01
-0.5151807457825E-02 -0.1900045059596E-01
-0.5541514251280E-02 -0.1995448567405E-01
-0.5996011755801E-02 -0.2095707634813E-01
-0.6526823723364E-02 -0.2201443693423E-01
-0.7149168267786E-02 -0.2313523028753E-01
-0.7884140078214E-02 -0.2433129353555E-01
-0.8762373091946E-02 -0.2561886036892E-01
-0.9834116027891E-02 -0.2701925192337E-01
-0.1118447036941E-01 -0.2856481752085E-01
-0.1301224203971E-01 -0.3027459828707E-01
-0.1591834774554E-01 -0.3222936768926E-01
-0.3212104852620E-03 -0.6124657493636E-03
-0.6417857545762E-03 -0.1239202575575E-02
-0.9113874930191E-03 -0.1846152443989E-02
-0.1140808796785E-02 -0.2427671190390E-02
-0.1342813578217E-02 -0.2992006022121E-02
-0.1524390123804E-02 -0.3544855862196E-02
-0.1690201491903E-02 -0.4089973111709E-02
-0.1843529303303E-02 -0.4630132989423E-02
-0.1986745583417E-02 -0.5167426234538E-02
-0.2121620484384E-02 -0.5703545856717E-02
-0.2249494777459E-02 -0.6239950832699E-02
-0.2371395021523E-02 -0.6777981954893E-02
-0.2488114070376E-02 -0.7318962000398E-02
-0.2600266254222E-02 -0.7864270279292E-02
-0.2708320776529E-02 -0.8415380447856E-02
-0.2812647249543E-02 -0.8974023736067E-02
-0.2913515813114E-02 -0.9542192682022E-02
-0.3011162959824E-02 -0.1012220710721E-01
-0.3106197324440E-02 -0.1071649568364E-01
-0.3200724893163E-02 -0.1132730560325E-01
-0.3299440009450E-02 -0.1195721383892E-01
-0.3407947573904E-02 -0.1260853318245E-01
-0.3531068464913E-02 -0.1328282025204E-01
-0.3672610979711E-02 -0.1398100192936E-01
-0.3835923995071E-02 -0.1470376472930E-01
-0.4024533606260E-02 -0.1545191701190E-01
-0.4242624848491E-02 -0.1622661281710E-01
-0.4495394668876E-02 -0.1702948773744E-01
-0.4789288505136E-02 -0.1786278643079E-01
-0.5131989146596E-02 -0.1872965351974E-01
-0.5532145055012E-02 -0.1963379376433E-01
-0.5999678483105E-02 -0.2057847687259E-01
-0.6547004618683E-02 -0.2156771987630E-01
-0.7190667293548E-02 -0.2260677062895E-01
-0.7953747021172E-02 -0.2370235005008E-01
-0.8870592076074E-02 -0.2486254713397E-01
-0.9996019985531E-02 -0.2609707682031E-01
-0.1142718943554E-01 -0.2741449075049E-01
-0.1337250169088E-01 -0.2882280704143E-01
-0.1620769345563E-01 -0.3044390563696E-01
-0.2924737307158E-03 -0.5854624771629E-03
-0.5943752674614E-03 -0.1190653477610E-02
-0.8604469253679E-03 -0.1790401825202E-02
-0.1090158126465E-02 -0.2372795813880E-02
-0.1292774245970E-02 -0.2940011269924E-02
-0.1475005100563E-02 -0.3496288650118E-02
-0.1641379910576E-02 -0.4044886031924E-02
-0.1795148582159E-02 -0.4588343707216E-02
-0.1938688178456E-02 -0.5128678859523E-02
-0.2073774326475E-02 -0.5667556454457E-02
-0.2201752878952E-02 -0.6206428277730E-02
-0.2323651611391E-02 -0.6746629770627E-02
-0.2440261175377E-02 -0.7289470821679E-02
-0.2552190971285E-02 -0.7836301354348E-02
-0.2659904703897E-02 -0.8388537073621E-02
-0.2763770909111E-02 -0.8947800887860E-02
-0.2864084673580E-02 -0.9515872035539E-02
-0.2961207974758E-02 -0.1009464884350E-01
-0.3056033079830E-02 -0.1068587767685E-01
-0.3150911892033E-02 -0.1129101315644E-01
-0.3250489004845E-02 -0.1191207494884E-01
-0.3360197451867E-02 -0.1255119228774E-01
-0.3484823633758E-02 -0.1321001011051E-01
-0.3628296337269E-02 -0.1388961490897E-01
-0.3794159921758E-02 -0.1459075007403E-01
-0.3986161974728E-02 -0.1531409269279E-01
-0.4208724498374E-02 -0.1606046544178E-01
-0.4467288176275E-02 -0.1683100569094E-01
-0.4768511791657E-02 -0.1762733605572E-01
-0.5120267044584E-02 -0.1845184182296E-01
-0.5531533458919E-02 -0.1930725016999E-01
-0.6012869406215E-02 -0.2019551166129E-01
-0.6577608539838E-02 -0.2111873707145E-01
-0.7243544617017E-02 -0.2207941870775E-01
-0.8035586287893E-02 -0.2308033640685E-01
-0.8990510918282E-02 -0.2412433258537E-01
-0.1016598197923E-01 -0.2521400440900E-01
-0.1166051647758E-01 -0.2635214457303E-01
-0.1364387851334E-01 -0.2756283410002E-01
-0.1630612498758E-01 -0.2897232228382E-01
-0.2696905600900E-03 -0.5662611718537E-03
-0.5532785709325E-03 -0.1153496547329E-02
-0.8126816037778E-03 -0.1743698712113E-02
-0.1040996987698E-02 -0.2323872391555E-02
-0.1243549419312E-02 -0.2892023337778E-02
-0.1426067231100E-02 -0.3450365656142E-02
-0.1592810395066E-02 -0.4001427414322E-02
-0.1746918330711E-02 -0.4547396845006E-02
-0.1890731903674E-02 -0.5090123382203E-02
-0.2026014069396E-02 -0.5631188377296E-02
-0.2154105772218E-02 -0.6171994700928E-02
-0.2276032098670E-02 -0.6713840451831E-02
-0.2392581378989E-02 -0.7257994537954E-02
-0.2504361831538E-02 -0.7805749714106E-02
-0.2611840529989E-02 -0.8358432763798E-02
-0.2715403674803E-02 -0.8917519540271E-02
-0.2815408626764E-02 -0.9484534517398E-02
-0.2912382678747E-02 -0.1006095982990E-01
-0.3007486499726E-02 -0.1064798465328E-01
-0.3103260017837E-02 -0.1124649954065E-01
-0.3204267996874E-02 -0.1185814568894E-01
-0.3315758880892E-02 -0.1248488588041E-01
-0.3442459999557E-02 -0.1312834130548E-01
-0.3588402824305E-02 -0.1378962156245E-01
-0.3757328224916E-02 -0.1446944068630E-01
-0.3953216108444E-02 -0.1516832805845E-01
-0.4180730206369E-02 -0.1588681993536E-01
-0.4445543610350E-02 -0.1662563966077E-01
-0.4754517974302E-02 -0.1738587567994E-01
-0.5115731087514E-02 -0.1816922301416E-01
-0.5538509363630E-02 -0.1897751104516E-01
-0.6034015129344E-02 -0.1981154669316E-01
-0.6616399695941E-02 -0.2067192237913E-01
-0.7304478102091E-02 -0.2155911017438E-01
-0.8124346079914E-02 -0.2247336830202E-01
-0.9113727137421E-02 -0.2341476282985E-01
-0.1032954416631E-01 -0.2438391518140E-01
-0.1185954166102E-01 -0.2538770498948E-01
-0.1382209218774E-01 -0.2646377500143E-01
-0.1628711654921E-01 -0.2772163788237E-01
-0.2509023307280E-03 -0.5518595083668E-03
-0.5174841242907E-03 -0.1124322539710E-02
-0.7684435696692E-03 -0.1704552056333E-02
-0.9937836969383E-03 -0.2280526587235E-02
-0.1195457669463E-02 -0.2847924136787E-02
-0.1377825067699E-02 -0.3407084751582E-02
-0.1544687122634E-02 -0.3959645607984E-02
-0.1698996399618E-02 -0.4507355953517E-02
-0.1843012758832E-02 -0.5051828048643E-02
-0.1978463711720E-02 -0.5594509249850E-02
-0.2106673553312E-02 -0.6136716438932E-02
-0.2228659435838E-02 -0.6679680488465E-02
-0.2345206877209E-02 -0.7224603265453E-02
-0.2456926848462E-02 -0.7772695206547E-02
-0.2564299453347E-02 -0.8325167796016E-02
-0.2667747450337E-02 -0.8883322265329E-02
-0.2767718623239E-02 -0.9448413593335E-02
-0.2864920235708E-02 -0.1002154275437E-01
-0.2960749539444E-02 -0.1060345229344E-01
-0.3057884530587E-02 -0.1119462063228E-01
-0.3160796096908E-02 -0.1179641474533E-01
-0.3274554134210E-02 -0.1241064221004E-01
-0.3403818112220E-02 -0.1303883890240E-01
-0.3552705050921E-02 -0.1368205643006E-01
-0.3725141272449E-02 -0.1434092589734E-01
-0.3925333640022E-02 -0.1501582305022E-01
-0.4158179004137E-02 -0.1570703757547E-01
-0.4429567397412E-02 -0.1641494877708E-01
-0.4746552915378E-02 -0.1714019294321E-01
-0.5117420142587E-02 -0.1788386891322E-01
-0.5551820152566E-02 -0.1864704466320E-01
-0.6061427279091E-02 -0.1942962374993E-01
-0.6661019246214E-02 -0.2023110860504E-01
-0.7370041181432E-02 -0.2105070910350E-01
-0.8214941670095E-02 -0.2188744077733E-01
-0.9232681490106E-02 -0.2274069981702E-01
-0.1047555708006E-01 -0.2361259443142E-01
-0.1201400528342E-01 -0.2451619619879E-01
-0.1392013599717E-01 -0.2549469996296E-01
-0.1619480344851E-01 -0.2663526923907E-01
-0.2349230608598E-03 -0.5406003670613E-03
-0.4860129618644E-03 -0.1100838791933E-02
-0.7276821526290E-03 -0.1671496127497E-02
-0.9487929445947E-03 -0.2242171412002E-02
-0.1148758612581E-02 -0.2807497139168E-02
-0.1330492850515E-02 -0.3366375156930E-02
-0.1497187757750E-02 -0.3919542960949E-02
-0.1651532134923E-02 -0.4468256891115E-02
-0.1795661700912E-02 -0.5013844651768E-02
-0.1931243914699E-02 -0.5557579272249E-02
-0.2059573358973E-02 -0.6100659615879E-02
-0.2181653175330E-02 -0.6644222811093E-02
-0.2298265133544E-02 -0.7189380395494E-02
-0.2410026743196E-02 -0.7737238773709E-02
-0.2517440495301E-02 -0.8288873482890E-02
-0.2620981712892E-02 -0.8845395222836E-02
-0.2721205783396E-02 -0.9407793163545E-02
-0.2818997843117E-02 -0.9976832428967E-02
-0.2915955448436E-02 -0.1055289913433E-01
-0.3014854820024E-02 -0.1113616304571E-01
-0.3120067794720E-02 -0.1172778041698E-01
-0.3236498780612E-02 -0.1232941167194E-01
-0.3368738377039E-02 -0.1294247506086E-01
-0.3520973633543E-02 -0.1356791941086E-01
-0.3697298598336E-02 -0.1420626413460E-01
-0.3902131045917E-02 -0.1485773493073E-01
-0.4140583197472E-02 -0.1552241234294E-01
-0.4418741925968E-02 -0.1620039470177E-01
-0.4743836697544E-02 -0.1689194875435E-01
-0.5124339437833E-02 -0.1759768771306E-01
-0.5570169760720E-02 -0.1831808356042E-01
-0.6093376901856E-02 -0.1905240162728E-01
-0.6709106294065E-02 -0.1979948157607E-01
-0.7436953881832E-02 -0.2055795345351E-01
-0.8302830792000E-02 -0.2132662416754E-01
-0.9341287111038E-02 -0.2210568425394E-01
-0.1059726477090E-01 -0.2290010948000E-01
-0.1212249168460E-01 -0.2372774089130E-01
-0.1395342998496E-01 -0.2463120144503E-01
-0.1605487245540E-01 -0.2567684454708E-01
-0.2210014226037E-03 -0.5314967471113E-03
-0.4580467355949E-03 -0.1081491780393E-02
-0.6901555139282E-03 -0.1643283548239E-02
-0.9061356220397E-03 -0.2208145860205E-02
-0.1103638845033E-02 -0.2770447244240E-02
-0.1284247765239E-02 -0.3328113547736E-02
-0.1450469016609E-02 -0.3881083821822E-02
-0.1604663127984E-02 -0.4430110964681E-02
-0.1748802290231E-02 -0.4976210420432E-02
-0.1884470002505E-02 -0.5520451881123E-02
-0.2012917621453E-02 -0.6063890217185E-02
-0.2135127730341E-02 -0.6607546302793E-02
-0.2251876982511E-02 -0.7152421461338E-02
-0.2363792684819E-02 -0.7699500330099E-02
-0.2471407695263E-02 -0.8249707984190E-02
-0.2575261419582E-02 -0.8803958597669E-02
-0.2676024236170E-02 -0.9362990064282E-02
-0.2774747145458E-02 -0.9927277562395E-02
-0.2873192857166E-02 -0.1049692219573E-01
-0.2974204897928E-02 -0.1107185746950E-01
-0.3082055501617E-02 -0.1165306945854E-01
-0.3201498107911E-02 -0.1224207821086E-01
-0.3337056502967E-02 -0.1284016971082E-01
-0.3492973485948E-02 -0.1344816891422E-01
-0.3673489498311E-02 -0.1406647276799E-01
-0.3883210400405E-02 -0.1469516840880E-01
-0.4127439544734E-02 -0.1533416418535E-01
-0.4412435176727E-02 -0.1598333747100E-01
-0.4745575664331E-02 -0.1664266931118E-01
-0.5135481571082E-02 -0.1731240555320E-01
-0.5592258148378E-02 -0.1799259644053E-01
-0.6128161300381E-02 -0.1868213077106E-01
-0.6758409440793E-02 -0.1937957200075E-01
-0.7502250133436E-02 -0.2008352486839E-01
-0.8384228184535E-02 -0.2079331869040E-01
-0.9435212309384E-02 -0.2151068601160E-01
-0.1069154071451E-01 -0.2224344869133E-01
-0.1218783385851E-01 -0.2301196642961E-01
-0.1393538722115E-01 -0.2385493316815E-01
-0.1588244677347E-01 -0.2482166882885E-01
-0.2086413784610E-03 -0.5239256762400E-03
-0.4329348755426E-03 -0.1065209233870E-02
-0.6555517025125E-03 -0.1618909168090E-02
-0.8658055965725E-03 -0.2177805299866E-02
-0.1060212709770E-02 -0.2736436029818E-02
-0.1239227765430E-02 -0.3292137873764E-02
-0.1404664455482E-02 -0.3844203019868E-02
-0.1558512778280E-02 -0.4392908942524E-02
-0.1702548701624E-02 -0.4938950049009E-02
-0.1838250218712E-02 -0.5483174630094E-02
-0.1966812457207E-02 -0.6026474171081E-02
-0.2089190776067E-02 -0.6569735215105E-02
-0.2206154932230E-02 -0.7113832770346E-02
-0.2318344420405E-02 -0.7659616208414E-02
-0.2426328325542E-02 -0.8207851422514E-02
-0.2530716789024E-02 -0.8759257514022E-02
-0.2632294932924E-02 -0.9314341055787E-02
-0.2732262423023E-02 -0.9873329546944E-02
-0.2832515293630E-02 -0.1043609515703E-01
-0.2935940423271E-02 -0.1100238730772E-01
-0.3046711963453E-02 -0.1157304922188E-01
-0.3169445765633E-02 -0.1214946718125E-01
-0.3308601298447E-02 -0.1273279127519E-01
-0.3468463437761E-02 -0.1332371691663E-01
-0.3653395770406E-02 -0.1392252040874E-01
-0.3868165205771E-02 -0.1452916794731E-01
-0.4118237194287E-02 -0.1514343303246E-01
-0.4410010364432E-02 -0.1576503039965E-01
-0.4750975917283E-02 -0.1639373868271E-01
-0.5149848472607E-02 -0.1702955447847E-01
-0.5616817408060E-02 -0.1767227485278E-01
-0.6164161062197E-02 -0.1832064969365E-01
-0.6806870833404E-02 -0.1897328685034E-01
-0.7563381795257E-02 -0.1962917048778E-01
-0.8456202591516E-02 -0.2028857594978E-01
-0.9511759733459E-02 -0.2095495597609E-01
-0.1075772482939E-01 -0.2163829846053E-01
-0.1221447566680E-01 -0.2235953540114E-01
-0.1387661541340E-01 -0.2315208803301E-01
-0.1568673041561E-01 -0.2405212082418E-01
-0.1975031564450E-03 -0.5174754085052E-03
-0.4101690305787E-03 -0.1051235560696E-02
-0.6235506940619E-03 -0.1597580602009E-02
-0.8277232943531E-03 -0.2150565445236E-02
-0.1018532958210E-02 -0.2705113905894E-02
-0.1195532256426E-02 -0.3258261820694E-02
-0.1359883608920E-02 -0.3808813785369E-02
-0.1513188841874E-02 -0.4356625399573E-02
-0.1657004232685E-02 -0.4902077880200E-02
-0.1792684336158E-02 -0.5445790142714E-02
-0.1921356339477E-02 -0.5988477427436E-02
-0.2043941939901E-02 -0.6530878486848E-02
-0.2161201837757E-02 -0.7073729852463E-02
-0.2273789000180E-02 -0.7617736322659E-02
-0.2382312143457E-02 -0.8163500900335E-02
-0.2487454304974E-02 -0.8711554171584E-02
-0.2590109646819E-02 -0.9262193318639E-02
-0.2691607091292E-02 -0.9815435358057E-02
-0.2793948028271E-02 -0.1037096769460E-01
-0.2900043837869E-02 -0.1092839449341E-01
-0.3013972663798E-02 -0.1148843573080E-01
-0.3140223882125E-02 -0.1205235089801E-01
-0.3283194200131E-02 -0.1262115754257E-01
-0.3447196974102E-02 -0.1319542580656E-01
-0.3636694693679E-02 -0.1377532169889E-01
-0.3856585710470E-02 -0.1436071251280E-01
-0.4112464965205E-02 -0.1495127462554E-01
-0.4410835456935E-02 -0.1554661661707E-01
-0.4759256919825E-02 -0.1614639488977E-01
-0.5166472052513E-02 -0.1675046841705E-01
-0.5642642728641E-02 -0.1735853375642E-01
-0.6199884117761E-02 -0.1796940240986E-01
-0.6852680936527E-02 -0.1858196977609E-01
-0.7618267187145E-02 -0.1919585541390E-01
-0.8516655378154E-02 -0.1981244515411E-01
-0.9569549204144E-02 -0.2043673586917E-01
-0.1079663941096E-01 -0.2108003265027E-01
-0.1220715009813E-01 -0.2176249195401E-01
-0.1378523161309E-01 -0.2251208688273E-01
-0.1547356736446E-01 -0.2335509159307E-01
-0.1873463361941E-03 -0.5118633972123E-03
-0.3893531449942E-03 -0.1039027439917E-02
-0.5938530857188E-03 -0.1578677883769E-02
-0.7917683283300E-03 -0.2125917722299E-02
-0.9786047299636E-03 -0.2676142724154E-02
-0.1153225542671E-02 -0.3226288235785E-02
-0.1316212332964E-02 -0.3774815154433E-02
-0.1468782783033E-02 -0.4321222952744E-02
-0.1612260312749E-02 -0.4865600141746E-02
-0.1747862601949E-02 -0.5408337084281E-02
-0.1876639048062E-02 -0.5949966021513E-02
-0.1999471773084E-02 -0.6491069000719E-02
-0.2117109934052E-02 -0.7032235807200E-02
-0.2230220044902E-02 -0.7574021261724E-02
-0.2339451404195E-02 -0.8116865832690E-02
-0.2445558337937E-02 -0.8661121363564E-02
-0.2549534716880E-02 -0.9206897546957E-02
-0.2652818857467E-02 -0.9754032949791E-02
-0.2757493184873E-02 -0.1030206534602E-01
-0.2866478319111E-02 -0.1085048350502E-01
-0.2983758146825E-02 -0.1139989918865E-01
-0.3113704030245E-02 -0.1195145262468E-01
-0.3260649890168E-02 -0.1250603659985E-01
-0.3428923694278E-02 -0.1306410653372E-01
-0.3623062105038E-02 -0.1362573399755E-01
-0.3848063806891E-02 -0.1419071224242E-01
-0.4109618058767E-02 -0.1475865803619E-01
-0.4414292199627E-02 -0.1532912756943E-01
-0.4769664180511E-02 -0.1590172956441E-01
-0.5184432216631E-02 -0.1647628582816E-01
-0.5668616974155E-02 -0.1705252275091E-01
-0.6233996016797E-02 -0.1762947063658E-01
-0.6894306837929E-02 -0.1820647763650E-01
-0.7665292152498E-02 -0.1878392467119E-01
-0.8564221691490E-02 -0.1936428675094E-01
-0.9608167060359E-02 -0.1995375984148E-01
-0.1080989821303E-01 -0.2056419619181E-01
-0.1217029315388E-01 -0.2121418111476E-01
-0.1366740160736E-01 -0.2192663966227E-01
-0.1524683779976E-01 -0.2272049065818E-01
-0.1779958621161E-03 -0.5068896473358E-03
-0.3701774136462E-03 -0.1028186786007E-02
-0.5661911676874E-03 -0.1561716234251E-02
-0.7578015076160E-03 -0.2103429703421E-02
-0.9403989466842E-03 -0.2649209158219E-02
-0.1112341883228E-02 -0.3196019990325E-02
-0.1273714173859E-02 -0.3742098618092E-02
-0.1425369770435E-02 -0.4286656188647E-02
-0.1568395949799E-02 -0.4829517103557E-02
-0.1703864986006E-02 -0.5370851104919E-02
-0.1832740867441E-02 -0.5911006106819E-02
-0.1955860974312E-02 -0.6450402798021E-02
-0.2073960183808E-02 -0.6989479617987E-02
-0.2187717443422E-02 -0.7528639469590E-02
-0.2297821359252E-02 -0.8068163779023E-02
-0.2405092991835E-02 -0.8608237245384E-02
-0.2510614361162E-02 -0.9148802886893E-02
-0.2615913822670E-02 -0.9689548164493E-02
-0.2723133669567E-02 -0.1022988955443E-01
-0.2835190940906E-02 -0.1076922414552E-01
-0.2955976218117E-02 -0.1130806776098E-01
-0.3089748654102E-02 -0.1184744942905E-01
-0.3240777560534E-02 -0.1238814769583E-01
-0.3413391193377E-02 -0.1293051758707E-01
-0.3612175474539E-02 -0.1347455536104E-01
-0.3842197552181E-02 -0.1402000648231E-01
-0.4109204194110E-02 -0.1456646454403E-01
-0.4419784344349E-02 -0.1511348327903E-01
-0.4781480395870E-02 -0.1566069058201E-01
-0.5202871549681E-02 -0.1620795733061E-01
-0.5693728446227E-02 -0.1675514457349E-01
-0.6265337314683E-02 -0.1730161445669E-01
-0.6930498353167E-02 -0.1784726256558E-01
-0.7703276924192E-02 -0.1839325580067E-01
-0.8598138530437E-02 -0.1894302407205E-01
-0.9627859904954E-02 -0.1950357408986E-01
-0.1079946653754E-01 -0.2008670569999E-01
-0.1210783118112E-01 -0.2070904821707E-01
-0.1352783045541E-01 -0.2138910420970E-01
-0.1500922944852E-01 -0.2214033203807E-01
-0.1693210109120E-03 -0.5024088888602E-03
-0.3523976548811E-03 -0.1018416928606E-02
-0.5403311792804E-03 -0.1546315492311E-02
-0.7256786889703E-03 -0.2082738741782E-02
-0.9038635109362E-03 -0.2624031180802E-02
-0.1072891062534E-02 -0.3167267806101E-02
-0.1232432487935E-02 -0.3710553706928E-02
-0.1383009234326E-02 -0.4252875154983E-02
-0.1525477604364E-02 -0.4793825060293E-02
-0.1660760769599E-02 -0.5333365716562E-02
-0.1789732087532E-02 -0.5871663961127E-02
-0.1913179925202E-02 -0.6408978294300E-02
-0.2031821986320E-02 -0.6945594527839E-02
-0.2146347470345E-02 -0.7481764660129E-02
-0.2257481139649E-02 -0.8017616887694E-02
-0.2366104065917E-02 -0.8553181229220E-02
-0.2473373641539E-02 -0.9088253282151E-02
-0.2580889883415E-02 -0.9622392714121E-02
-0.2690836382994E-02 -0.1015491791157E-01
-0.2806115387111E-02 -0.1068515367885E-01
-0.2930524103895E-02 -0.1121353046488E-01
-0.3068212806554E-02 -0.1174097458201E-01
-0.3223382602028E-02 -0.1226816243738E-01
-0.3400347208028E-02 -0.1279536504516E-01
-0.3603716926929E-02 -0.1332252407739E-01
-0.3838595312937E-02 -0.1384936363306E-01
-0.4110749083889E-02 -0.1437548856690E-01
-0.4426744791056E-02 -0.1490049520161E-01
-0.4794034589036E-02 -0.1542408831031E-01
-0.5221006230329E-02 -0.1594625830244E-01
-0.5717081867653E-02 -0.1646707964169E-01
-0.6292929591005E-02 -0.1698631833155E-01
-0.6960276995487E-02 -0.1750445372511E-01
-0.7731422988809E-02 -0.1802339274630E-01
-0.8618110265503E-02 -0.1854733153507E-01
-0.9629295925240E-02 -0.1908372713378E-01
-0.1076739985568E-01 -0.1964390795236E-01
-0.1202314393001E-01 -0.2024243443160E-01
-0.1337014546268E-01 -0.2089405308550E-01
-0.1476267666887E-01 -0.2160815267548E-01
-0.1612219446870E-03 -0.4983133020745E-03
-0.3358195773713E-03 -0.1009493420287E-02
-0.5160714554712E-03 -0.1532176206300E-02
-0.6952589195623E-03 -0.2063543188857E-02
-0.8689319199070E-03 -0.2600360020688E-02
-0.1034863667144E-02 -0.3139855316373E-02
-0.1192392896541E-02 -0.3680072365938E-02
-0.1341745762581E-02 -0.4219828325644E-02
-0.1483559323215E-02 -0.4758518071822E-02
-0.1618608328121E-02 -0.5295913056239E-02
-0.1747672661254E-02 -0.5832005936505E-02
-0.1871488376511E-02 -0.6366895480209E-02
-0.1990753052776E-02 -0.6900716472648E-02
-0.2106163070691E-02 -0.7433573450557E-02
-0.2218474713815E-02 -0.7965448837999E-02
-0.2328620843923E-02 -0.8496230671003E-02
-0.2437820931451E-02 -0.9025584674757E-02
-0.2547729438674E-02 -0.9552962664981E-02
-0.2660554769599E-02 -0.1007760425024E-01
-0.2779174197352E-02 -0.1059877821389E-01
-0.2907290406891E-02 -0.1111683907375E-01
-0.3048945915315E-02 -0.1163261916474E-01
-0.3208268412084E-02 -0.1214670562008E-01
-0.3389541793552E-02 -0.1265930266282E-01
-0.3597376089891E-02 -0.1317031846492E-01
-0.3836879497832E-02 -0.1367948132567E-01
-0.4113801224088E-02 -0.1418643897113E-01
-0.4434641589285E-02 -0.1469086966228E-01
-0.4806709242023E-02 -0.1519260282066E-01
-0.5238133444619E-02 -0.1569180278518E-01
-0.5737903577215E-02 -0.1618881153778E-01
-0.6315972718911E-02 -0.1668383554108E-01
-0.6982913876768E-02 -0.1717792987986E-01
-0.7749252421592E-02 -0.1767365257858E-01
-0.8624188554347E-02 -0.1817576380264E-01
-0.9613391572014E-02 -0.1869187089864E-01
-0.1071569866494E-01 -0.1923256748647E-01
-0.1191910175760E-01 -0.1981039733978E-01
-0.1319717717189E-01 -0.2043697206936E-01
-0.1450861760644E-01 -0.2111862241298E-01
-0.1536208515814E-03 -0.4945214042547E-03
-0.3202869554440E-03 -0.1001244191173E-02
-0.4932389241808E-03 -0.1519061295972E-02
-0.6664088423298E-03 -0.2045593327218E-02
-0.8355295688498E-03 -0.2577979394420E-02
-0.9982357345786E-03 -0.3113621893748E-02
-0.1153605862397E-02 -0.3650552125769E-02
-0.1301610290446E-02 -0.4187464987400E-02
-0.1442683172044E-02 -0.4723589427488E-02
-0.1577455193804E-02 -0.5258524526561E-02
-0.1706612131728E-02 -0.5792098375249E-02
-0.1830835409178E-02 -0.6324255162961E-02
-0.1950799566612E-02 -0.6854982659283E-02
-0.2067204411324E-02 -0.7384243310986E-02
-0.2180832014150E-02 -0.7911882333627E-02
-0.2292657855961E-02 -0.8437658314566E-02
-0.2403950140770E-02 -0.8961122983828E-02
-0.2516401747209E-02 -0.9481637461251E-02
-0.2632231056978E-02 -0.9998378884144E-02
-0.2754280828301E-02 -0.1051057391918E-01
-0.2886157027581E-02 -0.1101850979718E-01
-0.3031793634799E-02 -0.1152293369140E-01
-0.3195238314669E-02 -0.1202435649832E-01
-0.3380729515108E-02 -0.1252293284464E-01
-0.3592852758936E-02 -0.1301855792584E-01
-0.3836689846879E-02 -0.1351098814564E-01
-0.4117935896477E-02 -0.1399994222997E-01
-0.4442982616910E-02 -0.1448521351943E-01
-0.4818945236856E-02 -0.1496679373881E-01
-0.5253635311404E-02 -0.1544506019622E-01
-0.5755541548981E-02 -0.1592065457652E-01
-0.6333835348049E-02 -0.1639423180351E-01
-0.6997901059979E-02 -0.1686738384331E-01
-0.7756547362297E-02 -0.1734320985673E-01
-0.8616672492704E-02 -0.1782684334745E-01
-0.9581191435865E-02 -0.1832581093775E-01
-0.1064623503626E-01 -0.1884982881688E-01
-0.1179812883079E-01 -0.1940956810051E-01
-0.1301116190177E-01 -0.2001404988770E-01
-0.1424815237409E-01 -0.2066727814234E-01
-0.1464559498374E-03 -0.4909706818447E-03
-0.3056727727885E-03 -0.9935358059418E-03
-0.4716851703920E-03 -0.1506782102158E-02
-0.6390047305366E-03 -0.2028682997809E-02
-0.8035781497176E-03 -0.2556703266486E-02
-0.9629726015373E-03 -0.3088423840686E-02
-0.1116069144042E-02 -0.3621898209388E-02
-0.1262621411234E-02 -0.4155737052206E-02
-0.1402879842270E-02 -0.4689032816948E-02
-0.1537338292989E-02 -0.5221231296818E-02
-0.1666589726827E-02 -0.5752007481563E-02
-0.1791259558075E-02 -0.6281158243813E-02
-0.1911996495871E-02 -0.6808530279719E-02
-0.2029499541793E-02 -0.7333950790093E-02
-0.2144570069469E-02 -0.7857137034009E-02
-0.2258216487094E-02 -0.8377730281288E-02
-0.2371742639050E-02 -0.8895182588931E-02
-0.2486864924762E-02 -0.9408779239916E-02
-0.2605798173929E-02 -0.9917648841471E-02
-0.2731341479985E-02 -0.1042098799389E-01
-0.2867000944511E-02 -0.1091902464996E-01
-0.3016599629638E-02 -0.1141242954309E-01
-0.3184097424876E-02 -0.1190165010898E-01
-0.3373671512647E-02 -0.1238680793092E-01
-0.3589859287184E-02 -0.1286780451648E-01
-0.3837686229416E-02 -0.1334444601570E-01
-0.4122758370869E-02 -0.1381654635498E-01
-0.4451318986492E-02 -0.1428404069719E-01
-0.4830244818331E-02 -0.1474711094272E-01
-0.5266979891809E-02 -0.1520637246281E-01
-0.5769461509772E-02 -0.1566278038092E-01
-0.6346041109561E-02 -0.1611742448699E-01
-0.7004920607091E-02 -0.1657237574736E-01
-0.7753294749969E-02 -0.1703115923186E-01
-0.8596029909000E-02 -0.1749911571487E-01
-0.9533788517768E-02 -0.1798352493415E-01
-0.1056072186240E-01 -0.1849316982929E-01
-0.1166227029668E-01 -0.1903703771311E-01
-0.1281388607382E-01 -0.1962202456214E-01
-0.1398214280919E-01 -0.2025033426864E-01
-0.1396773296299E-03 -0.4876125710411E-03
-0.2918725746038E-03 -0.9862637714308E-03
-0.4512826440521E-03 -0.1495187779810E-02
-0.6129330851735E-03 -0.2012642271381E-02
-0.7729985941068E-03 -0.2536372926993E-02
-0.9290319675350E-03 -0.3064134450237E-02
-0.1079770018176E-02 -0.3594024758892E-02
-0.1224786719945E-02 -0.4124600336101E-02
-0.1364169382385E-02 -0.4654843210746E-02
-0.1498284332016E-02 -0.5184064663701E-02
-0.1627634605718E-02 -0.5711799153533E-02
-0.1752789083310E-02 -0.6237705042591E-02
-0.1874368035152E-02 -0.6761495370647E-02
-0.1993065136120E-02 -0.7282870005634E-02
-0.2109694125387E-02 -0.7801427868514E-02
-0.2225286451862E-02 -0.8316704503498E-02
-0.2341168945155E-02 -0.8828065207199E-02
-0.2459067676625E-02 -0.9334732379602E-02
-0.2581181435059E-02 -0.9835798131053E-02
-0.2710256742807E-02 -0.1033043952256E-01
-0.2849695866395E-02 -0.1081883267558E-01
-0.3003207262575E-02 -0.1130158035623E-01
-0.3174654409244E-02 -0.1177907873618E-01
-0.3368137392415E-02 -0.1225143183122E-01
-0.3588122667534E-02 -0.1271856504087E-01
-0.3839550932633E-02 -0.1318035323175E-01
-0.4127906306267E-02 -0.1363672556702E-01
-0.4459247229959E-02 -0.1408777947071E-01
-0.4840172770053E-02 -0.1453390583222E-01
-0.5277719776148E-02 -0.1497597108261E-01
-0.5779240199764E-02 -0.1541524279557E-01
-0.6352252432487E-02 -0.1585321692950E-01
-0.7003814030980E-02 -0.1629237596058E-01
-0.7739638472658E-02 -0.1673656069919E-01
-0.8562837505738E-02 -0.1719118274338E-01
-0.9472273401386E-02 -0.1766316399593E-01
-0.1046070653032E-01 -0.1816035653250E-01
-0.1151325506335E-01 -0.1869026749998E-01
-0.1260678904882E-01 -0.1925806655137E-01
-0.1371127535537E-01 -0.1986454269413E-01
-0.1332440057580E-03 -0.4844089547110E-03
-0.2787994507675E-03 -0.9793455824501E-03
-0.4319212523144E-03 -0.1484157206806E-02
-0.5880904008835E-03 -0.1997331217784E-02
-0.7437129468581E-03 -0.2516853863317E-02
-0.8963662580452E-03 -0.3040643335806E-02
-0.1044687215803E-02 -0.3566855376324E-02
-0.1188104119120E-02 -0.4094015371427E-02
-0.1326562000976E-02 -0.4621017469023E-02
-0.1460310294229E-02 -0.5147056277000E-02
-0.1589766226830E-02 -0.5671538779353E-02
-0.1715442358087E-02 -0.6193994672880E-02
-0.1837928141701E-02 -0.6714011814680E-02
-0.1957907279023E-02 -0.7231171374209E-02
-0.2076198728707E-02 -0.7744963673422E-02
-0.2193847139858E-02 -0.8254829511262E-02
-0.2312190220117E-02 -0.8760059072641E-02
-0.2432950816662E-02 -0.9259823230148E-02
-0.2558300034145E-02 -0.9753188048962E-02
-0.2690923084923E-02 -0.1023932027273E-01
-0.2834113748428E-02 -0.1071835109791E-01
-0.2991461154650E-02 -0.1119082341325E-01
-0.3166723097037E-02 -0.1165709351283E-01
-0.3363906903444E-02 -0.1211726194571E-01
-0.3587386280351E-02 -0.1257129356153E-01
-0.3841990435208E-02 -0.1301914800298E-01
-0.4133051380893E-02 -0.1346088549761E-01
-0.4466410367128E-02 -0.1389678019585E-01
-0.4848356064978E-02 -0.1432744272040E-01
-0.5285488791393E-02 -0.1475399351413E-01
-0.5784556760938E-02 -0.1517800051178E-01
-0.6352253489681E-02 -0.1560132762826E-01
-0.6994553879000E-02 -0.1602679875278E-01
-0.7715839491063E-02 -0.1645847133816E-01
-0.8517736652413E-02 -0.1690172103343E-01
-0.9397703374593E-02 -0.1736304495235E-01
-0.1034757760955E-01 -0.1784940340512E-01
-0.1135255225936E-01 -0.1836702027991E-01
-0.1239103814158E-01 -0.1891968457697E-01
-0.1343609514150E-01 -0.1950708172111E-01
-0.1271217875187E-03 -0.4813296641797E-03
-0.2663802235497E-03 -0.9727156508303E-03
-0.4135054087630E-03 -0.1473592776995E-02
-0.5643824843735E-03 -0.1982634693509E-02
-0.7156454792873E-03 -0.2498032696005E-02
-0.8649243994053E-03 -0.3017855322841E-02
-0.1010792561978E-02 -0.3540323155196E-02
-0.1152563041624E-02 -0.4063947830191E-02
-0.1290058898903E-02 -0.4587554707428E-02
-0.1423424014340E-02 -0.5110238241191E-02
-0.1552994808415E-02 -0.5631291002626E-02
-0.1679228344612E-02 -0.6150124468359E-02
-0.1802681135854E-02 -0.6666210473930E-02
-0.1924022269702E-02 -0.7179020552103E-02
-0.2044068761938E-02 -0.7687946098625E-02
-0.2163868840922E-02 -0.8192343501832E-02
-0.2284759592754E-02 -0.8691438351526E-02
-0.2408448609118E-02 -0.9184359986729E-02
-0.2537068374233E-02 -0.9670157531248E-02
-0.2673234191940E-02 -0.1014799547389E-01
-0.2820126166888E-02 -0.1061796644799E-01
-0.2981208596219E-02 -0.1108056106229E-01
-0.3160123913095E-02 -0.1153610614719E-01
-0.3360771372746E-02 -0.1198471131840E-01
-0.3587411293913E-02 -0.1242639423001E-01
-0.3844736677088E-02 -0.1286121235640E-01
-0.4137900204842E-02 -0.1328936872577E-01
-0.4472497993509E-02 -0.1371132321205E-01
-0.4854482273460E-02 -0.1412790998694E-01
-0.5289997347651E-02 -0.1454049848396E-01
-0.5785183085299E-02 -0.1495093709662E-01
-0.6345933369068E-02 -0.1536141448998E-01
-0.6977218367804E-02 -0.1577502810661E-01
-0.7682243549221E-02 -0.1619596687771E-01
-0.8461401540108E-02 -0.1662949083885E-01
-0.9311085088591E-02 -0.1708163858909E-01
-0.1022257716410E-01 -0.1755853931966E-01
-0.1118142068766E-01 -0.1806531278292E-01
-0.1216759141513E-01 -0.1860464850831E-01
-0.1315700738671E-01 -0.1917545148710E-01
-0.1212817121735E-03 -0.4783506624443E-03
-0.2545525286957E-03 -0.9663215524579E-03
-0.3959515324878E-03 -0.1463415603259E-02
-0.5417235624448E-03 -0.1968458019706E-02
-0.6887232774261E-03 -0.2479814319348E-02
-0.8346531198244E-03 -0.2995689108072E-02
-0.9780523354732E-03 -0.3514370351519E-02
-0.1118145565401E-02 -0.4034368637056E-02
-0.1254653098518E-02 -0.4554456455166E-02
-0.1387624801068E-02 -0.5073643107551E-02
-0.1517321855536E-02 -0.5591119462186E-02
-0.1644147132834E-02 -0.6106189458696E-02
-0.1768622341462E-02 -0.6618218443964E-02
-0.1891397423695E-02 -0.7126577559297E-02
-0.2013280420480E-02 -0.7630568738606E-02
-0.2135313859484E-02 -0.8129473636454E-02
-0.2258823341148E-02 -0.8622462745114E-02
-0.2385489959196E-02 -0.9108632682640E-02
-0.2517397253274E-02 -0.9587023555693E-02
-0.2657082166422E-02 -0.1005680460204E-01
-0.2807605548079E-02 -0.1051803569327E-01
-0.2972300795266E-02 -0.1097116217785E-01
-0.3154685114506E-02 -0.1141649075651E-01
-0.3358534885513E-02 -0.1185415096915E-01
-0.3587977717460E-02 -0.1228422434851E-01
-0.3847547850883E-02 -0.1270687627879E-01
-0.4142194586485E-02 -0.1312246047757E-01
-0.4477245538660E-02 -0.1353162669192E-01
-0.4858297009960E-02 -0.1393543072339E-01
-0.5291026887067E-02 -0.1433547995713E-01
-0.5780973781466E-02 -0.1473387835609E-01
-0.6333270197394E-02 -0.1513309458910E-01
-0.6951969417460E-02 -0.1553643709522E-01
-0.7639255628570E-02 -0.1594815583393E-01
-0.8394516790046E-02 -0.1637333880725E-01
-0.9213366033868E-02 -0.1681755686670E-01
-0.1008681571853E-01 -0.1728617807537E-01
-0.1100094504559E-01 -0.1778338165769E-01
-0.1193726859525E-01 -0.1831095517895E-01
-0.1287424154695E-01 -0.1886734376655E-01
-0.1156978719306E-03 -0.4754414589017E-03
-0.2432662134683E-03 -0.9601023739857E-03
-0.3791991924780E-03 -0.1453539380025E-02
-0.5200625900226E-03 -0.1954701797314E-02
-0.6629210371736E-03 -0.2462103042548E-02
-0.8055617341060E-03 -0.2974069383130E-02
-0.9465123217335E-03 -0.3488955520517E-02
-0.1084931216579E-02 -0.4005279907060E-02
-0.1220452858315E-02 -0.4521775296865E-02
-0.1353043763004E-02 -0.5037379487049E-02
-0.1482895158475E-02 -0.5551194194484E-02
-0.1610356842541E-02 -0.6062427101397E-02
-0.1735913583085E-02 -0.6570347536521E-02
-0.1860191292551E-02 -0.7074236448929E-02
-0.1983981699905E-02 -0.7573316515996E-02
-0.2108312257751E-02 -0.8066804768404E-02
-0.2234486432671E-02 -0.8553826220240E-02
-0.2364148058099E-02 -0.9033453472853E-02
-0.2499321990915E-02 -0.9504725240233E-02
-0.2642458973278E-02 -0.9966822147417E-02
-0.2796495773166E-02 -0.1041977746849E-01
-0.2964629878516E-02 -0.1086399862809E-01
-0.3150245121858E-02 -0.1129978096582E-01
-0.3356982933304E-02 -0.1172728309356E-01
-0.3588822882933E-02 -0.1214665856874E-01
-0.3850123412567E-02 -0.1255818652269E-01
-0.4145613819238E-02 -0.1296237358230E-01
-0.4480339776442E-02 -0.1336005643223E-01
-0.4859535291589E-02 -0.1375250243432E-01
-0.5288418245240E-02 -0.1414153760000E-01
-0.5771953504697E-02 -0.1452948954935E-01
-0.6314573007470E-02 -0.1491905874503E-01
-0.6919521160214E-02 -0.1531370577333E-01
-0.7588125859927E-02 -0.1571768434115E-01
-0.8318990025646E-02 -0.1613587566482E-01
-0.9107195740050E-02 -0.1657339704132E-01
-0.9943706400359E-02 -0.1703493997017E-01
-0.1081524687260E-01 -0.1752389266251E-01
-0.1170480110878E-01 -0.1804133725161E-01
-0.1259299882723E-01 -0.1858526588115E-01
-0.1103499768703E-03 -0.4725992870819E-03
-0.2324710175538E-03 -0.9540457143456E-03
-0.3631694915139E-03 -0.1443938426948E-02
-0.4992994905752E-03 -0.1941328325587E-02
-0.6381253425879E-03 -0.2444854218106E-02
-0.7775281259204E-03 -0.2952950404568E-02
-0.9160427630202E-03 -0.3464035987639E-02
-0.1052781342939E-02 -0.3976643560574E-02
-0.1187308523108E-02 -0.4489476839984E-02
-0.1319518256466E-02 -0.5001413959404E-02
-0.1449537681499E-02 -0.5511478765378E-02
-0.1577665361965E-02 -0.6018792939297E-02
-0.1704347732099E-02 -0.6522539198943E-02
-0.1830182583753E-02 -0.7021917188416E-02
-0.1955938928346E-02 -0.7516078878900E-02
-0.2082620892527E-02 -0.8004184814620E-02
-0.2211500412817E-02 -0.8485322004571E-02
-0.2344174450880E-02 -0.8958545601204E-02
-0.2482600175928E-02 -0.9422898558205E-02
-0.2629134323754E-02 -0.9877577700225E-02
-0.2786583856467E-02 -0.1032259407158E-01
-0.2958004015320E-02 -0.1075832256631E-01
-0.3146635913621E-02 -0.1118505384565E-01
-0.3355973125264E-02 -0.1160298266820E-01
-0.3589831363551E-02 -0.1201234087619E-01
-0.3852375936959E-02 -0.1241352561402E-01
-0.4148099233865E-02 -0.1280719748398E-01
-0.4481751098064E-02 -0.1319437658982E-01
-0.4858195991782E-02 -0.1357653209006E-01
-0.5282196306341E-02 -0.1395569104269E-01
-0.5758166563445E-02 -0.1433437709075E-01
-0.6289890179146E-02 -0.1471548260240E-01
-0.6879893361101E-02 -0.1510257398762E-01
-0.7528782433669E-02 -0.1549986670334E-01
-0.8234548679416E-02 -0.1591201408759E-01
-0.8991932142561E-02 -0.1634369864888E-01
-0.9792006423425E-02 -0.1679900613732E-01
-0.1062221596293E-01 -0.1728065144264E-01
-0.1146692835385E-01 -0.1778913719004E-01
-0.1230880335684E-01 -0.1832211818495E-01
-0.1052187057516E-03 -0.4698115733883E-03
-0.2221253903158E-03 -0.9481241986146E-03
-0.3478037187123E-03 -0.1434570691786E-02
-0.4793682889799E-03 -0.1928285391104E-02
-0.6142725874475E-03 -0.2428013317831E-02
-0.7504972804620E-03 -0.2932284090035E-02
-0.8865994639454E-03 -0.3439577643367E-02
-0.1021661792078E-02 -0.3948444817328E-02
-0.1155193534124E-02 -0.4457568927174E-02
-0.1287026210922E-02 -0.4965778815807E-02
-0.1417228648034E-02 -0.5472030890519E-02
-0.1546050162099E-02 -0.5975370656402E-02
-0.1673897685229E-02 -0.6474903367358E-02
-0.1801337072200E-02 -0.6969755959228E-02
-0.1929108579673E-02 -0.7459017803459E-02
-0.2058185262383E-02 -0.7941800472647E-02
-0.2189798752230E-02 -0.8417159684316E-02
-0.2325490153743E-02 -0.8884138886352E-02
-0.2467140424078E-02 -0.9341790050392E-02
-0.2617004729806E-02 -0.9789330172872E-02
-0.2777754474104E-02 -0.1022675188110E-01
-0.2952296270402E-02 -0.1065440227349E-01
-0.3143719451512E-02 -0.1107257291800E-01
-0.3355357662119E-02 -0.1148150022673E-01
-0.3590848428176E-02 -0.1188149861820E-01
-0.3854148787396E-02 -0.1227308521397E-01
-0.4149500295767E-02 -0.1265707309972E-01
-0.4481346937340E-02 -0.1303465963690E-01
-0.4854181130396E-02 -0.1340750366730E-01
-0.5272319660873E-02 -0.1377781431070E-01
-0.5739655278560E-02 -0.1414828406387E-01
-0.6259378115477E-02 -0.1452196087039E-01
-0.6833384904649E-02 -0.1490247808877E-01
-0.7461684231693E-02 -0.1529398171024E-01
-0.8141806399369E-02 -0.1570088749184E-01
-0.8868303775523E-02 -0.1612746891369E-01
-0.9632480742531E-02 -0.1657727370181E-01
-0.1042253849390E-01 -0.1705244560818E-01
-0.1122416056748E-01 -0.1755300943501E-01
-0.1202176585667E-01 -0.1807639466228E-01
-0.1002867186090E-03 -0.4670681695106E-03
-0.2121921317005E-03 -0.9423156539023E-03
-0.3330486940440E-03 -0.1425401992939E-02
-0.4602078227899E-03 -0.1915530222605E-02
-0.5913018652309E-03 -0.2411535314116E-02
-0.7244142914235E-03 -0.2912030575617E-02
-0.8581360006325E-03 -0.3415552526958E-02
-0.9915344244481E-03 -0.3920672736622E-02
-0.1124076179358E-02 -0.4426061034065E-02
-0.1255539705985E-02 -0.4930505992613E-02
-0.1385941071309E-02 -0.5432906123791E-02
-0.1515482394674E-02 -0.5932240039545E-02
-0.1644530135278E-02 -0.6427544297827E-02
-0.1773614683654E-02 -0.6917881342733E-02
-0.1903441901502E-02 -0.7402285569114E-02
-0.2034946544703E-02 -0.7879826483351E-02
-0.2169311773595E-02 -0.8349534516674E-02
-0.2308014447715E-02 -0.8810446396945E-02
-0.2452851260297E-02 -0.9261627094705E-02
-0.2605968530452E-02 -0.9702316950427E-02
-0.2769896413649E-02 -0.1013249343254E-01
-0.2947386589922E-02 -0.1055247991454E-01
-0.3141367938882E-02 -0.1096257338486E-01
-0.3355002997788E-02 -0.1136305592389E-01
-0.3591738266676E-02 -0.1175432699388E-01
-0.3855309506526E-02 -0.1213702360252E-01
-0.4149696322731E-02 -0.1251210766524E-01
-0.4479030301614E-02 -0.1288094558753E-01
-0.4847433390808E-02 -0.1324537222496E-01
-0.5258790901299E-02 -0.1360775929986E-01
-0.5716505915291E-02 -0.1397094235447E-01
-0.6223231654570E-02 -0.1433809264002E-01
-0.6780320209221E-02 -0.1471287867184E-01
-0.7387294602126E-02 -0.1509935492801E-01
-0.8041353673437E-02 -0.1550169855153E-01
-0.8736987518421E-02 -0.1592380379584E-01
-0.9465819895868E-02 -0.1636874418353E-01
-0.1021682686309E-01 -0.1683817901677E-01
-0.1097692134537E-01 -0.1733175093853E-01
-0.1173207880137E-01 -0.1784671333695E-01
-0.9553824472854E-04 -0.4643608563797E-03
-0.2026375463365E-03 -0.9366021096395E-03
-0.3188557910621E-03 -0.1416404533178E-02
-0.4417610386422E-03 -0.1903027832670E-02
-0.5691547232303E-03 -0.2395383156837E-02
-0.6992245377698E-03 -0.2892157029496E-02
-0.8306041679498E-03 -0.3391938008764E-02
-0.9623576807023E-03 -0.3893319687072E-02
-0.1093920185609E-02 -0.4394963907620E-02
-0.1225025550634E-02 -0.4895626775901E-02
-0.1355642321484E-02 -0.5394157564453E-02
-0.1485927464312E-02 -0.5889476665713E-02
-0.1616206165154E-02 -0.6380560246385E-02
-0.1746970116969E-02 -0.6866414030876E-02
-0.1878885558013E-02 -0.7346024551573E-02
-0.2012842241359E-02 -0.7818425559358E-02
-0.2149967281495E-02 -0.8282627538937E-02
-0.2291665481349E-02 -0.8737664775239E-02
-0.2439641690418E-02 -0.9182618470060E-02
-0.2595926426935E-02 -0.9616754719589E-02
-0.2762903054081E-02 -0.1004003854384E-01
-0.2943162187403E-02 -0.1045277300525E-01
-0.3139464051423E-02 -0.1085526399896E-01
-0.3354789829777E-02 -0.1124784189288E-01
-0.3592383625290E-02 -0.1163099200046E-01
-0.3855748941571E-02 -0.1200546932664E-01
-0.4148594894026E-02 -0.1237237918391E-01
-0.4474737209353E-02 -0.1273324728662E-01
-0.4837932314051E-02 -0.1309006994324E-01
-0.5241651367495E-02 -0.1344536225954E-01
-0.5688841999377E-02 -0.1380207896506E-01
-0.6181676414991E-02 -0.1416348658548E-01
-0.6721041715450E-02 -0.1453326348434E-01
-0.7306075741494E-02 -0.1491535820322E-01
-0.7933756347872E-02 -0.1531371462216E-01
-0.8598612219966E-02 -0.1573187968768E-01
-0.9292651204410E-02 -0.1617251122630E-01
-0.1000562481544E-01 -0.1663686071641E-01
-0.1072559141019E-01 -0.1712426347780E-01
-0.1143991513183E-01 -0.1763183986173E-01
-0.9095875933647E-04 -0.4616829624862E-03
-0.1934307682380E-03 -0.9309689837365E-03
-0.3051801380884E-03 -0.1407555698934E-02
-0.4239743799821E-03 -0.1890749631000E-02
-0.5477749127105E-03 -0.2379526452272E-02
-0.6748737956845E-03 -0.2872636569970E-02
-0.8039543493598E-03 -0.3368715999732E-02
-0.9340870895593E-03 -0.3866380803670E-02
-0.1064685278727E-02 -0.4364289186442E-02
-0.1195445854055E-02 -0.4861171505086E-02
-0.1326294697633E-02 -0.5355835591455E-02
-0.1457345607808E-02 -0.5847151647521E-02
-0.1588881842156E-02 -0.6334043235678E-02
-0.1721353453783E-02 -0.6815466645646E-02
-0.1855382245366E-02 -0.7290367138592E-02
-0.1991806783305E-02 -0.7757748442455E-02
-0.2131691139721E-02 -0.8216605807489E-02
-0.2276360809893E-02 -0.8665974690294E-02
-0.2427421695853E-02 -0.9104955051791E-02
-0.2586781923104E-02 -0.9532840434763E-02
-0.2756672729732E-02 -0.9949585587137E-02
-0.2939517790837E-02 -0.1035547603573E-01
-0.3137901006604E-02 -0.1075082909799E-01
-0.3354612908536E-02 -0.1113602476291E-01
-0.3592685248140E-02 -0.1151163351651E-01
-0.3855380178820E-02 -0.1187852492954E-01
-0.4146130104179E-02 -0.1223794085579E-01
-0.4468434065451E-02 -0.1259155552430E-01
-0.4825690612425E-02 -0.1294151178222E-01
-0.5220976311724E-02 -0.1329044966254E-01
-0.5656818473886E-02 -0.1364142152075E-01
-0.6134962477234E-02 -0.1399776529519E-01
-0.6655904126463E-02 -0.1436314966007E-01
-0.7218485015878E-02 -0.1474140899657E-01
-0.7819555533331E-02 -0.1513626387622E-01
-0.8453763591667E-02 -0.1555094634123E-01
-0.9113546873070E-02 -0.1598775202703E-01
-0.9789421985616E-02 -0.1644759018357E-01
-0.1047051356725E-01 -0.1692954946424E-01
-0.1114543614388E-01 -0.1743065108227E-01
-0.8653472940581E-04 -0.4590290628581E-03
-0.1845432193682E-03 -0.9254044289419E-03
-0.2919799588420E-03 -0.1398837084184E-02
-0.4067972509932E-03 -0.1878672268874E-02
-0.5271081321673E-03 -0.2363940321601E-02
-0.6513082826191E-03 -0.2853447286689E-02
-0.7781357927424E-03 -0.3345872194377E-02
-0.9066756818678E-03 -0.3839853433172E-02
-0.1036327661391E-02 -0.4334048989465E-02
-0.1166758524996E-02 -0.4827169242430E-02
-0.1297855933200E-02 -0.5317987569463E-02
-0.1429692404614E-02 -0.5805331357065E-02
-0.1562508735388E-02 -0.6288078802142E-02
-0.1696710680301E-02 -0.6765143533180E-02
-0.1832871208477E-02 -0.7235435604481E-02
-0.1971772028652E-02 -0.7697933893919E-02
-0.2114407737593E-02 -0.8151622535941E-02
-0.2262017820907E-02 -0.8595541151242E-02
-0.2416102611680E-02 -0.9028810324973E-02
-0.2578441644385E-02 -0.9450752057456E-02
-0.2751108966491E-02 -0.9861312485933E-02
-0.2936355755338E-02 -0.1026076176559E-01
-0.3136582492895E-02 -0.1064943024744E-01
-0.3354380703297E-02 -0.1102774770677E-01
-0.3592561177722E-02 -0.1139636781366E-01
-0.3854137352423E-02 -0.1175626997551E-01
-0.4142260731624E-02 -0.1210882463048E-01
-0.4460115034958E-02 -0.1245584306106E-01
-0.4810750627664E-02 -0.1279959980693E-01
-0.5196870428401E-02 -0.1314284249560E-01
-0.5620616501956E-02 -0.1348870200523E-01
-0.6083358987980E-02 -0.1384056777897E-01
-0.6585269731066E-02 -0.1420208428579E-01
-0.7124972190920E-02 -0.1457696847932E-01
-0.7699267956314E-02 -0.1496873072195E-01
-0.8302988113421E-02 -0.1538032006722E-01
-0.8929031456500E-02 -0.1581371819899E-01
-0.9568662459617E-02 -0.1626954798789E-01
-0.1021199944946E-01 -0.1674670041743E-01
-0.1084879088540E-01 -0.1724212493129E-01
-0.8225341298986E-04 -0.4563947341324E-03
-0.1759481767268E-03 -0.9198987984277E-03
-0.2792160340004E-03 -0.1390233684217E-02
-0.3901815634024E-03 -0.1866776666095E-02
-0.5071017959298E-03 -0.2348604411757E-02
-0.6284746823771E-03 -0.2834571362262E-02
-0.7530968490120E-03 -0.3323395365194E-02
-0.8800743708869E-03 -0.3813736600379E-02
-0.1008800471012E-02 -0.4304255516447E-02
-0.1138917765774E-02 -0.4793647462185E-02
-0.1270279705623E-02 -0.5280657592384E-02
-0.1402919294118E-02 -0.5764077209108E-02
-0.1537034436287E-02 -0.6242745823839E-02
-0.1672984204177E-02 -0.6715540656446E-02
-0.1811288742913E-02 -0.7181342096532E-02
-0.1952667735559E-02 -0.7639108806033E-02
-0.2098040420761E-02 -0.8087817361447E-02
-0.2248554112728E-02 -0.8526513955645E-02
-0.2405597443189E-02 -0.8954341041228E-02
-0.2570815577704E-02 -0.9370649449412E-02
-0.2746120619517E-02 -0.9775377877280E-02
-0.2933586058139E-02 -0.1016878269468E-01
-0.3135422465097E-02 -0.1055120806514E-01
-0.3354014924197E-02 -0.1092313266722E-01
-0.3591945913553E-02 -0.1128529022870E-01
-0.3851974333674E-02 -0.1163876419432E-01
-0.4136968343676E-02 -0.1198504481115E-01
-0.4449799459086E-02 -0.1232606860868E-01
-0.4793181003378E-02 -0.1266422735693E-01
-0.5169463842627E-02 -0.1300236029541E-01
-0.5580439027534E-02 -0.1334366020282E-01
-0.6027149822271E-02 -0.1369155176066E-01
-0.6509504978880E-02 -0.1404964500807E-01
-0.7025977906533E-02 -0.1442154008776E-01
-0.7573387180710E-02 -0.1481055228793E-01
-0.8146797376026E-02 -0.1521937838621E-01
-0.8739588775632E-02 -0.1564972920067E-01
-0.9343752602000E-02 -0.1610198854662E-01
-0.9950335078470E-02 -0.1657488948252E-01
-0.1055011889003E-01 -0.1706533167399E-01
-0.7810270069271E-04 -0.4537763552001E-03
-0.1676204251864E-03 -0.9144442089057E-03
-0.2668512594925E-03 -0.1381733229556E-02
-0.3740813508778E-03 -0.1855047192195E-02
-0.4877048219484E-03 -0.2333502040892E-02
-0.6063201470453E-03 -0.2815994288048E-02
-0.7287851638540E-03 -0.3301276708781E-02
-0.8542322795509E-03 -0.3788030494702E-02
-0.9820541885432E-03 -0.4274920652531E-02
-0.1111874523515E-02 -0.4760631740258E-02
-0.1243516107025E-02 -0.5243886231472E-02
-0.1376974053441E-02 -0.5723445455327E-02
-0.1512403035103E-02 -0.6198116364153E-02
-0.1650113320315E-02 -0.6666745504213E-02
-0.1790568638068E-02 -0.7128188632583E-02
-0.1934421969492E-02 -0.7581388314161E-02
-0.2082511850258E-02 -0.8025316596748E-02
-0.2235887794937E-02 -0.8459028105964E-02
-0.2395821096969E-02 -0.8881687824088E-02
-0.2563817217120E-02 -0.9292675192771E-02
-0.2741621907423E-02 -0.9691922176526E-02
-0.2931126182126E-02 -0.1007967240691E-01
-0.3134344823769E-02 -0.1045628388164E-01
-0.3353449930404E-02 -0.1082228237043E-01
-0.3590789469507E-02 -0.1117847755787E-01
-0.3848863349298E-02 -0.1152605026254E-01
-0.4130255388090E-02 -0.1186660118819E-01
-0.4437529353471E-02 -0.1220218021550E-01
-0.4773073581352E-02 -0.1253528249093E-01
-0.5138908506888E-02 -0.1286882435327E-01
-0.5536506947093E-02 -0.1320604626545E-01
-0.5966630021944E-02 -0.1355039516005E-01
-0.6428977878628E-02 -0.1390544003052E-01
-0.6921932804992E-02 -0.1427466781207E-01
-0.7442385073661E-02 -0.1466121503941E-01
-0.7985672023536E-02 -0.1506755527909E-01
-0.8545667728146E-02 -0.1549516670562E-01
-0.9115067183054E-02 -0.1594423410316E-01
-0.9685785250477E-02 -0.1641336492217E-01
-0.1024955252181E-01 -0.1689942648312E-01
-0.7407099053538E-04 -0.4511709428588E-03
-0.1595359797331E-03 -0.9090341798678E-03
-0.2548502864392E-03 -0.1373325631493E-02
-0.3584524463273E-03 -0.1843470974363E-02
-0.4688674466578E-03 -0.2318619460107E-02
-0.5847922922676E-03 -0.2797704168216E-02
-0.7051478422723E-03 -0.3279509248553E-02
-0.8290970339984E-03 -0.3762735988852E-02
-0.9560370158851E-03 -0.4246055592064E-02
-0.1085576915143E-02 -0.4728145460998E-02
-0.1217512092322E-02 -0.5207710305433E-02
-0.1351801252911E-02 -0.5683487008362E-02
-0.1488555571818E-02 -0.6154255552607E-02
-0.1628034645422E-02 -0.6618837041707E-02
-0.1770642582307E-02 -0.7076067141053E-02
-0.1916961465478E-02 -0.7524875948457E-02
-0.2067744309372E-02 -0.7964233516336E-02
-0.2223937728616E-02 -0.8393204252878E-02
-0.2386690542286E-02 -0.8810975792739E-02
-0.2557363629051E-02 -0.9216955418747E-02
-0.2737532355385E-02 -0.9611068638346E-02
-0.2928900899651E-02 -0.9993546894155E-02
-0.3133282990863E-02 -0.1036476135829E-01
-0.3352632038282E-02 -0.1072528226521E-01
-0.3589056347576E-02 -0.1107599033227E-01
-0.3844793551657E-02 -0.1141815640641E-01
-0.4122143299344E-02 -0.1175348191987E-01
-0.4423367019436E-02 -0.1208411831476E-01
-0.4750540548481E-02 -0.1241265101487E-01
-0.5105375018778E-02 -0.1274206045154E-01
-0.5489055880462E-02 -0.1307562281924E-01
-0.5902102971339E-02 -0.1341679721334E-01
-0.6344056165407E-02 -0.1376910795785E-01
-0.6813257292886E-02 -0.1413593463281E-01
-0.7306713580521E-02 -0.1452025189550E-01
-0.7820065536051E-02 -0.1492433728149E-01
-0.8347687447996E-02 -0.1534947008446E-01
-0.8882954632606E-02 -0.1579566988751E-01
-0.9418597464593E-02 -0.1626144480240E-01
-0.9947219329284E-02 -0.1674364328926E-01
-0.7014708952600E-04 -0.4485760159394E-03
-0.1516718634309E-03 -0.9036633347442E-03
-0.2431792278955E-03 -0.1365002519313E-02
-0.3432522124944E-03 -0.1832037311727E-02
-0.4505410643661E-03 -0.2303945216108E-02
-0.5638391876230E-03 -0.2779691104062E-02
-0.6821315878433E-03 -0.3258087291896E-02
-0.8046150223759E-03 -0.3737854189861E-02
-0.9306952169486E-03 -0.4217670480727E-02
-0.1059970617677E-02 -0.4696209536254E-02
-0.1192211894004E-02 -0.5172162662293E-02
-0.1327342677477E-02 -0.5644247279351E-02
-0.1465430449930E-02 -0.6111221480255E-02
-0.1606682510759E-02 -0.6571885674306E-02
-0.1751440521004E-02 -0.7025059508917E-02
-0.1900211937890E-02 -0.7469663784882E-02
-0.2053659952665E-02 -0.7904668630259E-02
-0.2212623702798E-02 -0.8329149112235E-02
-0.2378124901801E-02 -0.8742315143251E-02
-0.2551375439468E-02 -0.9143600575221E-02
-0.2733776653468E-02 -0.9532924334800E-02
-0.2926841967197E-02 -0.9910505770572E-02
-0.3132179396541E-02 -0.1027672796235E-01
-0.3351518748705E-02 -0.1063220227739E-01
-0.3586724450382E-02 -0.1097787485609E-01
-0.3839769564142E-02 -0.1131509870328E-01
-0.4112670639291E-02 -0.1164566603768E-01
-0.4407392776209E-02 -0.1197181832077E-01
-0.4725711818543E-02 -0.1229621899149E-01
-0.5069049804483E-02 -0.1262190104602E-01
-0.5438333430325E-02 -0.1295216653686E-01
-0.5833878134541E-02 -0.1329047915628E-01
-0.6255106000599E-02 -0.1364031738339E-01
-0.6700361662667E-02 -0.1400496094918E-01
-0.7166806535013E-02 -0.1438723961369E-01
-0.7650407620947E-02 -0.1478926009503E-01
-0.8146041671091E-02 -0.1521213256256E-01
-0.8647741338696E-02 -0.1565573999074E-01
-0.9149005130824E-02 -0.1611851242851E-01
-0.9643243832965E-02 -0.1659728953045E-01
-0.6632013671094E-04 -0.4459894823205E-03
-0.1440059305640E-03 -0.8983271520452E-03
-0.2318054210631E-03 -0.1356756852459E-02
-0.3284393189628E-03 -0.1820737178438E-02
-0.4326780907905E-03 -0.2289469600935E-02
-0.5434093467271E-03 -0.2761946650879E-02
-0.6596828232798E-03 -0.3237005939818E-02
-0.7807316250109E-03 -0.3713386024126E-02
-0.9059734268045E-03 -0.4189774078720E-02
-0.1034999226618E-02 -0.4664842138692E-02
-0.1167557405385E-02 -0.5137271973176E-02
-0.1303537715698E-02 -0.5605766027029E-02
-0.1442963815283E-02 -0.6069065105910E-02
-0.1585989316144E-02 -0.6525953219300E-02
-0.1732890971454E-02 -0.6975237632122E-02
-0.1884098342572E-02 -0.7415832590073E-02
-0.2040181002518E-02 -0.7846709940630E-02
-0.2201866553037E-02 -0.8266955851318E-02
-0.2370045478279E-02 -0.8675801683617E-02
-0.2545776750719E-02 -0.9072706130169E-02
-0.2730284439104E-02 -0.9457581048045E-02
-0.2924887741311E-02 -0.9830633375997E-02
-0.3130984889127E-02 -0.1019225630005E-01
-0.3350077906905E-02 -0.1054309838370E-01
-0.3583783946669E-02 -0.1088416501750E-01
-0.3833810015298E-02 -0.1121688310130E-01
-0.4101891281815E-02 -0.1154312561050E-01
-0.4389702814338E-02 -0.1186521282656E-01
-0.4698732631637E-02 -0.1218587480820E-01
-0.5030132624329E-02 -0.1250818699455E-01
-0.5384596852664E-02 -0.1283546929335E-01
-0.5762269241782E-02 -0.1317118459129E-01
-0.6162491069162E-02 -0.1351876632528E-01
-0.6583646442046E-02 -0.1388140306600E-01
-0.7023081413338E-02 -0.1426179645286E-01
-0.7477107201717E-02 -0.1466190566115E-01
-0.7941102400871E-02 -0.1508269794756E-01
-0.8409735145961E-02 -0.1552394384552E-01
-0.8877230114900E-02 -0.1598401245528E-01
-0.9337748740413E-02 -0.1645974171031E-01
-0.6257954368013E-04 -0.4434095442328E-03
-0.1365167270484E-03 -0.8930217569019E-03
-0.2206972368091E-03 -0.1348582594296E-02
-0.3139735615067E-03 -0.1809562801767E-02
-0.4152318528996E-03 -0.2275184178308E-02
-0.5234517247845E-03 -0.2744463342632E-02
-0.6377478034773E-03 -0.3216260650436E-02
-0.7573914285310E-03 -0.3689331862750E-02
-0.8818149417151E-03 -0.4162373454720E-02
-0.1010604595123E-02 -0.4634058461235E-02
-0.1143488545072E-02 -0.5103062551482E-02
-0.1280323729442E-02 -0.5568077233540E-02
-0.1421089913597E-02 -0.6027830190600E-02
-0.1565885859336E-02 -0.6481092906208E-02
-0.1714921308914E-02 -0.6926663492975E-02
-0.1868545105167E-02 -0.7363451989578E-02
-0.2027229906258E-02 -0.7790433216042E-02
-0.2191588234100E-02 -0.8206704485925E-02
-0.2362375728196E-02 -0.8611517370795E-02
-0.2540494997998E-02 -0.9004353266319E-02
-0.2726990013273E-02 -0.9385116140842E-02
-0.2922982725375E-02 -0.9753999840234E-02
-0.3129658078463E-02 -0.1011140538899E-01
-0.3348286806605E-02 -0.1045801409825E-01
-0.3580236103710E-02 -0.1079488397988E-01
-0.3826946078070E-02 -0.1112350728240E-01
-0.4089872659763E-02 -0.1144582771383E-01
-0.4370407188696E-02 -0.1176423357383E-01
-0.4669761387123E-02 -0.1208151100067E-01
-0.4988834411160E-02 -0.1240076905423E-01
-0.5328111144334E-02 -0.1272533914615E-01
-0.5687592933809E-02 -0.1305867978507E-01
-0.6066572103176E-02 -0.1340418174636E-01
-0.6463503048365E-02 -0.1376495194657E-01
-0.6875941192642E-02 -0.1414358028266E-01
-0.7300555280763E-02 -0.1454189982433E-01
-0.7733223277013E-02 -0.1496075802938E-01
-0.8169228540609E-02 -0.1539983342553E-01
-0.8603485105885E-02 -0.1585744779411E-01
-0.9030856118633E-02 -0.1633044187368E-01
-0.5891494926023E-04 -0.4408346191013E-03
-0.1291833809900E-03 -0.8877437466889E-03
-0.2098239276836E-03 -0.1340474437998E-02
-0.2998157162164E-03 -0.1798507304411E-02
-0.3981565002565E-03 -0.2261081376779E-02
-0.5039157210695E-03 -0.2727234277117E-02
-0.6162727191938E-03 -0.3195846851371E-02
-0.7345384211670E-03 -0.3665691183327E-02
-0.8581619854858E-03 -0.4135473705980E-02
-0.9867271474861E-03 -0.4603870495603E-02
-0.1119943594778E-02 -0.5069554186825E-02
-0.1257636395676E-02 -0.5531208992004E-02
-0.1399741418096E-02 -0.5987553240607E-02
-0.1546301632790E-02 -0.6437349381157E-02
-0.1697458016811E-02 -0.6879389235058E-02
-0.1853476310054E-02 -0.7312580624843E-02
-0.2014729449962E-02 -0.7735902243762E-02
-0.2181711844896E-02 -0.8148462242094E-02
-0.2355041182859E-02 -0.8549530797066E-02
-0.2535460748955E-02 -0.8938609507244E-02
-0.2723831996855E-02 -0.9315593337633E-02
-0.2921077056563E-02 -0.9680662033343E-02
-0.3128164624370E-02 -0.1003422178784E-01
-0.3346131251359E-02 -0.1037698178297E-01
-0.3576092098902E-02 -0.1071004565952E-01
-0.3819220022699E-02 -0.1103496227212E-01
-0.4076694074319E-02 -0.1135373610770E-01
-0.4349627936445E-02 -0.1166881310168E-01
-0.4638967672796E-02 -0.1198302574251E-01
-0.4945375373610E-02 -0.1229950905971E-01
-0.5269147443137E-02 -0.1262160104854E-01
-0.5610167721909E-02 -0.1295275379265E-01
-0.5967706657931E-02 -0.1329631902854E-01
-0.6340314556584E-02 -0.1365533206538E-01
-0.6725776122267E-02 -0.1403228692934E-01
-0.7121127496811E-02 -0.1442891033397E-01
-0.7522742472648E-02 -0.1484595037725E-01
-0.7926501310359E-02 -0.1528301087986E-01
-0.8327975508979E-02 -0.1573837701769E-01
-0.8722688162073E-02 -0.1620889467254E-01
-0.5531618578543E-04 -0.4382632733146E-03
-0.1219855179698E-03 -0.8824900450851E-03
-0.1991555080732E-03 -0.1332427576317E-02
-0.2859274236461E-03 -0.1787564401772E-02
-0.3814069362699E-03 -0.2247154141570E-02
-0.4847511878874E-03 -0.2710252756088E-02
-0.5952037949840E-03 -0.3175759598539E-02
-0.7121161736695E-03 -0.3642462268089E-02
-0.8349559565143E-03 -0.4109077705882E-02
-0.9633061709731E-03 -0.4574286831621E-02
-0.1096859514201E-02 -0.5036761995087E-02
-0.1235410024109E-02 -0.5495183406614E-02
-0.1378849731262E-02 -0.5948263459338E-02
-0.1527165092258E-02 -0.6394758715325E-02
-0.1680426906036E-02 -0.6833457235787E-02
-0.1838815855240E-02 -0.7263266299507E-02
-0.2002602834634E-02 -0.7683169060941E-02
-0.2172161611783E-02 -0.8092283884573E-02
-0.2347969323676E-02 -0.8489897628724E-02
-0.2530607453688E-02 -0.8875529279103E-02
-0.2720752935125E-02 -0.9249063421889E-02
-0.2919125941595E-02 -0.9610664409735E-02
-0.3126476479196E-02 -0.9960740593968E-02
-0.3343604582015E-02 -0.1030002379697E-01
-0.3571371818429E-02 -0.1062965601112E-01
-0.3810683788622E-02 -0.1095123382576E-01
-0.4062445067223E-02 -0.1126681266343E-01
-0.4327497312309E-02 -0.1157888612627E-01
-0.4606530471183E-02 -0.1189032406556E-01
-0.4899983331229E-02 -0.1220428085753E-01
-0.5207981693731E-02 -0.1252409737542E-01
-0.5530313208430E-02 -0.1285321848240E-01
-0.5866249088390E-02 -0.1319496146130E-01
-0.6214456548451E-02 -0.1355230039689E-01
-0.6572965413217E-02 -0.1392764876728E-01
-0.6939186431830E-02 -0.1432264517158E-01
-0.7309985218637E-02 -0.1473795650922E-01
-0.7681822794193E-02 -0.1517312657591E-01
-0.8050900967203E-02 -0.1562641222756E-01
-0.8413367661034E-02 -0.1609466497264E-01
-0.5177325488495E-04 -0.4356941668446E-03
-0.1149031969188E-03 -0.8772577802219E-03
-0.1886626618293E-03 -0.1324437509025E-02
-0.2722710999465E-03 -0.1776728147468E-02
-0.3649387694025E-03 -0.2233395639555E-02
-0.4659084493801E-03 -0.2693511977428E-02
-0.5744873873731E-03 -0.3155993281609E-02
-0.6900680134599E-03 -0.3619641941661E-02
-0.8121376639935E-03 -0.4083185884521E-02
-0.9402800948316E-03 -0.4545312484597E-02
-0.1074172242117E-02 -0.5004696293174E-02
-0.1213577860098E-02 -0.5460016515014E-02
-0.1358345270452E-02 -0.5909982719107E-02
-0.1508403907198E-02 -0.6353348430202E-02
-0.1663753313388E-02 -0.6788900191412E-02
-0.1824487583106E-02 -0.7215546132249E-02
-0.1990773724368E-02 -0.7632274184846E-02
-0.2162862839441E-02 -0.8038212035029E-02
-0.2341089420426E-02 -0.8432661023385E-02
-0.2525871153735E-02 -0.8815154437861E-02
-0.2717698858888E-02 -0.9185564883551E-02
-0.2917089049848E-02 -0.9544039784537E-02
-0.3124571093273E-02 -0.9890986353112E-02
-0.3340706679409E-02 -0.1022715353578E-01
-0.3566102652374E-02 -0.1055371418014E-01
-0.3801397584627E-02 -0.1087230366041E-01
-0.4047223864398E-02 -0.1118501862058E-01
-0.4304156148231E-02 -0.1149439074603E-01
-0.4572636548185E-02 -0.1180331891785E-01
-0.4852892285891E-02 -0.1211497111272E-01
-0.5144893586966E-02 -0.1243268838256E-01
-0.5448349586824E-02 -0.1275990858030E-01
-0.5762550769396E-02 -0.1309991985198E-01
-0.6086298127017E-02 -0.1345564563125E-01
-0.6417878986692E-02 -0.1382943362878E-01
-0.6755083873787E-02 -0.1422285126200E-01
-0.7095266221611E-02 -0.1463650048760E-01
-0.7435454030085E-02 -0.1506987760327E-01
-0.7772456845412E-02 -0.1552121743089E-01
-0.8103018529755E-02 -0.1598737603639E-01
-0.4827631091449E-04 -0.4331260075047E-03
-0.1079168620958E-03 -0.8720441837705E-03
-0.1783166708759E-03 -0.1316499882709E-02
-0.2588098676642E-03 -0.1765992719993E-02
-0.3487082770481E-03 -0.2219799009279E-02
-0.4473383229747E-03 -0.2677004770774E-02
-0.5540700755950E-03 -0.3136541366977E-02
-0.6683371831550E-03 -0.3597225338009E-02
-0.7896475427724E-03 -0.4057796029601E-02
-0.9175867443364E-03 -0.4516948734524E-02
-0.1051816970184E-02 -0.4973362477738E-02
-0.1192072358600E-02 -0.5425718206946E-02
-0.1338157723110E-02 -0.5872725520992E-02
-0.1489945179418E-02 -0.6313137501537E-02
-0.1647362266896E-02 -0.6745741169676E-02
-0.1810415376720E-02 -0.7169446664308E-02
-0.1979166258677E-02 -0.7583246782657E-02
-0.2153741824482E-02 -0.7986277412527E-02
-0.2334332330946E-02 -0.8377851949973E-02
-0.2521190151751E-02 -0.8757514677253E-02
-0.2714618806813E-02 -0.9125124422831E-02
-0.2914929870290E-02 -0.9480809939391E-02
-0.3122430589965E-02 -0.9824973769318E-02
-0.3337442946764E-02 -0.1015837624031E-01
-0.3560318284995E-02 -0.1048221339482E-01
-0.3791428505572E-02 -0.1079815039912E-01
-0.4031135862900E-02 -0.1110831553555E-01
-0.4279752286023E-02 -0.1141526932929E-01
-0.4537478941925E-02 -0.1172193191153E-01
-0.4804341109638E-02 -0.1203147983388E-01
-0.5080165609749E-02 -0.1234725243479E-01
-0.5364597212736E-02 -0.1267268155308E-01
-0.5656960306260E-02 -0.1301103205641E-01
-0.5956202800901E-02 -0.1336518739065E-01
-0.6260878945435E-02 -0.1373744378092E-01
-0.6569162654339E-02 -0.1412931329635E-01
-0.6878891537152E-02 -0.1454134765230E-01
-0.7187649284718E-02 -0.1497300643682E-01
-0.7492835067135E-02 -0.1542250710778E-01
-0.7791765689399E-02 -0.1588670794276E-01
-0.4481565071345E-04 -0.4305575132431E-03
-0.1010073089266E-03 -0.8668465079785E-03
-0.1680893629029E-03 -0.1308610359078E-02
-0.2455075063779E-03 -0.1755352246892E-02
-0.3326723856552E-03 -0.2206357154023E-02
-0.4289921510111E-03 -0.2660723377538E-02
-0.5338987561967E-03 -0.3117396183030E-02
-0.6468669979355E-03 -0.3575205705612E-02
-0.7674258638191E-03 -0.4032903120966E-02
-0.8951635886717E-03 -0.4489192994830E-02
-0.1029728409659E-02 -0.4942760930076E-02
-0.1170825450300E-02 -0.5392292166199E-02
-0.1318216293214E-02 -0.5836498975068E-02
-0.1471715651541E-02 -0.6274136380201E-02
-0.1631178639043E-02 -0.6703993674956E-02
-0.1796523241510E-02 -0.7124983973820E-02
-0.1967705047106E-02 -0.7536104841028E-02
-0.2144725747826E-02 -0.7936499065159E-02
-0.2327630275997E-02 -0.8325489489601E-02
-0.2516504653344E-02 -0.8702627905741E-02
-0.2711464318376E-02 -0.9067757409447E-02
-0.2912615040044E-02 -0.9420986168624E-02
-0.3120040917299E-02 -0.9762708339124E-02
-0.3333823278978E-02 -0.1009368971388E-01
-0.3554057489002E-02 -0.1041514175145E-01
-0.3780849178041E-02 -0.1072875039817E-01
-0.4014292179670E-02 -0.1103666611040E-01
-0.4254439110976E-02 -0.1134146929109E-01
-0.4501255594195E-02 -0.1164609398436E-01
-0.4754572412889E-02 -0.1195372085410E-01
-0.5014082301105E-02 -0.1226768625060E-01
-0.5279376387095E-02 -0.1259141758278E-01
-0.5549823938420E-02 -0.1292816268212E-01
-0.5824529520135E-02 -0.1328077569561E-01
-0.6102321144021E-02 -0.1365151521550E-01
-0.6381758540754E-02 -0.1404185291302E-01
-0.6661160480609E-02 -0.1445230374237E-01
-0.6938657643937E-02 -0.1488230001458E-01
-0.7212225072571E-02 -0.1533004522770E-01
-0.7479735158057E-02 -0.1579239650500E-01
-0.4138170838848E-04 -0.4279873817752E-03
-0.9415566060531E-04 -0.8616619588061E-03
-0.1579530736083E-03 -0.1300764508571E-02
-0.2323284179848E-03 -0.1744800662090E-02
-0.3167886619493E-03 -0.2193062572793E-02
-0.4108218376715E-03 -0.2644659269800E-02
-0.5139207366971E-03 -0.3098548741795E-02
-0.6256009966099E-03 -0.3553574244214E-02
-0.7454129344742E-03 -0.4008499190859E-02
-0.8729479760701E-03 -0.4462038700735E-02
-0.1007841043792E-02 -0.4912886934595E-02
-0.1149768792375E-02 -0.5359735820026E-02
-0.1298449931463E-02 -0.5801302781594E-02
-0.1453641898327E-02 -0.6236347006603E-02
-0.1615127281815E-02 -0.6663661698310E-02
-0.1782735367603E-02 -0.7082163764874E-02
-0.1956315143143E-02 -0.7490855298428E-02
-0.2135742544866E-02 -0.7888884550653E-02
-0.2320916590506E-02 -0.8275581069750E-02
-0.2511756384399E-02 -0.8650500539256E-02
-0.2708188902460E-02 -0.9013468238372E-02
-0.2910113650588E-02 -0.9364569701108E-02
-0.3117390981844E-02 -0.9704186839709E-02
-0.3329861022305E-02 -0.1003308487174E-01
-0.3547362922629E-02 -0.1035248281316E-01
-0.3769736425781E-02 -0.1066407837336E-01
-0.3996808241068E-02 -0.1097003481469E-01
-0.4228374149435E-02 -0.1127294366869E-01
-0.4464168067547E-02 -0.1157574588050E-01
-0.4703831513019E-02 -0.1188162216840E-01
-0.4946929609722E-02 -0.1219390505582E-01
-0.5193007222036E-02 -0.1251601951412E-01
-0.5441485984335E-02 -0.1285120283206E-01
-0.5691633691190E-02 -0.1320229053364E-01
-0.5942556665109E-02 -0.1357151709011E-01
-0.6193201964103E-02 -0.1396032806200E-01
-0.6442367323083E-02 -0.1436921422107E-01
-0.6688724364674E-02 -0.1479758903644E-01
-0.6930814541016E-02 -0.1524364451038E-01
-0.7167053928695E-02 -0.1570423246724E-01
-0.3796505407911E-04 -0.4254142667689E-03
-0.8734335329067E-04 -0.8564876434846E-03
-0.1478806207382E-03 -0.1292957726791E-02
-0.2192376042210E-03 -0.1734331593440E-02
-0.3010153139827E-03 -0.2179907226435E-02
-0.3927798914800E-03 -0.2628803005973E-02
-0.4940838300640E-03 -0.3079988595927E-02
-0.6044830893189E-03 -0.3532319973247E-02
-0.7235492922457E-03 -0.3984573210916E-02
-0.8508773604734E-03 -0.4435475218975E-02
-0.9860893705266E-03 -0.4883730613169E-02
-0.1128834008774E-02 -0.5328040298809E-02
-0.1278787554396E-02 -0.5767129216360E-02
-0.1435650506310E-02 -0.6199762822372E-02
-0.1599133149350E-02 -0.6624739756738E-02
-0.1768976178815E-02 -0.7040981436306E-02
-0.1944922003627E-02 -0.7447494146139E-02
-0.2126720759838E-02 -0.7843430072834E-02
-0.2314125457772E-02 -0.8228122639701E-02
-0.2506888190512E-02 -0.8601127718945E-02
-0.2704747488116E-02 -0.8962250592854E-02
-0.2907396537643E-02 -0.9311552010508E-02
-0.3114471769942E-02 -0.9649397686112E-02
-0.3325571927892E-02 -0.9976546141300E-02
-0.3540279930490E-02 -0.1029421604373E-01
-0.3758169952490E-02 -0.1060410785143E-01
-0.3978802406590E-02 -0.1090838833108E-01
-0.4201717719134E-02 -0.1120965153119E-01
-0.4426420332690E-02 -0.1151083848986E-01
-0.4652365485725E-02 -0.1181512616910E-01
-0.4878994336992E-02 -0.1212584268800E-01
-0.5105809581029E-02 -0.1244641281383E-01
-0.5332289333397E-02 -0.1278006992262E-01
-0.5557868198111E-02 -0.1312964155804E-01
-0.5781933254220E-02 -0.1349735134223E-01
-0.6003819662186E-02 -0.1388463257080E-01
-0.6222802872453E-02 -0.1429196382061E-01
-0.6438092102260E-02 -0.1471874749778E-01
-0.6648789998633E-02 -0.1516316594205E-01
-0.6853849757115E-02 -0.1562206098742E-01
-0.3455639578185E-04 -0.4228367600320E-03
-0.8055212791792E-04 -0.8513205312876E-03
-0.1378452873029E-03 -0.1285185171901E-02
-0.2062006538803E-03 -0.1723938278219E-02
-0.2853112002544E-03 -0.2166882436569E-02
-0.3748194727708E-03 -0.2613144121279E-02
-0.4743364505697E-03 -0.3061703729649E-02
-0.5834577033710E-03 -0.3511429631139E-02
-0.7017758942674E-03 -0.3961111005663E-02
-0.8288895222309E-03 -0.4409487778963E-02
-0.9644081382797E-03 -0.4855276875550E-02
-0.1107952923060E-02 -0.5297190406120E-02
-0.1259158255740E-02 -0.5733963120242E-02
-0.1417668245365E-02 -0.6164368779237E-02
-0.1583121412123E-02 -0.6587212921485E-02
-0.1755170372672E-02 -0.7001422129996E-02
-0.1933451438493E-02 -0.7406006497613E-02
-0.2117589389707E-02 -0.7800120573574E-02
-0.2307191632372E-02 -0.8183098786903E-02
-0.2501843624608E-02 -0.8554493453740E-02
-0.2701095863615E-02 -0.8914087614774E-02
-0.2904435560468E-02 -0.9261915014429E-02
-0.3111275461001E-02 -0.9598321158802E-02
-0.3320973102013E-02 -0.9924051715361E-02
-0.3532855348120E-02 -0.1024031708053E-01
-0.3746231037781E-02 -0.1054881145251E-01
-0.3960394617345E-02 -0.1085169583273E-01
-0.4174631616968E-02 -0.1115155823342E-01
-0.4388217605175E-02 -0.1145133305796E-01
-0.4600422274000E-02 -0.1175418979163E-01
-0.4810563639330E-02 -0.1206345166261E-01
-0.5018103070626E-02 -0.1238254555005E-01
-0.5222575971437E-02 -0.1271470758013E-01
-0.5423584430526E-02 -0.1306276791608E-01
-0.5620796730675E-02 -0.1342895247122E-01
-0.5813936270691E-02 -0.1381469590336E-01
-0.6002755984065E-02 -0.1422047629537E-01
-0.6187002061869E-02 -0.1464569244485E-01
-0.6366337357650E-02 -0.1508851853122E-01
-0.6540250898161E-02 -0.1554578138634E-01
-0.3114658339199E-04 -0.4202533792948E-03
-0.7376402679081E-04 -0.8461574265839E-03
-0.1278208114469E-03 -0.1277441721505E-02
-0.1931837371388E-03 -0.1713613504673E-02
-0.2696358448378E-03 -0.2153978815274E-02
-0.3568944449485E-03 -0.2597671051056E-02
-0.4546277107842E-03 -0.3043680481925E-02
-0.5624699277289E-03 -0.3490887604098E-02
-0.6800343034598E-03 -0.3938095191262E-02
-0.8069227841966E-03 -0.4384057424181E-02
-0.9427325763899E-03 -0.4827505384541E-02
-0.1087057785599E-02 -0.5267164597636E-02
-0.1239491512029E-02 -0.5701781891137E-02
-0.1399622234601E-02 -0.6130141342918E-02
-0.1567017565529E-02 -0.6551056832846E-02
-0.1741242954799E-02 -0.6963460755730E-02
-0.1921829554771E-02 -0.7366366622868E-02
-0.2108277722090E-02 -0.7758929776546E-02
-0.2300050156885E-02 -0.8140482790200E-02
-0.2496566528265E-02 -0.8510570683339E-02
-0.2697190109383E-02 -0.8868951977718E-02
-0.2901202875786E-02 -0.9215631157758E-02
-0.3107794536895E-02 -0.9550929496946E-02
-0.3316081954865E-02 -0.9875573654141E-02
-0.3525136308663E-02 -0.1019075784275E-01
-0.3734001239984E-02 -0.1049816100059E-01
-0.3941705056939E-02 -0.1079992909044E-01
-0.4147277824938E-02 -0.1109863551308E-01
-0.4349765205168E-02 -0.1139720126546E-01
-0.4548249822765E-02 -0.1169878456972E-01
-0.4741924554784E-02 -0.1200670319904E-01
-0.4930207049829E-02 -0.1232438838775E-01
-0.5112687511408E-02 -0.1265508560844E-01
-0.5289133299562E-02 -0.1300163819583E-01
-0.5459492366805E-02 -0.1336628747408E-01
-0.5623875864108E-02 -0.1375048309521E-01
-0.5782515007117E-02 -0.1415471436515E-01
-0.5935695078044E-02 -0.1457838393144E-01
-0.6083642382381E-02 -0.1501965928127E-01
-0.6226385772055E-02 -0.1547534713739E-01
-0.2772661420477E-04 -0.4176625613081E-03
-0.6696139333600E-04 -0.8409949535697E-03
-0.1177813808061E-03 -0.1269721948098E-02
-0.1801536048496E-03 -0.1703349578490E-02
-0.2539494569999E-03 -0.2141186224371E-02
-0.3389594290066E-03 -0.2582371085909E-02
-0.4349075202290E-03 -0.3025903501200E-02
-0.5414656575924E-03 -0.3470675884081E-02
-0.6582668735326E-03 -0.3915505139640E-02
-0.7849162258504E-03 -0.4359160984290E-02
-0.9209986232095E-03 -0.4800390536688E-02
-0.1066081498380E-02 -0.5237934969915E-02
-0.1219717386096E-02 -0.5670555479436E-02
-0.1381440106489E-02 -0.6097048493383E-02
-0.1550747537096E-02 -0.6516237702982E-02
-0.1727119272323E-02 -0.6927061994318E-02
-0.1909982699890E-02 -0.7328537949794E-02
-0.2098715172676E-02 -0.7719820184855E-02
-0.2292636078213E-02 -0.8100236612243E-02
-0.2491000612713E-02 -0.8469321264201E-02
-0.2692986030730E-02 -0.8826805865672E-02
-0.2897670211665E-02 -0.9172663383471E-02
-0.3104020891616E-02 -0.9507186861159E-02
-0.3310915150064E-02 -0.9831077840313E-02
-0.3517169050845E-02 -0.1014550647995E-01
-0.3721561100906E-02 -0.1045212746787E-01
-0.3922852815002E-02 -0.1075306241631E-01
-0.4119817219340E-02 -0.1105086143825E-01
-0.4311267420764E-02 -0.1134842518543E-01
-0.4496095216926E-02 -0.1164889660836E-01
-0.4673363532342E-02 -0.1195558721480E-01
-0.4842440640747E-02 -0.1227193460803E-01
-0.5002965723278E-02 -0.1260120003486E-01
-0.5154866250338E-02 -0.1294625049790E-01
-0.5298366260752E-02 -0.1330935594069E-01
-0.5433963487171E-02 -0.1369199486999E-01
-0.5562369218696E-02 -0.1409467985296E-01
-0.5684412679417E-02 -0.1451682518106E-01
-0.5800891138388E-02 -0.1495659338325E-01
-0.5912382611685E-02 -0.1541076609911E-01
-0.2428763916187E-04 -0.4150626601260E-03
-0.6012687349442E-04 -0.8358295523915E-03
-0.1077016293015E-03 -0.1262020112639E-02
-0.1670775907791E-03 -0.1693138313631E-02
-0.2382129538601E-03 -0.2128493763723E-02
-0.3209698607862E-03 -0.2567230358222E-02
-0.4151266861958E-03 -0.3008355731430E-02
-0.5203917404824E-03 -0.3450774055956E-02
-0.6364169349273E-03 -0.3893316968313E-02
-0.7628098980467E-03 -0.4334771068573E-02
-0.8991431548247E-03 -0.4773901459401E-02
-0.1044957840759E-02 -0.5209467260178E-02
-0.1199766732047E-02 -0.5640246388457E-02
-0.1363050173193E-02 -0.6065049723055E-02
-0.1534237796690E-02 -0.6482712308508E-02
-0.1712725051049E-02 -0.6892180280880E-02
-0.1897837409457E-02 -0.7292473034397E-02
-0.2088831127738E-02 -0.7682743034664E-02
-0.2284884169481E-02 -0.8062310833267E-02
-0.2485089045688E-02 -0.8430695880776E-02
-0.2688438596433E-02 -0.8787600859597E-02
-0.2893808146899E-02 -0.9132964993199E-02
-0.3099944945568E-02 -0.9467049167956E-02
-0.3305487557216E-02 -0.9790523789294E-02
-0.3508997727607E-02 -0.1010452716299E-01
-0.3708988847942E-02 -0.1041068075476E-01
-0.3903954543928E-02 -0.1071107244528E-01
-0.4092408268578E-02 -0.1100822020691E-01
-0.4272926355714E-02 -0.1130499711960E-01
-0.4444203801035E-02 -0.1160452647591E-01
-0.4605165942806E-02 -0.1191011228950E-01
-0.4755122724706E-02 -0.1222520015348E-01
-0.4893753057678E-02 -0.1255307323756E-01
-0.5021136280198E-02 -0.1289663263615E-01
-0.5137766728665E-02 -0.1325819031320E-01
-0.5244526718015E-02 -0.1363926794263E-01
-0.5342610297776E-02 -0.1404041402287E-01
-0.5433398196068E-02 -0.1446106296034E-01
-0.5518270481475E-02 -0.1489937463513E-01
-0.5598369142186E-02 -0.1535210099720E-01
-0.2082096912778E-04 -0.4124519505265E-03
-0.5324341717542E-04 -0.8306574865382E-03
-0.9755663417886E-04 -0.1254330176027E-02
-0.1539236144800E-03 -0.1682971047179E-02
-0.2223879841869E-03 -0.2115889788022E-02
-0.3028820498015E-03 -0.2552233859342E-02
-0.3952370163590E-03 -0.2991018428573E-02
-0.4991961241418E-03 -0.3431159312960E-02
-0.6144289825202E-03 -0.3871503554965E-02
-0.7405450395528E-03 -0.4310856079796E-02
-0.8771042158292E-03 -0.4748002023601E-02
-0.1023621697841E-02 -0.5181720856215E-02
-0.1179571403722E-02 -0.5610809678850E-02
-0.1344381597473E-02 -0.6034096031913E-02
-0.1517415472530E-02 -0.6450427971624E-02
-0.1697986439727E-02 -0.6858759766847E-02
-0.1885320363446E-02 -0.7258113498294E-02
-0.2078554796282E-02 -0.7647638202852E-02
-0.2276728662598E-02 -0.8026644523949E-02
-0.2478774049635E-02 -0.8394633879346E-02
-0.2683501388770E-02 -0.8751277728804E-02
-0.2889585401045E-02 -0.9096479393881E-02
-0.3095554768431E-02 -0.9430463791555E-02
-0.3299811209319E-02 -0.9753864309477E-02
-0.3500663213756E-02 -0.1006777971091E-01
-0.3696359087103E-02 -0.1037378929779E-01
-0.3885123096379E-02 -0.1067393774555E-01
-0.4065205700331E-02 -0.1097070178775E-01
-0.4234940735386E-02 -0.1126691930192E-01
-0.4392818248777E-02 -0.1156568900305E-01
-0.4537615536506E-02 -0.1187030558651E-01
-0.4668571890122E-02 -0.1218422368882E-01
-0.4785393135174E-02 -0.1251075414534E-01
-0.4888298944005E-02 -0.1285284246065E-01
-0.4978045708612E-02 -0.1321285630488E-01
-0.5055897264713E-02 -0.1359237550560E-01
-0.5123533845252E-02 -0.1399199811524E-01
-0.5182897913424E-02 -0.1441118816122E-01
-0.5235968582018E-02 -0.1484810608552E-01
-0.5284472275329E-02 -0.1529947015492E-01
-0.1731808048837E-04 -0.4098286366543E-03
-0.4629427824866E-04 -0.8254748616889E-03
-0.8732191123533E-04 -0.1246645828743E-02
-0.1406601827547E-03 -0.1672838678478E-02
-0.2064369518374E-03 -0.2103361952333E-02
-0.2846532390202E-03 -0.2537365487593E-02
-0.3751914235142E-03 -0.2973871207626E-02
-0.4778280074012E-03 -0.3411806500523E-02
-0.5922488668431E-03 -0.3850034577014E-02
-0.7180642975752E-03 -0.4287380248928E-02
-0.8548212546870E-03 -0.4722650872666E-02
-0.1002009294308E-02 -0.5154648817505E-02
-0.1159064469807E-02 -0.5582192978466E-02
-0.1325364571701E-02 -0.6004129921253E-02
-0.1500208476961E-02 -0.6419322531840E-02
-0.1682830065852E-02 -0.6826734262961E-02
-0.1872358355684E-02 -0.7225389935912E-02
-0.2067815077192E-02 -0.7614434071293E-02
-0.2268102997302E-02 -0.7993165060028E-02
-0.2471996517339E-02 -0.8361063027117E-02
-0.2678126071085E-02 -0.8717766129665E-02
-0.2884968140769E-02 -0.9063139732777E-02
-0.3090835215229E-02 -0.9397369134729E-02
-0.3293894267679E-02 -0.9721045013256E-02
-0.3492201912349E-02 -0.1003521905331E-01
-0.3683741482594E-02 -0.1034141950346E-01
-0.3866466134025E-02 -0.1064163825388E-01
-0.4038359122765E-02 -0.1093830139657E-01
-0.4197504650138E-02 -0.1123420346230E-01
-0.4342177557411E-02 -0.1153241298111E-01
-0.4470993822083E-02 -0.1183621272628E-01
-0.4583106310094E-02 -0.1214906667343E-01
-0.4678231188351E-02 -0.1247431851086E-01
-0.4756713347768E-02 -0.1281496830857E-01
-0.4819560194265E-02 -0.1317345348836E-01
-0.4868412628962E-02 -0.1355142791133E-01
-0.4905440994692E-02 -0.1394955409388E-01
-0.4933162321381E-02 -0.1436733660843E-01
-0.4954175530873E-02 -0.1480294092069E-01
-0.4970817858010E-02 -0.1525304849403E-01
-0.1377061935828E-04 -0.4071908661804E-03
-0.3926301159467E-04 -0.8202776566923E-03
-0.7697340635478E-04 -0.1238960539748E-02
-0.1272563880602E-03 -0.1662731733984E-02
-0.1903230380205E-03 -0.2090897287920E-02
-0.2662416659467E-03 -0.2522608128718E-02
-0.3549440339975E-03 -0.2956892121863E-02
-0.4562379966063E-03 -0.3392688190313E-02
-0.5698239922370E-03 -0.3828876578355E-02
-0.6953119563135E-03 -0.4264303693519E-02
-0.8322353682348E-03 -0.4697801471153E-02
-0.9800584387412E-03 -0.5128197911833E-02
-0.1138180441056E-02 -0.5554336502666E-02
-0.1305930510876E-02 -0.5975085391808E-02
-0.1482545648267E-02 -0.6389324314589E-02
-0.1667183109615E-02 -0.6796027170079E-02
-0.1858878283627E-02 -0.7194221798625E-02
-0.2056540448703E-02 -0.7583047355320E-02
-0.2258939594244E-02 -0.7961787886466E-02
-0.2464695652735E-02 -0.8329899204430E-02
-0.2672261880551E-02 -0.8686984219354E-02
-0.2879919309767E-02 -0.9032868428043E-02
-0.3085767081941E-02 -0.9367694075096E-02
-0.3287739999171E-02 -0.9692003683880E-02
-0.3483644562260E-02 -0.1000679453144E-01
-0.3671199422133E-02 -0.1031353500866E-01
-0.3848084702687E-02 -0.1061415453377E-01
-0.4012011590567E-02 -0.1091101880342E-01
-0.4160806223053E-02 -0.1120687024379E-01
-0.4292515952265E-02 -0.1150474075263E-01
-0.4405579353342E-02 -0.1180789760536E-01
-0.4499043544274E-02 -0.1211981344411E-01
-0.4572614465672E-02 -0.1244386926178E-01
-0.4626743160698E-02 -0.1278312959502E-01
-0.4662673753947E-02 -0.1314011607221E-01
-0.4682417918180E-02 -0.1351657357474E-01
-0.4688640216112E-02 -0.1391324563278E-01
-0.4684447574578E-02 -0.1432969012225E-01
-0.4673084149891E-02 -0.1476408362852E-01
-0.4657530599996E-02 -0.1521306884379E-01
-0.1017040347062E-04 -0.4045367499317E-03
-0.3213346488458E-04 -0.8150617664303E-03
-0.6648747970608E-04 -0.1231267623946E-02
-0.1136818993022E-03 -0.1652640456319E-02
-0.1740102173228E-03 -0.2078482305643E-02
-0.2476066196006E-03 -0.2507943764372E-02
-0.3344502939411E-03 -0.2940057768041E-02
-0.4343782611193E-03 -0.3373774776391E-02
-0.5471035146387E-03 -0.3807993053445E-02
-0.6722341654052E-03 -0.4241582488267E-02
-0.8092895464872E-03 -0.4673402160366E-02
-0.9577087691390E-03 -0.5102308653003E-02
-0.1116855500272E-02 -0.5527173069302E-02
-0.1286012250572E-02 -0.5946887928995E-02
-0.1464356900164E-02 -0.6360352078032E-02
-0.1650973388698E-02 -0.6766551377655E-02
-0.1844807152440E-02 -0.7164517234329E-02
-0.2044658875795E-02 -0.7553382873600E-02
-0.2249169649456E-02 -0.7932416207172E-02
-0.2456808635762E-02 -0.8301046004962E-02
-0.2665855146222E-02 -0.8658838158331E-02
-0.2874397982734E-02 -0.9005576567286E-02
-0.3080326280240E-02 -0.9341357257567E-02
-0.3281345762623E-02 -0.9666669466669E-02
-0.3475015038455E-02 -0.9982449003617E-02
-0.3658788651054E-02 -0.1029009572979E-01
-0.3830071744702E-02 -0.1059146681410E-01
-0.3986298070368E-02 -0.1088885742382E-01
-0.4125026136453E-02 -0.1118494842225E-01
-0.4244061612521E-02 -0.1148272764032E-01
-0.4341646810663E-02 -0.1178544210753E-01
-0.4416700126992E-02 -0.1209657125704E-01
-0.4468892436348E-02 -0.1241953688425E-01
-0.4498757464162E-02 -0.1275747750504E-01
-0.4507757932834E-02 -0.1311301383334E-01
-0.4498267578897E-02 -0.1348800006714E-01
-0.4473449051240E-02 -0.1388327931399E-01
-0.4437016855540E-02 -0.1429847780857E-01
-0.4392890641925E-02 -0.1473179141328E-01
-0.4344733756054E-02 -0.1517982353682E-01
-0.6509421098956E-05 -0.4018643881666E-03
-0.2488976424959E-04 -0.8098230594197E-03
-0.5584088250078E-04 -0.1223560333053E-02
-0.9990694684820E-04 -0.1642554924375E-02
-0.1574632722469E-03 -0.2066103135630E-02
-0.2287085015562E-03 -0.2493353619242E-02
-0.3136670849601E-03 -0.2923343430204E-02
-0.4122027026190E-03 -0.3355034608586E-02
-0.5240385564461E-03 -0.3787344566833E-02
-0.6487791880134E-03 -0.4219168769374E-02
-0.7859289394145E-03 -0.4649396246233E-02
-0.9349020228416E-03 -0.5076915369206E-02
-0.1095027759323E-02 -0.5500628141974E-02
-0.1265544274721E-02 -0.5919454512867E-02
-0.1445573403886E-02 -0.6332314979410E-02
-0.1634129478343E-02 -0.6738209174734E-02
-0.1830072116902E-02 -0.7136172930498E-02
-0.2032097757724E-02 -0.7525333310323E-02
-0.2238722970862E-02 -0.7904940653702E-02
-0.2448270330487E-02 -0.8274394299358E-02
-0.2658848850247E-02 -0.8633221558491E-02
-0.2868358760401E-02 -0.8981163231868E-02
-0.3074483048300E-02 -0.9318266290860E-02
-0.3274702022292E-02 -0.9644961941735E-02
-0.3466329165381E-02 -0.9962117810348E-02
-0.3646555900027E-02 -0.1027105675298E-01
-0.3812510580339E-02 -0.1057355385774E-01
-0.3961343847892E-02 -0.1087182323985E-01
-0.4090336075070E-02 -0.1116847397241E-01
-0.4197035298870E-02 -0.1146644125912E-01
-0.4279465990263E-02 -0.1176894575586E-01
-0.4336391100893E-02 -0.1207947034736E-01
-0.4367417017467E-02 -0.1240147991164E-01
-0.4373131737840E-02 -0.1273819587714E-01
-0.4355193932591E-02 -0.1309235331304E-01
-0.4316327548354E-02 -0.1346593552334E-01
-0.4260196379434E-02 -0.1385990616881E-01
-0.4191142334532E-02 -0.1427397771622E-01
-0.4113795862372E-02 -0.1470637601128E-01
-0.4032549428844E-02 -0.1515366645342E-01
-0.2779825794776E-05 -0.3991719036254E-03
-0.1751629068176E-04 -0.8045574501621E-03
-0.4501072132585E-04 -0.1215831969342E-02
-0.8590229545921E-04 -0.1632465202713E-02
-0.1406477990472E-03 -0.2053745699380E-02
-0.2095088829225E-03 -0.2478818340136E-02
-0.2925528399296E-03 -0.2906723252243E-02
-0.3896671272785E-03 -0.3336434150044E-02
-0.5005824257623E-03 -0.3766888892087E-02
-0.6248976541566E-03 -0.4197010853939E-02
-0.7621011299221E-03 -0.4625722098163E-02
-0.9115823142334E-03 -0.5051946278188E-02
-0.1072637526335E-02 -0.5474619875179E-02
-0.1244462956698E-02 -0.5892693623769E-02
-0.1426127787344E-02 -0.6305112529243E-02
-0.1616580852680E-02 -0.6710892139095E-02
-0.1814600549063E-02 -0.7109073923706E-02
-0.2018783906010E-02 -0.7498778930180E-02
-0.2227527849809E-02 -0.7879238890996E-02
-0.2439013031947E-02 -0.8249821718065E-02
-0.2651182229799E-02 -0.8610014830445E-02
-0.2861751204302E-02 -0.8959514697886E-02
-0.3068201195740E-02 -0.9298316795976E-02
-0.3267791383406E-02 -0.9626790022272E-02
-0.3457593531910E-02 -0.9945727538251E-02
-0.3634537483659E-02 -0.1025636699861E-01
-0.3795473318541E-02 -0.1056039158520E-01
-0.3937262813369E-02 -0.1085992346819E-01
-0.4056896991419E-02 -0.1115748888925E-01
-0.4151648750781E-02 -0.1145596061386E-01
-0.4219300526063E-02 -0.1175852520580E-01
-0.4258429275318E-02 -0.1206866390891E-01
-0.4268542557559E-02 -0.1238988542844E-01
-0.4250248674709E-02 -0.1272550219953E-01
-0.4205374219214E-02 -0.1307837920926E-01
-0.4136977430751E-02 -0.1345065030236E-01
-0.4049224763463E-02 -0.1384342350336E-01
-0.3947107197682E-02 -0.1425651880085E-01
-0.3836006589968E-02 -0.1468820584868E-01
-0.3721098778246E-02 -0.1513501546111E-01
 0.1026074147386E-05 -0.3964574825192E-03
-0.9997645031029E-05 -0.7992609889006E-03
-0.3397440776425E-04 -0.1208076026429E-02
-0.7163920398120E-04 -0.1622361525435E-02
-0.1235302057543E-03 -0.2041395919852E-02
-0.1899705604335E-03 -0.2464318212496E-02
-0.2710676639967E-03 -0.2890170444593E-02
-0.3667294274224E-03 -0.3317938164702E-02
-0.4766908476497E-03 -0.3746581176876E-02
-0.6005428276936E-03 -0.4175053382700E-02
-0.7377564221407E-03 -0.4602313269235E-02
-0.8876964300026E-03 -0.5027323581824E-02
-0.1049627593460E-02 -0.5449059176227E-02
-0.1222706824689E-02 -0.5866505260711E-02
-0.1405954362666E-02 -0.6278634552349E-02
-0.1598258058798E-02 -0.6684481025222E-02
-0.1798320143179E-02 -0.7083093397895E-02
-0.2004643564305E-02 -0.7473587269833E-02
-0.2215510978910E-02 -0.7855175185130E-02
-0.2428966263021E-02 -0.8227192079346E-02
-0.2642790431120E-02 -0.8589084456542E-02
-0.2854519322874E-02 -0.8940503540589E-02
-0.3061437394665E-02 -0.9281391332779E-02
-0.3260587662202E-02 -0.9612050702892E-02
-0.3448804320659E-02 -0.9933194604301E-02
-0.3622757882916E-02 -0.1024596767673E-01
-0.3779019209577E-02 -0.1055195146426E-01
-0.3914155636817E-02 -0.1085316497896E-01
-0.4024857203849E-02 -0.1115203976207E-01
-0.4108102863978E-02 -0.1145137497597E-01
-0.4161406358795E-02 -0.1175431357387E-01
-0.4183124236075E-02 -0.1206432799669E-01
-0.4172625627759E-02 -0.1238496960765E-01
-0.4130498916405E-02 -0.1271964875929E-01
-0.4058704206777E-02 -0.1307137602962E-01
-0.3960612911313E-02 -0.1344245898572E-01
-0.3840893148999E-02 -0.1383417710309E-01
-0.3705208057432E-02 -0.1424648329356E-01
-0.3559737133004E-02 -0.1467770864769E-01
-0.3410502500454E-02 -0.1512435537035E-01
 0.4915832882717E-05 -0.3937194248164E-03
-0.2318598664783E-05 -0.7939299717389E-03
-0.2270958980824E-04 -0.1200286361438E-02
-0.5708936916348E-04 -0.1612234519491E-02
-0.1060777015384E-03 -0.2029039974065E-02
-0.1700576126430E-03 -0.2449833417740E-02
-0.2491734631209E-03 -0.2873657527266E-02
-0.3433497756089E-03 -0.3299509936127E-02
-0.4523222105494E-03 -0.3726374135613E-02
-0.5756708901941E-03 -0.4153237488175E-02
-0.7128481484272E-03 -0.4579098640828E-02
-0.8631941457386E-03 -0.5002963584427E-02
-0.1025943549590E-02 -0.5423849789417E-02
-0.1200216856375E-02 -0.5840780978923E-02
-0.1384989387891E-02 -0.6252761162822E-02
-0.1579092929991E-02 -0.6658845658707E-02
-0.1781159064956E-02 -0.7058092479162E-02
-0.1989602477812E-02 -0.7449612813666E-02
-0.2202597424583E-02 -0.7832599940708E-02
-0.2418056630462E-02 -0.8206354769719E-02
-0.2633604225562E-02 -0.8570282196189E-02
-0.2846601119460E-02 -0.8923987647515E-02
-0.3054140527822E-02 -0.9267358207895E-02
-0.3253055001374E-02 -0.9600627657906E-02
-0.3439946161621E-02 -0.9924423655233E-02
-0.3611228318848E-02 -0.1023979052129E-01
-0.3763192942377E-02 -0.1054819864432E-01
-0.3892107828348E-02 -0.1085155243350E-01
-0.3994350311679E-02 -0.1115217605879E-01
-0.4066585619520E-02 -0.1145278248882E-01
-0.4106029911156E-02 -0.1175645954864E-01
-0.4110781057790E-02 -0.1206666130430E-01
-0.4080024574954E-02 -0.1238697824956E-01
-0.4014281682494E-02 -0.1272092393644E-01
-0.3915604027568E-02 -0.1307167002530E-01
-0.3787648468159E-02 -0.1344172275861E-01
-0.3635580022906E-02 -0.1383256387330E-01
-0.3465757866164E-02 -0.1424430953016E-01
-0.3285211375137E-02 -0.1467537454036E-01
-0.3100881681236E-02 -0.1512224147873E-01
 0.8896892691781E-05 -0.3909562049061E-03
 0.5535974459183E-05 -0.7885610733347E-03
-0.1119405936589E-04 -0.1192457401402E-02
-0.4222484794381E-04 -0.1602075469618E-02
-0.8825827257695E-04 -0.2016664588225E-02
-0.1497354519288E-03 -0.2435344328273E-02
-0.2268340754959E-03 -0.2857156602743E-02
-0.3194908252709E-03 -0.3281111508524E-02
-0.4274378203297E-03 -0.3706218258577E-02
-0.5502412325068E-03 -0.4131500976024E-02
-0.6873329845985E-03 -0.4556002578935E-02
-0.8380285526163E-03 -0.4978776821742E-02
-0.1001534106523E-02 -0.5398888389165E-02
-0.1176936791691E-02 -0.5815403932940E-02
-0.1363171352159E-02 -0.6227362738929E-02
-0.1559018828421E-02 -0.6633844822602E-02
-0.1763046136524E-02 -0.7033920012318E-02
-0.1973586005147E-02 -0.7426696639028E-02
-0.2188710648965E-02 -0.7811349193388E-02
-0.2406207736801E-02 -0.8187144062897E-02
-0.2623549786482E-02 -0.8553444210250E-02
-0.2837928202991E-02 -0.8909809127832E-02
-0.3046251095952E-02 -0.9256070151651E-02
-0.3245147033223E-02 -0.9592389676607E-02
-0.3430991010693E-02 -0.9919305766929E-02
-0.3599945313463E-02 -0.1023775578359E-01
-0.3748022873179E-02 -0.1054908980846E-01
-0.3871187654789E-02 -0.1085508610452E-01
-0.3965492875901E-02 -0.1115794807309E-01
-0.4027269682545E-02 -0.1146028844459E-01
-0.4053405850896E-02 -0.1176512622284E-01
-0.4041698563527E-02 -0.1207588476031E-01
-0.3991098650228E-02 -0.1239618728217E-01
-0.3902005088385E-02 -0.1272965363106E-01
-0.3776510181512E-02 -0.1307963142983E-01
-0.3618520187182E-02 -0.1344885223319E-01
-0.3433686844328E-02 -0.1383903499444E-01
-0.3229089113281E-02 -0.1425049531457E-01
-0.3012664947376E-02 -0.1468175975887E-01
-0.2792358640294E-02 -0.1512930378482E-01
 0.1297662010598E-04 -0.3881665453638E-03
 0.1358118810149E-04 -0.7831515081895E-03
 0.5943677477481E-06 -0.1184584392883E-02
-0.2701795728883E-04 -0.1591876635463E-02
-0.7004064752323E-04 -0.2004257385857E-02
-0.1289708791609E-03 -0.2420831849620E-02
-0.2040154153772E-03 -0.2840639667421E-02
-0.2951179290356E-03 -0.3262703958910E-02
-0.4020021740568E-03 -0.3686062048079E-02
-0.5242167669350E-03 -0.4109778532801E-02
-0.6611712872338E-03 -0.4532945118561E-02
-0.8121564091055E-03 -0.4954668220396E-02
-0.9763514547027E-03 -0.5374064705095E-02
-0.1152813480836E-02 -0.5790248951082E-02
-0.1340441302372E-02 -0.6202299926063E-02
-0.1537970935547E-02 -0.6609326165583E-02
-0.1743911075478E-02 -0.7010412350276E-02
-0.1956519290733E-02 -0.7404666062843E-02
-0.2173772599023E-02 -0.7791244089845E-02
-0.2393340165862E-02 -0.8169378409567E-02
-0.2612548544936E-02 -0.8538390136452E-02
-0.2828425479975E-02 -0.8897793148671E-02
-0.3037700704288E-02 -0.9247362892720E-02
-0.3236806112521E-02 -0.9587188960535E-02
-0.3421897077831E-02 -0.9917716462913E-02
-0.3588889265551E-02 -0.1023976999522E-01
-0.3733519215898E-02 -0.1055457074175E-01
-0.3851443944124E-02 -0.1086375936195E-01
-0.3938381895733E-02 -0.1116940450116E-01
-0.3990309697695E-02 -0.1147400318467E-01
-0.4003754466324E-02 -0.1178048958995E-01
-0.3976167160600E-02 -0.1209224089038E-01
-0.3906206762473E-02 -0.1241290318967E-01
-0.3794086249161E-02 -0.1274620282512E-01
-0.3641877242459E-02 -0.1309567705211E-01
-0.3453688971023E-02 -0.1346431081741E-01
-0.3235642171490E-02 -0.1385409973666E-01
-0.2995557821007E-02 -0.1426560195680E-01
-0.2742348027672E-02 -0.1469749101880E-01
-0.2485058287880E-02 -0.1514625199505E-01
 0.1716235514292E-04 -0.3853495067823E-03
 0.2183226198071E-04 -0.7776992268371E-03
 0.1267800542639E-04 -0.1176663703663E-02
-0.1144114783371E-04 -0.1581631630109E-02
-0.5139425232611E-04 -0.1991807296060E-02
-0.1077321435020E-03 -0.2406277813505E-02
-0.1806856328710E-03 -0.2824078962460E-02
-0.2701993780312E-03 -0.3244247699590E-02
-0.3759832559722E-03 -0.3665852280634E-02
-0.4975642617695E-03 -0.4088001960019E-02
-0.6343274545376E-03 -0.4509842177726E-02
-0.7855385195076E-03 -0.4930537291147E-02
-0.9503516511359E-03 -0.5349261684046E-02
-0.1127797271269E-02 -0.5765182647444E-02
-0.1316743216224E-02 -0.6177423674520E-02
-0.1515886596312E-02 -0.6585126138828E-02
-0.1723684794934E-02 -0.6987393162936E-02
-0.1938327505599E-02 -0.7383334295742E-02
-0.2157703871755E-02 -0.7772090360728E-02
-0.2379371551978E-02 -0.8152859702845E-02
-0.2600517135671E-02 -0.8524922119703E-02
-0.2818010940842E-02 -0.8887746701026E-02
-0.3028411642793E-02 -0.9241053630877E-02
-0.3227962635001E-02 -0.9584859279501E-02
-0.3412607821492E-02 -0.9919513542758E-02
-0.3578023057260E-02 -0.1024572348198E-01
-0.3719672206127E-02 -0.1056457358351E-01
-0.3832903780595E-02 -0.1087755577404E-01
-0.3913092067342E-02 -0.1118658957571E-01
-0.3955839242431E-02 -0.1149403952932E-01
-0.3957278583377E-02 -0.1180273659505E-01
-0.3914466149147E-02 -0.1211599283167E-01
-0.3825705732134E-02 -0.1243746327117E-01
-0.3690951047209E-02 -0.1277097721752E-01
-0.3512179535679E-02 -0.1312027321506E-01
-0.3293644130496E-02 -0.1348861868934E-01
-0.3041906582514E-02 -0.1387833006421E-01
-0.2765548523128E-02 -0.1429025912732E-01
-0.2474528848452E-02 -0.1472327066502E-01
-0.2179109946566E-02 -0.1517388136336E-01
 0.2146147717156E-04 -0.3825045967192E-03
 0.3030467560854E-04 -0.7722031532780E-03
 0.2507949345096E-04 -0.1168693184779E-02
 0.4533155527919E-05 -0.1571335866964E-02
-0.3228915057798E-04 -0.1979305024251E-02
-0.8598900496314E-04 -0.2391665418126E-02
-0.1568152864108E-03 -0.2807447354756E-02
-0.2447066563352E-03 -0.3225702797975E-02
-0.3493528467008E-03 -0.3645534280335E-02
-0.4702546864131E-03 -0.4066100419238E-02
-0.6067702969919E-03 -0.4486605786053E-02
-0.7581401244678E-03 -0.4906278341421E-02
-0.9234950243903E-03 -0.5324355674970E-02
-0.1101842418966E-02 -0.5740063557672E-02
-0.1292024407701E-02 -0.6152575298379E-02
-0.1492705704189E-02 -0.6561069947705E-02
-0.1702299752860E-02 -0.6964673251494E-02
-0.1918936146252E-02 -0.7362500089871E-02
-0.2140423947015E-02 -0.7753677773538E-02
-0.2364216726838E-02 -0.8137372507808E-02
-0.2587367430171E-02 -0.8512823787814E-02
-0.2806595540445E-02 -0.8879457288228E-02
-0.3018296563009E-02 -0.9236939403327E-02
-0.3218534447089E-02 -0.9585213983539E-02
-0.3403051016632E-02 -0.9924534717308E-02
-0.3567290698135E-02 -0.1025548762205E-01
-0.3706450240413E-02 -0.1057901374806E-01
-0.3815570079355E-02 -0.1089644579348E-01
-0.3889672789395E-02 -0.1120953970682E-01
-0.3923967363923E-02 -0.1152050966315E-01
-0.3914159896128E-02 -0.1183206264703E-01
-0.3856860312024E-02 -0.1214742290029E-01
-0.3749947794321E-02 -0.1247023564738E-01
-0.3593033274444E-02 -0.1280442489126E-01
-0.3387912493988E-02 -0.1315393906256E-01
-0.3138907095119E-02 -0.1352235747857E-01
-0.2852978211251E-02 -0.1391236626020E-01
-0.2539480163756E-02 -0.1432517083452E-01
-0.2209497698829E-02 -0.1475988278875E-01
-0.1874648973444E-02 -0.1521307937959E-01
 0.2588149164053E-04 -0.3796319038319E-03
 0.3901436565562E-04 -0.7666634766459E-03
 0.3782204298898E-04 -0.1160672611269E-02
 0.2093274642579E-04 -0.1560987094681E-02
-0.1269597685623E-04 -0.1966743602404E-02
-0.6371281291978E-04 -0.2376979728763E-02
-0.1323775439774E-03 -0.2790718758824E-02
-0.2186147275434E-03 -0.3207029324828E-02
-0.3220868630210E-03 -0.3625052217288E-02
-0.4422635850837E-03 -0.4044000706465E-02
-0.5784734370902E-03 -0.4463144351347E-02
-0.7299313246460E-03 -0.4881780735728E-02
-0.8957466201125E-03 -0.5299216670038E-02
-0.1074907549681E-02 -0.5714742335702E-02
-0.1266235992692E-02 -0.6127586595417E-02
-0.1468371155981E-02 -0.6536971559729E-02
-0.1679690380050E-02 -0.6942050410062E-02
-0.1898271420875E-02 -0.7341947421744E-02
-0.2121851516830E-02 -0.7735779605638E-02
-0.2347787972559E-02 -0.8122683293568E-02
-0.2573006685468E-02 -0.8501859208776E-02
-0.2794083202203E-02 -0.8872691570024E-02
-0.3007258282735E-02 -0.9234795373425E-02
-0.3208426381215E-02 -0.9588043893420E-02
-0.3393137935388E-02 -0.9932595064221E-02
-0.3556616051859E-02 -0.1026891184822E-01
-0.3693798042326E-02 -0.1059778649382E-01
-0.3799419096139E-02 -0.1092038298081E-01
-0.3868144968961E-02 -0.1123827954663E-01
-0.3894774742035E-02 -0.1155352135370E-01
-0.3874554732536E-02 -0.1186866843308E-01
-0.3803595784842E-02 -0.1218683053258E-01
-0.3679277339564E-02 -0.1251161884222E-01
-0.3500773171052E-02 -0.1284703788859E-01
-0.3269593798105E-02 -0.1319725016953E-01
-0.2990035507128E-02 -0.1356617570182E-01
-0.2669399333505E-02 -0.1395692371996E-01
-0.2317813788100E-02 -0.1437112305846E-01
-0.1947572380317E-02 -0.1480820061015E-01
-0.1571818483246E-02 -0.1526483348367E-01
 0.3043014383044E-04 -0.3767322611806E-03
 0.4797798054474E-04 -0.7610820047184E-03
 0.5092974783072E-04 -0.1152604209785E-02
 0.3778587706805E-04 -0.1550586022087E-02
 0.7414148665541E-05 -0.1954119008671E-02
-0.4087658681741E-04 -0.2362208214903E-02
-0.1073483928737E-03 -0.2773868563917E-02
-0.1919023244438E-03 -0.3188187686655E-02
-0.2941656900621E-03 -0.3604349381024E-02
-0.4135714328805E-03 -0.4021627501571E-02
-0.5494156854039E-03 -0.4439362906542E-02
-0.7008874799426E-03 -0.4856929143427E-02
-0.8670766262143E-03 -0.5273708538874E-02
-0.1046956107532E-02 -0.5689061946118E-02
-0.1239333351410E-02 -0.6102279960823E-02
-0.1442829313325E-02 -0.6512633700315E-02
-0.1655793524729E-02 -0.6919309266064E-02
-0.1876260662861E-02 -0.7321445143446E-02
-0.2101904854546E-02 -0.7718152074982E-02
-0.2329995329047E-02 -0.8108539612683E-02
-0.2557337762703E-02 -0.8491771784678E-02
-0.2780370906619E-02 -0.8867193930687E-02
-0.2995189686364E-02 -0.9234373026046E-02
-0.3197529891368E-02 -0.9593115071564E-02
-0.3382762620791E-02 -0.9943484323205E-02
-0.3545901628740E-02 -0.1028582042859E-01
-0.3681634834785E-02 -0.1062076318510E-01
-0.3784397836199E-02 -0.1094929981012E-01
-0.3848497557514E-02 -0.1127281751207E-01
-0.3868309345350E-02 -0.1159317351656E-01
-0.3838589025046E-02 -0.1191275602481E-01
-0.3754894843175E-02 -0.1223452957514E-01
-0.3614026381631E-02 -0.1256204093307E-01
-0.3414614696703E-02 -0.1289935373437E-01
-0.3157763575064E-02 -0.1325084263330E-01
-0.2847626811651E-02 -0.1362079509297E-01
-0.2491763237033E-02 -0.1401280152470E-01
-0.2101060869785E-02 -0.1442899337387E-01
-0.1689105468865E-02 -0.1486919783086E-01
-0.1270767640996E-02 -0.1533023884668E-01
 0.3511556666087E-04 -0.3738074531862E-03
 0.5721320292362E-04 -0.7554626089060E-03
 0.6442796512789E-04 -0.1144493316649E-02
 0.5512153180411E-04 -0.1540137081627E-02
 0.2806969216926E-04 -0.1941430903966E-02
-0.1745514540978E-04 -0.2347341370779E-02
-0.8170691404603E-04 -0.2756874116660E-02
-0.1645523051464E-03 -0.3169139001306E-02
-0.2655745765125E-03 -0.3583368500520E-02
-0.3841640527152E-03 -0.3998903678900E-02
-0.5195814800291E-03 -0.4415163438088E-02
-0.6709896800302E-03 -0.4831603889207E-02
-0.8374608818092E-03 -0.5247689384077E-02
-0.1017956902359E-02 -0.5662857990840E-02
-0.1211276704719E-02 -0.6076468640812E-02
-0.1416030591288E-02 -0.6487847985995E-02
-0.1630549034739E-02 -0.6896221248566E-02
-0.1852832890577E-02 -0.7300746746801E-02
-0.2080502338654E-02 -0.7700533864923E-02
-0.2310747065288E-02 -0.8094669352389E-02
-0.2540259519561E-02 -0.8482283191270E-02
-0.2765348963357E-02 -0.8862685060926E-02
-0.2981973817094E-02 -0.9235398336106E-02
-0.3185722885883E-02 -0.9600166511775E-02
-0.3371801356858E-02 -0.9956964035603E-02
-0.3535027561080E-02 -0.1030600898952E-01
-0.3669852657740E-02 -0.1064778715917E-01
-0.3770421530811E-02 -0.1098310290711E-01
-0.3830684018616E-02 -0.1131314054007E-01
-0.3844581814490E-02 -0.1163955081330E-01
-0.3806352748694E-02 -0.1196452387110E-01
-0.3710949901929E-02 -0.1229084444433E-01
-0.3554509097553E-02 -0.1262195775410E-01
-0.3335002032316E-02 -0.1296195643976E-01
-0.3052984311888E-02 -0.1331541720205E-01
-0.2712322748352E-02 -0.1368701778729E-01
-0.2320722121389E-02 -0.1408089163220E-01
-0.1889796126395E-02 -0.1449976525630E-01
-0.1434492358375E-02 -0.1494395910686E-01
-0.9716585671460E-03 -0.1541052921037E-01
 0.3994647320519E-04 -0.3708604774970E-03
 0.6673916302230E-04 -0.7498117718675E-03
 0.7834379134500E-04 -0.1136349185696E-02
 0.7296975149345E-04 -0.1529649332096E-02
 0.4929877951783E-04 -0.1928683466059E-02
 0.6574735356250E-05 -0.2332373376046E-02
-0.5543558813292E-04 -0.2739715198371E-02
-0.1365520273872E-03 -0.3149845443985E-02
-0.2363040297496E-03 -0.3562052029981E-02
-0.3540330174495E-03 -0.3975750591777E-02
-0.4889613036880E-03 -0.4390445202651E-02
-0.6402251928699E-03 -0.4805681307742E-02
-0.8068813714157E-03 -0.5221011914723E-02
-0.9878846545301E-03 -0.5635959062741E-02
-0.1182031702251E-02 -0.6049957015399E-02
-0.1387930072647E-02 -0.6462395082031E-02
-0.1603900377770E-02 -0.6872544570699E-02
-0.1827919416999E-02 -0.7279590128624E-02
-0.2057563039807E-02 -0.7682645636938E-02
-0.2289950229879E-02 -0.8080779961897E-02
-0.2521667300247E-02 -0.8473092282966E-02
-0.2748901399861E-02 -0.8858860494135E-02
-0.2967484103459E-02 -0.9237569876265E-02
-0.3172869708782E-02 -0.9608907743051E-02
-0.3360112293791E-02 -0.9972764554411E-02
-0.3523850724016E-02 -0.1032924083603E-01
-0.3658314790362E-02 -0.1067866927724E-01
-0.3757371122750E-02 -0.1102166780851E-01
-0.3814618625672E-02 -0.1135920815500E-01
-0.3823560386183E-02 -0.1169271732903E-01
-0.3777893497294E-02 -0.1202416067423E-01
-0.3671916183556E-02 -0.1235610509950E-01
-0.3501014636063E-02 -0.1269185008166E-01
-0.3262374192833E-02 -0.1303547695753E-01
-0.2955839304611E-02 -0.1339174360911E-01
-0.2584812803433E-02 -0.1376573437893E-01
-0.2156996764879E-02 -0.1416219030493E-01
-0.1684664540847E-02 -0.1458454124761E-01
-0.1184203487174E-02 -0.1503371031793E-01
-0.6746003515023E-03 -0.1550710202581E-01
 0.4493316403819E-04 -0.3678840122544E-03
 0.7658485879293E-04 -0.7441129380397E-03
 0.9272674691445E-04 -0.1128143015520E-02
 0.9139883382903E-04 -0.1519076217506E-02
 0.7118622313858E-04 -0.1915804988411E-02
 0.3131362112273E-04 -0.2317199767779E-02
-0.2841713102283E-04 -0.2722248149574E-02
-0.1077654826879E-03 -0.3130119430687E-02
-0.2061970589089E-03 -0.3540165356294E-02
-0.3229983594673E-03 -0.3951884809765E-02
-0.4573507060864E-03 -0.4364875247826E-02
-0.6083641210518E-03 -0.4778779259545E-02
-0.7750823351721E-03 -0.5193246324328E-02
-0.9564579278345E-03 -0.5607890682720E-02
-0.1151292156702E-02 -0.6022230762650E-02
-0.1358198678315E-02 -0.6435727820392E-02
-0.1575498539100E-02 -0.6847708606958E-02
-0.1801155333796E-02 -0.7257393048006E-02
-0.2032711011456E-02 -0.7663907756533E-02
-0.2267222973565E-02 -0.8066310780760E-02
-0.2501177977653E-02 -0.8463675288337E-02
-0.2730647471356E-02 -0.8855252765822E-02
-0.2951344862801E-02 -0.9240497722085E-02
-0.3158601630768E-02 -0.9619049631816E-02
-0.3347334959278E-02 -0.9990722762894E-02
-0.3512019717855E-02 -0.1035550581310E-01
-0.3646679200266E-02 -0.1071358058492E-01
-0.3744913543905E-02 -0.1106537567495E-01
-0.3799975764602E-02 -0.1141164027828E-01
-0.3804923347408E-02 -0.1175355864805E-01
-0.3752885805981E-02 -0.1209284045284E-01
-0.3637448396865E-02 -0.1243178896916E-01
-0.3453145433072E-02 -0.1277350192722E-01
-0.3196220494573E-02 -0.1312199459740E-01
-0.2865600747866E-02 -0.1348217220722E-01
-0.2463992404084E-02 -0.1385953753327E-01
-0.1998888895103E-02 -0.1425951671600E-01
-0.1483122003522E-02 -0.1468638029300E-01
-0.9345961800187E-03 -0.1514183688108E-01
-0.3747508219981E-03 -0.1562361116166E-01
 0.5008526217280E-04 -0.3648954512421E-03
 0.8676610348226E-04 -0.7384047802715E-03
 0.1075897235401E-03 -0.1119935500866E-02
 0.1104067232578E-03 -0.1508497425087E-02
 0.9370510395983E-04 -0.1902888665312E-02
 0.5670415693198E-04 -0.2301921779829E-02
-0.7408363871637E-06 -0.2704578376685E-02
-0.7831271534156E-04 -0.3110068475547E-02
-0.1754018542794E-03 -0.3517817154923E-02
-0.2912331415425E-03 -0.3927415429753E-02
-0.4249439533037E-03 -0.4338561803890E-02
-0.5756178641685E-03 -0.4751002795443E-02
-0.7422877313248E-03 -0.5164490940298E-02
-0.9239080836151E-03 -0.5578739700903E-02
-0.1119291135481E-02 -0.5993359487306E-02
-0.1327065129955E-02 -0.6407892071547E-02
-0.1545561779409E-02 -0.6821728594252E-02
-0.1772742548902E-02 -0.7234133067646E-02
-0.2006126328004E-02 -0.7644253178559E-02
-0.2242718598252E-02 -0.8051143523154E-02
-0.2478913878729E-02 -0.8453856071030E-02
-0.2710675378107E-02 -0.8851621442823E-02
-0.2933608697238E-02 -0.9243871549322E-02
-0.3142936825635E-02 -0.9630208152571E-02
-0.3333458131041E-02 -0.1001037996601E-01
-0.3499504299606E-02 -0.1038427361354E-01
-0.3634914188017E-02 -0.1075192754935E-01
-0.3733042758378E-02 -0.1111358476131E-01
-0.3786814710239E-02 -0.1146976956959E-01
-0.3788850854026E-02 -0.1182141218195E-01
-0.3731705494855E-02 -0.1216994220734E-01
-0.3608213902227E-02 -0.1251735649729E-01
-0.3411974944812E-02 -0.1286649135046E-01
-0.3138144177439E-02 -0.1322122872963E-01
-0.2784515871107E-02 -0.1358656706729E-01
-0.2352831516451E-02 -0.1396841767225E-01
-0.1850109415437E-02 -0.1437295635310E-01
-0.1289568264634E-02 -0.1480544673120E-01
-0.6906501423169E-03 -0.1526856848136E-01
-0.7759205755874E-04 -0.1576068189374E-01
 0.5541495280876E-04 -0.3619038939174E-03
 0.9731020582128E-04 -0.7327068132375E-03
 0.1229690916507E-03 -0.1111754913888E-02
 0.1300290627687E-03 -0.1497943638274E-02
 0.1168826618110E-03 -0.1889958823871E-02
 0.8276202349743E-04 -0.2286549328283E-02
 0.2759799551640E-04 -0.2686695835306E-02
-0.4819748430048E-04 -0.3089659552397E-02
-0.1439275725292E-03 -0.3494950035329E-02
-0.2587489994686E-03 -0.3902259980966E-02
-0.3917525313832E-03 -0.4311396598361E-02
-0.5419953053196E-03 -0.4722216794903E-02
-0.7085013856374E-03 -0.5134582394580E-02
-0.8902313205183E-03 -0.5548312943883E-02
-0.1086014552459E-02 -0.5963118847504E-02
-0.1294502499880E-02 -0.6378631569809E-02
-0.1514048152073E-02 -0.6794316559781E-02
-0.1742622493553E-02 -0.7209491915453E-02
-0.1977732718287E-02 -0.7623336015133E-02
-0.2216342279435E-02 -0.8034908584191E-02
-0.2454760597622E-02 -0.8443245898467E-02
-0.2688849762555E-02 -0.8847563925428E-02
-0.2914117854432E-02 -0.9247281312777E-02
-0.3125694209077E-02 -0.9641973995012E-02
-0.3318277676008E-02 -0.1003133811968E-01
-0.3486079585556E-02 -0.1041517098697E-01
-0.3622779399624E-02 -0.1079337900786E-01
-0.3721512532377E-02 -0.1116602791935E-01
-0.3774899105435E-02 -0.1153342020657E-01
-0.3775140682280E-02 -0.1189622632220E-01
-0.3714219640919E-02 -0.1225557599978E-01
-0.3584196340840E-02 -0.1261311819627E-01
-0.3377659779439E-02 -0.1297136297508E-01
-0.3088530032910E-02 -0.1333397781710E-01
-0.2713231316775E-02 -0.1370597833438E-01
-0.2252221770820E-02 -0.1409365163100E-01
-0.1711700267784E-02 -0.1450397923101E-01
-0.1105014121917E-02 -0.1494338703804E-01
-0.4531269615556E-03 -0.1541579077333E-01
 0.2167410136787E-03 -0.1592054346767E-01
 0.6093658511930E-04 -0.3589216722052E-03
 0.1082491676593E-03 -0.7270455256417E-03
 0.1389062150425E-03 -0.1103639348347E-02
 0.1503042328335E-03 -0.1487456162609E-02
 0.1407455710724E-03 -0.1877049077614E-02
 0.1094994094800E-03 -0.2271099118378E-02
 0.5659859856169E-04 -0.2668594668648E-02
-0.1743013089291E-04 -0.3068861716914E-02
-0.1117905431027E-03 -0.3471507200778E-02
-0.2255651036528E-03 -0.3876335567144E-02
-0.3577957729328E-03 -0.4283270139225E-02
-0.5075134994624E-03 -0.4692284096796E-02
-0.6737356046838E-03 -0.5103354199529E-02
-0.8554325107725E-03 -0.5516412590535E-02
-0.1051456933730E-02 -0.5931277752517E-02
-0.1260492032322E-02 -0.6347680599485E-02
-0.1480923007414E-02 -0.6765171855826E-02
-0.1710742615470E-02 -0.7183135039006E-02
-0.1947458297521E-02 -0.7600790264021E-02
-0.2188001589927E-02 -0.8017212295939E-02
-0.2428603668813E-02 -0.8431427933544E-02
-0.2665032102577E-02 -0.8842645336651E-02
-0.2892707480106E-02 -0.9250280329748E-02
-0.3106680671281E-02 -0.9653896611243E-02
-0.3301571388202E-02 -0.1005315308249E-01
-0.3471495294990E-02 -0.1044777353828E-01
-0.3610000312614E-02 -0.1083754768199E-01
-0.3710032129060E-02 -0.1122237759310E-01
-0.3763936334104E-02 -0.1160235347197E-01
-0.3763521948015E-02 -0.1197788771160E-01
-0.3700215586649E-02 -0.1234979756039E-01
-0.3565293692353E-02 -0.1271934715409E-01
-0.3350276002205E-02 -0.1308865324622E-01
-0.3047705472433E-02 -0.1346107441688E-01
-0.2652382337166E-02 -0.1384154190895E-01
-0.2163109013755E-02 -0.1423665468176E-01
-0.1584824813540E-02 -0.1465423647217E-01
-0.9306337988060E-03 -0.1510206083625E-01
-0.2229021821035E-03 -0.1558561605704E-01
 0.5079027937111E-03 -0.1610553807173E-01
 0.6666745012775E-04 -0.3559653773326E-03
 0.1196211947130E-03 -0.7214564172024E-03
 0.1554487292800E-03 -0.1095639343105E-02
 0.1712737573059E-03 -0.1477089269585E-02
 0.1653195406926E-03 -0.1864203861416E-02
 0.1369242369414E-03 -0.2255595352574E-02
 0.8625395443229E-04 -0.2650273390100E-02
 0.1397178577454E-04 -0.3047646097486E-02
-0.7901474131387E-04 -0.3447432480756E-02
-0.1917085280618E-03 -0.3849559066137E-02
-0.3231012001247E-03 -0.4254072134555E-02
-0.4721980687317E-03 -0.4661066145879E-02
-0.6380116930451E-03 -0.5070637590581E-02
-0.8195258896739E-03 -0.5482837139972E-02
-0.1015622296390E-02 -0.5897599344406E-02
-0.1225024186713E-02 -0.6314764852527E-02
-0.1446160145803E-02 -0.6733981760351E-02
-0.1677057589421E-02 -0.7154711852132E-02
-0.1915236811616E-02 -0.7576229652657E-02
-0.2157607777853E-02 -0.7997636358085E-02
-0.2400329877063E-02 -0.8417956256227E-02
-0.2639082031666E-02 -0.8836397124886E-02
-0.2869206907551E-02 -0.9252383413651E-02
-0.3085692279423E-02 -0.9665481764951E-02
-0.3283100022003E-02 -0.1007533137849E-01
-0.3455476474036E-02 -0.1048160139951E-01
-0.3596268394720E-02 -0.1088398434133E-01
-0.3698265447320E-02 -0.1128223795144E-01
-0.3753574892047E-02 -0.1167625728188E-01
-0.3753649609097E-02 -0.1206620770293E-01
-0.3689391199792E-02 -0.1245259164232E-01
-0.3551303038378E-02 -0.1283626024718E-01
-0.3329798204463E-02 -0.1321887212011E-01
-0.3015916271132E-02 -0.1360337191924E-01
-0.2602571638839E-02 -0.1399447694004E-01
-0.2086485052592E-02 -0.1439899278452E-01
-0.1470782857397E-02 -0.1482558723558E-01
-0.7677961701448E-03 -0.1528357489469E-01
-0.1049848230473E-05 -0.1578039461151E-01
 0.7954035997733E-03 -0.1631831671262E-01
 0.7262884928811E-04 -0.3530572480727E-03
 0.1314726796741E-03 -0.7159867813108E-03
 0.1726520618520E-03 -0.1087821275272E-02
 0.1929825835680E-03 -0.1466913025398E-02
 0.1906286193132E-03 -0.1851480062210E-02
 0.1650391259168E-03 -0.2240070291019E-02
 0.1165498602130E-03 -0.2631734850593E-02
 0.4598280855035E-04 -0.3025985705513E-02
-0.4563224401332E-04 -0.3422670247740E-02
-0.1572145708355E-03 -0.3821847277373E-02
-0.2877048082723E-03 -0.4223691917293E-02
-0.4360835415765E-03 -0.4628423699869E-02
-0.6013604320823E-03 -0.5036262486361E-02
-0.7825357405676E-03 -0.5447382551866E-02
-0.9785250700288E-03 -0.5861842193494E-02
-0.1188099773088E-02 -0.6279602513242E-02
-0.1409743099679E-02 -0.6700422282655E-02
-0.1641530674344E-02 -0.7123856137342E-02
-0.1881009034086E-02 -0.7549247581344E-02
-0.2125077203355E-02 -0.7975737325323E-02
-0.2369828738243E-02 -0.8402354926735E-02
-0.2610858850111E-02 -0.8828315723594E-02
-0.2843441170244E-02 -0.9253065102249E-02
-0.3062515754753E-02 -0.9676189218403E-02
-0.3262608678426E-02 -0.1009732712661E-01
-0.3437724683476E-02 -0.1051611505995E-01
-0.3581241869824E-02 -0.1093217204642E-01
-0.3685830924797E-02 -0.1134513689329E-01
-0.3743402631255E-02 -0.1175473516080E-01
-0.3745099768459E-02 -0.1216090749167E-01
-0.3681345438514E-02 -0.1256385281342E-01
-0.3541904374339E-02 -0.1296399509105E-01
-0.3316075319208E-02 -0.1336247869443E-01
-0.2993295953798E-02 -0.1376172430246E-01
-0.2564339254023E-02 -0.1416607764118E-01
-0.2023371457118E-02 -0.1458239368340E-01
-0.1371022085225E-02 -0.1502013145110E-01
-0.6181136803187E-03 -0.1549032465004E-01
 0.2110964299592E-03 -0.1600279836533E-01
 0.1078618266822E-02 -0.1656194277959E-01
 0.7884758780544E-04 -0.3502271167975E-03
 0.1438608297348E-03 -0.7106995360322E-03
 0.1905811938033E-03 -0.1080271795989E-02
 0.2154791043625E-03 -0.1457016671193E-02
 0.2166940723260E-03 -0.1838948663386E-02
 0.1938400348564E-03 -0.2224564544420E-02
 0.1474638425748E-03 -0.2612985903858E-02
 0.7856887361825E-04 -0.3003855018610E-02
-0.1168364696487E-04 -0.3397165196653E-02
-0.1221270069044E-03 -0.3793117006890E-02
-0.2516512710165E-03 -0.4192018870067E-02
-0.3992136158687E-03 -0.4594217596647E-02
-0.5638224995814E-03 -0.5000058573891E-02
-0.7444970570200E-03 -0.5409843580074E-02
-0.9401910511010E-03 -0.5823761744372E-02
-0.1149731183124E-02 -0.6241905617767E-02
-0.1371666560019E-02 -0.6664159220362E-02
-0.1604135237154E-02 -0.7090186635471E-02
-0.1844724332469E-02 -0.7519417175611E-02
-0.2090332944007E-02 -0.7951046143671E-02
-0.2336994153247E-02 -0.8384117077390E-02
-0.2580223222444E-02 -0.8817861264783E-02
-0.2815232729670E-02 -0.9251757998828E-02
-0.3036930219447E-02 -0.9685430603202E-02
-0.3239828550474E-02 -0.1011853921264E-01
-0.3417919678226E-02 -0.1055071146415E-01
-0.3564547159284E-02 -0.1098152062290E-01
-0.3672302346036E-02 -0.1141051812771E-01
-0.3732946138207E-02 -0.1183729490593E-01
-0.3737366206812E-02 -0.1226160215046E-01
-0.3675569832268E-02 -0.1268336374087E-01
-0.3536644139268E-02 -0.1310258230390E-01
-0.3308803504804E-02 -0.1351984943940E-01
-0.2979827986893E-02 -0.1393695635958E-01
-0.2538120815312E-02 -0.1435769611317E-01
-0.1974790492810E-02 -0.1478875455683E-01
-0.1287144780558E-02 -0.1524024710331E-01
-0.4834966747389E-03 -0.1572506076305E-01
 0.4118736094455E-03 -0.1625591456770E-01
 0.1356756458243E-02 -0.1683999935433E-01
 0.8535810123315E-04 -0.3475152052340E-03
 0.1568571731302E-03 -0.7056785826099E-03
 0.2093126202197E-03 -0.1073103663731E-02
 0.2388147042309E-03 -0.1447512597271E-02
 0.2435326565357E-03 -0.1826696245457E-02
 0.2233145148061E-03 -0.2209126929498E-02
 0.1789639266511E-03 -0.2594036666499E-02
 0.1116866017862E-03 -0.2981229290512E-02
 0.2278158287931E-04 -0.3370861968538E-02
-0.8649825029275E-04 -0.3763285081329E-02
-0.2149940464894E-03 -0.4158942844376E-02
-0.3616413237692E-03 -0.4558309578525E-02
-0.5254488052381E-03 -0.4961856523217E-02
-0.7054561575727E-03 -0.5370015319464E-02
-0.9006583742475E-03 -0.5783112053968E-02
-0.1109943718116E-02 -0.6201381747566E-02
-0.1331937966355E-02 -0.6624849528409E-02
-0.1564856470616E-02 -0.7053307863963E-02
-0.1806342428363E-02 -0.7486291458028E-02
-0.2053306582973E-02 -0.7923067718838E-02
-0.2301726236528E-02 -0.8362704006461E-02
-0.2547039051067E-02 -0.8804456331494E-02
-0.2784403401761E-02 -0.9247851239477E-02
-0.3008709198469E-02 -0.9692567522155E-02
-0.3214479022918E-02 -0.1013830878563E-01
-0.3395721593251E-02 -0.1058472049766E-01
-0.3545781050620E-02 -0.1103136153776E-01
-0.3657210681791E-02 -0.1147773357110E-01
-0.3721671508079E-02 -0.1192333726677E-01
-0.3729858625381E-02 -0.1236778394103E-01
-0.3671441649470E-02 -0.1281077124648E-01
-0.3534919480441E-02 -0.1325191289334E-01
-0.3307496939109E-02 -0.1369123771700E-01
-0.2975300413322E-02 -0.1412982124837E-01
-0.2524191063573E-02 -0.1457071142892E-01
-0.1941717335561E-02 -0.1502014123881E-01
-0.1220902203025E-02 -0.1548863357510E-01
-0.3662127708199E-03 -0.1599097544506E-01
 0.5991931339776E-03 -0.1654335885291E-01
 0.1628802965454E-02 -0.1715672202940E-01
 0.9220555013740E-04 -0.3449762421160E-03
 0.1705522632434E-03 -0.7010364321431E-03
 0.2289363732372E-03 -0.1066463441853E-02
 0.2630424876337E-03 -0.1438540877705E-02
 0.2711540739837E-03 -0.1814826067742E-02
 0.2534395315226E-03 -0.2193813656247E-02
 0.2110072930220E-03 -0.2574899259953E-02
 0.1452826325498E-03 -0.2958083547906E-02
 0.5770485286639E-04 -0.3343704606023E-02
-0.5038940182040E-04 -0.3732268285034E-02
-0.1777953629399E-03 -0.4124354568019E-02
-0.3234290743736E-03 -0.4520563167066E-02
-0.4863007124481E-03 -0.4921489330528E-02
-0.6654712204801E-03 -0.5327694982317E-02
-0.8599784756084E-03 -0.5739647867083E-02
-0.1068777010598E-02 -0.6157736130661E-02
-0.1290579283272E-02 -0.6582143081149E-02
-0.1523693342942E-02 -0.7012811220931E-02
-0.1765835386181E-02 -0.7449403651559E-02
-0.2013940200930E-02 -0.7891280486962E-02
-0.2263933320914E-02 -0.8337544227570E-02
-0.2511175508862E-02 -0.8787484717861E-02
-0.2750776453979E-02 -0.9240689092390E-02
-0.2977622849524E-02 -0.9696909931403E-02
-0.3186270109882E-02 -0.1015591716659E-01
-0.3370773635640E-02 -0.1061740198731E-01
-0.3524513623327E-02 -0.1108094336096E-01
-0.3640047057370E-02 -0.1154603633821E-01
-0.3708986756207E-02 -0.1201214504867E-01
-0.3721903101566E-02 -0.1247880544978E-01
-0.3668219666005E-02 -0.1294556070661E-01
-0.3535964662032E-02 -0.1341170097975E-01
-0.3311458127997E-02 -0.1387672354796E-01
-0.2979253424346E-02 -0.1434094178001E-01
-0.2522589588385E-02 -0.1480647810095E-01
-0.1925005091414E-02 -0.1527877149429E-01
-0.1174165789933E-02 -0.1576835659811E-01
-0.2689499179864E-03 -0.1629181134469E-01
 0.7704054121120E-03 -0.1686942186890E-01
 0.1893422163181E-02 -0.1751717811367E-01
 0.9945043470746E-04 -0.3426856968094E-03
 0.1850620013350E-03 -0.6969252636322E-03
 0.2495577809982E-03 -0.1060541654561E-02
 0.2882146575841E-03 -0.1430274167319E-02
 0.2995573479318E-03 -0.1803458282768E-02
 0.2841788452936E-03 -0.2178686561977E-02
 0.2435388839979E-03 -0.2555585938135E-02
 0.1792930479592E-03 -0.2934391264113E-02
 0.9301831125805E-04 -0.3315635855262E-02
-0.1387017358244E-04 -0.3699983239935E-02
-0.1401260816286E-03 -0.4088146059718E-02
-0.2846485711752E-03 -0.4480844606533E-02
-0.4464501370473E-03 -0.4878793813379E-02
-0.6246127231448E-03 -0.5282683949130E-02
-0.8182170396310E-03 -0.5693127115416E-02
-0.1026286559832E-02 -0.6110674283660E-02
-0.1247629024377E-02 -0.6535684981779E-02
-0.1480660867969E-02 -0.6968276501732E-02
-0.1723189921373E-02 -0.7408267675746E-02
-0.1972188644131E-02 -0.7855135982603E-02
-0.2223534181864E-02 -0.8308032438060E-02
-0.2472509244422E-02 -0.8766290174459E-02
-0.2714178869443E-02 -0.9229569710429E-02
-0.2943440417769E-02 -0.9697714869134E-02
-0.3154905237430E-02 -0.1017058426528E-01
-0.3342705300692E-02 -0.1064794333047E-01
-0.3500291964194E-02 -0.1112942796217E-01
-0.3620266929773E-02 -0.1161457456216E-01
-0.3694246077824E-02 -0.1210287303345E-01
-0.3712745250512E-02 -0.1259386315402E-01
-0.3665043542954E-02 -0.1308702957598E-01
-0.3538841415290E-02 -0.1358144246927E-01
-0.3319750288474E-02 -0.1407615302756E-01
-0.2990921909782E-02 -0.1457073149597E-01
-0.2533026666291E-02 -0.1506624453473E-01
-0.1925271851409E-02 -0.1556696891984E-01
-0.1148858127330E-02 -0.1608288524859E-01
-0.1948755681104E-03 -0.1663199771126E-01
 0.9221093039257E-03 -0.1723926893164E-01
 0.2148806826121E-02 -0.1792751788557E-01
 0.1071756644411E-03 -0.3407495026291E-03
 0.2005361052039E-03 -0.6935532510931E-03
 0.2712982810332E-03 -0.1055586063935E-02
 0.3143777763519E-03 -0.1422922381012E-02
 0.3287259032682E-03 -0.1792728532863E-02
 0.3154800670832E-03 -0.2163810006441E-02
 0.2764901239540E-03 -0.2536106464960E-02
 0.2136430158015E-03 -0.2910122636695E-02
 0.1286449428303E-03 -0.3286596235874E-02
 0.2298141346512E-04 -0.3666346129252E-02
-0.1020653265762E-03 -0.4050210926316E-02
-0.2453804777056E-03 -0.4439023724716E-02
-0.4059793709677E-03 -0.4833612086039E-02
-0.5829636049457E-03 -0.5234789920954E-02
-0.7754547319602E-03 -0.5643313700232E-02
-0.9825452007175E-03 -0.6059905110996E-02
-0.1203144387504E-02 -0.6485118368730E-02
-0.1435792594276E-02 -0.6919273744131E-02
-0.1678409925633E-02 -0.7362378660133E-02
-0.1928021934709E-02 -0.7814058138563E-02
-0.2180460299483E-02 -0.8273528114837E-02
-0.2430926533078E-02 -0.8740174904492E-02
-0.2674443530665E-02 -0.9213743915387E-02
-0.2905932679015E-02 -0.9694185535129E-02
-0.3120084164262E-02 -0.1018146762161E-01
-0.3311135931951E-02 -0.1067545797560E-01
-0.3472644513075E-02 -0.1117588780363E-01
-0.3597295362962E-02 -0.1168238663367E-01
-0.3676755986598E-02 -0.1219453967339E-01
-0.3701556448209E-02 -0.1271198289126E-01
-0.3660937814341E-02 -0.1323426211364E-01
-0.3542435374008E-02 -0.1376037219514E-01
-0.3331175559521E-02 -0.1428906936076E-01
-0.3009177540580E-02 -0.1481929404976E-01
-0.2554769792333E-02 -0.1535103180964E-01
-0.1942737543215E-02 -0.1588706849926E-01
-0.1146816340339E-02 -0.1643610432878E-01
-0.1476710627659E-03 -0.1701681979324E-01
 0.1049888242975E-02 -0.1765922424154E-01
 0.2392433681505E-02 -0.1839534160982E-01
 0.1154977186754E-03 -0.3393197772646E-03
 0.2171692750325E-03 -0.6912091788475E-03
 0.2942938875382E-03 -0.1051918716380E-02
 0.3415647691218E-03 -0.1416735971652E-02
 0.3586211720476E-03 -0.1782783949272E-02
 0.3472715539448E-03 -0.2149246194728E-02
 0.3097778383208E-03 -0.2516464839358E-02
 0.2482466278622E-03 -0.2885242629806E-02
 0.1644988077069E-03 -0.3256523059890E-02
 0.6007943322046E-04 -0.3631272463945E-02
-0.6370003532481E-04 -0.4010444757435E-02
-0.2057140040275E-03 -0.4394974941577E-02
-0.3649808100130E-03 -0.4785793263094E-02
-0.5406193282838E-03 -0.5183829456852E-02
-0.7317878976844E-03 -0.5589980922263E-02
-0.9376447343087E-03 -0.6005144947294E-02
-0.1157203827515E-02 -0.6430088300150E-02
-0.1389143731936E-02 -0.6865365962786E-02
-0.1631519661636E-02 -0.7311213891025E-02
-0.1881428247751E-02 -0.7767442555027E-02
-0.2134658514025E-02 -0.8233353866747E-02
-0.2386325654946E-02 -0.8708397929476E-02
-0.2631411561009E-02 -0.9192414167080E-02
-0.2864874606445E-02 -0.9685470879966E-02
-0.3081506287531E-02 -0.1018766216404E-01
-0.3275678860933E-02 -0.1069898470876E-01
-0.3441086221474E-02 -0.1121930412484E-01
-0.3570533521385E-02 -0.1174839755876E-01
-0.3655783463280E-02 -0.1228602030322E-01
-0.3687443446274E-02 -0.1283200721155E-01
-0.3654821389861E-02 -0.1338610570458E-01
-0.3545460777386E-02 -0.1394742036215E-01
-0.3344263629836E-02 -0.1451463615182E-01
-0.3032477930790E-02 -0.1508629809220E-01
-0.2586516754811E-02 -0.1566145822923E-01
-0.1976999634128E-02 -0.1624123978315E-01
-0.1169546704938E-02 -0.1683226145739E-01
-0.1314965451829E-03 -0.1745261266977E-01
 0.1147950888741E-02 -0.1813717967646E-01
 0.2620647524537E-02 -0.1893024758662E-01
 0.1245848495489E-03 -0.3386212623472E-03
 0.2352153656182E-03 -0.6903002413494E-03
 0.3186886529862E-03 -0.1049956755200E-02
 0.3697822835759E-03 -0.1412005264042E-02
 0.3891749689448E-03 -0.1773775126420E-02
 0.3794596423920E-03 -0.2135048695807E-02
 0.3433036536204E-03 -0.2496655357096E-02
 0.2830071119585E-03 -0.2859708713055E-02
 0.2004855801656E-03 -0.3225349287454E-02
 0.9733071535259E-04 -0.3594676733908E-02
-0.2512426154386E-04 -0.3968745411732E-02
-0.1657462205325E-03 -0.4348578171414E-02
-0.3235563528834E-03 -0.4735195086127E-02
-0.4976875440904E-03 -0.5129630555516E-02
-0.6873288673131E-03 -0.5532915247932E-02
-0.8916973564905E-03 -0.5946122359963E-02
-0.1109909791905E-02 -0.6370246675429E-02
-0.1340794754690E-02 -0.6806112727790E-02
-0.1582567504651E-02 -0.7254233952445E-02
-0.1832417278360E-02 -0.7714655265735E-02
-0.2086093783586E-02 -0.8186792990798E-02
-0.2338619100097E-02 -0.8670172894055E-02
-0.2584934384184E-02 -0.9164733518729E-02
-0.2820047858630E-02 -0.9670665735407E-02
-0.3038874007050E-02 -0.1018820089047E-01
-0.3235945855211E-02 -0.1071748807091E-01
-0.3405124245761E-02 -0.1125856647015E-01
-0.3539366063484E-02 -0.1181141714531E-01
-0.3630565826834E-02 -0.1237604310444E-01
-0.3669461323423E-02 -0.1295258672265E-01
-0.3645523175639E-02 -0.1354115216286E-01
-0.3546475548678E-02 -0.1414117331436E-01
-0.3357276096824E-02 -0.1475155971155E-01
-0.3058834160368E-02 -0.1537083396165E-01
-0.2626270691369E-02 -0.1599750383836E-01
-0.2026745207688E-02 -0.1663118839787E-01
-0.1217811828934E-02 -0.1727578038960E-01
-0.1507907894739E-03 -0.1794695039838E-01
 0.1208672183890E-02 -0.1868319741717E-01
 0.2827933906495E-02 -0.1954469082869E-01
 0.1346878427999E-03 -0.3389979585215E-03
 0.2550037201637E-03 -0.6914111438662E-03
 0.3446181109836E-03 -0.1050235015362E-02
 0.3989919791375E-03 -0.1409051199098E-02
 0.4202815468998E-03 -0.1765842740681E-02
 0.4119268405631E-03 -0.2121254457420E-02
 0.3769540226992E-03 -0.2476658238110E-02
 0.3178174430421E-03 -0.2833468434686E-02
 0.2365033635485E-03 -0.3193002349936E-02
 0.1346357055894E-03 -0.3556472054794E-02
 0.1356169603891E-04 -0.3925013295154E-02
-0.1255811822655E-03 -0.4299719709078E-02
-0.2818165490415E-03 -0.4681685543473E-02
-0.4542873998452E-03 -0.5072035326009E-02
-0.6422058378002E-03 -0.5471920498061E-02
-0.8448368382929E-03 -0.5882584003129E-02
-0.1061391716923E-02 -0.6305258769493E-02
-0.1290855797559E-02 -0.6741075230284E-02
-0.1531630668307E-02 -0.7190884404198E-02
-0.1781024376964E-02 -0.7655030916547E-02
-0.2034752238638E-02 -0.8133085946295E-02
-0.2287735617190E-02 -0.8624665124672E-02
-0.2534875450613E-02 -0.9129804589034E-02
-0.2771243077881E-02 -0.9648811666739E-02
-0.2991896221020E-02 -0.1018205667476E-01
-0.3191551995224E-02 -0.1072985999616E-01
-0.3364264223736E-02 -0.1129247345399E-01
-0.3503169299195E-02 -0.1187013981086E-01
-0.3600322036280E-02 -0.1246318782563E-01
-0.3646629510471E-02 -0.1307217607279E-01
-0.3631803995032E-02 -0.1369772583262E-01
-0.3543908326833E-02 -0.1433984225671E-01
-0.3368231460753E-02 -0.1499801661734E-01
-0.3085810107168E-02 -0.1567126169624E-01
-0.2671245846376E-02 -0.1635821706698E-01
-0.2089421268020E-02 -0.1705768755874E-01
-0.1290982937208E-02 -0.1777080983725E-01
-0.2097212396431E-03 -0.1850872273646E-01
 0.1222090426738E-02 -0.1931039061866E-01
 0.3005607302226E-02 -0.2025538457519E-01
 0.1461940099974E-03 -0.3410002292480E-03
 0.2769530587684E-03 -0.6953975990445E-03
 0.3721737305468E-03 -0.1053422454044E-02
 0.4290855238061E-03 -0.1408199613590E-02
 0.4517915782145E-03 -0.1759098578860E-02
 0.4445316649449E-03 -0.2107875176709E-02
 0.4106009933427E-03 -0.2456434945053E-02
 0.3525614559307E-03 -0.2806456919070E-02
 0.2724438298168E-03 -0.3159402984109E-02
 0.1718895576005E-03 -0.3516569794571E-02
 0.5225237146211E-04 -0.3879151585139E-02
-0.8532882689277E-04 -0.4248293019156E-02
-0.2398794439622E-03 -0.4625144354251E-02
-0.4105483829487E-03 -0.5010902536890E-02
-0.5965620860457E-03 -0.5406822205388E-02
-0.7972191023445E-03 -0.5814301490537E-02
-0.1011809069933E-02 -0.6234811833777E-02
-0.1239471990403E-02 -0.6669823517811E-02
-0.1478821288887E-02 -0.7120598240971E-02
-0.1727315744580E-02 -0.7587869888937E-02
-0.1980644510306E-02 -0.8071424989348E-02
-0.2233621800761E-02 -0.8570987430209E-02
-0.2481111251696E-02 -0.9086678441634E-02
-0.2718261707328E-02 -0.9618898716358E-02
-0.2940291809403E-02 -0.1016814549070E-01
-0.3142120956013E-02 -0.1073492292554E-01
-0.3318017065799E-02 -0.1131973482331E-01
-0.3461319771542E-02 -0.1192314594383E-01
-0.3564264779992E-02 -0.1254588753350E-01
-0.3617950156535E-02 -0.1318903583283E-01
-0.3612384318336E-02 -0.1385388133825E-01
-0.3536098192291E-02 -0.1454124549507E-01
-0.3374954655973E-02 -0.1525159608106E-01
-0.3110565923445E-02 -0.1598506764564E-01
-0.2717845394419E-02 -0.1674139056579E-01
-0.2160935914283E-02 -0.1751991466094E-01
-0.1386117915988E-02 -0.1832029929222E-01
-0.3109459034196E-03 -0.1914781173888E-01
 0.1175617450430E-02 -0.2003615038900E-01
 0.3139414278707E-02 -0.2108569928781E-01
 0.1597257956239E-03 -0.3455596547898E-03
 0.3015669530544E-03 -0.7035333602613E-03
 0.4013336654240E-03 -0.1060308234416E-02
 0.4598576756935E-03 -0.1409728728060E-02
 0.4835118597771E-03 -0.1753604596176E-02
 0.4771102105530E-03 -0.2094888999007E-02
 0.4441038126380E-03 -0.2435923164064E-02
 0.3871155714346E-03 -0.2778594524084E-02
 0.3081936893535E-03 -0.3124464109456E-02
 0.2089834751643E-03 -0.3474879175522E-02
 0.9083842967739E-04 -0.3831066362198E-02
-0.4510363034695E-04 -0.4194199349070E-02
-0.1978691015202E-03 -0.4565464192355E-02
-0.3666086455140E-03 -0.4946109806787E-02
-0.5505542830849E-03 -0.5337471725080E-02
-0.7490216861242E-03 -0.5741079030578E-02
-0.9613540094362E-03 -0.6158626327982E-02
-0.1186829886777E-02 -0.6591947086688E-02
-0.1424294526150E-02 -0.7042799665813E-02
-0.1671395241426E-02 -0.7512433616932E-02
-0.1923809322327E-02 -0.8000945739615E-02
-0.2176242752033E-02 -0.8508193886600E-02
-0.2423531088997E-02 -0.9034353227070E-02
-0.2660916942669E-02 -0.9579868223106E-02
-0.2883792918065E-02 -0.1014533136760E-01
-0.3087290710217E-02 -0.1073143468105E-01
-0.3265906282783E-02 -0.1133897474804E-01
-0.3413202868091E-02 -0.1196890430892E-01
-0.3521612341834E-02 -0.1262243308599E-01
-0.3582427534934E-02 -0.1330124127419E-01
-0.3585976550798E-02 -0.1400741373223E-01
-0.3521346238042E-02 -0.1474280980241E-01
-0.3375153664285E-02 -0.1550926897757E-01
-0.3129953119644E-02 -0.1630874924576E-01
-0.2761749544739E-02 -0.1714325945787E-01
-0.2235542312062E-02 -0.1801465437884E-01
-0.1496871820611E-02 -0.1892433873372E-01
-0.4531457260388E-03 -0.1987366073728E-01
 0.1054793289089E-02 -0.2088356564560E-01
 0.3205196060268E-02 -0.2206996719039E-01
 0.1763280076166E-03 -0.3543752067792E-03
 0.3293609971283E-03 -0.7177263098101E-03
 0.4318415710543E-03 -0.1071691324662E-02
 0.4909945898513E-03 -0.1413788460838E-02
 0.5152136531996E-03 -0.1749360603664E-02
 0.5094781442169E-03 -0.2082231003523E-02
 0.4773118302590E-03 -0.2415032132588E-02
 0.4213509964505E-03 -0.2749785089497E-02
 0.3436363600019E-03 -0.3088089887080E-02
 0.2458061811539E-03 -0.3431307107611E-02
 0.1292080174432E-03 -0.3780666857267E-02
-0.5023202207107E-05 -0.4137348397770E-02
-0.1559140155010E-03 -0.4502551880353E-02
-0.3226130643635E-03 -0.4877555626057E-02
-0.5043500365231E-03 -0.5263749971145E-02
-0.7004416998567E-03 -0.5662761574063E-02
-0.9102531110677E-03 -0.6076470864611E-02
-0.1133165418290E-02 -0.6507071557551E-02
-0.1368260237436E-02 -0.6956911002078E-02
-0.1613414273790E-02 -0.7427937489512E-02
-0.1864317776377E-02 -0.7920714334600E-02
-0.2115581545662E-02 -0.8435271216044E-02
-0.2362035363112E-02 -0.8971773087620E-02
-0.2599033863608E-02 -0.9530617481838E-02
-0.2822148328999E-02 -0.1011243382785E-01
-0.3026720243241E-02 -0.1071809577174E-01
-0.3207476641296E-02 -0.1134873636797E-01
-0.3358221630282E-02 -0.1200577417985E-01
-0.3471599294619E-02 -0.1269097867339E-01
-0.3539086661405E-02 -0.1340669761691E-01
-0.3551320491746E-02 -0.1415588304945E-01
-0.3497976329688E-02 -0.1494159293081E-01
-0.3366521887754E-02 -0.1576739469923E-01
-0.3140668907937E-02 -0.1663774937301E-01
-0.2798113731446E-02 -0.1755826298825E-01
-0.2306099329339E-02 -0.1853559672134E-01
-0.1612779378178E-02 -0.1957769447111E-01
-0.6267308590501E-03 -0.2069115954542E-01
 0.8474396442733E-03 -0.2188184650036E-01
 0.3161545216869E-02 -0.2326145439919E-01
 0.1978334282409E-03 -0.3708888369773E-03
 0.3605680606121E-03 -0.7407285654526E-03
 0.4630418365325E-03 -0.1088017506872E-02
 0.5221194488148E-03 -0.1420353088887E-02
 0.5466398708372E-03 -0.1746303514013E-02
 0.5414336110804E-03 -0.2069776936126E-02
 0.5100697233564E-03 -0.2393642050545E-02
 0.4551358705991E-03 -0.2719913550985E-02
 0.3786541410325E-03 -0.3050175317891E-02
 0.2822455279988E-03 -0.3385757995772E-02
 0.1672483070908E-03 -0.3727865654833E-02
 0.3479329722265E-04 -0.4077658783786E-02
-0.1141452604091E-03 -0.4436329218708E-02
-0.2787109214808E-03 -0.4805160844735E-02
-0.4581245775760E-03 -0.5185569999072E-02
-0.6516913222689E-03 -0.5579241538745E-02
-0.8587661323762E-03 -0.5988180448010E-02
-0.1078772724643E-02 -0.6414885115559E-02
-0.1311000083165E-02 -0.6862365245791E-02
-0.1553586469911E-02 -0.7333538740749E-02
-0.1802277887138E-02 -0.7829706662492E-02
-0.2051635989778E-02 -0.8351126428058E-02
-0.2296531147292E-02 -0.8897827386517E-02
-0.2532447992192E-02 -0.9470006674634E-02
-0.2755126404785E-02 -0.1006823826879E-01
-0.2960097126834E-02 -0.1069356000110E-01
-0.3142304728437E-02 -0.1134748844422E-01
-0.3295805888833E-02 -0.1203200591129E-01
-0.3413483760926E-02 -0.1274954605796E-01
-0.3486988364437E-02 -0.1350316336434E-01
-0.3507218066995E-02 -0.1429665663537E-01
-0.3464406291260E-02 -0.1513433688992E-01
-0.3346849142204E-02 -0.1602176302805E-01
-0.3139488411370E-02 -0.1696650628772E-01
-0.2821861264048E-02 -0.1797886102822E-01
-0.2364655653358E-02 -0.1907299516061E-01
-0.1720260784870E-02 -0.2026758686779E-01
-0.8084204336217E-03 -0.2159131237101E-01
 0.5575305263127E-03 -0.2306019571131E-01
 0.2939706555994E-02 -0.2474746033423E-01
 0.2275549733285E-03 -0.4032996781491E-03
 0.3941417514604E-03 -0.7755222462586E-03
 0.4938894316287E-03 -0.1108639512447E-02
 0.5529210231100E-03 -0.1429452934256E-02
 0.5774704243227E-03 -0.1744207884163E-02
 0.5727810661638E-03 -0.2057360681415E-02
 0.5422174626818E-03 -0.2371595926666E-02
 0.4883397402691E-03 -0.2688846340063E-02
 0.4131301802067E-03 -0.3010605468799E-02
 0.3181904855226E-03 -0.3338133646103E-02
 0.2048472261517E-03 -0.3672578642310E-02
 0.7422699202144E-04 -0.4015058122194E-02
-0.7269435301726E-04 -0.4366733191296E-02
-0.2350530951814E-03 -0.4728869183948E-02
-0.4120569420944E-03 -0.5102878345924E-02
-0.6029906249366E-03 -0.5490461209624E-02
-0.8071782011734E-03 -0.5893674360956E-02
-0.1024011552456E-02 -0.6315181968169E-02
-0.1252894075727E-02 -0.6758630823196E-02
-0.1492210852128E-02 -0.7228313453477E-02
-0.1737838261965E-02 -0.7726773843203E-02
-0.1984410333635E-02 -0.8254569447924E-02
-0.2226923542474E-02 -0.8811350429638E-02
-0.2461001486667E-02 -0.9396868525926E-02
-0.2682517090285E-02 -0.1001150938985E-01
-0.2887145317875E-02 -0.1065644865900E-01
-0.3070012440815E-02 -0.1133363612905E-01
-0.3225423317242E-02 -0.1204573781246E-01
-0.3346547969118E-02 -0.1279602016501E-01
-0.3425234055231E-02 -0.1358828217910E-01
-0.3452568139102E-02 -0.1442697765952E-01
-0.3419214184748E-02 -0.1531754598056E-01
-0.3314171073847E-02 -0.1626770563281E-01
-0.3123426672722E-02 -0.1728853199242E-01
-0.2828417776281E-02 -0.1839584895171E-01
-0.2402513870467E-02 -0.1961278089660E-01
-0.1806374051768E-02 -0.2097502598160E-01
-0.9623198420993E-03 -0.2253772404202E-01
 0.2416024385634E-03 -0.2441407392575E-01
 0.2447487970158E-02 -0.2667085436831E-01
-0.6009248415003E-01 -0.3218156108476E-01
-0.1015071074074E+00 -0.4771828561407E-01
-0.1384518024540E+00 -0.6570502534468E-01
-0.1715352870410E+00 -0.8595220508211E-01
-0.2012842303986E+00 -0.1082040448007E+00
-0.2281677940280E+00 -0.1321767781676E+00
-0.2526001402332E+00 -0.1575791829758E+00
-0.2749341742593E+00 -0.1841232298512E+00
-0.2954519777766E+00 -0.2115317302419E+00
-0.3143617251803E+00 -0.2395476291688E+00
-0.3318052166204E+00 -0.2679447326532E+00
-0.3478697595480E+00 -0.2965206457300E+00
-0.3626553717962E+00 -0.3250998815247E+00
-0.3762715224377E+00 -0.3535375191152E+00
-0.3887767032258E+00 -0.3816967018960E+00
-0.4001725475609E+00 -0.4094322527295E+00
-0.4103839732908E+00 -0.4365777937412E+00
-0.4192587194114E+00 -0.4629470366871E+00
-0.4265261280671E+00 -0.4883205181497E+00
-0.5842672809718E-01 -0.3167222412320E-01
-0.9852877031427E-01 -0.4718926130786E-01
-0.1342375861702E+00 -0.6531648706491E-01
-0.1661950208233E+00 -0.8584425834357E-01
-0.1949417456963E+00 -0.1085037595038E+00
-0.2209492883350E+00 -0.1330017907903E+00
-0.2446281250796E+00 -0.1590406317260E+00
-0.2663252485498E+00 -0.1863281895897E+00
-0.2863172457539E+00 -0.2145853095923E+00
-0.3048075762745E+00 -0.2435545332645E+00
-0.3219345762881E+00 -0.2730083831568E+00
-0.3377875715228E+00 -0.3027453063721E+00
-0.3524610329055E+00 -0.3325904194860E+00
-0.3660522333263E+00 -0.3623950195346E+00
-0.3786139129585E+00 -0.3920179794885E+00
-0.3901441982408E+00 -0.4213102067413E+00
-0.4005684827605E+00 -0.4501024372572E+00
-0.4097317092621E+00 -0.4781953559166E+00
-0.4174055323828E+00 -0.5053090881407E+00
-0.5665818876936E-01 -0.3118613401864E-01
-0.9537734374099E-01 -0.4669488373323E-01
-0.1297970419597E+00 -0.6498218564598E-01
-0.1605834402294E+00 -0.8580914727720E-01
-0.1882880023556E+00 -0.1088916500432E+00
-0.2133826066895E+00 -0.1339269554413E+00
-0.2362727495891E+00 -0.1606113683897E+00
-0.2572986680395E+00 -0.1886495209164E+00
-0.2767308004577E+00 -0.2177612626398E+00
-0.2947678049239E+00 -0.2476894157737E+00
-0.3115448212874E+00 -0.2782070619597E+00
-0.3271517217672E+00 -0.3091147547544E+00
-0.3416776995600E+00 -0.3402392518209E+00
-0.3552099053887E+00 -0.3714302724468E+00
-0.3677959181764E+00 -0.4025439563361E+00
-0.3794316230747E+00 -0.4334281262624E+00
-0.3900438824063E+00 -0.4639082431846E+00
-0.3994890877912E+00 -0.4937694173341E+00
-0.4075564652778E+00 -0.5227500992967E+00
-0.5478693769952E-01 -0.3072379115933E-01
-0.9205101787633E-01 -0.4623513294786E-01
-0.1251274463618E+00 -0.6469640704412E-01
-0.1546986254802E+00 -0.8583652517248E-01
-0.1813221277229E+00 -0.1093532305795E+00
-0.2054678253251E+00 -0.1349336770185E+00
-0.2275347715140E+00 -0.1622685411220E+00
-0.2478554833638E+00 -0.1910599424010E+00
-0.2666935960318E+00 -0.2210276010514E+00
-0.2842426702658E+00 -0.2519157414093E+00
-0.3006345740513E+00 -0.2834994246819E+00
-0.3159586645332E+00 -0.3155824002393E+00
-0.3302991735703E+00 -0.3479941216147E+00
-0.3437348823221E+00 -0.3805843919499E+00
-0.3563091574153E+00 -0.4132082291462E+00
-0.3680168256526E+00 -0.4457116064539E+00
-0.3787894486924E+00 -0.4779166717829E+00
-0.3884916883521E+00 -0.5096121385868E+00
-0.3969168716578E+00 -0.5405553637050E+00
-0.5281318919183E-01 -0.3028504238287E-01
-0.8854955465826E-01 -0.4580850326020E-01
-0.1202284165972E+00 -0.6445418178306E-01
-0.1485407414640E+00 -0.8591687493577E-01
-0.1740452726828E+00 -0.1098745961778E+00
-0.1972070425145E+00 -0.1360036751811E+00
-0.2184169973441E+00 -0.1639893784212E+00
-0.2379988543698E+00 -0.1935319812604E+00
-0.2562086944489E+00 -0.2243519756215E+00
-0.2732345415296E+00 -0.2561960527884E+00
-0.2892047560311E+00 -0.2888425093472E+00
-0.3042073737799E+00 -0.3220992465664E+00
-0.3183220253834E+00 -0.3557993738268E+00
-0.3316206225063E+00 -0.3897943129959E+00
-0.3441432167197E+00 -0.4239397615891E+00
-0.3558848322199E+00 -0.4580822727062E+00
-0.3667813836445E+00 -0.4920471470059E+00
-0.3767024341483E+00 -0.5256324039208E+00
-0.3854396546326E+00 -0.5586133033113E+00
-0.5073769865178E-01 -0.2986944714874E-01
-0.8487408531444E-01 -0.4541326217786E-01
-0.1151015096218E+00 -0.6425066296238E-01
-0.1421120682926E+00 -0.8604125933223E-01
-0.1664606744777E+00 -0.1104423552110E+00
-0.1886044519681E+00 -0.1371190168555E+00
-0.2089243664799E+00 -0.1657512593535E+00
-0.2277341253895E+00 -0.1960381175118E+00
-0.2452814062995E+00 -0.2277016897273E+00
-0.2617481513562E+00 -0.2604921109256E+00
-0.2772588802421E+00 -0.2941919911072E+00
-0.2918996912343E+00 -0.3286142429547E+00
-0.3057459682269E+00 -0.3635965573072E+00
-0.3188639524673E+00 -0.3989934905484E+00
-0.3312911245701E+00 -0.4346634879447E+00
-0.3430229986446E+00 -0.4704570401669E+00
-0.3539988484962E+00 -0.5062066523530E+00
-0.3640909475778E+00 -0.5417225410690E+00
-0.3730875577278E+00 -0.5767958263338E+00
-0.4856187821668E-01 -0.2947657935880E-01
-0.8102705459938E-01 -0.4504764811604E-01
-0.1097500722653E+00 -0.6408118475773E-01
-0.1354169116487E+00 -0.8620111903242E-01
-0.1585736765419E+00 -0.1110435672881E+00
-0.1796663925041E+00 -0.1382621372718E+00
-0.1990640229774E+00 -0.1675317967848E+00
-0.2170689336793E+00 -0.1985508779579E+00
-0.2339194624519E+00 -0.2310438280184E+00
-0.2497908438761E+00 -0.2647650779385E+00
-0.2648033607575E+00 -0.2995024658691E+00
-0.2790406833645E+00 -0.3350746917881E+00
-0.2925742416047E+00 -0.3713249382403E+00
-0.3054655031150E+00 -0.4081123947220E+00
-0.3177497592136E+00 -0.4453004262948E+00
-0.3294228833849E+00 -0.4827462271448E+00
-0.3404265731126E+00 -0.5202922546302E+00
-0.3506347454790E+00 -0.5577622526741E+00
-0.3598326158676E+00 -0.5949620646958E+00
-0.4628785282307E-01 -0.2910608715867E-01
-0.7701220038064E-01 -0.4470998148172E-01
-0.1041791599916E+00 -0.6394127315565E-01
-0.1284615296313E+00 -0.8638823294244E-01
-0.1503916938286E+00 -0.1116657097082E+00
-0.1704013444386E+00 -0.1394158845133E+00
-0.1888453282806E+00 -0.1693089392991E+00
-0.2060132454057E+00 -0.2010429903097E+00
-0.2221330856925E+00 -0.2343454684736E+00
-0.2373726884467E+00 -0.2689758163375E+00
-0.2518476571190E+00 -0.3047278596524E+00
-0.2656388131040E+00 -0.3414267779437E+00
-0.2788138312514E+00 -0.3789221138807E+00
-0.2914299972505E+00 -0.4170790994051E+00
-0.3035205436889E+00 -0.4557679057169E+00
-0.3150814249565E+00 -0.4948545529357E+00
-0.3260561041329E+00 -0.5341932078481E+00
-0.3363198608468E+00 -0.5736218823143E+00
-0.3456563104082E+00 -0.6129606694902E+00
-0.4391847777916E-01 -0.2875770982505E-01
-0.7283453252218E-01 -0.4439869783580E-01
-0.9839548216231E-01 -0.6382666169375E-01
-0.1212540784540E+00 -0.8659470822651E-01
-0.1419241858326E+00 -0.1122966832220E+00
-0.1608199361657E+00 -0.1405635681068E+00
-0.1782799008637E+00 -0.1710610753952E+00
-0.1945794309451E+00 -0.2034875420819E+00
-0.2099351085086E+00 -0.2375739060762E+00
-0.2245066429382E+00 -0.2730851942286E+00
-0.2384044773999E+00 -0.3098218276963E+00
-0.2517061932417E+00 -0.3476160574948E+00
-0.2644758006916E+00 -0.3863245642630E+00
-0.2767667525736E+00 -0.4258198235436E+00
-0.2886102059644E+00 -0.4659803119869E+00
-0.3000019187548E+00 -0.5066823790720E+00
-0.3108867500707E+00 -0.5477929805958E+00
-0.3211415767189E+00 -0.5891647378852E+00
-0.3305503689225E+00 -0.6306317983899E+00
-0.4145733927504E-01 -0.2843127371566E-01
-0.6850030429273E-01 -0.4411235794736E-01
-0.9240734650427E-01 -0.6373330266368E-01
-0.1138045480980E+00 -0.8681299434071E-01
-0.1331826013183E+00 -0.1129248460111E+00
-0.1509349068492E+00 -0.1416890352175E+00
-0.1673815994699E+00 -0.1727671655301E+00
-0.1827822705737E+00 -0.2058581787253E+00
-0.1973410040517E+00 -0.2406969287873E+00
-0.2112086116279E+00 -0.2770544542154E+00
-0.2244898630958E+00 -0.3147382255522E+00
-0.2372587138141E+00 -0.3535880331217E+00
-0.2495755014580E+00 -0.3934683272218E+00
-0.2614900192130E+00 -0.4342597631143E+00
-0.2730312628728E+00 -0.4758502109377E+00
-0.2841945828608E+00 -0.5181273204106E+00
-0.2949261222455E+00 -0.5609713795553E+00
-0.3051049479103E+00 -0.6042495725595E+00
-0.3145175891565E+00 -0.6478096751088E+00
-0.3890874121646E-01 -0.2812668067330E-01
-0.6401697489093E-01 -0.4384964659013E-01
-0.8622460221378E-01 -0.6365737670252E-01
-0.1061246997047E+00 -0.8703590623483E-01
-0.1241803244511E+00 -0.1135390619672E+00
-0.1407610707778E+00 -0.1427767587572E+00
-0.1561665103705E+00 -0.1744068836612E+00
-0.1706389669678E+00 -0.2081293102093E+00
-0.1843689258568E+00 -0.2436831014284E+00
-0.1974975140725E+00 -0.2808455870834E+00
-0.2101232902658E+00 -0.3194315821316E+00
-0.2223161931112E+00 -0.3592887356958E+00
-0.2341328009857E+00 -0.4002897165977E+00
-0.2456193022153E+00 -0.4423240089090E+00
-0.2568024267173E+00 -0.4852895725251E+00
-0.2676770009239E+00 -0.5290858679482E+00
-0.2781905681482E+00 -0.5736066055190E+00
-0.2882252620843E+00 -0.6187330841063E+00
-0.2975725622608E+00 -0.6643258683349E+00
-0.3627768043561E-01 -0.2784389384298E-01
-0.5939315758004E-01 -0.4360936775093E-01
-0.7985856695560E-01 -0.6359530360868E-01
-0.9822798207603E-01 -0.8725665620429E-01
-0.1149325919007E+00 -0.1141287628545E+00
-0.1303152430279E+00 -0.1438119422095E+00
-0.1446528858907E+00 -0.1759607777356E+00
-0.1581690985137E+00 -0.2102763401577E+00
-0.1710396772252E+00 -0.2465020768900E+00
-0.1833952723468E+00 -0.2844217390736E+00
-0.1953276786803E+00 -0.3238576170068E+00
-0.2069024219620E+00 -0.3646653728116E+00
-0.2181721771791E+00 -0.4067261406075E+00
-0.2291795080490E+00 -0.4499385971166E+00
-0.2399487858125E+00 -0.4942111296290E+00
-0.2504743009549E+00 -0.5394551237335E+00
-0.2607053174937E+00 -0.5855774179259E+00
-0.2705281566555E+00 -0.6324726289712E+00
-0.2797417698356E+00 -0.6800129441838E+00
-0.3356981597687E-01 -0.2758292328641E-01
-0.5463856212345E-01 -0.4339043921110E-01
-0.7332194989428E-01 -0.6354375465932E-01
-0.9012944468685E-01 -0.8746889042127E-01
-0.1054564048840E+00 -0.1146840173023E+00
-0.1196161570380E+00 -0.1447806316133E+00
-0.1328610710163E+00 -0.1774104366193E+00
-0.1453945562512E+00 -0.2122759005275E+00
-0.1573766590786E+00 -0.2491249123960E+00
-0.1689267708558E+00 -0.2877476249894E+00
-0.1801293661887E+00 -0.3279737683749E+00
-0.1910451602952E+00 -0.3696669980074E+00
-0.2017227427561E+00 -0.4127169528882E+00
-0.2122009900180E+00 -0.4570315957347E+00
-0.2225018505014E+00 -0.5025297593321E+00
-0.2326191696956E+00 -0.5491345337575E+00
-0.2425044294489E+00 -0.5967652840966E+00
-0.2520494532927E+00 -0.6453289035837E+00
-0.2610632587236E+00 -0.6947078485391E+00
-0.3079143003240E-01 -0.2734381207153E-01
-0.4976392595487E-01 -0.4319188751349E-01
-0.6662876228112E-01 -0.6349966645594E-01
-0.8184563671124E-01 -0.8766672877542E-01
-0.9577042444476E-01 -0.1151956043975E+00
-0.1086843614886E+00 -0.1456698324071E+00
-0.1208134045357E+00 -0.1787386613201E+00
-0.1323394499028E+00 -0.2141060897655E+00
-0.1434057806360E+00 -0.2515243888208E+00
-0.1541197714712E+00 -0.2907899453262E+00
-0.1645580287038E+00 -0.3317397285520E+00
-0.1747760645597E+00 -0.3742451929802E+00
-0.1848181791920E+00 -0.4182043198617E+00
-0.1947194774938E+00 -0.4635342030571E+00
-0.2044994558534E+00 -0.5101638612762E+00
-0.2141516965982E+00 -0.5580275949199E+00
-0.2236305350485E+00 -0.6070564686272E+00
-0.2328347437676E+00 -0.6571684725402E+00
-0.2415860146212E+00 -0.7082549229850E+00
-0.2794938144826E-01 -0.2712662344656E-01
-0.4478093486202E-01 -0.4301284395083E-01
-0.5979421597111E-01 -0.6346025609919E-01
-0.7339449222828E-01 -0.8784480652314E-01
-0.8589485017588E-01 -0.1156550891716E+00
-0.9754209677730E-01 -0.1464676274942E+00
-0.1085340949488E+00 -0.1799296360598E+00
-0.1190299829099E+00 -0.2157467091117E+00
-0.1291553322038E+00 -0.2536753266572E+00
-0.1390047822634E+00 -0.2935177993302E+00
-0.1486465428172E+00 -0.3351179757340E+00
-0.1581305426805E+00 -0.3783547461043E+00
-0.1674965786518E+00 -0.4231340810788E+00
-0.1767758909808E+00 -0.4693818291699E+00
-0.1859855274289E+00 -0.5170367003725E+00
-0.1951190583934E+00 -0.5660434967540E+00
-0.2041343993954E+00 -0.6163440051755E+00
-0.2129387814178E+00 -0.6678660853213E+00
-0.2213691330329E+00 -0.7205085570247E+00
-0.2505105501072E-01 -0.2693142946968E-01
-0.3970213761423E-01 -0.4285254187857E-01
-0.5283461467628E-01 -0.6342303728517E-01
-0.6479520631216E-01 -0.8799831628043E-01
-0.7585128670132E-01 -0.1160548974300E+00
-0.8621315472402E-01 -0.1471632930165E+00
-0.9604907372015E-01 -0.1809690947957E+00
-0.1054942975866E+00 -0.2171794917003E+00
-0.1146558193127E+00 -0.2555548920453E+00
-0.1236148768587E+00 -0.2959030855144E+00
-0.1324307858487E+00 -0.3380742905254E+00
-0.1411475298752E+00 -0.3819543116051E+00
-0.1498001870597E+00 -0.4274565824081E+00
-0.1584160371570E+00 -0.4745151365339E+00
-0.1670097062703E+00 -0.5230776866644E+00
-0.1755750450995E+00 -0.5730986661868E+00
-0.1840743143697E+00 -0.6245295185755E+00
-0.1924247035547E+00 -0.6773067664282E+00
-0.2004808289192E+00 -0.7313355128610E+00
-0.2210430062363E-01 -0.2675830083864E-01
-0.3454084533342E-01 -0.4271031489817E-01
-0.4576722687138E-01 -0.6338583641495E-01
-0.5606809040633E-01 -0.8812304877758E-01
-0.6566258700061E-01 -0.1163883875325E+00
-0.7472271223700E-01 -0.1477474085122E+00
-0.8338581899563E-01 -0.1818444787321E+00
-0.9176228644253E-01 -0.2183883184617E+00
-0.9993975763482E-01 -0.2571428846740E+00
-0.1079854677168E+00 -0.2979208782641E+00
-0.1159493811221E+00 -0.3405782414322E+00
-0.1238691987060E+00 -0.3850070279865E+00
-0.1317750686094E+00 -0.4311274543995E+00
-0.1396902123983E+00 -0.4788810054715E+00
-0.1476268714143E+00 -0.5282235514751E+00
-0.1555794777286E+00 -0.5791181689478E+00
-0.1635153862608E+00 -0.6315248505047E+00
-0.1713631639965E+00 -0.6853876422759E+00
-0.1789973822063E+00 -0.7406169025216E+00
-0.1911737011115E-01 -0.2660729853885E-01
-0.2931102769187E-01 -0.4258559626403E-01
-0.3861015515177E-01 -0.6334680835970E-01
-0.4723442327583E-01 -0.8821543102174E-01
-0.5535268944995E-01 -0.1166499166620E+00
-0.6309715565144E-01 -0.1482119578761E+00
-0.7057316568561E-01 -0.1825450800914E+00
-0.7786538421365E-01 -0.2193594148430E+00
-0.8504144142565E-01 -0.2584220000653E+00
-0.9215404402422E-01 -0.2995497711468E+00
-0.9924339709889E-01 -0.3426036276252E+00
-0.1063406102957E+00 -0.3874810815374E+00
-0.1134706975115E+00 -0.4341083194801E+00
-0.1206527200932E+00 -0.4824334068878E+00
-0.1278965655305E+00 -0.5324194025711E+00
-0.1351975243501E+00 -0.5840369541781E+00
-0.1425287262243E+00 -0.6372534849801E+00
-0.1498313847289E+00 -0.6920195178536E+00
-0.1570020341511E+00 -0.7482498563397E+00
-0.1609884837886E-01 -0.2647846705637E-01
-0.2402720050051E-01 -0.4247791908848E-01
-0.3138219502830E-01 -0.6330445113272E-01
-0.3831628956509E-01 -0.8827256070932E-01
-0.4494644023528E-01 -0.1168348999388E+00
-0.5136388753325E-01 -0.1485504188933E+00
-0.5764109426853E-01 -0.1830621691761E+00
-0.6383633387760E-01 -0.2200815243542E+00
-0.6999668004033E-01 -0.2593780608043E+00
-0.7615987042389E-01 -0.3007721795197E+00
-0.8235599874958E-01 -0.3441288690435E+00
-0.8860930791037E-01 -0.3893502021019E+00
-0.9493948175534E-01 -0.4363674122889E+00
-0.1013613107592E+00 -0.4851341642048E+00
-0.1078823374661E+00 -0.5356196393766E+00
-0.1144989332250E+00 -0.5878009249372E+00
-0.1211905668915E+00 -0.6416517616734E+00
-0.1279121545753E+00 -0.6971282005896E+00
-0.1345838678842E+00 -0.7541488975541E+00
-0.1305758050440E-01 -0.2637182927256E-01
-0.1870430713901E-01 -0.4238691724089E-01
-0.2410268620465E-01 -0.6325761894141E-01
-0.2933640948609E-01 -0.8829223578508E-01
-0.3446940513115E-01 -0.1169398605916E+00
-0.3955112044241E-01 -0.1487578387723E+00
-0.4462050335755E-01 -0.1833891012085E+00
-0.4970893231138E-01 -0.2205460542626E+00
-0.5484250891105E-01 -0.2600002105677E+00
-0.6004365387538E-01 -0.3015745944512E+00
-0.6533205961655E-01 -0.3451373337078E+00
-0.7072486289962E-01 -0.3905940787248E+00
-0.7623623077692E-01 -0.4378800987709E+00
-0.8187655895973E-01 -0.4869535889496E+00
-0.8765101774324E-01 -0.5377887130606E+00
-0.9355720061756E-01 -0.5903678221671E+00
-0.9958132352084E-01 -0.6446698705175E+00
-0.1056927933517E+00 -0.7006555745235E+00
-0.1118366912984E+00 -0.7582470391716E+00
-0.1000259569777E-01 -0.2628738307413E-01
-0.1335759525031E-01 -0.4231232680106E-01
-0.1679135807022E-01 -0.6320553315396E-01
-0.2031796166596E-01 -0.8827297825635E-01
-0.2394767304584E-01 -0.1169624697831E+00
-0.2768766054159E-01 -0.1488308936632E+00
-0.3154296953235E-01 -0.1835214001889E+00
-0.3551775985928E-01 -0.2207471897388E+00
-0.3961688019902E-01 -0.2602810660560E+00
-0.4384718502147E-01 -0.3019477815974E+00
-0.4821774235368E-01 -0.3456175941936E+00
-0.5273838246596E-01 -0.3911986853898E+00
-0.5741757837961E-01 -0.4386292828165E+00
-0.6226119017804E-01 -0.4878709781221E+00
-0.6727194157529E-01 -0.5389017202854E+00
-0.7244868845087E-01 -0.5917079134458E+00
-0.7778461415531E-01 -0.6462726238206E+00
-0.8326409418868E-01 -0.7025604298951E+00
-0.8885793227147E-01 -0.7604966214105E+00
-0.6943028595049E-02 -0.2622509969239E-01
-0.8002489308767E-02 -0.4225398794436E-01
-0.9468170054833E-02 -0.6314779081526E-01
-0.1128439987867E-01 -0.8821405157920E-01
-0.1340765226047E-01 -0.1169015750200E+00
-0.1580268234356E-01 -0.1487679306276E+00
-0.1844049627459E-01 -0.1834568176610E+00
-0.2129789638937E-01 -0.2206819736060E+00
-0.2435833665463E-01 -0.2602168230591E+00
-0.2761295877926E-01 -0.3018869201330E+00
-0.3106005386501E-01 -0.3455636070814E+00
-0.3470198698031E-01 -0.3911565093912E+00
-0.3854137024378E-01 -0.4386056919767E+00
-0.4257936831301E-01 -0.4878749645000E+00
-0.4681613073741E-01 -0.5389448224768E+00
-0.5125170271925E-01 -0.5918044805427E+00
-0.5588624787228E-01 -0.6464400038298E+00
-0.6071924857568E-01 -0.7028190519539E+00
-0.6574754518379E-01 -0.7608699082568E+00
-0.3888039065596E-02 -0.2618492380379E-01
-0.2654460890270E-02 -0.4221184719370E-01
-0.2153149117725E-02 -0.6308437047240E-01
-0.2259266347228E-02 -0.8811547114474E-01
-0.2875862535299E-02 -0.1167572163918E+00
-0.3925498382906E-02 -0.1485689909500E+00
-0.5345256561958E-02 -0.1831953648335E+00
-0.7084629342457E-02 -0.2203503495883E+00
-0.9105675338922E-02 -0.2598073138546E+00
-0.1138378216181E-01 -0.3013916780984E+00
-0.1390638457306E-01 -0.3449748107997E+00
-0.1666826799677E-01 -0.3904666767889E+00
-0.1966602867877E-01 -0.4378080359075E+00
-0.2289595746855E-01 -0.4869637131718E+00
-0.2635544809590E-01 -0.5379154843075E+00
-0.3004554533609E-01 -0.5906541009910E+00
-0.3397319087842E-01 -0.6451674838247E+00
-0.3815275899954E-01 -0.7014255711674E+00
-0.4260691939453E-01 -0.7593594507710E+00
-0.8467317509420E-03 -0.2616677540318E-01
 0.2671101464450E-02 -0.4218596000494E-01
 0.5133773273771E-02 -0.6301563520027E-01
 0.6733995594886E-02 -0.8797800765712E-01
 0.7621273618478E-02 -0.1165306303017E+00
 0.7914672245892E-02 -0.1482358142911E+00
 0.7710666128412E-02 -0.1827393173427E+00
 0.7086840478134E-02 -0.2197551680593E+00
 0.6102391841153E-02 -0.2590560145794E+00
 0.4797622309680E-02 -0.3004662223576E+00
 0.3195958259636E-02 -0.3438561395277E+00
 0.1310261488751E-02 -0.3891349720403E+00
-0.8499075858513E-03 -0.4362430340874E+00
-0.3275771823037E-02 -0.4851449604759E+00
-0.5961738356804E-02 -0.5358225276378E+00
-0.8909551254400E-02 -0.5882667207486E+00
-0.1213251889097E-01 -0.6424661216344E+00
-0.1565934169443E-01 -0.6983920760013E+00
-0.1953778641743E-01 -0.7559782087904E+00
 0.2171924117811E-02 -0.2617055344227E-01
 0.7959022046209E-02 -0.4217649368351E-01
 0.1237292384844E-01 -0.6294233283780E-01
 0.1567222853173E-01 -0.8780318343096E-01
 0.1805763928692E-01 -0.1162242407292E+00
 0.1968893482205E-01 -0.1477718237189E+00
 0.2069553609081E-01 -0.1820931926652E+00
 0.2118169218391E-01 -0.2189021542558E+00
 0.2122757648137E-01 -0.2579700024763E+00
 0.2088901196316E-01 -0.2991191629788E+00
 0.2020021600054E-01 -0.3422179528307E+00
 0.1918171578993E-01 -0.3871737512392E+00
 0.1784935223404E-01 -0.4339253118537E+00
 0.1621717555309E-01 -0.4824358938835E+00
 0.1429403452550E-01 -0.5326859989739E+00
 0.1207788074498E-01 -0.5846655158483E+00
 0.9549639885319E-02 -0.6383624241948E+00
 0.6667181862129E-02 -0.6937484890151E+00
 0.3358883484483E-02 -0.7507594455481E+00
 0.5159173548362E-02 -0.2619614123516E-01
 0.1319446578420E-01 -0.4218373067964E-01
 0.1954504788704E-01 -0.6286559358107E-01
 0.2453274528036E-01 -0.8759326188248E-01
 0.2840762825179E-01 -0.1158416384433E+00
 0.3136894591477E-01 -0.1471820921837E+00
 0.3357821865163E-01 -0.1812637009070E+00
 0.3516577187098E-01 -0.2177998398662E+00
 0.3623234443325E-01 -0.2565598641499E+00
 0.3684901019687E-01 -0.2973634334306E+00
 0.3706063338908E-01 -0.3400758826622E+00
 0.3689537304640E-01 -0.3846017506985E+00
 0.3637545461633E-01 -0.4308771662776E+00
 0.3552041120468E-01 -0.4788628736696E+00
 0.3434263986423E-01 -0.5285368501437E+00
 0.3284025232078E-01 -0.5798865414171E+00
 0.3098916426170E-01 -0.6328979804707E+00
 0.2873500491059E-01 -0.6875422043336E+00
 0.2598400760019E-01 -0.7437563957395E+00
 0.8106551453432E-02 -0.2624341358921E-01
 0.1836306121892E-01 -0.4220807232446E-01
 0.2663146367102E-01 -0.6278692519835E-01
 0.3329350634162E-01 -0.8735123076899E-01
 0.3864634207833E-01 -0.1153875490558E+00
 0.4292713083312E-01 -0.1464732916877E+00
 0.4632842217253E-01 -0.1802596706130E+00
 0.4900586630401E-01 -0.2164594600979E+00
 0.5108023068646E-01 -0.2548395575009E+00
 0.5263747399723E-01 -0.2952161099394E+00
 0.5373289149454E-01 -0.3374506018087E+00
 0.5440218677899E-01 -0.3814437955265E+00
 0.5467405206962E-01 -0.4271282066263E+00
 0.5457371172247E-01 -0.4744610004021E+00
 0.5411740744510E-01 -0.5234164344538E+00
 0.5330391181618E-01 -0.5739781676405E+00
 0.5210499372827E-01 -0.6261288595220E+00
 0.5045546650271E-01 -0.6798374809786E+00
 0.4824155117191E-01 -0.7350416992178E+00
 0.1100595841219E-01 -0.2631224571017E-01
 0.2345102403118E-01 -0.4225004316121E-01
 0.3361421794477E-01 -0.6270820623529E-01
 0.4193329828144E-01 -0.8708077981687E-01
 0.4874978721952E-01 -0.1148677908685E+00
 0.5433689927870E-01 -0.1456536264519E+00
 0.5891693559050E-01 -0.1790919513057E+00
 0.6266996867558E-01 -0.2148948184677E+00
 0.6573614207071E-01 -0.2528262303220E+00
 0.6821584422579E-01 -0.2926981739947E+00
 0.7017451768263E-01 -0.3343675189808E+00
 0.7165526808706E-01 -0.3777304145978E+00
 0.7269331439186E-01 -0.4227148765562E+00
 0.7331977481004E-01 -0.4692735351301E+00
 0.7355501565631E-01 -0.5173758233868E+00
 0.7339896815050E-01 -0.5670003041462E+00
 0.7282016430304E-01 -0.6181247705221E+00
 0.7174418705750E-01 -0.6707145842451E+00
 0.7003972355730E-01 -0.7247065864918E+00
 0.1384972818467E-01 -0.2640252370776E-01
 0.2844526806708E-01 -0.4231029580574E-01
 0.4047622638405E-01 -0.6263167756421E-01
 0.5043189538057E-01 -0.8678627372523E-01
 0.5869505373802E-01 -0.1142892242099E+00
 0.6557284076682E-01 -0.1447327524711E+00
 0.7131584359333E-01 -0.1777732958170E+00
 0.7612751953990E-01 -0.2131221230764E+00
 0.8016663222729E-01 -0.2505400001390E+00
 0.8354746468828E-01 -0.2898342235963E+00
 0.8634526022498E-01 -0.3308564073367E+00
 0.8861032755782E-01 -0.3734973697518E+00
 0.9038445220626E-01 -0.4176798661570E+00
 0.9170484282291E-01 -0.4633511791585E+00
 0.9259623475319E-01 -0.5104749469628E+00
 0.9306017101309E-01 -0.5590234086260E+00
 0.9306283325427E-01 -0.6089679695082E+00
 0.9252222731610E-01 -0.6602686472348E+00
 0.9129224187204E-01 -0.7128597746193E+00
 0.1663069285572E-01 -0.2651415660784E-01
 0.3333351295216E-01 -0.4238961645496E-01
 0.4720140991709E-01 -0.6255993285049E-01
 0.5877021573757E-01 -0.8647272178608E-01
 0.6846048588878E-01 -0.1136596942899E+00
 0.7661090802867E-01 -0.1437216863394E+00
 0.8349872472900E-01 -0.1763182262644E+00
 0.8934962458659E-01 -0.2111597994290E+00
 0.9434014625342E-01 -0.2480037019770E+00
 0.9859786249734E-01 -0.2866521421818E+00
 0.1022074144386E+00 -0.3269509784166E+00
 0.1052260570650E+00 -0.3687851148148E+00
 0.1077021676952E+00 -0.4120714329411E+00
 0.1096792423447E+00 -0.4567512349712E+00
 0.1111865797678E+00 -0.5027815798187E+00
 0.1122277035208E+00 -0.5501272983158E+00
 0.1127672333750E+00 -0.5987519221649E+00
 0.1127172111172E+00 -0.6486082475742E+00
 0.1119196052208E+00 -0.6996260587445E+00
 0.1934224199630E-01 -0.2664708967545E-01
 0.3810438316910E-01 -0.4248893083332E-01
 0.5377482120866E-01 -0.6249590828548E-01
 0.6693046609822E-01 -0.8614574536565E-01
 0.7802583906356E-01 -0.1129879697648E+00
 0.8742858334425E-01 -0.1426327064021E+00
 0.9544082809137E-01 -0.1747428875325E+00
 0.1023092458522E+00 -0.2090282845203E+00
 0.1082272328124E+00 -0.2452426098449E+00
 0.1133349888878E+00 -0.2831827325533E+00
 0.1177261008393E+00 -0.3226884111700E+00
 0.1214644525451E+00 -0.3636381972365E+00
 0.1246050330529E+00 -0.4059426475506E+00
 0.1271978388279E+00 -0.4495366654752E+00
 0.1292768702887E+00 -0.4943701888708E+00
 0.1308478824789E+00 -0.5403997755780E+00
 0.1318745510735E+00 -0.5875797192728E+00
 0.1322644114895E+00 -0.6358536665232E+00
 0.1318503918315E+00 -0.6851445238677E+00
 0.2197837456442E-01 -0.2680131848460E-01
 0.4274749717373E-01 -0.4260930995078E-01
 0.6018276009438E-01 -0.6244287171531E-01
 0.7489627427275E-01 -0.8581154460535E-01
 0.8737242176614E-01 -0.1122836795499E+00
 0.9800502614748E-01 -0.1414792497179E+00
 0.1071192266084E+00 -0.1730648925873E+00
 0.1149813641469E+00 -0.2067498074395E+00
 0.1218007213364E+00 -0.2422841382488E+00
 0.1277294181157E+00 -0.2794593235828E+00
 0.1328694930121E+00 -0.3181088463785E+00
 0.1372910745958E+00 -0.3581046168110E+00
 0.1410557906719E+00 -0.3993505835819E+00
 0.1442203954767E+00 -0.4417750744123E+00
 0.1468236803657E+00 -0.4853206648985E+00
 0.1488737438227E+00 -0.5299350865447E+00
 0.1503336957029E+00 -0.5755622597010E+00
 0.1511077570048E+00 -0.6221348078041E+00
 0.1510225359039E+00 -0.6695662741950E+00
 0.2453374605088E-01 -0.2697690280928E-01
 0.4725355217487E-01 -0.4275197441036E-01
 0.6641288652532E-01 -0.6240441084556E-01
 0.8265281978931E-01 -0.8547686542543E-01
 0.9648323450445E-01 -0.1115572499129E+00
 0.1083212146201E+00 -0.1402758071162E+00
 0.1185129603570E+00 -0.1713031620004E+00
 0.1273431267115E+00 -0.2043481590695E+00
 0.1350358787856E+00 -0.2391575265537E+00
 0.1417545195196E+00 -0.2755173525782E+00
 0.1476090113407E+00 -0.3132548504264E+00
 0.1526752634594E+00 -0.3522351488989E+00
 0.1570215892632E+00 -0.3923554656466E+00
 0.1607118442795E+00 -0.4335376278348E+00
 0.1637896776148E+00 -0.4757169576107E+00
 0.1662655045895E+00 -0.5188322243751E+00
 0.1681019458654E+00 -0.5628162114272E+00
 0.1692007077199E+00 -0.6075888030822E+00
 0.1693844910029E+00 -0.6530515622207E+00
 0.2700370435345E-01 -0.2717397833460E-01
 0.5161439413858E-01 -0.4291829470547E-01
 0.7245431631849E-01 -0.6238442059441E-01
 0.9018694208457E-01 -0.8514897104692E-01
 0.1053430775893E+00 -0.1108198491497E+00
 0.1183600457187E+00 -0.1390378262091E+00
 0.1296031269881E+00 -0.1694777705587E+00
 0.1393739297379E+00 -0.2018484682796E+00
 0.1479104878114E+00 -0.2358935289070E+00
 0.1553865368625E+00 -0.2713939516277E+00
 0.1619194105210E+00 -0.3081708825664E+00
 0.1675902307829E+00 -0.3460826772094E+00
 0.1724740705692E+00 -0.3850198387341E+00
 0.1766423691116E+00 -0.4248980054065E+00
 0.1801437298505E+00 -0.4656457188742E+00
 0.1829907603946E+00 -0.5071931828118E+00
 0.1851453235991E+00 -0.5494618519213E+00
 0.1865068506231E+00 -0.5923574763415E+00
 0.1868959603164E+00 -0.6357666943992E+00
 0.2938431250012E-01 -0.2739276105265E-01
 0.5582307898392E-01 -0.4310977967295E-01
 0.7829771553952E-01 -0.6238708625482E-01
 0.9748725092943E-01 -0.8483561804328E-01
 0.1139386614856E+00 -0.1100833398818E+00
 0.1281064383855E+00 -0.1377816177847E+00
 0.1403729775200E+00 -0.1676097925097E+00
 0.1510555083706E+00 -0.1992769724748E+00
 0.1604049332129E+00 -0.2325240934465E+00
 0.1686046764932E+00 -0.2671275140943E+00
 0.1757788787891E+00 -0.3029027309822E+00
 0.1820131674771E+00 -0.3397014857024E+00
 0.1873894671658E+00 -0.3774077085385E+00
 0.1919874746325E+00 -0.4159313386813E+00
 0.1958609467247E+00 -0.4551949244020E+00
 0.1990245754560E+00 -0.4951210841850E+00
 0.2014388710670E+00 -0.5356206407157E+00
 0.2030004574653E+00 -0.5765844741566E+00
 0.2035285999958E+00 -0.6178810197565E+00
 0.3167235450462E-01 -0.2763353135987E-01
 0.5987392467839E-01 -0.4332804135438E-01
 0.8393539087119E-01 -0.6241686018995E-01
 0.1045442226431E+00 -0.8454505182474E-01
 0.1222586838523E+00 -0.1093602537249E+00
 0.1375473862340E+00 -0.1365242822936E+00
 0.1508079465069E+00 -0.1657211654503E+00
 0.1623719441224E+00 -0.1966608151870E+00
 0.1725021839705E+00 -0.2290820768373E+00
 0.1813910669646E+00 -0.2627573017654E+00
 0.1891689882836E+00 -0.2974969907221E+00
 0.1959251845154E+00 -0.3331465956801E+00
 0.2017485245506E+00 -0.3695837402562E+00
 0.2067278370243E+00 -0.4067133200987E+00
 0.2109224037146E+00 -0.4444527316173E+00
 0.2143491213551E+00 -0.4827185261286E+00
 0.2169664342473E+00 -0.5214127472976E+00
 0.2186666688033E+00 -0.5604122250907E+00
 0.2192665794941E+00 -0.5995638434370E+00
 0.3386530375989E-01 -0.2789657481857E-01
 0.6376256175754E-01 -0.4357468385831E-01
 0.8936140531711E-01 -0.6247843873474E-01
 0.1113503156845E+00 -0.8428602713174E-01
 0.1302939163630E+00 -0.1086637970988E+00
 0.1466720240709E+00 -0.1352836324950E+00
 0.1608957128328E+00 -0.1638345473904E+00
 0.1733097146688E+00 -0.1940278376820E+00
 0.1841878228035E+00 -0.2256009564334E+00
 0.1937307681862E+00 -0.2583230375180E+00
 0.2020747024003E+00 -0.2920005070308E+00
 0.2093113263333E+00 -0.3264730360773E+00
 0.2155365138370E+00 -0.3616123562733E+00
 0.2208493277733E+00 -0.3973191834304E+00
 0.2253149418104E+00 -0.4335066204556E+00
 0.2289531667475E+00 -0.4700860547766E+00
 0.2317201530767E+00 -0.5069544162451E+00
 0.2335016133381E+00 -0.5439779321741E+00
 0.2341074711604E+00 -0.5809803481815E+00
 0.3596123281201E-01 -0.2818189481590E-01
 0.6748601585952E-01 -0.4385109758769E-01
 0.9457175682350E-01 -0.6257669654296E-01
 0.1179000958449E+00 -0.8406797681111E-01
 0.1380372310108E+00 -0.1080078843981E+00
 0.1554716302916E+00 -0.1340781323008E+00
 0.1706261889107E+00 -0.1619731847916E+00
 0.1838576517747E+00 -0.1914064277468E+00
 0.1954499473628E+00 -0.2221146167384E+00
 0.2056116093758E+00 -0.2538645997890E+00
 0.2144841740867E+00 -0.2864599197531E+00
 0.2221603442574E+00 -0.3197352173563E+00
 0.2287429924127E+00 -0.3535569300216E+00
 0.2343427626748E+00 -0.3878227462133E+00
 0.2390310339822E+00 -0.4224425190767E+00
 0.2428309358935E+00 -0.4573228074849E+00
 0.2456986290194E+00 -0.4923553471254E+00
 0.2475115912781E+00 -0.5274090229019E+00
 0.2480630065761E+00 -0.5622862315891E+00
 0.3795845381605E-01 -0.2848880912731E-01
 0.7104292716216E-01 -0.4415727700514E-01
 0.9956479102634E-01 -0.6271722739437E-01
 0.1241902483153E+00 -0.8390125188094E-01
 0.1454835755592E+00 -0.1074071640561E+00
 0.1639396046164E+00 -0.1329268184266E+00
 0.1799914939942E+00 -0.1601607867061E+00
 0.1940069346086E+00 -0.1888253049870E+00
 0.2062790914067E+00 -0.2186572720139E+00
 0.2170240019989E+00 -0.2494217342210E+00
 0.2263885507903E+00 -0.2809212096829E+00
 0.2344644693986E+00 -0.3129863417548E+00
 0.2413615551060E+00 -0.3454789083313E+00
 0.2472037347540E+00 -0.3782953235102E+00
 0.2520686310147E+00 -0.4113434426554E+00
 0.2559829971426E+00 -0.4445257790947E+00
 0.2589028372314E+00 -0.4777260804207E+00
 0.2607089946068E+00 -0.5108099237895E+00
 0.2611625331536E+00 -0.5436182826253E+00
-0.1425946270331E+00 -0.1157174025660E+00
-0.2213946474260E+00 -0.1932107268110E+00
-0.2841778658501E+00 -0.2459407267949E+00
-0.3371604603723E+00 -0.2790957298105E+00
-0.3817406251917E+00 -0.2989159034694E+00
-0.4187640813506E+00 -0.3099276061941E+00
-0.4489200367630E+00 -0.3148199239952E+00
-0.4727265009815E+00 -0.3152499004869E+00
-0.4905314673142E+00 -0.3125693900496E+00
-0.5026443183019E+00 -0.3078151485558E+00
-0.5093706069166E+00 -0.3019281104462E+00
-0.5110425493397E+00 -0.2958912895438E+00
-0.5083525293434E+00 -0.2903992061538E+00
-0.5021873288784E+00 -0.2865119358392E+00
-0.4929706129608E+00 -0.2851129347177E+00
-0.4807700409118E+00 -0.2870003238040E+00
-0.4654424828251E+00 -0.2929431221766E+00
-0.4469682453944E+00 -0.3038860181191E+00
-0.4255252952643E+00 -0.3209872527361E+00
-0.1348510450180E+00 -0.9743809119456E-01
-0.2187199525054E+00 -0.1661679466525E+00
-0.2834971687219E+00 -0.2216347804276E+00
-0.3368810156219E+00 -0.2591120404681E+00
-0.3816050770242E+00 -0.2827956320184E+00
-0.4187299146336E+00 -0.2970757781496E+00
-0.4490501014628E+00 -0.3047840033701E+00
-0.4731149697402E+00 -0.3077107975570E+00
-0.4912764580738E+00 -0.3072712612323E+00
-0.5038299548149E+00 -0.3045157092488E+00
-0.5110573996811E+00 -0.3003349035617E+00
-0.5132651939063E+00 -0.2956517857268E+00
-0.5110671943138E+00 -0.2911034612152E+00
-0.5052746689601E+00 -0.2879213941220E+00
-0.4964154585953E+00 -0.2872392929694E+00
-0.4846973798300E+00 -0.2899451739873E+00
-0.4700413958159E+00 -0.2967606313650E+00
-0.4524244579328E+00 -0.3085198376538E+00
-0.4319851996391E+00 -0.3262119458135E+00
-0.1274369303103E+00 -0.8487897444697E-01
-0.2129769659808E+00 -0.1450482123760E+00
-0.2802533248019E+00 -0.1985910851717E+00
-0.3347965759697E+00 -0.2386803379048E+00
-0.3800481161802E+00 -0.2657966887844E+00
-0.4175110384080E+00 -0.2833102202861E+00
-0.4481398892126E+00 -0.2939104987352E+00
-0.4725617628410E+00 -0.2994324278184E+00
-0.4911610332772E+00 -0.3013321498506E+00
-0.5042406204632E+00 -0.3006655665136E+00
-0.5120720968689E+00 -0.2982994791027E+00
-0.5149491718682E+00 -0.2951267492682E+00
-0.5133867985475E+00 -0.2917764648745E+00
-0.5081114361716E+00 -0.2895914316319E+00
-0.4997254419700E+00 -0.2898554348538E+00
-0.4885556800949E+00 -0.2935157526987E+00
-0.4746005745899E+00 -0.3012599805224E+00
-0.4578549325319E+00 -0.3138291656653E+00
-0.4384689175057E+00 -0.3321167804042E+00
-0.1207667343477E+00 -0.7564437306696E-01
-0.2059563349837E+00 -0.1283432598123E+00
-0.2748093779948E+00 -0.1783457729326E+00
-0.3307663778074E+00 -0.2188965282333E+00
-0.3768908609212E+00 -0.2484986965495E+00
-0.4149360200342E+00 -0.2689305437155E+00
-0.4460422492873E+00 -0.2823659649748E+00
-0.4709395408687E+00 -0.2905226694675E+00
-0.4900729761096E+00 -0.2948354093417E+00
-0.5037706358848E+00 -0.2963520286883E+00
-0.5123045496746E+00 -0.2959235130659E+00
-0.5159673147046E+00 -0.2944233559022E+00
-0.5151671743352E+00 -0.2924920404305E+00
-0.5105410485089E+00 -0.2915469924984E+00
-0.5027465182509E+00 -0.2929564255447E+00
-0.4922074407430E+00 -0.2976985176481E+00
-0.4790043560525E+00 -0.3064308483487E+00
-0.4631694653745E+00 -0.3198295874066E+00
-0.4448677015873E+00 -0.3387181898715E+00
-0.1148548710120E+00 -0.6854534676867E-01
-0.1984813910278E+00 -0.1149587243456E+00
-0.2679028068494E+00 -0.1609577298262E+00
-0.3249857780648E+00 -0.2006228508091E+00
-0.3720898962617E+00 -0.2315717652622E+00
-0.4108965617083E+00 -0.2543504148295E+00
-0.4426348265515E+00 -0.2703966325257E+00
-0.4681295760497E+00 -0.2811370320287E+00
-0.4878982703695E+00 -0.2878931174329E+00
-0.5023066915348E+00 -0.2916702428121E+00
-0.5116362191651E+00 -0.2932969161678E+00
-0.5161890978578E+00 -0.2936228511611E+00
-0.5162666717966E+00 -0.2933074359906E+00
-0.5124129524382E+00 -0.2938119145946E+00
-0.5053269957489E+00 -0.2965409403656E+00
-0.4955108171482E+00 -0.3024812538706E+00
-0.4831262071030E+00 -0.3122643892927E+00
-0.4682478309470E+00 -0.3265167592066E+00
-0.4510518556322E+00 -0.3460044452357E+00
-0.1096012283303E+00 -0.6291499971732E-01
-0.1909654269070E+00 -0.1040910766123E+00
-0.2600976679610E+00 -0.1461538061563E+00
-0.3178176918677E+00 -0.1841870810347E+00
-0.3657643610346E+00 -0.2155621353291E+00
-0.4053759138933E+00 -0.2400135385561E+00
-0.4378439509495E+00 -0.2583064757514E+00
-0.4640359817169E+00 -0.2714770454368E+00
-0.4845316777067E+00 -0.2806452211935E+00
-0.4997365969481E+00 -0.2867260341496E+00
-0.5099468209100E+00 -0.2905046834600E+00
-0.5154827683116E+00 -0.2927928018535E+00
-0.5165432146022E+00 -0.2942670235693E+00
-0.5135772734063E+00 -0.2964033972641E+00
-0.5073141878942E+00 -0.3006043620192E+00
-0.4983176775574E+00 -0.3078476348167E+00
-0.4868249645146E+00 -0.3187398965756E+00
-0.4729515635343E+00 -0.3338656719619E+00
-0.4568781966669E+00 -0.3539379193013E+00
-0.1048891546715E+00 -0.5833777466429E-01
-0.1836055070790E+00 -0.9516031264288E-01
-0.2517854030082E+00 -0.1335793638908E+00
-0.3096149568345E+00 -0.1696363881092E+00
-0.3581235718176E+00 -0.2007871786417E+00
-0.3984473748948E+00 -0.2262963831991E+00
-0.4316563209248E+00 -0.2464078583315E+00
-0.4585987047230E+00 -0.2617715207755E+00
-0.4798871308807E+00 -0.2732541434916E+00
-0.4959574951476E+00 -0.2816359732301E+00
-0.5071201060048E+00 -0.2876310529207E+00
-0.5137181813731E+00 -0.2919921399743E+00
-0.5158546978371E+00 -0.2954043252878E+00
-0.5138831930045E+00 -0.2993290112982E+00
-0.5085525603170E+00 -0.3051331296642E+00
-0.5004729288946E+00 -0.3137696677300E+00
-0.4899483980526E+00 -0.3258196604949E+00
-0.4771303001045E+00 -0.3418288061253E+00
-0.4621970348180E+00 -0.3624567117975E+00
-0.1006103318338E+00 -0.5453898644724E-01
-0.1764855340249E+00 -0.8773910780995E-01
-0.2432224248746E+00 -0.1228919473460E+00
-0.3006708319958E+00 -0.1568758454128E+00
-0.3493958400520E+00 -0.1873878546306E+00
-0.3902405020912E+00 -0.2134598514385E+00
-0.4241140439064E+00 -0.2349725965738E+00
-0.4517985435665E+00 -0.2522474260325E+00
-0.4739052990310E+00 -0.2658915219388E+00
-0.4908828446395E+00 -0.2765232253707E+00
-0.5030493243215E+00 -0.2847598780254E+00
-0.5107704073556E+00 -0.2912730718695E+00
-0.5140610293922E+00 -0.2967423561351E+00
-0.5131797029061E+00 -0.3025842132384E+00
-0.5088842353473E+00 -0.3100999462402E+00
-0.5018165643569E+00 -0.3202027794961E+00
-0.4923375570188E+00 -0.3334456480946E+00
-0.4806280056447E+00 -0.3503355874408E+00
-0.4668581287849E+00 -0.3714761438021E+00
-0.9667175637552E-01 -0.5132899005249E-01
-0.1696284356186E+00 -0.8150690374174E-01
-0.2345697186844E+00 -0.1137873912057E+00
-0.2912107564421E+00 -0.1457478870394E+00
-0.3397923116103E+00 -0.1753864142118E+00
-0.3809068236763E+00 -0.2016555444049E+00
-0.4152973382490E+00 -0.2242051343178E+00
-0.4436533361661E+00 -0.2431030848121E+00
-0.4665560718079E+00 -0.2587209276377E+00
-0.4844470191035E+00 -0.2715090573653E+00
-0.4976418653904E+00 -0.2819716292645E+00
-0.5065236315025E+00 -0.2906804610299E+00
-0.5110272766696E+00 -0.2982928442236E+00
-0.5113181232549E+00 -0.3061501081178E+00
-0.5081515979527E+00 -0.3154605166280E+00
-0.5021873203838E+00 -0.3270827796223E+00
-0.4938319149562E+00 -0.3415379847300E+00
-0.4832889965964E+00 -0.3592929107455E+00
-0.4707164069742E+00 -0.3808912448995E+00
-0.9299628080600E-01 -0.4857265279245E-01
-0.1630246376049E+00 -0.7621923143480E-01
-0.2259226483231E+00 -0.1060045416146E+00
-0.2813997249022E+00 -0.1360733628437E+00
-0.3294921349959E+00 -0.1647321219773E+00
-0.3705969317013E+00 -0.1909476431206E+00
-0.4053061725522E+00 -0.2142386742325E+00
-0.4342085498035E+00 -0.2344920408225E+00
-0.4578362646602E+00 -0.2518824249765E+00
-0.4766068810228E+00 -0.2667025519237E+00
-0.4908224653348E+00 -0.2793379780201E+00
-0.5008748103022E+00 -0.2902493183464E+00
-0.5066274061333E+00 -0.3000546504897E+00
-0.5081558534331E+00 -0.3099917009709E+00
-0.5062013608673E+00 -0.3211516699132E+00
-0.5014274971850E+00 -0.3343245810315E+00
-0.4942749843992E+00 -0.3499949997035E+00
-0.4849638000788E+00 -0.3685868953531E+00
-0.4736370424532E+00 -0.3905801573138E+00
-0.8952111733033E-01 -0.4617136722934E-01
-0.1566480519094E+00 -0.7168713127857E-01
-0.2173322322009E+00 -0.9932242904572E-01
-0.2713534650668E+00 -0.1276724567760E+00
-0.3186392750488E+00 -0.1553324319321E+00
-0.3594478037373E+00 -0.1813364388715E+00
-0.3942460523796E+00 -0.2051426929602E+00
-0.4235269050985E+00 -0.2265179666218E+00
-0.4477644441863E+00 -0.2454825620613E+00
-0.4673407530042E+00 -0.2621914790019E+00
-0.4825347509446E+00 -0.2769156339795E+00
-0.4937366563087E+00 -0.2900012576642E+00
-0.5007481290272E+00 -0.3020118439728E+00
-0.5035608024116E+00 -0.3140567873985E+00
-0.5028895410804E+00 -0.3270908592649E+00
-0.4993884774243E+00 -0.3418225509418E+00
-0.4935201236787E+00 -0.3586947532734E+00
-0.4855146000922E+00 -0.3780857340788E+00
-0.4754995763978E+00 -0.4004081522994E+00
-0.8619581026504E-01 -0.4405187688005E-01
-0.1504652891833E+00 -0.6776300097099E-01
-0.2088200349435E+00 -0.9355534073417E-01
-0.2611493948675E+00 -0.1203748613943E+00
-0.3073447916673E+00 -0.1470732328954E+00
-0.3475772486929E+00 -0.1727781802054E+00
-0.3822187400006E+00 -0.1969346189419E+00
-0.4116796072123E+00 -0.2192367579285E+00
-0.4363750153006E+00 -0.2395902182737E+00
-0.4566458078132E+00 -0.2580361474845E+00
-0.4727413598649E+00 -0.2747410609623E+00
-0.4850397509105E+00 -0.2899409783678E+00
-0.4932924493223E+00 -0.3041319792665E+00
-0.4974159778495E+00 -0.3182756930107E+00
-0.4980868030001E+00 -0.3331770477946E+00
-0.4959364943288E+00 -0.3494524128581E+00
-0.4914362230404E+00 -0.3674978928156E+00
-0.4848200695246E+00 -0.3876433744271E+00
-0.4762009587352E+00 -0.4102318504777E+00
-0.8298025521888E-01 -0.4215902353692E-01
-0.1444410502421E+00 -0.6433064421650E-01
-0.2003886203758E+00 -0.8854773916200E-01
-0.2508361263831E+00 -0.1140243469965E+00
-0.2956913889137E+00 -0.1398316536521E+00
-0.3350827372091E+00 -0.1652003783259E+00
-0.3693171385596E+00 -0.1895918178104E+00
-0.3987400511325E+00 -0.2126623945657E+00
-0.4237129629225E+00 -0.2342369565167E+00
-0.4445349562515E+00 -0.2542666573781E+00
-0.4614231493988E+00 -0.2728270813510E+00
-0.4747338279084E+00 -0.2900536885197E+00
-0.4841826497815E+00 -0.3063651194012E+00
-0.4896237733454E+00 -0.3225620627921E+00
-0.4916836444883E+00 -0.3392929831344E+00
-0.4909582128871E+00 -0.3570746035185E+00
-0.4879130177689E+00 -0.3762516564990E+00
-0.4827795341528E+00 -0.3971037287288E+00
-0.4756576063819E+00 -0.4199032580530E+00
-0.7984293154241E-01 -0.4045084403436E-01
-0.1385412550306E+00 -0.6129806978575E-01
-0.1920288924342E+00 -0.8416962944639E-01
-0.2404412683148E+00 -0.1084803569817E+00
-0.2837385675351E+00 -0.1334839852218E+00
-0.3220426514944E+00 -0.1585130590246E+00
-0.3556231401588E+00 -0.1830622420727E+00
-0.3847798662353E+00 -0.2067742081357E+00
-0.4098297967324E+00 -0.2294202428253E+00
-0.4310339097540E+00 -0.2508830628966E+00
-0.4485779435387E+00 -0.2711616693462E+00
-0.4627883263209E+00 -0.2903040100624E+00
-0.4733624979606E+00 -0.3086440110621E+00
-0.4801094865626E+00 -0.3268148642104E+00
-0.4835948566213E+00 -0.3453088931669E+00
-0.4843656509304E+00 -0.3645390759245E+00
-0.4828658250723E+00 -0.3847949897833E+00
-0.4793165848002E+00 -0.4063052622093E+00
-0.4738067994956E+00 -0.4292733535460E+00
-0.7675941471159E-01 -0.3889515997672E-01
-0.1327348481183E+00 -0.5859217243830E-01
-0.1837253222326E+00 -0.8031255824323E-01
-0.2299777471435E+00 -0.1036180888085E+00
-0.2715276991906E+00 -0.1279105127421E+00
-0.3085188238410E+00 -0.1526168838673E+00
-0.3412074986004E+00 -0.1772733247235E+00
-0.3698669237892E+00 -0.2015242781986E+00
-0.3947808558425E+00 -0.2251082336358E+00
-0.4161788373874E+00 -0.2478576773747E+00
-0.4342192186076E+00 -0.2697087270151E+00
-0.4491924121133E+00 -0.2906364445426E+00
-0.4607985734593E+00 -0.3108854455477E+00
-0.4688236690044E+00 -0.3309214888840E+00
-0.4737626447517E+00 -0.3510874206156E+00
-0.4760998954221E+00 -0.3716915260808E+00
-0.4762394865487E+00 -0.3929648632004E+00
-0.4743824105537E+00 -0.4150860440304E+00
-0.4706079751165E+00 -0.4381950735023E+00
-0.7371114706112E-01 -0.3746712875262E-01
-0.1269947832109E+00 -0.5615468864002E-01
-0.1754596685389E+00 -0.7688617475101E-01
-0.2194488540561E+00 -0.9932776411836E-01
-0.2590866679357E+00 -0.1229983414620E+00
-0.2945596180806E+00 -0.1474089158555E+00
-0.3261309423106E+00 -0.1721391401895E+00
-0.3540647817956E+00 -0.1968442935380E+00
-0.3786238003434E+00 -0.2212452064811E+00
-0.4000147097356E+00 -0.2451387540022E+00
-0.4183749268276E+00 -0.2684104059301E+00
-0.4339546231903E+00 -0.2909771614711E+00
-0.4464807102866E+00 -0.3129925089698E+00
-0.4557429181851E+00 -0.3347613861392E+00
-0.4621576811588E+00 -0.3564893435691E+00
-0.4661326853030E+00 -0.3783808583118E+00
-0.4680110225966E+00 -0.4006043630270E+00
-0.4679590810181E+00 -0.4232898392567E+00
-0.4660447603242E+00 -0.4465259249881E+00
-0.7068444581514E-01 -0.3614743629915E-01
-0.1212985089273E+00 -0.5393904161508E-01
-0.1672136277298E+00 -0.7381525463839E-01
-0.2088522455660E+00 -0.9551347077980E-01
-0.2464339607479E+00 -0.1186429228545E+00
-0.2802031411017E+00 -0.1427866783582E+00
-0.3104460046789E+00 -0.1675660734021E+00
-0.3374331328491E+00 -0.1926516308937E+00
-0.3614180532980E+00 -0.2177570666267E+00
-0.3825942926842E+00 -0.2426549407275E+00
-0.4010865658625E+00 -0.2671905244544E+00
-0.4171023555782E+00 -0.2912367632349E+00
-0.4304217861393E+00 -0.3148572000391E+00
-0.4408692905228E+00 -0.3382091847756E+00
-0.4487772402236E+00 -0.3613782009405E+00
-0.4544645053134E+00 -0.3844673966767E+00
-0.4581894255431E+00 -0.4075727569963E+00
-0.4600626580320E+00 -0.4307753827293E+00
-0.4601289188333E+00 -0.4541307963436E+00
-0.6766972325516E-01 -0.3492093829082E-01
-0.1156281604353E+00 -0.5190779598106E-01
-0.1589707056204E+00 -0.7103707069243E-01
-0.1981830718844E+00 -0.9209174638161E-01
-0.2335821545897E+00 -0.1147487225215E+00
-0.2654803286105E+00 -0.1386509967885E+00
-0.2941992179874E+00 -0.1634572948503E+00
-0.3200289161419E+00 -0.1888545838457E+00
-0.3432249422518E+00 -0.2145565939426E+00
-0.3639776609562E+00 -0.2403200508108E+00
-0.3824084760735E+00 -0.2659587348691E+00
-0.3986813697106E+00 -0.2913138738823E+00
-0.4126574483283E+00 -0.3163631969753E+00
-0.4242292089202E+00 -0.3411363943825E+00
-0.4336419432827E+00 -0.3656211698878E+00
-0.4411162848943E+00 -0.3898254425492E+00
-0.4468094302938E+00 -0.4137599492342E+00
-0.4507438619003E+00 -0.4374304570860E+00
-0.4529078711980E+00 -0.4608894558956E+00
-0.6466088571084E-01 -0.3377558530736E-01
-0.1099706010827E+00 -0.5003062417205E-01
-0.1507175497942E+00 -0.6849888446509E-01
-0.1874363109391E+00 -0.8898995060009E-01
-0.2205407458513E+00 -0.1112293477643E+00
-0.2504177446065E+00 -0.1349080183548E+00
-0.2774334212542E+00 -0.1597163295568E+00
-0.3019078915197E+00 -0.1853568734407E+00
-0.3241083715134E+00 -0.2115480868166E+00
-0.3442320126024E+00 -0.2380377848469E+00
-0.3624071930044E+00 -0.2646151901611E+00
-0.3787552356486E+00 -0.2910996579736E+00
-0.3932461639782E+00 -0.3173896576047E+00
-0.4058737515344E+00 -0.3434126769387E+00
-0.4167940130344E+00 -0.3690858968569E+00
-0.4261233022077E+00 -0.3943336975311E+00
-0.4339059971801E+00 -0.4190772088456E+00
-0.4400781889618E+00 -0.4432170394729E+00
-0.4444788895262E+00 -0.4667108680838E+00
 0.4300532866128E-01 -0.2964264917621E-01
 0.8034325230400E-01 -0.4596733982144E-01
 0.1129644628962E+00 -0.6493869680247E-01
 0.1414686638933E+00 -0.8629633130670E-01
 0.1663210369587E+00 -0.1097281872131E+00
 0.1879517863601E+00 -0.1349063535950E+00
 0.2067591478138E+00 -0.1615161489766E+00
 0.2230867709575E+00 -0.1892659257873E+00
 0.2372212873865E+00 -0.2178874391497E+00
 0.2493726366046E+00 -0.2471490719048E+00
 0.2596760701513E+00 -0.2768669301537E+00
 0.2682642943059E+00 -0.3068882148219E+00
 0.2751009650420E+00 -0.3371478708228E+00
 0.2801861402930E+00 -0.3676043483907E+00
 0.2837041848692E+00 -0.3981990923413E+00
 0.2857942915286E+00 -0.4288860158117E+00
 0.2865200817835E+00 -0.4596238058153E+00
 0.2858353855791E+00 -0.4903536216439E+00
 0.2835979449569E+00 -0.5210765040310E+00
 0.4616592927024E-01 -0.3054253597028E-01
 0.8626188926046E-01 -0.4755142102696E-01
 0.1215716435175E+00 -0.6712705761109E-01
 0.1526390589817E+00 -0.8898818973174E-01
 0.1798357895692E+00 -0.1127811180110E+00
 0.2035269698412E+00 -0.1381350569804E+00
 0.2240728773576E+00 -0.1647078570554E+00
 0.2417905229773E+00 -0.1921958959892E+00
 0.2569587979506E+00 -0.2203277034088E+00
 0.2697822849426E+00 -0.2488819584848E+00
 0.2803883401308E+00 -0.2777013851824E+00
 0.2889573592518E+00 -0.3066502885414E+00
 0.2953267065571E+00 -0.3357573872537E+00
 0.2993858152557E+00 -0.3650925919897E+00
 0.3014164182745E+00 -0.3946532630818E+00
 0.3016603136037E+00 -0.4244653323289E+00
 0.3002844293559E+00 -0.4545727312665E+00
 0.2973178994780E+00 -0.4850240120804E+00
 0.2927560171450E+00 -0.5159202945055E+00
 0.4933675239640E-01 -0.3151589194069E-01
 0.9219415792357E-01 -0.4926873395534E-01
 0.1301637131812E+00 -0.6951336039894E-01
 0.1637230650487E+00 -0.9192890877991E-01
 0.1931513579271E+00 -0.1161024434142E+00
 0.2187551282283E+00 -0.1416093689616E+00
 0.2408651824263E+00 -0.1680751305086E+00
 0.2597815629246E+00 -0.1951840669533E+00
 0.2757839711217E+00 -0.2226664788852E+00
 0.2890805035012E+00 -0.2503186957955E+00
 0.2997999054277E+00 -0.2780179335129E+00
 0.3081697497449E+00 -0.3056541987531E+00
 0.3139301691519E+00 -0.3333660450087E+00
 0.3168945763873E+00 -0.3613733193429E+00
 0.3174393716944E+00 -0.3897575075546E+00
 0.3159031373005E+00 -0.4186274588142E+00
 0.3125455638331E+00 -0.4481056476073E+00
 0.3074737939325E+00 -0.4783169700742E+00
 0.3007294811988E+00 -0.5093717028246E+00
 0.5252109869999E-01 -0.3257375576955E-01
 0.9814729207014E-01 -0.5114692523662E-01
 0.1387452648784E+00 -0.7214471758760E-01
 0.1747143309184E+00 -0.9518270277053E-01
 0.2062445262444E+00 -0.1197678539658E+00
 0.2335935316900E+00 -0.1454110087507E+00
 0.2570742002927E+00 -0.1717017784471E+00
 0.2769815585124E+00 -0.1983143300100E+00
 0.2936058716186E+00 -0.2249879809077E+00
 0.3071675642472E+00 -0.2515453849288E+00
 0.3178052842841E+00 -0.2779077230272E+00
 0.3257916671499E+00 -0.3040013727949E+00
 0.3307994767276E+00 -0.3300876326454E+00
 0.3326026651750E+00 -0.3565685907994E+00
 0.3316695580340E+00 -0.3836331109756E+00
 0.3284266316039E+00 -0.4114784988458E+00
 0.3232103025066E+00 -0.4402905688393E+00
 0.3161740719720E+00 -0.4702438929069E+00
 0.3073726713877E+00 -0.5014881483951E+00
 0.5572568996290E-01 -0.3372986222122E-01
 0.1041330643103E+00 -0.5321962273146E-01
 0.1473239576696E+00 -0.7507715349388E-01
 0.1856067907452E+00 -0.9882369333214E-01
 0.2190900472678E+00 -0.1238618932588E+00
 0.2479967246964E+00 -0.1496277381096E+00
 0.2726365323273E+00 -0.1756740420939E+00
 0.2933135646769E+00 -0.2016697193688E+00
 0.3103390304427E+00 -0.2273735116313E+00
 0.3239540586037E+00 -0.2526456104452E+00
 0.3343146517535E+00 -0.2774619734861E+00
 0.3417347437862E+00 -0.3017974200401E+00
 0.3458490394427E+00 -0.3260448692975E+00
 0.3464276846410E+00 -0.3508129627655E+00
 0.3440264845160E+00 -0.3764160509256E+00
 0.3391485181574E+00 -0.4031420541479E+00
 0.3321832330599E+00 -0.4312284304733E+00
 0.3233096376382E+00 -0.4608993904676E+00
 0.3125836166738E+00 -0.4923645253510E+00
 0.5896112853225E-01 -0.3500166530879E-01
 0.1101677364765E+00 -0.5552863426456E-01
 0.1559094406354E+00 -0.7837793407950E-01
 0.1963926777803E+00 -0.1029374194563E+00
 0.2316582814508E+00 -0.1284777558468E+00
 0.2619142489706E+00 -0.1543513463281E+00
 0.2874854993030E+00 -0.1800770699243E+00
 0.3087010559492E+00 -0.2053279107931E+00
 0.3259034657149E+00 -0.2298967075984E+00
 0.3393618823169E+00 -0.2536953789220E+00
 0.3492554353557E+00 -0.2767668443665E+00
 0.3559338334847E+00 -0.2991470960893E+00
 0.3590211260768E+00 -0.3213652087270E+00
 0.3583163052808E+00 -0.3442522193996E+00
 0.3544565853817E+00 -0.3682608220251E+00
 0.3480088253633E+00 -0.3937703925740E+00
 0.3393943720913E+00 -0.4210645880216E+00
 0.3288036577713E+00 -0.4504197534958E+00
 0.3162922689624E+00 -0.4821211847849E+00
 0.6224257292680E-01 -0.3641165746965E-01
 0.1162718718461E+00 -0.5812636079722E-01
 0.1645116803036E+00 -0.8212805787431E-01
 0.2070597732832E+00 -0.1076221184896E+00
 0.2439121666389E+00 -0.1337165903782E+00
 0.2752880407115E+00 -0.1596748670300E+00
 0.3015494177520E+00 -0.1849905250704E+00
 0.3230672771206E+00 -0.2093559942495E+00
 0.3402250288558E+00 -0.2326180975408E+00
 0.3533252960577E+00 -0.2547578983511E+00
 0.3625737751070E+00 -0.2758985574557E+00
 0.3683485742262E+00 -0.2961498046158E+00
 0.3702876633677E+00 -0.3161771390311E+00
 0.3682473949613E+00 -0.3370410359116E+00
 0.3629390125647E+00 -0.3593395521963E+00
 0.3549810504881E+00 -0.3835426666642E+00
 0.3448085218698E+00 -0.4099760718452E+00
 0.3326139780038E+00 -0.4389709041474E+00
 0.3184554036018E+00 -0.4708983666328E+00
 0.6559062771991E-01 -0.3798905183136E-01
 0.1224698719159E+00 -0.6107873400502E-01
 0.1731385498553E+00 -0.8642500232892E-01
 0.2175878085139E+00 -0.1129897578024E+00
 0.2558035892177E+00 -0.1396859948908E+00
 0.2880496503912E+00 -0.1656886621938E+00
 0.3147501287544E+00 -0.1904830726122E+00
 0.3363350870465E+00 -0.2138044206902E+00
 0.3532362354246E+00 -0.2355793569502E+00
 0.3657922677486E+00 -0.2558785282340E+00
 0.3742359644224E+00 -0.2749190037572E+00
 0.3789647203648E+00 -0.2928954899108E+00
 0.3796517315290E+00 -0.3106060054611E+00
 0.3762344963935E+00 -0.3293384184273E+00
 0.3694900318509E+00 -0.3498363930341E+00
 0.3600771685231E+00 -0.3726564447885E+00
 0.3484289231780E+00 -0.3981620240212E+00
 0.3347333924912E+00 -0.4267402964786E+00
 0.3190553577841E+00 -0.4588549999482E+00
 0.6903245757807E-01 -0.3977204573181E-01
 0.1287890531325E+00 -0.6446893881355E-01
 0.1817924199843E+00 -0.9138586566912E-01
 0.2279438813735E+00 -0.1191666436422E+00
 0.2672692121545E+00 -0.1464973011108E+00
 0.3001175304324E+00 -0.1724749262369E+00
 0.3270021081687E+00 -0.1966054878392E+00
 0.3484276107520E+00 -0.2187002180869E+00
 0.3648778110891E+00 -0.2387975997295E+00
 0.3767262015513E+00 -0.2570803617248E+00
 0.3842298458782E+00 -0.2738721828562E+00
 0.3877949795939E+00 -0.2894610875501E+00
 0.3871480185698E+00 -0.3047695840676E+00
 0.3823265224207E+00 -0.3213017937553E+00
 0.3741641691347E+00 -0.3399397762435E+00
 0.3633489447916E+00 -0.3613187904763E+00
 0.3502980122522E+00 -0.3858349588556E+00
 0.3351899017377E+00 -0.4139311105655E+00
 0.3181010650442E+00 -0.4461673346593E+00
 0.7260313793665E-01 -0.4181096324455E-01
 0.1352579632329E+00 -0.6840229164543E-01
 0.1904653555348E+00 -0.9715100004419E-01
 0.2380766861575E+00 -0.1262932608004E+00
 0.2782258795871E+00 -0.1542609990119E+00
 0.3113947787182E+00 -0.1801000237764E+00
 0.3382126463783E+00 -0.2033821849703E+00
 0.3592701034132E+00 -0.2240397353584E+00
 0.3751011690282E+00 -0.2422602710787E+00
 0.3861080747866E+00 -0.2583610456406E+00
 0.3925660253964E+00 -0.2727819612184E+00
 0.3948790759259E+00 -0.2859079595584E+00
 0.3928418760896E+00 -0.2987740439152E+00
 0.3866062759035E+00 -0.3130809160109E+00
 0.3770526330139E+00 -0.3298344987291E+00
 0.3648865415656E+00 -0.3497374422050E+00
 0.3504965325036E+00 -0.3732126180706E+00
 0.3340469114504E+00 -0.4007565049541E+00
 0.3156302527226E+00 -0.4330266379338E+00
 0.7634726047246E-01 -0.4417276932670E-01
 0.1419034760332E+00 -0.7301283617380E-01
 0.1991323665744E+00 -0.1038882010374E+00
 0.2479093800570E+00 -0.1345226917417E+00
 0.2885659416608E+00 -0.1630793019975E+00
 0.3217680425676E+00 -0.1886039525000E+00
 0.3482838357557E+00 -0.2108011590343E+00
 0.3687935234661E+00 -0.2297815471430E+00
 0.3838719881625E+00 -0.2459215229620E+00
 0.3939389021508E+00 -0.2596915904911E+00
 0.3992787145508E+00 -0.2716516315623E+00
 0.4002828704274E+00 -0.2822806726565E+00
 0.3968269218478E+00 -0.2927107879487E+00
 0.3891870411108E+00 -0.3048123824879E+00
 0.3782795030385E+00 -0.3196943003478E+00
 0.3648150244315E+00 -0.3381124066335E+00
 0.3491411550762E+00 -0.3605098461205E+00
 0.3314028802518E+00 -0.3874331811544E+00
 0.3117118631670E+00 -0.4196354434726E+00
 0.8032072374284E-01 -0.4694775023764E-01
 0.1487457890881E+00 -0.7847246258469E-01
 0.2077417873469E+00 -0.1117972886114E+00
 0.2573308815862E+00 -0.1440162750824E+00
 0.2981531281090E+00 -0.1730342144132E+00
 0.3311086237106E+00 -0.1979861087272E+00
 0.3571172260481E+00 -0.2188027688858E+00
 0.3769401539200E+00 -0.2358407459916E+00
 0.3911747414333E+00 -0.2497013271077E+00
 0.4002421391973E+00 -0.2610179560866E+00
 0.4044258370224E+00 -0.2704655822111E+00
 0.4040963673501E+00 -0.2786072410339E+00
 0.3992212913917E+00 -0.2866544330576E+00
 0.3902075947490E+00 -0.2966152293838E+00
 0.3779961484950E+00 -0.3096754744446E+00
 0.3632890426058E+00 -0.3266282635710E+00
 0.3463804502437E+00 -0.3479304953712E+00
 0.3273897429791E+00 -0.3741740389101E+00
 0.3064478609656E+00 -0.4062021744572E+00
 0.8459255565997E-01 -0.5025981191361E-01
 0.1557898904886E+00 -0.8500388513290E-01
 0.2162015732915E+00 -0.1211145119799E+00
 0.2661858532841E+00 -0.1549340634225E+00
 0.3068205351006E+00 -0.1841687410568E+00
 0.3392776197792E+00 -0.2081869188765E+00
 0.3646222718895E+00 -0.2272688960126E+00
 0.3836714120564E+00 -0.2420868126258E+00
 0.3970176912367E+00 -0.2534888450568E+00
 0.4050654385360E+00 -0.2622658847015E+00
 0.4080880427818E+00 -0.2691928573194E+00
 0.4064306005863E+00 -0.2749004646803E+00
 0.4001628528620E+00 -0.2806617911140E+00
 0.3898261801844E+00 -0.2885878021336E+00
 0.3763744477049E+00 -0.2999118935030E+00
 0.3604860053772E+00 -0.3154475748960E+00
 0.3423890611265E+00 -0.3356596187072E+00
 0.3221694767225E+00 -0.3611800126843E+00
 0.2999736016314E+00 -0.3929340450809E+00
 0.8924622561096E-01 -0.5428307273438E-01
 0.1630107587458E+00 -0.9289953321011E-01
 0.2243597240930E+00 -0.1321149682918E+00
 0.2742645225486E+00 -0.1674153282420E+00
 0.3143736870920E+00 -0.1964580366211E+00
 0.3461376306291E+00 -0.2190661731514E+00
 0.3707292698110E+00 -0.2360160831878E+00
 0.3889770374634E+00 -0.2483482469905E+00
 0.4014370725334E+00 -0.2571513191875E+00
 0.4084807939154E+00 -0.2633486191814E+00
 0.4103662216934E+00 -0.2677917355490E+00
 0.4074134720774E+00 -0.2711596427099E+00
 0.3998037981421E+00 -0.2747715734082E+00
 0.3882140872798E+00 -0.2808060750506E+00
 0.3735994942675E+00 -0.2905119440944E+00
 0.3565982220667E+00 -0.3047060537366E+00
 0.3373600972505E+00 -0.3238566055975E+00
 0.3159282948731E+00 -0.3486315682879E+00
 0.2924558933385E+00 -0.3800283510766E+00
 0.9437904506278E-01 -0.5927005434840E-01
 0.1703270133473E+00 -0.1025497403792E+00
 0.2319768696806E+00 -0.1451079662422E+00
 0.2812960926231E+00 -0.1815404167571E+00
 0.3206044073235E+00 -0.2097671873695E+00
 0.3515738894757E+00 -0.2303830537010E+00
 0.3754060382931E+00 -0.2447993568782E+00
 0.3928832736064E+00 -0.2544275158290E+00
 0.4044985050565E+00 -0.2605480620833E+00
 0.4105821796527E+00 -0.2641758077562E+00
 0.4113773814837E+00 -0.2662138373851E+00
 0.4071848673528E+00 -0.2673717229228E+00
 0.3983052020661E+00 -0.2690044245568E+00
 0.3855496338115E+00 -0.2733234696670E+00
 0.3698626772021E+00 -0.2815578070344E+00
 0.3518247483854E+00 -0.2945102072892E+00
 0.3314961054121E+00 -0.3126501337389E+00
 0.3088682324652E+00 -0.3366806482882E+00
 0.2840879091730E+00 -0.3676625290536E+00
 0.1000955619930E+00 -0.6560330525844E-01
 0.1775526152841E+00 -0.1144849656251E+00
 0.2386898880604E+00 -0.1604124717134E+00
 0.2869567392847E+00 -0.1972570413413E+00
 0.3253244558030E+00 -0.2237981063116E+00
 0.3555258394534E+00 -0.2417908630385E+00
 0.3786734743455E+00 -0.2533374467770E+00
 0.3954557554580E+00 -0.2601258926916E+00
 0.4062939136301E+00 -0.2635461749467E+00
 0.4114803479933E+00 -0.2646608492704E+00
 0.4112491835639E+00 -0.2644061983186E+00
 0.4058915749907E+00 -0.2635110703266E+00
 0.3958322144546E+00 -0.2633628367462E+00
 0.3820134082497E+00 -0.2661721055013E+00
 0.3653561446774E+00 -0.2731073584384E+00
 0.3463639743344E+00 -0.2849381673746E+00
 0.3249993446311E+00 -0.3021358970377E+00
 0.3011963495889E+00 -0.3254441775035E+00
 0.2750803361582E+00 -0.3559838016753E+00
 0.1064843064610E+00 -0.7389767954780E-01
 0.1843014034044E+00 -0.1294410222198E+00
 0.2439776322626E+00 -0.1782696718414E+00
 0.2909160023926E+00 -0.2142519943234E+00
 0.3284315756098E+00 -0.2380416847755E+00
 0.3580180022034E+00 -0.2528827265796E+00
 0.3806094999421E+00 -0.2613584497051E+00
 0.3967941545424E+00 -0.2652703721404E+00
 0.4069337221413E+00 -0.2660325722059E+00
 0.4112954264721E+00 -0.2647243298309E+00
 0.4101137605838E+00 -0.2623104189398E+00
 0.4036826063832E+00 -0.2595371914785E+00
 0.3925505222749E+00 -0.2578305416255E+00
 0.3777855463059E+00 -0.2593650808555E+00
 0.3602697850716E+00 -0.2651988684256E+00
 0.3404081240130E+00 -0.2760441421604E+00
 0.3180625996214E+00 -0.2923782102590E+00
 0.2931121144596E+00 -0.3150002160670E+00
 0.2656489085776E+00 -0.3450998166275E+00
 0.1135264372189E+00 -0.8525156734230E-01
 0.1898075960378E+00 -0.1484205498618E+00
 0.2471611549913E+00 -0.1986097582412E+00
 0.2930024380837E+00 -0.2317160224147E+00
 0.3299760964101E+00 -0.2518773266829E+00
 0.3591605276518E+00 -0.2632824667420E+00
 0.3813375399501E+00 -0.2686455373108E+00
 0.3970194601361E+00 -0.2697308480477E+00
 0.4065364751468E+00 -0.2679187498344E+00
 0.4101483987021E+00 -0.2642937184329E+00
 0.4081013074711E+00 -0.2598583779158E+00
 0.4007054233912E+00 -0.2553897091164E+00
 0.3886246785200E+00 -0.2523706062793E+00
 0.3730457409385E+00 -0.2528997678912E+00
 0.3547911825272E+00 -0.2578571547974E+00
 0.3341417146832E+00 -0.2678673551552E+00
 0.3108614972119E+00 -0.2834158300936E+00
 0.2847944321814E+00 -0.3053882559722E+00
 0.2559982004312E+00 -0.3350708794339E+00
 0.1208300291216E+00 -0.1018830183677E+00
 0.1924078503916E+00 -0.1728064381447E+00
 0.2479166265045E+00 -0.2199842967665E+00
 0.2933591114442E+00 -0.2486291399045E+00
 0.3301342417753E+00 -0.2647731639150E+00
 0.3591220453430E+00 -0.2727222675536E+00
 0.3810037617893E+00 -0.2750568994418E+00
 0.3962602917214E+00 -0.2734212546672E+00
 0.4052183259545E+00 -0.2691416758231E+00
 0.4081521040038E+00 -0.2633005250110E+00
 0.4053328739363E+00 -0.2569656102159E+00
 0.3971030083687E+00 -0.2509762539218E+00
 0.3842200419345E+00 -0.2469222212204E+00
 0.3679772849607E+00 -0.2467638287216E+00
 0.3491075032941E+00 -0.2511012164221E+00
 0.3277422472798E+00 -0.2604384750150E+00
 0.3035579214686E+00 -0.2752802191598E+00
 0.2763827398271E+00 -0.2966108282475E+00
 0.2463047427213E+00 -0.3259050837182E+00
-0.4397607043014E+00 -0.5084365767054E+00
-0.4463977985028E+00 -0.5036616490775E+00
-0.4518438366032E+00 -0.4979476920914E+00
-0.4560795728497E+00 -0.4913401016781E+00
-0.4590818053715E+00 -0.4839154862293E+00
-0.4608348605484E+00 -0.4757669107477E+00
-0.4613322511742E+00 -0.4669993658347E+00
-0.4605797391845E+00 -0.4577284600333E+00
-0.4585981014650E+00 -0.4480796954490E+00
-0.4554258015035E+00 -0.4381874040895E+00
-0.4511213015386E+00 -0.4281929196233E+00
-0.4457647678886E+00 -0.4182417740430E+00
-0.4394588418029E+00 -0.4084798220386E+00
-0.4323280960444E+00 -0.3990483211385E+00
-0.4245168217034E+00 -0.3900782017580E+00
-0.4161849912681E+00 -0.3816840837639E+00
-0.4075029398857E+00 -0.3739590637853E+00
-0.3986457910134E+00 -0.3669715576433E+00
-0.3897943269250E+00 -0.3607671899676E+00
-0.4314914411848E+00 -0.5282469984172E+00
-0.4385549529982E+00 -0.5243832275863E+00
-0.4444688158098E+00 -0.5195428841846E+00
-0.4491702120337E+00 -0.5137241896762E+00
-0.4526192522823E+00 -0.5069698151414E+00
-0.4547829184830E+00 -0.4993492124817E+00
-0.4556359520429E+00 -0.4909515482641E+00
-0.4551632159420E+00 -0.4818823312185E+00
-0.4533631467215E+00 -0.4722619601070E+00
-0.4502514040319E+00 -0.4622247701109E+00
-0.4458645224886E+00 -0.4519177994871E+00
-0.4402633327326E+00 -0.4414987505391E+00
-0.4335358449752E+00 -0.4311327590545E+00
-0.4257991152322E+00 -0.4209876845840E+00
-0.4171993963875E+00 -0.4112277924870E+00
-0.4079097441541E+00 -0.4020060557749E+00
-0.3981243521342E+00 -0.3934559734907E+00
-0.3880502334809E+00 -0.3856848951632E+00
-0.3778955319348E+00 -0.3787717841611E+00
-0.4224310130651E+00 -0.5488690202358E+00
-0.4298842617578E+00 -0.5461089526651E+00
-0.4362535512289E+00 -0.5423077818069E+00
-0.4414439600730E+00 -0.5374548115110E+00
-0.4453873956149E+00 -0.5315657659110E+00
-0.4480286467859E+00 -0.5246841102610E+00
-0.4493205049800E+00 -0.5168765168868E+00
-0.4492245069119E+00 -0.5082303373617E+00
-0.4477136179914E+00 -0.4988523894774E+00
-0.4447760450244E+00 -0.4888685213621E+00
-0.4404196859778E+00 -0.4784232709737E+00
-0.4346770106466E+00 -0.4676790422739E+00
-0.4276101433642E+00 -0.4568142432894E+00
-0.4193157379130E+00 -0.4460198105180E+00
-0.4099288561987E+00 -0.4354935181036E+00
-0.3996244354468E+00 -0.4254315557246E+00
-0.3886142796388E+00 -0.4160173709727E+00
-0.3771372098531E+00 -0.4074091143057E+00
-0.3654420206396E+00 -0.3997283382176E+00
-0.4125202281104E+00 -0.5701585711202E+00
-0.4203407418152E+00 -0.5687085650552E+00
-0.4271423085465E+00 -0.5661546788936E+00
-0.4328161026985E+00 -0.5624788060358E+00
-0.4372717002779E+00 -0.5576789348454E+00
-0.4404307915609E+00 -0.5517744704672E+00
-0.4422228918309E+00 -0.5448072054556E+00
-0.4425844936495E+00 -0.5368408663245E+00
-0.4414607605022E+00 -0.5279611909665E+00
-0.4388087998067E+00 -0.5182765760024E+00
-0.4346021775657E+00 -0.5079190547399E+00
-0.4288365471699E+00 -0.4970451903478E+00
-0.4215363745912E+00 -0.4858363686105E+00
-0.4127626679576E+00 -0.4744978113545E+00
-0.4026212954397E+00 -0.4632553658598E+00
-0.3912707241819E+00 -0.4523487591432E+00
-0.3789264133731E+00 -0.4420196643438E+00
-0.3658568666382E+00 -0.4324934647136E+00
-0.3523666524889E+00 -0.4239569712029E+00
-0.4016974606239E+00 -0.5919679521517E+00
-0.4098562871857E+00 -0.5920342302832E+00
-0.4170605628899E+00 -0.5909491150077E+00
-0.4231961543162E+00 -0.5886852466335E+00
-0.4281581736582E+00 -0.5852245830251E+00
-0.4318492953621E+00 -0.5805647180895E+00
-0.4341773745236E+00 -0.5747219844610E+00
-0.4350544726800E+00 -0.5677331694091E+00
-0.4343976612572E+00 -0.5596570118807E+00
-0.4321314337408E+00 -0.5505761187666E+00
-0.4281915809718E+00 -0.5405993865083E+00
-0.4225306101760E+00 -0.5298648085796E+00
-0.4151249631472E+00 -0.5185423827736E+00
-0.4059844184720E+00 -0.5068366221262E+00
-0.3951640702151E+00 -0.4949877965911E+00
-0.3827789428556E+00 -0.4832703247350E+00
-0.3690201333349E+00 -0.4719854778284E+00
-0.3541674664299E+00 -0.4614434864076E+00
-0.3385855595699E+00 -0.4519305034022E+00
-0.3899062933030E+00 -0.6141369714652E+00
-0.3983619254774E+00 -0.6159175012085E+00
-0.4059277400237E+00 -0.6165232493286E+00
-0.4124883155340E+00 -0.6159153247604E+00
-0.4179300031331E+00 -0.6140601918739E+00
-0.4221414154189E+00 -0.6109349418411E+00
-0.4250124040154E+00 -0.6065310120161E+00
-0.4264332818693E+00 -0.6008568789199E+00
-0.4262950156311E+00 -0.5939405363716E+00
-0.4244906102071E+00 -0.5858323163451E+00
-0.4209178066614E+00 -0.5766083909028E+00
-0.4154833225508E+00 -0.5663751152591E+00
-0.4081090926862E+00 -0.5552742730903E+00
-0.3987412809910E+00 -0.5434891695557E+00
-0.3873632581513E+00 -0.5312512844536E+00
-0.3740142975068E+00 -0.5188466422484E+00
-0.3588161930347E+00 -0.5066196799896E+00
-0.3420095776975E+00 -0.4949690321496E+00
-0.3239910626557E+00 -0.4843198598078E+00
-0.3770999854786E+00 -0.6364890533144E+00
-0.3857962151747E+00 -0.6401681523054E+00
-0.3936678959434E+00 -0.6426775450652E+00
-0.4005997212848E+00 -0.6439664257304E+00
-0.4064728764291E+00 -0.6439867266330E+00
-0.4111660532142E+00 -0.6426969816786E+00
-0.4145550570509E+00 -0.6400656299105E+00
-0.4165121161852E+00 -0.6360738134719E+00
-0.4169055497348E+00 -0.6307180740915E+00
-0.4156001199464E+00 -0.6240134078102E+00
-0.4124582737254E+00 -0.6159970727526E+00
-0.4073425332525E+00 -0.6067335104153E+00
-0.4001194914615E+00 -0.5963207567351E+00
-0.3906662328772E+00 -0.5848987937973E+00
-0.3788806438516E+00 -0.5726604025878E+00
-0.3646982506957E+00 -0.5598651632583E+00
-0.3481205362532E+00 -0.5468570902331E+00
-0.3292640141536E+00 -0.5340850684037E+00
-0.3084499173170E+00 -0.5221184651592E+00
-0.3632381359245E+00 -0.6588262849867E+00
-0.3721004098960E+00 -0.6645649896438E+00
-0.3802039195275E+00 -0.6691701733680E+00
-0.3874338758333E+00 -0.6725807276036E+00
-0.3936683909593E+00 -0.6747364277870E+00
-0.3987792500817E+00 -0.6755805010805E+00
-0.4026316060005E+00 -0.6750621519696E+00
-0.4050831990803E+00 -0.6731389022471E+00
-0.4059835485458E+00 -0.6697789241040E+00
-0.4051733770402E+00 -0.6649636709510E+00
-0.4024844270419E+00 -0.6586911586833E+00
-0.3977398244246E+00 -0.6509802979681E+00
-0.3907552448338E+00 -0.6418767888182E+00
-0.3813413739376E+00 -0.6314613086496E+00
-0.3693086293890E+00 -0.6198611301490E+00
-0.3544761163312E+00 -0.6072670434944E+00
-0.3366890706557E+00 -0.5939588720985E+00
-0.3158550363917E+00 -0.5803456486533E+00
-0.2920271078054E+00 -0.5670335406091E+00
-0.3482880023255E+00 -0.6809265045847E+00
-0.3572201731254E+00 -0.6888487389064E+00
-0.3654598854455E+00 -0.6957059283488E+00
-0.3728930908278E+00 -0.7014299034886E+00
-0.3793961329086E+00 -0.7059520727862E+00
-0.3848359741530E+00 -0.7092050546162E+00
-0.3890696616200E+00 -0.7111244577867E+00
-0.3919432994163E+00 -0.7116506364001E+00
-0.3932907698060E+00 -0.7107304630977E+00
-0.3929323458602E+00 -0.7083192898619E+00
-0.3906732457775E+00 -0.7043833362366E+00
-0.3863021171246E+00 -0.6989028158500E+00
-0.3795894070838E+00 -0.6918762318011E+00
-0.3702855675112E+00 -0.6833264999172E+00
-0.3581190662749E+00 -0.6733099967405E+00
-0.3427942641384E+00 -0.6619304970109E+00
-0.3239894831833E+00 -0.6493617957620E+00
-0.3013566839888E+00 -0.6358873055558E+00
-0.2745268163575E+00 -0.6219766552251E+00
-0.3322365506644E+00 -0.7025539173543E+00
-0.3411271332225E+00 -0.7127388564731E+00
-0.3493907392266E+00 -0.7219566913050E+00
-0.3569142651381E+00 -0.7301360515301E+00
-0.3635730568307E+00 -0.7372043229034E+00
-0.3692304987810E+00 -0.7430887392138E+00
-0.3737370524982E+00 -0.7477176745532E+00
-0.3769288094594E+00 -0.7510219977824E+00
-0.3786256412041E+00 -0.7529364809445E+00
-0.3786289651303E+00 -0.7534013434856E+00
-0.3767190501671E+00 -0.7523640741402E+00
-0.3726516718614E+00 -0.7497817258917E+00
-0.3661537732813E+00 -0.7456239552462E+00
-0.3569175471890E+00 -0.7398772083526E+00
-0.3445919208900E+00 -0.7325506943435E+00
-0.3287695547358E+00 -0.7236852268222E+00
-0.3089655519780E+00 -0.7133668678600E+00
-0.2845789211129E+00 -0.7017490038203E+00
-0.2548141603626E+00 -0.6890906746963E+00
-0.3150909826048E+00 -0.7234667029728E+00
-0.3238202528803E+00 -0.7359441758695E+00
-0.3319857380604E+00 -0.7475759614949E+00
-0.3394756712342E+00 -0.7582908812125E+00
-0.3461650836234E+00 -0.7680159779508E+00
-0.3519147816573E+00 -0.7766773253371E+00
-0.3565698633926E+00 -0.7842010311283E+00
-0.3599577390518E+00 -0.7905143480082E+00
-0.3618856291270E+00 -0.7955468689170E+00
-0.3621374597393E+00 -0.7992318376349E+00
-0.3604699780034E+00 -0.8015076389335E+00
-0.3566077690642E+00 -0.8023195509962E+00
-0.3502366448693E+00 -0.8016218500097E+00
-0.3409945307244E+00 -0.7993803483578E+00
-0.3284583707215E+00 -0.7955753978920E+00
-0.3121244264719E+00 -0.7902052115255E+00
-0.2913769763745E+00 -0.7832887879971E+00
-0.2654352117799E+00 -0.7748657472040E+00
-0.2332532479744E+00 -0.7649833721002E+00
-0.2968772611378E+00 -0.7434241700794E+00
-0.3053232337423E+00 -0.7581729286416E+00
-0.3132655206558E+00 -0.7722133056244E+00
-0.3205944490383E+00 -0.7854766495527E+00
-0.3271857819623E+00 -0.7978920242742E+00
-0.3328991749171E+00 -0.8093868001914E+00
-0.3375762029819E+00 -0.8198873993006E+00
-0.3410378830631E+00 -0.8293201301962E+00
-0.3430816115630E+00 -0.8376120739754E+00
-0.3434773912136E+00 -0.8446919995442E+00
-0.3419631375937E+00 -0.8504912858418E+00
-0.3382387325961E+00 -0.8549448011773E+00
-0.3319583122107E+00 -0.8579916233756E+00
-0.3227200059035E+00 -0.8595753487682E+00
-0.3100519264316E+00 -0.8596434628960E+00
-0.2933925623093E+00 -0.8581446714735E+00
-0.2720627679050E+00 -0.8550218010978E+00
-0.2452256879178E+00 -0.8501949730850E+00
-0.2118331669835E+00 -0.8435214278294E+00
-0.2776383708758E+00 -0.7621927599423E+00
-0.2856814661690E+00 -0.7791412569019E+00
-0.2932778426482E+00 -0.7955266457608E+00
-0.3003211394646E+00 -0.8112840515880E+00
-0.3066894838374E+00 -0.8263456537033E+00
-0.3122435626695E+00 -0.8406410300050E+00
-0.3168242896826E+00 -0.8540975910547E+00
-0.3202499892149E+00 -0.8666410428209E+00
-0.3223130116369E+00 -0.8781958175339E+00
-0.3227756645332E+00 -0.8886854037443E+00
-0.3213652921778E+00 -0.8980324786806E+00
-0.3177682659555E+00 -0.9061586875949E+00
-0.3116225627231E+00 -0.9129838093282E+00
-0.3025085152334E+00 -0.9184238644698E+00
-0.2899372558921E+00 -0.9223874068866E+00
-0.2733364572265E+00 -0.9247686887383E+00
-0.2520336521385E+00 -0.9254354713473E+00
-0.2252397800201E+00 -0.9242077848953E+00
-0.1920465382943E+00 -0.9208241005127E+00
-0.2574325145994E+00 -0.7795507087733E+00
-0.2649591193433E+00 -0.7985795369647E+00
-0.2720933705555E+00 -0.8171909703371E+00
-0.2787339076859E+00 -0.8353242620170E+00
-0.2847634707366E+00 -0.8529148206271E+00
-0.2900467497396E+00 -0.8698942559635E+00
-0.2944278739048E+00 -0.8861904414737E+00
-0.2977274807626E+00 -0.9017275285269E+00
-0.2997393073951E+00 -0.9164258358102E+00
-0.3002262375913E+00 -0.9302015158202E+00
-0.2989157264901E+00 -0.9429658619997E+00
-0.2954945174178E+00 -0.9546240568425E+00
-0.2896025810827E+00 -0.9650730635417E+00
-0.2808262804175E+00 -0.9741982192347E+00
-0.2686909690309E+00 -0.9818678850783E+00
-0.2526537448991E+00 -0.9879252608884E+00
-0.2320981937136E+00 -0.9921762863151E+00
-0.2063356050899E+00 -0.9943730099181E+00
-0.1746183510703E+00 -0.9941946658118E+00
-0.2363313317799E+00 -0.7952916843954E+00
-0.2432365077222E+00 -0.8162370372202E+00
-0.2498019293379E+00 -0.8369044088753E+00
-0.2559333212879E+00 -0.8572368931764E+00
-0.2615207899913E+00 -0.8771726104077E+00
-0.2664366214435E+00 -0.8966444196938E+00
-0.2705327853731E+00 -0.9155795803242E+00
-0.2736381158835E+00 -0.9338992973567E+00
-0.2755551524869E+00 -0.9515180719725E+00
-0.2760566393058E+00 -0.9683427547605E+00
-0.2748817017117E+00 -0.9842711668945E+00
-0.2717317606053E+00 -0.9991901078948E+00
-0.2662663245509E+00 -0.1012972509663E+01
-0.2580989516841E+00 -0.1025473431487E+01
-0.2467939530441E+00 -0.1036524544067E+01
-0.2318648805546E+00 -0.1045926790108E+01
-0.2127765983855E+00 -0.1053441206486E+01
-0.1889531343060E+00 -0.1058778797890E+01
-0.1597928815749E+00 -0.1061591463776E+01
-0.2144179341218E+00 -0.8092278719253E+00
-0.2206072845142E+00 -0.8318857902919E+00
-0.2265086131465E+00 -0.8543930867403E+00
-0.2320370728040E+00 -0.8766960209457E+00
-0.2370931959034E+00 -0.8987345922372E+00
-0.2415608002122E+00 -0.9204419155178E+00
-0.2453046804342E+00 -0.9417434935682E+00
-0.2481680860319E+00 -0.9625563299346E+00
-0.2499700096190E+00 -0.9827878149315E+00
-0.2505023395461E+00 -0.1002334302078E+01
-0.2495269714541E+00 -0.1021079273365E+01
-0.2467730356676E+00 -0.1038890971523E+01
-0.2419344924154E+00 -0.1055619362803E+01
-0.2346684898253E+00 -0.1071092300296E+01
-0.2245950780413E+00 -0.1085110816764E+01
-0.2112991127697E+00 -0.1097443642508E+01
-0.1943352906346E+00 -0.1107821396367E+01
-0.1732370166150E+00 -0.1115931361502E+01
-0.1475289345410E+00 -0.1121414161763E+01
-0.1917850987924E+00 -0.8211923068790E+00
-0.1971760060197E+00 -0.8453233092325E+00
-0.2023305355242E+00 -0.8694142704529E+00
-0.2071756915382E+00 -0.8934137604445E+00
-0.2116255578610E+00 -0.9172627530628E+00
-0.2155794465121E+00 -0.9408936934532E+00
-0.2189199110192E+00 -0.9642294284593E+00
-0.2215106473806E+00 -0.9871819610589E+00
-0.2231943349772E+00 -0.1009650984650E+01
-0.2237905051806E+00 -0.1031522148100E+01
-0.2230935709761E+00 -0.1052664999487E+01
-0.2208712103756E+00 -0.1072930559556E+01
-0.2168633718613E+00 -0.1092148492903E+01
-0.2107822574559E+00 -0.1110123889167E+01
-0.2023137201838E+00 -0.1126633756570E+01
-0.1911205286353E+00 -0.1141423484907E+01
-0.1768478201355E+00 -0.1154203735034E+01
-0.1591306924720E+00 -0.1164648396863E+01
-0.1376033922959E+00 -0.1172394302904E+01
-0.1685336283506E+00 -0.8310406626826E+00
-0.1730560623420E+00 -0.8563745201257E+00
-0.1773942108158E+00 -0.8817584078425E+00
-0.1814892413872E+00 -0.9071423194008E+00
-0.1852717337995E+00 -0.9324673886926E+00
-0.1886601759251E+00 -0.9576646999747E+00
-0.1915593904598E+00 -0.9826539449573E+00
-0.1938589261026E+00 -0.1007341909283E+01
-0.1954314760052E+00 -0.1031620772463E+01
-0.1961314195819E+00 -0.1055366210132E+01
-0.1957936227318E+00 -0.1078435297112E+01
-0.1942326753844E+00 -0.1100664227540E+01
-0.1912427891208E+00 -0.1121865899014E+01
-0.1865986095048E+00 -0.1141827457334E+01
-0.1800571930410E+00 -0.1160307970793E+01
-0.1713613241632E+00 -0.1177036489864E+01
-0.1602441695628E+00 -0.1191710824486E+01
-0.1464350040894E+00 -0.1203997388637E+01
-0.1296654012504E+00 -0.1213532391948E+01
-0.1447707993533E+00 -0.8386526565459E+00
-0.1483677736831E+00 -0.8648932313837E+00
-0.1518332393697E+00 -0.8912505930003E+00
-0.1551245409012E+00 -0.9176753365662E+00
-0.1581912877613E+00 -0.9441081219049E+00
-0.1609742720223E+00 -0.9704782908818E+00
-0.1634043624803E+00 -0.9967023278925E+00
-0.1654014080310E+00 -0.1022682167226E+01
-0.1668732064622E+00 -0.1048303358015E+01
-0.1677146202591E+00 -0.1073433109462E+01
-0.1678069481912E+00 -0.1097918256375E+01
-0.1670176873559E+00 -0.1121583208911E+01
-0.1652008383485E+00 -0.1144227981546E+01
-0.1621979047243E+00 -0.1165626434095E+01
-0.1578397020068E+00 -0.1185524896863E+01
-0.1519490076919E+00 -0.1203641380894E+01
-0.1443439550049E+00 -0.1219665572233E+01
-0.1348419128674E+00 -0.1233259757090E+01
-0.1232634721269E+00 -0.1244060703562E+01
-0.1206090378550E+00 -0.8439330394216E+00
-0.1232369102589E+00 -0.8707630562216E+00
-0.1257866621641E+00 -0.8977513421083E+00
-0.1282333582504E+00 -0.9248483872396E+00
-0.1305475596192E+00 -0.9519939581447E+00
-0.1326947094400E+00 -0.9791155917637E+00
-0.1346345203843E+00 -0.1006126935278E+01
-0.1363203861763E+00 -0.1032925951585E+01
-0.1376988533258E+00 -0.1059393020883E+01
-0.1387092038184E+00 -0.1085388985050E+01
-0.1392832140394E+00 -0.1110753202547E+01
-0.1393451668903E+00 -0.1135301706329E+01
-0.1388121980978E+00 -0.1158825583589E+01
-0.1375950475751E+00 -0.1181089719549E+01
-0.1355992560394E+00 -0.1201832060774E+01
-0.1327267949369E+00 -0.1220763546491E+01
-0.1288780519814E+00 -0.1237568820182E+01
-0.1239540427211E+00 -0.1251907759512E+01
-0.1178586831993E+00 -0.1263417752525E+01
-0.9616485675951E-01 -0.8468138646405E+00
-0.9779370014646E-01 -0.8739011601835E+00
-0.9939806076603E-01 -0.9011617608390E+00
-0.1009716489905E+00 -0.9285454663813E+00
-0.1025071194888E+00 -0.9559909226850E+00
-0.1039959456294E+00 -0.9834240627551E+00
-0.1054283077463E+00 -0.1010756397499E+01
-0.1067930005073E+00 -0.1037883183436E+01
-0.1080773674132E+00 -0.1064681507086E+01
-0.1092672734144E+00 -0.1091008343838E+01
-0.1103471294442E+00 -0.1116698671327E+01
-0.1112999844495E+00 -0.1141563741484E+01
-0.1121077001590E+00 -0.1165389638045E+01
-0.1127512201319E+00 -0.1187936261700E+01
-0.1132109371147E+00 -0.1208936885850E+01
-0.1134671527117E+00 -0.1228098405232E+01
-0.1135006166383E+00 -0.1245102353836E+01
-0.1132931405792E+00 -0.1259606703437E+01
-0.1128283458814E+00 -0.1271248370068E+01
-0.7155796724432E-01 -0.8472598370339E+00
-0.7217216148283E-01 -0.8742684370406E+00
-0.7281521592883E-01 -0.9014385219477E+00
-0.7349970633440E-01 -0.9287186750004E+00
-0.7424064177100E-01 -0.9560462798081E+00
-0.7505582705729E-01 -0.9833459782934E+00
-0.7596624786207E-01 -0.1010527980475E+01
-0.7699646502619E-01 -0.1037486250732E+01
-0.7817499597017E-01 -0.1064096608005E+01
-0.7953465256463E-01 -0.1090214795346E+01
-0.8111279653563E-01 -0.1115674596208E+01
-0.8295146683837E-01 -0.1140286099180E+01
-0.8509733120629E-01 -0.1163834236202E+01
-0.8760142013958E-01 -0.1186077736522E+01
-0.9051861969887E-01 -0.1206748642645E+01
-0.9390693093024E-01 -0.1225552518236E+01
-0.9782654517949E-01 -0.1242169438675E+01
-0.1023388267193E+00 -0.1256255798671E+01
-0.1075053479500E+00 -0.1267446933996E+01
-0.4690958295449E-01 -0.8452642598886E+00
-0.4650781299134E-01 -0.8718609957546E+00
-0.4618742310078E-01 -0.8985808576946E+00
-0.4597937260939E-01 -0.9253707084880E+00
-0.4592041169058E-01 -0.9521665411310E+00
-0.4605391152479E-01 -0.9788920240861E+00
-0.4643073433897E-01 -0.1005456897998E+01
-0.4711011324806E-01 -0.1031755237120E+01
-0.4816049381823E-01 -0.1057663599671E+01
-0.4966026988745E-01 -0.1083039106952E+01
-0.5169832638637E-01 -0.1107717511343E+01
-0.5437428448140E-01 -0.1131511337998E+01
-0.5779833497401E-01 -0.1154208212950E+01
-0.6209055320620E-01 -0.1175569518439E+01
-0.6737962245656E-01 -0.1195329538239E+01
-0.7380095837606E-01 -0.1213195261994E+01
-0.8149431622200E-01 -0.1228846997625E+01
-0.9060104991947E-01 -0.1241939891425E+01
-0.1012611923714E+00 -0.1252106392215E+01
-0.2234130827952E-01 -0.8408476733469E+00
-0.2093652956226E-01 -0.8667073062320E+00
-0.1966441340916E-01 -0.8926261816861E+00
-0.1857317454535E-01 -0.9185489343018E+00
-0.1771987684941E-01 -0.9444099954596E+00
-0.1717169339776E-01 -0.9701322965671E+00
-0.1700723889722E-01 -0.9956258232696E+00
-0.1731793598880E-01 -0.1020786016278E+01
-0.1820935136994E-01 -0.1045492020715E+01
-0.1980240901843E-01 -0.1069604796508E+01
-0.2223435620086E-01 -0.1092965118131E+01
-0.2565932555647E-01 -0.1115391514607E+01
-0.3024830928026E-01 -0.1136678232512E+01
-0.3618835100243E-01 -0.1156593347432E+01
-0.4368078557470E-01 -0.1174877200787E+01
-0.5293843595232E-01 -0.1191241388364E+01
-0.6418181676245E-01 -0.1205368551897E+01
-0.7763456394537E-01 -0.1216913196505E+01
-0.9351844974064E-01 -0.1225503642403E+01
 0.2025817281035E-02 -0.8340578684942E+00
 0.4406288315472E-02 -0.8588683089233E+00
 0.6604269437887E-02 -0.8836503095806E+00
 0.8555974990988E-02 -0.9083457471580E+00
 0.1018616579105E-01 -0.9328872337591E+00
 0.1140651881509E-01 -0.9571970453511E+00
 0.1211387320536E-01 -0.9811859068224E+00
 0.1218838732956E-01 -0.1004751607896E+01
 0.1149167193145E-01 -0.1027777423777E+01
 0.9864999047736E-02 -0.1050130317362E+01
 0.7127727535549E-02 -0.1071658906828E+01
 0.3076135079323E-02 -0.1092191196760E+01
-0.2517098377763E-02 -0.1111532098675E+01
-0.9902458407478E-02 -0.1129460816806E+01
-0.1935189053462E-01 -0.1145728256384E+01
-0.3115553763279E-01 -0.1160054723646E+01
-0.4561679472423E-01 -0.1172128302441E+01
-0.6304585421812E-01 -0.1181604349459E+01
-0.8375229258411E-01 -0.1188106470696E+01
 0.2607243132687E-01 -0.8249697229881E+00
 0.2938683097268E-01 -0.8484373748809E+00
 0.3247031855446E-01 -0.8717675926189E+00
 0.3524565309175E-01 -0.8948989479957E+00
 0.3762212192064E-01 -0.9177618710246E+00
 0.3949362794390E-01 -0.9402778622844E+00
 0.4073658422617E-01 -0.9623585810842E+00
 0.4120763318321E-01 -0.9839047615786E+00
 0.4074123911914E-01 -0.1004804901624E+01
 0.3914723758751E-01 -0.1024933663082E+01
 0.3620846850791E-01 -0.1044149916442E+01
 0.3167867922529E-01 -0.1062294359846E+01
 0.2528096590624E-01 -0.1079186650732E+01
 0.1670713063696E-01 -0.1094622022620E+01
 0.5618459079819E-02 -0.1108367444479E+01
-0.8351478041251E-02 -0.1120157548113E+01
-0.2559144816058E-01 -0.1129690806565E+01
-0.4650440036034E-01 -0.1136626717556E+01
-0.7149702533971E-01 -0.1140584871574E+01
 0.4968202585361E-01 -0.8136848974623E+00
 0.5387407218382E-01 -0.8355402007790E+00
 0.5778782645883E-01 -0.8571310900237E+00
 0.6133498038473E-01 -0.8783923090132E+00
 0.6441242045197E-01 -0.8992516609735E+00
 0.6690015460343E-01 -0.9196295481690E+00
 0.6865896519151E-01 -0.9394384268063E+00
 0.6952777603910E-01 -0.9585821086716E+00
 0.6932075152226E-01 -0.9769548294251E+00
 0.6782417222552E-01 -0.9944399906639E+00
 0.6479316418574E-01 -0.1010908463160E+01
 0.5994841021495E-01 -0.1026216311667E+01
 0.5297305975846E-01 -0.1040201772582E+01
 0.4351020208654E-01 -0.1052681298951E+01
 0.3116150374925E-01 -0.1063444515138E+01
 0.1548795269979E-01 -0.1072248062297E+01
-0.3986005287954E-02 -0.1078808686370E+01
-0.2776370359959E-01 -0.1082796567384E+01
-0.5636248991420E-01 -0.1083830547529E+01
 0.7274235648762E-01 -0.8003313330120E+00
 0.7774136992168E-01 -0.8203345222595E+00
 0.8241507084060E-01 -0.8399325842971E+00
 0.8666655524260E-01 -0.8590560253600E+00
 0.9038351542118E-01 -0.8776295759933E+00
 0.9343616566960E-01 -0.8955720801887E+00
 0.9567480697371E-01 -0.9127963630310E+00
 0.9692698448971E-01 -0.9292089875321E+00
 0.9699422067243E-01 -0.9447098046580E+00
 0.9564831648608E-01 -0.9591911891784E+00
 0.9262721746468E-01 -0.9725368257802E+00
 0.8763045764830E-01 -0.9846198591507E+00
 0.8031424531805E-01 -0.9953001466676E+00
 0.7028637690480E-01 -0.1004420255099E+01
 0.5710142803117E-01 -0.1011799738908E+01
 0.4025718752490E-01 -0.1017227184249E+01
 0.1919427331659E-01 -0.1020449680548E+01
-0.6697906228852E-02 -0.1021160287520E+01
-0.3806577008948E-01 -0.1018985897473E+01
 0.9514719835195E-01 -0.7850624059855E+00
 0.1008686664863E+00 -0.8030093917376E+00
 0.1062172033295E+00 -0.8204020378057E+00
 0.1110896501550E+00 -0.8371664612414E+00
 0.1153675723705E+00 -0.8532240216745E+00
 0.1189153807874E+00 -0.8684915635072E+00
 0.1215779955242E+00 -0.8828817192558E+00
 0.1231779846147E+00 -0.8963031571100E+00
 0.1235121410652E+00 -0.9086606722117E+00
 0.1223474458751E+00 -0.9198550272942E+00
 0.1194163244616E+00 -0.9297824238268E+00
 0.1144110586855E+00 -0.9383334225767E+00
 0.1069771821811E+00 -0.9453910236069E+00
 0.9670568979784E-01 -0.9508274436458E+00
 0.8312399683194E-01 -0.9544988657599E+00
 0.6568596176381E-01 -0.9562370574264E+00
 0.4376232719548E-01 -0.9558362853265E+00
 0.1663593699981E-01 -0.9530338619751E+00
-0.1648913918230E-01 -0.9474852421110E+00
 0.1167981774624E+00 -0.7680559242446E+00
 0.1231448287467E+00 -0.7837843757715E+00
 0.1290692011823E+00 -0.7988069951614E+00
 0.1344638568378E+00 -0.8130458098154E+00
 0.1392068728367E+00 -0.8264188742088E+00
 0.1431603805164E+00 -0.8388408723334E+00
 0.1461685172641E+00 -0.8502238639002E+00
 0.1480547477924E+00 -0.8604780091173E+00
 0.1486185452778E+00 -0.8695121835949E+00
 0.1476313684642E+00 -0.8772344362123E+00
 0.1448317772127E+00 -0.8835522370948E+00
 0.1399194124979E+00 -0.8883724095123E+00
 0.1325474250449E+00 -0.8916005325556E+00
 0.1223127582857E+00 -0.8931394125085E+00
 0.1087434703098E+00 -0.8928858842920E+00
 0.9128205910397E-01 -0.8907245776522E+00
 0.6926381138468E-01 -0.8865161098223E+00
 0.4189048267977E-01 -0.8800748594918E+00
 0.8209850935965E-02 -0.8711288651796E+00
 0.1376070695214E+00 -0.7495126001309E+00
 0.1444709156803E+00 -0.7629080152450E+00
 0.1508602383697E+00 -0.7754508769036E+00
 0.1566646759219E+00 -0.7870600718337E+00
 0.1617607624490E+00 -0.7976510294165E+00
 0.1660110915230E+00 -0.8071367592696E+00
 0.1692626776199E+00 -0.8154290506649E+00
 0.1713446047071E+00 -0.8224396121376E+00
 0.1720650513747E+00 -0.8280811002545E+00
 0.1712076712924E+00 -0.8322680760344E+00
 0.1685271608493E+00 -0.8349179442983E+00
 0.1637436771405E+00 -0.8359519042653E+00
 0.1565355533684E+00 -0.8352958771437E+00
 0.1465294372426E+00 -0.8328812639522E+00
 0.1332864489101E+00 -0.8286451627179E+00
 0.1162820190799E+00 -0.8225291829389E+00
 0.9487538531107E-01 -0.8144747947509E+00
 0.6826166025126E-01 -0.8044101455355E+00
 0.3539415389042E-01 -0.7922130181192E+00
 0.1574986405484E+00 -0.7296536351984E+00
 0.1647645556690E+00 -0.7406549832070E+00
 0.1714996561352E+00 -0.7506692653897E+00
 0.1775911451596E+00 -0.7596139030907E+00
 0.1829151100404E+00 -0.7674032192471E+00
 0.1873363846139E+00 -0.7739501148607E+00
 0.1907072812532E+00 -0.7791677676500E+00
 0.1928655698622E+00 -0.7829710986370E+00
 0.1936319759841E+00 -0.7852780525266E+00
 0.1928072676331E+00 -0.7860108529884E+00
 0.1901688090147E+00 -0.7850974192670E+00
 0.1854662845461E+00 -0.7824731211425E+00
 0.1784160945043E+00 -0.7780830544679E+00
 0.1686936128543E+00 -0.7718850513921E+00
 0.1559219323922E+00 -0.7638537014016E+00
 0.1396546116282E+00 -0.7539857296520E+00
 0.1193474338609E+00 -0.7423070526079E+00
 0.9430842722533E-01 -0.7288811175804E+00
 0.6359632654310E-01 -0.7138147161477E+00
 0.1764140841554E+00 -0.7087167918077E+00
 0.1839654081412E+00 -0.7173210915116E+00
 0.1909242122602E+00 -0.7248228413633E+00
 0.1971747845922E+00 -0.7311402573525E+00
 0.2025930714907E+00 -0.7361890289188E+00
 0.2070470373191E+00 -0.7398850206820E+00
 0.2103954659156E+00 -0.7421465659817E+00
 0.2124860726815E+00 -0.7428962163369E+00
 0.2131534366443E+00 -0.7420621895568E+00
 0.2122169071132E+00 -0.7395798710719E+00
 0.2094784183620E+00 -0.7353936848559E+00
 0.2047200284496E+00 -0.7294596427442E+00
 0.1977009112467E+00 -0.7217489387729E+00
 0.1881534142970E+00 -0.7122531346745E+00
 0.1757775771942E+00 -0.7009918508812E+00
 0.1602330302158E+00 -0.6880246018154E+00
 0.1411262413852E+00 -0.6734699418685E+00
 0.1179878730053E+00 -0.6575385083549E+00
 0.9022966955056E-01 -0.6405963235098E+00
 0.1943137571747E+00 -0.6869492496156E+00
 0.2020390116098E+00 -0.6932125500326E+00
 0.2091026637997E+00 -0.6982816574091E+00
 0.2153848516165E+00 -0.7020779769992E+00
 0.2207613700810E+00 -0.7045218934932E+00
 0.2251038627765E+00 -0.7055369591366E+00
 0.2282780699363E+00 -0.7050528720354E+00
 0.2301417472752E+00 -0.7030074591225E+00
 0.2305429323797E+00 -0.6993483847831E+00
 0.2293186808690E+00 -0.6940351536432E+00
 0.2262942035793E+00 -0.6870418677695E+00
 0.2212823313211E+00 -0.6783611304756E+00
 0.2140833393752E+00 -0.6680095909258E+00
 0.2044853350134E+00 -0.6560358840130E+00
 0.1922657160870E+00 -0.6425322244945E+00
 0.1771948701981E+00 -0.6276518822279E+00
 0.1590447178119E+00 -0.6116367100386E+00
 0.1376094935716E+00 -0.5948636598769E+00
 0.1127563120872E+00 -0.5779304716009E+00
 0.2111712595870E+00 -0.6645891733135E+00
 0.2189651087548E+00 -0.6686130173011E+00
 0.2260198493334E+00 -0.6713789273180E+00
 0.2322106278936E+00 -0.6728135407140E+00
 0.2374143023620E+00 -0.6728458015225E+00
 0.2415079316997E+00 -0.6714129653076E+00
 0.2443656732602E+00 -0.6684637599291E+00
 0.2458563652303E+00 -0.6639603101697E+00
 0.2458423117836E+00 -0.6578799667986E+00
 0.2441791408807E+00 -0.6502179123065E+00
 0.2407165406341E+00 -0.6409909310328E+00
 0.2352999313624E+00 -0.6302426827167E+00
 0.2277734074825E+00 -0.6180508986124E+00
 0.2179846985523E+00 -0.6045371288344E+00
 0.2057935978391E+00 -0.5898800057521E+00
 0.1910866198108E+00 -0.5743334865366E+00
 0.1738036013074E+00 -0.5582523040131E+00
 0.1539883728855E+00 -0.5421274782612E+00
 0.1318971342867E+00 -0.5266360943612E+00
 0.2269742984887E+00 -0.6418666653127E+00
 0.2347387116402E+00 -0.6437878467499E+00
 0.2416777723444E+00 -0.6444177439922E+00
 0.2476632825996E+00 -0.6436890430734E+00
 0.2525771945241E+00 -0.6415436620447E+00
 0.2563059482679E+00 -0.6379390444772E+00
 0.2587353246471E+00 -0.6328504623516E+00
 0.2597481328470E+00 -0.6262717437593E+00
 0.2592242417988E+00 -0.6182168867889E+00
 0.2570420490503E+00 -0.6087228818078E+00
 0.2530812099255E+00 -0.5978538712383E+00
 0.2472267793153E+00 -0.5857066846149E+00
 0.2393753138397E+00 -0.5724178354009E+00
 0.2294439403591E+00 -0.5581721030462E+00
 0.2173840620143E+00 -0.5432127759796E+00
 0.2032024441578E+00 -0.5278533330650E+00
 0.1869939825825E+00 -0.5124892323542E+00
 0.1689928621297E+00 -0.4976051594213E+00
 0.1496478263322E+00 -0.4837598670680E+00
 0.2417293419382E+00 -0.6190080037175E+00
 0.2493758948233E+00 -0.6189949105097E+00
 0.2561017987070E+00 -0.6176845520698E+00
 0.2617819211449E+00 -0.6150166160394E+00
 0.2663113183101E+00 -0.6109510078778E+00
 0.2695910786279E+00 -0.6054728980385E+00
 0.2715220311554E+00 -0.5985899132257E+00
 0.2720044966734E+00 -0.5903315245115E+00
 0.2709401071787E+00 -0.5807501722170E+00
 0.2682351248524E+00 -0.5699239111157E+00
 0.2638050237883E+00 -0.5579601483373E+00
 0.2575805907809E+00 -0.5450001536812E+00
 0.2495160677317E+00 -0.5312240240853E+00
 0.2396001277833E+00 -0.5168556623380E+00
 0.2278707286600E+00 -0.5021669812038E+00
 0.2144349355382E+00 -0.4874797446963E+00
 0.1994941229259E+00 -0.4731617595923E+00
 0.1833708318191E+00 -0.4596103045104E+00
 0.1665164946845E+00 -0.4472081659785E+00
 0.2554593285288E+00 -0.5962353852274E+00
 0.2629085641155E+00 -0.5944805770368E+00
 0.2693312151944E+00 -0.5914414469283E+00
 0.2746245356936E+00 -0.5870646197711E+00
 0.2787058655899E+00 -0.5813413070889E+00
 0.2814926423624E+00 -0.5742910222955E+00
 0.2829028574484E+00 -0.5659563632534E+00
 0.2828571035798E+00 -0.5564017059213E+00
 0.2812823037629E+00 -0.5457143534650E+00
 0.2781163266316E+00 -0.5340068192041E+00
 0.2733136163494E+00 -0.5214195336238E+00
 0.2668520316911E+00 -0.5081234333180E+00
 0.2587411682363E+00 -0.4943218773254E+00
 0.2490323972125E+00 -0.4802511350424E+00
 0.2378306159444E+00 -0.4661782801963E+00
 0.2253069992935E+00 -0.4523946665582E+00
 0.2117100262997E+00 -0.4392022244159E+00
 0.1973678550747E+00 -0.4268893759450E+00
 0.1826673260164E+00 -0.4156985186681E+00
 0.2682036471517E+00 -0.5737697655056E+00
 0.2753626902563E+00 -0.5704842604469E+00
 0.2814019581480E+00 -0.5659081844564E+00
 0.2862625947619E+00 -0.5600397490465E+00
 0.2898747848062E+00 -0.5529129712002E+00
 0.2921707368029E+00 -0.5445834178444E+00
 0.2930862395105E+00 -0.5351251599552E+00
 0.2925644727436E+00 -0.5246314669841E+00
 0.2905600649807E+00 -0.5132165148178E+00
 0.2870438957244E+00 -0.5010171150408E+00
 0.2820086042698E+00 -0.4881939172645E+00
 0.2754748077547E+00 -0.4749316367516E+00
 0.2674978951677E+00 -0.4614377778685E+00
 0.2581750221503E+00 -0.4479391384887E+00
 0.2476514755120E+00 -0.4346751390742E+00
 0.2361247651286E+00 -0.4218868363622E+00
 0.2238437462136E+00 -0.4098008187121E+00
 0.2110989377374E+00 -0.3986090944517E+00
 0.1982094830105E+00 -0.3884524777418E+00
</DataArray>
</PointData>
   <DataArray type="Float64" Name="Load" NumberOfComponents="1"    ComponentName0="Load" format="ascii">
 0.5064597720992E+01
 0.4465067372205E+01
 0.4015021709415E+01
 0.3849400054737E+01
 0.3739285293272E+01
 0.3674380716055E+01
 0.3633754121470E+01
 0.3610382599361E+01
 0.3599543362970E+01
 0.3598791790397E+01
 0.3606800095128E+01
 0.3623057222562E+01
 0.3647657279008E+01
 0.3681230937803E+01
 0.3724961684429E+01
 0.3780716305542E+01
 0.3851362928491E+01
 0.3941614325061E+01
 0.4060044023395E+01
 0.4219080526159E+01
 0.4413345913692E+01
 0.4614308317540E+01
 0.4798111558020E+01
 0.4956918692451E+01
 0.5093583629538E+01
 0.5214555623699E+01
 0.5325613892585E+01
 0.5430112177020E+01
 0.5528099045463E+01
 0.5615487445882E+01
 0.5689148309963E+01
 0.5757202418934E+01
 0.5832624909405E+01
 0.5924126199566E+01
 0.6040658659579E+01
 0.6190677755482E+01
 0.6399011516890E+01
 0.6631359197871E+01
 0.7149445948562E+01
 0.6389826250933E+01
 0.1303511113310E+02
 0.4311115742807E+01
 0.4425296992296E+01
 0.4094506395554E+01
 0.3894082177384E+01
 0.3781701654076E+01
 0.3707798800993E+01
 0.3661363410081E+01
 0.3633044614219E+01
 0.3618323068476E+01
 0.3614429409103E+01
 0.3619886694304E+01
 0.3634039522521E+01
 0.3656866902792E+01
 0.3688892924816E+01
 0.3731190289961E+01
 0.3785478141504E+01
 0.3854378111096E+01
 0.3941842955694E+01
 0.4052232756233E+01
 0.4186751814391E+01
 0.4338932922652E+01
 0.4495267913904E+01
 0.4642556170130E+01
 0.4773740715510E+01
 0.4887827702560E+01
 0.4986894388128E+01
 0.5073375814203E+01
 0.5148396923083E+01
 0.5211236110606E+01
 0.5260503086547E+01
 0.5295985550915E+01
 0.5319092768204E+01
 0.5331759751394E+01
 0.5334095143935E+01
 0.5320883623375E+01
 0.5281089356970E+01
 0.5176056129872E+01
 0.4975314213150E+01
 0.4341636901144E+01
 0.3318716970336E+01
 0.1109776357799E+02
 0.3907115435046E+01
 0.4193173751209E+01
 0.4087563638083E+01
 0.3913913584712E+01
 0.3804140321412E+01
 0.3730136525252E+01
 0.3680924513579E+01
 0.3649799208681E+01
 0.3632327615970E+01
 0.3625932820941E+01
 0.3629113818457E+01
 0.3641165464594E+01
 0.3661982913203E+01
 0.3691978158886E+01
 0.3732060396042E+01
 0.3783677489066E+01
 0.3848903387011E+01
 0.3930049770479E+01
 0.4027610455800E+01
 0.4138581710081E+01
 0.4257649368264E+01
 0.4378380496445E+01
 0.4493820480219E+01
 0.4598422555521E+01
 0.4689383466316E+01
 0.4766029599556E+01
 0.4828398578575E+01
 0.4876092396116E+01
 0.4908183195838E+01
 0.4924105816594E+01
 0.4923295912516E+01
 0.4903435835608E+01
 0.4860366119940E+01
 0.4787267444938E+01
 0.4671619168905E+01
 0.4488542344477E+01
 0.4199644018189E+01
 0.3728512228708E+01
 0.2960599181343E+01
 0.3149731136512E+01
 0.1023400644615E+02
 0.3656156887826E+01
 0.3971955887435E+01
 0.4008940122230E+01
 0.3904264690118E+01
 0.3809123902827E+01
 0.3740601487515E+01
 0.3692354000829E+01
 0.3660380634581E+01
 0.3641372022641E+01
 0.3633139974702E+01
 0.3634353371498E+01
 0.3644334171086E+01
 0.3662930721549E+01
 0.3690439254693E+01
 0.3727560955708E+01
 0.3775368352693E+01
 0.3835133144685E+01
 0.3907413840224E+01
 0.3990326527541E+01
 0.4079608954835E+01
 0.4171337694893E+01
 0.4262709999622E+01
 0.4350296845264E+01
 0.4429965270891E+01
 0.4498240193776E+01
 0.4552841966204E+01
 0.4592234197066E+01
 0.4615051919665E+01
 0.4620142578554E+01
 0.4606791447894E+01
 0.4573470514393E+01
 0.4515764708986E+01
 0.4426379384650E+01
 0.4295270173035E+01
 0.4107251290247E+01
 0.3839961853152E+01
 0.3465780715104E+01
 0.2959185387823E+01
 0.2524077873898E+01
 0.3891821354503E+01
 0.9466108788830E+01
 0.3484979704660E+01
 0.3788729381906E+01
 0.3903372292967E+01
 0.3866761332017E+01
 0.3798267111002E+01
 0.3739817618463E+01
 0.3695689848756E+01
 0.3664781599930E+01
 0.3645384274429E+01
 0.3635982323514E+01
 0.3635546964103E+01
 0.3643508277922E+01
 0.3659701203505E+01
 0.3684307663473E+01
 0.3717790501427E+01
 0.3760771875375E+01
 0.3813644750254E+01
 0.3875570421475E+01
 0.3943467487857E+01
 0.4013026882304E+01
 0.4081495638063E+01
 0.4148004069600E+01
 0.4211102370171E+01
 0.4267767550965E+01
 0.4314442427993E+01
 0.4348023941940E+01
 0.4366047934174E+01
 0.4366554099206E+01
 0.4348105555642E+01
 0.4309551582058E+01
 0.4248583522988E+01
 0.4159873501522E+01
 0.4035258798021E+01
 0.3864550830277E+01
 0.3635366526992E+01
 0.3335479970425E+01
 0.2962930388047E+01
 0.2582817051891E+01
 0.2633028396705E+01
 0.4558375763022E+01
 0.8833048766808E+01
 0.3360151172403E+01
 0.3640536043384E+01
 0.3793930801673E+01
 0.3811047166185E+01
 0.3773353397405E+01
 0.3728914099882E+01
 0.3691320884689E+01
 0.3663154681555E+01
 0.3644418877882E+01
 0.3634474791173E+01
 0.3632704782890E+01
 0.3638711540628E+01
 0.3652348575933E+01
 0.3673690234568E+01
 0.3702947215899E+01
 0.3740268771866E+01
 0.3785255684821E+01
 0.3836127152343E+01
 0.3889354020581E+01
 0.3941038807399E+01
 0.3989316482237E+01
 0.4034358324355E+01
 0.4075823452371E+01
 0.4111513704588E+01
 0.4138078630715E+01
 0.4152107775508E+01
 0.4150679197006E+01
 0.4131501063388E+01
 0.4092889941430E+01
 0.4033329389814E+01
 0.3950155892868E+01
 0.3838110433229E+01
 0.3689835758263E+01
 0.3497533462017E+01
 0.3255152866130E+01
 0.2964856027965E+01
 0.2658986706290E+01
 0.2486091714789E+01
 0.2969500654597E+01
 0.5009414567803E+01
 0.8328354014909E+01
 0.3264370622398E+01
 0.3520090725372E+01
 0.3690301082047E+01
 0.3745899518759E+01
 0.3737488679242E+01
 0.3709178462876E+01
 0.3679906926120E+01
 0.3655803975392E+01
 0.3638635666621E+01
 0.3628711204960E+01
 0.3625900283144E+01
 0.3630025320444E+01
 0.3640986153718E+01
 0.3658761962076E+01
 0.3683316932350E+01
 0.3714360536508E+01
 0.3750870704753E+01
 0.3790521894164E+01
 0.3829768132353E+01
 0.3865256736783E+01
 0.3895770075709E+01
 0.3922036442985E+01
 0.3944335682877E+01
 0.3961080056429E+01
 0.3969260154638E+01
 0.3965486558909E+01
 0.3946708811769E+01
 0.3910513403694E+01
 0.3855093865848E+01
 0.3778792699552E+01
 0.3679061421774E+01
 0.3551490853909E+01
 0.3390735874447E+01
 0.3193067928132E+01
 0.2960600359247E+01
 0.2711829227282E+01
 0.2512747702066E+01
 0.2566312274146E+01
 0.3340302492583E+01
 0.5290912987102E+01
 0.7927360341502E+01
 0.3187865821140E+01
 0.3420827448425E+01
 0.3595781276630E+01
 0.3677339579259E+01
 0.3694039547321E+01
 0.3682131295671E+01
 0.3662246326236E+01
 0.3643161449283E+01
 0.3628282340718E+01
 0.3618854583969E+01
 0.3615264235722E+01
 0.3617583354318E+01
 0.3625780318246E+01
 0.3639756739695E+01
 0.3659255462069E+01
 0.3683618551829E+01
 0.3711389569553E+01
 0.3739997835432E+01
 0.3766108837251E+01
 0.3786913786105E+01
 0.3801662341483E+01
 0.3811375543889E+01
 0.3816683270863E+01
 0.3816461734287E+01
 0.3808100136949E+01
 0.3788433112717E+01
 0.3754509916378E+01
 0.3703973704088E+01
 0.3635062534592E+01
 0.3546246744132E+01
 0.3435514222888E+01
 0.3299884038797E+01
 0.3136798389708E+01
 0.2947478138643E+01
 0.2742852037013E+01
 0.2557335800608E+01
 0.2483354376471E+01
 0.2738497407712E+01
 0.3671132942821E+01
 0.5459856714995E+01
 0.7605307006664E+01
 0.3124738852696E+01
 0.3337649983326E+01
 0.3510851041154E+01
 0.3609013227750E+01
 0.3645921944084E+01
 0.3649374852621E+01
 0.3639220865031E+01
 0.3625743073394E+01
 0.3613677811172E+01
 0.3605125807508E+01
 0.3600977446870E+01
 0.3601565444848E+01
 0.3606943195991E+01
 0.3616956505470E+01
 0.3631167213014E+01
 0.3648641255501E+01
 0.3667660575729E+01
 0.3685617507380E+01
 0.3699497427348E+01
 0.3706986090657E+01
 0.3707674261046E+01
 0.3702734230170E+01
 0.3693000143769E+01
 0.3677717800083E+01
 0.3654695468611E+01
 0.3621114294416E+01
 0.3574281696300E+01
 0.3512050225522E+01
 0.3432877962271E+01
 0.3335616687848E+01
 0.3219123857234E+01
 0.3082228526604E+01
 0.2925562021693E+01
 0.2755574835209E+01
 0.2591752385362E+01
 0.2482025556850E+01
 0.2533614425522E+01
 0.2945044223707E+01
 0.3944625049066E+01
 0.5557609515036E+01
 0.7342726273440E+01
 0.3071237491861E+01
 0.3266762675033E+01
 0.3434845285953E+01
 0.3542929183922E+01
 0.3595380113013E+01
 0.3612416532105E+01
 0.3611739681627E+01
 0.3604113198631E+01
 0.3595192356222E+01
 0.3587792190410E+01
 0.3583262554548E+01
 0.3582190376572E+01
 0.3584724552078E+01
 0.3590679363864E+01
 0.3599484594864E+01
 0.3610024083430E+01
 0.3620461088999E+01
 0.3628287250733E+01
 0.3630849030601E+01
 0.3626266433611E+01
 0.3614387050802E+01
 0.3596462977023E+01
 0.3573458829846E+01
 0.3544931995717E+01
 0.3509112912475E+01
 0.3463601154969E+01
 0.3406072345717E+01
 0.3334715546538E+01
 0.3248368093864E+01
 0.3146472341452E+01
 0.3028989350621E+01
 0.2896764518320E+01
 0.2753731591375E+01
 0.2611418236560E+01
 0.2496873499889E+01
 0.2467556738259E+01
 0.2632692322216E+01
 0.3153666936999E+01
 0.4163925095350E+01
 0.5610978005377E+01
 0.7125413379498E+01
 0.3024869403234E+01
 0.3205363785074E+01
 0.3366715115412E+01
 0.3480066995510E+01
 0.3544018695835E+01
 0.3572562483271E+01
 0.3580683105609E+01
 0.3578854604906E+01
 0.3573228668053E+01
 0.3567155762330E+01
 0.3562375556491E+01
 0.3559708406030E+01
 0.3559403347461E+01
 0.3561267843679E+01
 0.3564650820700E+01
 0.3568340628001E+01
 0.3570492557416E+01
 0.3568781949133E+01
 0.3560921902149E+01
 0.3545410667942E+01
 0.3522298881047E+01
 0.3492887143358E+01
 0.3458237896821E+01
 0.3418186091981E+01
 0.3371379661697E+01
 0.3315876935537E+01
 0.3249797081831E+01
 0.3171766290432E+01
 0.3081130883396E+01
 0.2978077779874E+01
 0.2863811923811E+01
 0.2741259095936E+01
 0.2617558221907E+01
 0.2508836849320E+01
 0.2448105803224E+01
 0.2497449854346E+01
 0.2757662067240E+01
 0.3348929243010E+01
 0.4337874151087E+01
 0.5636794416566E+01
 0.6943207372558E+01
 0.2983918706139E+01
 0.3151378365735E+01
 0.3305361457137E+01
 0.3420794421239E+01
 0.3492923071868E+01
 0.3530880985022E+01
 0.3546860332886E+01
 0.3550542889877E+01
 0.3548205133338E+01
 0.3543541960340E+01
 0.3538597381297E+01
 0.3534393697908E+01
 0.3531279409683E+01
 0.3529078237106E+01
 0.3527106789969E+01
 0.3524131970278E+01
 0.3518382656949E+01
 0.3507766662059E+01
 0.3490351847186E+01
 0.3464968034971E+01
 0.3431836367235E+01
 0.3392297343330E+01
 0.3347501548851E+01
 0.3297542523034E+01
 0.3241477617623E+01
 0.3177844112579E+01
 0.3105254078793E+01
 0.3022845081971E+01
 0.2930567688614E+01
 0.2829452662702E+01
 0.2722009406969E+01
 0.2613199861692E+01
 0.2513115972044E+01
 0.2441746782524E+01
 0.2436015375415E+01
 0.2557766286390E+01
 0.2893058495809E+01
 0.3524865592942E+01
 0.4475696220927E+01
 0.5645598296070E+01
 0.6788801805548E+01
 0.2947168072927E+01
 0.3103256832449E+01
 0.3249770607421E+01
 0.3365133437031E+01
 0.3442790070778E+01
 0.3488210100452E+01
 0.3510985555131E+01
 0.3519726444124E+01
 0.3520541663403E+01
 0.3517289329065E+01
 0.3512225836193E+01
 0.3506537031031E+01
 0.3500665650618E+01
 0.3494471556877E+01
 0.3487281761123E+01
 0.3477901496096E+01
 0.3464690603707E+01
 0.3445814542416E+01
 0.3419676728996E+01
 0.3385401755198E+01
 0.3343362986020E+01
 0.3294944486296E+01
 0.3241387453182E+01
 0.3183033932666E+01
 0.3119340975947E+01
 0.3049331651327E+01
 0.2972140064586E+01
 0.2887464596738E+01
 0.2795921433421E+01
 0.2699436166604E+01
 0.2601820062172E+01
 0.2509945994253E+01
 0.2436485692217E+01
 0.2404343189613E+01
 0.2452110942505E+01
 0.2637428715317E+01
 0.3029255886616E+01
 0.3680341101181E+01
 0.4585366859647E+01
 0.5644050539921E+01
 0.6656852131287E+01
 0.2913731779657E+01
 0.3059829997968E+01
 0.3199059291336E+01
 0.3312923052612E+01
 0.3394040120950E+01
 0.3445186792592E+01
 0.3473669938875E+01
 0.3486912830163E+01
 0.3490648279729E+01
 0.3488740520797E+01
 0.3483568188567E+01
 0.3476439000814E+01
 0.3467881090004E+01
 0.3457806213118E+01
 0.3445587069166E+01
 0.3430113104928E+01
 0.3409913464956E+01
 0.3383421243186E+01
 0.3349354177896E+01
 0.3307103452956E+01
 0.3257185523614E+01
 0.3201037698157E+01
 0.3139999953006E+01
 0.3074657520784E+01
 0.3004856314495E+01
 0.2930102685111E+01
 0.2850065828806E+01
 0.2765032338331E+01
 0.2676315331235E+01
 0.2586746668850E+01
 0.2501388456664E+01
 0.2428836569880E+01
 0.2383870524830E+01
 0.2391227513299E+01
 0.2489037261890E+01
 0.2728114010119E+01
 0.3160700681125E+01
 0.3816477142881E+01
 0.4673326017311E+01
 0.5636423941773E+01
 0.6543357864295E+01
 0.2882951502943E+01
 0.3020206205915E+01
 0.3152479795436E+01
 0.3263916095228E+01
 0.3346904207512E+01
 0.3402282896355E+01
 0.3435424497120E+01
 0.3452561207711E+01
 0.3458916554458E+01
 0.3458234749390E+01
 0.3452934576615E+01
 0.3444403908370E+01
 0.3433244841538E+01
 0.3419432322255E+01
 0.3402412158573E+01
 0.3381191435766E+01
 0.3354492452993E+01
 0.3321016409830E+01
 0.3279774670471E+01
 0.3230403673083E+01
 0.3173559354323E+01
 0.3110744182074E+01
 0.3043406964031E+01
 0.2972372857573E+01
 0.2897864706223E+01
 0.2819862786609E+01
 0.2738571660348E+01
 0.2654874986602E+01
 0.2570789307399E+01
 0.2490033266966E+01
 0.2418831399887E+01
 0.2367263536669E+01
 0.2351669535440E+01
 0.2397501794580E+01
 0.2540662629583E+01
 0.2823856869044E+01
 0.3284480223709E+01
 0.3935303847329E+01
 0.4744633658848E+01
 0.5625513734356E+01
 0.6445247383207E+01
 0.2854329067141E+01
 0.2983698374929E+01
 0.3109408864184E+01
 0.3217835101562E+01
 0.3301487686783E+01
 0.3359840154495E+01
 0.3396669220883E+01
 0.3417079675902E+01
 0.3425713787708E+01
 0.3426101762894E+01
 0.3420632380875E+01
 0.3410734475437E+01
 0.3397071132261E+01
 0.3379687477851E+01
 0.3358122337555E+01
 0.3331523268189E+01
 0.3298818812301E+01
 0.3258972936328E+01
 0.3211271518697E+01
 0.3155579986144E+01
 0.3092693148608E+01
 0.3024190551766E+01
 0.2951639564797E+01
 0.2876102359423E+01
 0.2798165586460E+01
 0.2718268939163E+01
 0.2637142652926E+01
 0.2556261501043E+01
 0.2478332482620E+01
 0.2407917728289E+01
 0.2352285848946E+01
 0.2322719765973E+01
 0.2336528716091E+01
 0.2418833708088E+01
 0.2602052202781E+01
 0.2920550893986E+01
 0.3399307390534E+01
 0.4039079177947E+01
 0.4803228400355E+01
 0.5613204999296E+01
 0.6360102209059E+01
 0.2827481730980E+01
 0.2949771934576E+01
 0.3069331263704E+01
 0.3174403370218E+01
 0.3257815488570E+01
 0.3318100833041E+01
 0.3357744997573E+01
 0.3380826125613E+01
 0.3391379558619E+01
 0.3392657270323E+01
 0.3386961579177E+01
 0.3375727412272E+01
 0.3359665296929E+01
 0.3338893715644E+01
 0.3313057716631E+01
 0.3281459496844E+01
 0.3243239082872E+01
 0.3197614430246E+01
 0.3144128649543E+01
 0.3082863434606E+01
 0.3014753147589E+01
 0.2941465056051E+01
 0.2864693288716E+01
 0.2785733460864E+01
 0.2705521670136E+01
 0.2624938664752E+01
 0.2545223161253E+01
 0.2468423831439E+01
 0.2397910390712E+01
 0.2339026592783E+01
 0.2299942062753E+01
 0.2292831109428E+01
 0.2335377992095E+01
 0.2451486392422E+01
 0.2669353973565E+01
 0.3015475003440E+01
 0.3504849519581E+01
 0.4129954527286E+01
 0.4852162537908E+01
 0.5600842870821E+01
 0.6285978817714E+01
 0.2802111663747E+01
 0.2918007320662E+01
 0.3031822856211E+01
 0.3133361175143E+01
 0.3215863325227E+01
 0.3277232881095E+01
 0.3318926086067E+01
 0.3344111325343E+01
 0.3356224192074E+01
 0.3358199699507E+01
 0.3352211070531E+01
 0.3339669834901E+01
 0.3321320672380E+01
 0.3297355450277E+01
 0.3267532968818E+01
 0.3231317359748E+01
 0.3188059743310E+01
 0.3137221326469E+01
 0.3078586858184E+01
 0.3012443895272E+01
 0.2939867190665E+01
 0.2862620434383E+01
 0.2782530592096E+01
 0.2701121962068E+01
 0.2619664559062E+01
 0.2539459055766E+01
 0.2462230089787E+01
 0.2390574812169E+01
 0.2328486814253E+01
 0.2282014731659E+01
 0.2260066193771E+01
 0.2275378849606E+01
 0.2345455989224E+01
 0.2492311694669E+01
 0.2739638498257E+01
 0.3106900806201E+01
 0.3601307228269E+01
 0.4209820234736E+01
 0.4893757855513E+01
 0.5589484510915E+01
 0.6221307024569E+01
 0.2777984609762E+01
 0.2888072659704E+01
 0.2996535147369E+01
 0.3094473263759E+01
 0.3175578773133E+01
 0.3237349802576E+01
 0.3280431870700E+01
 0.3307203222929E+01
 0.3320528660519E+01
 0.3323008107680E+01
 0.3316655904363E+01
 0.3302836483275E+01
 0.3282316288286E+01
 0.3255358181725E+01
 0.3221837644908E+01
 0.3181382731246E+01
 0.3133551287817E+01
 0.3078035977023E+01
 0.3014848983651E+01
 0.2944474705242E+01
 0.2868128575853E+01
 0.2787677181717E+01
 0.2705084082917E+01
 0.2622096110467E+01
 0.2540300676038E+01
 0.2461395412501E+01
 0.2387564727948E+01
 0.2321923063234E+01
 0.2269040620140E+01
 0.2235582106698E+01
 0.2231015816094E+01
 0.2268315668148E+01
 0.2364321626945E+01
 0.2538712757206E+01
 0.2810728135895E+01
 0.3193790515209E+01
 0.3689160011410E+01
 0.4280270628068E+01
 0.4929652659946E+01
 0.5580035578229E+01
 0.6164853277255E+01
 0.2754914655898E+01
 0.2859703645237E+01
 0.2963181921547E+01
 0.3057531361978E+01
 0.3136895198522E+01
 0.3198525918053E+01
 0.3242437271006E+01
 0.3270331731677E+01
 0.3284545484573E+01
 0.3287341043224E+01
 0.3280555320653E+01
 0.3265487665855E+01
 0.3242915243548E+01
 0.3213167802751E+01
 0.3176236857273E+01
 0.3131912377912E+01
 0.3079951814333E+01
 0.3020266965747E+01
 0.2953084312539E+01
 0.2879076772619E+01
 0.2799599788219E+01
 0.2716627054752E+01
 0.2632260204143E+01
 0.2548461077119E+01
 0.2467117228447E+01
 0.2390299249578E+01
 0.2320622980416E+01
 0.2261684994343E+01
 0.2218578325404E+01
 0.2198485498382E+01
 0.2211250794358E+01
 0.2269776056008E+01
 0.2389852233616E+01
 0.2588586409587E+01
 0.2881037763272E+01
 0.3275577289271E+01
 0.3769008065110E+01
 0.4342661766322E+01
 0.4960851030654E+01
 0.5573082900253E+01
 0.6115813395195E+01
 0.2732751764053E+01
 0.2832694442632E+01
 0.2931541334145E+01
 0.3022376752012E+01
 0.3099773992214E+01
 0.3160851511051E+01
 0.3205135124206E+01
 0.3233756425936E+01
 0.3248572532864E+01
 0.3251518420777E+01
 0.3244245099880E+01
 0.3227974767936E+01
 0.3203486346311E+01
 0.3171171538903E+01
 0.3131134606631E+01
 0.3083322265208E+01
 0.3027682035729E+01
 0.2964331529746E+01
 0.2893698165361E+01
 0.2816634223564E+01
 0.2734632313528E+01
 0.2649774238066E+01
 0.2564297735022E+01
 0.2480369096021E+01
 0.2400155934308E+01
 0.2326074431005E+01
 0.2261138835413E+01
 0.2209385984513E+01
 0.2176368709145E+01
 0.2169678725071E+01
 0.2199350329427E+01
 0.2277942185152E+01
 0.2419927054146E+01
 0.2639795677319E+01
 0.2948855136978E+01
 0.3351370557453E+01
 0.3840888262474E+01
 0.4397646627837E+01
 0.4988006765307E+01
 0.5567310371730E+01
 0.6080412681640E+01
 0.2711381820207E+01
 0.2806877181380E+01
 0.2901423574821E+01
 0.2988855241710E+01
 0.3064145128992E+01
 0.3124354745654E+01
 0.3168636838208E+01
 0.3197645481013E+01
 0.3212810569566E+01
 0.3215757159095E+01
 0.3207949193270E+01
 0.3190524196137E+01
 0.3164255472520E+01
 0.3129591063484E+01
 0.3086742731665E+01
 0.3035806685058E+01
 0.2976909805598E+01
 0.2910362254346E+01
 0.2836779658567E+01
 0.2757184558282E+01
 0.2673202757170E+01
 0.2587023218933E+01
 0.2501016102934E+01
 0.2417540852861E+01
 0.2339025286743E+01
 0.2268204416233E+01
 0.2208458063032E+01
 0.2164220430748E+01
 0.2141438639638E+01
 0.2148003860016E+01
 0.2193966335972E+01
 0.2291319370516E+01
 0.2453052756071E+01
 0.2691121680997E+01
 0.3013552608052E+01
 0.3421322685649E+01
 0.3905650503054E+01
 0.4446338288496E+01
 0.5011995997665E+01
 0.5562272836918E+01
 0.6054788235599E+01
 0.2690704089458E+01
 0.2782104533412E+01
 0.2872651167250E+01
 0.2956804130940E+01
 0.3029901173874E+01
 0.3089000231548E+01
 0.3132972164193E+01
 0.3162074822142E+01
 0.3177361527750E+01
 0.3180169215043E+01
 0.3171778445754E+01
 0.3153237762723E+01
 0.3125308583653E+01
 0.3088489109862E+01
 0.3043091996306E+01
 0.2989354502613E+01
 0.2927571917986E+01
 0.2858234535236E+01
 0.2782134760059E+01
 0.2700457094933E+01
 0.2614956456372E+01
 0.2527927375789E+01
 0.2441868512305E+01
 0.2359322243523E+01
 0.2282959322632E+01
 0.2215810454664E+01
 0.2161592087338E+01
 0.2125096292102E+01
 0.2112601949247E+01
 0.2132195956367E+01
 0.2193790202758E+01
 0.2308640080087E+01
 0.2488167163973E+01
 0.2741935531558E+01
 0.3075134187522E+01
 0.3486116881752E+01
 0.3964452674880E+01
 0.4489985335292E+01
 0.5033409335938E+01
 0.5558951082933E+01
 0.6030580743812E+01
 0.2670639560376E+01
 0.2758264786644E+01
 0.2845093452584E+01
 0.2926109728245E+01
 0.2996979842459E+01
 0.3054793535219E+01
 0.3098211530809E+01
 0.3127165469111E+01
 0.3142380418005E+01
 0.3144929842041E+01
 0.3135918767801E+01
 0.3116305676874E+01
 0.3086835402612E+01
 0.3048050239157E+01
 0.3000356392446E+01
 0.2944122899721E+01
 0.2879802122141E+01
 0.2808052209782E+01
 0.2729831128343E+01
 0.2646476739921E+01
 0.2559867982941E+01
 0.2472401973419E+01
 0.2386700767429E+01
 0.2305479007004E+01
 0.2231633438669E+01
 0.2168467998593E+01
 0.2120007142293E+01
 0.2091360748550E+01
 0.2089076313301E+01
 0.2121336989634E+01
 0.2197782686131E+01
 0.2328807878068E+01
 0.2524251530106E+01
 0.2791480882839E+01
 0.3133268524047E+01
 0.3545898210815E+01
 0.4017816454259E+01
 0.4529194050110E+01
 0.5052812791569E+01
 0.5556787832577E+01
 0.6009555536775E+01
 0.2651123781491E+01
 0.2735266698097E+01
 0.2818642677081E+01
 0.2896675576701E+01
 0.2965324857214E+01
 0.3021734576987E+01
 0.3064411459779E+01
 0.3093020568112E+01
 0.3108003580043E+01
 0.3110196332111E+01
 0.3100539023946E+01
 0.3079901534437E+01
 0.3049008824334E+01
 0.3008441510804E+01
 0.2958691645436E+01
 0.2900250310459E+01
 0.2833715452404E+01
 0.2759900976033E+01
 0.2679919316562E+01
 0.2595252760443E+01
 0.2507898301664E+01
 0.2420351512536E+01
 0.2335351820494E+01
 0.2255775206896E+01
 0.2184727925215E+01
 0.2125765457840E+01
 0.2083192152660E+01
 0.2062395626291E+01
 0.2070129858952E+01
 0.2114582403198E+01
 0.2205011686848E+01
 0.2350874780059E+01
 0.2560467843110E+01
 0.2839180202384E+01
 0.3187751436455E+01
 0.3600852119074E+01
 0.4066200868262E+01
 0.4564498828007E+01
 0.5070510265291E+01
 0.5555624680561E+01
 0.5991804689655E+01
 0.2632103899060E+01
 0.2713035572983E+01
 0.2793209765407E+01
 0.2868420043716E+01
 0.2934886077186E+01
 0.2989819727387E+01
 0.3031617404284E+01
 0.3059727956101E+01
 0.3074350514021E+01
 0.3076109118464E+01
 0.3065791650502E+01
 0.3044182757256E+01
 0.3011985450763E+01
 0.2969813309396E+01
 0.2918236428771E+01
 0.2857858019634E+01
 0.2789410138998E+01
 0.2713850533737E+01
 0.2632435098949E+01
 0.2546781296815E+01
 0.2458997480756E+01
 0.2371672636388E+01
 0.2287656844404E+01
 0.2209976403897E+01
 0.2141931117841E+01
 0.2087307140892E+01
 0.2050661238061E+01
 0.2037619290907E+01
 0.2055082314525E+01
 0.2111160813410E+01
 0.2214647821886E+01
 0.2374027511444E+01
 0.2596131643310E+01
 0.2884596877888E+01
 0.3238469821549E+01
 0.3651178903193E+01
 0.4110012434871E+01
 0.4596324357305E+01
 0.5086710048157E+01
 0.5555330737766E+01
 0.5977071606345E+01
 0.2613536354543E+01
 0.2691510046277E+01
 0.2768720914106E+01
 0.2841274097865E+01
 0.2905619234419E+01
 0.2959043197143E+01
 0.2999865924112E+01
 0.3027362301971E+01
 0.3041525547244E+01
 0.3042792898892E+01
 0.3031813389726E+01
 0.3009291171786E+01
 0.2975906235814E+01
 0.2932300217494E+01
 0.2879113544235E+01
 0.2817051650628E+01
 0.2746969354320E+01
 0.2669956535008E+01
 0.2587401600087E+01
 0.2501047671926E+01
 0.2413107184385E+01
 0.2326256786519E+01
 0.2243449997731E+01
 0.2167852436119E+01
 0.2102942053171E+01
 0.2052715606293E+01
 0.2021955582420E+01
 0.2016487911775E+01
 0.2043305459612E+01
 0.2110372672228E+01
 0.2225958575773E+01
 0.2397573144387E+01
 0.2630687282991E+01
 0.2927404475437E+01
 0.3285373756285E+01
 0.3697080231476E+01
 0.4149601917871E+01
 0.4625006583523E+01
 0.5101553832995E+01
 0.5555768173663E+01
 0.5965018366207E+01
 0.2595385050631E+01
 0.2670639482159E+01
 0.2745114786090E+01
 0.2815179321657E+01
 0.2877485434514E+01
 0.2929397917388E+01
 0.2969186335022E+01
 0.2995986878036E+01
 0.3009619327994E+01
 0.3010357741395E+01
 0.2998726093893E+01
 0.2975353683734E+01
 0.2940897206132E+01
 0.2896021913742E+01
 0.2841431063584E+01
 0.2777922555223E+01
 0.2706462818855E+01
 0.2628262372039E+01
 0.2544831249724E+01
 0.2458028513339E+01
 0.2370162955062E+01
 0.2283992611430E+01
 0.2202566889267E+01
 0.2129179830952E+01
 0.2067472684637E+01
 0.2021633522255E+01
 0.1996644800257E+01
 0.1998496221789E+01
 0.2034222957596E+01
 0.2111588014409E+01
 0.2238301455007E+01
 0.2420924840293E+01
 0.2663686110359E+01
 0.2967361814486E+01
 0.3328456239857E+01
 0.3738749463004E+01
 0.4185267768524E+01
 0.4650810368605E+01
 0.5115134222246E+01
 0.5556793542886E+01
 0.5955290871496E+01
 0.2577619873402E+01
 0.2650381869297E+01
 0.2722340191810E+01
 0.2790086161452E+01
 0.2850450541698E+01
 0.2900876065457E+01
 0.2939601957680E+01
 0.2965655028245E+01
 0.2978710163544E+01
 0.2978900161743E+01
 0.2966637580377E+01
 0.2942483032700E+01
 0.2907070251182E+01
 0.2861084103910E+01
 0.2805283456067E+01
 0.2740549145811E+01
 0.2667948319023E+01
 0.2588800859808E+01
 0.2504727621815E+01
 0.2417693745556E+01
 0.2330096342964E+01
 0.2244768188021E+01
 0.2164846811113E+01
 0.2093743935587E+01
 0.2035249772682E+01
 0.1993725178435E+01
 0.1974327956938E+01
 0.1983177909367E+01
 0.2027309683082E+01
 0.2114243482891E+01
 0.2251116574718E+01
 0.2443588257270E+01
 0.2694767570170E+01
 0.3004293082249E+01
 0.3367738202276E+01
 0.3776365964845E+01
 0.4217261584596E+01
 0.4673943688477E+01
 0.5127507484661E+01
 0.5558259229839E+01
 0.5947541788620E+01
 0.2560215489455E+01
 0.2630702106455E+01
 0.2700354164315E+01
 0.2765952394767E+01
 0.2824484513826E+01
 0.2873469336425E+01
 0.2911131047939E+01
 0.2936411370620E+01
 0.2948865197147E+01
 0.2948504139697E+01
 0.2935642490870E+01
 0.2910778576428E+01
 0.2874523934792E+01
 0.2827579442886E+01
 0.2770752666921E+01
 0.2704998140639E+01
 0.2631473109098E+01
 0.2551595782683E+01
 0.2467087120175E+01
 0.2380008407872E+01
 0.2292836832701E+01
 0.2208473005592E+01
 0.2130134695931E+01
 0.2061340736251E+01
 0.2006016441662E+01
 0.1968677664870E+01
 0.1954634268505E+01
 0.1970105664397E+01
 0.2022090588689E+01
 0.2117838804228E+01
 0.2263919057754E+01
 0.2465148997865E+01
 0.2723643153499E+01
 0.3038072125143E+01
 0.3403257639094E+01
 0.3810092283193E+01
 0.4245793954913E+01
 0.4694569020754E+01
 0.5138702266858E+01
 0.5560015809974E+01
 0.5941439943304E+01
 0.2543150359814E+01
 0.2611570598414E+01
 0.2679120357629E+01
 0.2742741797114E+01
 0.2799560734387E+01
 0.2847169041666E+01
 0.2883787483635E+01
 0.2908292779785E+01
 0.2920141437944E+01
 0.2919242065070E+01
 0.2905823134760E+01
 0.2880327082621E+01
 0.2843344310085E+01
 0.2795588437164E+01
 0.2737909145230E+01
 0.2671325728354E+01
 0.2597075208380E+01
 0.2516663317689E+01
 0.2431900523124E+01
 0.2344934309891E+01
 0.2258313581166E+01
 0.2174999730925E+01
 0.2098282826321E+01
 0.2031778408613E+01
 0.1979533463014E+01
 0.1946201790435E+01
 0.1937223553791E+01
 0.1958890945604E+01
 0.2018139208487E+01
 0.2121932919423E+01
 0.2276291560978E+01
 0.2485261299586E+01
 0.2750082949535E+01
 0.3068610135469E+01
 0.3435061865177E+01
 0.3840073118101E+01
 0.4271040032629E+01
 0.4712812273254E+01
 0.5148726140940E+01
 0.5561914730203E+01
 0.5936674750208E+01
 0.2526405926305E+01
 0.2592962099543E+01
 0.2658607709958E+01
 0.2720422986441E+01
 0.2775655367359E+01
 0.2821966089144E+01
 0.2857581261833E+01
 0.2881329182783E+01
 0.2892586651420E+01
 0.2891175601116E+01
 0.2877250292582E+01
 0.2851203500295E+01
 0.2813605711178E+01
 0.2765180305707E+01
 0.2706812804536E+01
 0.2639578639654E+01
 0.2564784583622E+01
 0.2484013324299E+01
 0.2399154375793E+01
 0.2312431512851E+01
 0.2226456956187E+01
 0.2144245748854E+01
 0.2069152299290E+01
 0.2004878614396E+01
 0.1955580292647E+01
 0.1926032777253E+01
 0.1921786476596E+01
 0.1949183514129E+01
 0.2015075889456E+01
 0.2126139958303E+01
 0.2287877169683E+01
 0.2503638057321E+01
 0.2773904518722E+01
 0.3095846091623E+01
 0.3463202093908E+01
 0.3866435413286E+01
 0.4293144559972E+01
 0.4728769881480E+01
 0.5157570891743E+01
 0.5563811009353E+01
 0.5932958419647E+01
 0.2509965936904E+01
 0.2574854757796E+01
 0.2638789326727E+01
 0.2698968427025E+01
 0.2752746754079E+01
 0.2797850890373E+01
 0.2832518855695E+01
 0.2855544205053E+01
 0.2866240129363E+01
 0.2864356469069E+01
 0.2849983974605E+01
 0.2823471703329E+01
 0.2785371516765E+01
 0.2736413799581E+01
 0.2677513922858E+01
 0.2609795138318E+01
 0.2534624232832E+01
 0.2453650519175E+01
 0.2368832250124E+01
 0.2282459658992E+01
 0.2197199901951E+01
 0.2116114510037E+01
 0.2042614285178E+01
 0.1980477592126E+01
 0.1933955917242E+01
 0.1907930787014E+01
 0.1908044630683E+01
 0.1940670793056E+01
 0.2012565850796E+01
 0.2130125218208E+01
 0.2298372811633E+01
 0.2520042150769E+01
 0.2794963755474E+01
 0.3119739363124E+01
 0.3487729682623E+01
 0.3889289056701E+01
 0.4312226256283E+01
 0.4742514545216E+01
 0.5165216951745E+01
 0.5565565730611E+01
 0.5930027241723E+01
 0.2493815884728E+01
 0.2557229322293E+01
 0.2619641546819E+01
 0.2678353574698E+01
 0.2730814861650E+01
 0.2774813224337E+01
 0.2808603466460E+01
 0.2830955693829E+01
 0.2841133352565E+01
 0.2838827154098E+01
 0.2824074126398E+01
 0.2797185194688E+01
 0.2758694874620E+01
 0.2709337972482E+01
 0.2650053978115E+01
 0.2582005930967E+01
 0.2506611172029E+01
 0.2425575538566E+01
 0.2340915876342E+01
 0.2254979154640E+01
 0.2170479140322E+01
 0.2090516700251E+01
 0.2018551102053E+01
 0.1958427070002E+01
 0.1914479542440E+01
 0.1891681313755E+01
 0.1895750504432E+01
 0.1933077106495E+01
 0.2010317167757E+01
 0.2133601286559E+01
 0.2307523295867E+01
 0.2534279018713E+01
 0.2813147451761E+01
 0.3140264025514E+01
 0.3508693578219E+01
 0.3908727896322E+01
 0.4328381606375E+01
 0.4754099945731E+01
 0.5171637172377E+01
 0.5567048269418E+01
 0.5927642426719E+01
 0.2477942540549E+01
 0.2540068485131E+01
 0.2601143161348E+01
 0.2658556145298E+01
 0.2709840785106E+01
 0.2752842077039E+01
 0.2785835194379E+01
 0.2807576137355E+01
 0.2817290553737E+01
 0.2814621529205E+01
 0.2799561269992E+01
 0.2772387755957E+01
 0.2733619371058E+01
 0.2683992887582E+01
 0.2624466406531E+01
 0.2556234984967E+01
 0.2480757315414E+01
 0.2399785879423E+01
 0.2315386137656E+01
 0.2229952200531E+01
 0.2146236204760E+01
 0.2067371232545E+01
 0.1996857112373E+01
 0.1938595012865E+01
 0.1896991138461E+01
 0.1877095460916E+01
 0.1884687349474E+01
 0.1926162844412E+01
 0.2008078765503E+01
 0.2136324417148E+01
 0.2315116036397E+01
 0.2546190397704E+01
 0.2828367307909E+01
 0.3157404528183E+01
 0.3526138629560E+01
 0.3924830896141E+01
 0.4341688117324E+01
 0.4763564667569E+01
 0.5176800038827E+01
 0.5568138239698E+01
 0.5925590729483E+01
 0.2462333563315E+01
 0.2523356335180E+01
 0.2583274761734E+01
 0.2639555492678E+01
 0.2689806305854E+01
 0.2731925473402E+01
 0.2764211151591E+01
 0.2785413000710E+01
 0.2794729194458E+01
 0.2791765403171E+01
 0.2776477081207E+01
 0.2749114040228E+01
 0.2710179643559E+01
 0.2660410260935E+01
 0.2600777287029E+01
 0.2532500260181E+01
 0.2457070256863E+01
 0.2376276729005E+01
 0.2292223940172E+01
 0.2207343684190E+01
 0.2124418325399E+01
 0.2046606085107E+01
 0.1977439468936E+01
 0.1920866233141E+01
 0.1881351873815E+01
 0.1864010133422E+01
 0.1874668989396E+01
 0.1919723607321E+01
 0.2005638502644E+01
 0.2138091240522E+01
 0.2320976476780E+01
 0.2555649113723E+01
 0.2840555148248E+01
 0.3171152408338E+01
 0.3540104498727E+01
 0.3937663300708E+01
 0.4352207086480E+01
 0.4770935458421E+01
 0.5180672388770E+01
 0.5568727176139E+01
 0.5923684961784E+01
 0.2446977176841E+01
 0.2507077905848E+01
 0.2566018197247E+01
 0.2621332082373E+01
 0.2670693503845E+01
 0.2712050309533E+01
 0.2743725529751E+01
 0.2764468989384E+01
 0.2773460361334E+01
 0.2770276990820E+01
 0.2754844895696E+01
 0.2727390097537E+01
 0.2688401924627E+01
 0.2638614029857E+01
 0.2579005941090E+01
 0.2510814345111E+01
 0.2435553944250E+01
 0.2355041675504E+01
 0.2271410951979E+01
 0.2187121930717E+01
 0.2104979164913E+01
 0.2028158988350E+01
 0.1960218717278E+01
 0.1905142875652E+01
 0.1867444448746E+01
 0.1852288159741E+01
 0.1865539593804E+01
 0.1913589377477E+01
 0.2002821413935E+01
 0.2138735873337E+01
 0.2324964222512E+01
 0.2562554835180E+01
 0.2849659160045E+01
 0.3181503837056E+01
 0.3550625002127E+01
 0.3947277747468E+01
 0.4359985938498E+01
 0.4776229932233E+01
 0.5183221695784E+01
 0.5568719967313E+01
 0.5921764500798E+01
 0.2431861902622E+01
 0.2491218802642E+01
 0.2549356126359E+01
 0.2603867049889E+01
 0.2652484421467E+01
 0.2693202192257E+01
 0.2724369634282E+01
 0.2744742252377E+01
 0.2753489089610E+01
 0.2750167309076E+01
 0.2734680143291E+01
 0.2707233830131E+01
 0.2668304513577E+01
 0.2618620843656E+01
 0.2559165446710E+01
 0.2491184997521E+01
 0.2416209248022E+01
 0.2336073302563E+01
 0.2252930216137E+01
 0.2169259319076E+01
 0.2087879415120E+01
 0.2011977973907E+01
 0.1945129269213E+01
 0.1891344791532E+01
 0.1855173343290E+01
 0.1841818360210E+01
 0.1857173441893E+01
 0.1907623756188E+01
 0.1999488163189E+01
 0.2138127461482E+01
 0.2326969858140E+01
 0.2566830682157E+01
 0.2855640984514E+01
 0.3188457809443E+01
 0.3557727736016E+01
 0.3953715266632E+01
 0.4365060155679E+01
 0.4779458773952E+01
 0.5184417948562E+01
 0.5568036068488E+01
 0.5919695736557E+01
 0.2416976341833E+01
 0.2475764900204E+01
 0.2533271650612E+01
 0.2587141835738E+01
 0.2635160778347E+01
 0.2675365292465E+01
 0.2706131896388E+01
 0.2726226536805E+01
 0.2734814624074E+01
 0.2731440505438E+01
 0.2715990714343E+01
 0.2688655379646E+01
 0.2649898178015E+01
 0.2600440479184E+01
 0.2541263070230E+01
 0.2473615594749E+01
 0.2399034430817E+01
 0.2319363676174E+01
 0.2236766648176E+01
 0.2153732777091E+01
 0.2073087270317E+01
 0.1998021804137E+01
 0.1932119767694E+01
 0.1879409821697E+01
 0.1844465000089E+01
 0.1832515583716E+01
 0.1849474705404E+01
 0.1901723309796E+01
 0.1995533754891E+01
 0.2136168186384E+01
 0.2326912428206E+01
 0.2568420607500E+01
 0.2858473529448E+01
 0.3192014842161E+01
 0.3561433886917E+01
 0.3957006133555E+01
 0.4367454826416E+01
 0.4780627493346E+01
 0.5184235163290E+01
 0.5566610504010E+01
 0.5917372509660E+01
 0.2402309000483E+01
 0.2460702099786E+01
 0.2517748020388E+01
 0.2571137888411E+01
 0.2618703732790E+01
 0.2658522212983E+01
 0.2688997866619E+01
 0.2708911297982E+01
 0.2717430619152E+01
 0.2714094117555E+01
 0.2698777253733E+01
 0.2671657439566E+01
 0.2633186477129E+01
 0.2584076172841E+01
 0.2525300607643E+01
 0.2458105485559E+01
 0.2384025510319E+01
 0.2304904716870E+01
 0.2222907412110E+01
 0.2140524150761E+01
 0.2060578774933E+01
 0.1986260281453E+01
 0.1921153343399E+01
 0.1869293990455E+01
 0.1835267942902E+01
 0.1824320716910E+01
 0.1842377264009E+01
 0.1895817049930E+01
 0.1990886535699E+01
 0.2132791750813E+01
 0.2324737561137E+01
 0.2567287485072E+01
 0.2858139410422E+01
 0.3192176086396E+01
 0.3561758165608E+01
 0.3957170558791E+01
 0.4367185836268E+01
 0.4779737765935E+01
 0.5182652554563E+01
 0.5564394674500E+01
 0.5914716522414E+01
 0.2387848153308E+01
 0.2446016140744E+01
 0.2502768405266E+01
 0.2555836429499E+01
 0.2603093687796E+01
 0.2642653873141E+01
 0.2672950195154E+01
 0.2692781771125E+01
 0.2701325283459E+01
 0.2698119267430E+01
 0.2683033384210E+01
 0.2656235493382E+01
 0.2618166006592E+01
 0.2569524868848E+01
 0.2511274635588E+01
 0.2444650244349E+01
 0.2371176517024E+01
 0.2292688459896E+01
 0.2211342179092E+01
 0.2129620453737E+01
 0.2050338053083E+01
 0.1976674446482E+01
 0.1912207772528E+01
 0.1860971618277E+01
 0.1827552839323E+01
 0.1817200676151E+01
 0.1835844569146E+01
 0.1889866071737E+01
 0.1985507510466E+01
 0.2127962353669E+01
 0.2320416215005E+01
 0.2563411850880E+01
 0.2854629946173E+01
 0.3188942783761E+01
 0.3558708814860E+01
 0.3954219199135E+01
 0.4364260713015E+01
 0.4776788383303E+01
 0.5179655382886E+01
 0.5561356976420E+01
 0.5911677715567E+01
 0.2373581743134E+01
 0.2431692461162E+01
 0.2488315723230E+01
 0.2541218276136E+01
 0.2588310139335E+01
 0.2627739410742E+01
 0.2657968601784E+01
 0.2677819008449E+01
 0.2686481472073E+01
 0.2683500792160E+01
 0.2668745859563E+01
 0.2642377977763E+01
 0.2604826563731E+01
 0.2556777382186E+01
 0.2499176670491E+01
 0.2433241826444E+01
 0.2360479646038E+01
 0.2282707203204E+01
 0.2202063269490E+01
 0.2121013998987E+01
 0.2042357423357E+01
 0.1969256669370E+01
 0.1905275540446E+01
 0.1854435357835E+01
 0.1821312511276E+01
 0.1811148386936E+01
 0.1829869565414E+01
 0.1883863364925E+01
 0.1979389988413E+01
 0.2121674159205E+01
 0.2313944030537E+01
 0.2556791261510E+01
 0.2847944660783E+01
 0.3182316020149E+01
 0.3552287661127E+01
 0.3948153480886E+01
 0.4358679134165E+01
 0.4771775827860E+01
 0.5175235490596E+01
 0.5557483237202E+01
 0.5908234604263E+01
 0.2359497313336E+01
 0.2417716104158E+01
 0.2474372524640E+01
 0.2527263717228E+01
 0.2574331565026E+01
 0.2613756101662E+01
 0.2644029837486E+01
 0.2663999884365E+01
 0.2672876729095E+01
 0.2670217313109E+01
 0.2655894648569E+01
 0.2630066370894E+01
 0.2593151232520E+01
 0.2545818475423E+01
 0.2488993234960E+01
 0.2423868623619E+01
 0.2351925302298E+01
 0.2274953543043E+01
 0.2195065678842E+01
 0.2114702413938E+01
 0.2036637401051E+01
 0.1964010637084E+01
 0.1900363814061E+01
 0.1849696155595E+01
 0.1816561894700E+01
 0.1806182752303E+01
 0.1824474673095E+01
 0.1877833804402E+01
 0.1972559567049E+01
 0.2113951263034E+01
 0.2305341283180E+01
 0.2547440250692E+01
 0.2838091267382E+01
 0.3172296753574E+01
 0.3542490193932E+01
 0.3938965729554E+01
 0.4350433099765E+01
 0.4764694478407E+01
 0.5169391530796E+01
 0.5552776965951E+01
 0.5904394564821E+01
 0.2345581971979E+01
 0.2404071667785E+01
 0.2460920928544E+01
 0.2513952441313E+01
 0.2561135352015E+01
 0.2600679297214E+01
 0.2631107638940E+01
 0.2651297070874E+01
 0.2660483282835E+01
 0.2658241245607E+01
 0.2644452951393E+01
 0.2619275207127E+01
 0.2583116389091E+01
 0.2536626849776E+01
 0.2480705831489E+01
 0.2416515419743E+01
 0.2345502039057E+01
 0.2269420297115E+01
 0.2190346987912E+01
 0.2110688539758E+01
 0.2033186588937E+01
 0.1960951238176E+01
 0.1897494324437E+01
 0.1846783139888E+01
 0.1813337948256E+01
 0.1802348608930E+01
 0.1819711830264E+01
 0.1871834319978E+01
 0.1965074454765E+01
 0.2104848156489E+01
 0.2294653434958E+01
 0.2535390883274E+01
 0.2825086131608E+01
 0.3158886113907E+01
 0.3529305671118E+01
 0.3926639104693E+01
 0.4339506769778E+01
 0.4755536446189E+01
 0.5162128888574E+01
 0.5547259417226E+01
 0.5900194067024E+01
 0.2331822387021E+01
 0.2390743297628E+01
 0.2447942610180E+01
 0.2501263514886E+01
 0.2548697763122E+01
 0.2588482378793E+01
 0.2619172676150E+01
 0.2639678983935E+01
 0.2649267994850E+01
 0.2647538750633E+01
 0.2634387149804E+01
 0.2609972019039E+01
 0.2574691628429E+01
 0.2529175050564E+01
 0.2474290823187E+01
 0.2411163245855E+01
 0.2341196388611E+01
 0.2266100314034E+01
 0.2187907155469E+01
 0.2108980213372E+01
 0.2032021455278E+01
 0.1960104343839E+01
 0.1896703158468E+01
 0.1845743433881E+01
 0.1811699508257E+01
 0.1799716665865E+01
 0.1815662586725E+01
 0.1865954236048E+01
 0.1957026125347E+01
 0.2094450689199E+01
 0.2281952295113E+01
 0.2520693923694E+01
 0.2808955235802E+01
 0.3142085993629E+01
 0.3512717261915E+01
 0.3911147342287E+01
 0.4325875960936E+01
 0.4744291033663E+01
 0.5153459287816E+01
 0.5540969462223E+01
 0.5895698849258E+01
 0.2318204812758E+01
 0.2377714722345E+01
 0.2435418839906E+01
 0.2489175411095E+01
 0.2536993940698E+01
 0.2577136728990E+01
 0.2608192492474E+01
 0.2629109700706E+01
 0.2639192263478E+01
 0.2638069629754E+01
 0.2625656692879E+01
 0.2602117208574E+01
 0.2567839613614E+01
 0.2523429287914E+01
 0.2469719221743E+01
 0.2407789134254E+01
 0.2338992584267E+01
 0.2264986167557E+01
 0.2187748191739E+01
 0.2109589929686E+01
 0.2033165996215E+01
 0.1961506482224E+01
 0.1898040456577E+01
 0.1846641890142E+01
 0.1811727085106E+01
 0.1798383417665E+01
 0.1812438236146E+01
 0.1860315763396E+01
 0.1948540288807E+01
 0.2082877526395E+01
 0.2267337805041E+01
 0.2503420652560E+01
 0.2789735687049E+01
 0.3121899969556E+01
 0.3492702253012E+01
 0.3892454309685E+01
 0.4309507291833E+01
 0.4730943799196E+01
 0.5143400069947E+01
 0.5533963258858E+01
 0.5891004031491E+01
 0.2304715148520E+01
 0.2364969333760E+01
 0.2423330575368E+01
 0.2477666090091E+01
 0.2525997948364E+01
 0.2566611718352E+01
 0.2598131436008E+01
 0.2619548847140E+01
 0.2630211882486E+01
 0.2629787165140E+01
 0.2618213920793E+01
 0.2595663850109E+01
 0.2562515850186E+01
 0.2519349174610E+01
 0.2466956383668E+01
 0.2406365771702E+01
 0.2338872172720E+01
 0.2266069733754E+01
 0.2189873709668E+01
 0.2112534380148E+01
 0.2036651277742E+01
 0.1965204400721E+01
 0.1901570011084E+01
 0.1849560741491E+01
 0.1813522594774E+01
 0.1798471021273E+01
 0.1810179968023E+01
 0.1855074617569E+01
 0.1939778154948E+01
 0.2070282094974E+01
 0.2250940471608E+01
 0.2483665385659E+01
 0.2767477840682E+01
 0.3098334624233E+01
 0.3469232363979E+01
 0.3870513386824E+01
 0.4290356962574E+01
 0.4715475204517E+01
 0.5131973126276E+01
 0.5526313710474E+01
 0.5886234163815E+01
 0.2291339031687E+01
 0.2352490314131E+01
 0.2411658609726E+01
 0.2466713132681E+01
 0.2515682850144E+01
 0.2556874705280E+01
 0.2588950578908E+01
 0.2610951453101E+01
 0.2622276853464E+01
 0.2622637904958E+01
 0.2612003828336E+01
 0.2590557427765E+01
 0.2558668387923E+01
 0.2516887382926E+01
 0.2465961615937E+01
 0.2406861052127E+01
 0.2340813516463E+01
 0.2269341650004E+01
 0.2194288351969E+01
 0.2117833864539E+01
 0.2042514853190E+01
 0.1971254511484E+01
 0.1907368760468E+01
 0.1854599163448E+01
 0.1817209019329E+01
 0.1800127125131E+01
 0.1809059016676E+01
 0.1850420728242E+01
 0.1930937951443E+01
 0.2056854998837E+01
 0.2232924467592E+01
 0.2461548755625E+01
 0.2742248124990E+01
 0.3071401350602E+01
 0.3442274225385E+01
 0.3845266680790E+01
 0.4268369136516E+01
 0.4697858800023E+01
 0.5119203454392E+01
 0.5518109689779E+01
 0.5881543214368E+01
 0.2278061967577E+01
 0.2340260815086E+01
 0.2400383781028E+01
 0.2456293931050E+01
 0.2506020827935E+01
 0.2547891047380E+01
 0.2580607621975E+01
 0.2603267773188E+01
 0.2615331152339E+01
 0.2616561396944E+01
 0.2606963772746E+01
 0.2586735512302E+01
 0.2556237455157E+01
 0.2515989224514E+01
 0.2466687693659E+01
 0.2409237529804E+01
 0.2344791185516E+01
 0.2274790653216E+01
 0.2200997089308E+01
 0.2125511569134E+01
 0.2050800047186E+01
 0.1979722209549E+01
 0.1915526168306E+01
 0.1861872737469E+01
 0.1822929985360E+01
 0.1803524634834E+01
 0.1809276779921E+01
 0.1846578996933E+01
 0.1922256649365E+01
 0.2042826879587E+01
 0.2213491427425E+01
 0.2437221845316E+01
 0.2714132698242E+01
 0.3041118775486E+01
 0.3411790118312E+01
 0.3816644107649E+01
 0.4243473896628E+01
 0.4678058898813E+01
 0.5105117304091E+01
 0.5509455023468E+01
 0.5877114431564E+01
 0.2264869501026E+01
 0.2328264194693E+01
 0.2389487249940E+01
 0.2446385941542E+01
 0.2496983338040E+01
 0.2539624121056E+01
 0.2573056779630E+01
 0.2596443069477E+01
 0.2609312448966E+01
 0.2611489872161E+01
 0.2603023130155E+01
 0.2584127382935E+01
 0.2555155030722E+01
 0.2516592157369E+01
 0.2469080292194E+01
 0.2413451773730E+01
 0.2350775237495E+01
 0.2282402794584E+01
 0.2210004384935E+01
 0.2135592704269E+01
 0.2061555096825E+01
 0.1990681052596E+01
 0.1926143475487E+01
 0.1871512804513E+01
 0.1830849250688E+01
 0.1808861402347E+01
 0.1811064881941E+01
 0.1843810057789E+01
 0.1914011839625E+01
 0.2028471687363E+01
 0.2192884964906E+01
 0.2410871279963E+01
 0.2683242106714E+01
 0.3007515985165E+01
 0.3377739116814E+01
 0.3784562397562E+01
 0.4215584743693E+01
 0.4656027670769E+01
 0.5089739879944E+01
 0.5500467210458E+01
 0.5873160132296E+01
 0.2251747434861E+01
 0.2316484320374E+01
 0.2378950853895E+01
 0.2436967004068E+01
 0.2488541305260E+01
 0.2532035342533E+01
 0.2566248636458E+01
 0.2590417348897E+01
 0.2604151776238E+01
 0.2607347879425E+01
 0.2600102904145E+01
 0.2582653599033E+01
 0.2555344358529E+01
 0.2518625223810E+01
 0.2473077336171E+01
 0.2419453624068E+01
 0.2358730385404E+01
 0.2292160528687E+01
 0.2221313221688E+01
 0.2148103494803E+01
 0.2074832140754E+01
 0.2004211790384E+01
 0.1939332812101E+01
 0.1883665695199E+01
 0.1841150085846E+01
 0.1816359821378E+01
 0.1814685148114E+01
 0.1842410981498E+01
 0.1906523675728E+01
 0.2014110287600E+01
 0.2171395903645E+01
 0.2382725367893E+01
 0.2649717118679E+01
 0.2970636758027E+01
 0.3340078795629E+01
 0.3748924077920E+01
 0.4184595564317E+01
 0.4631701528835E+01
 0.5073092528155E+01
 0.5491275862565E+01
 0.5869921284962E+01
 0.2238682102984E+01
 0.2304905949013E+01
 0.2368757549834E+01
 0.2428015735777E+01
 0.2480665354290E+01
 0.2525084183460E+01
 0.2560129966435E+01
 0.2585125048927E+01
 0.2599773147455E+01
 0.2604051874268E+01
 0.2598115293893E+01
 0.2582225530663E+01
 0.2556719413239E+01
 0.2522008426122E+01
 0.2478608269461E+01
 0.2427185352039E+01
 0.2368615051977E+01
 0.2304041673279E+01
 0.2234923984919E+01
 0.2163070013689E+01
 0.2090686042588E+01
 0.2020401226713E+01
 0.1955216149555E+01
 0.1898491817235E+01
 0.1854034533199E+01
 0.1826266312051E+01
 0.1820429464578E+01
 0.1842715867760E+01
 0.1900156796420E+01
 0.2000114320293E+01
 0.2149368210045E+01
 0.2353061409047E+01
 0.2613735978346E+01
 0.2930545108232E+01
 0.3298767772309E+01
 0.3709616571846E+01
 0.4150377019003E+01
 0.4604996644322E+01
 0.5055189328553E+01
 0.5482020869105E+01
 0.5867666770476E+01
 0.2225660708201E+01
 0.2293515198403E+01
 0.2358891959981E+01
 0.2419512006459E+01
 0.2473326074945E+01
 0.2518728169084E+01
 0.2554643500647E+01
 0.2580494661210E+01
 0.2596093118276E+01
 0.2601509765342E+01
 0.2596963229392E+01
 0.2582744857554E+01
 0.2559184326531E+01
 0.2526652047782E+01
 0.2485593251887E+01
 0.2436580726932E+01
 0.2380380312581E+01
 0.2318018240330E+01
 0.2250833200176E+01
 0.2180516854965E+01
 0.2109173041535E+01
 0.2039340902894E+01
 0.1973924078598E+01
 0.1916164584477E+01
 0.1869722529405E+01
 0.1838850681426E+01
 0.1828619499520E+01
 0.1845096270802E+01
 0.1895322122930E+01
 0.1986910183636E+01
 0.2127205562383E+01
 0.2322214253989E+01
 0.2575523327860E+01
 0.2887332485319E+01
 0.3253769412007E+01
 0.3666511595860E+01
 0.4112772277086E+01
 0.4575803309630E+01
 0.5036032922160E+01
 0.5472850317709E+01
 0.5866692072960E+01
 0.2212671737509E+01
 0.2282300128690E+01
 0.2349341039255E+01
 0.2411437504595E+01
 0.2466494315609E+01
 0.2512922842929E+01
 0.2549727625760E+01
 0.2576448281111E+01
 0.2593020290172E+01
 0.2599620423262E+01
 0.2596539884009E+01
 0.2584103048788E+01
 0.2562632785612E+01
 0.2532455929439E+01
 0.2493942288508E+01
 0.2447563992836E+01
 0.2393968726611E+01
 0.2334055136072E+01
 0.2269032121104E+01
 0.2200465638532E+01
 0.2130349218348E+01
 0.2061125585705E+01
 0.1995594391302E+01
 0.1936869162857E+01
 0.1888450867655E+01
 0.1854405340315E+01
 0.1839606263686E+01
 0.1849961407210E+01
 0.1892478420469E+01
 0.1974982983949E+01
 0.2105378444956E+01
 0.2290586176992E+01
 0.2535361086178E+01
 0.2841127073610E+01
 0.3205057156579E+01
 0.3619465180184E+01
 0.4071592090244E+01
 0.4543978733691E+01
 0.5015609246199E+01
 0.5463918240203E+01
 0.5867316906909E+01
 0.2199705472447E+01
 0.2271251458910E+01
 0.2340094888820E+01
 0.2403776404653E+01
 0.2460141496059E+01
 0.2507621676264E+01
 0.2545315990753E+01
 0.2572901069133E+01
 0.2590454752736E+01
 0.2598273158892E+01
 0.2596728177076E+01
 0.2586180837538E+01
 0.2566947416596E+01
 0.2539308708331E+01
 0.2503554295095E+01
 0.2460048753728E+01
 0.2409313051826E+01
 0.2352108721177E+01
 0.2289505155518E+01
 0.2222933330784E+01
 0.2154268755543E+01
 0.2085851532485E+01
 0.2020370433084E+01
 0.1960800994582E+01
 0.1910471961554E+01
 0.1873244345448E+01
 0.1853769485608E+01
 0.1857758104233E+01
 0.1892133519529E+01
 0.1964880271962E+01
 0.2084431606814E+01
 0.2258658098138E+01
 0.2493601621605E+01
 0.2792105767648E+01
 0.3152622123259E+01
 0.3568318858029E+01
 0.4026609395186E+01
 0.4509337742713E+01
 0.4993880454984E+01
 0.5455382360030E+01
 0.5869880464364E+01
 0.2186754617549E+01
 0.2260363450558E+01
 0.2331147745193E+01
 0.2396516144792E+01
 0.2454239922556E+01
 0.2502775889914E+01
 0.2541336990655E+01
 0.2569760605331E+01
 0.2588287461059E+01
 0.2597347179287E+01
 0.2597400281769E+01
 0.2588847708555E+01
 0.2571999169421E+01
 0.2547087034449E+01
 0.2514316108787E+01
 0.2473936771829E+01
 0.2426334843828E+01
 0.2372125231937E+01
 0.2312228129742E+01
 0.2247930379637E+01
 0.2180981987038E+01
 0.2113614522767E+01
 0.2048399206366E+01
 0.1988164074078E+01
 0.1936052379730E+01
 0.1895702239871E+01
 0.1871516782806E+01
 0.1868970457997E+01
 0.1894845094702E+01
 0.1957215340375E+01
 0.2064991611380E+01
 0.2227002057615E+01
 0.2450683493969E+01
 0.2740509441324E+01
 0.3096483722113E+01
 0.3512902724050E+01
 0.3977553945910E+01
 0.4471640851946E+01
 0.4970774467198E+01
 0.5447401741725E+01
 0.5874731598344E+01
 0.2173815076967E+01
 0.2249635000605E+01
 0.2322499182659E+01
 0.2389648323830E+01
 0.2448763079204E+01
 0.2498334144870E+01
 0.2537713088566E+01
 0.2566926115820E+01
 0.2586399546594E+01
 0.2596711033716E+01
 0.2598417157988E+01
 0.2591961419871E+01
 0.2577646723429E+01
 0.2555654777370E+01
 0.2526101451044E+01
 0.2489116679736E+01
 0.2444942936118E+01
 0.2394039054835E+01
 0.2337166381698E+01
 0.2275458652121E+01
 0.2210533221235E+01
 0.2144507633599E+01
 0.2079829193063E+01
 0.2019168931218E+01
 0.1965471097875E+01
 0.1922132640068E+01
 0.1893282593104E+01
 0.1884119174024E+01
 0.1901220918254E+01
 0.1952669850941E+01
 0.2047774124173E+01
 0.2196294730763E+01
 0.2407150017403E+01
 0.2686662266421E+01
 0.3036704259912E+01
 0.3453041314563E+01
 0.3924107967587E+01
 0.4430580096748E+01
 0.4946168177397E+01
 0.5440133348938E+01
 0.5882205390287E+01
 0.2160886921399E+01
 0.2239070999768E+01
 0.2314155576589E+01
 0.2383169722766E+01
 0.2443685854089E+01
 0.2494242041337E+01
 0.2534359926168E+01
 0.2564287546943E+01
 0.2584661561665E+01
 0.2596222066568E+01
 0.2599628135578E+01
 0.2595367586821E+01
 0.2583735940702E+01
 0.2564862247236E+01
 0.2538769861443E+01
 0.2505462620431E+01
 0.2465031812893E+01
 0.2417770867991E+01
 0.2364272699762E+01
 0.2305509195227E+01
 0.2242958359927E+01
 0.2178618778853E+01
 0.2114807908975E+01
 0.2054030322252E+01
 0.1999017454392E+01
 0.1952906550003E+01
 0.1919526859221E+01
 0.1903760603069E+01
 0.1911918561839E+01
 0.1951995584295E+01
 0.2033590490035E+01
 0.2167331564511E+01
 0.2363670707346E+01
 0.2630995886293E+01
 0.2973408610792E+01
 0.3388563349181E+01
 0.3865904110535E+01
 0.4385764663276E+01
 0.4919862939365E+01
 0.5433720850728E+01
 0.5892557524460E+01
 0.2147975600201E+01
 0.2228684028335E+01
 0.2306131891245E+01
 0.2377083450065E+01
 0.2438984638416E+01
 0.2490441346875E+01
 0.2531185162609E+01
 0.2561724462504E+01
 0.2582932663021E+01
 0.2595725899926E+01
 0.2600870577327E+01
 0.2598899357461E+01
 0.2590099391074E+01
 0.2574545444614E+01
 0.2552165604779E+01
 0.2522832804542E+01
 0.2486479852928E+01
 0.2443225620650E+01
 0.2393485074732E+01
 0.2338059784690E+01
 0.2278282273925E+01
 0.2216027966488E+01
 0.2153479131772E+01
 0.2092964551401E+01
 0.2036988710458E+01
 0.1988410289165E+01
 0.1950733368378E+01
 0.1928485423016E+01
 0.1927644518843E+01
 0.1956015144242E+01
 0.2023353123824E+01
 0.2141040944021E+01
 0.2321065605878E+01
 0.2574079282729E+01
 0.2906810991985E+01
 0.3319315627038E+01
 0.3802528827539E+01
 0.4336707534669E+01
 0.4891560229351E+01
 0.5428282210821E+01
 0.5905701116923E+01
 0.2135093486450E+01
 0.2218496467353E+01
 0.2298453897420E+01
 0.2371400183126E+01
 0.2434637212787E+01
 0.2486868845543E+01
 0.2528086968963E+01
 0.2559104739632E+01
 0.2581059746183E+01
 0.2595055976183E+01
 0.2601969658156E+01
 0.2602377215342E+01
 0.2596555980337E+01
 0.2584525362360E+01
 0.2566116562672E+01
 0.2541067982894E+01
 0.2509147432057E+01
 0.2470290333321E+01
 0.2424724247773E+01
 0.2373072247488E+01
 0.2316515923549E+01
 0.2256804260854E+01
 0.2195979781633E+01
 0.2136186383636E+01
 0.2079687146245E+01
 0.2029042938057E+01
 0.1987407648210E+01
 0.1958916919478E+01
 0.1949152765997E+01
 0.1965621539161E+01
 0.2018079238408E+01
 0.2118497563965E+01
 0.2280332033272E+01
 0.2516655458243E+01
 0.2837249953072E+01
 0.3245186675499E+01
 0.3733518494419E+01
 0.4282852268839E+01
 0.4860759225178E+01
 0.5424215007902E+01
 0.5919651620230E+01
 0.2122263580875E+01
 0.2208539726710E+01
 0.2291156021988E+01
 0.2366133999437E+01
 0.2430616487932E+01
 0.2483448350470E+01
 0.2524945098123E+01
 0.2556275616580E+01
 0.2578869602926E+01
 0.2594028359280E+01
 0.2602737900796E+01
 0.2605615934592E+01
 0.2602928547700E+01
 0.2594639867866E+01
 0.2580484290767E+01
 0.2560063577773E+01
 0.2532974727504E+01
 0.2498960535610E+01
 0.2458050814753E+01
 0.2410681177925E+01
 0.2357876527338E+01
 0.2301256146042E+01
 0.2242717962053E+01
 0.2184210564554E+01
 0.2127738599820E+01
 0.2075542516243E+01
 0.2030397724872E+01
 0.1996008699780E+01
 0.1977496521626E+01
 0.1981956179209E+01
 0.2018965386889E+01
 0.2100867225857E+01
 0.2242440651759E+01
 0.2459280159823E+01
 0.2764680873940E+01
 0.3165494138712E+01
 0.3657742844362E+01
 0.4223000661676E+01
 0.4826810828931E+01
 0.5420719001583E+01
 0.5941727112393E+01
 0.2109511646110E+01
 0.2198861774790E+01
 0.2284290127120E+01
 0.2361311407609E+01
 0.2426898113580E+01
 0.2480098060760E+01
 0.2521629305173E+01
 0.2553073351505E+01
 0.2576178220388E+01
 0.2592447380330E+01
 0.2602972446149E+01
 0.2608407599553E+01
 0.2609005875324E+01
 0.2604677390466E+01
 0.2595061946915E+01
 0.2579624808218E+01
 0.2557787918149E+01
 0.2529092789808E+01
 0.2493361048183E+01
 0.2450832008362E+01
 0.2402368982102E+01
 0.2349459643451E+01
 0.2293853645042E+01
 0.2237294225780E+01
 0.2181510130451E+01
 0.2128398077979E+01
 0.2080326741406E+01
 0.2040531992652E+01
 0.2013613213087E+01
 0.2006143367369E+01
 0.2027330563342E+01
 0.2089618471610E+01
 0.2208858716699E+01
 0.2403152450222E+01
 0.2689737512514E+01
 0.3080135188907E+01
 0.3574451382378E+01
 0.4156145028080E+01
 0.4789047430291E+01
 0.5417985291255E+01
 0.5979114473576E+01
 0.2096889442970E+01
 0.2189541271029E+01
 0.2277942025379E+01
 0.2356983201856E+01
 0.2423467958533E+01
 0.2476734936067E+01
 0.2518002509498E+01
 0.2549326165073E+01
 0.2572793594767E+01
 0.2590107885808E+01
 0.2602456101958E+01
 0.2610520750324E+01
 0.2614539172995E+01
 0.2614369936290E+01
 0.2609563040388E+01
 0.2599450493281E+01
 0.2583277571558E+01
 0.2560377431948E+01
 0.2530353947885E+01
 0.2493242471896E+01
 0.2449741815143E+01
 0.2401208875176E+01
 0.2349244300700E+01
 0.2295378553265E+01
 0.2241049370752E+01
 0.2187789221708E+01
 0.2137536010458E+01
 0.2093026522165E+01
 0.2058288403906E+01
 0.2039274581447E+01
 0.2044634199639E+01
 0.2086599825647E+01
 0.2181724149411E+01
 0.2350414783746E+01
 0.2614147605465E+01
 0.2990058717616E+01
 0.3483720747066E+01
 0.4081815686063E+01
 0.4746954226410E+01
 0.5418106801477E+01
 0.6023789243313E+01
 0.2084463732150E+01
 0.2180676622716E+01
 0.2272214205000E+01
 0.2353203072014E+01
 0.2420297479230E+01
 0.2473249903919E+01
 0.2513898215382E+01
 0.2544835464218E+01
 0.2568502336009E+01
 0.2586789712143E+01
 0.2600963489530E+01
 0.2611723278070E+01
 0.2619287804628E+01
 0.2623468381143E+01
 0.2623733271626E+01
 0.2619288202618E+01
 0.2609203095041E+01
 0.2592596894877E+01
 0.2568845994808E+01
 0.2537773951207E+01
 0.2499912998649E+01
 0.2456491795478E+01
 0.2408962997672E+01
 0.2358637851088E+01
 0.2306648272313E+01
 0.2254142283325E+01
 0.2202604324571E+01
 0.2154245179707E+01
 0.2112478167615E+01
 0.2082550218460E+01
 0.2072372072360E+01
 0.2093633205628E+01
 0.2163113041003E+01
 0.2303119039351E+01
 0.2539459933555E+01
 0.2895846617285E+01
 0.3385041698069E+01
 0.3998797063013E+01
 0.4699749703881E+01
 0.5420555581424E+01
 0.6076302765976E+01
 0.2072326359166E+01
 0.2172401210797E+01
 0.2267240717418E+01
 0.2350036958053E+01
 0.2417347961670E+01
 0.2469510419075E+01
 0.2509124127532E+01
 0.2539380912575E+01
 0.2563074850393E+01
 0.2582260756086E+01
 0.2598259328456E+01
 0.2611772891246E+01
 0.2622998559833E+01
 0.2631706927212E+01
 0.2637296556500E+01
 0.2638858601271E+01
 0.2635292888603E+01
 0.2625500097757E+01
 0.2608619177925E+01
 0.2584253508021E+01
 0.2552767263268E+01
 0.2515265127072E+01
 0.2473054601444E+01
 0.2427222335657E+01
 0.2378580109268E+01
 0.2327872152532E+01
 0.2276108922273E+01
 0.2224952807606E+01
 0.2177168628956E+01
 0.2137225715901E+01
 0.2112135251223E+01
 0.2112712064916E+01
 0.2155408645838E+01
 0.2263795341287E+01
 0.2467792005707E+01
 0.2798529930898E+01
 0.3278017654936E+01
 0.3905658433176E+01
 0.4645978123490E+01
 0.5424334686795E+01
 0.6137838127620E+01
 0.2060602638767E+01
 0.2164894021186E+01
 0.2263194328578E+01
 0.2347561416093E+01
 0.2414562657664E+01
 0.2465352016760E+01
 0.2503456587967E+01
 0.2532718160443E+01
 0.2556265348326E+01
 0.2576278188119E+01
 0.2594100140019E+01
 0.2610418857222E+01
 0.2625407060124E+01
 0.2638803769594E+01
 0.2649954548377E+01
 0.2657853585538E+01
 0.2661241185587E+01
 0.2658798396415E+01
 0.2649416537648E+01
 0.2632469353362E+01
 0.2608151629592E+01
 0.2577449902814E+01
 0.2541531093282E+01
 0.2501252836456E+01
 0.2457093118170E+01
 0.2409374552176E+01
 0.2358616465545E+01
 0.2305916482995E+01
 0.2253366625485E+01
 0.2204603136018E+01
 0.2165600846771E+01
 0.2145989337696E+01
 0.2161299521903E+01
 0.2235505809247E+01
 0.2401982495547E+01
 0.2699794877496E+01
 0.3162514279479E+01
 0.3800679558112E+01
 0.4583461123787E+01
 0.5428374550427E+01
 0.6209920197163E+01
 0.2049463049319E+01
 0.2158394317969E+01
 0.2260294697163E+01
 0.2345859165274E+01
 0.2411854887251E+01
 0.2460567290645E+01
 0.2496634305792E+01
 0.2524576916019E+01
 0.2547812492998E+01
 0.2568590289635E+01
 0.2588236513961E+01
 0.2607404289899E+01
 0.2626239723539E+01
 0.2644462295275E+01
 0.2661386542118E+01
 0.2675934494264E+01
 0.2686704593667E+01
 0.2692160955328E+01
 0.2690937060305E+01
 0.2682165800004E+01
 0.2665870669257E+01
 0.2642926997548E+01
 0.2614367029370E+01
 0.2580815573622E+01
 0.2542403892492E+01
 0.2499017482365E+01
 0.2450672315699E+01
 0.2397893023943E+01
 0.2342086683618E+01
 0.2286019115452E+01
 0.2234520303169E+01
 0.2195761666516E+01
 0.2183763916553E+01
 0.2221876904859E+01
 0.2345753978587E+01
 0.2602268451403E+01
 0.3038896633222E+01
 0.3681874868934E+01
 0.4509317868004E+01
 0.5431371956607E+01
 0.6294424519110E+01
 0.2039140006688E+01
 0.2153221907354E+01
 0.2258817295583E+01
 0.2345009688736E+01
 0.2409090427371E+01
 0.2454891912894E+01
 0.2488351740274E+01
 0.2514659780377E+01
 0.2537440941183E+01
 0.2558939029190E+01
 0.2580415994029E+01
 0.2602469034573E+01
 0.2625216375092E+01
 0.2648372956476E+01
 0.2671249928304E+01
 0.2692730509941E+01
 0.2711298315208E+01
 0.2725209376939E+01
 0.2732829694575E+01
 0.2733037511986E+01
 0.2725681442481E+01
 0.2711532755811E+01
 0.2691495365810E+01
 0.2665957280802E+01
 0.2634690779838E+01
 0.2597132025451E+01
 0.2552788191454E+01
 0.2501613480997E+01
 0.2444333348174E+01
 0.2382827222131E+01
 0.2320703156695E+01
 0.2264450355043E+01
 0.2226042297251E+01
 0.2227099762803E+01
 0.2303864361929E+01
 0.2509890402336E+01
 0.2908422981493E+01
 0.3547149011591E+01
 0.4419835282863E+01
 0.5431530571312E+01
 0.6393658554902E+01
 0.2029952532196E+01
 0.2149805391775E+01
 0.2259101966462E+01
 0.2345071428642E+01
 0.2406061986505E+01
 0.2447987604272E+01
 0.2478252873078E+01
 0.2502642433503E+01
 0.2524864052083E+01
 0.2547063477109E+01
 0.2570386615802E+01
 0.2595353181520E+01
 0.2622053583779E+01
 0.2650215984837E+01
 0.2679181429810E+01
 0.2707837439692E+01
 0.2734592057320E+01
 0.2757511375952E+01
 0.2774686155092E+01
 0.2784722763295E+01
 0.2787288012521E+01
 0.2783054851072E+01
 0.2772803954716E+01
 0.2756681025715E+01
 0.2734087596628E+01
 0.2704002786845E+01
 0.2665428454138E+01
 0.2617764669221E+01
 0.2561078214558E+01
 0.2496372581508E+01
 0.2425992637245E+01
 0.2354577045798E+01
 0.2291601483938E+01
 0.2255893723432E+01
 0.2282211155588E+01
 0.2428362163213E+01
 0.2773876630433E+01
 0.3394617722399E+01
 0.4310251049424E+01
 0.5426196211184E+01
 0.6510518654758E+01
 0.2022343513148E+01
 0.2148721925685E+01
 0.2261558379983E+01
 0.2346049910237E+01
 0.2402453132028E+01
 0.2439422649306E+01
 0.2465926657860E+01
 0.2488175913546E+01
 0.2509788031387E+01
 0.2532704128255E+01
 0.2557901102659E+01
 0.2585801212702E+01
 0.2616468789837E+01
 0.2649665132910E+01
 0.2684799434362E+01
 0.2720817182600E+01
 0.2756105705571E+01
 0.2788573225146E+01
 0.2816032011832E+01
 0.2836795239206E+01
 0.2850335339948E+01
 0.2857228525971E+01
 0.2858133094725E+01
 0.2852943145281E+01
 0.2840677984330E+01
 0.2819858235850E+01
 0.2788995344471E+01
 0.2746968094421E+01
 0.2693231538199E+01
 0.2627956965963E+01
 0.2552228328291E+01
 0.2468728094134E+01
 0.2384091502371E+01
 0.2313437740529E+01
 0.2287847622591E+01
 0.2365619822235E+01
 0.2640521415904E+01
 0.3223249123610E+01
 0.4174511128142E+01
 0.5411312423743E+01
 0.6648737427671E+01
 0.2016937683998E+01
 0.2150753488671E+01
 0.2266662228075E+01
 0.2347842662346E+01
 0.2397789055602E+01
 0.2428651933474E+01
 0.2450906133910E+01
 0.2470891787295E+01
 0.2491917697512E+01
 0.2515608139482E+01
 0.2542721671356E+01
 0.2573566731128E+01
 0.2608185237033E+01
 0.2646392625021E+01
 0.2687707834418E+01
 0.2731198382926E+01
 0.2775304998365E+01
 0.2817830695697E+01
 0.2856315402333E+01
 0.2888753747027E+01
 0.2914402354453E+01
 0.2933733573413E+01
 0.2947274864050E+01
 0.2954652065438E+01
 0.2954491023069E+01
 0.2944861476297E+01
 0.2923813883500E+01
 0.2889757352554E+01
 0.2841609517168E+01
 0.2778794071470E+01
 0.2701191623392E+01
 0.2609497949470E+01
 0.2507288470284E+01
 0.2405281070944E+01
 0.2328886243301E+01
 0.2332207179327E+01
 0.2517447937728E+01
 0.3034124465824E+01
 0.4005124782263E+01
 0.5380557933555E+01
 0.6813257115675E+01
 0.2014634913149E+01
 0.2156966477250E+01
 0.2274928762713E+01
 0.2350146605161E+01
 0.2391372971150E+01
 0.2415000976027E+01
 0.2432673900664E+01
 0.2450410891263E+01
 0.2470963954035E+01
 0.2495535452520E+01
 0.2524625374449E+01
 0.2558417692314E+01
 0.2596937677510E+01
 0.2640075471841E+01
 0.2687501876458E+01
 0.2738479013067E+01
 0.2791597654382E+01
 0.2844638129336E+01
 0.2894892267298E+01
 0.2940008654251E+01
 0.2978993630608E+01
 0.3012192305670E+01
 0.3039974953562E+01
 0.3061669658368E+01
 0.3075498385161E+01
 0.3079101457058E+01
 0.3070116633727E+01
 0.3046554890690E+01
 0.3006898821240E+01
 0.2949956024669E+01
 0.2874531104596E+01
 0.2779399510726E+01
 0.2665004132898E+01
 0.2537235568917E+01
 0.2414304425696E+01
 0.2341367843570E+01
 0.2419238379702E+01
 0.2832839611396E+01
 0.3793436482032E+01
 0.5323944332654E+01
 0.7010784242322E+01
 0.2016766126012E+01
 0.2168822632296E+01
 0.2286835028322E+01
 0.2352306628075E+01
 0.2382211838609E+01
 0.2397662343306E+01
 0.2410676846400E+01
 0.2426355866708E+01
 0.2446652904930E+01
 0.2472265698449E+01
 0.2503409844085E+01
 0.2540141995308E+01
 0.2582478721300E+01
 0.2630403201567E+01
 0.2683776582072E+01
 0.2742132011687E+01
 0.2804330899962E+01
 0.2868255389465E+01
 0.2931006556665E+01
 0.2989863255589E+01
 0.3043528859778E+01
 0.3092169046570E+01
 0.3135938234934E+01
 0.3173816209658E+01
 0.3203613493580E+01
 0.3222584589358E+01
 0.3228028449189E+01
 0.3217649359338E+01
 0.3189621187338E+01
 0.3142314787260E+01
 0.3073669036517E+01
 0.2980732110075E+01
 0.2860932969788E+01
 0.2715221196403E+01
 0.2553696374798E+01
 0.2408724139035E+01
 0.2367503090465E+01
 0.2633826771774E+01
 0.3531155302474E+01
 0.5225555597406E+01
 0.7250587213570E+01
 0.2025365603561E+01
 0.2188326391694E+01
 0.2302629650767E+01
 0.2353077565274E+01
 0.2368947794855E+01
 0.2375717580226E+01
 0.2384351691253E+01
 0.2398367010208E+01
 0.2418736457737E+01
 0.2445605671797E+01
 0.2478899235663E+01
 0.2518553234143E+01
 0.2564585590691E+01
 0.2617086869998E+01
 0.2676138254349E+01
 0.2741615600807E+01
 0.2812792240338E+01
 0.2887832824447E+01
 0.2963763201700E+01
 0.3037487244133E+01
 0.3107328959150E+01
 0.3173172227725E+01
 0.3234840154653E+01
 0.3290880720683E+01
 0.3338693475006E+01
 0.3375226722569E+01
 0.3397551139558E+01
 0.3403174976881E+01
 0.3390102214090E+01
 0.3356485145233E+01
 0.3299695858383E+01
 0.3215405714679E+01
 0.3098408592355E+01
 0.2944998202423E+01
 0.2756966312813E+01
 0.2551620131039E+01
 0.2391325546434E+01
 0.2467235300961E+01
 0.3215308794091E+01
 0.5060115587376E+01
 0.7545547227192E+01
 0.2043671737246E+01
 0.2218193643428E+01
 0.2321899611215E+01
 0.2350276462571E+01
 0.2349839684327E+01
 0.2348199526835E+01
 0.2353158824451E+01
 0.2366120719439E+01
 0.2387004221131E+01
 0.2415397018504E+01
 0.2450950154714E+01
 0.2493496381583E+01
 0.2543066947340E+01
 0.2599868907315E+01
 0.2664219233286E+01
 0.2736390347292E+01
 0.2816216760053E+01
 0.2902395202795E+01
 0.2992090442595E+01
 0.3081877321943E+01
 0.3169596696705E+01
 0.3254660706426E+01
 0.3336346842614E+01
 0.3412638532054E+01
 0.3480544459729E+01
 0.3536844678187E+01
 0.3578546648772E+01
 0.3603093191413E+01
 0.3608448824349E+01
 0.3592778252368E+01
 0.3553264842784E+01
 0.3484731651573E+01
 0.3380055587371E+01
 0.3231706921778E+01
 0.3033823185399E+01
 0.2788329550923E+01
 0.2525812154045E+01
 0.2386922187157E+01
 0.2861994899375E+01
 0.4788742999330E+01
 0.7913194935129E+01
 0.2077107499376E+01
 0.2261941018423E+01
 0.2342616685804E+01
 0.2340358065955E+01
 0.2322889155950E+01
 0.2314195803146E+01
 0.2316616485719E+01
 0.2329351219289E+01
 0.2351295886523E+01
 0.2381523678400E+01
 0.2419457326560E+01
 0.2464853110486E+01
 0.2517769406427E+01
 0.2578533001671E+01
 0.2647695225064E+01
 0.2725945146097E+01
 0.2813806760911E+01
 0.2910827896248E+01
 0.3014686531109E+01
 0.3121796358655E+01
 0.3229388560508E+01
 0.3336057617445E+01
 0.3440148687886E+01
 0.3538879106855E+01
 0.3628931186948E+01
 0.3707146588982E+01
 0.3770716318110E+01
 0.3817175647488E+01
 0.3844540748184E+01
 0.3851178526526E+01
 0.3834503975132E+01
 0.3789204175438E+01
 0.3707352656050E+01
 0.3579164260716E+01
 0.3392863132077E+01
 0.3136897356730E+01
 0.2809515119234E+01
 0.2472741107943E+01
 0.2540059365073E+01
 0.4358045368312E+01
 0.8375560904748E+01
 0.2135359086604E+01
 0.2323450102890E+01
 0.2359100721884E+01
 0.2318188912743E+01
 0.2286248511580E+01
 0.2272939921292E+01
 0.2274334569923E+01
 0.2287877032623E+01
 0.2311511770440E+01
 0.2343919191726E+01
 0.2384358636371E+01
 0.2432546530862E+01
 0.2488583425540E+01
 0.2552913134333E+01
 0.2626303098197E+01
 0.2709833045595E+01
 0.2804773384843E+01
 0.2911874202789E+01
 0.3029943458460E+01
 0.3155675023431E+01
 0.3285572458541E+01
 0.3416778074114E+01
 0.3546014325681E+01
 0.3669446757777E+01
 0.3783591264304E+01
 0.3885719792864E+01
 0.3973571167464E+01
 0.4044982764137E+01
 0.4098040022194E+01
 0.4131360340718E+01
 0.4142965224812E+01
 0.4128297998647E+01
 0.4080172879990E+01
 0.3988910594060E+01
 0.3840134088850E+01
 0.3612854572725E+01
 0.3281245912361E+01
 0.2821795384929E+01
 0.2428935826952E+01
 0.3725054325194E+01
 0.8953830572624E+01
 0.2237281351939E+01
 0.2404082960754E+01
 0.2358014599405E+01
 0.2278108470604E+01
 0.2238836588782E+01
 0.2223775032447E+01
 0.2226092163043E+01
 0.2241616096103E+01
 0.2267623675905E+01
 0.2302572977287E+01
 0.2345639272249E+01
 0.2396545110546E+01
 0.2455448172567E+01
 0.2522901279833E+01
 0.2599855594166E+01
 0.2687712758166E+01
 0.2788414060319E+01
 0.2904166955419E+01
 0.3035837702001E+01
 0.3181443908164E+01
 0.3336763639706E+01
 0.3496284435759E+01
 0.3653875714927E+01
 0.3804297210964E+01
 0.3944254054304E+01
 0.4072016648873E+01
 0.4186387694085E+01
 0.4285824063778E+01
 0.4368421210956E+01
 0.4432770166402E+01
 0.4477639401900E+01
 0.4500295317577E+01
 0.4496385303801E+01
 0.4459214615096E+01
 0.4376921138577E+01
 0.4226232741520E+01
 0.3971301348262E+01
 0.3540831862160E+01
 0.2828162910980E+01
 0.3019264438870E+01
 0.9650907163027E+01
 0.2424425305535E+01
 0.2488020833065E+01
 0.2313573204196E+01
 0.2218981503000E+01
 0.2179711997812E+01
 0.2166352812302E+01
 0.2171886286321E+01
 0.2190591784607E+01
 0.2219687644365E+01
 0.2257533458052E+01
 0.2303335233687E+01
 0.2356865288929E+01
 0.2418354864112E+01
 0.2488453339245E+01
 0.2568251333648E+01
 0.2659379833801E+01
 0.2764235065561E+01
 0.2886355245859E+01
 0.3029777736360E+01
 0.3196223976087E+01
 0.3381232974716E+01
 0.3574198853235E+01
 0.3763958529847E+01
 0.3943572923876E+01
 0.4110662734621E+01
 0.4265341390657E+01
 0.4408150436737E+01
 0.4538670977913E+01
 0.4655011599030E+01
 0.4754838340591E+01
 0.4837051661633E+01
 0.4902186648682E+01
 0.4951458117232E+01
 0.4984634232301E+01
 0.4996732014589E+01
 0.4977459262691E+01
 0.4890878965099E+01
 0.4708574707226E+01
 0.4115852416304E+01
 0.3156300834173E+01
 0.1042509438818E+02
 0.2808601780686E+01
 0.2459082091388E+01
 0.2216628094908E+01
 0.2143349255999E+01
 0.2107462381541E+01
 0.2101155817903E+01
 0.2111805233456E+01
 0.2134989407297E+01
 0.2167836947029E+01
 0.2208914024280E+01
 0.2257534286364E+01
 0.2313573188637E+01
 0.2377348417089E+01
 0.2449592034857E+01
 0.2531482817363E+01
 0.2624773348004E+01
 0.2732062052717E+01
 0.2857494280290E+01
 0.3008423914430E+01
 0.3195672535827E+01
 0.3416823145565E+01
 0.3650523966615E+01
 0.3876971597388E+01
 0.4087697757835E+01
 0.4282593228761E+01
 0.4464834730929E+01
 0.4637502827254E+01
 0.4801975208940E+01
 0.4956948819753E+01
 0.5097481961574E+01
 0.5219499509876E+01
 0.5329412170395E+01
 0.5438596719797E+01
 0.5554932760955E+01
 0.5686743807981E+01
 0.5842035316188E+01
 0.6044144269590E+01
 0.6261565456159E+01
 0.6737769945276E+01
 0.6014875635928E+01
 0.1218265713630E+02
 0.9108640479943E+00
 0.1116032809838E+01
 0.1318255085611E+01
 0.1505473911735E+01
 0.1672187901303E+01
 0.1816224957256E+01
 0.1937242163613E+01
 0.2035845287547E+01
 0.2113026386884E+01
 0.2169946118286E+01
 0.2207972752652E+01
 0.2227692432702E+01
 0.2230219779114E+01
 0.2217948452529E+01
 0.2191991720653E+01
 0.2151792742981E+01
 0.2095892290208E+01
 0.2022613070108E+01
 0.1931146217681E+01
 0.1817400238317E+01
 0.8845237366270E+00
 0.1106161969833E+01
 0.1321300743376E+01
 0.1520130147508E+01
 0.1697445490874E+01
 0.1851309026143E+01
 0.1981591373922E+01
 0.2089045189170E+01
 0.2174756574955E+01
 0.2239987289953E+01
 0.2286092864540E+01
 0.2313758664463E+01
 0.2324292333728E+01
 0.2319806967441E+01
 0.2301180969164E+01
 0.2268098752564E+01
 0.2219181211852E+01
 0.2152670156207E+01
 0.2063213093299E+01
 0.1946793702518E+01
 0.8585570085626E+00
 0.1097877321459E+01
 0.1326448782018E+01
 0.1536660264059E+01
 0.1724225685363E+01
 0.1887573447103E+01
 0.2026807416809E+01
 0.2142843854249E+01
 0.2236903710572E+01
 0.2310335419102E+01
 0.2364505241014E+01
 0.2400332042196E+01
 0.2419176948572E+01
 0.2422887430171E+01
 0.2412276145464E+01
 0.2386997078097E+01
 0.2345611076410E+01
 0.2285289679640E+01
 0.2201210701133E+01
 0.2094993371494E+01
 0.8333995659081E+00
 0.1090790447108E+01
 0.1333176482811E+01
 0.1554708982917E+01
 0.1752227029087E+01
 0.1924718185700E+01
 0.2072583837421E+01
 0.2196937256826E+01
 0.2299149912708E+01
 0.2380673187191E+01
 0.2442945114700E+01
 0.2487080745633E+01
 0.2514480632361E+01
 0.2526790977222E+01
 0.2524727479556E+01
 0.2507880339362E+01
 0.2474605328163E+01
 0.2422110928526E+01
 0.2347445776913E+01
 0.2252712952320E+01
 0.8091800289435E+00
 0.1084821436695E+01
 0.1341137879929E+01
 0.1573912134491E+01
 0.1781120406853E+01
 0.1962423992815E+01
 0.2118600899420E+01
 0.2250999712587E+01
 0.2361163519402E+01
 0.2450671395916E+01
 0.2521060199770E+01
 0.2573614717157E+01
 0.2609769759073E+01
 0.2631014998812E+01
 0.2637978283501E+01
 0.2630190718294E+01
 0.2606067167469E+01
 0.2563322984859E+01
 0.2499933525914E+01
 0.2417465839404E+01
 0.7859837436302E+00
 0.1079872611660E+01
 0.1350078596707E+01
 0.1593937397936E+01
 0.1810567688239E+01
 0.2000358357156E+01
 0.2164525079930E+01
 0.2304691623049E+01
 0.2422596704348E+01
 0.2519966548666E+01
 0.2598454234834E+01
 0.2659493600849E+01
 0.2704553641961E+01
 0.2735012831009E+01
 0.2751441527885E+01
 0.2753400535586E+01
 0.2739520526935E+01
 0.2707937148522E+01
 0.2657062709317E+01
 0.2587598296995E+01
 0.7638794965707E+00
 0.1075847514297E+01
 0.1359769792641E+01
 0.1614480190366E+01
 0.1840235608579E+01
 0.2038182107586E+01
 0.2210013167014E+01
 0.2357661343497E+01
 0.2483083068553E+01
 0.2588167589273E+01
 0.2674695563877E+01
 0.2744235871524E+01
 0.2798297667363E+01
 0.2838193316619E+01
 0.2864484632613E+01
 0.2876830056789E+01
 0.2874094606525E+01
 0.2854718826832E+01
 0.2817259736805E+01
 0.2761548756956E+01
 0.7429307305728E+00
 0.1072649973995E+01
 0.1369997152998E+01
 0.1635252390301E+01
 0.1869799802447E+01
 0.2075555699505E+01
 0.2254716370955E+01
 0.2409547488802E+01
 0.2542240962224E+01
 0.2654861404180E+01
 0.2749325054114E+01
 0.2827327770690E+01
 0.2890429141542E+01
 0.2939918531903E+01
 0.2976391380927E+01
 0.2999632179964E+01
 0.3008718546312E+01
 0.3002296434535E+01
 0.2978920891611E+01
 0.2937638274603E+01
 0.7231985345431E+00
 0.1070186109227E+01
 0.1380556181695E+01
 0.1655978610562E+01
 0.1898945232766E+01
 0.2112143242952E+01
 0.2298284324605E+01
 0.2459982611770E+01
 0.2599677842872E+01
 0.2719618860132E+01
 0.2821863300085E+01
 0.2908230268321E+01
 0.2980341852991E+01
 0.3039499967382E+01
 0.3086361075337E+01
 0.3120841535220E+01
 0.3142197333561E+01
 0.3149209151796E+01
 0.3140361658631E+01
 0.3114026784279E+01
 0.7047423614263E+00
 0.1068365257112E+01
 0.1391251115214E+01
 0.1676394847815E+01
 0.1927367000143E+01
 0.2147615309399E+01
 0.2340368897540E+01
 0.2508597402033E+01
 0.2654995243212E+01
 0.2782000879778E+01
 0.2891817267606E+01
 0.2986385441183E+01
 0.3067401005660E+01
 0.3136204382022E+01
 0.3193528010875E+01
 0.3239413369989E+01
 0.3273259677822E+01
 0.3293929761839E+01
 0.3299803176888E+01
 0.3288680287778E+01
 0.6876197491464E+00
 0.1067100643339E+01
 0.1401894970519E+01
 0.1696248597499E+01
 0.1954771537822E+01
 0.2181651539001E+01
 0.2380627852189E+01
 0.2555025126604E+01
 0.2707794030959E+01
 0.2841564577217E+01
 0.2958686931685E+01
 0.3061223356461E+01
 0.3150951266212E+01
 0.3229266759660E+01
 0.3296984023178E+01
 0.3354256472521E+01
 0.3400592603262E+01
 0.3434893343312E+01
 0.3455404548599E+01
 0.3459439210738E+01
 0.6718857060446E+00
 0.1066309903272E+01
 0.1412310172049E+01
 0.1715299711456E+01
 0.1980878219064E+01
 0.2213943268171E+01
 0.2418728455774E+01
 0.2598906109081E+01
 0.2757679735219E+01
 0.2897869411294E+01
 0.3021972118759E+01
 0.3132169991998E+01
 0.3230327285110E+01
 0.3317905742772E+01
 0.3395800772612E+01
 0.3464261264671E+01
 0.3522872589507E+01
 0.3570533750360E+01
 0.3605329960275E+01
 0.3624149184746E+01
 0.6575920025629E+00
 0.1065915555362E+01
 0.1422329458691E+01
 0.1733321671178E+01
 0.2005421243501E+01
 0.2244196244653E+01
 0.2454351086733E+01
 0.2639892214525E+01
 0.2804267911178E+01
 0.2950483459928E+01
 0.3081179795678E+01
 0.3198656199685E+01
 0.3304865616123E+01
 0.3401339872835E+01
 0.3489050951638E+01
 0.3568325473925E+01
 0.3638795563379E+01
 0.3699322906420E+01
 0.3747808823402E+01
 0.3780756711088E+01
 0.6447864985803E+00
 0.1065845468297E+01
 0.1431796937881E+01
 0.1750103074563E+01
 0.2028151670124E+01
 0.2272133364499E+01
 0.2487192771783E+01
 0.2677651231064E+01
 0.2847189417488E+01
 0.2998989701001E+01
 0.3135831599355E+01
 0.3260127134855E+01
 0.3373916994149E+01
 0.3478803470763E+01
 0.3575828040077E+01
 0.3665377619334E+01
 0.3747104652115E+01
 0.3819804648515E+01
 0.3881177487493E+01
 0.3927365665927E+01
 0.6335125636481E+00
 0.1066033334858E+01
 0.1440569216028E+01
 0.1765449232334E+01
 0.2048839520810E+01
 0.2297497400072E+01
 0.2516970642426E+01
 0.2711871136618E+01
 0.2886095592077E+01
 0.3042992263706E+01
 0.3185471454644E+01
 0.3316051793554E+01
 0.3436858450876E+01
 0.3549561757774E+01
 0.3655264524019E+01
 0.3754398198793E+01
 0.3846614169416E+01
 0.3930620858693E+01
 0.4003906333149E+01
 0.4062266688618E+01
 0.6238086264910E+00
 0.1066419154781E+01
 0.1448516551105E+01
 0.1779183788187E+01
 0.2067275872464E+01
 0.2320053655229E+01
 0.2543425258445E+01
 0.2742264196217E+01
 0.2920663255513E+01
 0.3082122532222E+01
 0.3229673063859E+01
 0.3365932325399E+01
 0.3493104898344E+01
 0.3612924929358E+01
 0.3726548394571E+01
 0.3834438221020E+01
 0.3936229324883E+01
 0.4030530812763E+01
 0.4114616992775E+01
 0.4183950781919E+01
 0.6157078404927E+00
 0.1066949711655E+01
 0.1455523979294E+01
 0.1791150297153E+01
 0.2083274871393E+01
 0.2339592488773E+01
 0.2566323742857E+01
 0.2768570825664E+01
 0.2950599450794E+01
 0.3116044958800E+01
 0.3268047048165E+01
 0.3409312835946E+01
 0.3542119881798E+01
 0.3668260925423E+01
 0.3788937702889E+01
 0.3904634905964E+01
 0.4014961898848E+01
 0.4118425107917E+01
 0.4212092560723E+01
 0.4291112338045E+01
 0.6092378760686E+00
 0.1067579035995E+01
 0.1461492383442E+01
 0.1801213711549E+01
 0.2096675612425E+01
 0.2355931647289E+01
 0.2585462665506E+01
 0.2790563145077E+01
 0.2975645815125E+01
 0.3144462438298E+01
 0.3300247540830E+01
 0.3445787443278E+01
 0.3583425270366E+01
 0.3715006705015E+01
 0.3841773061552E+01
 0.3964224647071E+01
 0.4081942425179E+01
 0.4193335378687E+01
 0.4295282585647E+01
 0.4382644917940E+01
 0.6044208150795E+00
 0.1068268836536E+01
 0.1466339462541E+01
 0.1809261721080E+01
 0.2107343823991E+01
 0.2368918347060E+01
 0.2600670611442E+01
 0.2808048147792E+01
 0.2995582488878E+01
 0.3167121121514E+01
 0.3325978082164E+01
 0.3475007429393E+01
 0.3616609750346E+01
 0.3752677956273E+01
 0.3884488155723E+01
 0.4012553541928E+01
 0.4136429556971E+01
 0.4254440896468E+01
 0.4363304664451E+01
 0.4457633410534E+01
 0.6012731192549E+00
 0.1068988887079E+01
 0.1470000578373E+01
 0.1815205916336E+01
 0.2115173324684E+01
 0.2378431067183E+01
 0.2611810389729E+01
 0.2820870427570E+01
 0.3010231485159E+01
 0.3183814567184E+01
 0.3344996695314E+01
 0.3496687361486E+01
 0.3641336021807E+01
 0.3780877209762E+01
 0.3916618359694E+01
 0.4049085789554E+01
 0.4177817179250E+01
 0.4301072929433E+01
 0.4415443954518E+01
 0.4515344763288E+01
 0.5998056454861E+00
 0.1069717356064E+01
 0.1472429453857E+01
 0.1818982741971E+01
 0.2120087212090E+01
 0.2384381009586E+01
 0.2618780830991E+01
 0.2828914400988E+01
 0.3019459441349E+01
 0.3194387137406E+01
 0.3357120036019E+01
 0.3510610080250E+01
 0.3657346627300E+01
 0.3799300353771E+01
 0.3937807575523E+01
 0.4073410236639E+01
 0.4205639768350E+01
 0.4332717650274E+01
 0.4451151693988E+01
 0.4555219000418E+01
 0.6000236813784E+00
 0.1070441068573E+01
 0.1473598703851E+01
 0.1820554214831E+01
 0.2122038754991E+01
 0.2386713192517E+01
 0.2621518133833E+01
 0.2832105975699E+01
 0.3023179691517E+01
 0.3198736563673E+01
 0.3362226536694E+01
 0.3516630482240E+01
 0.3664468369444E+01
 0.3807741569415E+01
 0.3947813408389E+01
 0.4085245319231E+01
 0.4219576398562E+01
 0.4349018247231E+01
 0.4470043843023E+01
 0.4576861571388E+01
 0.6019269814761E+00
 0.1071155693296E+01
 0.1473500184461E+01
 0.1819908388837E+01
 0.2121011967240E+01
 0.2385407151768E+01
 0.2619996728823E+01
 0.2830413625841E+01
 0.3021353612109E+01
 0.3196815627474E+01
 0.3360258484218E+01
 0.3514678040934E+01
 0.3662615284362E+01
 0.3806096698436E+01
 0.3946510766055E+01
 0.4084442586149E+01
 0.4219453707722E+01
 0.4349776645618E+01
 0.4471900810995E+01
 0.4580039142181E+01
 0.6055097938217E+00
 0.1071865849897E+01
 0.1472145152336E+01
 0.1817059555469E+01
 0.2117021849602E+01
 0.2380477232770E+01
 0.2614229639019E+01
 0.2823848848267E+01
 0.3013991208555E+01
 0.3188632917160E+01
 0.3351222989149E+01
 0.3504758025297E+01
 0.3651790140680E+01
 0.3794365040405E+01
 0.3933893927505E+01
 0.4070988924695E+01
 0.4205248025233E+01
 0.4334955125095E+01
 0.4456667969600E+01
 0.4564678784686E+01
 0.6107608773122E+00
 0.1072585135483E+01
 0.1469564231655E+01
 0.1812048176790E+01
 0.2110114295306E+01
 0.2371972467320E+01
 0.2604268328205E+01
 0.2812465987897E+01
 0.3001150927937E+01
 0.3174252642752E+01
 0.3335191824066E+01
 0.3486951388961E+01
 0.3632084434265E+01
 0.3772649553811E+01
 0.3910077075588E+01
 0.4045007526603E+01
 0.4177086779180E+01
 0.4304677997406E+01
 0.4424457183560E+01
 0.4530869174507E+01
 0.6176635222090E+00
 0.1073336072120E+01
 0.1465807192499E+01
 0.1804940555557E+01
 0.2100365663597E+01
 0.2359976038112E+01
 0.2590202038716E+01
 0.2796361433280E+01
 0.2982938698535E+01
 0.3153793508455E+01
 0.3312300126861E+01
 0.3461413315294E+01
 0.3603676845413E+01
 0.3741155405907E+01
 0.3875293223719E+01
 0.4006757533993E+01
 0.4135249168417E+01
 0.4259233476764E+01
 0.4375550023491E+01
 0.4478865963866E+01
 0.6261955940136E+00
 0.1074149980432E+01
 0.1460942550954E+01
 0.1795828256215E+01
 0.2087882036410E+01
 0.2344604345943E+01
 0.2572156633586E+01
 0.2775672198510E+01
 0.2959506215307E+01
 0.3127426664399E+01
 0.3282743988219E+01
 0.3428370422495E+01
 0.3566830129129E+01
 0.3700186791563E+01
 0.3829891400501E+01
 0.3956632192035E+01
 0.4080165941195E+01
 0.4199075681642E+01
 0.4310402645276E+01
 0.4409101322651E+01
 0.6363296284646E+00
 0.1075066785440E+01
 0.1455057002916E+01
 0.1784827292908E+01
 0.2072798175404E+01
 0.2326005696302E+01
 0.2550292959815E+01
 0.2750573911507E+01
 0.2931048498251E+01
 0.3095372772711E+01
 0.3246776961513E+01
 0.3388116652291E+01
 0.3521886418495E+01
 0.3650141925169E+01
 0.3774331893642E+01
 0.3895155210349E+01
 0.4012417946398E+01
 0.4124826452764E+01
 0.4229651985406E+01
 0.4322197075078E+01
 0.6480330120470E+00
 0.1076134766345E+01
 0.1448254719383E+01
 0.1772077120829E+01
 0.2055276218350E+01
 0.2304358642500E+01
 0.2524804768131E+01
 0.2721278246288E+01
 0.2897800769323E+01
 0.3057898245443E+01
 0.3204705560828E+01
 0.3341007893332E+01
 0.3469260937329E+01
 0.3591506097826E+01
 0.3709179285077E+01
 0.3822974866134E+01
 0.3932732821417E+01
 0.4037276316116E+01
 0.4134122474715E+01
 0.4218979975527E+01
 0.6612682501859E+00
 0.1077410252858E+01
 0.1440656524492E+01
 0.1757739467996E+01
 0.2035504157309E+01
 0.2279870026930E+01
 0.2495916230110E+01
 0.2688029845472E+01
 0.2860034708968E+01
 0.3015310740054E+01
 0.3156883860419E+01
 0.3287455456970E+01
 0.3409434192448E+01
 0.3524842760298E+01
 0.3635093052398E+01
 0.3740855332041E+01
 0.3841978943390E+01
 0.3937383503553E+01
 0.4024832366204E+01
 0.4100498049643E+01
 0.6759933529279E+00
 0.1078957280089E+01
 0.1432398998248E+01
 0.1741997066383E+01
 0.2013694159253E+01
 0.2252772773640E+01
 0.2463879100227E+01
 0.2651102783265E+01
 0.2818054157333E+01
 0.2967954009243E+01
 0.3103707341306E+01
 0.3227918583162E+01
 0.3342942790667E+01
 0.3450782654263E+01
 0.3552815561789E+01
 0.3649664739153E+01
 0.3741155535060E+01
 0.3826269198927E+01
 0.3902997586724E+01
 0.3968035207404E+01
 0.6921623207925E+00
 0.1080847196559E+01
 0.1423633550070E+01
 0.1725052359535E+01
 0.1990080804382E+01
 0.2223323491633E+01
 0.2428969571322E+01
 0.2610796617172E+01
 0.2772190317123E+01
 0.2916202191321E+01
 0.3045606139020E+01
 0.3162896208179E+01
 0.3270369113837E+01
 0.3370011083650E+01
 0.3463157273845E+01
 0.3550359561194E+01
 0.3631377971105E+01
 0.3705206255042E+01
 0.3770028301502E+01
 0.3823116253235E+01
 0.7097256897606E+00
 0.1083158210733E+01
 0.1414525528818E+01
 0.1707126287331E+01
 0.1964919320163E+01
 0.2191799926745E+01
 0.2391484844158E+01
 0.2567432049617E+01
 0.2722796478568E+01
 0.2860453568871E+01
 0.2983037797906E+01
 0.3092918248037E+01
 0.3192330222861E+01
 0.3283253564292E+01
 0.3366978985977E+01
 0.3443964742940E+01
 0.3513858015247E+01
 0.3575599789705E+01
 0.3627509388104E+01
 0.3667487195931E+01
 0.7286310223197E+00
 0.1085974832737E+01
 0.1405253494605E+01
 0.1688457342813E+01
 0.1938483943525E+01
 0.2158498333557E+01
 0.2351739482815E+01
 0.2521346314947E+01
 0.2670242398168E+01
 0.2801123912793E+01
 0.2916479704947E+01
 0.3018536842229E+01
 0.3109466809249E+01
 0.3191260811541E+01
 0.3265171404966E+01
 0.3331548984679E+01
 0.3389878545811E+01
 0.3438963240933E+01
 0.3477163514585E+01
 0.3503050322823E+01
 0.7488231221911E+00
 0.1089387113794E+01
 0.1396008940828E+01
 0.1669301224396E+01
 0.1911066551593E+01
 0.2123730723737E+01
 0.2310061545740E+01
 0.2472888354012E+01
 0.2614908394425E+01
 0.2738639362917E+01
 0.2846421030567E+01
 0.2940317514928E+01
 0.3022432967357E+01
 0.3094794440614E+01
 0.3158632926346E+01
 0.3214193365164E+01
 0.3260759879858E+01
 0.3296891498308E+01
 0.3320828338972E+01
 0.3331828444829E+01
 0.7702433323521E+00
 0.1093489562100E+01
 0.1386997013809E+01
 0.1649931783813E+01
 0.1882975557162E+01
 0.2087821800998E+01
 0.2266788424789E+01
 0.2422414017184E+01
 0.2557179411369E+01
 0.2673428947459E+01
 0.2773354098193E+01
 0.2858829896589E+01
 0.2931887156234E+01
 0.2994616941727E+01
 0.3048248926046E+01
 0.3092953470252E+01
 0.3127810279606E+01
 0.3151026604503E+01
 0.3160456416844E+01
 0.3155995929663E+01
 0.7928266828444E+00
 0.1098379004775E+01
 0.1378440589483E+01
 0.1630644224594E+01
 0.1854535042401E+01
 0.2051104628811E+01
 0.2222262415642E+01
 0.2370281629134E+01
 0.2497439397060E+01
 0.2605916700826E+01
 0.2697764812541E+01
 0.2774637308214E+01
 0.2838482102469E+01
 0.2891487029562E+01
 0.2934886082584E+01
 0.2968814855840E+01
 0.2992251022574E+01
 0.3002990809926E+01
 0.2998114986330E+01
 0.2977882142737E+01
 0.8164912617343E+00
 0.1104154872484E+01
 0.1370590657611E+01
 0.1611765317437E+01
 0.1826080497709E+01
 0.2013913902480E+01
 0.2176826134765E+01
 0.2316849009540E+01
 0.2436066382200E+01
 0.2536513821795E+01
 0.2620121921725E+01
 0.2688284598748E+01
 0.2742853091831E+01
 0.2786150818106E+01
 0.2819411215531E+01
 0.2842703689640E+01
 0.2855059587724E+01
 0.2854254804809E+01
 0.2835967750167E+01
 0.2800073701571E+01
 0.8411121345409E+00
 0.1110902365131E+01
 0.1363787793057E+01
 0.1593658256359E+01
 0.1797944423503E+01
 0.1976578736898E+01
 0.2130817904523E+01
 0.2262471097803E+01
 0.2373433914477E+01
 0.2465607865130E+01
 0.2540865090432E+01
 0.2600286413179E+01
 0.2645601129210E+01
 0.2679330732642E+01
 0.2702682452307E+01
 0.2715615915021E+01
 0.2717016892596E+01
 0.2705399971144E+01
 0.2676352922553E+01
 0.2625915121153E+01
 0.8662783175212E+00
 0.1118986302288E+01
 0.1358553669435E+01
 0.1576682953839E+01
 0.1770435215261E+01
 0.1939416539732E+01
 0.2084572358814E+01
 0.2207490570474E+01
 0.2309913854115E+01
 0.2393584519807E+01
 0.2460346396934E+01
 0.2511122187344E+01
 0.2547313927509E+01
 0.2571653126714E+01
 0.2585548834252E+01
 0.2588589582961E+01
 0.2579366515736E+01
 0.2556139141396E+01
 0.2518073960201E+01
 0.2464304258861E+01
 0.2293937210966E+01
 0.8747132299798E+00
 0.1742201314662E+00
 0.1368612314002E-01
 0.1234380087111E+00
 0.1972272760639E+00
 0.2521964540648E+00
 0.2934410524979E+00
 0.3217431113377E+00
 0.3366584664432E+00
 0.3359414819942E+00
 0.3158558611417E+00
 0.2735801053105E+00
 0.2142540844757E+00
 0.1432191569713E+00
 0.6622892233339E-01
 0.1700690107991E-01
 0.8690784146785E-01
 0.1616360312606E+00
 0.2548412819049E+00
 0.2371285208428E+01
 0.1674483541251E+01
 0.6575219053723E+00
 0.2501036363133E+00
 0.6098301458192E-01
 0.5471867829572E-01
 0.1324339560414E+00
 0.1883963703673E+00
 0.2284070639365E+00
 0.2540074166232E+00
 0.2646604873822E+00
 0.2616495838908E+00
 0.2404569724281E+00
 0.1984145806709E+00
 0.1402260391267E+00
 0.7305031839741E-01
 0.1029098422775E-01
 0.6474278529471E-01
 0.1328911571971E+00
 0.2023995631689E+00
 0.2192729224252E+01
 0.1913355110997E+01
 0.1121895452887E+01
 0.5714497757559E+00
 0.2842861990206E+00
 0.1173274705240E+00
 0.8925355634084E-02
 0.6738439698645E-01
 0.1222022364379E+00
 0.1609549961740E+00
 0.1854170408938E+00
 0.1979244010348E+00
 0.1938508124052E+00
 0.1675889130124E+00
 0.1231201895338E+00
 0.6763723405632E-01
 0.1069045780979E-01
 0.5032747838950E-01
 0.1060000002087E+00
 0.1545178791467E+00
 0.2012743467224E+01
 0.1952341757301E+01
 0.1402588275224E+01
 0.8820474987392E+00
 0.5307967188627E+00
 0.3121007806948E+00
 0.1689162478233E+00
 0.6949704916845E-01
 0.2836027993592E-02
 0.5659264254758E-01
 0.9554265465170E-01
 0.1229864652337E+00
 0.1346356984038E+00
 0.1234095628263E+00
 0.9276029242034E-01
 0.4998999128873E-01
 0.3986864428442E-02
 0.4405203236045E-01
 0.8595792209408E-01
 0.1168330918087E+00
 0.1854240773063E+01
 0.1911172415927E+01
 0.1554394392797E+01
 0.1120961836656E+01
 0.7673504473135E+00
 0.5164813618540E+00
 0.3429746425966E+00
 0.2199274266479E+00
 0.1290607459266E+00
 0.5952730104727E-01
 0.6450139117023E-02
 0.3620449111766E-01
 0.6278519716659E-01
 0.6624810419952E-01
 0.4947152462650E-01
 0.1997784239763E-01
 0.1454647895089E-01
 0.4837538342400E-01
 0.7658483671382E-01
 0.9272666120370E-01
 0.1720037382389E+01
 0.1837860379659E+01
 0.1624560915397E+01
 0.1289097419096E+01
 0.9690418909203E+00
 0.7133691531463E+00
 0.5216778888150E+00
 0.3794108908025E+00
 0.2714126834631E+00
 0.1865980928845E+00
 0.1187766437286E+00
 0.6310926675924E-01
 0.2250113775178E-01
 0.6178332729217E-02
 0.8330567215945E-02
 0.2350206247041E-01
 0.4478924434760E-01
 0.6563784215730E-01
 0.8093242048093E-01
 0.8497636405793E-01
 0.1607254822583E+01
 0.1754246709833E+01
 0.1644813357994E+01
 0.1400262035475E+01
 0.1130275941789E+01
 0.8904602493153E+00
 0.6954308640465E+00
 0.5420093413694E+00
 0.4209044366970E+00
 0.3229734160459E+00
 0.2423145774218E+00
 0.1738950815983E+00
 0.1196779412431E+00
 0.8810628513352E-01
 0.7765531476997E-01
 0.8051650984033E-01
 0.8924116892480E-01
 0.9774370419730E-01
 0.1013389844454E+00
 0.9560240863023E-01
 0.1512192359291E+01
 0.1670704121424E+01
 0.1635517993827E+01
 0.1469206820720E+01
 0.1254125902675E+01
 0.1042914639295E+01
 0.8572313284777E+00
 0.7019368227038E+00
 0.5735922702268E+00
 0.4661981773193E+00
 0.3751344715226E+00
 0.2958052450148E+00
 0.2296507796052E+00
 0.1852630095563E+00
 0.1621000158104E+00
 0.1525087926038E+00
 0.1492728066162E+00
 0.1463306426906E+00
 0.1394925030378E+00
 0.1257479171784E+00
 0.1431400269527E+01
 0.1592110321172E+01
 0.1609687213078E+01
 0.1508308792152E+01
 0.1346814715602E+01
 0.1170713395800E+01
 0.1003548278065E+01
 0.8548400961151E+00
 0.7257506523512E+00
 0.6135363659149E+00
 0.5153897412541E+00
 0.4276609773271E+00
 0.3515786026122E+00
 0.2958918018831E+00
 0.2611834392521E+00
 0.2401735910637E+00
 0.2259874281483E+00
 0.2126680223594E+00
 0.1965323263977E+00
 0.1758955555649E+00
 0.1361952158488E+01
 0.1520547543749E+01
 0.1575628540750E+01
 0.1527166088328E+01
 0.1415047283456E+01
 0.1276363745582E+01
 0.1133549427624E+01
 0.9981779735707E+00
 0.8744671439664E+00
 0.7624139816714E+00
 0.6610799358303E+00
 0.5680407759360E+00
 0.4845763897401E+00
 0.4196090539903E+00
 0.3749601283204E+00
 0.3439237144409E+00
 0.3200410514955E+00
 0.2974836532508E+00
 0.2729819235866E+00
 0.2459184959080E+00
 0.1301450262368E+01
 0.1456631919891E+01
 0.1538611767712E+01
 0.1532951859695E+01
 0.1464928029568E+01
 0.1363389465382E+01
 0.1248115732756E+01
 0.1130963477414E+01
 0.1017834306251E+01
 0.9107148271790E+00
 0.8102808570299E+00
 0.7153800310375E+00
 0.6275023497527E+00
 0.5557128111101E+00
 0.5031037575231E+00
 0.4637051144320E+00
 0.4315295748084E+00
 0.4008696567159E+00
 0.3686949804543E+00
 0.3350613370616E+00
 0.1247960590522E+01
 0.1400205382229E+01
 0.1501915693772E+01
 0.1530903838065E+01
 0.1501601199147E+01
 0.1435482035415E+01
 0.1349035528101E+01
 0.1253314747357E+01
 0.1154853748817E+01
 0.1056882642038E+01
 0.9612932696066E+00
 0.8680832363202E+00
 0.7789996719720E+00
 0.7031505536992E+00
 0.6448273796535E+00
 0.5989062707798E+00
 0.5599148111227E+00
 0.5222491999228E+00
 0.4828862019035E+00
 0.4420349574649E+00
 0.1199936098162E+01
 0.1350711101876E+01
 0.1467494789716E+01
 0.1524763773335E+01
 0.1529206375914E+01
 0.1496065776933E+01
 0.1438451031772E+01
 0.1366022182021E+01
 0.1285217451260E+01
 0.1199881039510E+01
 0.1112697489753E+01
 0.1024599722320E+01
 0.9375498454516E+00
 0.8605319040973E+00
 0.7988589671138E+00
 0.7483134983502E+00
 0.7039855785233E+00
 0.6603764368979E+00
 0.6142068225445E+00
 0.5651723466681E+00
 0.1156146353510E+01
 0.1307403175694E+01
 0.1436412208959E+01
 0.1517129752367E+01
 0.1550957778143E+01
 0.1548101440961E+01
 0.1518511809572E+01
 0.1470206217521E+01
 0.1409069645231E+01
 0.1339081702808E+01
 0.1263338170076E+01
 0.1183459937360E+01
 0.1101523748180E+01
 0.1026170283874E+01
 0.9634639093045E+00
 0.9101132065082E+00
 0.8618495237801E+00
 0.8133452436130E+00
 0.7608206245947E+00
 0.7025917921795E+00
 0.1115617948352E+01
 0.1269465697577E+01
 0.1409127111024E+01
 0.1509727660111E+01
 0.1569262661774E+01
 0.1594019021381E+01
 0.1591173762598E+01
 0.1567073069914E+01
 0.1526798650828E+01
 0.1474132235377E+01
 0.1412270775346E+01
 0.1343282457989E+01
 0.1269229716021E+01
 0.1198154836943E+01
 0.1136523971803E+01
 0.1081955159133E+01
 0.1030957945777E+01
 0.9785833079171E+00
 0.9204344348114E+00
 0.8523404370896E+00
 0.1077585239910E+01
 0.1236080149774E+01
 0.1385689422499E+01
 0.1503618680434E+01
 0.1585844140431E+01
 0.1635718131212E+01
 0.1658093288144E+01
 0.1657752654245E+01
 0.1638874472222E+01
 0.1604832769752E+01
 0.1558693919554E+01
 0.1502762083879E+01
 0.1438955712568E+01
 0.1374451411286E+01
 0.1315690878170E+01
 0.1261113190571E+01
 0.1208198684264E+01
 0.1152819075467E+01
 0.1090227201543E+01
 0.1012484916233E+01
 0.1041449286466E+01
 0.1206461838161E+01
 0.1365874040686E+01
 0.1499359088530E+01
 0.1601856349048E+01
 0.1674603090604E+01
 0.1720581674035E+01
 0.1743198590742E+01
 0.1745731869928E+01
 0.1731034939936E+01
 0.1701883453811E+01
 0.1660644624703E+01
 0.1608993349410E+01
 0.1553001122859E+01
 0.1498612792348E+01
 0.1444820008339E+01
 0.1390156144916E+01
 0.1332083900373E+01
 0.1266582923585E+01
 0.1181093613438E+01
 0.1006743176710E+01
 0.1179876273634E+01
 0.1349274275764E+01
 0.1497125539194E+01
 0.1617990669613E+01
 0.1711636954438E+01
 0.1779597347431E+01
 0.1824131175089E+01
 0.1847691809640E+01
 0.1852567379680E+01
 0.1841139991184E+01
 0.1815695901331E+01
 0.1777623190751E+01
 0.1731752708970E+01
 0.1683088628543E+01
 0.1630790252105E+01
 0.1573887772209E+01
 0.1511921651358E+01
 0.1444618723942E+01
 0.1355861717207E+01
 0.9731016265166E+00
 0.1155644275863E+01
 0.1335361276715E+01
 0.1496817866436E+01
 0.1634580003538E+01
 0.1747408093444E+01
 0.1835762188056E+01
 0.1901008498983E+01
 0.1944904970491E+01
 0.1969189609605E+01
 0.1975763307227E+01
 0.1966685882449E+01
 0.1943077205225E+01
 0.1908561024675E+01
 0.1866953141626E+01
 0.1817240410064E+01
 0.1758328700567E+01
 0.1689570142764E+01
 0.1617022052326E+01
 0.1533038612943E+01
 0.9402682480535E+00
 0.1133093439275E+01
 0.1323499939602E+01
 0.1498171698327E+01
 0.1651717926694E+01
 0.1782202630841E+01
 0.1889388065899E+01
 0.1974021373188E+01
 0.2037304862200E+01
 0.2080521884694E+01
 0.2105098742980E+01
 0.2112454731734E+01
 0.2103516047980E+01
 0.2081090824061E+01
 0.2047649989148E+01
 0.2002069236524E+01
 0.1942816668013E+01
 0.1868380253674E+01
 0.1781372120289E+01
 0.1699972342133E+01
 0.8951793246944E+00
 0.1134666070512E+01
 0.1361863982011E+01
 0.1567108588294E+01
 0.1747661645007E+01
 0.1903296713324E+01
 0.2034955982140E+01
 0.2144272777365E+01
 0.2233126123422E+01
 0.2303300508871E+01
 0.2356620349286E+01
 0.2394821150206E+01
 0.2418937744765E+01
 0.2432117026209E+01
 0.2437156687771E+01
 0.2432940660543E+01
 0.2417890594675E+01
 0.2390386779768E+01
 0.2352913631160E+01
 0.2324862047170E+01
 0.9274666536036E+00
 0.1155938467100E+01
 0.1371656791914E+01
 0.1563183590006E+01
 0.1727819277280E+01
 0.1865998338971E+01
 0.1979245850374E+01
 0.2069691373760E+01
 0.2139654665961E+01
 0.2191256647418E+01
 0.2226691120507E+01
 0.2248246968950E+01
 0.2257002945834E+01
 0.2257029680471E+01
 0.2252677425911E+01
 0.2242941307882E+01
 0.2226738869412E+01
 0.2203549320524E+01
 0.2179695355447E+01
 0.2148384620007E+01
 0.9604261482710E+00
 0.1178308382462E+01
 0.1382508877060E+01
 0.1559566783072E+01
 0.1706868683784E+01
 0.1825774642302E+01
 0.1918741110148E+01
 0.1988642084754E+01
 0.2038351126293E+01
 0.2070407321476E+01
 0.2087374412446E+01
 0.2091676278845E+01
 0.2084596422655E+01
 0.2071589452274E+01
 0.2058445118087E+01
 0.2044397301817E+01
 0.2028602204819E+01
 0.2010864445014E+01
 0.1991421178827E+01
 0.1955053111660E+01
 0.9943398414012E+00
 0.1202374561129E+01
 0.1394983851978E+01
 0.1556504309943E+01
 0.1684759465468E+01
 0.1782452014742E+01
 0.1853303455756E+01
 0.1901157199850E+01
 0.1929549233466E+01
 0.1941440774194E+01
 0.1939680135874E+01
 0.1926690413616E+01
 0.1904012250768E+01
 0.1878573690048E+01
 0.1857414585394E+01
 0.1839711678184E+01
 0.1824238363579E+01
 0.1808824233294E+01
 0.1790128166546E+01
 0.1756508053897E+01
 0.1029532694911E+01
 0.1228773628968E+01
 0.1409575632003E+01
 0.1554120034089E+01
 0.1661259356773E+01
 0.1735617610081E+01
 0.1782553553568E+01
 0.1807079032343E+01
 0.1813451214562E+01
 0.1805004537118E+01
 0.1784776816353E+01
 0.1755048109784E+01
 0.1717604659452E+01
 0.1680747085977E+01
 0.1652346085607E+01
 0.1631164551683E+01
 0.1615041613188E+01
 0.1600293823907E+01
 0.1583007311793E+01
 0.1556407557603E+01
 0.1066413288847E+01
 0.1258179956127E+01
 0.1426678882995E+01
 0.1552304097218E+01
 0.1635833040427E+01
 0.1684546363840E+01
 0.1705840378114E+01
 0.1706053934988E+01
 0.1690158249214E+01
 0.1661751745340E+01
 0.1623912863309E+01
 0.1578610023198E+01
 0.1527805732135E+01
 0.1480944996702E+01
 0.1446244486164E+01
 0.1421798472179E+01
 0.1404597167442E+01
 0.1390212651591E+01
 0.1375286863821E+01
 0.1357270071021E+01
 0.1105506184320E+01
 0.1291309182286E+01
 0.1446523652620E+01
 0.1550610471854E+01
 0.1607539357536E+01
 0.1628132320159E+01
 0.1622217905233E+01
 0.1597548119782E+01
 0.1559707576247E+01
 0.1512362500169E+01
 0.1458418497223E+01
 0.1399331543002E+01
 0.1337140806987E+01
 0.1282157836635E+01
 0.1242472160432E+01
 0.1215414864617E+01
 0.1197316425740E+01
 0.1183457147450E+01
 0.1171353219607E+01
 0.1161553707028E+01
 0.1147486898892E+01
 0.1328904458265E+01
 0.1469088072233E+01
 0.1548136728256E+01
 0.1574928212437E+01
 0.1564832605845E+01
 0.1530444077908E+01
 0.1480889055990E+01
 0.1422129435780E+01
 0.1357592975446E+01
 0.1289730246794E+01
 0.1219263457577E+01
 0.1148209542004E+01
 0.1087463234312E+01
 0.1044560761662E+01
 0.1016023618748E+01
 0.9976390613735E+00
 0.9846024886330E+00
 0.9752087080415E+00
 0.9720720034738E+00
 0.1193220571672E+01
 0.1371703793474E+01
 0.1493974080376E+01
 0.1543374806073E+01
 0.1535930923418E+01
 0.1492630020917E+01
 0.1429015428481E+01
 0.1355346865727E+01
 0.1277539859295E+01
 0.1198348435755E+01
 0.1119425429898E+01
 0.1040540640872E+01
 0.9636176144122E+00
 0.8998732476677E+00
 0.8559214296922E+00
 0.8274397097633E+00
 0.8097048064336E+00
 0.7978659984377E+00
 0.7907211899324E+00
 0.7920629507523E+00
 0.1243807427523E+01
 0.1420377949350E+01
 0.1520227793615E+01
 0.1534018974000E+01
 0.1487745064180E+01
 0.1409028931077E+01
 0.1316258275455E+01
 0.1220273798210E+01
 0.1126275857638E+01
 0.1035776697639E+01
 0.9492565829102E+00
 0.8653541540793E+00
 0.7858834847566E+00
 0.7221663577605E+00
 0.6796063489137E+00
 0.6530236941660E+00
 0.6371597501341E+00
 0.6270573664526E+00
 0.6216594474225E+00
 0.6251376418156E+00
 0.1300637213461E+01
 0.1475420162766E+01
 0.1546074650039E+01
 0.1516715710704E+01
 0.1426724667973E+01
 0.1311114813899E+01
 0.1190508828318E+01
 0.1075320359207E+01
 0.9690734807435E+00
 0.8713701466385E+00
 0.7811730326299E+00
 0.6959054981998E+00
 0.6173386304695E+00
 0.5567442923041E+00
 0.5181344026904E+00
 0.4955009141595E+00
 0.4830033934499E+00
 0.4754683021258E+00
 0.4715911864285E+00
 0.4751461625312E+00
 0.1365453066531E+01
 0.1536951819166E+01
 0.1568520311365E+01
 0.1486739914026E+01
 0.1348307942365E+01
 0.1195734477836E+01
 0.1050428671258E+01
 0.9207426171643E+00
 0.8072743508688E+00
 0.7070503775633E+00
 0.6173095752529E+00
 0.5343378350206E+00
 0.4600310540079E+00
 0.4055245300498E+00
 0.3733751021475E+00
 0.3568352188269E+00
 0.3494485326008E+00
 0.3457102842828E+00
 0.3436834521059E+00
 0.3459721602516E+00
 0.1440420820467E+01
 0.1604374661031E+01
 0.1582736178359E+01
 0.1437591996137E+01
 0.1247061082486E+01
 0.1059897953073E+01
 0.8955120853402E+00
 0.7577935070692E+00
 0.6430149823358E+00
 0.5451887528620E+00
 0.4599151947073E+00
 0.3826385211238E+00
 0.3156386266408E+00
 0.2698756290806E+00
 0.2464937483597E+00
 0.2381587288988E+00
 0.2378051737412E+00
 0.2395271207930E+00
 0.2404371197113E+00
 0.2412495237597E+00
 0.1528186427310E+01
 0.1675729958902E+01
 0.1581094285007E+01
 0.1360550711045E+01
 0.1117015772118E+01
 0.9015641761893E+00
 0.7268263190994E+00
 0.5891283933762E+00
 0.4793030829473E+00
 0.3884982750312E+00
 0.3112006314554E+00
 0.2425173348999E+00
 0.1854052685613E+00
 0.1506083367874E+00
 0.1379698547629E+00
 0.1397737935270E+00
 0.1484155046819E+00
 0.1576207616558E+00
 0.1633887484605E+00
 0.1639970409122E+00
 0.1631867156326E+01
 0.1746467169635E+01
 0.1551629628778E+01
 0.1244355150177E+01
 0.9526783705550E+00
 0.7210380748530E+00
 0.5479155508445E+00
 0.4190316141012E+00
 0.3198279031360E+00
 0.2397496687459E+00
 0.1731152559473E+00
 0.1152880768426E+00
 0.7014280516404E-01
 0.4808818438564E-01
 0.4773800845794E-01
 0.6125166886533E-01
 0.8067392649999E-01
 0.9954504842642E-01
 0.1128423679887E+00
 0.1162128255697E+00
 0.1754793052981E+01
 0.1806942331520E+01
 0.1475596131498E+01
 0.1075595830622E+01
 0.7515107698933E+00
 0.5230910259162E+00
 0.3655015914572E+00
 0.2530496380684E+00
 0.1683992263854E+00
 0.1013514560482E+00
 0.4712894528612E-01
 0.3671522547914E-02
 0.3031158438333E-01
 0.3842667160884E-01
 0.2534171355217E-01
 0.2701907208813E-02
 0.3317020204791E-01
 0.6375279413502E-01
 0.8773476039951E-01
 0.9855616189856E-01
 0.1899501696841E+01
 0.1836877815613E+01
 0.1323771979834E+01
 0.8418201294963E+00
 0.5190534539955E+00
 0.3193921154645E+00
 0.1886407289229E+00
 0.9678881202768E-01
 0.2816928512454E-01
 0.2511508346767E-01
 0.6618673435576E-01
 0.9803791006468E-01
 0.1150139114181E+00
 0.1082239996668E+00
 0.8084935993134E-01
 0.4059039692136E-01
 0.4480442696999E-02
 0.4785442762008E-01
 0.8556472548252E-01
 0.1099454184069E+00
 0.2063190163825E+01
 0.1791708238513E+01
 0.1052641375775E+01
 0.5426802839271E+00
 0.2787959984151E+00
 0.1259581849493E+00
 0.2589296218116E-01
 0.4556138796392E-01
 0.9898063985415E-01
 0.1389426669954E+00
 0.1666406211016E+00
 0.1840180678406E+00
 0.1849774297882E+00
 0.1623437721257E+00
 0.1201615129373E+00
 0.6608323028700E-01
 0.1028198567368E-01
 0.4871855178124E-01
 0.1021450826415E+00
 0.1468855134075E+00
 0.2224301063649E+01
 0.1560208942631E+01
 0.6119333875722E+00
 0.2355483986888E+00
 0.6166720454801E-01
 0.4502807570492E-01
 0.1177995638308E+00
 0.1718850605958E+00
 0.2125144759950E+00
 0.2407107437017E+00
 0.2553559139143E+00
 0.2572875491539E+00
 0.2403831533697E+00
 0.2007071303811E+00
 0.1433251111447E+00
 0.7583556742424E-01
 0.1147313453150E-01
 0.6262873826412E-01
 0.1315673703606E+00
 0.2036057904553E+00
 0.2144912431289E+01
 0.8065190452818E+00
 0.1569604030600E+00
 0.1562643908973E-01
 0.1178874596139E+00
 0.1873061037835E+00
 0.2405094809211E+00
 0.2822119886307E+00
 0.3128218060643E+00
 0.3314395974092E+00
 0.3351788000258E+00
 0.3197388860929E+00
 0.2806787725341E+00
 0.2221195220709E+00
 0.1500033265226E+00
 0.7048454417761E-01
 0.1667894018587E-01
 0.8852966374680E-01
 0.1663450648988E+00
 0.2705787917958E+00
 0.1687325816976E+01
 0.1516088164810E+01
 0.1352063400600E+01
 0.1192341896524E+01
 0.1035931208947E+01
 0.8843092232165E+00
 0.7396129642718E+00
 0.6042384556182E+00
 0.4806297860949E+00
 0.3711635081489E+00
 0.2780372837030E+00
 0.2031389466844E+00
 0.1478933050907E+00
 0.1131216040225E+00
 0.9897522994729E-01
 0.1048376105396E+00
 0.1290693034130E+00
 0.1691692677822E+00
 0.2223810224097E+00
 0.2888947465223E+00
 0.1831130201814E+01
 0.1674810325407E+01
 0.1505625712793E+01
 0.1335096953513E+01
 0.1166871383945E+01
 0.1002776284047E+01
 0.8447070452411E+00
 0.6948489327897E+00
 0.5556828902640E+00
 0.4298976209548E+00
 0.3202672831142E+00
 0.2294908624452E+00
 0.1599840969259E+00
 0.1136370812688E+00
 0.9164943557807E-01
 0.9447954216682E-01
 0.1213830215507E+00
 0.1701645204268E+00
 0.2382234813687E+00
 0.3234522608411E+00
 0.1980574533514E+01
 0.1829579884574E+01
 0.1665275186979E+01
 0.1493105653818E+01
 0.1318612087666E+01
 0.1145128179649E+01
 0.9752002137994E+00
 0.8113070762520E+00
 0.6561406557323E+00
 0.5126943033771E+00
 0.3842415392915E+00
 0.2742379437056E+00
 0.1861415895372E+00
 0.1231308890203E+00
 0.8777097456634E-01
 0.8195211466741E-01
 0.1065319987500E+00
 0.1600439509757E+00
 0.2390345929418E+00
 0.3386809787253E+00
 0.2140788309032E+01
 0.1992809838137E+01
 0.1832993958433E+01
 0.1663270560269E+01
 0.1487296822803E+01
 0.1308538255369E+01
 0.1129897173082E+01
 0.9541110980105E+00
 0.7840647505419E+00
 0.6229761790831E+00
 0.4744856306234E+00
 0.3426642727977E+00
 0.2319373693965E+00
 0.1468801482853E+00
 0.9180635912316E-01
 0.7036583266853E-01
 0.8579634859220E-01
 0.1388297502018E+00
 0.2260236677553E+00
 0.3410918187014E+00
 0.2310714421556E+01
 0.2166754814248E+01
 0.2011931666510E+01
 0.1846430209357E+01
 0.1672277465750E+01
 0.1492070090441E+01
 0.1308442650881E+01
 0.1124033713807E+01
 0.9416686183072E+00
 0.7645484862883E+00
 0.5964054076210E+00
 0.4416163589574E+00
 0.3052663046025E+00
 0.1931251006893E+00
 0.1114242584301E+00
 0.6618353962979E-01
 0.6311830174944E-01
 0.1078127331480E+00
 0.1995563364492E+00
 0.3316235343621E+00
 0.2488635822493E+01
 0.2350885456041E+01
 0.2202549947641E+01
 0.2043143873748E+01
 0.1873558430732E+01
 0.1695454698852E+01
 0.1510828326467E+01
 0.1321877539150E+01
 0.1131060821425E+01
 0.9412448529012E+00
 0.7558814751376E+00
 0.5791964114269E+00
 0.4163845368237E+00
 0.2737999834854E+00
 0.1590894715097E+00
 0.8101729925517E-01
 0.4827077592811E-01
 0.7156814717857E-01
 0.1596455949925E+00
 0.3088157502526E+00
 0.2672538277932E+01
 0.2543454178483E+01
 0.2403689268328E+01
 0.2252572113646E+01
 0.2090323971248E+01
 0.1917835421934E+01
 0.1736412039084E+01
 0.1547645601956E+01
 0.1353420275720E+01
 0.1156012153830E+01
 0.9582517994730E+00
 0.7637384549323E+00
 0.5771127921740E+00
 0.4044056906449E+00
 0.2534824740769E+00
 0.1345615750337E+00
 0.6031626615071E-01
 0.4455631107006E-01
 0.1101687269768E+00
 0.2696369427380E+00
 0.2860291676637E+01
 0.2742206278481E+01
 0.2613271201338E+01
 0.2472835339853E+01
 0.2320765177878E+01
 0.2157417816558E+01
 0.1983519911899E+01
 0.1800079858554E+01
 0.1608373430346E+01
 0.1410001913991E+01
 0.1207013531979E+01
 0.1002089046774E+01
 0.7988082972934E+00
 0.6020352533351E+00
 0.4184881713377E+00
 0.2576020089640E+00
 0.1327918378109E+00
 0.6258915962569E-01
 0.7547111073411E-01
 0.2181921170786E+00
 0.3049633709999E+01
 0.2944545966574E+01
 0.2828582090733E+01
 0.2701179747387E+01
 0.2562051939813E+01
 0.2411243184206E+01
 0.2249090396322E+01
 0.2076174712493E+01
 0.1893305399182E+01
 0.1701548520348E+01
 0.1502303336817E+01
 0.1297432469293E+01
 0.1089463834878E+01
 0.8819030896966E+00
 0.6797314325810E+00
 0.4902318446248E+00
 0.3244229335121E+00
 0.1996968738947E+00
 0.1459135024786E+00
 0.2267754239807E+00
 0.3238088348907E+01
 0.3147424270298E+01
 0.3046109970267E+01
 0.2933658101288E+01
 0.2809737519456E+01
 0.2674244399975E+01
 0.2527307497491E+01
 0.2369273467481E+01
 0.2200702778878E+01
 0.2022390894762E+01
 0.1835421436761E+01
 0.1641257867018E+01
 0.1441886290745E+01
 0.1240034694101E+01
 0.1039517228394E+01
 0.8457977427877E+00
 0.6669656488738E+00
 0.5155862568664E+00
 0.4127044496802E+00
 0.4004912504665E+00
 0.3423094761895E+01
 0.3347635463053E+01
 0.3261956045759E+01
 0.3165601776934E+01
 0.3058223025221E+01
 0.2939634821985E+01
 0.2809840023072E+01
 0.2669035231942E+01
 0.2517617803553E+01
 0.2356204917776E+01
 0.2185669995779E+01
 0.2007199060077E+01
 0.1822369223738E+01
 0.1633251827422E+01
 0.1442541545258E+01
 0.1253704359479E+01
 0.1071105671641E+01
 0.8999392206937E+00
 0.7453325519146E+00
 0.6045784427668E+00
 0.3602109819633E+01
 0.3542032734878E+01
 0.3472256747003E+01
 0.3392310437131E+01
 0.3301794250785E+01
 0.3200424152001E+01
 0.3088054803684E+01
 0.2964689056735E+01
 0.2830482193092E+01
 0.2685745922535E+01
 0.2530952408934E+01
 0.2366733698306E+01
 0.2193865707007E+01
 0.2013215298625E+01
 0.1825607225750E+01
 0.1631519054253E+01
 0.1430393410125E+01
 0.1219050523720E+01
 0.9876649290799E+00
 0.7090385033630E+00
 0.3772712622042E+01
 0.3727672642162E+01
 0.3673446856180E+01
 0.3609495865442E+01
 0.3535315961702E+01
 0.3450467444818E+01
 0.3354588870598E+01
 0.3247398571613E+01
 0.3128685708699E+01
 0.2998290640683E+01
 0.2856070109939E+01
 0.2701836864831E+01
 0.2535254718395E+01
 0.2355655810821E+01
 0.2161721307892E+01
 0.1950919249368E+01
 0.1718503454210E+01
 0.1455728871954E+01
 0.1146818803233E+01
 0.7674561401786E+00
 0.3932675930784E+01
 0.3901895379939E+01
 0.3862368451400E+01
 0.3813438611098E+01
 0.3754441438909E+01
 0.3684718861780E+01
 0.3603621240322E+01
 0.3510496438320E+01
 0.3404664824901E+01
 0.3285377020851E+01
 0.3151747567363E+01
 0.3002652601025E+01
 0.2836572503379E+01
 0.2651350301431E+01
 0.2443822463602E+01
 0.2209262010375E+01
 0.1940573451107E+01
 0.1627266327144E+01
 0.1254980882759E+01
 0.8087083638743E+00
 0.4080007282536E+01
 0.4062366543616E+01
 0.4036312713720E+01
 0.4001030696654E+01
 0.3955649125032E+01
 0.3899241939603E+01
 0.3830818747481E+01
 0.3749302296803E+01
 0.3653490826491E+01
 0.3542001398351E+01
 0.3413187859838E+01
 0.3265024042609E+01
 0.3094939482965E+01
 0.2899592333786E+01
 0.2674565284165E+01
 0.2413985680840E+01
 0.2110127656986E+01
 0.1753261218058E+01
 0.1332527767271E+01
 0.8410003251919E+00
 0.4212967447573E+01
 0.4207090502989E+01
 0.4193020659705E+01
 0.4169755858084E+01
 0.4136188881523E+01
 0.4091098314240E+01
 0.4033129667877E+01
 0.3960765090796E+01
 0.3872279615820E+01
 0.3765680992753E+01
 0.3638629093510E+01
 0.3488330154316E+01
 0.3311401634220E+01
 0.3103707123648E+01
 0.2860171944869E+01
 0.2574617943414E+01
 0.2239724311909E+01
 0.1847365565200E+01
 0.1390007013661E+01
 0.8669232997338E+00
 0.4330071346630E+01
 0.4334400266654E+01
 0.4330654163364E+01
 0.4317631621527E+01
 0.4293980779613E+01
 0.4258182095772E+01
 0.4208523520587E+01
 0.4143067088358E+01
 0.4059605852230E+01
 0.3955609940568E+01
 0.3828160656874E+01
 0.3673872547928E+01
 0.3488806193218E+01
 0.3268380888124E+01
 0.3007309439475E+01
 0.2699602896728E+01
 0.2338740773116E+01
 0.1918215056218E+01
 0.1433148119381E+01
 0.8874876845799E+00
 0.4430078436672E+01
 0.4442934170788E+01
 0.4447751649533E+01
 0.4443134486646E+01
 0.4427497284692E+01
 0.4399042570000E+01
 0.4355733036137E+01
 0.4295258948900E+01
 0.4215000836944E+01
 0.4111988038422E+01
 0.3982854569676E+01
 0.3823795560845E+01
 0.3630530864514E+01
 0.3398288422791E+01
 0.3121830226656E+01
 0.2795561042659E+01
 0.2413795475501E+01
 0.1971373767513E+01
 0.1465397195164E+01
 0.9033256635576E+00
 0.4511978020986E+01
 0.4531607086985E+01
 0.4543179064469E+01
 0.4545122890602E+01
 0.4535648687140E+01
 0.4512720616162E+01
 0.4474028343998E+01
 0.4416957655473E+01
 0.4338561349394E+01
 0.4235532413632E+01
 0.4104182659437E+01
 0.3940431757259E+01
 0.3739814308198E+01
 0.3497516692420E+01
 0.3208461849925E+01
 0.2867472088922E+01
 0.2469572536566E+01
 0.2010625428144E+01
 0.1489138218058E+01
 0.9150967835915E+00
 0.4574973302586E+01
 0.4599581222084E+01
 0.4616082375416E+01
 0.4622765776467E+01
 0.4617681257855E+01
 0.4598609345035E+01
 0.4563033140406E+01
 0.4508112781435E+01
 0.4430664302564E+01
 0.4327145840522E+01
 0.4193655280753E+01
 0.4025944796496E+01
 0.3819459392997E+01
 0.3569408788793E+01
 0.3270885779917E+01
 0.2919054037770E+01
 0.2509462310794E+01
 0.2038681283666E+01
 0.1506167397216E+01
 0.9235828036443E+00
 0.4618466727165E+01
 0.4646239012148E+01
 0.4665843827602E+01
 0.4675477695516E+01
 0.4673085814304E+01
 0.4656330628131E+01
 0.4622564513088E+01
 0.4568807154284E+01
 0.4491729920869E+01
 0.4387650687839E+01
 0.4252543588835E+01
 0.4082069132883E+01
 0.3871630989111E+01
 0.3616466787359E+01
 0.3311782857438E+01
 0.2952952234322E+01
 0.2535831333103E+01
 0.2057398669734E+01
 0.1517657324297E+01
 0.9292917789024E+00
 0.4642044308677E+01
 0.4671154445335E+01
 0.4692037925575E+01
 0.4702853487323E+01
 0.4701503753678E+01
 0.4685604584492E+01
 0.4652458237406E+01
 0.4599031717834E+01
 0.4521942846495E+01
 0.4417457682177E+01
 0.4281503895023E+01
 0.4109705493555E+01
 0.3897444940297E+01
 0.3639959418534E+01
 0.3332480312257E+01
 0.2970434394968E+01
 0.2549762150472E+01
 0.2067559444345E+01
 0.1523997681037E+01
 0.9321090373742E+00
 0.4645463840856E+01
 0.4674073209750E+01
 0.4694403668899E+01
 0.4704630568998E+01
 0.4702677384461E+01
 0.4686186252713E+01
 0.4652490956279E+01
 0.4598593930006E+01
 0.4521149801270E+01
 0.4416458974274E+01
 0.4280475783695E+01
 0.4108836749053E+01
 0.3896915479152E+01
 0.3639912051960E+01
 0.3332987515065E+01
 0.2971463623707E+01
 0.2551143667497E+01
 0.2068956637512E+01
 0.1524861646897E+01
 0.9314593348958E+00
 0.4628658084388E+01
 0.4654918170638E+01
 0.4672850748187E+01
 0.4680698397597E+01
 0.4676466134510E+01
 0.4657893120438E+01
 0.4622424804476E+01
 0.4567186608466E+01
 0.4488961200364E+01
 0.4384172364720E+01
 0.4248879605601E+01
 0.4078789045116E+01
 0.3869288081053E+01
 0.3615513937996E+01
 0.3312470631492E+01
 0.2955218979206E+01
 0.2539197371467E+01
 0.2060866456828E+01
 0.1519561045578E+01
 0.9267049831601E+00
 0.4591736529538E+01
 0.4613794205877E+01
 0.4627466924511E+01
 0.4631108967282E+01
 0.4622861434100E+01
 0.4600625765824E+01
 0.4562035058280E+01
 0.4504423436502E+01
 0.4424794656347E+01
 0.4319791972777E+01
 0.4185672430811E+01
 0.4018290492220E+01
 0.3813098795670E+01
 0.3565178493078E+01
 0.3269319002272E+01
 0.2920179938864E+01
 0.2512599849781E+01
 0.2042236699269E+01
 0.1507352633345E+01
 0.9174817690798E+00
 0.4534991902968E+01
 0.4550998863172E+01
 0.4558534154029E+01
 0.4556099188018E+01
 0.4542016073808E+01
 0.4514404494145E+01
 0.4471153391494E+01
 0.4409886585954E+01
 0.4327922391116E+01
 0.4222227884011E+01
 0.4089369208984E+01
 0.3925460830920E+01
 0.3726119911577E+01
 0.3486438259752E+01
 0.3200995591903E+01
 0.2863957425876E+01
 0.2469338066510E+01
 0.2011618679845E+01
 0.1487461376157E+01
 0.9037029228460E+00
 0.4458913019672E+01
 0.4467042257968E+01
 0.4466557936562E+01
 0.4456132072122E+01
 0.4434299253998E+01
 0.4399439621002E+01
 0.4349753469394E+01
 0.4283225403557E+01
 0.4197577167624E+01
 0.4090208366720E+01
 0.3958123993287E+01
 0.3797847999497E+01
 0.3605324309511E+01
 0.3375812604723E+01
 0.3103799487430E+01
 0.2782973215490E+01
 0.2406364786904E+01
 0.1966876794193E+01
 0.1458895954206E+01
 0.8855078766948E+00
 0.4364202251111E+01
 0.4362674420900E+01
 0.4352308529960E+01
 0.4331955873164E+01
 0.4300377468104E+01
 0.4256237434578E+01
 0.4198084203795E+01
 0.4124316731763E+01
 0.4033134986063E+01
 0.3922473146250E+01
 0.3789911892804E+01
 0.3632564125256E+01
 0.3446927565524E+01
 0.3228699749449E+01
 0.2972560180323E+01
 0.2671951094932E+01
 0.2318959650571E+01
 0.1904575763291E+01
 0.1420057799094E+01
 0.8632470610369E+00
 0.4251795555695E+01
 0.4238917996443E+01
 0.4216872215721E+01
 0.4184679809903E+01
 0.4141320648621E+01
 0.4085743209599E+01
 0.4016856107115E+01
 0.3933499581814E+01
 0.3834398940422E+01
 0.3718099394786E+01
 0.3582877034378E+01
 0.3426615548908E+01
 0.3246633105335E+01
 0.3039438702211E+01
 0.2800394263127E+01
 0.2523266275487E+01
 0.2199696428986E+01
 0.1818821328339E+01
 0.1367907251005E+01
 0.8374242763565E+00
 0.4122881246088E+01
 0.4097101521819E+01
 0.4061708073968E+01
 0.4015861658137E+01
 0.3958728871256E+01
 0.3889518013126E+01
 0.3807481845962E+01
 0.3711894137852E+01
 0.3602009693596E+01
 0.3477010775214E+01
 0.3335934670558E+01
 0.3177569316941E+01
 0.3000295159825E+01
 0.2801839293072E+01
 0.2578889190275E+01
 0.2326485253620E+01
 0.2037081381637E+01
 0.1699181836713E+01
 0.1296085889113E+01
 0.8082859313501E+00
 0.3978914634788E+01
 0.3938893534188E+01
 0.3888711100560E+01
 0.3827605863796E+01
 0.3754875337381E+01
 0.3669943784399E+01
 0.3572367511195E+01
 0.3461808814108E+01
 0.3338001675027E+01
 0.3200717111583E+01
 0.3049724080624E+01
 0.2884733288971E+01
 0.2705302608305E+01
 0.2510669165899E+01
 0.2299446846112E+01
 0.2069073715591E+01
 0.1814780688315E+01
 0.1527612191055E+01
 0.1190530788726E+01
 0.7737836947801E+00
 0.3821623054505E+01
 0.3766335617430E+01
 0.3700274116044E+01
 0.3622652612752E+01
 0.3532834791066E+01
 0.3430416905761E+01
 0.3315209129497E+01
 0.3187189237030E+01
 0.3046467434937E+01
 0.2893272598121E+01
 0.2727955619531E+01
 0.2550999641777E+01
 0.2363024239904E+01
 0.2164764790728E+01
 0.1956992293281E+01
 0.1740298673876E+01
 0.1514562636724E+01
 0.1277615518259E+01
 0.1021495708080E+01
 0.7199368178867E+00
 0.3653005383443E+01
 0.3581881633090E+01
 0.3499329729734E+01
 0.3404415189069E+01
 0.3296533921045E+01
 0.3175447158123E+01
 0.3041190911726E+01
 0.2893985211272E+01
 0.2734189775717E+01
 0.2562309539407E+01
 0.2379038060065E+01
 0.2185330307930E+01
 0.1982504112636E+01
 0.1772378869360E+01
 0.1557470261302E+01
 0.1341271679068E+01
 0.1128673408726E+01
 0.9265516352843E+00
 0.7446272950318E+00
 0.5931331997813E+00
 0.3475344673918E+01
 0.3388411181177E+01
 0.3289305103345E+01
 0.3176879179013E+01
 0.3050626349713E+01
 0.2910558009117E+01
 0.2756979636178E+01
 0.2590338889783E+01
 0.2411181926175E+01
 0.2220186873455E+01
 0.2018247844595E+01
 0.1806598824080E+01
 0.1586989206482E+01
 0.1361945617356E+01
 0.1135188570797E+01
 0.9123392384736E+00
 0.7021972887337E+00
 0.5192971108124E+00
 0.3896183828305E+00
 0.3702339704732E+00
 0.3291128410957E+01
 0.3189006896047E+01
 0.3073789708110E+01
 0.2944203653427E+01
 0.2800087645117E+01
 0.2641938874724E+01
 0.2470485702934E+01
 0.2286514445952E+01
 0.2090875687753E+01
 0.1884591509229E+01
 0.1669008106516E+01
 0.1445990682072E+01
 0.1218185754923E+01
 0.9894022182080E+00
 0.7652005835171E+00
 0.5538488571805E+00
 0.3679514194521E+00
 0.2274117417478E+00
 0.1660333909770E+00
 0.2473088493764E+00
 0.3103099797418E+01
 0.2986982830978E+01
 0.2856521219857E+01
 0.2710676680066E+01
 0.2550154436351E+01
 0.2376255529119E+01
 0.2190303774070E+01
 0.1993544754551E+01
 0.1787314948731E+01
 0.1573257293297E+01
 0.1353551010548E+01
 0.1131171050960E+01
 0.9102112185058E+00
 0.6963178594187E+00
 0.4972944037969E+00
 0.3239485323930E+00
 0.1912350660965E+00
 0.1198404395957E+00
 0.1391956823473E+00
 0.2802593470175E+00
 0.2914276922353E+01
 0.2785730132273E+01
 0.2640978925350E+01
 0.2480217276694E+01
 0.2305699291633E+01
 0.2119769343212E+01
 0.1924239863635E+01
 0.1720766105220E+01
 0.1511205902693E+01
 0.1297903479513E+01
 0.1083934455086E+01
 0.8733488078422E+00
 0.6714412319022E+00
 0.4850648000304E+00
 0.3229797139531E+00
 0.1961631079453E+00
 0.1178959125023E+00
 0.1038156662450E+00
 0.1690432934026E+00
 0.3159483887120E+00
 0.2727753302572E+01
 0.2587954757877E+01
 0.2429432916974E+01
 0.2255420923792E+01
 0.2070656624054E+01
 0.1877754144992E+01
 0.1678558816343E+01
 0.1474950523431E+01
 0.1269227303802E+01
 0.1064335555529E+01
 0.8640332288907E+00
 0.6730303184836E+00
 0.4971121270459E+00
 0.3432213742373E+00
 0.2194293301320E+00
 0.1346565269964E+00
 0.9812195199977E-01
 0.1184094476739E+00
 0.1985609738381E+00
 0.3314800199605E+00
 0.2546767247665E+01
 0.2394336046487E+01
 0.2220906691971E+01
 0.2037918002919E+01
 0.1848864328294E+01
 0.1655169369885E+01
 0.1458427141027E+01
 0.1260728476163E+01
 0.1064789906829E+01
 0.8739988332633E+00
 0.6924455825597E+00
 0.5249338479508E+00
 0.3769419050225E+00
 0.2544820236397E+00
 0.1637762668290E+00
 0.1106972917565E+00
 0.1001503802060E+00
 0.1345704765909E+00
 0.2117722118272E+00
 0.3256230750845E+00
 0.2369203186438E+01
 0.2192210973481E+01
 0.2013629779173E+01
 0.1832190578090E+01
 0.1646503475633E+01
 0.1457875616814E+01
 0.1268495380362E+01
 0.1081129822688E+01
 0.8989849247548E+00
 0.7256726040235E+00
 0.5651827280686E+00
 0.4218211025768E+00
 0.3000740158925E+00
 0.2043540599547E+00
 0.1385891875359E+00
 0.1057126811447E+00
 0.1070761249927E+00
 0.1413068824456E+00
 0.2038411638811E+00
 0.2918417983219E+00
</DataArray>
<CellData Tensors="'E_Centroid','S_Centroid'">
<DataArray type="Float64" Name="E_Centroid" NumberOfComponents="4" ComponentName0="E11" ComponentName1="E22" ComponentName2="E33" ComponentName3="E12" format="ascii">
 0.1462946675058E-02 -0.1135735230593E-01  0.0000000000000E+00 -0.3839346644523E-02
 0.2497331785321E-02 -0.9246981894527E-02  0.0000000000000E+00 -0.2405301340344E-03
 0.2069761427137E-02 -0.8432989496316E-02  0.0000000000000E+00 -0.2443089602190E-03
 0.2020628318624E-02 -0.8061002703379E-02  0.0000000000000E+00 -0.1206259442064E-03
 0.1956172007671E-02 -0.7834849355802E-02  0.0000000000000E+00 -0.7522879965683E-04
 0.1924112857588E-02 -0.7697592921707E-02  0.0000000000000E+00 -0.4579408801499E-04
 0.1902609744917E-02 -0.7612635285249E-02  0.0000000000000E+00 -0.2697643968481E-04
 0.1890545895138E-02 -0.7563556914171E-02  0.0000000000000E+00 -0.1342381140798E-04
 0.1884897451226E-02 -0.7540831012768E-02  0.0000000000000E+00 -0.2911840341790E-05
 0.1884535813918E-02 -0.7539235231324E-02  0.0000000000000E+00  0.5974183955842E-05
 0.1888739361269E-02 -0.7556005486739E-02  0.0000000000000E+00  0.1412144038662E-04
 0.1897251491577E-02 -0.7590063809024E-02  0.0000000000000E+00  0.2218252791472E-04
 0.1910120368849E-02 -0.7641608088437E-02  0.0000000000000E+00  0.3069729719934E-04
 0.1927675347307E-02 -0.7711960146530E-02  0.0000000000000E+00  0.4018877374740E-04
 0.1950533138249E-02 -0.7803601328567E-02  0.0000000000000E+00  0.5125058445390E-04
 0.1979663276284E-02 -0.7920447779664E-02  0.0000000000000E+00  0.6468809003160E-04
 0.2016547494989E-02 -0.8068521495253E-02  0.0000000000000E+00  0.8180152762804E-04
 0.2063645961796E-02 -0.8257700566676E-02  0.0000000000000E+00  0.1050953254257E-03
 0.2124102051333E-02 -0.8506843286971E-02  0.0000000000000E+00  0.1449667355154E-03
 0.2200251043283E-02 -0.8844765690421E-02  0.0000000000000E+00  0.2451954886225E-03
 0.2288848758017E-02 -0.9260477479536E-02  0.0000000000000E+00  0.4756193400016E-03
 0.2377688444942E-02 -0.9692376042249E-02  0.0000000000000E+00  0.8675181535328E-03
 0.2453113498878E-02 -0.1009124663874E-01  0.0000000000000E+00  0.1392868933825E-02
 0.2508266073271E-02 -0.1044247582756E-01  0.0000000000000E+00  0.2004319972650E-02
 0.2542656944211E-02 -0.1075331435132E-01  0.0000000000000E+00  0.2665751916551E-02
 0.2558414216583E-02 -0.1103803482046E-01  0.0000000000000E+00  0.3359505133240E-02
 0.2557375455549E-02 -0.1130943900711E-01  0.0000000000000E+00  0.4082743428748E-02
 0.2539558143040E-02 -0.1157557126707E-01  0.0000000000000E+00  0.4841939296246E-02
 0.2502457292484E-02 -0.1183801063127E-01  0.0000000000000E+00  0.5648093689368E-02
 0.2442488644413E-02 -0.1208889450226E-01  0.0000000000000E+00  0.6505657176499E-02
 0.2360044502666E-02 -0.1232009464829E-01  0.0000000000000E+00  0.7400650767191E-02
 0.2259615613455E-02 -0.1254820341337E-01  0.0000000000000E+00  0.8324249440513E-02
 0.2142925535416E-02 -0.1280327327981E-01  0.0000000000000E+00  0.9299881862465E-02
 0.2005627606395E-02 -0.1310859493966E-01  0.0000000000000E+00  0.1037387242595E-01
 0.1839612484663E-02 -0.1348997234837E-01  0.0000000000000E+00  0.1161422307028E-01
 0.1618671096670E-02 -0.1398201319284E-01  0.0000000000000E+00  0.1312274782825E-01
 0.1337056758940E-02 -0.1464538481522E-01  0.0000000000000E+00  0.1509350044536E-01
 0.7487729884785E-03 -0.1552765967691E-01  0.0000000000000E+00  0.1782126748846E-01
 0.4241556499957E-03 -0.1694266018262E-01  0.0000000000000E+00  0.2224097035745E-01
-0.5401605627556E-02 -0.1730549725324E-01  0.0000000000000E+00  0.3048942748444E-01
 0.1568589030192E-01 -0.2033807653228E-01  0.0000000000000E+00  0.3502991144647E-01
 0.9945655702273E-03 -0.9813482034549E-02  0.0000000000000E+00 -0.4211167475487E-02
 0.2111539726609E-02 -0.9406332723406E-02  0.0000000000000E+00 -0.1903591269920E-02
 0.2130829666018E-02 -0.8586578437310E-02  0.0000000000000E+00 -0.6840907183548E-03
 0.2013845420106E-02 -0.8174702755303E-02  0.0000000000000E+00 -0.4289938859192E-03
 0.1971297852479E-02 -0.7928429221180E-02  0.0000000000000E+00 -0.2537801803516E-03
 0.1934898643357E-02 -0.7772075393516E-02  0.0000000000000E+00 -0.1593984497607E-03
 0.1913034945263E-02 -0.7673162463282E-02  0.0000000000000E+00 -0.9636202085880E-04
 0.1899279624174E-02 -0.7613120777374E-02  0.0000000000000E+00 -0.5186139546025E-04
 0.1892237596805E-02 -0.7581835596468E-02  0.0000000000000E+00 -0.1750000652904E-04
 0.1890530892980E-02 -0.7573457216697E-02  0.0000000000000E+00  0.1121165745734E-04
 0.1893513881329E-02 -0.7584806410522E-02  0.0000000000000E+00  0.3722349915600E-04
 0.1900884833014E-02 -0.7614482518582E-02  0.0000000000000E+00  0.6263525800743E-04
 0.1912652036268E-02 -0.7662428715666E-02  0.0000000000000E+00  0.8916771140327E-04
 0.1929082425080E-02 -0.7729747933745E-02  0.0000000000000E+00  0.1184584139850E-03
 0.1950701556917E-02 -0.7818711503526E-02  0.0000000000000E+00  0.1523498942136E-03
 0.1978317205603E-02 -0.7932982508051E-02  0.0000000000000E+00  0.1933124451175E-03
 0.2013105750079E-02 -0.8078183926019E-02  0.0000000000000E+00  0.2452476930540E-03
 0.2056382160375E-02 -0.8263099188854E-02  0.0000000000000E+00  0.3163077370910E-03
 0.2106301768406E-02 -0.8499608942394E-02  0.0000000000000E+00  0.4263392590553E-03
 0.2157365953641E-02 -0.8794297341129E-02  0.0000000000000E+00  0.6057399296619E-03
 0.2206744559988E-02 -0.9133200460907E-02  0.0000000000000E+00  0.8818364039041E-03
 0.2253896729453E-02 -0.9483649185187E-02  0.0000000000000E+00  0.1266654887560E-02
 0.2295164211275E-02 -0.9815826791039E-02  0.0000000000000E+00  0.1751213271470E-02
 0.2325130772456E-02 -0.1011607213048E-01  0.0000000000000E+00  0.2312467182460E-02
 0.2339989523844E-02 -0.1038442815912E-01  0.0000000000000E+00  0.2927542388784E-02
 0.2337838054150E-02 -0.1062713928546E-01  0.0000000000000E+00  0.3581482836220E-02
 0.2317472504640E-02 -0.1085082037669E-01  0.0000000000000E+00  0.4267986335045E-02
 0.2277150254300E-02 -0.1105918894062E-01  0.0000000000000E+00  0.4986792617383E-02
 0.2214800146984E-02 -0.1125161328436E-01  0.0000000000000E+00  0.5738764613025E-02
 0.2130490337970E-02 -0.1142441539763E-01  0.0000000000000E+00  0.6521442280532E-02
 0.2025576897048E-02 -0.1157594326288E-01  0.0000000000000E+00  0.7332570922040E-02
 0.1897827696151E-02 -0.1171066419017E-01  0.0000000000000E+00  0.8176257812417E-02
 0.1740620839298E-02 -0.1183681409859E-01  0.0000000000000E+00  0.9065981888611E-02
 0.1543905216091E-02 -0.1195986098284E-01  0.0000000000000E+00  0.1002819202179E-01
 0.1288005186598E-02 -0.1207730887142E-01  0.0000000000000E+00  0.1110318882330E-01
 0.9458473269457E-03 -0.1217519406409E-01  0.0000000000000E+00  0.1234399443649E-01
 0.4278480095255E-03 -0.1220308364565E-01  0.0000000000000E+00  0.1381830883393E-01
-0.2567788527916E-03 -0.1206707268405E-01  0.0000000000000E+00  0.1551472777539E-01
-0.1907957310682E-02 -0.1124206331516E-01  0.0000000000000E+00  0.1758170459007E-01
-0.2520473552158E-02 -0.8920221915486E-02  0.0000000000000E+00  0.1395200183951E-01
 0.1819090529792E-01 -0.1238062427186E-01  0.0000000000000E+00  0.1066307047936E-01
 0.7114849245417E-03 -0.9001068758949E-02  0.0000000000000E+00 -0.4060500485891E-02
 0.1734762576895E-02 -0.9083464745206E-02  0.0000000000000E+00 -0.2643784829574E-02
 0.2028415893275E-02 -0.8637384865657E-02  0.0000000000000E+00 -0.1280126138407E-02
 0.1994851664825E-02 -0.8235734523863E-02  0.0000000000000E+00 -0.7198224997780E-03
 0.1960345472680E-02 -0.7990531254117E-02  0.0000000000000E+00 -0.4515493545878E-03
 0.1934182946499E-02 -0.7827132380396E-02  0.0000000000000E+00 -0.2837798744827E-03
 0.1914326505828E-02 -0.7720102347005E-02  0.0000000000000E+00 -0.1756058582320E-03
 0.1901528213481E-02 -0.7652566677320E-02  0.0000000000000E+00 -0.9805905447900E-04
 0.1894298548367E-02 -0.7614686723710E-02  0.0000000000000E+00 -0.3838902741113E-04
 0.1891971126715E-02 -0.7600609895216E-02  0.0000000000000E+00  0.1136374298231E-04
 0.1894028962675E-02 -0.7607012735790E-02  0.0000000000000E+00  0.5619477878772E-04
 0.1900253646190E-02 -0.7632317610574E-02  0.0000000000000E+00  0.9971041288387E-04
 0.1910643857151E-02 -0.7676269178283E-02  0.0000000000000E+00  0.1448371867410E-03
 0.1925398926262E-02 -0.7739741419807E-02  0.0000000000000E+00  0.1943384029508E-03
 0.1944892553374E-02 -0.7824707124366E-02  0.0000000000000E+00  0.2512865372509E-03
 0.1969633067299E-02 -0.7934365601526E-02  0.0000000000000E+00  0.3197133180923E-03
 0.2000123742112E-02 -0.8073448978304E-02  0.0000000000000E+00  0.4059174847104E-03
 0.2035586410985E-02 -0.8248121143210E-02  0.0000000000000E+00  0.5216874773682E-03
 0.2070935295887E-02 -0.8462958620667E-02  0.0000000000000E+00  0.6858913019874E-03
 0.2098946503294E-02 -0.8715376134868E-02  0.0000000000000E+00  0.9157923236445E-03
 0.2118433689169E-02 -0.8993097796890E-02  0.0000000000000E+00  0.1219538040824E-02
 0.2133708675179E-02 -0.9277511706798E-02  0.0000000000000E+00  0.1600047064442E-02
 0.2146199031685E-02 -0.9550706135318E-02  0.0000000000000E+00  0.2055493391010E-02
 0.2152431651847E-02 -0.9801435643397E-02  0.0000000000000E+00  0.2576265344314E-02
 0.2147495219450E-02 -0.1002604637284E-01  0.0000000000000E+00  0.3148734704108E-02
 0.2127294546640E-02 -0.1022548837970E-01  0.0000000000000E+00  0.3760748751011E-02
 0.2088701680634E-02 -0.1040175626015E-01  0.0000000000000E+00  0.4403969530743E-02
 0.2029114165180E-02 -0.1055537715656E-01  0.0000000000000E+00  0.5072949876153E-02
 0.1947147526243E-02 -0.1068474403268E-01  0.0000000000000E+00  0.5762465036828E-02
 0.1843748472354E-02 -0.1078761407833E-01  0.0000000000000E+00  0.6467843378791E-02
 0.1719259596696E-02 -0.1086209550733E-01  0.0000000000000E+00  0.7189280239245E-02
 0.1568574166543E-02 -0.1090529357841E-01  0.0000000000000E+00  0.7930760809461E-02
 0.1381777146417E-02 -0.1091244777530E-01  0.0000000000000E+00  0.8696094848193E-02
 0.1145320741254E-02 -0.1087388737925E-01  0.0000000000000E+00  0.9490168299703E-02
 0.8406556012315E-03 -0.1076789645715E-01  0.0000000000000E+00  0.1031499591194E-01
 0.4342321145074E-03 -0.1054881974637E-01  0.0000000000000E+00  0.1115584950594E-01
-0.1010978167019E-03 -0.1012931430071E-01  0.0000000000000E+00  0.1191398583490E-01
-0.8281714162948E-03 -0.9333726244004E-02  0.0000000000000E+00  0.1235944363680E-01
-0.1584122819617E-02 -0.7763801945172E-02  0.0000000000000E+00  0.1103704248533E-01
 0.1598834403629E-02 -0.6632045682052E-02  0.0000000000000E+00  0.4710411421823E-02
 0.1803119943392E-01 -0.9943035327819E-02  0.0000000000000E+00  0.4544895176775E-02
 0.5392640705841E-03 -0.8492707791732E-02  0.0000000000000E+00 -0.3826928388433E-02
 0.1435953243219E-02 -0.8733255389984E-02  0.0000000000000E+00 -0.2937531757223E-02
 0.1862479162987E-02 -0.8554054309066E-02  0.0000000000000E+00 -0.1734713419984E-02
 0.1936604760998E-02 -0.8250617333543E-02  0.0000000000000E+00 -0.1018674922947E-02
 0.1932434672452E-02 -0.8021193862640E-02  0.0000000000000E+00 -0.6444298729761E-03
 0.1919789357058E-02 -0.7862253590000E-02  0.0000000000000E+00 -0.4143400926028E-03
 0.1906816154848E-02 -0.7753019041218E-02  0.0000000000000E+00 -0.2603387579009E-03
 0.1896947331116E-02 -0.7681468345085E-02  0.0000000000000E+00 -0.1498277337279E-03
 0.1890914456035E-02 -0.7639038788827E-02  0.0000000000000E+00 -0.6423423781103E-04
 0.1888682951793E-02 -0.7620409828421E-02  0.0000000000000E+00  0.7117703869811E-05
 0.1890151720188E-02 -0.7622397276395E-02  0.0000000000000E+00  0.7126745909568E-04
 0.1895253256119E-02 -0.7643389600100E-02  0.0000000000000E+00  0.1332589355993E-03
 0.1904022366820E-02 -0.7682993076927E-02  0.0000000000000E+00  0.1971954095425E-03
 0.1916585857393E-02 -0.7741846936807E-02  0.0000000000000E+00  0.2669167051120E-03
 0.1933117565976E-02 -0.7821548309150E-02  0.0000000000000E+00  0.3466226892935E-03
 0.1953713268475E-02 -0.7924652982657E-02  0.0000000000000E+00  0.4416827801961E-03
 0.1977915556386E-02 -0.8054569536270E-02  0.0000000000000E+00  0.5601055392325E-03
 0.2003101265812E-02 -0.8214397231428E-02  0.0000000000000E+00  0.7143342405025E-03
 0.2022802179056E-02 -0.8403798820783E-02  0.0000000000000E+00  0.9188365843560E-03
 0.2030329791403E-02 -0.8616719982771E-02  0.0000000000000E+00  0.1181511089470E-02
 0.2025998312699E-02 -0.8843259446943E-02  0.0000000000000E+00  0.1501488251787E-02
 0.2016037433989E-02 -0.9072403267918E-02  0.0000000000000E+00  0.1877404410770E-02
 0.2004293840904E-02 -0.9293268622805E-02  0.0000000000000E+00  0.2309953571028E-02
 0.1988932652689E-02 -0.9496995077780E-02  0.0000000000000E+00  0.2796342891319E-02
 0.1965084934224E-02 -0.9678255859629E-02  0.0000000000000E+00  0.3328798346349E-02
 0.1927722547160E-02 -0.9834672235729E-02  0.0000000000000E+00  0.3897417422638E-02
 0.1872752307341E-02 -0.9965000898938E-02  0.0000000000000E+00  0.4492609804739E-02
 0.1797299869631E-02 -0.1006756280284E-01  0.0000000000000E+00  0.5105382091363E-02
 0.1700362343066E-02 -0.1013994662696E-01  0.0000000000000E+00  0.5726906396833E-02
 0.1582766759832E-02 -0.1017961911415E-01  0.0000000000000E+00  0.6350549498025E-02
 0.1443910614527E-02 -0.1018291267298E-01  0.0000000000000E+00  0.6974346720378E-02
 0.1278007832600E-02 -0.1014216933118E-01  0.0000000000000E+00  0.7596817224143E-02
 0.1075011697099E-02 -0.1004493193394E-01  0.0000000000000E+00  0.8210277210528E-02
 0.8232721072157E-03 -0.9872327188055E-02  0.0000000000000E+00  0.8797325836542E-02
 0.5094346344849E-03 -0.9592807933106E-02  0.0000000000000E+00  0.9321888802379E-02
 0.1240600729079E-03 -0.9153252149106E-02  0.0000000000000E+00  0.9696587232063E-02
-0.3179967555650E-03 -0.8472311919971E-02  0.0000000000000E+00  0.9722682566584E-02
-0.7039529853230E-03 -0.7427807192667E-02  0.0000000000000E+00  0.8877592180759E-02
-0.1686676250018E-03 -0.6140359382151E-02  0.0000000000000E+00  0.5817730799835E-02
 0.4604948732529E-02 -0.6143730160879E-02  0.0000000000000E+00  0.3896728946372E-03
 0.1702870980195E-01 -0.8767278305754E-02  0.0000000000000E+00  0.2530587766961E-02
 0.4291517752479E-03 -0.8141113977021E-02  0.0000000000000E+00 -0.3593975029388E-02
 0.1208336110235E-02 -0.8428367158823E-02  0.0000000000000E+00 -0.3018294631458E-02
 0.1686186298977E-02 -0.8410487678654E-02  0.0000000000000E+00 -0.2030364843695E-02
 0.1848684321079E-02 -0.8216740486692E-02  0.0000000000000E+00 -0.1281036916558E-02
 0.1887373654923E-02 -0.8024419119488E-02  0.0000000000000E+00 -0.8284404023150E-03
 0.1893469072788E-02 -0.7877765442217E-02  0.0000000000000E+00 -0.5427678098159E-03
 0.1890443876090E-02 -0.7772028659104E-02  0.0000000000000E+00 -0.3472794331656E-03
 0.1885651797526E-02 -0.7699721966722E-02  0.0000000000000E+00 -0.2048176345386E-03
 0.1882027091222E-02 -0.7654748293147E-02  0.0000000000000E+00 -0.9373716853359E-04
 0.1880617605574E-02 -0.7632717208852E-02  0.0000000000000E+00 -0.8149426454912E-06
 0.1881833914085E-02 -0.7630845298901E-02  0.0000000000000E+00  0.8269206476197E-04
 0.1885858344356E-02 -0.7647619874256E-02  0.0000000000000E+00  0.1631565597084E-03
 0.1892795290951E-02 -0.7682568293209E-02  0.0000000000000E+00  0.2457608126087E-03
 0.1902702499398E-02 -0.7736096075725E-02  0.0000000000000E+00  0.3353188380227E-03
 0.1915524926521E-02 -0.7809369278157E-02  0.0000000000000E+00  0.4369881192806E-03
 0.1930868819263E-02 -0.7904166651000E-02  0.0000000000000E+00  0.5571340371109E-03
 0.1947316830239E-02 -0.8022382562303E-02  0.0000000000000E+00  0.7044656139642E-03
 0.1961035966633E-02 -0.8164492643891E-02  0.0000000000000E+00  0.8901880603126E-03
 0.1965385589969E-02 -0.8327319848671E-02  0.0000000000000E+00  0.1123990274148E-02
 0.1954918178537E-02 -0.8503837122421E-02  0.0000000000000E+00  0.1407684816038E-02
 0.1931045586841E-02 -0.8686257972298E-02  0.0000000000000E+00  0.1736181140713E-02
 0.1900577948481E-02 -0.8867911196583E-02  0.0000000000000E+00  0.2106107110444E-02
 0.1868390966639E-02 -0.9042082578927E-02  0.0000000000000E+00  0.2518727373475E-02
 0.1833871065667E-02 -0.9201829503119E-02  0.0000000000000E+00  0.2974321975741E-02
 0.1792722858252E-02 -0.9341247210251E-02  0.0000000000000E+00  0.3468432092629E-02
 0.1739812918549E-02 -0.9456002075446E-02  0.0000000000000E+00  0.3992657191638E-02
 0.1670798392369E-02 -0.9542731781030E-02  0.0000000000000E+00  0.4536612458722E-02
 0.1582874585273E-02 -0.9598250819160E-02  0.0000000000000E+00  0.5088990236582E-02
 0.1475248828645E-02 -0.9619325787720E-02  0.0000000000000E+00  0.5638491481741E-02
 0.1348502454173E-02 -0.9602529837477E-02  0.0000000000000E+00  0.6175995812327E-02
 0.1201749387605E-02 -0.9542473380964E-02  0.0000000000000E+00  0.6695214188996E-02
 0.1030049579590E-02 -0.9428739224556E-02  0.0000000000000E+00  0.7187119310228E-02
 0.8259467620790E-03 -0.9245196506235E-02  0.0000000000000E+00  0.7631844110590E-02
 0.5831760974074E-03 -0.8969573197428E-02  0.0000000000000E+00  0.7991896642257E-02
 0.3015801055533E-03 -0.8570179653796E-02  0.0000000000000E+00  0.8197677060660E-02
 0.1185108588098E-05 -0.8004559328814E-02  0.0000000000000E+00  0.8114906938776E-02
-0.2377393773167E-03 -0.7226921432471E-02  0.0000000000000E+00  0.7477651197279E-02
-0.1135050289360E-03 -0.6254734012242E-02  0.0000000000000E+00  0.5746456126562E-02
 0.1411073976739E-02 -0.5494447112459E-02  0.0000000000000E+00  0.2274082641544E-02
 0.6525713656050E-02 -0.6104486692530E-02  0.0000000000000E+00 -0.1540070865557E-02
 0.1597479798813E-01 -0.8075459317511E-02  0.0000000000000E+00  0.1608030236362E-02
 0.3549968683144E-03 -0.7881002098369E-02  0.0000000000000E+00 -0.3378640698895E-02
 0.1035078557458E-02 -0.8173642178312E-02  0.0000000000000E+00 -0.2995370672715E-02
 0.1521392406522E-02 -0.8248907074100E-02  0.0000000000000E+00 -0.2203182260819E-02
 0.1745489345799E-02 -0.8147990015580E-02  0.0000000000000E+00 -0.1487632184714E-02
 0.1827860460607E-02 -0.8002694869654E-02  0.0000000000000E+00 -0.9940663594809E-03
 0.1856618111264E-02 -0.7875461579037E-02  0.0000000000000E+00 -0.6643071972286E-03
 0.1865879059716E-02 -0.7777615398704E-02  0.0000000000000E+00 -0.4328332448234E-03
 0.1867871383665E-02 -0.7707535105864E-02  0.0000000000000E+00 -0.2610102192864E-03
 0.1867757218882E-02 -0.7661859695293E-02  0.0000000000000E+00 -0.1256190188971E-03
 0.1867823988363E-02 -0.7637529535894E-02  0.0000000000000E+00 -0.1174980731636E-04
 0.1869113693810E-02 -0.7632350678308E-02  0.0000000000000E+00  0.9072777295845E-04
 0.1872118815173E-02 -0.7645027679048E-02  0.0000000000000E+00  0.1893010497799E-03
 0.1877048745374E-02 -0.7675063792482E-02  0.0000000000000E+00  0.2900911886632E-03
 0.1883901487745E-02 -0.7722640788700E-02  0.0000000000000E+00  0.3987362126738E-03
 0.1892384826085E-02 -0.7788464552579E-02  0.0000000000000E+00  0.5211335681372E-03
 0.1901616311812E-02 -0.7873479257275E-02  0.0000000000000E+00  0.6642118361417E-03
 0.1909410820332E-02 -0.7978145098058E-02  0.0000000000000E+00  0.8365042980220E-03
 0.1911343393780E-02 -0.8101010656545E-02  0.0000000000000E+00  0.1047134537744E-02
 0.1901258827237E-02 -0.8237453185256E-02  0.0000000000000E+00  0.1301688379887E-02
 0.1875040892455E-02 -0.8380540463645E-02  0.0000000000000E+00  0.1598199596403E-02
 0.1834830741450E-02 -0.8524163337402E-02  0.0000000000000E+00  0.1929697596034E-02
 0.1787409582497E-02 -0.8664218986345E-02  0.0000000000000E+00  0.2291864661672E-02
 0.1737982230398E-02 -0.8796495104035E-02  0.0000000000000E+00  0.2685677697931E-02
 0.1686818508637E-02 -0.8915492417725E-02  0.0000000000000E+00  0.3112418100224E-02
 0.1630414087525E-02 -0.9015296234311E-02  0.0000000000000E+00  0.3569199884872E-02
 0.1564043248135E-02 -0.9090552566752E-02  0.0000000000000E+00  0.4048430416042E-02
 0.1483601211716E-02 -0.9136623852726E-02  0.0000000000000E+00  0.4539172642570E-02
 0.1386587556666E-02 -0.9149328111741E-02  0.0000000000000E+00  0.5028557727710E-02
 0.1272446361708E-02 -0.9124705543925E-02  0.0000000000000E+00  0.5503288795352E-02
 0.1141777080861E-02 -0.9058466373428E-02  0.0000000000000E+00  0.5951361350690E-02
 0.9941697424573E-03 -0.8944112840284E-02  0.0000000000000E+00  0.6361408293647E-02
 0.8267738072771E-03 -0.8770208383812E-02  0.0000000000000E+00  0.6716547427102E-02
 0.6365733223030E-03 -0.8520142816406E-02  0.0000000000000E+00  0.6985829826061E-02
 0.4256755104970E-03 -0.8173143693043E-02  0.0000000000000E+00  0.7115610489172E-02
 0.2104960829701E-03 -0.7704991717961E-02  0.0000000000000E+00  0.7014521562027E-02
 0.4306119703829E-04 -0.7094026164437E-02  0.0000000000000E+00  0.6525992195474E-02
 0.6871988790733E-04 -0.6346930657278E-02  0.0000000000000E+00  0.5384410479891E-02
 0.6852688312596E-03 -0.5594398576625E-02  0.0000000000000E+00  0.3219014651509E-02
 0.2809388739481E-02 -0.5293947437970E-02  0.0000000000000E+00  0.6910028360563E-05
 0.7706689152729E-02 -0.6146555277293E-02  0.0000000000000E+00 -0.2387066105792E-02
 0.1505288336763E-01 -0.7625461066906E-02  0.0000000000000E+00  0.1015482063008E-02
 0.3026454584126E-03 -0.7678781371475E-02  0.0000000000000E+00 -0.3182739190986E-02
 0.9015975622364E-03 -0.7961259512123E-02  0.0000000000000E+00 -0.2921606808753E-02
 0.1375165931622E-02 -0.8088704663003E-02  0.0000000000000E+00 -0.2289952679984E-02
 0.1637820509050E-02 -0.8058652161210E-02  0.0000000000000E+00 -0.1637851864812E-02
 0.1758312959496E-02 -0.7960620928432E-02  0.0000000000000E+00 -0.1134433465135E-02
 0.1810929541842E-02 -0.7857326398996E-02  0.0000000000000E+00 -0.7750175831775E-03
 0.1834037021379E-02 -0.7770760828914E-02  0.0000000000000E+00 -0.5142006219062E-03
 0.1844051340032E-02 -0.7705340438088E-02  0.0000000000000E+00 -0.3165498208894E-03
 0.1848344407450E-02 -0.7660594187702E-02  0.0000000000000E+00 -0.1587376552227E-03
 0.1850451004637E-02 -0.7634969176435E-02  0.0000000000000E+00 -0.2503991193767E-04
 0.1852106205656E-02 -0.7627009379173E-02  0.0000000000000E+00  0.9562614350948E-04
 0.1854155637206E-02 -0.7635724489968E-02  0.0000000000000E+00  0.2116120317163E-03
 0.1856941376939E-02 -0.7660643393289E-02  0.0000000000000E+00  0.3297933196904E-03
 0.1860418474171E-02 -0.7701742911571E-02  0.0000000000000E+00  0.4564507388908E-03
 0.1864074972638E-02 -0.7759269828202E-02  0.0000000000000E+00  0.5979715833597E-03
 0.1866612006873E-02 -0.7833364486023E-02  0.0000000000000E+00  0.7614225205404E-03
 0.1865339142795E-02 -0.7923288966584E-02  0.0000000000000E+00  0.9545754095318E-03
 0.1855712916862E-02 -0.8026318627768E-02  0.0000000000000E+00  0.1184285103094E-02
 0.1832365744276E-02 -0.8137239750944E-02  0.0000000000000E+00  0.1452937709061E-02
 0.1792381908422E-02 -0.8249635049043E-02  0.0000000000000E+00  0.1756297342262E-02
 0.1738359587506E-02 -0.8358671576609E-02  0.0000000000000E+00  0.2086660227922E-02
 0.1676794035633E-02 -0.8461803095936E-02  0.0000000000000E+00  0.2439246490307E-02
 0.1612889167135E-02 -0.8556342264710E-02  0.0000000000000E+00  0.2814366516096E-02
 0.1547566070980E-02 -0.8637862618714E-02  0.0000000000000E+00  0.3213181810713E-02
 0.1478179658998E-02 -0.8700729548628E-02  0.0000000000000E+00  0.3633254939949E-02
 0.1400709421765E-02 -0.8739189351429E-02  0.0000000000000E+00  0.4067254575869E-02
 0.1311606923188E-02 -0.8747943986499E-02  0.0000000000000E+00  0.4503787403993E-02
 0.1208868722913E-02 -0.8722224236835E-02  0.0000000000000E+00  0.4928839094363E-02
 0.1092333569490E-02 -0.8657570420892E-02  0.0000000000000E+00  0.5327344745873E-02
 0.9630139623593E-03 -0.8549167039234E-02  0.0000000000000E+00  0.5684336133489E-02
 0.8216760489063E-03 -0.8390188967013E-02  0.0000000000000E+00  0.5983482462322E-02
 0.6684625220184E-03 -0.8169664994076E-02  0.0000000000000E+00  0.6200903629832E-02
 0.5060171113540E-03 -0.7872949690456E-02  0.0000000000000E+00  0.6296892379793E-02
 0.3462684611063E-03 -0.7484359275669E-02  0.0000000000000E+00  0.6207487769973E-02
 0.2226631026783E-03 -0.6991492250074E-02  0.0000000000000E+00  0.5832329493248E-02
 0.2162376616630E-03 -0.6397576631716E-02  0.0000000000000E+00  0.5018413922324E-02
 0.5148356490058E-03 -0.5756672149346E-02  0.0000000000000E+00  0.3556830338822E-02
 0.1524485421492E-02 -0.5253742693453E-02  0.0000000000000E+00  0.1290900839317E-02
 0.3945915322437E-02 -0.5278953121051E-02  0.0000000000000E+00 -0.1411911603118E-02
 0.8422464506444E-02 -0.6183027147755E-02  0.0000000000000E+00 -0.2754545432645E-02
 0.1428362573116E-01 -0.7313616931045E-02  0.0000000000000E+00  0.5472574973305E-03
 0.2641299074849E-03 -0.7515392830241E-02  0.0000000000000E+00 -0.3004487357651E-02
 0.7970488768134E-03 -0.7782392578562E-02  0.0000000000000E+00 -0.2823515640901E-02
 0.1248265898801E-02 -0.7937766265905E-02  0.0000000000000E+00 -0.2318631519691E-02
 0.1532295237215E-02 -0.7959133684709E-02  0.0000000000000E+00 -0.1738937059743E-02
 0.1683091607417E-02 -0.7903507007550E-02  0.0000000000000E+00 -0.1247063443276E-02
 0.1758420732555E-02 -0.7825706132111E-02  0.0000000000000E+00 -0.8720392277018E-03
 0.1795977342467E-02 -0.7752690307317E-02  0.0000000000000E+00 -0.5892587391399E-03
 0.1814786085850E-02 -0.7693783386320E-02  0.0000000000000E+00 -0.3699004692743E-03
 0.1824136084844E-02 -0.7651314971308E-02  0.0000000000000E+00 -0.1920935030035E-03
 0.1828730705794E-02 -0.7625271251694E-02  0.0000000000000E+00 -0.4010623682352E-04
 0.1830996859706E-02 -0.7615009684832E-02  0.0000000000000E+00  0.9762388225160E-04
 0.1832153598197E-02 -0.7619906330184E-02  0.0000000000000E+00  0.2300295006949E-03
 0.1832696304656E-02 -0.7639556718840E-02  0.0000000000000E+00  0.3645314124747E-03
 0.1832560031422E-02 -0.7673760085045E-02  0.0000000000000E+00  0.5078520021783E-03
 0.1831055323720E-02 -0.7722336355099E-02  0.0000000000000E+00  0.6666140765640E-03
 0.1826581897378E-02 -0.7784720443411E-02  0.0000000000000E+00  0.8476727071585E-03
 0.1816200672813E-02 -0.7859264030618E-02  0.0000000000000E+00  0.1057725421316E-02
 0.1795569912129E-02 -0.7942488210431E-02  0.0000000000000E+00  0.1301507631132E-02
 0.1760208103031E-02 -0.8029084881247E-02  0.0000000000000E+00  0.1579033443134E-02
 0.1708212312736E-02 -0.8113281017496E-02  0.0000000000000E+00  0.1884748798923E-02
 0.1642456623562E-02 -0.8191204166252E-02  0.0000000000000E+00  0.2210764228430E-02
 0.1569068861246E-02 -0.8261273370104E-02  0.0000000000000E+00  0.2552044622335E-02
 0.1493119258864E-02 -0.8321752045338E-02  0.0000000000000E+00  0.2908081019100E-02
 0.1416035245852E-02 -0.8369026131988E-02  0.0000000000000E+00  0.3279334015986E-02
 0.1336032162328E-02 -0.8397888919567E-02  0.0000000000000E+00  0.3663129985166E-02
 0.1249953905098E-02 -0.8402593619108E-02  0.0000000000000E+00  0.4052009973120E-02
 0.1155011789124E-02 -0.8377627089973E-02  0.0000000000000E+00  0.4434141753798E-02
 0.1049868887760E-02 -0.8317983513260E-02  0.0000000000000E+00  0.4794596489017E-02
 0.9349716028512E-03 -0.8219007514378E-02  0.0000000000000E+00  0.5116730374627E-02
 0.8121424597953E-03 -0.8075809859653E-02  0.0000000000000E+00  0.5382832659032E-02
 0.6838727034285E-03 -0.7881999741888E-02  0.0000000000000E+00  0.5572287485873E-02
 0.5538682133154E-03 -0.7628248655910E-02  0.0000000000000E+00  0.5655770414909E-02
 0.4309575780234E-03 -0.7303580380126E-02  0.0000000000000E+00  0.5587955314468E-02
 0.3369286177851E-03 -0.6899462775793E-02  0.0000000000000E+00  0.5300922972069E-02
 0.3203601605928E-03 -0.6416815743883E-02  0.0000000000000E+00  0.4697262131176E-02
 0.4830885359782E-03 -0.5881786176634E-02  0.0000000000000E+00  0.3648717478054E-02
 0.1028047946022E-02 -0.5379153459121E-02  0.0000000000000E+00  0.2028940451797E-02
 0.2316719961501E-02 -0.5100311336655E-02  0.0000000000000E+00 -0.1364425624266E-03
 0.4836808206397E-02 -0.5332901307478E-02  0.0000000000000E+00 -0.2293724716003E-02
 0.8851581635360E-02 -0.6201670373656E-02  0.0000000000000E+00 -0.2912583559883E-02
 0.1364510424318E-01 -0.7088621465619E-02  0.0000000000000E+00  0.1468395997450E-03
 0.2347668106023E-03 -0.7379233350122E-02  0.0000000000000E+00 -0.2841496658258E-02
 0.7136963607567E-03 -0.7629630714335E-02  0.0000000000000E+00 -0.2714799578603E-02
 0.1139027501857E-02 -0.7798589666586E-02  0.0000000000000E+00 -0.2308777615616E-02
 0.1432456296116E-02 -0.7856106225154E-02  0.0000000000000E+00 -0.1800125562485E-02
 0.1605714691789E-02 -0.7836151991032E-02  0.0000000000000E+00 -0.1332735457110E-02
 0.1701151370828E-02 -0.7783130323319E-02  0.0000000000000E+00 -0.9538919901981E-03
 0.1752849223116E-02 -0.7724776947846E-02  0.0000000000000E+00 -0.6565179958100E-03
 0.1780761225404E-02 -0.7673654732569E-02  0.0000000000000E+00 -0.4198797245269E-03
 0.1795563765897E-02 -0.7634503111458E-02  0.0000000000000E+00 -0.2248586285728E-03
 0.1802964320969E-02 -0.7608765717309E-02  0.0000000000000E+00 -0.5644988037587E-04
 0.1806031377267E-02 -0.7596621394734E-02  0.0000000000000E+00  0.9693465512643E-04
 0.1806353119245E-02 -0.7597844139203E-02  0.0000000000000E+00  0.2445136333614E-03
 0.1804591443057E-02 -0.7612128132556E-02  0.0000000000000E+00  0.3940325677255E-03
 0.1800689191733E-02 -0.7639129364991E-02  0.0000000000000E+00  0.5524494867895E-03
 0.1793838928580E-02 -0.7678298824199E-02  0.0000000000000E+00  0.7263894488568E-03
 0.1782268408241E-02 -0.7728501404011E-02  0.0000000000000E+00  0.9222446742148E-03
 0.1763005868823E-02 -0.7787455856792E-02  0.0000000000000E+00  0.1145525044212E-02
 0.1732107717492E-02 -0.7851308394572E-02  0.0000000000000E+00  0.1399133822760E-02
 0.1685970492307E-02 -0.7914931618832E-02  0.0000000000000E+00  0.1681379849833E-02
 0.1623524080261E-02 -0.7973201466418E-02  0.0000000000000E+00  0.1985975953560E-02
 0.1547808066637E-02 -0.8022974104341E-02  0.0000000000000E+00  0.2305090800978E-02
 0.1464588734104E-02 -0.8063285327364E-02  0.0000000000000E+00  0.2633512600059E-02
 0.1378773314364E-02 -0.8093013860746E-02  0.0000000000000E+00  0.2969873466561E-02
 0.1292212360774E-02 -0.8109186169282E-02  0.0000000000000E+00  0.3313661826902E-02
 0.1203955571393E-02 -0.8107099701389E-02  0.0000000000000E+00  0.3661581428530E-02
 0.1111786149061E-02 -0.8081280592103E-02  0.0000000000000E+00  0.4005794535363E-02
 0.1013802728158E-02 -0.8026326263211E-02  0.0000000000000E+00  0.4334023583309E-02
 0.9094803974538E-03 -0.7937299833270E-02  0.0000000000000E+00  0.4630580900870E-02
 0.8000855687433E-03 -0.7809676334292E-02  0.0000000000000E+00  0.4877475112357E-02
 0.6885805344698E-03 -0.7638948661816E-02  0.0000000000000E+00  0.5054708578982E-02
 0.5795453889685E-03 -0.7419804731315E-02  0.0000000000000E+00  0.5138397894064E-02
 0.4804801822578E-03 -0.7145395877645E-02  0.0000000000000E+00  0.5095697265877E-02
 0.4062810696064E-03 -0.6809386949392E-02  0.0000000000000E+00  0.4879062855969E-02
 0.3875251943307E-03 -0.6411096082496E-02  0.0000000000000E+00  0.4422532092990E-02
 0.4842630880386E-03 -0.5963920050839E-02  0.0000000000000E+00  0.3641218050573E-02
 0.8089069404073E-03 -0.5511072654254E-02  0.0000000000000E+00  0.2443938665306E-02
 0.1557551115472E-02 -0.5150400601329E-02  0.0000000000000E+00  0.7874688368864E-03
 0.3025075653701E-02 -0.5052126108006E-02  0.0000000000000E+00 -0.1175864985774E-02
 0.5524902887588E-02 -0.5406549177266E-02  0.0000000000000E+00 -0.2840706760927E-02
 0.9103470994253E-02 -0.6207184906929E-02  0.0000000000000E+00 -0.2980137548407E-02
 0.1311045703389E-01 -0.6922195665148E-02  0.0000000000000E+00 -0.2030002681973E-03
 0.2116868768506E-03 -0.7262846419510E-02  0.0000000000000E+00 -0.2691559736307E-02
 0.6460667297391E-03 -0.7497207148108E-02  0.0000000000000E+00 -0.2602682560777E-02
 0.1045065798104E-02 -0.7671263068823E-02  0.0000000000000E+00 -0.2273686966579E-02
 0.1339891765215E-02 -0.7753535451580E-02  0.0000000000000E+00 -0.1830160138538E-02
 0.1528717146010E-02 -0.7762387305118E-02  0.0000000000000E+00 -0.1394033689689E-02
 0.1640985917121E-02 -0.7732038872916E-02  0.0000000000000E+00 -0.1020344559084E-02
 0.1705813364794E-02 -0.7688458130497E-02  0.0000000000000E+00 -0.7151136153670E-03
 0.1742710349023E-02 -0.7645833380102E-02  0.0000000000000E+00 -0.4656507508837E-03
 0.1763116331223E-02 -0.7610727539803E-02  0.0000000000000E+00 -0.2563901230743E-03
 0.1773507426844E-02 -0.7585859818452E-02  0.0000000000000E+00 -0.7366023943531E-04
 0.1777505110034E-02 -0.7572183287773E-02  0.0000000000000E+00  0.9374462148211E-04
 0.1777040984259E-02 -0.7569873010291E-02  0.0000000000000E+00  0.2550442037057E-03
 0.1772948920535E-02 -0.7578744386266E-02  0.0000000000000E+00  0.4180898166430E-03
 0.1765209753137E-02 -0.7598349152216E-02  0.0000000000000E+00  0.5898777712148E-03
 0.1752965331036E-02 -0.7627843376569E-02  0.0000000000000E+00  0.7768387567552E-03
 0.1734395510176E-02 -0.7665668240538E-02  0.0000000000000E+00  0.9847434917951E-03
 0.1706661444633E-02 -0.7709148717222E-02  0.0000000000000E+00  0.1217927030859E-02
 0.1666325282335E-02 -0.7754320008014E-02  0.0000000000000E+00  0.1477778241168E-02
 0.1610604273292E-02 -0.7796378998893E-02  0.0000000000000E+00  0.1761405141574E-02
 0.1539110557741E-02 -0.7830808079751E-02  0.0000000000000E+00  0.2062139383699E-02
 0.1454989075227E-02 -0.7855028837496E-02  0.0000000000000E+00  0.2372299831569E-02
 0.1363692026585E-02 -0.7868489831357E-02  0.0000000000000E+00  0.2686521234678E-02
 0.1269986329466E-02 -0.7870492919974E-02  0.0000000000000E+00  0.3002597134873E-02
 0.1176102634482E-02 -0.7858597375876E-02  0.0000000000000E+00  0.3318951285136E-02
 0.1081890077405E-02 -0.7828645555754E-02  0.0000000000000E+00  0.3631475552569E-02
 0.9860964312124E-03 -0.7775611927860E-02  0.0000000000000E+00  0.3931813824039E-02
 0.8877838986756E-03 -0.7694445360678E-02  0.0000000000000E+00  0.4207248937811E-02
 0.7873552413582E-03 -0.7580539714127E-02  0.0000000000000E+00  0.4441478529053E-02
 0.6870732396986E-03 -0.7429806602226E-02  0.0000000000000E+00  0.4615459387066E-02
 0.5912702398890E-03 -0.7238517779820E-02  0.0000000000000E+00  0.4707517955920E-02
 0.5067870764008E-03 -0.7002920124208E-02  0.0000000000000E+00  0.4691688217700E-02
 0.4448347018131E-03 -0.6719135870945E-02  0.0000000000000E+00  0.4533620443753E-02
 0.4257432783429E-03 -0.6385791424974E-02  0.0000000000000E+00  0.4186758264016E-02
 0.4870446409493E-03 -0.6009672128871E-02  0.0000000000000E+00  0.3591926906657E-02
 0.6957751168296E-03 -0.5614237567687E-02  0.0000000000000E+00  0.2682983715701E-02
 0.1165517172598E-02 -0.5252725481205E-02  0.0000000000000E+00  0.1409449598405E-02
 0.2071794941966E-02 -0.5022460899123E-02  0.0000000000000E+00 -0.2021422303982E-03
 0.3640077147395E-02 -0.5061031278915E-02  0.0000000000000E+00 -0.1925372896845E-02
 0.6053979097789E-02 -0.5480680589216E-02  0.0000000000000E+00 -0.3178561384181E-02
 0.9244444940751E-02 -0.6205874613709E-02  0.0000000000000E+00 -0.3008908387500E-02
 0.1265708299005E-01 -0.6797486855673E-02  0.0000000000000E+00 -0.5095775126434E-03
 0.1930640557530E-03 -0.7161228923457E-02  0.0000000000000E+00 -0.2552816683060E-02
 0.5902701327139E-03 -0.7380735077220E-02  0.0000000000000E+00 -0.2491002798872E-02
 0.9639850895056E-03 -0.7554880537134E-02  0.0000000000000E+00 -0.2222317710829E-02
 0.1255042952116E-02 -0.7653616162382E-02  0.0000000000000E+00 -0.1836453187414E-02
 0.1453778585184E-02 -0.7685059998918E-02  0.0000000000000E+00 -0.1434286905297E-02
 0.1579476292778E-02 -0.7674598146528E-02  0.0000000000000E+00 -0.1072080221754E-02
 0.1655967263113E-02 -0.7645148536689E-02  0.0000000000000E+00 -0.7647461139189E-03
 0.1701377244739E-02 -0.7611239089457E-02  0.0000000000000E+00 -0.5067010486656E-03
 0.1727315788574E-02 -0.7580615492331E-02  0.0000000000000E+00 -0.2862277280056E-03
 0.1740754683045E-02 -0.7557020095091E-02  0.0000000000000E+00 -0.9141791279629E-04
 0.1745752109025E-02 -0.7542090105316E-02  0.0000000000000E+00  0.8821042173902E-04
 0.1744540618029E-02 -0.7536380697995E-02  0.0000000000000E+00  0.2616199259888E-03
 0.1738124143636E-02 -0.7539841680894E-02  0.0000000000000E+00  0.4365624281597E-03
 0.1726551136310E-02 -0.7551961047211E-02  0.0000000000000E+00  0.6198942772605E-03
 0.1708979367970E-02 -0.7571680195081E-02  0.0000000000000E+00  0.8176975376909E-03
 0.1683648380468E-02 -0.7597156336238E-02  0.0000000000000E+00  0.1035037310672E-02
 0.1647970350889E-02 -0.7625513517818E-02  0.0000000000000E+00  0.1275156339528E-02
 0.1599061523905E-02 -0.7652852957751E-02  0.0000000000000E+00  0.1538225795661E-02
 0.1534884781476E-02 -0.7674763843554E-02  0.0000000000000E+00  0.1820521256764E-02
 0.1455616848042E-02 -0.7687280467161E-02  0.0000000000000E+00  0.2115200209159E-02
 0.1364481590761E-02 -0.7688278772310E-02  0.0000000000000E+00  0.2414751357928E-02
 0.1266681819182E-02 -0.7677503768303E-02  0.0000000000000E+00  0.2713659652006E-02
 0.1166890438068E-02 -0.7654574763530E-02  0.0000000000000E+00  0.3008933425864E-02
 0.1067699629292E-02 -0.7617520091002E-02  0.0000000000000E+00  0.3297942414129E-02
 0.9697219886830E-03 -0.7562750236074E-02  0.0000000000000E+00  0.3575705617346E-02
 0.8726661603966E-03 -0.7485804900758E-02  0.0000000000000E+00  0.3833296020146E-02
 0.7765972753628E-03 -0.7382163110954E-02  0.0000000000000E+00  0.4057593125356E-02
 0.6829264576183E-03 -0.7247765516486E-02  0.0000000000000E+00  0.4231842372839E-02
 0.5950343457675E-03 -0.7079219760604E-02  0.0000000000000E+00  0.4336300609230E-02
 0.5187443750994E-03 -0.6873881957192E-02  0.0000000000000E+00  0.4348309567980E-02
 0.4631514375842E-03 -0.6629859277434E-02  0.0000000000000E+00  0.4241036531912E-02
 0.4428337811977E-03 -0.6346417770804E-02  0.0000000000000E+00  0.3980524163352E-02
 0.4825609875658E-03 -0.6026943416193E-02  0.0000000000000E+00  0.3523901075053E-02
 0.6245946833727E-03 -0.5684565367221E-02  0.0000000000000E+00  0.2822171307159E-02
 0.9385401622134E-03 -0.5349691664890E-02  0.0000000000000E+00  0.1830738882778E-02
 0.1531988353457E-02 -0.5079204896523E-02  0.0000000000000E+00  0.5372241279416E-03
 0.2553334372106E-02 -0.4961396243393E-02  0.0000000000000E+00 -0.9802602912586E-03
 0.4165533230961E-02 -0.5099610007016E-02  0.0000000000000E+00 -0.2461591875776E-02
 0.6460998533026E-02 -0.5548932400365E-02  0.0000000000000E+00 -0.3384303881607E-02
 0.9315022641586E-02 -0.6202407889594E-02  0.0000000000000E+00 -0.3020901534750E-02
 0.1226774904858E-01 -0.6703787731026E-02  0.0000000000000E+00 -0.7777876251286E-03
 0.1776956744088E-03 -0.7070903450831E-02  0.0000000000000E+00 -0.2423745065151E-02
 0.5435144378951E-03 -0.7276889905217E-02  0.0000000000000E+00 -0.2381781386222E-02
 0.8936434216317E-03 -0.7448204452271E-02  0.0000000000000E+00 -0.2160701932571E-02
 0.1177724205055E-02 -0.7557443266676E-02  0.0000000000000E+00 -0.1824968614971E-02
 0.1381922425385E-02 -0.7606186784784E-02  0.0000000000000E+00 -0.1456932163476E-02
 0.1517837686054E-02 -0.7612624693312E-02  0.0000000000000E+00 -0.1110349708160E-02
 0.1604294061925E-02 -0.7596170522873E-02  0.0000000000000E+00 -0.8055741059171E-03
 0.1657483564469E-02 -0.7570791851119E-02  0.0000000000000E+00 -0.5428073629449E-03
 0.1688696222770E-02 -0.7544826153685E-02  0.0000000000000E+00 -0.3140815655683E-03
 0.1705125350332E-02 -0.7522754826411E-02  0.0000000000000E+00 -0.1094920754610E-03
 0.1711134306915E-02 -0.7506779545592E-02  0.0000000000000E+00  0.8045917891268E-04
 0.1709202385565E-02 -0.7497795967154E-02  0.0000000000000E+00  0.2642576802388E-03
 0.1700495140432E-02 -0.7495892792591E-02  0.0000000000000E+00  0.4493736343958E-03
 0.1685154995487E-02 -0.7500533114615E-02  0.0000000000000E+00  0.6423710561228E-03
 0.1662415691505E-02 -0.7510522130733E-02  0.0000000000000E+00  0.8488704136591E-03
 0.1630663048098E-02 -0.7523856641598E-02  0.0000000000000E+00  0.1073201393576E-02
 0.1587638659788E-02 -0.7537608406572E-02  0.0000000000000E+00  0.1317628668238E-02
 0.1531023934051E-02 -0.7548059702268E-02  0.0000000000000E+00  0.1581361197314E-02
 0.1459450852839E-02 -0.7551218083438E-02  0.0000000000000E+00  0.1860105506559E-02
 0.1373572449208E-02 -0.7543618045709E-02  0.0000000000000E+00  0.2146963846347E-02
 0.1276686538674E-02 -0.7523516742508E-02  0.0000000000000E+00  0.2434583552950E-02
 0.1173815410217E-02 -0.7490892890100E-02  0.0000000000000E+00  0.2717300788021E-02
 0.1069592252787E-02 -0.7445629636612E-02  0.0000000000000E+00  0.2991410573182E-02
 0.9669658901298E-03 -0.7386189499072E-02  0.0000000000000E+00  0.3253298164020E-02
 0.8672779116744E-03 -0.7309565318036E-02  0.0000000000000E+00  0.3497131093488E-02
 0.7711767145678E-03 -0.7211940056568E-02  0.0000000000000E+00  0.3713425009745E-02
 0.6797411367840E-03 -0.7089453555290E-02  0.0000000000000E+00  0.3888728093463E-02
 0.5954338661660E-03 -0.6938761928129E-02  0.0000000000000E+00  0.4006022354401E-02
 0.5228131460059E-03 -0.6757367354625E-02  0.0000000000000E+00  0.4045251029478E-02
 0.4692097820866E-03 -0.6543912905516E-02  0.0000000000000E+00  0.3983477313609E-02
 0.4458150454340E-03 -0.6298496293939E-02  0.0000000000000E+00  0.3794143582269E-02
 0.4700405327268E-03 -0.6023435012484E-02  0.0000000000000E+00  0.3445311314319E-02
 0.5699012311409E-03 -0.5726300543802E-02  0.0000000000000E+00  0.2899811806437E-02
 0.7901166453916E-03 -0.5425048246035E-02  0.0000000000000E+00  0.2120718438500E-02
 0.1199105080166E-02 -0.5153919008656E-02  0.0000000000000E+00  0.1084988048201E-02
 0.1893836726774E-02 -0.4968563600998E-02  0.0000000000000E+00 -0.1877129275876E-03
 0.2994062468598E-02 -0.4943983317825E-02  0.0000000000000E+00 -0.1585360647288E-02
 0.4610769533552E-02 -0.5152614005621E-02  0.0000000000000E+00 -0.2841567046593E-02
 0.6775006540851E-02 -0.5610160855609E-02  0.0000000000000E+00 -0.3505096708607E-02
 0.9340403013235E-02 -0.6199705027905E-02  0.0000000000000E+00 -0.3025108224654E-02
 0.1192965132930E-01 -0.6633922933142E-02  0.0000000000000E+00 -0.1011772606784E-02
 0.1647650648077E-03 -0.6989381433399E-02  0.0000000000000E+00 -0.2303106833654E-02
 0.5037709381555E-03 -0.7183141800772E-02  0.0000000000000E+00 -0.2276044074227E-02
 0.8322231257216E-03 -0.7349966317823E-02  0.0000000000000E+00 -0.2092913167304E-02
 0.1107438345157E-02 -0.7465453747376E-02  0.0000000000000E+00 -0.1800374458816E-02
 0.1313703894022E-02 -0.7527143708764E-02  0.0000000000000E+00 -0.1465182514183E-02
 0.1456976400567E-02 -0.7547582550649E-02  0.0000000000000E+00 -0.1136691360645E-02
 0.1551637813289E-02 -0.7542711500740E-02  0.0000000000000E+00 -0.8380900660739E-03
 0.1611704495198E-02 -0.7525379261031E-02  0.0000000000000E+00 -0.5739884623820E-03
 0.1647786184138E-02 -0.7504028090961E-02  0.0000000000000E+00 -0.3398131462307E-03
 0.1667050302260E-02 -0.7483597870295E-02  0.0000000000000E+00 -0.1277335410154E-03
 0.1674031283101E-02 -0.7466719750969E-02  0.0000000000000E+00  0.7059026101658E-04
 0.1671394326333E-02 -0.7454577279706E-02  0.0000000000000E+00  0.2629915472569E-03
 0.1660452756233E-02 -0.7447394923862E-02  0.0000000000000E+00  0.4565062123963E-03
 0.1641464166325E-02 -0.7444645470977E-02  0.0000000000000E+00  0.6572827120254E-03
 0.1613788282478E-02 -0.7445069151920E-02  0.0000000000000E+00  0.8704035554707E-03
 0.1576022424230E-02 -0.7446605750325E-02  0.0000000000000E+00  0.1099469872258E-02
 0.1526285015926E-02 -0.7446385330011E-02  0.0000000000000E+00  0.1345891044779E-02
 0.1462811552061E-02 -0.7440943408251E-02  0.0000000000000E+00  0.1608124102398E-02
 0.1384832683662E-02 -0.7426709682866E-02  0.0000000000000E+00  0.1881492647299E-02
 0.1293413265707E-02 -0.7400675262831E-02  0.0000000000000E+00  0.2159110570228E-02
 0.1191932808391E-02 -0.7361432073903E-02  0.0000000000000E+00  0.2433763201695E-02
 0.1085299227485E-02 -0.7309162362298E-02  0.0000000000000E+00  0.2699643623904E-02
 0.9781598415705E-03 -0.7243990381140E-02  0.0000000000000E+00  0.2952415643150E-02
 0.8738217595879E-03 -0.7164796022887E-02  0.0000000000000E+00  0.3187582170514E-02
 0.7743227307818E-03 -0.7069163339540E-02  0.0000000000000E+00  0.3398532635405E-02
 0.6812184295018E-03 -0.6953969308266E-02  0.0000000000000E+00  0.3575287398432E-02
 0.5965886179770E-03 -0.6816106099639E-02  0.0000000000000E+00  0.3704167829870E-02
 0.5239535804963E-03 -0.6653066743655E-02  0.0000000000000E+00  0.3768102813556E-02
 0.4690485438169E-03 -0.6463380840410E-02  0.0000000000000E+00  0.3747117004672E-02
 0.4406367763307E-03 -0.6247080160647E-02  0.0000000000000E+00  0.3618663480377E-02
 0.4517329308949E-03 -0.6006234849192E-02  0.0000000000000E+00  0.3357453482610E-02
 0.5219320915687E-03 -0.5745922065286E-02  0.0000000000000E+00  0.2934838683630E-02
 0.6812486182556E-03 -0.5477102873663E-02  0.0000000000000E+00  0.2320642972387E-02
 0.9747957838881E-03 -0.5220939800342E-02  0.0000000000000E+00  0.1490572558367E-02
 0.1466971952829E-02 -0.5012817187144E-02  0.0000000000000E+00  0.4412318037360E-03
 0.2241704642750E-02 -0.4903913610631E-02  0.0000000000000E+00 -0.7829848496348E-03
 0.3391626883340E-02 -0.4954650003902E-02  0.0000000000000E+00 -0.2050913275388E-02
 0.4986669712471E-02 -0.5211762771229E-02  0.0000000000000E+00 -0.3106768443585E-02
 0.7018162188758E-02 -0.5665146079016E-02  0.0000000000000E+00 -0.3570026689453E-02
 0.9336595490376E-02 -0.6199432230385E-02  0.0000000000000E+00 -0.3024893845012E-02
 0.1163325468639E-01 -0.6582862115430E-02  0.0000000000000E+00 -0.1215198992700E-02
 0.1537025494664E-03 -0.6914838027445E-02  0.0000000000000E+00 -0.2189892229014E-02
 0.4695466365113E-03 -0.7097551560376E-02  0.0000000000000E+00 -0.2174263746154E-02
 0.7782214344595E-03 -0.7258993992765E-02  0.0000000000000E+00 -0.2021712758398E-02
 0.1043560246598E-02 -0.7377706033493E-02  0.0000000000000E+00 -0.1766269756054E-02
 0.1249361251539E-02 -0.7448837240096E-02  0.0000000000000E+00 -0.1461882113088E-02
 0.1397539467014E-02 -0.7480619011667E-02  0.0000000000000E+00 -0.1152733770951E-02
 0.1498699370776E-02 -0.7485806091833E-02  0.0000000000000E+00 -0.8630035423632E-03
 0.1564653362917E-02 -0.7475833349009E-02  0.0000000000000E+00 -0.6004518722113E-03
 0.1605094829310E-02 -0.7458880771069E-02  0.0000000000000E+00 -0.3634118765035E-03
 0.1626960843201E-02 -0.7440094390977E-02  0.0000000000000E+00 -0.1460648453688E-03
 0.1634830942164E-02 -0.7422397680841E-02  0.0000000000000E+00  0.5867841761628E-04
 0.1631493613538E-02 -0.7407202165191E-02  0.0000000000000E+00  0.2578717018312E-03
 0.1618392010404E-02 -0.7394858695064E-02  0.0000000000000E+00  0.4579966147163E-03
 0.1595913964336E-02 -0.7384878433320E-02  0.0000000000000E+00  0.6646924978718E-03
 0.1563583805822E-02 -0.7375997580045E-02  0.0000000000000E+00  0.8824581633660E-03
 0.1520256079885E-02 -0.7366181681073E-02  0.0000000000000E+00  0.1114196071709E-02
 0.1464450388794E-02 -0.7352698787709E-02  0.0000000000000E+00  0.1360578833116E-02
 0.1394933035460E-02 -0.7332380810606E-02  0.0000000000000E+00  0.1619480172662E-02
 0.1311471780036E-02 -0.7302072255719E-02  0.0000000000000E+00  0.1885971828004E-02
 0.1215496962209E-02 -0.7259186193578E-02  0.0000000000000E+00  0.2153216659841E-02
 0.1110484242824E-02 -0.7202621132496E-02  0.0000000000000E+00  0.2414118494892E-02
 0.1001287103194E-02 -0.7132752042975E-02  0.0000000000000E+00  0.2662740239125E-02
 0.8926159953272E-03 -0.7049939203159E-02  0.0000000000000E+00  0.2894201691719E-02
 0.7881398733840E-03 -0.6953473572353E-02  0.0000000000000E+00  0.3103242293438E-02
 0.6905605799570E-03 -0.6841535061341E-02  0.0000000000000E+00  0.3282578332088E-02
 0.6023002833584E-03 -0.6711724880380E-02  0.0000000000000E+00  0.3421830645148E-02
 0.5264068323924E-03 -0.6561745919427E-02  0.0000000000000E+00  0.3507222862436E-02
 0.4674297150309E-03 -0.6390004519637E-02  0.0000000000000E+00  0.3521851761214E-02
 0.4322268829238E-03 -0.6196127068599E-02  0.0000000000000E+00  0.3446202673650E-02
 0.4308466277776E-03 -0.5981545828593E-02  0.0000000000000E+00  0.3258710321327E-02
 0.4777769474636E-03 -0.5750167856484E-02  0.0000000000000E+00  0.2936156150136E-02
 0.5941002286461E-03 -0.5509407244228E-02  0.0000000000000E+00  0.2454068570717E-02
 0.8106489432827E-03 -0.5272728642989E-02  0.0000000000000E+00  0.1789875020855E-02
 0.1171222484380E-02 -0.5062988596701E-02  0.0000000000000E+00  0.9314517881236E-03
 0.1734308804012E-02 -0.4914635571272E-02  0.0000000000000E+00 -0.1079216843177E-03
 0.2570034316381E-02 -0.4872547602584E-02  0.0000000000000E+00 -0.1266307929307E-02
 0.3746988791099E-02 -0.4983080726068E-02  0.0000000000000E+00 -0.2404647826115E-02
 0.5303814859744E-02 -0.5272701619916E-02  0.0000000000000E+00 -0.3287016527877E-02
 0.7207199818079E-02 -0.5715223291377E-02  0.0000000000000E+00 -0.3597223010293E-02
 0.9313999743600E-02 -0.6202469757749E-02  0.0000000000000E+00 -0.3021270558015E-02
 0.1137134492595E-01 -0.6546941823591E-02  0.0000000000000E+00 -0.1391294938438E-02
 0.1441012723579E-03 -0.6845907466961E-02  0.0000000000000E+00 -0.2083271567269E-02
 0.4397288433104E-03 -0.7018620046825E-02  0.0000000000000E+00 -0.2076604149071E-02
 0.7304123459325E-03 -0.7174256399078E-02  0.0000000000000E+00 -0.1948978250701E-02
 0.9854392500125E-03 -0.7294052266599E-02  0.0000000000000E+00 -0.1725406333043E-02
 0.1188928138108E-02 -0.7371841229643E-02  0.0000000000000E+00 -0.1449466665546E-02
 0.1339968376773E-02 -0.7412615046788E-02  0.0000000000000E+00 -0.1160069517808E-02
 0.1446045400951E-02 -0.7426336155278E-02  0.0000000000000E+00 -0.8811441243535E-03
 0.1516874286987E-02 -0.7422916660296E-02  0.0000000000000E+00 -0.6225410927172E-03
 0.1561101925270E-02 -0.7410020349265E-02  0.0000000000000E+00 -0.3849693444566E-03
 0.1585279503345E-02 -0.7392788733510E-02  0.0000000000000E+00 -0.1644685137022E-03
 0.1593921344737E-02 -0.7374308679318E-02  0.0000000000000E+00  0.4477783604871E-04
 0.1589878977510E-02 -0.7356157571327E-02  0.0000000000000E+00  0.2489632244256E-03
 0.1574704782743E-02 -0.7338798541897E-02  0.0000000000000E+00  0.4539283170964E-03
 0.1548925633397E-02 -0.7321803151792E-02  0.0000000000000E+00  0.6647380658271E-03
 0.1512257787291E-02 -0.7303953026619E-02  0.0000000000000E+00  0.8852865075042E-03
 0.1463842110270E-02 -0.7283303137610E-02  0.0000000000000E+00  0.1117820671443E-02
 0.1402607169260E-02 -0.7257314961544E-02  0.0000000000000E+00  0.1362384549264E-02
 0.1327820839079E-02 -0.7223140559599E-02  0.0000000000000E+00  0.1616401954037E-02
 0.1239735595199E-02 -0.7178026926571E-02  0.0000000000000E+00  0.1874785529151E-02
 0.1140114173552E-02 -0.7119782346176E-02  0.0000000000000E+00  0.2130768713982E-02
 0.1032545509222E-02 -0.7047595734135E-02  0.0000000000000E+00  0.2377360168331E-02
 0.9218808204682E-03 -0.6962034952881E-02  0.0000000000000E+00  0.2608512845123E-02
 0.8129357708212E-03 -0.6863700565456E-02  0.0000000000000E+00  0.2818891545786E-02
 0.7097437422517E-03 -0.6752293558748E-02  0.0000000000000E+00  0.3002598098913E-02
 0.6156382849255E-03 -0.6626590186020E-02  0.0000000000000E+00  0.3151798299844E-02
 0.5338605563047E-03 -0.6484929572783E-02  0.0000000000000E+00  0.3255830564993E-02
 0.4683765851713E-03 -0.6325855170781E-02  0.0000000000000E+00  0.3300964541036E-02
 0.4247067825827E-03 -0.6148721894657E-02  0.0000000000000E+00  0.3270683983872E-02
 0.4107337715799E-03 -0.5954265380411E-02  0.0000000000000E+00  0.3146278109606E-02
 0.4375915329271E-03 -0.5745256184832E-02  0.0000000000000E+00  0.2907653198656E-02
 0.5208508860212E-03 -0.5527219077683E-02  0.0000000000000E+00  0.2534251246758E-02
 0.6823971512800E-03 -0.5309414300151E-02  0.0000000000000E+00  0.2006292888300E-02
 0.9528432342038E-03 -0.5106935903696E-02  0.0000000000000E+00  0.1308851118165E-02
 0.1373379562555E-02 -0.4943047083107E-02  0.0000000000000E+00  0.4408146118306E-03
 0.1995517527445E-02 -0.4849808263146E-02  0.0000000000000E+00 -0.5712405210417E-03
 0.2875944988912E-02 -0.4865035598252E-02  0.0000000000000E+00 -0.1654145103855E-02
 0.4062854554169E-02 -0.5022486354397E-02  0.0000000000000E+00 -0.2668906017823E-02
 0.5571713704812E-02 -0.5333251197904E-02  0.0000000000000E+00 -0.3403662404807E-02
 0.7354758431424E-02 -0.5761750333247E-02  0.0000000000000E+00 -0.3598097087122E-02
 0.9279525176753E-02 -0.6209251273830E-02  0.0000000000000E+00 -0.3014343111843E-02
 0.1113833653965E-01 -0.6523411570751E-02  0.0000000000000E+00 -0.1542905243118E-02
 0.1356646594238E-03 -0.6781549864162E-02  0.0000000000000E+00 -0.1982556510882E-02
 0.4134783263233E-03 -0.6945178308891E-02  0.0000000000000E+00 -0.1983056608632E-02
 0.6878020613286E-03 -0.7094870090402E-02  0.0000000000000E+00 -0.1875987425091E-02
 0.9324531008528E-03 -0.7214242451824E-02  0.0000000000000E+00 -0.1679878483629E-02
 0.1132313120086E-02 -0.7296500065377E-02  0.0000000000000E+00 -0.1429978020045E-02
 0.1284548302975E-02 -0.7344237041844E-02  0.0000000000000E+00 -0.1160181977367E-02
 0.1394124231929E-02 -0.7365041672442E-02  0.0000000000000E+00 -0.8933874078462E-03
 0.1468841082790E-02 -0.7367316109794E-02  0.0000000000000E+00 -0.6406879840672E-03
 0.1516251482640E-02 -0.7358049623918E-02  0.0000000000000E+00 -0.4046535641390E-03
 0.1542412871215E-02 -0.7342214568232E-02  0.0000000000000E+00 -0.1829745174272E-03
 0.1551683844718E-02 -0.7322947454297E-02  0.0000000000000E+00  0.2892671392772E-04
 0.1546924257601E-02 -0.7301931421454E-02  0.0000000000000E+00  0.2363449158976E-03
 0.1529773884791E-02 -0.7279724654533E-02  0.0000000000000E+00  0.4444249704857E-03
 0.1500901664561E-02 -0.7255974504405E-02  0.0000000000000E+00  0.6576178655050E-03
 0.1460232818684E-02 -0.7229546125015E-02  0.0000000000000E+00  0.8792111323963E-03
 0.1407210105493E-02 -0.7198630863559E-02  0.0000000000000E+00  0.1110846511713E-02
 0.1341167324205E-02 -0.7160920470087E-02  0.0000000000000E+00  0.1352035097495E-02
 0.1261842477614E-02 -0.7113898059892E-02  0.0000000000000E+00  0.1599855887618E-02
 0.1169928658803E-02 -0.7055198990304E-02  0.0000000000000E+00  0.1849129163054E-02
 0.1067497197926E-02 -0.6983006250450E-02  0.0000000000000E+00  0.2093173128558E-02
 0.9582674601568E-03 -0.6896790491989E-02  0.0000000000000E+00  0.2325095007467E-02
 0.8471323353969E-03 -0.6797318230236E-02  0.0000000000000E+00  0.2538764376563E-02
 0.7390470784114E-03 -0.6685438669418E-02  0.0000000000000E+00  0.2728479572784E-02
 0.6384093836918E-03 -0.6561263495304E-02  0.0000000000000E+00  0.2887831497492E-02
 0.5491508772266E-03 -0.6424161289249E-02  0.0000000000000E+00  0.3008566055943E-02
 0.4752784953571E-03 -0.6273208814045E-02  0.0000000000000E+00  0.3079867394985E-02
 0.4216124069989E-03 -0.6107795345474E-02  0.0000000000000E+00  0.3088199666993E-02
 0.3945614486766E-03 -0.5928223729814E-02  0.0000000000000E+00  0.3017638888280E-02
 0.4029022912539E-03 -0.5736303665352E-02  0.0000000000000E+00  0.2850570540403E-02
 0.4586236416802E-03 -0.5536025886606E-02  0.0000000000000E+00  0.2568747851733E-02
 0.5779799105227E-03 -0.5334262411017E-02  0.0000000000000E+00  0.2154655033171E-02
 0.7830300153791E-03 -0.5141612888118E-02  0.0000000000000E+00  0.1593392957360E-02
 0.1103315449654E-02 -0.4974007132993E-02  0.0000000000000E+00  0.8772899569565E-03
 0.1576525575765E-02 -0.4854102228814E-02  0.0000000000000E+00  0.1469321651343E-04
 0.2246779555283E-02 -0.4810671079168E-02  0.0000000000000E+00 -0.9578598903160E-03
 0.3158361848076E-02 -0.4874435117517E-02  0.0000000000000E+00 -0.1961117726674E-02
 0.4342709572907E-02 -0.5068405578378E-02  0.0000000000000E+00 -0.2861403008027E-02
 0.5798566896135E-02 -0.5392401062272E-02  0.0000000000000E+00 -0.3471971754559E-02
 0.7470439921275E-02 -0.5805921158592E-02  0.0000000000000E+00 -0.3579843266299E-02
 0.9237883268753E-02 -0.6219998384529E-02  0.0000000000000E+00 -0.3003925277294E-02
 0.1092978297299E-01 -0.6510168801933E-02  0.0000000000000E+00 -0.1672607721160E-02
 0.1281726742149E-03 -0.6720961929612E-02  0.0000000000000E+00 -0.1887169746815E-02
 0.3901550607006E-03 -0.6876307358386E-02  0.0000000000000E+00 -0.1893517730826E-02
 0.6495870361533E-03 -0.7020089296642E-02  0.0000000000000E+00 -0.1803607482612E-02
 0.8840336112640E-03 -0.7137986059696E-02  0.0000000000000E+00 -0.1631275549918E-02
 0.1079354062645E-02 -0.7223003570945E-02  0.0000000000000E+00 -0.1405103184166E-02
 0.1231449450210E-02 -0.7275983453728E-02  0.0000000000000E+00 -0.1154408556200E-02
 0.1343284128009E-02 -0.7302536990669E-02  0.0000000000000E+00 -0.9006022853493E-03
 0.1420960398513E-02 -0.7309642572009E-02  0.0000000000000E+00 -0.6553727766805E-03
 0.1470948452075E-02 -0.7303531676854E-02  0.0000000000000E+00 -0.4226849428104E-03
 0.1498746345872E-02 -0.7288887235303E-02  0.0000000000000E+00 -0.2016477997979E-03
 0.1508487540267E-02 -0.7268800519254E-02  0.0000000000000E+00  0.1115200166649E-04
 0.1502993095531E-02 -0.7245005436165E-02  0.0000000000000E+00  0.2201081949456E-03
 0.1483968408229E-02 -0.7218136389950E-02  0.0000000000000E+00  0.4296438149783E-03
 0.1452222604259E-02 -0.7187925860865E-02  0.0000000000000E+00  0.6435787977424E-03
 0.1407898105541E-02 -0.7153350213875E-02  0.0000000000000E+00  0.8646073295362E-03
 0.1350744550659E-02 -0.7112770084098E-02  0.0000000000000E+00  0.1093818867258E-02
 0.1280489484348E-02 -0.7064130304747E-02  0.0000000000000E+00  0.1330275064411E-02
 0.1197309515304E-02 -0.7005247455842E-02  0.0000000000000E+00  0.1570793271186E-02
 0.1102301237284E-02 -0.6934130823444E-02  0.0000000000000E+00  0.1810150817067E-02
 0.9978269954858E-03 -0.6849322120843E-02  0.0000000000000E+00  0.2041762242700E-02
 0.8877521262851E-03 -0.6750569353797E-02  0.0000000000000E+00  0.2258834391780E-02
 0.7770470312009E-03 -0.6638845603393E-02  0.0000000000000E+00  0.2455185003563E-02
 0.6708332090518E-03 -0.6515257883163E-02  0.0000000000000E+00  0.2624832357284E-02
 0.5738689427210E-03 -0.6380328604274E-02  0.0000000000000E+00  0.2760979935229E-02
 0.4906484543978E-03 -0.6234009837634E-02  0.0000000000000E+00  0.2855085346972E-02
 0.4258864582548E-03 -0.6076103676756E-02  0.0000000000000E+00  0.2896309274529E-02
 0.3851821315458E-03 -0.5906829664693E-02  0.0000000000000E+00  0.2871454687440E-02
 0.3757322211262E-03 -0.5727408061167E-02  0.0000000000000E+00  0.2765371675400E-02
 0.4070555715735E-03 -0.5540650233653E-02  0.0000000000000E+00  0.2561774535071E-02
 0.4917512872504E-03 -0.5351611040076E-02  0.0000000000000E+00  0.2244522161489E-02
 0.6463747029723E-03 -0.5168216373692E-02  0.0000000000000E+00  0.1799331453069E-02
 0.8926118351321E-03 -0.5001921531181E-02  0.0000000000000E+00  0.1216104050809E-02
 0.1258279312874E-02 -0.4868817649879E-02  0.0000000000000E+00  0.4937382852677E-03
 0.1777028190026E-02 -0.4790217536828E-02  0.0000000000000E+00 -0.3516736200248E-03
 0.2485641822393E-02 -0.4791148297905E-02  0.0000000000000E+00 -0.1276660270073E-02
 0.3417377261279E-02 -0.4895654277615E-02  0.0000000000000E+00 -0.2199857498474E-02
 0.4590248297115E-02 -0.5117897089226E-02  0.0000000000000E+00 -0.2996074899594E-02
 0.5991271509226E-02 -0.5449722751356E-02  0.0000000000000E+00 -0.3502864654825E-02
 0.7561596021071E-02 -0.5848695856705E-02  0.0000000000000E+00 -0.3546892371803E-02
 0.9192416469872E-02 -0.6234885424306E-02  0.0000000000000E+00 -0.2989733085937E-02
 0.1074203065685E-01 -0.6505622041183E-02  0.0000000000000E+00 -0.1782912862768E-02
 0.1214595718672E-03 -0.6663515555687E-02  0.0000000000000E+00 -0.1796621446931E-02
 0.3692660106004E-03 -0.6811279267638E-02  0.0000000000000E+00 -0.1807833906415E-02
 0.6151177334416E-03 -0.6949289893078E-02  0.0000000000000E+00 -0.1732421919103E-02
 0.8396762780085E-03 -0.7064987381636E-02  0.0000000000000E+00 -0.1580800817313E-02
 0.1029854192557E-02 -0.7151440077899E-02  0.0000000000000E+00 -0.1376221463175E-02
 0.1180760008701E-02 -0.7208224070392E-02  0.0000000000000E+00 -0.1143927382447E-02
 0.1293791319342E-02 -0.7239328762242E-02  0.0000000000000E+00 -0.9036158676844E-03
 0.1373577365259E-02 -0.7250434272561E-02  0.0000000000000E+00 -0.6670923778500E-03
 0.1425557819506E-02 -0.7246986549474E-02  0.0000000000000E+00 -0.4393151140975E-03
 0.1454640617162E-02 -0.7233298128841E-02  0.0000000000000E+00 -0.2205765589212E-03
 0.1464685001192E-02 -0.7212340092220E-02  0.0000000000000E+00 -0.8525967691769E-05
 0.1458434746875E-02 -0.7185849228766E-02  0.0000000000000E+00  0.2003561205819E-03
 0.1437640230433E-02 -0.7154517058564E-02  0.0000000000000E+00  0.4097696328133E-03
 0.1403245047712E-02 -0.7118165382106E-02  0.0000000000000E+00  0.6229053830604E-03
 0.1355609908673E-02 -0.7075900394878E-02  0.0000000000000E+00  0.8418886424953E-03
 0.1294788319768E-02 -0.7026273485339E-02  0.0000000000000E+00  0.1067310072258E-02
 0.1220885065497E-02 -0.6967494891938E-02  0.0000000000000E+00  0.1297854344609E-02
 0.1134484872046E-02 -0.6897711442543E-02  0.0000000000000E+00  0.1530143780769E-02
 0.1037056314507E-02 -0.6815292190387E-02  0.0000000000000E+00  0.1758950918866E-02
 0.9312391054660E-03 -0.6719124598288E-02  0.0000000000000E+00  0.1977798208942E-02
 0.8210575188741E-03 -0.6609231682993E-02  0.0000000000000E+00  0.2179999644214E-02
 0.7115876905081E-03 -0.6486800982824E-02  0.0000000000000E+00  0.2359356148361E-02
 0.6081366798330E-03 -0.6353205289142E-02  0.0000000000000E+00  0.2509688978337E-02
 0.5158156788074E-03 -0.6209375640289E-02  0.0000000000000E+00  0.2623931852204E-02
 0.4396439408813E-03 -0.6055833798945E-02  0.0000000000000E+00  0.2693381634229E-02
 0.3849821812558E-03 -0.5893084555854E-02  0.0000000000000E+00  0.2707302349065E-02
 0.3581254877479E-03 -0.5722145046183E-02  0.0000000000000E+00  0.2652968665296E-02
 0.3669462028466E-03 -0.5545098895010E-02  0.0000000000000E+00  0.2516156239889E-02
 0.4215427270347E-03 -0.5365660050425E-02  0.0000000000000E+00  0.2282077224656E-02
 0.5348821360870E-03 -0.5189769894608E-02  0.0000000000000E+00  0.1936844222275E-02
 0.7234727871515E-03 -0.5026114744320E-02  0.0000000000000E+00  0.1469433120107E-02
 0.1008178209328E-02 -0.4886570631304E-02  0.0000000000000E+00  0.8742645604947E-03
 0.1414626706868E-02 -0.4786849648381E-02  0.0000000000000E+00  0.1559475766891E-03
 0.1972183492930E-02 -0.4746428350375E-02  0.0000000000000E+00 -0.6633849287933E-03
 0.2710667455892E-02 -0.4786455725865E-02  0.0000000000000E+00 -0.1535919449771E-02
 0.3653800224952E-02 -0.4924960675632E-02  0.0000000000000E+00 -0.2381088904081E-02
 0.4809059917452E-02 -0.5169011525780E-02  0.0000000000000E+00 -0.3083865205401E-02
 0.6155520472683E-02 -0.5505029170633E-02  0.0000000000000E+00 -0.3504209273570E-02
 0.7633865657092E-02 -0.5890720847552E-02  0.0000000000000E+00 -0.3501760742531E-02
 0.9145672492238E-02 -0.6254137872973E-02  0.0000000000000E+00 -0.2971251471227E-02
 0.1057197973281E-01 -0.6508660717875E-02  0.0000000000000E+00 -0.1876593563278E-02
 0.1153988773589E-03 -0.6608714579326E-02  0.0000000000000E+00 -0.1710491006727E-02
 0.3504279382167E-03 -0.6749513554415E-02  0.0000000000000E+00 -0.1725826831322E-02
 0.5838685734434E-03 -0.6881952192493E-02  0.0000000000000E+00 -0.1662816295827E-02
 0.7989411279764E-03 -0.6994964858205E-02  0.0000000000000E+00 -0.1529362577936E-02
 0.9836052785814E-03 -0.7081833337970E-02  0.0000000000000E+00 -0.1344451361868E-02
 0.1132511475557E-02 -0.7141231659874E-02  0.0000000000000E+00 -0.1129758216010E-02
 0.1245846361885E-02 -0.7175833387104E-02  0.0000000000000E+00 -0.9031919805225E-03
 0.1326982447545E-02 -0.7190162390279E-02  0.0000000000000E+00 -0.6763365313772E-03
 0.1380405434643E-02 -0.7188890245320E-02  0.0000000000000E+00 -0.4548091997985E-03
 0.1410429613831E-02 -0.7175910871208E-02  0.0000000000000E+00 -0.2398617682472E-03
 0.1420609171671E-02 -0.7154019370827E-02  0.0000000000000E+00 -0.3008917829567E-04
 0.1413580930905E-02 -0.7124915614130E-02  0.0000000000000E+00  0.1772025558028E-03
 0.1391121526685E-02 -0.7089329937746E-02  0.0000000000000E+00  0.3850093904912E-03
 0.1354300550691E-02 -0.7047173546907E-02  0.0000000000000E+00  0.5959105048127E-03
 0.1303692559017E-02 -0.6997693534564E-02  0.0000000000000E+00  0.8114950552296E-03
 0.1239646079143E-02 -0.6939644397000E-02  0.0000000000000E+00  0.1031907577695E-02
 0.1162623556060E-02 -0.6871506325867E-02  0.0000000000000E+00  0.1255518903252E-02
 0.1073588876035E-02 -0.6791749415020E-02  0.0000000000000E+00  0.1478810714942E-02
 0.9743554055700E-03 -0.6699088701161E-02  0.0000000000000E+00  0.1696581804982E-02
 0.8678288448100E-03 -0.6592746185554E-02  0.0000000000000E+00  0.1902475377156E-02
 0.7582023092841E-03 -0.6473018048794E-02  0.0000000000000E+00  0.2089925399072E-02
 0.6506789270028E-03 -0.6341312827036E-02  0.0000000000000E+00  0.2252753087970E-02
 0.5507639206583E-03 -0.6199274689724E-02  0.0000000000000E+00  0.2384661381377E-02
 0.4639098048940E-03 -0.6048238240964E-02  0.0000000000000E+00  0.2478424217880E-02
 0.3956213116914E-03 -0.5889276296061E-02  0.0000000000000E+00  0.2525297600768E-02
 0.3518407671307E-03 -0.5723565044754E-02  0.0000000000000E+00  0.2514766666972E-02
 0.3394712127309E-03 -0.5552873058964E-02  0.0000000000000E+00  0.2434693882013E-02
 0.3669423127263E-03 -0.5380076005052E-02  0.0000000000000E+00  0.2271897680759E-02
 0.4447677766867E-03 -0.5209674423234E-02  0.0000000000000E+00  0.2013194398745E-02
 0.5860539673248E-03 -0.5048310982884E-02  0.0000000000000E+00  0.1646999364461E-02
 0.8069606124421E-03 -0.4905155763681E-02  0.0000000000000E+00  0.1165441157928E-02
 0.1127179257163E-02 -0.4792133919939E-02  0.0000000000000E+00  0.5670377407243E-03
 0.1569855287471E-02 -0.4724170508841E-02  0.0000000000000E+00 -0.1388268958012E-03
 0.2160042458291E-02 -0.4718618474140E-02  0.0000000000000E+00 -0.9255660507393E-03
 0.2921155734417E-02 -0.4792840941253E-02  0.0000000000000E+00 -0.1743146427435E-02
 0.3868846411579E-02 -0.4959613095215E-02  0.0000000000000E+00 -0.2513821309105E-02
 0.5002476843898E-02 -0.5220448739302E-02  0.0000000000000E+00 -0.3133372455148E-02
 0.6295954747896E-02 -0.5558229824633E-02  0.0000000000000E+00 -0.3481826752844E-02
 0.7691465488405E-02 -0.5932176934179E-02  0.0000000000000E+00 -0.3445713507848E-02
 0.9099828995927E-02 -0.6277956304150E-02  0.0000000000000E+00 -0.2947149523451E-02
 0.1041692389621E-01 -0.6518727367757E-02  0.0000000000000E+00 -0.1957241226305E-02
 0.1098930197611E-03 -0.6556163705905E-02  0.0000000000000E+00 -0.1628412829217E-02
 0.3333405749757E-03 -0.6690544579059E-02  0.0000000000000E+00 -0.1647308051009E-02
 0.5554135419895E-03 -0.6817644692906E-02  0.0000000000000E+00 -0.1595036715795E-02
 0.7614490520351E-03 -0.6927660755502E-02  0.0000000000000E+00 -0.1477643236635E-02
 0.9404019649198E-03 -0.7014167765279E-02  0.0000000000000E+00 -0.1310693400399E-02
 0.1086697571593E-02 -0.7075206755954E-02  0.0000000000000E+00 -0.1112771344635E-02
 0.1199598222540E-02 -0.7112392811137E-02  0.0000000000000E+00 -0.9000195867608E-03
 0.1281418587904E-02 -0.7129237694719E-02  0.0000000000000E+00 -0.6835708147598E-03
 0.1335779989534E-02 -0.7129675397394E-02  0.0000000000000E+00 -0.4694316070661E-03
 0.1366419636479E-02 -0.7117158985638E-02  0.0000000000000E+00 -0.2596082090892E-03
 0.1376571309621E-02 -0.7094269053021E-02  0.0000000000000E+00 -0.5351811305188E-04
 0.1368743608392E-02 -0.7062637028512E-02  0.0000000000000E+00  0.1507714644304E-03
 0.1344723135020E-02 -0.7023015350034E-02  0.0000000000000E+00  0.3555876206399E-03
 0.1305695242294E-02 -0.6975401644511E-02  0.0000000000000E+00  0.5629276605995E-03
 0.1252439828270E-02 -0.6919188905101E-02  0.0000000000000E+00  0.7738834813357E-03
 0.1185587514323E-02 -0.6853339990513E-02  0.0000000000000E+00  0.9882047041154E-03
 0.1105937111383E-02 -0.6776603867680E-02  0.0000000000000E+00  0.1204003843141E-02
 0.1014804382651E-02 -0.6687764350550E-02  0.0000000000000E+00  0.1417667450002E-02
 0.9143235483152E-03 -0.6585868941262E-02  0.0000000000000E+00  0.1624047253409E-02
 0.8076560132842E-03 -0.6470463775139E-02  0.0000000000000E+00  0.1816921769728E-02
 0.6991704075531E-03 -0.6342115811027E-02  0.0000000000000E+00  0.1989861818410E-02
 0.5942118807210E-03 -0.6202459022490E-02  0.0000000000000E+00  0.2136746875491E-02
 0.4984904509999E-03 -0.6053411582313E-02  0.0000000000000E+00  0.2251235179358E-02
 0.4177847802831E-03 -0.5896703267662E-02  0.0000000000000E+00  0.2326041988612E-02
 0.3580439074640E-03 -0.5733934830082E-02  0.0000000000000E+00  0.2352492138606E-02
 0.3257260412733E-03 -0.5566915576096E-02  0.0000000000000E+00  0.2320397033009E-02
 0.3282523207401E-03 -0.5398109381550E-02  0.0000000000000E+00  0.2218302783242E-02
 0.3744906848498E-03 -0.5231101195967E-02  0.0000000000000E+00  0.2034152190278E-02
 0.4752116926926E-03 -0.5071053842620E-02  0.0000000000000E+00  0.1756413607339E-02
 0.6434544551585E-03 -0.4925129411799E-02  0.0000000000000E+00  0.1375770126034E-02
 0.8947803941729E-03 -0.4802733173817E-02  0.0000000000000E+00  0.8872963288128E-03
 0.1247455033301E-02 -0.4715536493137E-02  0.0000000000000E+00  0.2931005258856E-03
 0.1721987972859E-02 -0.4677389887308E-02  0.0000000000000E+00 -0.3935978533453E-03
 0.2339255437751E-02 -0.4703395666473E-02  0.0000000000000E+00 -0.1143168049183E-02
 0.3116924906525E-02 -0.4807365480383E-02  0.0000000000000E+00 -0.1905028419522E-02
 0.4063933021741E-02 -0.4997593823338E-02  0.0000000000000E+00 -0.2605580612581E-02
 0.5173503212852E-02 -0.5271325659979E-02  0.0000000000000E+00 -0.3151367478924E-02
 0.6416399487699E-02 -0.5609313531348E-02  0.0000000000000E+00 -0.3440116614932E-02
 0.7737291954205E-02 -0.5972826626023E-02  0.0000000000000E+00 -0.3379833252763E-02
 0.9056871952569E-02 -0.6305819931256E-02  0.0000000000000E+00 -0.2914288092299E-02
 0.1027472912541E-01 -0.6535884187851E-02  0.0000000000000E+00 -0.2029691491555E-02
 0.1048524985819E-03 -0.6505549366207E-02  0.0000000000000E+00 -0.1550079906500E-02
 0.3177609685228E-03 -0.6634014345144E-02  0.0000000000000E+00 -0.1572120165257E-02
 0.5294059846518E-03 -0.6756042016839E-02  0.0000000000000E+00 -0.1529278729997E-02
 0.7268875186827E-03 -0.6862893546229E-02  0.0000000000000E+00 -0.1426209637965E-02
 0.9000760005285E-03 -0.6948470415223E-02  0.0000000000000E+00 -0.1275724710016E-02
 0.1043329279172E-02 -0.7010377327952E-02  0.0000000000000E+00 -0.1093749064808E-02
 0.1155211957046E-02 -0.7049383427638E-02  0.0000000000000E+00 -0.8947423127250E-03
 0.1237157849464E-02 -0.7068126548041E-02  0.0000000000000E+00 -0.6892420823465E-03
 0.1292018572791E-02 -0.7069856424914E-02  0.0000000000000E+00 -0.4834336761790E-03
 0.1322985461183E-02 -0.7057583986138E-02  0.0000000000000E+00 -0.2798973027112E-03
 0.1332969863364E-02 -0.7033652801689E-02  0.0000000000000E+00 -0.7875034950394E-04
 0.1324339126935E-02 -0.6999603355106E-02  0.0000000000000E+00  0.1212535762738E-03
 0.1298876635581E-02 -0.6956196474173E-02  0.0000000000000E+00  0.3218209449522E-03
 0.1257872433078E-02 -0.6903511767096E-02  0.0000000000000E+00  0.5244079533058E-03
 0.1202300102022E-02 -0.6841088774510E-02  0.0000000000000E+00  0.7296542964256E-03
 0.1133055905050E-02 -0.6768098511712E-02  0.0000000000000E+00  0.9369662259227E-03
 0.1051251643538E-02 -0.6683552894516E-02  0.0000000000000E+00  0.1144249258513E-02
 0.9585276258184E-03 -0.6586537246659E-02  0.0000000000000E+00  0.1347835348135E-02
 0.8573154736654E-03 -0.6476416841292E-02  0.0000000000000E+00  0.1542654089819E-02
 0.7510203370175E-03 -0.6353050142530E-02  0.0000000000000E+00  0.1722635852819E-02
 0.6441879873932E-03 -0.6217269782630E-02  0.0000000000000E+00  0.1881507825709E-02
 0.5423133769746E-03 -0.6070935283805E-02  0.0000000000000E+00  0.2013245155507E-02
 0.4513105482664E-03 -0.5916235886838E-02  0.0000000000000E+00  0.2111529449317E-02
 0.3772631645074E-03 -0.5755281629169E-02  0.0000000000000E+00  0.2169108663077E-02
 0.3265188007243E-03 -0.5590170070936E-02  0.0000000000000E+00  0.2177473255861E-02
 0.3059818088867E-03 -0.5423295109890E-02  0.0000000000000E+00  0.2126848232018E-02
 0.3234983688333E-03 -0.5257747566061E-02  0.0000000000000E+00  0.2006531575444E-02
 0.3882559125779E-03 -0.5097727009405E-02  0.0000000000000E+00  0.1805628167419E-02
 0.5111331196572E-03 -0.4948927892365E-02  0.0000000000000E+00  0.1514240953849E-02
 0.7049238559074E-03 -0.4818857549516E-02  0.0000000000000E+00  0.1125200362151E-02
 0.9844003946509E-03 -0.4716941211369E-02  0.0000000000000E+00  0.6362286599815E-03
 0.1366246841778E-02 -0.4654365311988E-02  0.0000000000000E+00  0.5245201080850E-04
 0.1868318896468E-02 -0.4643731637141E-02  0.0000000000000E+00 -0.6099938818829E-03
 0.2507588282849E-02 -0.4697901681431E-02  0.0000000000000E+00 -0.1319657793037E-02
 0.3296700935889E-02 -0.4827475578054E-02  0.0000000000000E+00 -0.2026678624550E-02
 0.4239134381603E-02 -0.5037024768040E-02  0.0000000000000E+00 -0.2662361133455E-02
 0.5323580486605E-02 -0.5320601187726E-02  0.0000000000000E+00 -0.3143495914359E-02
 0.6519150930622E-02 -0.5657814740567E-02  0.0000000000000E+00 -0.3382977187399E-02
 0.7773402656793E-02 -0.6012322727037E-02  0.0000000000000E+00 -0.3306500439607E-02
 0.9016052893627E-02 -0.6334665813703E-02  0.0000000000000E+00 -0.2870662666752E-02
 0.1015739334056E-01 -0.6565009411325E-02  0.0000000000000E+00 -0.2091348106584E-02
 0.1002441414130E-03 -0.6456615196474E-02  0.0000000000000E+00 -0.1475187066331E-02
 0.3035157703404E-03 -0.6579617282182E-02  0.0000000000000E+00 -0.1500060071970E-02
 0.5055815004194E-03 -0.6696846737553E-02  0.0000000000000E+00 -0.1465598336892E-02
 0.6949950661283E-03 -0.6800459463664E-02  0.0000000000000E+00 -0.1375416024846E-02
 0.8624589564208E-03 -0.6884690109919E-02  0.0000000000000E+00 -0.1240096260450E-02
 0.1002368358729E-02 -0.6946850244298E-02  0.0000000000000E+00 -0.1073285426030E-02
 0.1112769066647E-02 -0.6987036657104E-02  0.0000000000000E+00 -0.8878743690938E-03
 0.1194368482270E-02 -0.7007140066985E-02  0.0000000000000E+00 -0.6937218959651E-03
 0.1249342161438E-02 -0.7009787153637E-02  0.0000000000000E+00 -0.4970299611704E-03
 0.1280375374249E-02 -0.6997559462642E-02  0.0000000000000E+00 -0.3007966273236E-03
 0.1290064384686E-02 -0.6972552972273E-02  0.0000000000000E+00 -0.1057217771265E-03
 0.1280628510966E-02 -0.6936201725866E-02  0.0000000000000E+00  0.8883420272175E-04
 0.1253837235829E-02 -0.6889263428267E-02  0.0000000000000E+00  0.2840130567612E-03
 0.1211073824073E-02 -0.6831893767884E-02  0.0000000000000E+00  0.4807766890776E-03
 0.1153492046603E-02 -0.6763775833445E-02  0.0000000000000E+00  0.6793596079116E-03
 0.1082235770029E-02 -0.6684284429494E-02  0.0000000000000E+00  0.8788735285956E-03
 0.9987064537816E-03 -0.6592685491571E-02  0.0000000000000E+00  0.1077062485923E-02
 0.9048434373249E-03 -0.6488352351176E-02  0.0000000000000E+00  0.1270238835922E-02
 0.8033543602989E-03 -0.6370953256182E-02  0.0000000000000E+00  0.1453432574135E-02
 0.6978763958072E-03 -0.6240646822792E-02  0.0000000000000E+00  0.1620743180578E-02
 0.5931314008430E-03 -0.6098524707905E-02  0.0000000000000E+00  0.1766075070296E-02
 0.4947671296538E-03 -0.5946669528774E-02  0.0000000000000E+00  0.1883534720945E-02
 0.4088966204000E-03 -0.5787535714797E-02  0.0000000000000E+00  0.1966887772730E-02
 0.3418853759491E-03 -0.5623595922211E-02  0.0000000000000E+00  0.2008994198454E-02
 0.3004341979901E-03 -0.5457410826260E-02  0.0000000000000E+00  0.2001591927472E-02
 0.2918263624707E-03 -0.5291907661253E-02  0.0000000000000E+00  0.1935388820473E-02
 0.3242448520924E-03 -0.5130733354116E-02  0.0000000000000E+00  0.1800479165487E-02
 0.4070869736824E-03 -0.4978607292576E-02  0.0000000000000E+00  0.1587134806510E-02
 0.5512086449971E-03 -0.4841631388322E-02  0.0000000000000E+00  0.1287032986824E-02
 0.7690131102068E-03 -0.4727503501155E-02  0.0000000000000E+00  0.8949830127798E-03
 0.1074345923158E-02 -0.4645493174497E-02  0.0000000000000E+00  0.4110185648488E-03
 0.1482229182107E-02 -0.4606135142720E-02  0.0000000000000E+00 -0.1572835101652E-03
 0.2007930290965E-02 -0.4620692781784E-02  0.0000000000000E+00 -0.7916952711953E-03
 0.2664846674810E-02 -0.4699876982717E-02  0.0000000000000E+00 -0.1459942003135E-02
 0.3461301167899E-02 -0.4851444980570E-02  0.0000000000000E+00 -0.2113790227025E-02
 0.4396382234509E-02 -0.5076920809468E-02  0.0000000000000E+00 -0.2689805604729E-02
 0.5455520770099E-02 -0.5368017526260E-02  0.0000000000000E+00 -0.3114269171948E-02
 0.6607130477728E-02 -0.5703883565077E-02  0.0000000000000E+00 -0.3313097093795E-02
 0.7802134470796E-02 -0.6050657356136E-02  0.0000000000000E+00 -0.3225906905528E-02
 0.8976582021874E-02 -0.6364067072703E-02  0.0000000000000E+00 -0.2821154619843E-02
 0.1006263287371E-01 -0.6597175241544E-02  0.0000000000000E+00 -0.2115646306334E-02
 0.9600897724024E-04 -0.6409150043929E-02  0.0000000000000E+00 -0.1403477385989E-02
 0.2904466295363E-03 -0.6527088072197E-02  0.0000000000000E+00 -0.1430919460096E-02
 0.4836916863683E-03 -0.6639779723340E-02  0.0000000000000E+00 -0.1403983013512E-02
 0.6655088528729E-03 -0.6740131970019E-02  0.0000000000000E+00 -0.1325489509571E-02
 0.8273462647310E-03 -0.6822704300603E-02  0.0000000000000E+00 -0.1204213593408E-02
 0.9637061357457E-03 -0.6884620059454E-02  0.0000000000000E+00 -0.1051850850276E-02
 0.1072255865066E-02 -0.6925444608880E-02  0.0000000000000E+00 -0.8798500109820E-03
 0.1153109119943E-02 -0.6946434591008E-02  0.0000000000000E+00 -0.6973489189272E-03
 0.1207853986190E-02 -0.6949656541315E-02  0.0000000000000E+00 -0.5104429657748E-03
 0.1238713550974E-02 -0.6937283679402E-02  0.0000000000000E+00 -0.3224148965363E-03
 0.1247982518501E-02 -0.6911161906049E-02  0.0000000000000E+00 -0.1344377938695E-03
 0.1237730024220E-02 -0.6872608200230E-02  0.0000000000000E+00  0.5360138018787E-04
 0.1209703084295E-02 -0.6822366892456E-02  0.0000000000000E+00  0.2423390264267E-03
 0.1165366855146E-02 -0.6760662311082E-02  0.0000000000000E+00  0.4322919981753E-03
 0.1106041170280E-02 -0.6687315057257E-02  0.0000000000000E+00  0.6233359292048E-03
 0.1033099441470E-02 -0.6601896302472E-02  0.0000000000000E+00  0.8143327535381E-03
 0.9482109927905E-03 -0.6503915256622E-02  0.0000000000000E+00  0.1002904713922E-02
 0.8535916523907E-03 -0.6393019643041E-02  0.0000000000000E+00  0.1185374719702E-02
 0.7522067314353E-03 -0.6269166848318E-02  0.0000000000000E+00  0.1356893791840E-02
 0.6479150377944E-03 -0.6132804322053E-02  0.0000000000000E+00  0.1511748166232E-02
 0.5456125101462E-03 -0.5985276095380E-02  0.0000000000000E+00  0.1644040626793E-02
 0.4511006475101E-03 -0.5828884596584E-02  0.0000000000000E+00  0.1748042313814E-02
 0.3706851954552E-03 -0.5666342824761E-02  0.0000000000000E+00  0.1817656777856E-02
 0.3109915631263E-03 -0.5500468830241E-02  0.0000000000000E+00  0.1845924834465E-02
 0.2790326884452E-03 -0.5334254617962E-02  0.0000000000000E+00  0.1824901297584E-02
 0.2824105099652E-03 -0.5171112822969E-02  0.0000000000000E+00  0.1745832386472E-02
 0.3295663582609E-03 -0.5015180766020E-02  0.0000000000000E+00  0.1599637148844E-02
 0.4300116729062E-03 -0.4871611397439E-02  0.0000000000000E+00  0.1377739997487E-02
 0.5944693384182E-03 -0.4746804969681E-02  0.0000000000000E+00  0.1073310824325E-02
 0.8348370578523E-03 -0.4648520744313E-02  0.0000000000000E+00  0.6829529585331E-03
 0.1163937644320E-02 -0.4585736473348E-02  0.0000000000000E+00  0.2086795001861E-03
 0.1595099203478E-02 -0.4568221694398E-02  0.0000000000000E+00 -0.3400009596002E-03
 0.2141106050543E-02 -0.4605869232806E-02  0.0000000000000E+00 -0.9434712280899E-03
 0.2812110252679E-02 -0.4707366125731E-02  0.0000000000000E+00 -0.1569419400692E-02
 0.3612722411410E-02 -0.4877973571714E-02  0.0000000000000E+00 -0.2171874487126E-02
 0.4538510816821E-02 -0.5116730164427E-02  0.0000000000000E+00 -0.2692784744509E-02
 0.5572575548763E-02 -0.5413654873596E-02  0.0000000000000E+00 -0.3067155282798E-02
 0.6683374384544E-02 -0.5747911158368E-02  0.0000000000000E+00 -0.3232094472808E-02
 0.7824912857662E-02 -0.6087986649885E-02  0.0000000000000E+00 -0.3138594156319E-02
 0.8940536900210E-02 -0.6394595045428E-02  0.0000000000000E+00 -0.2764449451702E-02
 0.9972206010524E-02 -0.6628347440765E-02  0.0000000000000E+00 -0.2123822869415E-02
 0.9210950503903E-04 -0.6362983809800E-02  0.0000000000000E+00 -0.1334715145359E-02
 0.2784334079722E-03 -0.6476225702468E-02  0.0000000000000E+00 -0.1364520338107E-02
 0.4635492727111E-03 -0.6584638547137E-02  0.0000000000000E+00 -0.1344418179053E-02
 0.6382329885200E-03 -0.6681761645701E-02  0.0000000000000E+00 -0.1276619642510E-02
 0.7945954994544E-03 -0.6762460601329E-02  0.0000000000000E+00 -0.1168422253247E-02
 0.9272886488985E-03 -0.6823746161509E-02  0.0000000000000E+00 -0.1029852820393E-02
 0.1033710525666E-02 -0.6864765886940E-02  0.0000000000000E+00 -0.8710483770037E-03
 0.1113493708788E-02 -0.6886241994065E-02  0.0000000000000E+00 -0.7004149468157E-03
 0.1167721010790E-02 -0.6889743446918E-02  0.0000000000000E+00 -0.5238511154757E-03
 0.1198199321535E-02 -0.6877062539841E-02  0.0000000000000E+00 -0.3448130355740E-03
 0.1206940249455E-02 -0.6849799899372E-02  0.0000000000000E+00 -0.1648472564984E-03
 0.1195864884228E-02 -0.6809150008821E-02  0.0000000000000E+00  0.1571162003648E-04
 0.1166691593748E-02 -0.6755835864638E-02  0.0000000000000E+00  0.1970563491022E-03
 0.1120956718745E-02 -0.6690142813456E-02  0.0000000000000E+00  0.3793103521645E-03
 0.1060131728716E-02 -0.6612021257095E-02  0.0000000000000E+00  0.5620371776387E-03
 0.9858013074185E-03 -0.6521229275297E-02  0.0000000000000E+00  0.7438919514133E-03
 0.8998813919633E-03 -0.6417507116754E-02  0.0000000000000E+00  0.9224118653085E-03
 0.8048429238811E-03 -0.6300762607782E-02  0.0000000000000E+00  0.1093958236024E-02
 0.7038913698197E-03 -0.6171228092940E-02  0.0000000000000E+00  0.1253823228912E-02
 0.6010961911860E-03 -0.6029627742752E-02  0.0000000000000E+00  0.1396498124943E-02
 0.5015231117524E-03 -0.5877549701939E-02  0.0000000000000E+00  0.1516305386689E-02
 0.4111251141512E-03 -0.5717510650720E-02  0.0000000000000E+00  0.1607711954483E-02
 0.3363916386162E-03 -0.5552473044449E-02  0.0000000000000E+00  0.1664807176925E-02
 0.2841849972233E-03 -0.5385580972170E-02  0.0000000000000E+00  0.1680871994583E-02
 0.2617902453421E-03 -0.5220224507601E-02  0.0000000000000E+00  0.1648335256915E-02
 0.2770711041875E-03 -0.5060253131037E-02  0.0000000000000E+00  0.1559022035835E-02
 0.3386551041341E-03 -0.4910229820496E-02  0.0000000000000E+00  0.1404685869758E-02
 0.4560829524664E-03 -0.4775659205923E-02  0.0000000000000E+00  0.1177866213922E-02
 0.6398523450425E-03 -0.4663141492259E-02  0.0000000000000E+00  0.8731181887084E-03
 0.9012686314045E-03 -0.4580388747370E-02  0.0000000000000E+00  0.4886325754734E-03
 0.1252075055798E-02 -0.4535983771498E-02  0.0000000000000E+00  0.2806554735901E-04
 0.1703920221102E-02 -0.4538862256310E-02  0.0000000000000E+00 -0.4976278918860E-03
 0.2267251020020E-02 -0.4597562109147E-02  0.0000000000000E+00 -0.1068050301691E-02
 0.2949312210217E-02 -0.4718904561330E-02  0.0000000000000E+00 -0.1651474415044E-02
 0.3751561009545E-02 -0.4905989429604E-02  0.0000000000000E+00 -0.2204615281681E-02
 0.4666770776889E-02 -0.5155852782846E-02  0.0000000000000E+00 -0.2674742393362E-02
 0.5676451849231E-02 -0.5457329020692E-02  0.0000000000000E+00 -0.3004788704317E-02
 0.6749528449930E-02 -0.5789908634852E-02  0.0000000000000E+00 -0.3141433006522E-02
 0.7843194261264E-02 -0.6124362808556E-02  0.0000000000000E+00 -0.3045121616065E-02
 0.8906817563521E-02 -0.6425842286434E-02  0.0000000000000E+00 -0.2699937661378E-02
 0.9889555124132E-02 -0.6659899523313E-02  0.0000000000000E+00 -0.2119315723277E-02
 0.8851586906418E-04 -0.6317977363095E-02  0.0000000000000E+00 -0.1268682508199E-02
 0.2673793909277E-03 -0.6426865214756E-02  0.0000000000000E+00 -0.1300689580930E-02
 0.4450008364641E-03 -0.6531255647505E-02  0.0000000000000E+00 -0.1286861326031E-02
 0.6130024968612E-03 -0.6625220941540E-02  0.0000000000000E+00 -0.1228932109865E-02
 0.7640811870178E-03 -0.6703909441388E-02  0.0000000000000E+00 -0.1132984959328E-02
 0.8930622347288E-03 -0.6764273144475E-02  0.0000000000000E+00 -0.1007617819148E-02
 0.9971585210191E-03 -0.6805133068015E-02  0.0000000000000E+00 -0.8617833065166E-03
 0.1075616299630E-02 -0.6826763702500E-02  0.0000000000000E+00 -0.7031659586097E-03
 0.1129087816291E-02 -0.6830296429833E-02  0.0000000000000E+00 -0.5374035285972E-03
 0.1159009714041E-02 -0.6817173646919E-02  0.0000000000000E+00 -0.3680338971116E-03
 0.1167132100682E-02 -0.6788760825648E-02  0.0000000000000E+00 -0.1968876356822E-03
 0.1155233431089E-02 -0.6746128733424E-02  0.0000000000000E+00 -0.2467129338617E-04
 0.1124999334307E-02 -0.6689973176638E-02  0.0000000000000E+00  0.1484261932778E-03
 0.1078027449498E-02 -0.6620633049944E-02  0.0000000000000E+00  0.3221872493195E-03
 0.1015926585481E-02 -0.6538179776067E-02  0.0000000000000E+00  0.4959098028784E-03
 0.9404746077587E-03 -0.6442547490072E-02  0.0000000000000E+00  0.6680833524847E-03
 0.8538135044377E-03 -0.6333694205683E-02  0.0000000000000E+00  0.8361943578157E-03
 0.7586489732430E-03 -0.6211773038763E-02  0.0000000000000E+00  0.9966686553045E-03
 0.6584096998639E-03 -0.6077276692625E-02  0.0000000000000E+00  0.1144959276777E-02
 0.5573641880004E-03 -0.5931193070118E-02  0.0000000000000E+00  0.1275781068600E-02
 0.4607416926795E-03 -0.5775344632635E-02  0.0000000000000E+00  0.1383697070362E-02
 0.3746418148298E-03 -0.5612454701981E-02  0.0000000000000E+00  0.1463398646962E-02
 0.3057266022731E-03 -0.5445723930685E-02  0.0000000000000E+00  0.1509202933307E-02
 0.2610717893379E-03 -0.5278601445267E-02  0.0000000000000E+00  0.1514681106025E-02
 0.2481962154213E-03 -0.5114841393094E-02  0.0000000000000E+00  0.1472681494934E-02
 0.2751726821340E-03 -0.4958682088715E-02  0.0000000000000E+00  0.1375634523890E-02
 0.3507500979150E-03 -0.4815050051114E-02  0.0000000000000E+00  0.1216121412931E-02
 0.4844254070043E-03 -0.4689725990755E-02  0.0000000000000E+00  0.9877403677113E-03
 0.6863971984629E-03 -0.4589423933733E-02  0.0000000000000E+00  0.6863059935890E-03
 0.9673177876769E-03 -0.4521720681487E-02  0.0000000000000E+00  0.3113788612741E-03
 0.1337827479685E-02 -0.4494730731892E-02  0.0000000000000E+00 -0.1320701581010E-03
 0.1807945597783E-02 -0.4516524055480E-02  0.0000000000000E+00 -0.6320820367513E-03
 0.2385952419342E-02 -0.4594333872959E-02  0.0000000000000E+00 -0.1167995692751E-02
 0.3076517797330E-02 -0.4733289365452E-02  0.0000000000000E+00 -0.1709147943617E-02
 0.3878444220172E-02 -0.4934640430346E-02  0.0000000000000E+00 -0.2215198622928E-02
 0.4782315394320E-02 -0.5193829991525E-02  0.0000000000000E+00 -0.2638558126237E-02
 0.5768607614609E-02 -0.5498902896614E-02  0.0000000000000E+00 -0.2929291415178E-02
 0.6807034649754E-02 -0.5829888951623E-02  0.0000000000000E+00 -0.3042286112645E-02
 0.7857812156030E-02 -0.6159756870286E-02  0.0000000000000E+00 -0.2945603345694E-02
 0.8875404688163E-02 -0.6457369771545E-02  0.0000000000000E+00 -0.2628019497962E-02
 0.9814555844329E-02 -0.6692282337585E-02  0.0000000000000E+00 -0.2102485842131E-02
 0.8520422133927E-04 -0.6274016285821E-02  0.0000000000000E+00 -0.1205176304790E-02
 0.2572065050375E-03 -0.6378870993122E-02  0.0000000000000E+00 -0.1239258786342E-02
 0.4279204380778E-03 -0.6479492034332E-02  0.0000000000000E+00 -0.1231248794694E-02
 0.5896785740922E-03 -0.6570401484527E-02  0.0000000000000E+00 -0.1182502126435E-02
 0.7356936132379E-03 -0.6647005339701E-02  0.0000000000000E+00 -0.1098095998121E-02
 0.8609753735246E-03 -0.6706234813341E-02  0.0000000000000E+00 -0.9854023574151E-03
 0.9626159357442E-03 -0.6746657424839E-02  0.0000000000000E+00 -0.8523092738720E-03
 0.1039554342322E-02 -0.6768174660271E-02  0.0000000000000E+00 -0.7058038796857E-03
 0.1092079122609E-02 -0.6771536383046E-02  0.0000000000000E+00 -0.5512195148245E-03
 0.1121301099731E-02 -0.6757867718993E-02  0.0000000000000E+00 -0.3921012123472E-03
 0.1128732164575E-02 -0.6728312772805E-02  0.0000000000000E+00 -0.2304844783968E-03
 0.1116015918606E-02 -0.6683820670010E-02  0.0000000000000E+00 -0.6737669585015E-04
 0.1084802926849E-02 -0.6625056023389E-02  0.0000000000000E+00  0.9671212838722E-04
 0.1036743155329E-02 -0.6552404169627E-02  0.0000000000000E+00  0.2612754156769E-03
 0.9735688774998E-03 -0.6466048162028E-02  0.0000000000000E+00  0.4253909551437E-03
 0.8972335008113E-03 -0.6366086430163E-02  0.0000000000000E+00  0.5874219662953E-03
 0.8100852701134E-03 -0.6252680775659E-02  0.0000000000000E+00  0.7448364235139E-03
 0.7150451724809E-03 -0.6126214376022E-02  0.0000000000000E+00  0.8941493896850E-03
 0.6157485894606E-03 -0.5987425242481E-02  0.0000000000000E+00  0.1030994072001E-02
 0.5166508582010E-03 -0.5837551140577E-02  0.0000000000000E+00  0.1150327262270E-02
 0.4231368876571E-03 -0.5678637643349E-02  0.0000000000000E+00  0.1246972621970E-02
 0.3414459726667E-03 -0.5513605316050E-02  0.0000000000000E+00  0.1315871860444E-02
 0.2784001978519E-03 -0.5345879978204E-02  0.0000000000000E+00  0.1351606193841E-02
 0.2412653045532E-03 -0.5179193636824E-02  0.0000000000000E+00  0.1348078515835E-02
 0.2377578016812E-03 -0.5017630467811E-02  0.0000000000000E+00  0.1298591218191E-02
 0.2761116561495E-03 -0.4865771130170E-02  0.0000000000000E+00  0.1196193970520E-02
 0.3651403111780E-03 -0.4728847445441E-02  0.0000000000000E+00  0.1034274832395E-02
 0.5142361309963E-03 -0.4612848166223E-02  0.0000000000000E+00  0.8074200512901E-03
 0.7332423325317E-03 -0.4524527942312E-02  0.0000000000000E+00  0.5125663221884E-03
 0.1032121060566E-02 -0.4471259852448E-02  0.0000000000000E+00  0.1504239046248E-03
 0.1420414061238E-02 -0.4460642833496E-02  0.0000000000000E+00 -0.2730333193072E-03
 0.1906587915884E-02 -0.4499878532548E-02  0.0000000000000E+00 -0.7452371368125E-03
 0.2496940483825E-02 -0.4594969458481E-02  0.0000000000000E+00 -0.1245692913906E-02
 0.3193883043466E-02 -0.4749530936143E-02  0.0000000000000E+00 -0.1745160806437E-02
 0.3994002282616E-02 -0.4963245657978E-02  0.0000000000000E+00 -0.2206379822642E-02
 0.4886187476913E-02 -0.5230305629720E-02  0.0000000000000E+00 -0.2586643147108E-02
 0.5850306733014E-02 -0.5538269025630E-02  0.0000000000000E+00 -0.2842397842862E-02
 0.6857052217504E-02 -0.5867845491565E-02  0.0000000000000E+00 -0.2935525717653E-02
 0.7869438339966E-02 -0.6194039983889E-02  0.0000000000000E+00 -0.2840244533195E-02
 0.8846237459352E-02 -0.6488867923674E-02  0.0000000000000E+00 -0.2548855007168E-02
 0.9746813351276E-02 -0.6725211374410E-02  0.0000000000000E+00 -0.2073988908226E-02
 0.8215545362310E-04 -0.6231006007422E-02  0.0000000000000E+00 -0.1144005248676E-02
 0.2478515456536E-03 -0.6332131156289E-02  0.0000000000000E+00 -0.1180063901300E-02
 0.4122044987370E-03 -0.6429232187487E-02  0.0000000000000E+00 -0.1177500805627E-02
 0.5681444775788E-03 -0.6517211380926E-02  0.0000000000000E+00 -0.1137364667005E-02
 0.7093373330281E-03 -0.6591707360780E-02  0.0000000000000E+00 -0.1063893028680E-02
 0.8309797235845E-03 -0.6649656975740E-02  0.0000000000000E+00 -0.9634026819060E-03
 0.9300919165074E-03 -0.6689432601953E-02  0.0000000000000E+00 -0.8428273380946E-03
 0.1005371386213E-02 -0.6710626665763E-02  0.0000000000000E+00 -0.7084890984113E-03
 0.1056802041865E-02 -0.6713658951067E-02  0.0000000000000E+00 -0.5653889840553E-03
 0.1085210817398E-02 -0.6699370071749E-02  0.0000000000000E+00 -0.4170192470017E-03
 0.1091895245055E-02 -0.6668698885850E-02  0.0000000000000E+00 -0.2655512331030E-03
 0.1078373450985E-02 -0.6622477425959E-02  0.0000000000000E+00 -0.1122274517090E-03
 0.1046260045103E-02 -0.6561336678351E-02  0.0000000000000E+00  0.4217912693479E-04
 0.9972492758329E-03 -0.6485701797378E-02  0.0000000000000E+00  0.1969234788138E-03
 0.9331836100490E-03 -0.6395857797783E-02  0.0000000000000E+00  0.3509072113409E-03
 0.8561749756847E-03 -0.6292055096106E-02  0.0000000000000E+00  0.5024047138879E-03
 0.7687588782911E-03 -0.6174644848471E-02  0.0000000000000E+00  0.6488958632565E-03
 0.6740529120299E-03 -0.6044224738309E-02  0.0000000000000E+00  0.7870084283162E-03
 0.5758829410739E-03 -0.5901762583077E-02  0.0000000000000E+00  0.9125745995223E-03
 0.4788784057200E-03 -0.5748731307162E-02  0.0000000000000E+00  0.1020811035090E-02
 0.3885706881635E-03 -0.5587387145243E-02  0.0000000000000E+00  0.1106820888540E-02
 0.3113302814392E-03 -0.5420836999048E-02  0.0000000000000E+00  0.1165819350052E-02
 0.2541257768279E-03 -0.5252717429676E-02  0.0000000000000E+00  0.1192682622708E-02
 0.2243900498700E-03 -0.5087020480116E-02  0.0000000000000E+00  0.1181678842105E-02
 0.2300038190228E-03 -0.4928126862984E-02  0.0000000000000E+00  0.1126589229140E-02
 0.2793195103923E-03 -0.4780915395568E-02  0.0000000000000E+00  0.1021085619659E-02
 0.3811665629078E-03 -0.4650869740995E-02  0.0000000000000E+00  0.8593306826291E-03
 0.5447840746003E-03 -0.4544126954750E-02  0.0000000000000E+00  0.6368177113444E-03
 0.7796201907443E-03 -0.4467422065793E-02  0.0000000000000E+00  0.3514622133387E-03
 0.1094930411930E-02 -0.4427874088047E-02  0.0000000000000E+00  0.4908349404142E-05
 0.1499184674911E-02 -0.4432541357418E-02  0.0000000000000E+00 -0.3961562495538E-03
 0.1999391775084E-02 -0.4487777190479E-02  0.0000000000000E+00 -0.8389003813665E-03
 0.2600055774921E-02 -0.4598442458265E-02  0.0000000000000E+00 -0.1303347644151E-02
 0.3301623724459E-02 -0.4766813503707E-02  0.0000000000000E+00 -0.1761941982080E-02
 0.4098847107217E-02 -0.4991257559822E-02  0.0000000000000E+00 -0.2180543246738E-02
 0.4979323553728E-02 -0.5264998112017E-02  0.0000000000000E+00 -0.2521027964869E-02
 0.5922629308708E-02 -0.5575336706030E-02  0.0000000000000E+00 -0.2745523797487E-02
 0.6900530903099E-02 -0.5903736703885E-02  0.0000000000000E+00 -0.2821860090516E-02
 0.7878590163949E-02 -0.6227059634396E-02  0.0000000000000E+00 -0.2729239312408E-02
 0.8819253400153E-02 -0.6520010237079E-02  0.0000000000000E+00 -0.2462646745971E-02
 0.9685806487936E-02 -0.6758302882791E-02  0.0000000000000E+00 -0.2034403299938E-02
 0.7935420690882E-04 -0.6188867918193E-02  0.0000000000000E+00 -0.1084987672503E-02
 0.2392631933372E-03 -0.6286552981598E-02  0.0000000000000E+00 -0.1122944741907E-02
 0.3977676415055E-03 -0.6380379799188E-02  0.0000000000000E+00 -0.1125525188726E-02
 0.5483019790433E-03 -0.6465572691976E-02  0.0000000000000E+00 -0.1093522410351E-02
 0.6849295686386E-03 -0.6537979025802E-02  0.0000000000000E+00 -0.1030466744858E-02
 0.8030305829698E-03 -0.6594559342909E-02  0.0000000000000E+00 -0.9417632654844E-03
 0.8995904509407E-03 -0.6633537448635E-02  0.0000000000000E+00 -0.8334908878633E-03
 0.9731192693710E-03 -0.6654251152128E-02  0.0000000000000E+00 -0.7113434368855E-03
 0.1023348063802E-02 -0.6656836711003E-02  0.0000000000000E+00 -0.5799735167576E-03
 0.1050858733270E-02 -0.6641882102310E-02  0.0000000000000E+00 -0.4427730125896E-03
 0.1056758054753E-02 -0.6610138341100E-02  0.0000000000000E+00 -0.3019893779610E-03
 0.1042449012381E-02 -0.6562326684081E-02  0.0000000000000E+00 -0.1590403865893E-03
 0.1009510486626E-02 -0.6499043341184E-02  0.0000000000000E+00 -0.1490721868340E-04
 0.9596738472372E-03 -0.6420747186979E-02  0.0000000000000E+00  0.1294750190451E-03
 0.8948791831162E-03 -0.6327815479944E-02  0.0000000000000E+00  0.2728737483460E-03
 0.8173806324046E-03 -0.6220638031417E-02  0.0000000000000E+00  0.4135099910734E-03
 0.7298827614199E-03 -0.6099740643722E-02  0.0000000000000E+00  0.5489041648187E-03
 0.6356817876471E-03 -0.5965919694457E-02  0.0000000000000E+00  0.6758190666155E-03
 0.5387780966117E-03 -0.5820356880973E-02  0.0000000000000E+00  0.7903040533500E-03
 0.4439620805892E-03 -0.5664744828901E-02  0.0000000000000E+00  0.8878528497932E-03
 0.3569014085446E-03 -0.5501536920396E-02  0.0000000000000E+00  0.9638655806104E-03
 0.2840881338251E-03 -0.5334014255736E-02  0.0000000000000E+00  0.1013851287426E-02
 0.2326233191663E-03 -0.5166008675846E-02  0.0000000000000E+00  0.1033007060976E-02
 0.2100850451351E-03 -0.5001749154176E-02  0.0000000000000E+00  0.1015992618990E-02
 0.2244877633342E-03 -0.4845880508996E-02  0.0000000000000E+00  0.9570841485280E-03
 0.2842651050199E-03 -0.4703538424323E-02  0.0000000000000E+00  0.8505693609101E-03
 0.3982223178753E-03 -0.4580410301791E-02  0.0000000000000E+00  0.6913445549702E-03
 0.5754082406864E-03 -0.4482730357467E-02  0.0000000000000E+00  0.4757225631593E-03
 0.8248514045205E-03 -0.4417166242832E-02  0.0000000000000E+00  0.2024533720170E-03
 0.1155101907912E-02 -0.4390548836071E-02  0.0000000000000E+00 -0.1260913937315E-03
 0.1573602149700E-02 -0.4409389294379E-02  0.0000000000000E+00 -0.5027738495503E-03
 0.2086010051771E-02 -0.4479229459352E-02  0.0000000000000E+00 -0.9147986776090E-03
 0.2695222509615E-02 -0.4603886069496E-02  0.0000000000000E+00 -0.1342990605284E-02
 0.3399991388934E-02 -0.4784462981750E-02  0.0000000000000E+00 -0.1761658061038E-02
 0.4193559476258E-02 -0.5018232638837E-02  0.0000000000000E+00 -0.2139757297037E-02
 0.5062556554083E-02 -0.5297680601624E-02  0.0000000000000E+00 -0.2443429978731E-02
 0.5986496160568E-02 -0.5610021306735E-02  0.0000000000000E+00 -0.2639842716125E-02
 0.6938248721278E-02 -0.5937497920398E-02  0.0000000000000E+00 -0.2701879725310E-02
 0.7885671562812E-02 -0.6258645673457E-02  0.0000000000000E+00 -0.2612792478952E-02
 0.8794368740163E-02 -0.6550478737847E-02  0.0000000000000E+00 -0.2369616054378E-02
 0.9630995808826E-02 -0.6791145001691E-02  0.0000000000000E+00 -0.1984289234423E-02
 0.7678809657446E-04 -0.6147536224596E-02  0.0000000000000E+00 -0.1027949703506E-02
 0.2313996442509E-03 -0.6242059169869E-02  0.0000000000000E+00 -0.1067744497277E-02
 0.3845393068765E-03 -0.6332854207763E-02  0.0000000000000E+00 -0.1075220166092E-02
 0.5300683261146E-03 -0.6415419132995E-02  0.0000000000000E+00 -0.1050951970245E-02
 0.6623986190348E-03 -0.6485787901768E-02  0.0000000000000E+00 -0.9978688069356E-03
 0.7770869742169E-03 -0.6540956793011E-02  0.0000000000000E+00 -0.9205841893851E-03
 0.8711116440348E-03 -0.6579038202002E-02  0.0000000000000E+00 -0.8244110535136E-03
 0.9428398926632E-03 -0.6599161507439E-02  0.0000000000000E+00 -0.7144533453918E-03
 0.9917948021123E-03 -0.6601221138880E-02  0.0000000000000E+00 -0.5950078803052E-03
 0.1018348725519E-02 -0.6585582759152E-02  0.0000000000000E+00 -0.4693288798507E-03
 0.1023440441642E-02 -0.6552827425734E-02  0.0000000000000E+00 -0.3396887649534E-03
 0.1008368565658E-02 -0.6503573113477E-02  0.0000000000000E+00 -0.2076267089968E-03
 0.9746773005952E-03 -0.6438381113491E-02  0.0000000000000E+00 -0.7428126494823E-04
 0.9241287793232E-03 -0.6357738444114E-02  0.0000000000000E+00  0.5926797888428E-04
 0.8587488743136E-03 -0.6262104992093E-02  0.0000000000000E+00  0.1916939449454E-03
 0.7809183721878E-03 -0.6151997271655E-02  0.0000000000000E+00  0.3211976658424E-03
 0.6934934720414E-03 -0.6028100880102E-02  0.0000000000000E+00  0.4453670252821E-03
 0.5999316592538E-03 -0.5891394882797E-02  0.0000000000000E+00  0.5611210114612E-03
 0.5043921041193E-03 -0.5743258549560E-02  0.0000000000000E+00  0.6647435698868E-03
 0.4118126893080E-03 -0.5585588095590E-02  0.0000000000000E+00  0.7520217660826E-03
 0.3279864469139E-03 -0.5421019657108E-02  0.0000000000000E+00  0.8186686564506E-03
 0.2595165806930E-03 -0.5252995428505E-02  0.0000000000000E+00  0.8605048357821E-03
 0.2136224670939E-03 -0.5085526361123E-02  0.0000000000000E+00  0.8730696235949E-03
 0.1980067263553E-03 -0.4923055363504E-02  0.0000000000000E+00  0.8514343100902E-03
 0.2207902709158E-03 -0.4770460393135E-02  0.0000000000000E+00  0.7903788126686E-03
 0.2904562152754E-03 -0.4633096013413E-02  0.0000000000000E+00  0.6847930151734E-03
 0.4157536011733E-03 -0.4516810924180E-02  0.0000000000000E+00  0.5302596428715E-03
 0.6055150144250E-03 -0.4427893906743E-02  0.0000000000000E+00  0.3238203955511E-03
 0.8683384020041E-03 -0.4372909168105E-02  0.0000000000000E+00  0.6491825437371E-04
 0.1212084572758E-02 -0.4358379661616E-02  0.0000000000000E+00 -0.2435412203100E-03
 0.1643225956200E-02 -0.4390277781071E-02  0.0000000000000E+00 -0.5942061155611E-03
 0.2166183369009E-02 -0.4473382840682E-02  0.0000000000000E+00 -0.9745714755887E-03
 0.2782426734113E-02 -0.4610568411001E-02  0.0000000000000E+00 -0.1366486772229E-02
 0.3489255334154E-02 -0.4801920908362E-02  0.0000000000000E+00 -0.1746242734028E-02
 0.4278680641468E-02 -0.5043809013045E-02  0.0000000000000E+00 -0.2085822138624E-02
 0.5136621838259E-02 -0.5328166225939E-02  0.0000000000000E+00 -0.2355312031628E-02
 0.6042690304888E-02 -0.5642240807780E-02  0.0000000000000E+00 -0.2526340956659E-02
 0.6970844599481E-02 -0.5969048204524E-02  0.0000000000000E+00 -0.2576093248793E-02
 0.7890996766567E-02 -0.6288621333869E-02  0.0000000000000E+00 -0.2491118818225E-02
 0.8771479181217E-02 -0.6579966982644E-02  0.0000000000000E+00 -0.2270004937423E-02
 0.9581853961971E-02 -0.6823331332241E-02  0.0000000000000E+00 -0.1924201675484E-02
 0.7444709709097E-04 -0.6106955381134E-02  0.0000000000000E+00 -0.9727238018944E-03
 0.2242267136819E-03 -0.6198584779151E-02  0.0000000000000E+00 -0.1014309263511E-02
 0.3724609850927E-03 -0.6286587399910E-02  0.0000000000000E+00 -0.1026476450651E-02
 0.5133736440393E-03 -0.6366693999719E-02  0.0000000000000E+00 -0.1009608822604E-02
 0.6416823381905E-03 -0.6435104997759E-02  0.0000000000000E+00 -0.9661183749957E-03
 0.7531114755239E-03 -0.6488860162458E-02  0.0000000000000E+00 -0.8999275376049E-03
 0.8446526039844E-03 -0.6525990144547E-02  0.0000000000000E+00 -0.8156617193879E-03
 0.9145666378298E-03 -0.6545454985023E-02  0.0000000000000E+00 -0.7178731639627E-03
 0.9622075050008E-03 -0.6546944345244E-02  0.0000000000000E+00 -0.6105018359398E-03
 0.9877700582530E-03 -0.6530629940235E-02  0.0000000000000E+00 -0.4966354889758E-03
 0.9920465910144E-03 -0.6496940645663E-02  0.0000000000000E+00 -0.3785281363743E-03
 0.9762421615778E-03 -0.6446399345223E-02  0.0000000000000E+00 -0.2577924331211E-03
 0.9418679177889E-03 -0.6379533023819E-02  0.0000000000000E+00 -0.1356777280972E-03
 0.8907110988367E-03 -0.6296851748354E-02  0.0000000000000E+00 -0.1336565659363E-04
 0.8248722432491E-03 -0.6198888611134E-02  0.0000000000000E+00  0.1077593091273E-03
 0.7468439704232E-03 -0.6086274163339E-02  0.0000000000000E+00  0.2259094048757E-03
 0.6596174173637E-03 -0.5959838897888E-02  0.0000000000000E+00  0.3387651794403E-03
 0.5667945522328E-03 -0.5820728420329E-02  0.0000000000000E+00  0.4434217698302E-03
 0.4726778103505E-03 -0.5670502938398E-02  0.0000000000000E+00  0.5364142376320E-03
 0.3823389026516E-03 -0.5511245599227E-02  0.0000000000000E+00  0.6138381850717E-03
 0.3016847993061E-03 -0.5345760199428E-02  0.0000000000000E+00  0.6717339883970E-03
 0.2374189846958E-03 -0.5177636199113E-02  0.0000000000000E+00  0.7062489875987E-03
 0.1968651801838E-03 -0.5011047072734E-02  0.0000000000000E+00  0.7132820000437E-03
 0.1878313826655E-03 -0.4850627086769E-02  0.0000000000000E+00  0.6883303960475E-03
 0.2185210133754E-03 -0.4701458135477E-02  0.0000000000000E+00  0.6266804928301E-03
 0.2974404177372E-03 -0.4569079222933E-02  0.0000000000000E+00  0.5238049959887E-03
 0.4332582306859E-03 -0.4459463644696E-02  0.0000000000000E+00  0.3759219699976E-03
 0.6345749258348E-03 -0.4378920386302E-02  0.0000000000000E+00  0.1807110275481E-03
 0.9095588237934E-03 -0.4333884826279E-02  0.0000000000000E+00 -0.6182743220673E-04
 0.1265409789095E-02 -0.4330564491006E-02  0.0000000000000E+00 -0.3484321960925E-03
 0.1707697578292E-02 -0.4374413331561E-02  0.0000000000000E+00 -0.6717461372194E-03
 0.2239722619764E-02 -0.4469505318297E-02  0.0000000000000E+00 -0.1019768600695E-02
 0.2861698777869E-02 -0.4617871696533E-02  0.0000000000000E+00 -0.1375547425456E-02
 0.3569689196401E-02 -0.4818723470147E-02  0.0000000000000E+00 -0.1717424998014E-02
 0.4354707652267E-02 -0.5067689142216E-02  0.0000000000000E+00 -0.2020311602590E-02
 0.5202164513915E-02 -0.5356297975386E-02  0.0000000000000E+00 -0.2257930439659E-02
 0.6091876291736E-02 -0.5671914621990E-02  0.0000000000000E+00 -0.2405860304425E-02
 0.6998843714016E-02 -0.5998296583998E-02  0.0000000000000E+00 -0.2444950647648E-02
 0.7894807871962E-02 -0.6316809163015E-02  0.0000000000000E+00 -0.2364443353087E-02
 0.8750463669829E-02 -0.6608182420496E-02  0.0000000000000E+00 -0.2164077801160E-02
 0.9537880415550E-02 -0.6854471960315E-02  0.0000000000000E+00 -0.1854702368923E-02
 0.7232305086205E-04 -0.6067077977683E-02  0.0000000000000E+00 -0.9191475944582E-03
 0.2177163094573E-03 -0.6156074694621E-02  0.0000000000000E+00 -0.9624876319717E-03
 0.3614839463297E-03 -0.6241521487094E-02  0.0000000000000E+00 -0.9791788524715E-03
 0.4981587213024E-03 -0.6319348321038E-02  0.0000000000000E+00 -0.9694312376720E-03
 0.6227267207082E-03 -0.6385904064314E-02  0.0000000000000E+00 -0.9352075164142E-03
 0.7310698959118E-03 -0.6438276702574E-02  0.0000000000000E+00 -0.8798229283708E-03
 0.8202080372765E-03 -0.6474438853918E-02  0.0000000000000E+00 -0.8072841121617E-03
 0.8883254953517E-03 -0.6493214271495E-02  0.0000000000000E+00 -0.7216283416859E-03
 0.9346403544032E-03 -0.6494120597615E-02  0.0000000000000E+00 -0.6264421116351E-03
 0.9591986383046E-03 -0.6477161803210E-02  0.0000000000000E+00 -0.5246248599076E-03
 0.9626661800018E-03 -0.6442631829920E-02  0.0000000000000E+00 -0.4183757600705E-03
 0.9461650320312E-03 -0.6390966978931E-02  0.0000000000000E+00 -0.3093387903367E-03
 0.9111752613055E-03 -0.6322661074586E-02  0.0000000000000E+00 -0.1988319562875E-03
 0.8595041475412E-03 -0.6238242558689E-02  0.0000000000000E+00 -0.8809994681637E-04
 0.7933164563260E-03 -0.6138308545490E-02  0.0000000000000E+00  0.2144968702117E-04
 0.7152025398420E-03 -0.6023591064271E-02  0.0000000000000E+00  0.1280692924934E-03
 0.6282724628692E-03 -0.5895050622901E-02  0.0000000000000E+00  0.2295555118222E-03
 0.5362564121352E-03 -0.5753983124939E-02  0.0000000000000E+00  0.3231983123774E-03
 0.4435847878818E-03 -0.5602112813079E-02  0.0000000000000E+00  0.4057993822836E-03
 0.3554493684664E-03 -0.5441692671075E-02  0.0000000000000E+00  0.4737768729735E-03
 0.2778593364697E-03 -0.5275678527899E-02  0.0000000000000E+00  0.5235113009944E-03
 0.2176073832535E-03 -0.5107792771917E-02  0.0000000000000E+00  0.5514896391631E-03
 0.1821080380552E-03 -0.4942354641274E-02  0.0000000000000E+00  0.5539839110560E-03
 0.1792571731409E-03 -0.4784167843047E-02  0.0000000000000E+00  0.5269274638603E-03
 0.2173201064569E-03 -0.4638490968414E-02  0.0000000000000E+00  0.4661108457726E-03
 0.3048054486264E-03 -0.4511016670679E-02  0.0000000000000E+00  0.3675662621075E-03
 0.4502845488454E-03 -0.4407811765602E-02  0.0000000000000E+00  0.2280942561887E-03
 0.6621190785086E-03 -0.4335178814922E-02  0.0000000000000E+00  0.4592353792721E-04
 0.9480589955016E-03 -0.4299408550841E-02  0.0000000000000E+00 -0.1785154330819E-03
 0.1314681433509E-02 -0.4306395953015E-02  0.0000000000000E+00 -0.4417674675412E-03
 0.1766727567850E-02 -0.4361106090384E-02  0.0000000000000E+00 -0.7366524407494E-03
 0.2306494225306E-02 -0.4466969977191E-02  0.0000000000000E+00 -0.1051851710632E-02
 0.2933099233713E-02 -0.4625274802902E-02  0.0000000000000E+00 -0.1371743719125E-02
 0.3641561131034E-02 -0.4834484664952E-02  0.0000000000000E+00 -0.1676755549452E-02
 0.4422091252985E-02 -0.5089626681701E-02  0.0000000000000E+00 -0.1944609462687E-02
 0.5259747188876E-02 -0.5381941780079E-02  0.0000000000000E+00 -0.2152374232693E-02
 0.6134616881040E-02 -0.5698963695655E-02  0.0000000000000E+00 -0.2279130320650E-02
 0.7022677409849E-02 -0.6025146779018E-02  0.0000000000000E+00 -0.2308859576987E-02
 0.7897288587913E-02 -0.6343034836020E-02  0.0000000000000E+00 -0.2233002325827E-02
 0.8731189842957E-02 -0.6634847874800E-02  0.0000000000000E+00 -0.2052124021053E-02
 0.9498608298698E-02 -0.6884198682399E-02  0.0000000000000E+00 -0.1776366366937E-02
 0.7040927273032E-04 -0.6027862990925E-02  0.0000000000000E+00 -0.8670629500032E-03
 0.2118451957860E-03 -0.6114481529831E-02  0.0000000000000E+00 -0.9121303408752E-03
 0.3515673726959E-03 -0.6197606575706E-02  0.0000000000000E+00 -0.9332075284786E-03
 0.4843731253014E-03 -0.6273339223903E-02  0.0000000000000E+00 -0.9303434470570E-03
 0.6054846104856E-03 -0.6338160853813E-02  0.0000000000000E+00 -0.9051057041048E-03
 0.7109308588536E-03 -0.6389210295689E-02  0.0000000000000E+00 -0.8602722989288E-03
 0.7977706251793E-03 -0.6424421129552E-02  0.0000000000000E+00 -0.7992909678027E-03
 0.8641359515963E-03 -0.6442508760369E-02  0.0000000000000E+00 -0.7257185444203E-03
 0.9091375710991E-03 -0.6442847636865E-02  0.0000000000000E+00 -0.6427944529234E-03
 0.9326981453033E-03 -0.6425297964149E-02  0.0000000000000E+00 -0.5532136341092E-03
 0.9353754593771E-03 -0.6390035191022E-02  0.0000000000000E+00 -0.4590901510106E-03
 0.9182186366406E-03 -0.6337417574043E-02  0.0000000000000E+00 -0.3620626349292E-03
 0.8826788093061E-03 -0.6267907266957E-02  0.0000000000000E+00 -0.2634801003546E-03
 0.8305787123432E-03 -0.6182046765295E-02  0.0000000000000E+00 -0.1646149095393E-03
 0.7641375164668E-03 -0.6080488275964E-02  0.0000000000000E+00 -0.6686631711922E-04
 0.6860298735997E-03 -0.5964052902812E-02  0.0000000000000E+00  0.2808466921525E-04
 0.5994693965453E-03 -0.5833816352462E-02  0.0000000000000E+00  0.1181723817625E-03
 0.5082987034481E-03 -0.5691208530060E-02  0.0000000000000E+00  0.2008989423025E-03
 0.4170610859534E-03 -0.5538100600867E-02  0.0000000000000E+00  0.2733470530008E-03
 0.3310546191298E-03 -0.5376897954859E-02  0.0000000000000E+00  0.3322701787503E-03
 0.2563788369863E-03 -0.5210692439035E-02  0.0000000000000E+00  0.3744002793070E-03
 0.1999045630780E-03 -0.5043324707415E-02  0.0000000000000E+00  0.3965747799910E-03
 0.1691242072228E-03 -0.4879243029882E-02  0.0000000000000E+00  0.3954495766507E-03
 0.1720057627337E-03 -0.4723399472037E-02  0.0000000000000E+00  0.3674001320663E-03
 0.2168591056274E-03 -0.4581204149742E-02  0.0000000000000E+00  0.3087154197911E-03
 0.3121791513949E-03 -0.4458476194920E-02  0.0000000000000E+00  0.2159614038711E-03
 0.4664298206040E-03 -0.4361350238814E-02  0.0000000000000E+00  0.8646833318474E-04
 0.6877354515673E-03 -0.4296102896050E-02  0.0000000000000E+00 -0.8107067571111E-04
 0.9834476688214E-03 -0.4268872847532E-02  0.0000000000000E+00 -0.2859125651148E-03
 0.1359566893435E-02 -0.4285254034556E-02  0.0000000000000E+00 -0.5245526280269E-03
 0.1820084265371E-02 -0.4349759203377E-02  0.0000000000000E+00 -0.7901447953960E-03
 0.2366407848222E-02 -0.4465241692900E-02  0.0000000000000E+00 -0.1072198339897E-02
 0.2996707886725E-02 -0.4632338771847E-02  0.0000000000000E+00 -0.1356520895895E-02
 0.3705126792513E-02 -0.4848882856258E-02  0.0000000000000E+00 -0.1625631025914E-02
 0.4481235554641E-02 -0.5109416524105E-02  0.0000000000000E+00 -0.1859940569468E-02
 0.5309857599487E-02 -0.5404981807082E-02  0.0000000000000E+00 -0.2039597022547E-02
 0.6171387222524E-02 -0.5723311154623E-02  0.0000000000000E+00 -0.2146793134411E-02
 0.7042699104538E-02 -0.6049500811300E-02  0.0000000000000E+00 -0.2168197293635E-02
 0.7898575594122E-02 -0.6367129917840E-02  0.0000000000000E+00 -0.2097044631787E-02
 0.8713519604858E-02 -0.6659702984544E-02  0.0000000000000E+00 -0.1934459532564E-02
 0.9463607630677E-02 -0.6912167744052E-02  0.0000000000000E+00 -0.1689785644629E-02
 0.6870022874875E-04 -0.5989274330644E-02  0.0000000000000E+00 -0.8163152544882E-03
 0.2065939872012E-03 -0.6073763880293E-02  0.0000000000000E+00 -0.8630899948436E-03
 0.3426768169835E-03 -0.6154798969642E-02  0.0000000000000E+00 -0.8884389774746E-03
 0.4719736025064E-03 -0.6228628499054E-02  0.0000000000000E+00 -0.8922582253537E-03
 0.5899145400408E-03 -0.6291852387913E-02  0.0000000000000E+00 -0.8757635857680E-03
 0.6926653437892E-03 -0.6341661510856E-02  0.0000000000000E+00 -0.8412540547779E-03
 0.7773312434836E-03 -0.6375965676703E-02  0.0000000000000E+00 -0.7916702998122E-03
 0.8420116848738E-03 -0.6393395588912E-02  0.0000000000000E+00 -0.7301206093931E-03
 0.8857343531364E-03 -0.6393207816204E-02  0.0000000000000E+00 -0.6595056847033E-03
 0.9083210424370E-03 -0.6375140590414E-02  0.0000000000000E+00 -0.5823043861326E-03
 0.9102382579302E-03 -0.6339266334302E-02  0.0000000000000E+00 -0.5005208383878E-03
 0.8924716543000E-03 -0.6285873615997E-02  0.0000000000000E+00 -0.4157568269280E-03
 0.8564456040236E-03 -0.6215394598107E-02  0.0000000000000E+00 -0.3293591847937E-03
 0.8039940879891E-03 -0.6128381790614E-02  0.0000000000000E+00 -0.2425962731072E-03
 0.7373814053115E-03 -0.6025533812585E-02  0.0000000000000E+00 -0.1568307219604E-03
 0.6593536812916E-03 -0.5907748618762E-02  0.0000000000000E+00 -0.7365281453214E-04
 0.5732132694713E-03 -0.5776202392781E-02  0.0000000000000E+00  0.5029168747672E-05
 0.4828998685910E-03 -0.5632442724968E-02  0.0000000000000E+00  0.7694538791420E-04
 0.3930548210617E-03 -0.5478470437189E-02  0.0000000000000E+00  0.1394727358179E-03
 0.3090687907624E-03 -0.5316825652884E-02  0.0000000000000E+00  0.1897114750248E-03
 0.2371197971293E-03 -0.5150719963625E-02  0.0000000000000E+00  0.2247548766323E-03
 0.1841458727986E-03 -0.4984097452791E-02  0.0000000000000E+00  0.2417998240048E-03
 0.1577051085098E-03 -0.4821518870768E-02  0.0000000000000E+00  0.2378942191173E-03
 0.1658236287366E-03 -0.4668064506822E-02  0.0000000000000E+00  0.2098588349140E-03
 0.2168416609456E-03 -0.4529272917396E-02  0.0000000000000E+00  0.1544727493794E-03
 0.3192291119677E-03 -0.4411066032264E-02  0.0000000000000E+00  0.6880893000422E-04
 0.4813384201672E-03 -0.4319625598274E-02  0.0000000000000E+00 -0.4932374980429E-04
 0.7110652062295E-03 -0.4261189158457E-02  0.0000000000000E+00 -0.2008467405451E-03
 0.1015390134740E-02 -0.4241743213251E-02  0.0000000000000E+00 -0.3848107994425E-03
 0.1399788980767E-02 -0.4266599230686E-02  0.0000000000000E+00 -0.5977888789484E-03
 0.1867584038210E-02 -0.4339859354879E-02  0.0000000000000E+00 -0.8334026538468E-03
 0.2419406185578E-02 -0.4463865724763E-02  0.0000000000000E+00 -0.1082107684717E-02
 0.3052614987559E-02 -0.4638694819167E-02  0.0000000000000E+00 -0.1331212541143E-02
 0.3760624372509E-02 -0.4861650065311E-02  0.0000000000000E+00 -0.1565316015418E-02
 0.4532498781822E-02 -0.5126887255705E-02  0.0000000000000E+00 -0.1767397489384E-02
 0.5352915718543E-02 -0.5425317252819E-02  0.0000000000000E+00 -0.1920442965282E-02
 0.6202586787490E-02 -0.5744883138155E-02  0.0000000000000E+00 -0.2009422737829E-02
 0.7059197179919E-02 -0.6071261823749E-02  0.0000000000000E+00 -0.2023319746710E-02
 0.7898768107630E-02 -0.6388934118075E-02  0.0000000000000E+00 -0.1956833171552E-02
 0.8697314230048E-02 -0.6682505603754E-02  0.0000000000000E+00 -0.1811427337997E-02
 0.9432487032909E-02 -0.6938061579563E-02  0.0000000000000E+00 -0.1595571162562E-02
 0.6719127539088E-04 -0.5951279627403E-02  0.0000000000000E+00 -0.7667528495166E-03
 0.2019463274907E-03 -0.6033884866792E-02  0.0000000000000E+00 -0.8152208496991E-03
 0.3347829297911E-03 -0.6113059653582E-02  0.0000000000000E+00 -0.8447468506370E-03
 0.4609227239585E-03 -0.6185181351316E-02  0.0000000000000E+00 -0.8550790191933E-03
 0.5759797003095E-03 -0.6246956259000E-02  0.0000000000000E+00 -0.8471161649657E-03
 0.6762462184944E-03 -0.6295627554278E-02  0.0000000000000E+00 -0.8227266780602E-03
 0.7588790706469E-03 -0.6329093606133E-02  0.0000000000000E+00 -0.7843887973751E-03
 0.8219611080658E-03 -0.6345920480521E-02  0.0000000000000E+00 -0.7347913231280E-03
 0.8644576681369E-03 -0.6345269082108E-02  0.0000000000000E+00 -0.6765057367467E-03
 0.8861094715507E-03 -0.6326775387084E-02  0.0000000000000E+00 -0.6117869592853E-03
 0.8873069015984E-03 -0.6290423203217E-02  0.0000000000000E+00 -0.5425091486926E-03
 0.8689809069482E-03 -0.6236439439610E-02  0.0000000000000E+00 -0.4702105828256E-03
 0.8325311947530E-03 -0.6165228014554E-02  0.0000000000000E+00 -0.3962070873001E-03
 0.7797990635808E-03 -0.6077347628349E-02  0.0000000000000E+00 -0.3217350866274E-03
 0.7130851334467E-03 -0.5973534862183E-02  0.0000000000000E+00 -0.2480953745005E-03
 0.6351947167095E-03 -0.5854752485854E-02  0.0000000000000E+00 -0.1767659510224E-03
 0.5495046130136E-03 -0.5722262550917E-02  0.0000000000000E+00 -0.1094799790358E-03
 0.4600366476203E-03 -0.5577714024863E-02  0.0000000000000E+00 -0.4826489477469E-04
 0.3715156082919E-03 -0.5423220017026E-02  0.0000000000000E+00  0.4562280835563E-05
 0.2894111575069E-03 -0.5261437549392E-02  0.0000000000000E+00  0.4645880596046E-04
 0.2199680258660E-03 -0.5095681530420E-02  0.0000000000000E+00  0.7488780031253E-04
 0.1701807905233E-03 -0.4929984581780E-02  0.0000000000000E+00  0.8741305537907E-04
 0.1476618143597E-03 -0.4769003672404E-02  0.0000000000000E+00  0.8148056910920E-04
 0.1604830846032E-03 -0.4617928180501E-02  0.0000000000000E+00  0.5435743364218E-04
 0.2170039007671E-03 -0.4482404053364E-02  0.0000000000000E+00  0.3303018420719E-05
 0.3256620769815E-03 -0.4368435611319E-02  0.0000000000000E+00 -0.7412923097855E-04
 0.4946999241551E-03 -0.4282235576128E-02  0.0000000000000E+00 -0.1796998475002E-03
 0.7317991212847E-03 -0.4229994948101E-02  0.0000000000000E+00 -0.3140168597855E-03
 0.1043602807015E-02 -0.4217554107929E-02  0.0000000000000E+00 -0.4760194636881E-03
 0.1435118764338E-02 -0.4249966295818E-02  0.0000000000000E+00 -0.6624684832738E-03
 0.1909082926058E-02 -0.4330968465218E-02  0.0000000000000E+00 -0.8675656174549E-03
 0.2465456560043E-02 -0.4462458036516E-02  0.0000000000000E+00 -0.1082807545310E-02
 0.3100914426926E-02 -0.4644034482043E-02  0.0000000000000E+00 -0.1297054521288E-02
 0.3808271175155E-02 -0.4872563477463E-02  0.0000000000000E+00 -0.1496962914632E-02
 0.4576194651442E-02 -0.5141895449587E-02  0.0000000000000E+00 -0.1667963304325E-02
 0.5389280188116E-02 -0.5442860162675E-02  0.0000000000000E+00 -0.1795668032603E-02
 0.6228549384411E-02 -0.5763609683231E-02  0.0000000000000E+00 -0.1867540211254E-02
 0.7072405561569E-02 -0.6090336378207E-02  0.0000000000000E+00 -0.1874568596037E-02
 0.7897935964842E-02 -0.6408297254727E-02  0.0000000000000E+00 -0.1812645791486E-02
 0.8682438849426E-02 -0.6703033146927E-02  0.0000000000000E+00 -0.1683397121709E-02
 0.9404894663897E-02 -0.6961590132535E-02  0.0000000000000E+00 -0.1494353792548E-02
 0.6587844662557E-04 -0.5913849219849E-02  0.0000000000000E+00 -0.7182266059132E-03
 0.1978882177717E-03 -0.5994810918293E-02  0.0000000000000E+00 -0.7683786570056E-03
 0.3278604070494E-03 -0.6072353012836E-02  0.0000000000000E+00 -0.8020026271900E-03
 0.4511877406382E-03 -0.6142965315149E-02  0.0000000000000E+00 -0.8187017240524E-03
 0.5636470340805E-03 -0.6203449978366E-02  0.0000000000000E+00 -0.8190855064065E-03
 0.6616477817874E-03 -0.6251102149628E-02  0.0000000000000E+00 -0.8046318778256E-03
 0.7424016152937E-03 -0.6283818788825E-02  0.0000000000000E+00 -0.7773948877547E-03
 0.8039877847512E-03 -0.6300118420557E-02  0.0000000000000E+00 -0.7396700159895E-03
 0.8453269136908E-03 -0.6299085806811E-02  0.0000000000000E+00 -0.6937096059646E-03
 0.8660960329551E-03 -0.6280272469263E-02  0.0000000000000E+00 -0.6415397989156E-03
 0.8666230374996E-03 -0.6243586940938E-02  0.0000000000000E+00 -0.5848889921697E-03
 0.8477922005523E-03 -0.6189202084089E-02  0.0000000000000E+00 -0.5252098006762E-03
 0.8109804989632E-03 -0.6117495295011E-02  0.0000000000000E+00 -0.4637624514944E-03
 0.7580328188403E-03 -0.6029027795863E-02  0.0000000000000E+00 -0.4017272264910E-03
 0.6912776871432E-03 -0.5924565885143E-02  0.0000000000000E+00 -0.3403210268876E-03
 0.6135677877152E-03 -0.5805125296645E-02  0.0000000000000E+00 -0.2808905857511E-03
 0.5283405237673E-03 -0.5672039462869E-02  0.0000000000000E+00 -0.2249782475380E-03
 0.4396852500022E-03 -0.5527042451616E-02  0.0000000000000E+00 -0.1743562679194E-03
 0.3523958257370E-03 -0.5372342230867E-02  0.0000000000000E+00 -0.1310250213888E-03
 0.2720074762217E-03 -0.5210694790500E-02  0.0000000000000E+00 -0.9716133036314E-04
 0.2048200261839E-03 -0.5045501856394E-02  0.0000000000000E+00 -0.7492490515743E-04
 0.1578742566686E-03 -0.4880869730341E-02  0.0000000000000E+00 -0.6637889880265E-04
 0.1388261993826E-03 -0.4721535693995E-02  0.0000000000000E+00 -0.7367471656902E-04
 0.1557830618056E-03 -0.4572780079677E-02  0.0000000000000E+00 -0.9909943280284E-04
 0.2171146062672E-03 -0.4440337092663E-02  0.0000000000000E+00 -0.1449237783963E-03
 0.3312232396440E-03 -0.4330276025865E-02  0.0000000000000E+00 -0.2131390455094E-03
 0.5062472134929E-03 -0.4248828493741E-02  0.0000000000000E+00 -0.3051190275715E-03
 0.7496742618930E-03 -0.4202136378737E-02  0.0000000000000E+00 -0.4212224282797E-03
 0.1067848353493E-02 -0.4195905178292E-02  0.0000000000000E+00 -0.5603592917716E-03
 0.1465369331602E-02 -0.4234958646699E-02  0.0000000000000E+00 -0.7195721152478E-03
 0.1944469595145E-02 -0.4322716503198E-02  0.0000000000000E+00 -0.8937354597156E-03
 0.2504544078522E-02 -0.4460697164470E-02  0.0000000000000E+00 -0.1075462003190E-02
 0.3141698467689E-02 -0.4648101583000E-02  0.0000000000000E+00 -0.1255198386071E-02
 0.3848261348620E-02 -0.4881438739943E-02  0.0000000000000E+00 -0.1421629769652E-02
 0.4612594095224E-02 -0.5154321363560E-02  0.0000000000000E+00 -0.1562531137361E-02
 0.5419254037954E-02 -0.5457533972424E-02  0.0000000000000E+00 -0.1665957510700E-02
 0.6249551559181E-02 -0.5779425610760E-02  0.0000000000000E+00 -0.1721625800800E-02
 0.7082512454177E-02 -0.6106636397837E-02  0.0000000000000E+00 -0.1722276541007E-02
 0.7896126427386E-02 -0.6425081011984E-02  0.0000000000000E+00 -0.1664775619858E-02
 0.8668766275062E-02 -0.6721083874183E-02  0.0000000000000E+00 -0.1550764114021E-02
 0.9380518798182E-02 -0.6982491954121E-02  0.0000000000000E+00 -0.1386784417678E-02
 0.6475827942172E-04 -0.5876955309368E-02  0.0000000000000E+00 -0.6705896094980E-03
 0.1944074661747E-03 -0.5956510756722E-02  0.0000000000000E+00 -0.7224205641437E-03
 0.3218871205321E-03 -0.6032645757014E-02  0.0000000000000E+00 -0.7600761943707E-03
 0.4427396199690E-03 -0.6101949322150E-02  0.0000000000000E+00 -0.7830161899597E-03
 0.5528864464341E-03 -0.6161310383979E-02  0.0000000000000E+00 -0.7915830603748E-03
 0.6488453319240E-03 -0.6208075381352E-02  0.0000000000000E+00 -0.7868973577043E-03
 0.7278846901004E-03 -0.6240148105631E-02  0.0000000000000E+00 -0.7706215011000E-03
 0.7880907455317E-03 -0.6256014200008E-02  0.0000000000000E+00 -0.7446809759819E-03
 0.8283544646420E-03 -0.6254699494789E-02  0.0000000000000E+00 -0.7110192363430E-03
 0.8483044590847E-03 -0.6235687130656E-02  0.0000000000000E+00 -0.6714312580129E-03
 0.8482183646029E-03 -0.6198822670286E-02  0.0000000000000E+00 -0.6274876319578E-03
 0.8289410814351E-03 -0.6144232078281E-02  0.0000000000000E+00 -0.5805373479527E-03
 0.7918285795445E-03 -0.6072267862091E-02  0.0000000000000E+00 -0.5317645295910E-03
 0.7387257301986E-03 -0.5983490202737E-02  0.0000000000000E+00 -0.4822728006176E-03
 0.6719808744079E-03 -0.5878687048634E-02  0.0000000000000E+00 -0.4331762859868E-03
 0.5944826532729E-03 -0.5758915421279E-02  0.0000000000000E+00 -0.3856740834534E-03
 0.5097156226412E-03 -0.5625565772436E-02  0.0000000000000E+00 -0.3411041031207E-03
 0.4218223857809E-03 -0.5480441042060E-02  0.0000000000000E+00 -0.3009722928640E-03
 0.3356517207452E-03 -0.5325826604194E-02  0.0000000000000E+00 -0.2669531966510E-03
 0.2567911531316E-03 -0.5164559442545E-02  0.0000000000000E+00 -0.2408500439922E-03
 0.1915841789835E-03 -0.5000111589987E-02  0.0000000000000E+00 -0.2244391529034E-03
 0.1471077951467E-03 -0.4836648261773E-02  0.0000000000000E+00 -0.2194055389788E-03
 0.1310518763881E-03 -0.4678971531631E-02  0.0000000000000E+00 -0.2274946868543E-03
 0.1515496934260E-03 -0.4532435504014E-02  0.0000000000000E+00 -0.2505492043985E-03
 0.2169752332842E-03 -0.4402845255301E-02  0.0000000000000E+00 -0.2903800976929E-03
 0.3356954609892E-03 -0.4296320285599E-02  0.0000000000000E+00 -0.3485463867258E-03
 0.5157546557974E-03 -0.4219102541822E-02  0.0000000000000E+00 -0.4260738872963E-03
 0.7644709415139E-03 -0.4177286359031E-02  0.0000000000000E+00 -0.5231274530914E-03
 0.1087931397369E-02 -0.4176457830830E-02  0.0000000000000E+00 -0.6386579761527E-03
 0.1490390431670E-02 -0.4221243460096E-02  0.0000000000000E+00 -0.7700676959355E-03
 0.1973659454313E-02 -0.4314795365599E-02  0.0000000000000E+00 -0.9129792934692E-03
 0.2536666102438E-02 -0.4458317469029E-02  0.0000000000000E+00 -0.1061179518271E-02
 0.3175053695974E-02 -0.4650685732631E-02  0.0000000000000E+00 -0.1206724145474E-02
 0.3880764423329E-02 -0.4888124701553E-02  0.0000000000000E+00 -0.1340296342875E-02
 0.4641927074896E-02 -0.5164065703420E-02  0.0000000000000E+00 -0.1451921009721E-02
 0.5443089650305E-02 -0.5469272546234E-02  0.0000000000000E+00 -0.1531940576312E-02
 0.6265819586365E-02 -0.5792271370315E-02  0.0000000000000E+00 -0.1572128643579E-02
 0.7089667540275E-02 -0.6120080825058E-02  0.0000000000000E+00 -0.1566771369237E-02
 0.7893369863325E-02 -0.6439160502440E-02  0.0000000000000E+00 -0.1513530887655E-02
 0.8656180240216E-02 -0.6736478078902E-02  0.0000000000000E+00 -0.1413947444020E-02
 0.9359088223441E-02 -0.7000535187486E-02  0.0000000000000E+00 -0.1273533548301E-02
 0.6382767252480E-04 -0.5840571256388E-02  0.0000000000000E+00 -0.6236969377472E-03
 0.1914932386503E-03 -0.5918954551989E-02  0.0000000000000E+00 -0.6772050615768E-03
 0.3168434024059E-03 -0.5993906017676E-02  0.0000000000000E+00 -0.7188363556681E-03
 0.4355522394693E-03 -0.6062102903416E-02  0.0000000000000E+00 -0.7479075135575E-03
 0.5436701238348E-03 -0.6120513109165E-02  0.0000000000000E+00 -0.7645116778839E-03
 0.6378147688155E-03 -0.6166533517184E-02  0.0000000000000E+00 -0.7694392617330E-03
 0.7153123494467E-03 -0.6198081613295E-02  0.0000000000000E+00 -0.7639885726325E-03
 0.7742647218995E-03 -0.6213622843810E-02  0.0000000000000E+00 -0.7497356909977E-03
 0.8135461181322E-03 -0.6212139369759E-02  0.0000000000000E+00 -0.7283253102155E-03
 0.8327501843308E-03 -0.6193060503802E-02  0.0000000000000E+00 -0.7013208661025E-03
 0.8321152661400E-03 -0.6156180178759E-02  0.0000000000000E+00 -0.6701264342118E-03
 0.8124534986567E-03 -0.6101584137865E-02  0.0000000000000E+00 -0.6359733229814E-03
 0.7751013272904E-03 -0.6029601502864E-02  0.0000000000000E+00 -0.5999529792313E-03
 0.7219000760726E-03 -0.5940787915973E-02  0.0000000000000E+00 -0.5630754862406E-03
 0.6552100607234E-03 -0.5835945058102E-02  0.0000000000000E+00 -0.5263364803819E-03
 0.5779447989451E-03 -0.5716159723049E-02  0.0000000000000E+00 -0.4907737009904E-03
 0.4936228800494E-03 -0.5582865144260E-02  0.0000000000000E+00 -0.4575091394719E-03
 0.4064261489428E-03 -0.5437916967244E-02  0.0000000000000E+00 -0.4277730096354E-03
 0.3212443526802E-03 -0.5283660524124E-02  0.0000000000000E+00 -0.4029062471072E-03
 0.2437042308333E-03 -0.5122995813755E-02  0.0000000000000E+00 -0.3843320359400E-03
 0.1801817339807E-03 -0.4959448695564E-02  0.0000000000000E+00 -0.3734380673165E-03
 0.1377804359786E-03 -0.4797228655583E-02  0.0000000000000E+00 -0.3715269887274E-03
 0.1242149423028E-03 -0.4641187419956E-02  0.0000000000000E+00 -0.3799358555895E-03
 0.1476367377069E-03 -0.4496736549161E-02  0.0000000000000E+00 -0.4000645285146E-03
 0.2164198349247E-03 -0.4369736135291E-02  0.0000000000000E+00 -0.4332735718232E-03
 0.3388984937701E-03 -0.4266343396402E-02  0.0000000000000E+00 -0.4807097395342E-03
 0.5230364427368E-03 -0.4192805015813E-02  0.0000000000000E+00 -0.5430838127234E-03
 0.7760100449404E-03 -0.4155172765444E-02  0.0000000000000E+00 -0.6204131368243E-03
 0.1103694828733E-02 -0.4158932206606E-02  0.0000000000000E+00 -0.7117470000862E-03
 0.1510063987278E-02 -0.4208547474787E-02  0.0000000000000E+00 -0.8149104325886E-03
 0.1996589847121E-02 -0.4306953763783E-02  0.0000000000000E+00 -0.9263335927525E-03
 0.2561827866551E-02 -0.4455103624782E-02  0.0000000000000E+00 -0.1041021231979E-02
 0.3201057975875E-02 -0.4651617149223E-02  0.0000000000000E+00 -0.1152652376138E-02
 0.3905924447701E-02 -0.4892499333838E-02  0.0000000000000E+00 -0.1253878597881E-02
 0.4664384369153E-02 -0.5171047218526E-02  0.0000000000000E+00 -0.1336894454894E-02
 0.5460993009232E-02 -0.5478019577282E-02  0.0000000000000E+00 -0.1394202493132E-02
 0.6277535248704E-02 -0.5802093837280E-02  0.0000000000000E+00 -0.1419474579413E-02
 0.7093987880268E-02 -0.6130597053715E-02  0.0000000000000E+00 -0.1408378877285E-02
 0.7889684445201E-02 -0.6450425655401E-02  0.0000000000000E+00 -0.1359234187921E-02
 0.8644578087555E-02 -0.6749059180429E-02  0.0000000000000E+00 -0.1273388038435E-02
 0.9340372673722E-02 -0.7015518511588E-02  0.0000000000000E+00 -0.1155290377212E-02
 0.6308377054658E-04 -0.5804670998347E-02  0.0000000000000E+00 -0.5774055131563E-03
 0.1891356930911E-03 -0.5882113223341E-02  0.0000000000000E+00 -0.6325919725520E-03
 0.3127114587215E-03 -0.5956102597655E-02  0.0000000000000E+00 -0.6781512889613E-03
 0.4296017160502E-03 -0.6023395514477E-02  0.0000000000000E+00 -0.7132571662891E-03
 0.5359719525790E-03 -0.6081032114890E-02  0.0000000000000E+00 -0.7377673802862E-03
 0.6285322345842E-03 -0.6126458825504E-02  0.0000000000000E+00 -0.7521643561106E-03
 0.7046668043161E-03 -0.6157612648440E-02  0.0000000000000E+00 -0.7574053204349E-03
 0.7625003130825E-03 -0.6172949943712E-02  0.0000000000000E+00 -0.7547349358100E-03
 0.8009014484670E-03 -0.6171422855569E-02  0.0000000000000E+00 -0.7455089515025E-03
 0.8194408176451E-03 -0.6152420117633E-02  0.0000000000000E+00 -0.7310605557309E-03
 0.8183273454876E-03 -0.6115694508141E-02  0.0000000000000E+00 -0.7126215950146E-03
 0.7983463712914E-03 -0.6061297770614E-02  0.0000000000000E+00 -0.6912952915842E-03
 0.7608160466584E-03 -0.5989536993671E-02  0.0000000000000E+00 -0.6680676227710E-03
 0.7075706400028E-03 -0.5900959818351E-02  0.0000000000000E+00 -0.6438418146593E-03
 0.6409747943223E-03 -0.5796373865438E-02  0.0000000000000E+00 -0.6194824609760E-03
 0.5639560917617E-03 -0.5676884331088E-02  0.0000000000000E+00 -0.5958548839415E-03
 0.4800543088862E-03 -0.5543953112857E-02  0.0000000000000E+00 -0.5738558415469E-03
 0.3934767554639E-03 -0.5399472465688E-02  0.0000000000000E+00 -0.5544321305405E-03
 0.3091403761060E-03 -0.5245830257720E-02  0.0000000000000E+00 -0.5385847291462E-03
 0.2326982021416E-03 -0.5085971546164E-02  0.0000000000000E+00 -0.5273515146479E-03
 0.1705476181060E-03 -0.4923459589839E-02  0.0000000000000E+00 -0.5217272054905E-03
 0.1298094553211E-03 -0.4762533636682E-02  0.0000000000000E+00 -0.5226285171367E-03
 0.1182145568628E-03 -0.4608080274164E-02  0.0000000000000E+00 -0.5309820770660E-03
 0.1439258723484E-03 -0.4465552948493E-02  0.0000000000000E+00 -0.5477466296701E-03
 0.2153149233994E-03 -0.4340852194480E-02  0.0000000000000E+00 -0.5738401357809E-03
 0.3406882523207E-03 -0.4240162329550E-02  0.0000000000000E+00 -0.6100134983737E-03
 0.5279451234729E-03 -0.4169731572719E-02  0.0000000000000E+00 -0.6566890279804E-03
 0.7841507387360E-03 -0.4135576822941E-02  0.0000000000000E+00 -0.7137734142588E-03
 0.1115016720318E-02 -0.4143104598627E-02  0.0000000000000E+00 -0.7804594911048E-03
 0.1524300418317E-02 -0.4196653495982E-02  0.0000000000000E+00 -0.8550437821203E-03
 0.2013216198122E-02 -0.4298993053573E-02  0.0000000000000E+00 -0.9348088214143E-03
 0.2580039062181E-02 -0.4450886214668E-02  0.0000000000000E+00 -0.1016009331962E-02
 0.3219778187273E-02 -0.4650762601093E-02  0.0000000000000E+00 -0.1093955688318E-02
 0.3923859515637E-02 -0.4894466614475E-02  0.0000000000000E+00 -0.1163241850329E-02
 0.4680119205711E-02 -0.5175200937845E-02  0.0000000000000E+00 -0.1218167330545E-02
 0.5473127234894E-02 -0.5483728235616E-02  0.0000000000000E+00 -0.1253294950670E-02
 0.6284840522464E-02 -0.5808847033830E-02  0.0000000000000E+00 -0.1264072483661E-02
 0.7095562668538E-02 -0.6138122145342E-02  0.0000000000000E+00 -0.1247424897356E-02
 0.7885079958926E-02 -0.6458782418219E-02  0.0000000000000E+00 -0.1202221272668E-02
 0.8633872994965E-02 -0.6758694704333E-02  0.0000000000000E+00 -0.1129546179306E-02
 0.9324183181865E-02 -0.7027272003768E-02  0.0000000000000E+00 -0.1032761361020E-02
 0.6252387129250E-04 -0.5769228573810E-02  0.0000000000000E+00 -0.5315740180276E-03
 0.1873256849203E-03 -0.5845957868985E-02  0.0000000000000E+00 -0.5884424795509E-03
 0.3094748946397E-03 -0.5919204355511E-02  0.0000000000000E+00 -0.6378889697661E-03
 0.4248658558384E-03 -0.5985795974234E-02  0.0000000000000E+00 -0.6789439974518E-03
 0.5297670305289E-03 -0.6042839289081E-02  0.0000000000000E+00 -0.7112409351648E-03
 0.6209737971647E-03 -0.6087829402087E-02  0.0000000000000E+00 -0.7349719959408E-03
 0.6959283266930E-03 -0.6118727890149E-02  0.0000000000000E+00 -0.7507723330820E-03
 0.7527841003828E-03 -0.6133991916595E-02  0.0000000000000E+00 -0.7595707195452E-03
 0.7904140842760E-03 -0.6132555968043E-02  0.0000000000000E+00 -0.7624433416401E-03
 0.8083765263667E-03 -0.6113780364334E-02  0.0000000000000E+00 -0.7604958388984E-03
 0.8068598701509E-03 -0.6077386456505E-02  0.0000000000000E+00 -0.7547848341597E-03
 0.7866280628000E-03 -0.6023397795369E-02  0.0000000000000E+00 -0.7462784903069E-03
 0.7489819461787E-03 -0.5952100634743E-02  0.0000000000000E+00 -0.7358481624872E-03
 0.6957452133715E-03 -0.5864031166885E-02  0.0000000000000E+00 -0.7242803973468E-03
 0.6292793236081E-03 -0.5759995262948E-02  0.0000000000000E+00 -0.7122993285127E-03
 0.5525153180146E-03 -0.5641105281489E-02  0.0000000000000E+00 -0.7005894773598E-03
 0.4690015297168E-03 -0.5508837780962E-02  0.0000000000000E+00 -0.6898152530374E-03
 0.3829571415447E-03 -0.5365105605850E-02  0.0000000000000E+00 -0.6806341298890E-03
 0.2993126716270E-03 -0.5212321779372E-02  0.0000000000000E+00 -0.6737022261413E-03
 0.2237346607772E-03 -0.5053458498110E-02  0.0000000000000E+00 -0.6696680169167E-03
 0.1626310754165E-03 -0.4892100054795E-02  0.0000000000000E+00 -0.6691297089864E-03
 0.1231309521955E-03 -0.4732501075209E-02  0.0000000000000E+00 -0.6726150389355E-03
 0.1129733797293E-03 -0.4579568510140E-02  0.0000000000000E+00 -0.6806384730548E-03
 0.1403268921267E-03 -0.4438782720638E-02  0.0000000000000E+00 -0.6937188341041E-03
 0.2135593099439E-03 -0.4316071117972E-02  0.0000000000000E+00 -0.7123374416123E-03
 0.3409561705720E-03 -0.4217635945053E-02  0.0000000000000E+00 -0.7368617070253E-03
 0.5303703732205E-03 -0.4149725577972E-02  0.0000000000000E+00 -0.7674452435755E-03
 0.7887885942994E-03 -0.4118331755852E-02  0.0000000000000E+00 -0.8039112126426E-03
 0.1121807844850E-02 -0.4128805353506E-02  0.0000000000000E+00 -0.8456288420674E-03
 0.1533035732352E-02 -0.4185397606775E-02  0.0000000000000E+00 -0.8914010928683E-03
 0.2023509018407E-02 -0.4290763962035E-02  0.0000000000000E+00 -0.9393944802158E-03
 0.2591311244208E-02 -0.4445538326681E-02  0.0000000000000E+00 -0.9871354076592E-03
 0.3231268583567E-02 -0.4648022326383E-02  0.0000000000000E+00 -0.1031569652928E-02
 0.3934661540954E-02 -0.4893954213035E-02  0.0000000000000E+00 -0.1069212874830E-02
 0.4689248659436E-02 -0.5176476911871E-02  0.0000000000000E+00 -0.1096421271800E-02
 0.5479615419863E-02 -0.5486360986486E-02  0.0000000000000E+00 -0.1109745042319E-02
 0.6287841269514E-02 -0.5812492756713E-02  0.0000000000000E+00 -0.1106319543114E-02
 0.7094456970589E-02 -0.6142603837237E-02  0.0000000000000E+00 -0.1084236702564E-02
 0.7879560825090E-02 -0.6464153767692E-02  0.0000000000000E+00 -0.1042839556780E-02
 0.8623995775755E-02 -0.6765277135823E-02  0.0000000000000E+00 -0.9828988547778E-03
 0.9310372488362E-02 -0.7035657918064E-02  0.0000000000000E+00 -0.9066685362034E-03
 0.6214535226570E-04 -0.5734217740334E-02  0.0000000000000E+00 -0.4860628592148E-03
 0.1860545337282E-03 -0.5810459308179E-02  0.0000000000000E+00 -0.5446191809685E-03
 0.3071183360189E-03 -0.5883179709027E-02  0.0000000000000E+00 -0.5979175693608E-03
 0.4213237100941E-03 -0.5949272006209E-02  0.0000000000000E+00 -0.6448451410358E-03
 0.5250312638511E-03 -0.6005904108991E-02  0.0000000000000E+00 -0.6848192798020E-03
 0.6151151764787E-03 -0.6050619009484E-02  0.0000000000000E+00 -0.7177559188396E-03
 0.6890751486292E-03 -0.6081407388117E-02  0.0000000000000E+00 -0.7439835000168E-03
 0.7450987159064E-03 -0.6096736194466E-02  0.0000000000000E+00 -0.7641281143026E-03
 0.7820719131577E-03 -0.6095533620008E-02  0.0000000000000E+00 -0.7789952593251E-03
 0.7995503329897E-03 -0.6077142872376E-02  0.0000000000000E+00 -0.7894669407970E-03
 0.7977101219815E-03 -0.6041262984610E-02  0.0000000000000E+00 -0.7964240652089E-03
 0.7772987579493E-03 -0.5987894763220E-02  0.0000000000000E+00 -0.8006960117068E-03
 0.7396005274498E-03 -0.5917304681132E-02  0.0000000000000E+00 -0.8030338750515E-03
 0.6864249910391E-03 -0.5830014037013E-02  0.0000000000000E+00 -0.8041011246957E-03
 0.6201229999384E-03 -0.5726819348349E-02  0.0000000000000E+00 -0.8044751264661E-03
 0.5436185972430E-03 -0.5608829011840E-02  0.0000000000000E+00 -0.8046538954616E-03
 0.4604562016393E-03 -0.5477520351799E-02  0.0000000000000E+00 -0.8050645978696E-03
 0.3748534160704E-03 -0.5334810862145E-02  0.0000000000000E+00 -0.8060712855674E-03
 0.2917408197845E-03 -0.5183121391728E-02  0.0000000000000E+00 -0.8079817760894E-03
 0.2167857867862E-03 -0.5025433402794E-02  0.0000000000000E+00 -0.8110521956273E-03
 0.1563961402129E-03 -0.4865335914824E-02  0.0000000000000E+00 -0.8154814472549E-03
 0.1177002687520E-03 -0.4707084648500E-02  0.0000000000000E+00 -0.8214056479559E-03
 0.1084378792163E-03 -0.4555592639832E-02  0.0000000000000E+00 -0.8289254548306E-03
 0.1367778301665E-03 -0.4416352627068E-02  0.0000000000000E+00 -0.8381202727412E-03
 0.2110839500784E-03 -0.4295306043581E-02  0.0000000000000E+00 -0.8490385549866E-03
 0.3396286802976E-03 -0.4198664888939E-02  0.0000000000000E+00 -0.8616721973544E-03
 0.5302380289455E-03 -0.4132677566013E-02  0.0000000000000E+00 -0.8759188168102E-03
 0.7898541474544E-03 -0.4103321729322E-02  0.0000000000000E+00 -0.8915353058878E-03
 0.1124009799348E-02 -0.4115917264308E-02  0.0000000000000E+00 -0.9080879395908E-03
 0.1536229358803E-02 -0.4174667068305E-02  0.0000000000000E+00 -0.9249077610823E-03
 0.2027451713019E-02 -0.4282164158622E-02  0.0000000000000E+00 -0.9410644459433E-03
 0.2595655974817E-02 -0.4438973064788E-02  0.0000000000000E+00 -0.9553687532794E-03
 0.3235569670419E-02 -0.4643327816515E-02  0.0000000000000E+00 -0.9664032641476E-03
 0.3938396197491E-02 -0.4890911862079E-02  0.0000000000000E+00 -0.9725911682665E-03
 0.4691854784342E-02 -0.5174839368029E-02  0.0000000000000E+00 -0.9723140721402E-03
 0.5480542800796E-02 -0.5485889531235E-02  0.0000000000000E+00 -0.9640631734521E-03
 0.6286610020373E-02 -0.5813001105877E-02  0.0000000000000E+00 -0.9466056805942E-03
 0.7090714536050E-02 -0.6144001353668E-02  0.0000000000000E+00 -0.9191438721670E-03
 0.7873128394325E-02 -0.6466480536997E-02  0.0000000000000E+00 -0.8814463208655E-03
 0.8614896292794E-02 -0.6768724644930E-02  0.0000000000000E+00 -0.8339368989965E-03
 0.9298835453668E-02 -0.7040571386867E-02  0.0000000000000E+00 -0.7777475100905E-03
 0.6194561405218E-04 -0.5699611676739E-02  0.0000000000000E+00 -0.4407341724633E-03
 0.1853138434643E-03 -0.5775587724653E-02  0.0000000000000E+00 -0.5009861729760E-03
 0.3056271362635E-03 -0.5847996246892E-02  0.0000000000000E+00 -0.5581058365970E-03
 0.4189552267400E-03 -0.5913789875189E-02  0.0000000000000E+00 -0.6108368519551E-03
 0.5217410430192E-03 -0.5970193366155E-02  0.0000000000000E+00 -0.6583868293323E-03
 0.6109315137163E-03 -0.6014796935069E-02  0.0000000000000E+00 -0.7004059041587E-03
 0.6840833614850E-03 -0.6045624566486E-02  0.0000000000000E+00 -0.7369278162945E-03
 0.7394228733688E-03 -0.6061161357080E-02  0.0000000000000E+00 -0.7682869853780E-03
 0.7758572210393E-03 -0.6060339848659E-02  0.0000000000000E+00 -0.7950265543084E-03
 0.7929483301479E-03 -0.6042496791975E-02  0.0000000000000E+00 -0.8178098947442E-03
 0.7908676566901E-03 -0.6007317530178E-02  0.0000000000000E+00 -0.8373440437110E-03
 0.7703507436647E-03 -0.5954785282570E-02  0.0000000000000E+00 -0.8543189747150E-03
 0.7326658732359E-03 -0.5885147670892E-02  0.0000000000000E+00 -0.8693632907785E-03
 0.6796048602025E-03 -0.5798907653603E-02  0.0000000000000E+00 -0.8830143453226E-03
 0.6135005662335E-03 -0.5696844862549E-02  0.0000000000000E+00 -0.8956995087654E-03
 0.5372596731699E-03 -0.5580052711708E-02  0.0000000000000E+00 -0.9077272602472E-03
 0.4544103199659E-03 -0.5449995498619E-02  0.0000000000000E+00 -0.9192848654074E-03
 0.3691551690844E-03 -0.5308579508723E-02  0.0000000000000E+00 -0.9304406809748E-03
 0.2864114209244E-03 -0.5158216145572E-02  0.0000000000000E+00 -0.9411522602151E-03
 0.2118346714190E-03 -0.5001878310079E-02  0.0000000000000E+00 -0.9512815758157E-03
 0.1518219506602E-03 -0.4843143487837E-02  0.0000000000000E+00 -0.9606261466274E-03
 0.1134922646553E-03 -0.4686254278515E-02  0.0000000000000E+00 -0.9689281659680E-03
 0.1045785270313E-03 -0.4536115659722E-02  0.0000000000000E+00 -0.9758728051201E-03
 0.1332450211855E-03 -0.4398218462964E-02  0.0000000000000E+00 -0.9810997043598E-03
 0.2078518156878E-03 -0.4278505693947E-02  0.0000000000000E+00 -0.9842258464976E-03
 0.3366668320172E-03 -0.4183191497247E-02  0.0000000000000E+00 -0.9848710056372E-03
 0.5275094113304E-03 -0.4118524848041E-02  0.0000000000000E+00 -0.9826822684297E-03
 0.7873119039911E-03 -0.4090481109534E-02  0.0000000000000E+00 -0.9773575793015E-03
 0.1121593728363E-02 -0.4104374469335E-02  0.0000000000000E+00 -0.9686688070392E-03
 0.1533862694373E-02 -0.4164398901396E-02  0.0000000000000E+00 -0.9564837302896E-03
 0.2025039130559E-02 -0.4273136635266E-02  0.0000000000000E+00 -0.9407824915939E-03
 0.2593083621962E-02 -0.4431141910420E-02  0.0000000000000E+00 -0.9216646087347E-03
 0.3232707515822E-02 -0.4636640379895E-02  0.0000000000000E+00 -0.8993490563769E-03
 0.3935102949978E-02 -0.4885310327252E-02  0.0000000000000E+00 -0.8741596135056E-03
 0.4687985442128E-02 -0.5170266210059E-02  0.0000000000000E+00 -0.8464893188260E-03
 0.5475958276890E-02 -0.5482294831110E-02  0.0000000000000E+00 -0.8167502356729E-03
 0.6281187898936E-02 -0.5810350901693E-02  0.0000000000000E+00 -0.7853173996824E-03
 0.7084359750126E-02 -0.6142286019448E-02  0.0000000000000E+00 -0.7524787887142E-03
 0.7865782568358E-02 -0.6465722053585E-02  0.0000000000000E+00 -0.7184067118687E-03
 0.8606544512076E-02 -0.6768981675775E-02  0.0000000000000E+00 -0.6831619809950E-03
 0.9289509474886E-02 -0.7041941020735E-02  0.0000000000000E+00 -0.6467452203033E-03
 0.6192203889088E-04 -0.5665382762764E-02  0.0000000000000E+00 -0.3954518570640E-03
 0.1850953706343E-03 -0.5741312402728E-02  0.0000000000000E+00 -0.4574091513894E-03
 0.3049871600915E-03 -0.5813620439890E-02  0.0000000000000E+00 -0.5183234697995E-03
 0.4177409893570E-03 -0.5879314113023E-02  0.0000000000000E+00 -0.5767952926000E-03
 0.5198729931274E-03 -0.5935670952159E-02  0.0000000000000E+00 -0.6318267012615E-03
 0.6083971832589E-03 -0.5980327870572E-02  0.0000000000000E+00 -0.6828093323224E-03
 0.6809268186157E-03 -0.6011346209233E-02  0.0000000000000E+00 -0.7294910914569E-03
 0.7357313660623E-03 -0.6027237213787E-02  0.0000000000000E+00 -0.7719236442436E-03
 0.7717467712249E-03 -0.6026947970711E-02  0.0000000000000E+00 -0.8103955681276E-03
 0.7885498174635E-03 -0.6009818996252E-02  0.0000000000000E+00 -0.8453576060282E-03
 0.7863144746307E-03 -0.5975530231113E-02  0.0000000000000E+00 -0.8773469999252E-03
 0.7657685943929E-03 -0.5924052247457E-02  0.0000000000000E+00 -0.9069166880226E-03
 0.7281648343457E-03 -0.5855614648991E-02  0.0000000000000E+00 -0.9345738687555E-03
 0.6752735817239E-03 -0.5770698606940E-02  0.0000000000000E+00 -0.9607300404618E-03
 0.6094023305161E-03 -0.5670059398400E-02  0.0000000000000E+00 -0.9856623998332E-03
 0.5334300807015E-03 -0.5554764527444E-02  0.0000000000000E+00 -0.1009489528765E-02
 0.4508563799877E-03 -0.5426251570111E-02  0.0000000000000E+00 -0.1032158380557E-02
 0.3658556359323E-03 -0.5286399829975E-02  0.0000000000000E+00 -0.1053441189086E-02
 0.2833182615018E-03 -0.5137594058242E-02  0.0000000000000E+00 -0.1072944773428E-02
 0.2088754832759E-03 -0.4982780812182E-02  0.0000000000000E+00 -0.1090136296737E-02
 0.1489029066415E-03 -0.4825509812685E-02  0.0000000000000E+00 -0.1104410515793E-02
 0.1105014517780E-03 -0.4669996349429E-02  0.0000000000000E+00 -0.1115113706519E-02
 0.1013898880671E-03 -0.4521123240183E-02  0.0000000000000E+00 -0.1121513802782E-02
 0.1297231186800E-03 -0.4384365192798E-02  0.0000000000000E+00 -0.1122809418765E-02
 0.2038578082969E-03 -0.4265654426424E-02  0.0000000000000E+00 -0.1118185008519E-02
 0.3320660738168E-03 -0.4171199724627E-02  0.0000000000000E+00 -0.1106886964216E-02
 0.5221809462741E-03 -0.4107251285303E-02  0.0000000000000E+00 -0.1088310020541E-02
 0.7811597981869E-03 -0.4079794057567E-02  0.0000000000000E+00 -0.1062090545176E-02
 0.1114559641914E-02 -0.4094161862934E-02  0.0000000000000E+00 -0.1028202496009E-02
 0.1525938339905E-02 -0.4154579141539E-02  0.0000000000000E+00 -0.9870461901333E-03
 0.2016276818122E-02 -0.4263668869484E-02  0.0000000000000E+00 -0.9395079028914E-03
 0.2583602762228E-02 -0.4422033891162E-02  0.0000000000000E+00 -0.8869723465243E-03
 0.3222693437439E-02 -0.4627950431100E-02  0.0000000000000E+00 -0.8312929953395E-03
 0.3924795132254E-02 -0.4877140921168E-02  0.0000000000000E+00 -0.7746947661434E-03
 0.4677654808264E-02 -0.5162748817962E-02  0.0000000000000E+00 -0.7195855662182E-03
 0.5465875286541E-02 -0.5475567189749E-02  0.0000000000000E+00 -0.6683043268849E-03
 0.6271585723756E-02 -0.5804529983670E-02  0.0000000000000E+00 -0.6228412654654E-03
 0.7075398765177E-02 -0.6137441675944E-02  0.0000000000000E+00 -0.5845768951046E-03
 0.7857522778900E-02 -0.6461856586751E-02  0.0000000000000E+00 -0.5540916000467E-03
 0.8598931209702E-02 -0.6766019392599E-02  0.0000000000000E+00 -0.5310834771073E-03
 0.9282374898640E-02 -0.7039729395699E-02  0.0000000000000E+00 -0.5144175131777E-03
 0.6207196307267E-04 -0.5631502431180E-02  0.0000000000000E+00 -0.3500816325743E-03
 0.1853909365589E-03 -0.5707601550071E-02  0.0000000000000E+00 -0.4137555287671E-03
 0.3051846382686E-03 -0.5780017445378E-02  0.0000000000000E+00 -0.4784414841410E-03
 0.4176620376984E-03 -0.5845807328963E-02  0.0000000000000E+00 -0.5425972881175E-03
 0.5194037946458E-03 -0.5902297703595E-02  0.0000000000000E+00 -0.6050218848844E-03
 0.6074856464618E-03 -0.5947171814737E-02  0.0000000000000E+00 -0.6648526761677E-03
 0.6795770434881E-03 -0.5978532431089E-02  0.0000000000000E+00 -0.7215575910224E-03
 0.7339950355575E-03 -0.5994924839507E-02  0.0000000000000E+00 -0.7749124455413E-03
 0.7697118269803E-03 -0.5995320669759E-02  0.0000000000000E+00 -0.8249585156662E-03
 0.7863273634752E-03 -0.5979074201269E-02  0.0000000000000E+00 -0.8719408936328E-03
 0.7840251050608E-03 -0.5945868059421E-02  0.0000000000000E+00 -0.9162332633693E-03
 0.7635292632126E-03 -0.5895664969771E-02  0.0000000000000E+00 -0.9582568148737E-03
 0.7260771158201E-03 -0.5828677286797E-02  0.0000000000000E+00 -0.9984016788218E-03
 0.6734138640064E-03 -0.5745360953161E-02  0.0000000000000E+00 -0.1036957007387E-02
 0.6078142242024E-03 -0.5646439479759E-02  0.0000000000000E+00 -0.1074052663509E-02
 0.5321191886829E-03 -0.5532943620623E-02  0.0000000000000E+00 -0.1109619627592E-02
 0.4497874064992E-03 -0.5406270631050E-02  0.0000000000000E+00 -0.1143366378607E-02
 0.3649517169147E-03 -0.5268257147279E-02  0.0000000000000E+00 -0.1174770458745E-02
 0.2824623270663E-03 -0.5121244130424E-02  0.0000000000000E+00 -0.1203088995416E-02
 0.2079134766747E-03 -0.4968134053713E-02  0.0000000000000E+00 -0.1227394854897E-02
 0.1476486738140E-03 -0.4812432654275E-02  0.0000000000000E+00 -0.1246679375380E-02
 0.1087419924348E-03 -0.4658313708103E-02  0.0000000000000E+00 -0.1259891249453E-02
 0.9889060989328E-04 -0.4510623720118E-02  0.0000000000000E+00 -0.1265879368479E-02
 0.1262350720907E-03 -0.4374806936908E-02  0.0000000000000E+00 -0.1263399174884E-02
 0.1991287206064E-03 -0.4256772208925E-02  0.0000000000000E+00 -0.1251199123761E-02
 0.3258561952832E-03 -0.4162715107050E-02  0.0000000000000E+00 -0.1228146362642E-02
 0.5142840916849E-03 -0.4098887237431E-02  0.0000000000000E+00 -0.1193374219520E-02
 0.7714291063757E-03 -0.4071294464273E-02  0.0000000000000E+00 -0.1146444951756E-02
 0.1102936323957E-02 -0.4085315020865E-02  0.0000000000000E+00 -0.1087519066752E-02
 0.1512480016160E-02 -0.4145242762174E-02  0.0000000000000E+00 -0.1017512341836E-02
 0.2001180960188E-02 -0.4253792756160E-02  0.0000000000000E+00 -0.9382011192006E-03
 0.2567220159986E-02 -0.4411675533472E-02  0.0000000000000E+00 -0.8522436242261E-03
 0.3205524037557E-02 -0.4617277476739E-02  0.0000000000000E+00 -0.7631242694183E-03
 0.3907460048885E-02 -0.4866415532131E-02  0.0000000000000E+00 -0.6749769847287E-03
 0.4660843544178E-02 -0.5152292125314E-02  0.0000000000000E+00 -0.5922453200327E-03
 0.5450272046105E-02 -0.5465706380427E-02  0.0000000000000E+00 -0.5192272827805E-03
 0.6257784301754E-02 -0.5795535384930E-02  0.0000000000000E+00 -0.4595672265289E-03
 0.7063819832115E-02 -0.6129464897398E-02  0.0000000000000E+00 -0.4157768354114E-03
 0.7848348339388E-02 -0.6454881601549E-02  0.0000000000000E+00 -0.3888753520636E-03
 0.8592068337438E-02 -0.6759835976105E-02  0.0000000000000E+00 -0.3782152623192E-03
 0.9277455418340E-02 -0.7033933415781E-02  0.0000000000000E+00 -0.3815265980791E-03
 0.6239266239541E-04 -0.5597941089301E-02  0.0000000000000E+00 -0.3044911099055E-03
 0.1861923813101E-03 -0.5674422203436E-02  0.0000000000000E+00 -0.3698945623497E-03
 0.3062060896810E-03 -0.5747151001347E-02  0.0000000000000E+00 -0.4383325794410E-03
 0.4186997659611E-03 -0.5813230101784E-02  0.0000000000000E+00 -0.5081210674791E-03
 0.5203100719522E-03 -0.5870031305202E-02  0.0000000000000E+00 -0.5778563822866E-03
 0.6081693464637E-03 -0.5915284000203E-02  0.0000000000000E+00 -0.6464229544983E-03
 0.6800031442258E-03 -0.5947136636901E-02  0.0000000000000E+00 -0.7130116380014E-03
 0.7341807134218E-03 -0.5964176568744E-02  0.0000000000000E+00 -0.7771273489248E-03
 0.7697181204924E-03 -0.5965410020008E-02  0.0000000000000E+00 -0.8385708413676E-03
 0.7862467954079E-03 -0.5950215008768E-02  0.0000000000000E+00 -0.8973895186666E-03
 0.7839666061960E-03 -0.5918284869035E-02  0.0000000000000E+00 -0.9538018859012E-03
 0.7636020804324E-03 -0.5869579217839E-02  0.0000000000000E+00 -0.1008105546313E-02
 0.7263752636031E-03 -0.5804293899071E-02  0.0000000000000E+00 -0.1060581099174E-02
 0.6740023301187E-03 -0.5722856200618E-02  0.0000000000000E+00 -0.1111402062711E-02
 0.6087177454691E-03 -0.5625950512007E-02  0.0000000000000E+00 -0.1160556793452E-02
 0.5333141184482E-03 -0.5514560081031E-02  0.0000000000000E+00 -0.1207793608246E-02
 0.4511968489356E-03 -0.5390028338922E-02  0.0000000000000E+00 -0.1252586598862E-02
 0.3664438522186E-03 -0.5254133662602E-02  0.0000000000000E+00 -0.1294121916557E-02
 0.2838516617294E-03 -0.5109156161925E-02  0.0000000000000E+00 -0.1331309573443E-02
 0.2089648421680E-03 -0.4957936526698E-02  0.0000000000000E+00 -0.1362829854315E-02
 0.1480840339873E-03 -0.4803920287158E-02  0.0000000000000E+00 -0.1387270789618E-02
 0.1082475615050E-03 -0.4651225448377E-02  0.0000000000000E+00 -0.1403182211339E-02
 0.9712331251634E-04 -0.4504647908054E-02  0.0000000000000E+00 -0.1408992198579E-02
 0.1228320646820E-03 -0.4369586810511E-02  0.0000000000000E+00 -0.1403010117476E-02
 0.1937232470895E-03 -0.4251914523344E-02  0.0000000000000E+00 -0.1383542700755E-02
 0.3181014372686E-03 -0.4157804760343E-02  0.0000000000000E+00 -0.1349067562558E-02
 0.5038855699862E-03 -0.4093509687463E-02  0.0000000000000E+00 -0.1298440499594E-02
 0.7581848154660E-03 -0.4065066227485E-02  0.0000000000000E+00 -0.1231127322831E-02
 0.1086781830567E-02 -0.4077920640931E-02  0.0000000000000E+00 -0.1147447496164E-02
 0.1493533156930E-02 -0.4136474266201E-02  0.0000000000000E+00 -0.1048802099346E-02
 0.1979778999239E-02 -0.4243585307130E-02  0.0000000000000E+00 -0.9378293321847E-03
 0.2543941320283E-02 -0.4400131597895E-02  0.0000000000000E+00 -0.8184405299448E-03
 0.3181181583227E-02 -0.4604670796006E-02  0.0000000000000E+00 -0.6957451161602E-03
 0.3883059098250E-02 -0.4853167165487E-02  0.0000000000000E+00 -0.5758006338970E-03
 0.4637498634375E-02 -0.5138914971634E-02  0.0000000000000E+00 -0.4651241144887E-03
 0.5429091150482E-02 -0.5452721815627E-02  0.0000000000000E+00 -0.3700312953286E-03
 0.6239733915067E-02 -0.5783373380070E-02  0.0000000000000E+00 -0.2958919957515E-03
 0.7049592832945E-02 -0.6118365005315E-02  0.0000000000000E+00 -0.2464206185579E-03
 0.7838258170049E-02 -0.6444813816288E-02  0.0000000000000E+00 -0.2231335972767E-03
 0.8585989044238E-02 -0.6750456765477E-02  0.0000000000000E+00 -0.2250724726099E-03
 0.9274818447840E-02 -0.7024584543446E-02  0.0000000000000E+00 -0.2488384550653E-03
 0.6288135046748E-04 -0.5564668108587E-02  0.0000000000000E+00 -0.2585498692727E-03
 0.1874915583994E-03 -0.5641740215680E-02  0.0000000000000E+00 -0.3256974883631E-03
 0.3080383092718E-03 -0.5714983408187E-02  0.0000000000000E+00 -0.3978715127374E-03
 0.4208358970753E-03 -0.5781540951870E-02  0.0000000000000E+00 -0.4732470062316E-03
 0.5225683480747E-03 -0.5838826249918E-02  0.0000000000000E+00 -0.5502163461194E-03
 0.6104196430604E-03 -0.5884614844167E-02  0.0000000000000E+00 -0.6274091765888E-03
 0.6821717345073E-03 -0.5917105469937E-02  0.0000000000000E+00 -0.7037392007617E-03
 0.7362511368080E-03 -0.5934935949083E-02  0.0000000000000E+00 -0.7784434661300E-03
 0.7717257697833E-03 -0.5937157448475E-02  0.0000000000000E+00 -0.8510885642009E-03
 0.7882671187576E-03 -0.5923181873985E-02  0.0000000000000E+00 -0.9215332093162E-03
 0.7860984830578E-03 -0.5892721359827E-02  0.0000000000000E+00 -0.9898512717196E-03
 0.7659486614070E-03 -0.5845737163364E-02  0.0000000000000E+00 -0.1056227792273E-02
 0.7290245529732E-03 -0.5782409359908E-02  0.0000000000000E+00 -0.1120844541392E-02
 0.6770093789106E-03 -0.5703133183034E-02  0.0000000000000E+00 -0.1183769280175E-02
 0.6120897879234E-03 -0.5608546604307E-02  0.0000000000000E+00 -0.1244857642171E-02
 0.5369995379481E-03 -0.5499574693959E-02  0.0000000000000E+00 -0.1303682842609E-02
 0.4550783415389E-03 -0.5377493655822E-02  0.0000000000000E+00 -0.1359490917373E-02
 0.3703357512164E-03 -0.5244008117861E-02  0.0000000000000E+00 -0.1411181804866E-02
 0.2875010728487E-03 -0.5101320364858E-02  0.0000000000000E+00 -0.1457322535911E-02
 0.2120563974969E-03 -0.4952191648503E-02  0.0000000000000E+00 -0.1496203779143E-02
 0.1502485795117E-03 -0.4799991054822E-02  0.0000000000000E+00 -0.1526011207713E-02
 0.1090710693428E-03 -0.4648766475558E-02  0.0000000000000E+00 -0.1544895007357E-02
 0.9615437434671E-04 -0.4503248684930E-02  0.0000000000000E+00 -0.1550860865341E-02
 0.1195934070494E-03 -0.4368776609045E-02  0.0000000000000E+00 -0.1541768627144E-02
 0.1877320377142E-03 -0.4251172189118E-02  0.0000000000000E+00 -0.1515475602292E-02
 0.3089007612870E-03 -0.4156577406115E-02  0.0000000000000E+00 -0.1470055460627E-02
 0.4910879010358E-03 -0.4091242535060E-02  0.0000000000000E+00 -0.1404063551373E-02
 0.7415264437716E-03 -0.4061243864641E-02  0.0000000000000E+00 -0.1316837271542E-02
 0.1066184580013E-02 -0.4072117495774E-02  0.0000000000000E+00 -0.1208815355355E-02
 0.1469166188389E-02 -0.4128408948788E-02  0.0000000000000E+00 -0.1081840595204E-02
 0.1952110954502E-02 -0.4233170129447E-02  0.0000000000000E+00 -0.9393719721282E-03
 0.2513771637906E-02 -0.4387506615326E-02  0.0000000000000E+00 -0.7865437418763E-03
 0.3149634755751E-02 -0.4590210839511E-02  0.0000000000000E+00 -0.6300808110922E-03
 0.3851527936511E-02 -0.4837451021112E-02  0.0000000000000E+00 -0.4779845815998E-03
 0.4607532896741E-02 -0.5122650747365E-02  0.0000000000000E+00 -0.3388999559117E-03
 0.5402238530006E-02 -0.5436632767154E-02  0.0000000000000E+00 -0.2212458840206E-03
 0.6217352985253E-02 -0.5768059406639E-02  0.0000000000000E+00 -0.1322226945422E-03
 0.7032667996022E-02 -0.6104163877928E-02  0.0000000000000E+00 -0.7685392778758E-04
 0.7827249880878E-02 -0.6431689061182E-02  0.0000000000000E+00 -0.5724104776464E-04
 0.8580747341315E-02 -0.6737934243298E-02  0.0000000000000E+00 -0.7216827703996E-04
 0.9274575466250E-02 -0.7011748895751E-02  0.0000000000000E+00 -0.1171202563948E-03
 0.6353518988246E-04 -0.5531651882676E-02  0.0000000000000E+00 -0.2121295377540E-03
 0.1892803705776E-03 -0.5609520324434E-02  0.0000000000000E+00 -0.2810376583474E-03
 0.3106684223249E-03 -0.5683475598264E-02  0.0000000000000E+00 -0.3569354801548E-03
 0.4240525331435E-03 -0.5750696392816E-02  0.0000000000000E+00 -0.4378583869643E-03
 0.5261550650786E-03 -0.5808633854652E-02  0.0000000000000E+00 -0.5219912392671E-03
 0.6142067865492E-03 -0.5855109921290E-02  0.0000000000000E+00 -0.6077038059889E-03
 0.6860468597820E-03 -0.5888378747981E-02  0.0000000000000E+00 -0.6936294929190E-03
 0.7401648375511E-03 -0.5907137653946E-02  0.0000000000000E+00 -0.7787386129366E-03
 0.7756891442188E-03 -0.5910493636631E-02  0.0000000000000E+00 -0.8623696249269E-03
 0.7923403682654E-03 -0.5897903000551E-02  0.0000000000000E+00 -0.9442026919267E-03
 0.7903725252680E-03 -0.5869104960430E-02  0.0000000000000E+00 -0.1024179822858E-02
 0.7705227258340E-03 -0.5824067239377E-02  0.0000000000000E+00 -0.1102387400460E-02
 0.7339827807042E-03 -0.5762954919922E-02  0.0000000000000E+00 -0.1178922215586E-02
 0.6823989415515E-03 -0.5686127821080E-02  0.0000000000000E+00 -0.1253759278651E-02
 0.6179023553889E-03 -0.5594170264491E-02  0.0000000000000E+00 -0.1326633207090E-02
 0.5431573316844E-03 -0.5487938561950E-02  0.0000000000000E+00 -0.1396952278869E-02
 0.4614253282413E-03 -0.5368628395120E-02  0.0000000000000E+00 -0.1463743040599E-02
 0.3766339752440E-03 -0.5237855268879E-02  0.0000000000000E+00 -0.1525626278047E-02
 0.2934316792797E-03 -0.5097726772380E-02  0.0000000000000E+00 -0.1580831757750E-02
 0.2172251162423E-03 -0.4950907119816E-02  0.0000000000000E+00 -0.1627264806124E-02
 0.1541962474217E-03 -0.4800672700433E-02  0.0000000000000E+00 -0.1662710625327E-02
 0.1112842392457E-03 -0.4650986844862E-02  0.0000000000000E+00 -0.1684919603466E-02
 0.9607360577933E-04 -0.4506500399794E-02  0.0000000000000E+00 -0.1691473865132E-02
 0.1166263751376E-03 -0.4372476328047E-02  0.0000000000000E+00 -0.1679780062315E-02
 0.1812777814949E-03 -0.4254671092026E-02  0.0000000000000E+00 -0.1647236796643E-02
 0.2983882642925E-03 -0.4159183407816E-02  0.0000000000000E+00 -0.1591495696689E-02
 0.4760302227074E-03 -0.4092257040255E-02  0.0000000000000E+00 -0.1510782360586E-02
 0.7215893066495E-03 -0.4060013446237E-02  0.0000000000000E+00 -0.1404264429958E-02
 0.1041265037022E-02 -0.4068097891041E-02  0.0000000000000E+00 -0.1272448092927E-02
 0.1439472510883E-02 -0.4121234837440E-02  0.0000000000000E+00 -0.1117560350509E-02
 0.1918231470579E-02 -0.4222719704565E-02  0.0000000000000E+00 -0.9438259999163E-03
 0.2476718187028E-02 -0.4373947262748E-02  0.0000000000000E+00 -0.7575607119840E-03
 0.3110839817801E-02 -0.4574011395581E-02  0.0000000000000E+00 -0.5670899396114E-03
 0.3812776721082E-02 -0.4819346156514E-02  0.0000000000000E+00 -0.3823832133479E-03
 0.4570824181577E-02 -0.5103548369064E-02  0.0000000000000E+00 -0.2142834162630E-03
 0.5369581750150E-02 -0.5417468654836E-02  0.0000000000000E+00 -0.7342549897602E-04
 0.6190525879490E-02 -0.5749617861003E-02  0.0000000000000E+00  0.3101902581459E-04
 0.7012973753314E-02 -0.6086895548915E-02  0.0000000000000E+00  0.9257329914869E-04
 0.7815318180661E-02 -0.6415561933566E-02  0.0000000000000E+00  0.1084305699543E-03
 0.8576417390027E-02 -0.6722347862147E-02  0.0000000000000E+00  0.7998929986724E-04
 0.9276882324647E-02 -0.6995527201840E-02  0.0000000000000E+00  0.1286214052515E-04
 0.6435131666858E-04 -0.5498859956098E-02  0.0000000000000E+00 -0.1651038592123E-03
 0.1915508484900E-03 -0.5577726305215E-02  0.0000000000000E+00 -0.2357906737109E-03
 0.3140840076456E-03 -0.5652587296019E-02  0.0000000000000E+00 -0.3154045138488E-03
 0.4283322840482E-03 -0.5720651064044E-02  0.0000000000000E+00 -0.4018421953711E-03
 0.5310466704447E-03 -0.5779402331510E-02  0.0000000000000E+00 -0.4930750433232E-03
 0.6194999291465E-03 -0.5826709957274E-02  0.0000000000000E+00 -0.5872042730480E-03
 0.6915899265890E-03 -0.5860889385513E-02  0.0000000000000E+00 -0.6825766109218E-03
 0.7458760029827E-03 -0.5880707354120E-02  0.0000000000000E+00 -0.7778948846689E-03
 0.7815566781037E-03 -0.5885338362898E-02  0.0000000000000E+00 -0.8722752474581E-03
 0.7984113912287E-03 -0.5874294165793E-02  0.0000000000000E+00 -0.9652307355689E-03
 0.7967325667971E-03 -0.5847349634467E-02  0.0000000000000E+00 -0.1056586606080E-02
 0.7772698309396E-03 -0.5804483914273E-02  0.0000000000000E+00 -0.1146347409789E-02
 0.7411999631216E-03 -0.5745847929425E-02  0.0000000000000E+00 -0.1234541944329E-02
 0.6901281349879E-03 -0.5671762776280E-02  0.0000000000000E+00 -0.1321068570984E-02
 0.6261221634670E-03 -0.5582751969341E-02  0.0000000000000E+00 -0.1405555485570E-02
 0.5517661462844E-03 -0.5479592582641E-02  0.0000000000000E+00 -0.1487258770308E-02
 0.4702305513267E-03 -0.5363386603432E-02  0.0000000000000E+00 -0.1564996271937E-02
 0.3853473720706E-03 -0.5235645173363E-02  0.0000000000000E+00 -0.1637118567697E-02
 0.3016703002807E-03 -0.5098364441034E-02  0.0000000000000E+00 -0.1701525485514E-02
 0.2245174896550E-03 -0.4954094058956E-02  0.0000000000000E+00 -0.1755742659842E-02
 0.1599946866080E-03 -0.4806001462889E-02  0.0000000000000E+00 -0.1797157761077E-02
 0.1149770299262E-03 -0.4657950864493E-02  0.0000000000000E+00 -0.1823122041459E-02
 0.9699379748318E-04 -0.4514498044990E-02  0.0000000000000E+00 -0.1830793579921E-02
 0.1140659763500E-03 -0.4380813499334E-02  0.0000000000000E+00 -0.1817122335249E-02
 0.1745153005513E-03 -0.4262571795073E-02  0.0000000000000E+00 -0.1779037844673E-02
 0.2867337185616E-03 -0.4165814789969E-02  0.0000000000000E+00 -0.1713748487138E-02
 0.4588893817151E-03 -0.4096772390042E-02  0.0000000000000E+00 -0.1619114963780E-02
 0.6985462182484E-03 -0.4061613827065E-02  0.0000000000000E+00 -0.1494084815329E-02
 0.1012177998461E-02 -0.4066109617956E-02  0.0000000000000E+00 -0.1339167737104E-02
 0.1404573212957E-02 -0.4115195318518E-02  0.0000000000000E+00 -0.1156902944218E-02
 0.1878212651330E-02 -0.4212458503681E-02  0.0000000000000E+00 -0.9522109008444E-03
 0.2432792228224E-02 -0.4359645640145E-02  0.0000000000000E+00 -0.7325338703260E-03
 0.3064742282884E-02 -0.4556222604413E-02  0.0000000000000E+00 -0.5077750751155E-03
 0.3766690504831E-02 -0.4798957818463E-02  0.0000000000000E+00 -0.2898982107722E-03
 0.4527214294593E-02 -0.5081673650419E-02  0.0000000000000E+00 -0.9202870674951E-04
 0.5330947641882E-02 -0.5395269438406E-02  0.0000000000000E+00  0.7284190513152E-04
 0.6159099808982E-02 -0.5728081774559E-02  0.0000000000000E+00  0.1933921140374E-03
 0.6990413680842E-02 -0.6066605589951E-02  0.0000000000000E+00  0.2615058497153E-03
 0.7802452564723E-02 -0.6396505248776E-02  0.0000000000000E+00  0.2735143709592E-03
 0.8573092387374E-02 -0.6703803711888E-02  0.0000000000000E+00  0.2309004367214E-03
 0.9281939496836E-02 -0.6976054635226E-02  0.0000000000000E+00  0.1403465156234E-03
 0.6532688005111E-04 -0.5466259227562E-02  0.0000000000000E+00 -0.1173487478041E-03
 0.1942952760278E-03 -0.5546321213088E-02  0.0000000000000E+00 -0.1898345128308E-03
 0.3182732951785E-03 -0.5622277271842E-02  0.0000000000000E+00 -0.2731618982497E-03
 0.4336584790202E-03 -0.5691357945021E-02  0.0000000000000E+00 -0.3650899686565E-03
 0.5372197715279E-03 -0.5751076911347E-02  0.0000000000000E+00 -0.4633675415875E-03
 0.6262671730985E-03 -0.5799350836901E-02  0.0000000000000E+00 -0.5658145637323E-03
 0.6987596325298E-03 -0.5834563294719E-02  0.0000000000000E+00 -0.6704812325957E-03
 0.7533343063996E-03 -0.5855561541829E-02  0.0000000000000E+00 -0.7758002717519E-03
 0.7892706321002E-03 -0.5861600282206E-02  0.0000000000000E+00 -0.8806713254885E-03
 0.8064175651226E-03 -0.5852258475253E-02  0.0000000000000E+00 -0.9844532195389E-03
 0.8051141714505E-03 -0.5827355611017E-02  0.0000000000000E+00 -0.1086872052802E-02
 0.7861270232945E-03 -0.5786887383785E-02  0.0000000000000E+00 -0.1187870355093E-02
 0.7506179449157E-03 -0.5730991469575E-02  0.0000000000000E+00 -0.1287429048698E-02
 0.7001468167327E-03 -0.5659946998745E-02  0.0000000000000E+00 -0.1385389003794E-02
 0.6367101316145E-03 -0.5574209611134E-02  0.0000000000000E+00 -0.1481289435390E-02
 0.5628008148013E-03 -0.5474466783001E-02  0.0000000000000E+00 -0.1574249519260E-02
 0.4814854063215E-03 -0.5361713777883E-02  0.0000000000000E+00 -0.1662891398712E-02
 0.3964863636888E-03 -0.5237342292664E-02  0.0000000000000E+00 -0.1745306268966E-02
 0.3122486853378E-03 -0.5103220446083E-02  0.0000000000000E+00 -0.1819072977915E-02
 0.2339887196969E-03 -0.4961765910894E-02  0.0000000000000E+00 -0.1881344567907E-02
 0.1677244527123E-03 -0.4816020934621E-02  0.0000000000000E+00 -0.1929115303183E-02
 0.1202568931195E-03 -0.4669735956509E-02  0.0000000000000E+00 -0.1959338985370E-02
 0.9905012782051E-04 -0.4527356199293E-02  0.0000000000000E+00 -0.1968750187580E-02
 0.1120746216624E-03 -0.4393942325804E-02  0.0000000000000E+00 -0.1953839337099E-02
 0.1676316261931E-03 -0.4275069006866E-02  0.0000000000000E+00 -0.1911056108830E-02
 0.2741432036515E-03 -0.4176705209789E-02  0.0000000000000E+00 -0.1837142032217E-02
 0.4398812615578E-03 -0.4105056354092E-02  0.0000000000000E+00 -0.1729552627152E-02
 0.6726096035839E-03 -0.4066338145202E-02  0.0000000000000E+00 -0.1586956498199E-02
 0.9791154717129E-03 -0.4066458383633E-02  0.0000000000000E+00 -0.1409790853392E-02
 0.1364620535553E-02 -0.4110592457843E-02  0.0000000000000E+00 -0.1200820016379E-02
 0.1832147728923E-02 -0.4202666979957E-02  0.0000000000000E+00 -0.9655732518355E-03
 0.2382012510932E-02 -0.4344843524221E-02  0.0000000000000E+00 -0.7125488028312E-03
 0.3011279176902E-02 -0.4537034921344E-02  0.0000000000000E+00 -0.4531939324376E-03
 0.3713129854083E-02 -0.4776420548765E-02  0.0000000000000E+00 -0.2014912868635E-03
 0.4476507668878E-02 -0.5057111151024E-02  0.0000000000000E+00  0.2705398986941E-04
 0.5286119221912E-02 -0.5370086149420E-02  0.0000000000000E+00  0.2169250407376E-03
 0.6122880727299E-02 -0.5703492363619E-02  0.0000000000000E+00  0.3544303051919E-03
 0.6964862420774E-02 -0.6043350253763E-02  0.0000000000000E+00  0.4295817119824E-03
 0.7788634216246E-02 -0.6374609272802E-02  0.0000000000000E+00  0.4376499797965E-03
 0.8570882995027E-02 -0.6682434020757E-02  0.0000000000000E+00  0.3800764568966E-03
 0.9289992307542E-02 -0.6953500496188E-02  0.0000000000000E+00  0.2645764980110E-03
 0.6645909684610E-04 -0.5433816234244E-02  0.0000000000000E+00 -0.6874231852437E-04
 0.1975063664475E-03 -0.5515267721175E-02  0.0000000000000E+00 -0.1430496484846E-03
 0.3232254441857E-03 -0.5592503697937E-02  0.0000000000000E+00 -0.2300946161446E-03
 0.4400154662078E-03 -0.5662768656396E-02  0.0000000000000E+00 -0.3274987215728E-03
 0.5446513590373E-03 -0.5723600020418E-02  0.0000000000000E+00 -0.4327757109998E-03
 0.6344756519959E-03 -0.5772963623664E-02  0.0000000000000E+00 -0.5434469189190E-03
 0.7075118910090E-03 -0.5809319261524E-02  0.0000000000000E+00 -0.6572524030024E-03
 0.7624847016866E-03 -0.5831607305590E-02  0.0000000000000E+00 -0.7723503310205E-03
 0.7987667993565E-03 -0.5839176644555E-02  0.0000000000000E+00 -0.8874298409792E-03
 0.8162884493622E-03 -0.5831686052238E-02  0.0000000000000E+00 -0.1001710224985E-02
 0.8154442462377E-03 -0.5809009047914E-02  0.0000000000000E+00 -0.1114838691470E-02
 0.7970224124989E-03 -0.5771163190670E-02  0.0000000000000E+00 -0.1226718622979E-02
 0.7621699218175E-03 -0.5718273900891E-02  0.0000000000000E+00 -0.1337306307194E-02
 0.7123970431070E-03 -0.5650575176646E-02  0.0000000000000E+00 -0.1446407289088E-02
 0.6496207665061E-03 -0.5568447826297E-02  0.0000000000000E+00 -0.1553492040130E-02
 0.5762316591521E-03 -0.5472479513651E-02  0.0000000000000E+00 -0.1657560632787E-02
 0.4951791612641E-03 -0.5363545920239E-02  0.0000000000000E+00 -0.1757054692235E-02
 0.4100620842033E-03 -0.5242904406790E-02  0.0000000000000E+00 -0.1849818735991E-02
 0.3252025798418E-03 -0.5112278666825E-02  0.0000000000000E+00 -0.1933121244327E-02
 0.2457017355425E-03 -0.4973937124870E-02  0.0000000000000E+00 -0.2003751291777E-02
 0.1774780192483E-03 -0.4830780670794E-02  0.0000000000000E+00 -0.2058315192927E-02
 0.1272478499649E-03 -0.4686431259545E-02  0.0000000000000E+00 -0.2093372243590E-02
 0.1023994071473E-03 -0.4545207715756E-02  0.0000000000000E+00 -0.2105235458882E-02
 0.1108416750646E-03 -0.4412042582904E-02  0.0000000000000E+00 -0.2089934128057E-02
 0.1608460225244E-03 -0.4292390866144E-02  0.0000000000000E+00 -0.2043427571845E-02
 0.2608597928611E-03 -0.4192129831799E-02  0.0000000000000E+00 -0.1961965350614E-02
 0.4192623129946E-03 -0.4117425976772E-02  0.0000000000000E+00 -0.1842553263612E-02
 0.6440339993579E-03 -0.4074535541430E-02  0.0000000000000E+00 -0.1683514351979E-02
 0.9423101504084E-03 -0.4069510690625E-02  0.0000000000000E+00 -0.1485125516659E-02
 0.1319802130712E-02 -0.4107791021242E-02  0.0000000000000E+00 -0.1250273374524E-02
 0.1780155660339E-02 -0.4193686490960E-02  0.0000000000000E+00 -0.9849906893485E-03
 0.2324409507863E-02 -0.4329837704197E-02  0.0000000000000E+00 -0.6987423452797E-03
 0.2950382051239E-02 -0.4516684176158E-02  0.0000000000000E+00 -0.4044711058628E-03
 0.3651931833940E-02 -0.4751902225284E-02  0.0000000000000E+00 -0.1181981750305E-03
 0.4418469866426E-02 -0.5029966638532E-02  0.0000000000000E+00  0.1420844761999E-03
 0.5234831888276E-02 -0.5341981638024E-02  0.0000000000000E+00  0.3581376961770E-03
 0.6081628129952E-02 -0.5675898462082E-02  0.0000000000000E+00  0.5136349331686E-03
 0.6936160466679E-02 -0.6017195358939E-02  0.0000000000000E+00  0.5964297764647E-03
 0.7773832034157E-02 -0.6349980732431E-02  0.0000000000000E+00  0.6004848461828E-03
 0.8569915293763E-02 -0.6658396499728E-02  0.0000000000000E+00  0.5270425044867E-03
 0.9301330976692E-02 -0.6928067733164E-02  0.0000000000000E+00  0.3848034038138E-03
 0.6774532555046E-04 -0.5401497526032E-02  0.0000000000000E+00 -0.1916488350169E-04
 0.2011774977638E-03 -0.5484528566731E-02  0.0000000000000E+00 -0.9531915097057E-04
 0.3289309139021E-03 -0.5563224616132E-02  0.0000000000000E+00 -0.1860938345920E-03
 0.4473890100757E-03 -0.5634833853204E-02  0.0000000000000E+00 -0.2889719768297E-03
 0.5533191032810E-03 -0.5696911508357E-02  0.0000000000000E+00 -0.4012152589910E-03
 0.6440916425436E-03 -0.5747474583730E-02  0.0000000000000E+00 -0.5200236781502E-03
 0.7177997444043E-03 -0.5785068787867E-02  0.0000000000000E+00 -0.6428094315433E-03
 0.7732671759703E-03 -0.5808742049527E-02  0.0000000000000E+00 -0.7674499249085E-03
 0.8099741530554E-03 -0.5817952951046E-02  0.0000000000000E+00 -0.8924303182021E-03
 0.8279453714696E-03 -0.5812453665819E-02  0.0000000000000E+00 -0.1016847151332E-02
 0.8276405856146E-03 -0.5792181634884E-02  0.0000000000000E+00 -0.1140291914791E-02
 0.8098746709213E-03 -0.5757181780720E-02  0.0000000000000E+00 -0.1262654865687E-02
 0.7757798810221E-03 -0.5707568337555E-02  0.0000000000000E+00 -0.1383893999489E-02
 0.7268124335325E-03 -0.5643527094371E-02  0.0000000000000E+00 -0.1503804643758E-02
 0.6648014376445E-03 -0.5565357211033E-02  0.0000000000000E+00 -0.1621811497948E-02
 0.5920236701627E-03 -0.5473536506032E-02  0.0000000000000E+00 -0.1736815809413E-02
 0.5112980386096E-03 -0.5368808428848E-02  0.0000000000000E+00 -0.1847096040104E-02
 0.4260853648992E-03 -0.5252281341956E-02  0.0000000000000E+00 -0.1950264604883E-02
 0.3405706220796E-03 -0.5125518359350E-02  0.0000000000000E+00 -0.2043291898384E-02
 0.2597260264791E-03 -0.4990621595407E-02  0.0000000000000E+00 -0.2122613247823E-02
 0.1893585941641E-03 -0.4850334540819E-02  0.0000000000000E+00 -0.2184453954741E-02
 0.1360893703176E-03 -0.4708135958627E-02  0.0000000000000E+00 -0.2224983268284E-02
 0.1072191368202E-03 -0.4568202131831E-02  0.0000000000000E+00 -0.2240096429545E-02
 0.1105828509180E-03 -0.4435318254436E-02  0.0000000000000E+00 -0.2225361860895E-02
 0.1544099211661E-03 -0.4314797998849E-02  0.0000000000000E+00 -0.2176239204490E-02
 0.2471642534787E-03 -0.4212405051214E-02  0.0000000000000E+00 -0.2088460441281E-02
 0.3973312487146E-03 -0.4134248245194E-02  0.0000000000000E+00 -0.1958533938974E-02
 0.6131189193870E-03 -0.4086613043008E-02  0.0000000000000E+00 -0.1784363681747E-02
 0.9020394940797E-03 -0.4075697129922E-02  0.0000000000000E+00 -0.1565967050495E-02
 0.1270346170002E-02 -0.4107223199564E-02  0.0000000000000E+00 -0.1306233938739E-02
 0.1722386767847E-02 -0.4185925214572E-02  0.0000000000000E+00 -0.1011575046464E-02
 0.2260030757608E-02 -0.4314986530263E-02  0.0000000000000E+00 -0.6923104629109E-03
 0.2881980959687E-02 -0.4495457916940E-02  0.0000000000000E+00 -0.3628104310738E-03
 0.3582911561149E-02 -0.4725609252660E-02  0.0000000000000E+00 -0.4114412370670E-04
 0.4352826034000E-02 -0.5000370353171E-02  0.0000000000000E+00  0.2520963397883E-03
 0.5176768888725E-02 -0.5311031644864E-02  0.0000000000000E+00  0.4957248456399E-03
 0.6035048630829E-02 -0.5645355851028E-02  0.0000000000000E+00  0.6704659214422E-03
 0.6904107651118E-02 -0.5988214884669E-02  0.0000000000000E+00  0.7616665384677E-03
 0.7757997702831E-02 -0.6322741600848E-02  0.0000000000000E+00  0.7616751327844E-03
 0.8570328184474E-02 -0.6631873540993E-02  0.0000000000000E+00  0.6713398357664E-03
 0.9316290591733E-02 -0.6899992332953E-02  0.0000000000000E+00  0.5002876043999E-03
 0.6918316139574E-04 -0.5369270141498E-02  0.0000000000000E+00  0.3150109564549E-04
 0.2053030164020E-03 -0.5454067118002E-02  0.0000000000000E+00 -0.4652877213965E-04
 0.3353819395510E-03 -0.5534398528794E-02  0.0000000000000E+00 -0.1410554434682E-03
 0.4557667969390E-03 -0.5607503713845E-02  0.0000000000000E+00 -0.2494209315411E-03
 0.5632017255258E-03 -0.5670948921040E-02  0.0000000000000E+00 -0.3686123457907E-03
 0.6550807011333E-03 -0.5722805199937E-02  0.0000000000000E+00 -0.4954793035090E-03
 0.7295732561976E-03 -0.5761715883584E-02  0.0000000000000E+00 -0.6270839226083E-03
 0.7856164521208E-03 -0.5786853143581E-02  0.0000000000000E+00 -0.7610150373471E-03
 0.8228144318116E-03 -0.5797802539816E-02  0.0000000000000E+00 -0.8955613145423E-03
 0.8413009494310E-03 -0.5794424295831E-02  0.0000000000000E+00 -0.1029715858676E-02
 0.8416113525662E-03 -0.5776730139490E-02  0.0000000000000E+00 -0.1163040789099E-02
 0.8245924676322E-03 -0.5744798000166E-02  0.0000000000000E+00 -0.1295442489823E-02
 0.7913619677742E-03 -0.5698732052496E-02  0.0000000000000E+00 -0.1426910062274E-02
 0.7433174482857E-03 -0.5638666902938E-02  0.0000000000000E+00 -0.1557256573622E-02
 0.6821915511334E-03 -0.5564813425580E-02  0.0000000000000E+00 -0.1685886578114E-02
 0.6101355697368E-03 -0.5477529792355E-02  0.0000000000000E+00 -0.1811625207492E-02
 0.5298241631258E-03 -0.5377414827171E-02  0.0000000000000E+00 -0.1932607266753E-02
 0.4445655685526E-03 -0.5265413508701E-02  0.0000000000000E+00 -0.2046229505685E-02
 0.3583930714857E-03 -0.5142912513877E-02  0.0000000000000E+00 -0.2149178193576E-02
 0.2761362875101E-03 -0.5011830862199E-02  0.0000000000000E+00 -0.2237546790262E-02
 0.2034787324746E-03 -0.4874738814376E-02  0.0000000000000E+00 -0.2307188147285E-02
 0.1469350376089E-03 -0.4734957328697E-02  0.0000000000000E+00 -0.2353887705566E-02
 0.1137063550037E-03 -0.4596503779718E-02  0.0000000000000E+00 -0.2373129014353E-02
 0.1115394184940E-03 -0.4463995868679E-02  0.0000000000000E+00 -0.2360022490186E-02
 0.1486067122748E-03 -0.4342582298844E-02  0.0000000000000E+00 -0.2309520908113E-02
 0.2333756933122E-03 -0.4237888001558E-02  0.0000000000000E+00 -0.2216813756183E-02
 0.3744308281983E-03 -0.4155940656809E-02  0.0000000000000E+00 -0.2077862391691E-02
 0.5802120170356E-03 -0.4103037533767E-02  0.0000000000000E+00 -0.1890072583495E-02
 0.8586303704000E-03 -0.4085516026447E-02  0.0000000000000E+00 -0.1653092309731E-02
 0.1216527311187E-02 -0.4109394019086E-02  0.0000000000000E+00 -0.1369679246029E-02
 0.1659029501422E-02 -0.4179865106244E-02  0.0000000000000E+00 -0.1046474374220E-02
 0.2188947467012E-02 -0.4300717804550E-02  0.0000000000000E+00 -0.6945157027954E-03
 0.2806009601771E-02 -0.4473703244178E-02  0.0000000000000E+00 -0.3295079187504E-03
 0.3505864523806E-02 -0.4697793149809E-02  0.0000000000000E+00  0.2843892685062E-04
 0.4279259429819E-02 -0.4968481300530E-02  0.0000000000000E+00  0.3560181826992E-03
 0.5111556018973E-02 -0.5277326326263E-02  0.0000000000000E+00  0.6288459136525E-03
 0.5982788101276E-02 -0.5611926471984E-02  0.0000000000000E+00  0.8243305004704E-03
 0.6868455072656E-02 -0.5956489179702E-02  0.0000000000000E+00  0.9248916681961E-03
 0.7741059658196E-02 -0.6293027608436E-02  0.0000000000000E+00  0.9208862868299E-03
 0.8572270217269E-02 -0.6603071262967E-02  0.0000000000000E+00  0.8125277017646E-03
 0.9335250746838E-02 -0.6869542487105E-02  0.0000000000000E+00  0.6102994748687E-03
 0.7077055695975E-04 -0.5337102201723E-02  0.0000000000000E+00  0.8337111174454E-04
 0.2098786223685E-03 -0.5423848081505E-02  0.0000000000000E+00  0.3432991939388E-05
 0.3425731320106E-03 -0.5505985130650E-02  0.0000000000000E+00 -0.9488066776436E-04
 0.4651390624007E-03 -0.5580728533416E-02  0.0000000000000E+00 -0.2087658045882E-03
 0.5742794468724E-03 -0.5645647814442E-02  0.0000000000000E+00 -0.3349055457091E-03
 0.6674078166770E-03 -0.5698872162992E-02  0.0000000000000E+00 -0.4697626273455E-03
 0.7427793685159E-03 -0.5739156793613E-02  0.0000000000000E+00 -0.6100219634207E-03
 0.7994616291996E-03 -0.5765817495635E-02  0.0000000000000E+00 -0.7529746706829E-03
 0.8372016566443E-03 -0.5778586101402E-02  0.0000000000000E+00 -0.8967219406498E-03
 0.8562585501949E-03 -0.5777446642525E-02  0.0000000000000E+00 -0.1040175825792E-02
 0.8572545009494E-03 -0.5762495909055E-02  0.0000000000000E+00 -0.1182898898887E-02
 0.8410738427736E-03 -0.5733850549791E-02  0.0000000000000E+00 -0.1324846219026E-02
 0.8088197837451E-03 -0.5691605827871E-02  0.0000000000000E+00 -0.1466070361843E-02
 0.7618265831558E-03 -0.5635842314487E-02  0.0000000000000E+00 -0.1606432809772E-02
 0.7017216223258E-03 -0.5566676195155E-02  0.0000000000000E+00 -0.1745346152878E-02
 0.6305187534246E-03 -0.5484336492630E-02  0.0000000000000E+00 -0.1881584499698E-02
 0.5507343722378E-03 -0.5389265329956E-02  0.0000000000000E+00 -0.2013160642112E-02
 0.4655092679445E-03 -0.5282230248916E-02  0.0000000000000E+00 -0.2137273958250E-02
 0.3787103612281E-03 -0.5164425992297E-02  0.0000000000000E+00 -0.2250342231234E-02
 0.2950108677193E-03 -0.5037572060965E-02  0.0000000000000E+00 -0.2348130642026E-02
 0.2199587303919E-03 -0.4904049968972E-02  0.0000000000000E+00 -0.2426129916536E-02
 0.1599509781510E-03 -0.4767008471449E-02  0.0000000000000E+00 -0.2479749970722E-02
 0.1220762395756E-03 -0.4630289566070E-02  0.0000000000000E+00 -0.2504071527647E-02
 0.1139771733704E-03 -0.4498322489796E-02  0.0000000000000E+00 -0.2493753215868E-02
 0.1437513398234E-03 -0.4376065369746E-02  0.0000000000000E+00 -0.2443236955399E-02
 0.2198520913778E-03 -0.4268975765251E-02  0.0000000000000E+00 -0.2347146867913E-02
 0.3509496675712E-03 -0.4182971590280E-02  0.0000000000000E+00 -0.2200847392820E-02
 0.5457124914813E-03 -0.4124337711293E-02  0.0000000000000E+00 -0.2001162786921E-02
 0.8124642430672E-03 -0.4099537357173E-02  0.0000000000000E+00 -0.1747252180864E-02
 0.1158673572807E-02 -0.4114887408609E-02  0.0000000000000E+00 -0.1441589130589E-02
 0.1590318466919E-02 -0.4176069954383E-02  0.0000000000000E+00 -0.1090873463408E-02
 0.2111262621135E-02 -0.4287538181092E-02  0.0000000000000E+00 -0.7066939318503E-03
 0.2722411961012E-02 -0.4451836410091E-02  0.0000000000000E+00 -0.3059651881749E-03
 0.3420570012142E-02 -0.4668758881260E-02  0.0000000000000E+00  0.8919323851275E-04
 0.4197410278023E-02 -0.4934492917905E-02  0.0000000000000E+00  0.4526516743091E-03
 0.5038755601575E-02 -0.5240972469572E-02  0.0000000000000E+00  0.7565543136672E-03
 0.5924422159530E-02 -0.5575677558114E-02  0.0000000000000E+00  0.9745687910041E-03
 0.6828895125556E-02 -0.5922102662680E-02  0.0000000000000E+00  0.1085682012432E-02
 0.7722915800451E-02 -0.6260986413041E-02  0.0000000000000E+00  0.1077793284052E-02
 0.8575895831653E-02 -0.6572218429810E-02  0.0000000000000E+00  0.9501846384299E-03
 0.9358634656323E-02 -0.6837017409471E-02  0.0000000000000E+00  0.7141195208621E-03
 0.7250597493066E-04 -0.5304963642804E-02  0.0000000000000E+00  0.1365587878313E-03
 0.2149018537127E-03 -0.5393838373445E-02  0.0000000000000E+00  0.5467486398006E-04
 0.3505022252252E-03 -0.5477946201123E-02  0.0000000000000E+00 -0.4747677824549E-04
 0.4754993582290E-03 -0.5554459427114E-02  0.0000000000000E+00 -0.1669374171842E-03
 0.5865345170970E-03 -0.5620942097629E-02  0.0000000000000E+00 -0.3000481068437E-03
 0.6810375686195E-03 -0.5675587316066E-02  0.0000000000000E+00 -0.4428393675741E-03
 0.7573617088840E-03 -0.5717279635165E-02  0.0000000000000E+00 -0.5915864867153E-03
 0.8147257481742E-03 -0.5745501027301E-02  0.0000000000000E+00 -0.7432728193617E-03
 0.8530415750510E-03 -0.5760151116164E-02  0.0000000000000E+00 -0.8958233957011E-03
 0.8727116883471E-03 -0.5761354583574E-02  0.0000000000000E+00 -0.1048095311616E-02
 0.8744571492048E-03 -0.5749304338018E-02  0.0000000000000E+00 -0.1199685224546E-02
 0.8592055352503E-03 -0.5724161408269E-02  0.0000000000000E+00 -0.1350632742297E-02
 0.8280456299829E-03 -0.5686013263282E-02  0.0000000000000E+00 -0.1501089108581E-02
 0.7822434918522E-03 -0.5634883731059E-02  0.0000000000000E+00 -0.1650997433289E-02
 0.7233122556641E-03 -0.5570788214934E-02  0.0000000000000E+00 -0.1799808948254E-02
 0.6531161195940E-03 -0.5493817473655E-02  0.0000000000000E+00 -0.1946274161935E-02
 0.5739988937099E-03 -0.5404245250570E-02  0.0000000000000E+00 -0.2088307630008E-02
 0.4889187725238E-03 -0.5302647994990E-02  0.0000000000000E+00 -0.2222931507389E-02
 0.4015614774979E-03 -0.5190013449223E-02  0.0000000000000E+00 -0.2346312401268E-02
 0.3164300205075E-03 -0.5067845628046E-02  0.0000000000000E+00 -0.2453902539851E-02
 0.2389247943554E-03 -0.4938322219479E-02  0.0000000000000E+00 -0.2540842723028E-02
 0.1753140395933E-03 -0.4804405740692E-02  0.0000000000000E+00 -0.2602177924812E-02
 0.1325604406141E-03 -0.4669746406808E-02  0.0000000000000E+00 -0.2632598187122E-02
 0.1181851320147E-03 -0.4538563335455E-02  0.0000000000000E+00 -0.2626320731526E-02
 0.1401896377913E-03 -0.4415596578205E-02  0.0000000000000E+00 -0.2577276980500E-02
 0.2069906286763E-03 -0.4306104212729E-02  0.0000000000000E+00 -0.2479506343728E-02
 0.3273239744846E-03 -0.4215860381219E-02  0.0000000000000E+00 -0.2327727890226E-02
 0.5100746366109E-03 -0.4151105919010E-02  0.0000000000000E+00 -0.2118098827543E-02
 0.7639828300643E-03 -0.4118406839500E-02  0.0000000000000E+00 -0.1849162025710E-02
 0.1097174105188E-02 -0.4124372867892E-02  0.0000000000000E+00 -0.1522939189495E-02
 0.1516543811304E-02 -0.4175194570108E-02  0.0000000000000E+00 -0.1145992411403E-02
 0.2027120816984E-02 -0.4276044239110E-02  0.0000000000000E+00 -0.7302599470539E-03
 0.2631150762560E-02 -0.4430354483714E-02  0.0000000000000E+00 -0.2937031763452E-03
 0.3326796025400E-02 -0.4638875334740E-02  0.0000000000000E+00  0.1396141334549E-03
 0.4106875239703E-02 -0.4898640540909E-02  0.0000000000000E+00  0.5406459023275E-03
 0.4957859801352E-02 -0.5202096721778E-02  0.0000000000000E+00  0.8777723435811E-03
 0.5859444699884E-02 -0.5536680733242E-02  0.0000000000000E+00  0.1120435243992E-02
 0.6785049089012E-02 -0.5885140764801E-02  0.0000000000000E+00  0.1243583577589E-02
 0.7703424691661E-02 -0.6226775223079E-02  0.0000000000000E+00  0.1232080885249E-02
 0.8581361123858E-02 -0.6539565218277E-02  0.0000000000000E+00  0.1083909229517E-02
 0.9386907289270E-02 -0.6802745583996E-02  0.0000000000000E+00  0.8110373412730E-03
 0.7438857867865E-04 -0.5272827114583E-02  0.0000000000000E+00  0.1911761410257E-03
 0.2203726922735E-03 -0.5364008187338E-02  0.0000000000000E+00  0.1073027747606E-03
 0.3591710004133E-03 -0.5450246683627E-02  0.0000000000000E+00  0.1242061518358E-05
 0.4868454777965E-03 -0.5528649151426E-02  0.0000000000000E+00 -0.1238790790121E-03
 0.5999518219740E-03 -0.5596764389890E-02  0.0000000000000E+00 -0.2640105863866E-03
 0.6959342715128E-03 -0.5652857523702E-02  0.0000000000000E+00 -0.4146949626502E-03
 0.7732603222703E-03 -0.5695963915667E-02  0.0000000000000E+00 -0.5717598241963E-03
 0.8313252646672E-03 -0.5725758034803E-02  0.0000000000000E+00 -0.7318705079403E-03
 0.8702310248478E-03 -0.5742331209509E-02  0.0000000000000E+00 -0.8927904930179E-03
 0.8905433681314E-03 -0.5745966586498E-02  0.0000000000000E+00 -0.1053352497651E-02
 0.8930949156145E-03 -0.5736964316544E-02  0.0000000000000E+00 -0.1213225041661E-02
 0.8788622766814E-03 -0.5715535243333E-02  0.0000000000000E+00 -0.1372571449974E-02
 0.8489197065688E-03 -0.5681760059195E-02  0.0000000000000E+00 -0.1531679427574E-02
 0.8044600452417E-03 -0.5635603321321E-02  0.0000000000000E+00 -0.1690609210836E-02
 0.7468730370111E-03 -0.5576973967764E-02  0.0000000000000E+00 -0.1848883539638E-02
 0.6778607873151E-03 -0.5505815884032E-02  0.0000000000000E+00 -0.2005259021743E-02
 0.5995798907988E-03 -0.5422223250189E-02  0.0000000000000E+00 -0.2157577898381E-02
 0.5147905022291E-03 -0.5326568239861E-02  0.0000000000000E+00 -0.2302707116628E-02
 0.4269821631375E-03 -0.5219617034160E-02  0.0000000000000E+00 -0.2436581074165E-02
 0.3404739504692E-03 -0.5102642754777E-02  0.0000000000000E+00 -0.2554356113403E-02
 0.2605069745008E-03 -0.4977604762506E-02  0.0000000000000E+00 -0.2650837265603E-02
 0.1932096998837E-03 -0.4847265842899E-02  0.0000000000000E+00 -0.2720717677838E-02
 0.1454051119819E-03 -0.4715068293022E-02  0.0000000000000E+00 -0.2758312627568E-02
 0.1244739027675E-03 -0.4584998979809E-02  0.0000000000000E+00 -0.2757413300997E-02
 0.1382973395901E-03 -0.4461550653778E-02  0.0000000000000E+00 -0.2711446528166E-02
 0.1952277279628E-03 -0.4349746375117E-02  0.0000000000000E+00 -0.2613852801220E-02
 0.3040390970291E-03 -0.4255176976544E-02  0.0000000000000E+00 -0.2458660846409E-02
 0.4738114165376E-03 -0.4183999705006E-02  0.0000000000000E+00 -0.2241275352698E-02
 0.7136941420495E-03 -0.4142850045511E-02  0.0000000000000E+00 -0.1959489734030E-02
 0.1032487840007E-02 -0.4138612641616E-02  0.0000000000000E+00 -0.1614691553701E-02
 0.1438062072416E-02 -0.4177995122338E-02  0.0000000000000E+00 -0.1213082656382E-02
 0.1936720090850E-02 -0.4266935401303E-02  0.0000000000000E+00 -0.7667114061760E-03
 0.2532218173366E-02 -0.4409849435773E-02  0.0000000000000E+00 -0.2943757840339E-03
 0.3224306156491E-02 -0.4608588448827E-02  0.0000000000000E+00  0.1780267505713E-03
 0.4007207947756E-02 -0.4861211243783E-02  0.0000000000000E+00  0.6184674202222E-03
 0.4868283478292E-02 -0.5160850343384E-02  0.0000000000000E+00  0.9912602444372E-03
 0.5787254160310E-02 -0.5495011272849E-02  0.0000000000000E+00  0.1261074349833E-02
 0.6736451467989E-02 -0.5845685755865E-02  0.0000000000000E+00  0.1398100471518E-02
 0.7682394790360E-02 -0.6190557407960E-02  0.0000000000000E+00  0.1383444379639E-02
 0.8588819409255E-02 -0.6505381743624E-02  0.0000000000000E+00  0.1213320587061E-02
 0.9420571797620E-02 -0.6767081809479E-02  0.0000000000000E+00  0.9003489948179E-03
 0.7641847157912E-04 -0.5240669082063E-02  0.0000000000000E+00  0.2473339559572E-03
 0.2262943212738E-03 -0.5334332300528E-02  0.0000000000000E+00  0.1614198758017E-03
 0.3685864258920E-03 -0.5422855986288E-02  0.0000000000000E+00  0.5135375707285E-04
 0.4991805633486E-03 -0.5503253051820E-02  0.0000000000000E+00 -0.7954887768663E-04
 0.6145195638578E-03 -0.5573046371055E-02  0.0000000000000E+00 -0.2267839600229E-03
 0.7120620789662E-03 -0.5630584427639E-02  0.0000000000000E+00 -0.3853377869645E-03
 0.7904112957858E-03 -0.5675079896578E-02  0.0000000000000E+00 -0.5505464630966E-03
 0.8491694044118E-03 -0.5706430415363E-02  0.0000000000000E+00 -0.7187478709476E-03
 0.8886572072274E-03 -0.5724945423823E-02  0.0000000000000E+00 -0.8875631406153E-03
 0.9096253704947E-03 -0.5731085090217E-02  0.0000000000000E+00 -0.1055836580555E-02
 0.9130312240950E-03 -0.5725267682470E-02  0.0000000000000E+00 -0.1223350824984E-02
 0.8999060625835E-03 -0.5707758835065E-02  0.0000000000000E+00 -0.1390435256405E-02
 0.8713092776181E-03 -0.5678633297122E-02  0.0000000000000E+00 -0.1557554097641E-02
 0.8283553310069E-03 -0.5637794060639E-02  0.0000000000000E+00 -0.1724922161259E-02
 0.7723013361416E-03 -0.5585038462149E-02  0.0000000000000E+00 -0.1892168613622E-02
 0.7046746955435E-03 -0.5520155564833E-02  0.0000000000000E+00 -0.2058088082746E-02
 0.6274298642329E-03 -0.5443049421995E-02  0.0000000000000E+00 -0.2220478599460E-02
 0.5431131962566E-03 -0.5353875306450E-02  0.0000000000000E+00 -0.2376075819944E-02
 0.4550029322875E-03 -0.5253163859874E-02  0.0000000000000E+00 -0.2520602536873E-02
 0.3672206415802E-03 -0.5141942573323E-02  0.0000000000000E+00 -0.2648937987027E-02
 0.2848368434227E-03 -0.5021938712515E-02  0.0000000000000E+00 -0.2755567588514E-02
 0.2138296813841E-03 -0.4895702582285E-02  0.0000000000000E+00 -0.2834848505086E-02
 0.1608686072359E-03 -0.4766452945083E-02  0.0000000000000E+00 -0.2880741411381E-02
 0.1331736845960E-03 -0.4637922079973E-02  0.0000000000000E+00 -0.2886632647569E-02
 0.1384786929760E-03 -0.4514324746072E-02  0.0000000000000E+00 -0.2845457134140E-02
 0.1850387117230E-03 -0.4400410225449E-02  0.0000000000000E+00 -0.2750049084785E-02
 0.2816307748490E-03 -0.4301541003000E-02  0.0000000000000E+00 -0.2593707639878E-02
 0.4374979494655E-03 -0.4223742911386E-02  0.0000000000000E+00 -0.2371002312985E-02
 0.6621788104686E-03 -0.4173676341466E-02  0.0000000000000E+00 -0.2078840967946E-02
 0.9651530124677E-03 -0.4158469246641E-02  0.0000000000000E+00 -0.1717782354207E-02
 0.1355308642287E-02 -0.4185340589270E-02  0.0000000000000E+00 -0.1293419715462E-02
 0.1840326101507E-02 -0.4261028869521E-02  0.0000000000000E+00 -0.8176303021280E-03
 0.2425649324813E-02 -0.4391025059433E-02  0.0000000000000E+00 -0.3097829061454E-03
 0.3112869167058E-02 -0.4578437622374E-02  0.0000000000000E+00  0.2025607642034E-03
 0.3897921296816E-02 -0.4822556808491E-02  0.0000000000000E+00  0.6843653997174E-03
 0.4769357050189E-02 -0.5117416270501E-02  0.0000000000000E+00  0.1095578047618E-02
 0.5707137403338E-02 -0.5450748056120E-02  0.0000000000000E+00  0.1395488351153E-02
 0.6682529960318E-02 -0.5803811093626E-02  0.0000000000000E+00  0.1548678635715E-02
 0.7659570751133E-02 -0.6152497056679E-02  0.0000000000000E+00  0.1531591277469E-02
 0.8598417359265E-02 -0.6469956004620E-02  0.0000000000000E+00  0.1338059646309E-02
 0.9460162190475E-02 -0.6730401454767E-02  0.0000000000000E+00  0.9813514914389E-03
 0.7859699977324E-04 -0.5208471177127E-02  0.0000000000000E+00  0.3051422949919E-03
 0.2326740754051E-03 -0.5304791672814E-02  0.0000000000000E+00  0.2171265721098E-03
 0.3787620626780E-03 -0.5395749543278E-02  0.0000000000000E+00  0.1029269834895E-03
 0.5125144228004E-03 -0.5478230138911E-02  0.0000000000000E+00 -0.3392249338036E-04
 0.6302300055307E-03 -0.5549719086860E-02  0.0000000000000E+00 -0.1883833194074E-03
 0.7293850111001E-03 -0.5608664031773E-02  0.0000000000000E+00 -0.3548028049282E-03
 0.8087462372637E-03 -0.5654487751200E-02  0.0000000000000E+00 -0.5279760015397E-03
 0.8681593767282E-03 -0.5687346728506E-02  0.0000000000000E+00 -0.7039062312492E-03
 0.9081968637404E-03 -0.5707797400192E-02  0.0000000000000E+00 -0.8800977247077E-03
 0.9298174960106E-03 -0.5716495866712E-02  0.0000000000000E+00 -0.1055448776362E-02
 0.9341166010169E-03 -0.5713988697655E-02  0.0000000000000E+00 -0.1229903142437E-02
 0.9221854245684E-03 -0.5700600535711E-02  0.0000000000000E+00 -0.1404001520532E-02
 0.8950678238451E-03 -0.5676400739322E-02  0.0000000000000E+00 -0.1578426493083E-02
 0.8537946113328E-03 -0.5641228752399E-02  0.0000000000000E+00 -0.1753586405135E-02
 0.7994810313457E-03 -0.5594765902034E-02  0.0000000000000E+00 -0.1929253558647E-02
 0.7334670908677E-03 -0.5536639341728E-02  0.0000000000000E+00 -0.2104294692048E-02
 0.6574899158199E-03 -0.5466553212743E-02  0.0000000000000E+00 -0.2276493987240E-02
 0.5738659611016E-03 -0.5384433918452E-02  0.0000000000000E+00 -0.2442481699572E-02
 0.4856469002965E-03 -0.5290563240767E-02  0.0000000000000E+00 -0.2597791244897E-02
 0.3967434692888E-03 -0.5185709080260E-02  0.0000000000000E+00 -0.2737045185163E-02
 0.3120449182205E-03 -0.5071353737117E-02  0.0000000000000E+00 -0.2854427465453E-02
 0.2373692596172E-03 -0.4949823255621E-02  0.0000000000000E+00 -0.2943977985588E-02
 0.1792188155417E-03 -0.4824098051972E-02  0.0000000000000E+00 -0.2999327661687E-02
 0.1446318480495E-03 -0.4697633605551E-02  0.0000000000000E+00 -0.3013485796579E-02
 0.1411646040317E-03 -0.4574334888788E-02  0.0000000000000E+00 -0.2978916082057E-02
 0.1769369614455E-03 -0.4458635774113E-02  0.0000000000000E+00 -0.2887847687042E-02
 0.2606859304642E-03 -0.4355620100599E-02  0.0000000000000E+00 -0.2732819086564E-02
 0.4017747019406E-03 -0.4271126090008E-02  0.0000000000000E+00 -0.2507487958685E-02
 0.6100965046876E-03 -0.4211782416116E-02  0.0000000000000E+00 -0.2207741299847E-02
 0.8957974180536E-03 -0.4184913139870E-02  0.0000000000000E+00 -0.1833105304011E-02
 0.1268811859790E-02 -0.4198225228753E-02  0.0000000000000E+00 -0.1388291774994E-02
 0.1738288931456E-02 -0.4259276700985E-02  0.0000000000000E+00 -0.8846809863109E-03
 0.2311539198033E-02 -0.4374717151572E-02  0.0000000000000E+00 -0.3418820021033E-03
 0.2992271994840E-02 -0.4549076104313E-02  0.0000000000000E+00  0.2111234226941E-03
 0.3778492234091E-02 -0.4783110700747E-02  0.0000000000000E+00  0.7363315068126E-03
 0.4660319985027E-02 -0.5072019439322E-02  0.0000000000000E+00  0.1189039099359E-02
 0.5618251349728E-02 -0.5403975270736E-02  0.0000000000000E+00  0.1522494414863E-02
 0.6622579622591E-02 -0.5759574211694E-02  0.0000000000000E+00  0.1694680561379E-02
 0.7634614461521E-02 -0.6112749482797E-02  0.0000000000000E+00  0.1676243382903E-02
 0.8610293141657E-02 -0.6433589374241E-02  0.0000000000000E+00  0.1457795094242E-02
 0.9506228518779E-02 -0.6693088189015E-02  0.0000000000000E+00  0.1053332962967E-02
 0.8092713449385E-04 -0.5176221864150E-02  0.0000000000000E+00  0.3647111762167E-03
 0.2395246358827E-03 -0.5275375408703E-02  0.0000000000000E+00  0.2745205614047E-03
 0.3897197978225E-03 -0.5368910688164E-02  0.0000000000000E+00  0.1560195192734E-03
 0.5268650843194E-03 -0.5453544292959E-02  0.0000000000000E+00  0.1300329190452E-04
 0.6470802542006E-03 -0.5526713157171E-02  0.0000000000000E+00 -0.1488523057757E-03
 0.7478668511765E-03 -0.5586986043331E-02  0.0000000000000E+00 -0.3231557301005E-03
 0.8281915537547E-03 -0.5634036456587E-02  0.0000000000000E+00 -0.5041062865987E-03
 0.8881874127387E-03 -0.5668321062664E-02  0.0000000000000E+00 -0.6873701142829E-03
 0.9287153487657E-03 -0.5690674470320E-02  0.0000000000000E+00 -0.8703683264801E-03
 0.9509667741131E-03 -0.5701967383960E-02  0.0000000000000E+00 -0.1052103184552E-02
 0.9561879835506E-03 -0.5702883580207E-02  0.0000000000000E+00 -0.1232731514582E-02
 0.9455347264538E-03 -0.5693809799601E-02  0.0000000000000E+00 -0.1413053066950E-02
 0.9200342023254E-03 -0.5674810177860E-02  0.0000000000000E+00 -0.1594011753285E-02
 0.8806282512954E-03 -0.5645659052392E-02  0.0000000000000E+00 -0.1776249337743E-02
 0.8282811603902E-03 -0.5605918299753E-02  0.0000000000000E+00 -0.1959719431268E-02
 0.7641329006871E-03 -0.5555047199317E-02  0.0000000000000E+00 -0.2143397094406E-02
 0.6896878661481E-03 -0.5492541174243E-02  0.0000000000000E+00 -0.2325085407053E-02
 0.6070161490711E-03 -0.5418086560481E-02  0.0000000000000E+00 -0.2501337214720E-02
 0.5189274202556E-03 -0.5331703687931E-02  0.0000000000000E+00 -0.2667520409311E-02
 0.4291085872258E-03 -0.5233887784622E-02  0.0000000000000E+00 -0.2818022859768E-02
 0.3422578135634E-03 -0.5125864377655E-02  0.0000000000000E+00 -0.2946747084049E-02
 0.2640242481598E-03 -0.5009724679230E-02  0.0000000000000E+00 -0.3047437396904E-02
 0.2007301081310E-03 -0.4888197068638E-02  0.0000000000000E+00 -0.3113424868062E-02
 0.1592100504340E-03 -0.4764438524530E-02  0.0000000000000E+00 -0.3137376939626E-02
 0.1468102328694E-03 -0.4642011790254E-02  0.0000000000000E+00 -0.3111315917680E-02
 0.1714724589674E-03 -0.4524991347158E-02  0.0000000000000E+00 -0.3026877486505E-02
 0.2418428308423E-03 -0.4418127322583E-02  0.0000000000000E+00 -0.2875819095139E-02
 0.3673501773969E-03 -0.4327005973362E-02  0.0000000000000E+00 -0.2650819518482E-02
 0.5581922086522E-03 -0.4258155072533E-02  0.0000000000000E+00 -0.2346614880028E-02
 0.8251492339642E-03 -0.4219030207998E-02  0.0000000000000E+00 -0.1961490694375E-02
 0.1179208741401E-02 -0.4217781866398E-02  0.0000000000000E+00 -0.1498983063584E-02
 0.1631062815177E-02 -0.4262785089375E-02  0.0000000000000E+00 -0.9696034458161E-03
 0.2190063579959E-02 -0.4361917398971E-02  0.0000000000000E+00 -0.3927969825680E-03
 0.2862337169217E-02 -0.4521296238014E-02  0.0000000000000E+00  0.2013714447940E-03
 0.3648370137284E-02 -0.4743410068085E-02  0.0000000000000E+00  0.7720542955115E-03
 0.4540315717456E-02 -0.5024941696052E-02  0.0000000000000E+00  0.1269653914898E-02
 0.5519603428396E-02 -0.5354787269925E-02  0.0000000000000E+00  0.1640669497180E-02
 0.6555730077771E-02 -0.5713009962242E-02  0.0000000000000E+00  0.1835343426989E-02
 0.7607076555404E-02 -0.6071443703613E-02  0.0000000000000E+00  0.1817135098533E-02
 0.8624577016912E-02 -0.6396586186235E-02  0.0000000000000E+00  0.1572237104162E-02
 0.9559307469641E-02 -0.6655497832863E-02  0.0000000000000E+00  0.1115566341491E-02
 0.8341396470082E-04 -0.5143918504512E-02  0.0000000000000E+00  0.4261514635783E-03
 0.2468655449191E-03 -0.5246083174199E-02  0.0000000000000E+00  0.3336968621235E-03
 0.4014919907590E-03 -0.5342332899725E-02  0.0000000000000E+00  0.2106760756034E-03
 0.5422606241957E-03 -0.5429165582550E-02  0.0000000000000E+00  0.6120617373609E-04
 0.6650730524558E-03 -0.5503958803594E-02  0.0000000000000E+00 -0.1082684498159E-03
 0.7674708432356E-03 -0.5565432866020E-02  0.0000000000000E+00 -0.2904977416003E-03
 0.8486674694151E-03 -0.5613562337952E-02  0.0000000000000E+00 -0.4790266826281E-03
 0.9091355989059E-03 -0.5649151667073E-02  0.0000000000000E+00 -0.6691890955138E-03
 0.9500656009470E-03 -0.5673346656216E-02  0.0000000000000E+00 -0.8583676711466E-03
 0.9729066653103E-03 -0.5687250191757E-02  0.0000000000000E+00 -0.1045727440830E-02
 0.9790680783411E-03 -0.5691690126007E-02  0.0000000000000E+00 -0.1231695206179E-02
 0.9697735268286E-03 -0.5687116820387E-02  0.0000000000000E+00 -0.1417379310060E-02
 0.9460318539918E-03 -0.5673588869016E-02  0.0000000000000E+00 -0.1604028213761E-02
 0.9086906526949E-03 -0.5650814527574E-02  0.0000000000000E+00 -0.1792557183130E-02
 0.8585545251700E-03 -0.5618234056781E-02  0.0000000000000E+00 -0.1983140370543E-02
 0.7965510130063E-03 -0.5575134356419E-02  0.0000000000000E+00 -0.2174899450474E-02
 0.7239362451968E-03 -0.5520794561609E-02  0.0000000000000E+00 -0.2365691732286E-02
 0.6425170878538E-03 -0.5454650648478E-02  0.0000000000000E+00 -0.2552022953774E-02
 0.5548455504793E-03 -0.5376449691360E-02  0.0000000000000E+00 -0.2729120994953E-02
 0.4643721154102E-03 -0.5286402123680E-02  0.0000000000000E+00 -0.2891162428980E-02
 0.3755951518196E-03 -0.5185466111324E-02  0.0000000000000E+00 -0.3031790142624E-02
 0.2939876800889E-03 -0.5075488914560E-02  0.0000000000000E+00 -0.3144477509896E-02
 0.2256799030427E-03 -0.4958934640976E-02  0.0000000000000E+00 -0.3222291049997E-02
 0.1772808691379E-03 -0.4838641005905E-02  0.0000000000000E+00 -0.3257599554355E-02
 0.1558919845655E-03 -0.4717795982748E-02  0.0000000000000E+00 -0.3242024001782E-02
 0.1692295919283E-03 -0.4600069026660E-02  0.0000000000000E+00 -0.3166630109741E-02
 0.2257904193298E-03 -0.4489817500548E-02  0.0000000000000E+00 -0.3022387239031E-02
 0.3350028086424E-03 -0.4392303797771E-02  0.0000000000000E+00 -0.2800941721618E-02
 0.5073019975837E-03 -0.4313872982398E-02  0.0000000000000E+00 -0.2495759532399E-02
 0.7540480529879E-03 -0.4262028732781E-02  0.0000000000000E+00 -0.2103679281164E-02
 0.1087262138356E-02 -0.4245295733321E-02  0.0000000000000E+00 -0.1626750967881E-02
 0.1519228927128E-02 -0.4272835847293E-02  0.0000000000000E+00 -0.1074200337070E-02
 0.2061504633557E-02 -0.4353801426081E-02  0.0000000000000E+00 -0.4648229174572E-03
 0.2722945795230E-02 -0.4496060501562E-02  0.0000000000000E+00  0.1706829583033E-03
 0.3506989550297E-02 -0.4704124210971E-02  0.0000000000000E+00  0.7888672702618E-03
 0.4408389530252E-02 -0.4976541916582E-02  0.0000000000000E+00  0.1335065051036E-02
 0.5410030471787E-02 -0.5303300079915E-02  0.0000000000000E+00  0.1748278383949E-02
 0.6480910710990E-02 -0.5664125168241E-02  0.0000000000000E+00  0.1969722633164E-02
 0.7576345361654E-02 -0.6028666914681E-02  0.0000000000000E+00  0.1953972762974E-02
 0.8641404048456E-02 -0.6359207116396E-02  0.0000000000000E+00  0.1681183791786E-02
 0.9619824491542E-02 -0.6617874172813E-02  0.0000000000000E+00  0.1167285355465E-02
 0.8606532486420E-04 -0.5111569938475E-02  0.0000000000000E+00  0.4895760085968E-03
 0.2547251315409E-03 -0.5216928188110E-02  0.0000000000000E+00  0.3947477836613E-03
 0.4141241326977E-03 -0.5316022508519E-02  0.0000000000000E+00  0.2669254065411E-03
 0.5587412921651E-03 -0.5405071673490E-02  0.0000000000000E+00  0.1106326720255E-03
 0.6842175052637E-03 -0.5481385586417E-02  0.0000000000000E+00 -0.6674964768646E-04
 0.7881590813907E-03 -0.5543878121084E-02  0.0000000000000E+00 -0.2569708227693E-03
 0.8700866900891E-03 -0.5592887179852E-02  0.0000000000000E+00 -0.4528614015988E-03
 0.9308744561137E-03 -0.5629619321762E-02  0.0000000000000E+00 -0.6494393571631E-03
 0.9720870035734E-03 -0.5655565596014E-02  0.0000000000000E+00 -0.8441076952658E-03
 0.9954562704694E-03 -0.5672076373890E-02  0.0000000000000E+00 -0.1036263081606E-02
 0.1002564794289E-02 -0.5680127471655E-02  0.0000000000000E+00 -0.1226663912700E-02
 0.9947060315855E-03 -0.5680232326289E-02  0.0000000000000E+00 -0.1416777477364E-02
 0.9728680753998E-03 -0.5672443095458E-02  0.0000000000000E+00 -0.1608199120062E-02
 0.9377991978126E-03 -0.5656401777126E-02  0.0000000000000E+00 -0.1802156966876E-02
 0.8901362394800E-03 -0.5631426520448E-02  0.0000000000000E+00 -0.1999085501409E-02
 0.8305824378822E-03 -0.5596629228322E-02  0.0000000000000E+00 -0.2198293347433E-02
 0.7601301211655E-03 -0.5551066744224E-02  0.0000000000000E+00 -0.2397730250578E-02
 0.6803056230707E-03 -0.5493915462112E-02  0.0000000000000E+00 -0.2593887781049E-02
 0.5933873160496E-03 -0.5424638233139E-02  0.0000000000000E+00 -0.2781881073413E-02
 0.5025770956086E-03 -0.5343149586693E-02  0.0000000000000E+00 -0.2955700052009E-02
 0.4121661977132E-03 -0.5250131092957E-02  0.0000000000000E+00 -0.3108751275328E-02
 0.3274461537406E-03 -0.5147178626680E-02  0.0000000000000E+00 -0.3234264701884E-02
 0.2543448129357E-03 -0.5036481583355E-02  0.0000000000000E+00 -0.3325083211915E-02
 0.1992239074738E-03 -0.4920539043460E-02  0.0000000000000E+00 -0.3373328742049E-02
 0.1689038256366E-03 -0.4802132196722E-02  0.0000000000000E+00 -0.3370272099026E-02
 0.1708241095659E-03 -0.4684479056074E-02  0.0000000000000E+00 -0.3306445939782E-02
 0.2132666380466E-03 -0.4571482284491E-02  0.0000000000000E+00 -0.3172040246703E-02
 0.3055817948361E-03 -0.4468002069776E-02  0.0000000000000E+00 -0.2957633049605E-02
 0.4583579930870E-03 -0.4380106870188E-02  0.0000000000000E+00 -0.2655317889730E-02
 0.6834558227635E-03 -0.4315245228067E-02  0.0000000000000E+00 -0.2260290194300E-02
 0.9938792053434E-03 -0.4282218325861E-02  0.0000000000000E+00 -0.1772795378519E-02
 0.1403521509745E-02 -0.4290909881771E-02  0.0000000000000E+00 -0.1200315680378E-02
 0.1926282138251E-02 -0.4351761408487E-02  0.0000000000000E+00 -0.5604241938843E-03
 0.2574067384173E-02 -0.4474539508145E-02  0.0000000000000E+00  0.1161307706501E-03
 0.3353790407300E-02 -0.4666091198201E-02  0.0000000000000E+00  0.7836919460717E-03
 0.4263486858911E-02 -0.4927283561844E-02  0.0000000000000E+00  0.1382465934018E-02
 0.5288186667521E-02 -0.5249666893796E-02  0.0000000000000E+00  0.1843201972875E-02
 0.6396796984499E-02 -0.5612915115948E-02  0.0000000000000E+00  0.2096576709975E-02
 0.7541621246478E-02 -0.5984422050829E-02  0.0000000000000E+00  0.2086436733643E-02
 0.8660843837591E-02 -0.6321710541802E-02  0.0000000000000E+00  0.1784280949667E-02
 0.9687960136134E-02 -0.6579716926739E-02  0.0000000000000E+00  0.1208135966841E-02
 0.8889261342539E-04 -0.5079199765779E-02  0.0000000000000E+00  0.5551010661308E-03
 0.2631429809247E-03 -0.5187940897463E-02  0.0000000000000E+00  0.4577627925889E-03
 0.4276781707431E-03 -0.5290002020872E-02  0.0000000000000E+00  0.3247764172106E-03
 0.5763619627515E-03 -0.5381249235071E-02  0.0000000000000E+00  0.1611907979323E-03
 0.7045296437230E-03 -0.5458921700430E-02  0.0000000000000E+00 -0.2446201232950E-04
 0.8098914582441E-03 -0.5522184519045E-02  0.0000000000000E+00 -0.2227637653591E-03
 0.8923526109841E-03 -0.5571815796406E-02  0.0000000000000E+00 -0.4257727590710E-03
 0.9532612231326E-03 -0.5609485414419E-02  0.0000000000000E+00 -0.6282247754730E-03
 0.9946041405717E-03 -0.5637063419661E-02  0.0000000000000E+00 -0.8276195843103E-03
 0.1018419580135E-02 -0.5656159116514E-02  0.0000000000000E+00 -0.1023665531229E-02
 0.1026470791074E-02 -0.5667896056497E-02  0.0000000000000E+00 -0.1217518307869E-02
 0.1020120676964E-02 -0.5672847589964E-02  0.0000000000000E+00 -0.1411053943317E-02
 0.1000333388022E-02 -0.5671057906623E-02  0.0000000000000E+00 -0.1606254674023E-02
 0.9677532236963E-03 -0.5662103654394E-02  0.0000000000000E+00 -0.1804698987908E-02
 0.9228422238807E-03 -0.5645182537299E-02  0.0000000000000E+00 -0.2007121425828E-02
 0.8660683379103E-03 -0.5619231275813E-02  0.0000000000000E+00 -0.2213059901213E-02
 0.7981447437802E-03 -0.5583080411205E-02  0.0000000000000E+00 -0.2420598081524E-02
 0.7202994472832E-03 -0.5535638811426E-02  0.0000000000000E+00 -0.2626249435060E-02
 0.6345207416107E-03 -0.5476075003860E-02  0.0000000000000E+00 -0.2825045566865E-02
 0.5437501969480E-03 -0.5403997526097E-02  0.0000000000000E+00 -0.3010815466774E-02
 0.4520662058627E-03 -0.5319803566249E-02  0.0000000000000E+00 -0.3176753835941E-02
 0.3645758345574E-03 -0.5224832074822E-02  0.0000000000000E+00 -0.3315877436639E-02
 0.2869963670827E-03 -0.5120989410866E-02  0.0000000000000E+00 -0.3420852173228E-02
 0.2254213540283E-03 -0.5010418492787E-02  0.0000000000000E+00 -0.3483613918632E-02
 0.1863528793559E-03 -0.4895462920333E-02  0.0000000000000E+00 -0.3495146200875E-02
 0.1768991274039E-03 -0.4778843107798E-02  0.0000000000000E+00 -0.3445500024341E-02
 0.2050555499263E-03 -0.4663943649648E-02  0.0000000000000E+00 -0.3324112675058E-02
 0.2800065738022E-03 -0.4555139417414E-02  0.0000000000000E+00 -0.3120479884129E-02
 0.4123920627665E-03 -0.4458117591063E-02  0.0000000000000E+00 -0.2825244449092E-02
 0.6144672040049E-03 -0.4380148453555E-02  0.0000000000000E+00 -0.2431782164404E-02
 0.9001308168593E-03 -0.4330180595794E-02  0.0000000000000E+00 -0.1938218697146E-02
 0.1284857471846E-02 -0.4318712261316E-02  0.0000000000000E+00 -0.1349802670980E-02
 0.1784991157968E-02 -0.4357443540795E-02  0.0000000000000E+00 -0.6822230774716E-03
 0.2415799011831E-02 -0.4458158345724E-02  0.0000000000000E+00  0.3445985325340E-04
 0.3188245711692E-02 -0.4630364594367E-02  0.0000000000000E+00  0.7529750169496E-03
 0.4104463367418E-02 -0.4877772517540E-02  0.0000000000000E+00  0.1408508483046E-02
 0.5152504911317E-02 -0.5194097205611E-02  0.0000000000000E+00  0.1922830808962E-02
 0.6301852101115E-02 -0.5559393075807E-02  0.0000000000000E+00  0.2214337291474E-02
 0.7501620584115E-02 -0.5938651682018E-02  0.0000000000000E+00  0.2213825964106E-02
 0.8683676225954E-02 -0.6284387507021E-02  0.0000000000000E+00  0.1881399203486E-02
 0.9760621925617E-02 -0.6538585721093E-02  0.0000000000000E+00  0.1236263266269E-02
 0.9192606523089E-04 -0.5046847381919E-02  0.0000000000000E+00  0.6228619260469E-03
 0.2721801703433E-03 -0.5159161514004E-02  0.0000000000000E+00  0.5228592814441E-03
 0.4422491723717E-03 -0.5264295396348E-02  0.0000000000000E+00  0.3842571186693E-03
 0.5952124750445E-03 -0.5357671893332E-02  0.0000000000000E+00  0.2127962311464E-03
 0.7260566820575E-03 -0.5436464338986E-02  0.0000000000000E+00  0.1843153703127E-04
 0.8326538363394E-03 -0.5500167513038E-02  0.0000000000000E+00 -0.1880558436104E-03
 0.9153920998816E-03 -0.5550094408419E-02  0.0000000000000E+00 -0.3979012829143E-03
 0.9761779245552E-03 -0.5588446814173E-02  0.0000000000000E+00 -0.6056149746437E-03
 0.1017470929722E-02 -0.5617506370153E-02  0.0000000000000E+00 -0.8088909282779E-03
 0.1041636786048E-02 -0.5639148134366E-02  0.0000000000000E+00 -0.1007840993803E-02
 0.1050623620888E-02 -0.5654638956464E-02  0.0000000000000E+00 -0.1204087150402E-02
 0.1045861321333E-02 -0.5664606886902E-02  0.0000000000000E+00 -0.1399962421628E-02
 0.1028286446435E-02 -0.5669086975686E-02  0.0000000000000E+00 -0.1597873102568E-02
 0.9984355241748E-03 -0.5667593722274E-02  0.0000000000000E+00 -0.1799783932837E-02
 0.9565900656866E-03 -0.5659209429281E-02  0.0000000000000E+00 -0.2006770323605E-02
 0.9029724675667E-03 -0.5642698841986E-02  0.0000000000000E+00 -0.2218645873821E-02
 0.8380007298193E-03 -0.5616664590534E-02  0.0000000000000E+00 -0.2433675543019E-02
 0.7625846415469E-03 -0.5579741006275E-02  0.0000000000000E+00 -0.2648436365539E-02
 0.6784034328424E-03 -0.5530792005309E-02  0.0000000000000E+00 -0.2857909233724E-02
 0.5881250170214E-03 -0.5469109555654E-02  0.0000000000000E+00 -0.3055789619079E-02
 0.4956092039927E-03 -0.5394798475787E-02  0.0000000000000E+00 -0.3235086073693E-02
 0.4057764984084E-03 -0.5308935510748E-02  0.0000000000000E+00 -0.3388635116990E-02
 0.3241258199996E-03 -0.5213135877176E-02  0.0000000000000E+00 -0.3508978484956E-02
 0.2564601842349E-03 -0.5109168099648E-02  0.0000000000000E+00 -0.3587936262693E-02
 0.2089220747994E-03 -0.4998905295493E-02  0.0000000000000E+00 -0.3616279220188E-02
 0.1882272183730E-03 -0.4884520542116E-02  0.0000000000000E+00 -0.3583641337746E-02
 0.2020037446288E-03 -0.4768811463864E-02  0.0000000000000E+00 -0.3478749283135E-02
 0.2591688304225E-03 -0.4655575556458E-02  0.0000000000000E+00 -0.3290020768084E-02
 0.3702924148057E-03 -0.4549998934771E-02  0.0000000000000E+00 -0.3006589373179E-02
 0.5478895675292E-03 -0.4459025592801E-02  0.0000000000000E+00 -0.2619849666216E-02
 0.8066271365879E-03 -0.4391584649419E-02  0.0000000000000E+00 -0.2125487754975E-02
 0.1163488010692E-02 -0.4358631094070E-02  0.0000000000000E+00 -0.1525982657114E-02
 0.1637325406674E-02 -0.4373038859727E-02  0.0000000000000E+00 -0.8343635958434E-03
 0.2247080450986E-02 -0.4448693756318E-02  0.0000000000000E+00 -0.7906708192337E-04
 0.3008427051464E-02 -0.4598110355688E-02  0.0000000000000E+00  0.6918697487422E-03
 0.3928601354140E-02 -0.4828475113140E-02  0.0000000000000E+00  0.1408939969032E-02
 0.4999863070358E-02 -0.5136464459150E-02  0.0000000000000E+00  0.1984209225764E-02
 0.6193194077726E-02 -0.5503145519889E-02  0.0000000000000E+00  0.2321760377227E-02
 0.7454810927404E-02 -0.5891140070679E-02  0.0000000000000E+00  0.2335696707488E-02
 0.8708325710219E-02 -0.6246627616378E-02  0.0000000000000E+00  0.1974262477988E-02
 0.9853823056050E-02 -0.6497989644642E-02  0.0000000000000E+00  0.1224305512202E-02
 0.9515789499005E-04 -0.5014578272170E-02  0.0000000000000E+00  0.6929730202592E-03
 0.2818953777866E-03 -0.5130670816650E-02  0.0000000000000E+00  0.5901164372410E-03
 0.4579292756357E-03 -0.5238969022163E-02  0.0000000000000E+00  0.4453164975692E-03
 0.6153725832605E-03 -0.5334347650512E-02  0.0000000000000E+00  0.2652488648693E-03
 0.7488185255107E-03 -0.5413932445688E-02  0.0000000000000E+00  0.6163739487807E-04
 0.8563879631416E-03 -0.5477655282549E-02  0.0000000000000E+00 -0.1531500430379E-03
 0.9390761478930E-03 -0.5527479588596E-02  0.0000000000000E+00 -0.3694924085314E-03
 0.9994441736396E-03 -0.5566213197548E-02  0.0000000000000E+00 -0.5817640489892E-03
 0.1040474993652E-02 -0.5596576850217E-02  0.0000000000000E+00 -0.7879767932704E-03
 0.1064877723165E-02 -0.5620709866204E-02  0.0000000000000E+00 -0.9887499839476E-03
 0.1074784213107E-02 -0.5640011147601E-02  0.0000000000000E+00 -0.1186242014243E-02
 0.1071685668292E-02 -0.5655154593497E-02  0.0000000000000E+00 -0.1383286570566E-02
 0.1056486707339E-02 -0.5666164464655E-02  0.0000000000000E+00 -0.1582745173317E-02
 0.1029613588232E-02 -0.5672498378956E-02  0.0000000000000E+00 -0.1787000169371E-02
 0.9911638884367E-03 -0.5673131997142E-02  0.0000000000000E+00 -0.1997507389995E-02
 0.9411063022418E-03 -0.5666665510216E-02  0.0000000000000E+00 -0.2214405145861E-02
 0.8795484189917E-03 -0.5651475527489E-02  0.0000000000000E+00 -0.2436192582985E-02
 0.8070611325380E-03 -0.5625916919575E-02  0.0000000000000E+00 -0.2659557905734E-02
 0.7249943108611E-03 -0.5588539701990E-02  0.0000000000000E+00 -0.2879468091812E-02
 0.6357286572795E-03 -0.5538309641528E-02  0.0000000000000E+00 -0.3089514271752E-02
 0.5429015321274E-03 -0.5475032815454E-02  0.0000000000000E+00 -0.3282545455633E-02
 0.4512483194010E-03 -0.5399520684920E-02  0.0000000000000E+00 -0.3451253503110E-02
 0.3660450930030E-03 -0.5313091732825E-02  0.0000000000000E+00 -0.3588115914847E-02
 0.2927836388725E-03 -0.5217124252733E-02  0.0000000000000E+00 -0.3684918738813E-02
 0.2372051177756E-03 -0.5112990160635E-02  0.0000000000000E+00 -0.3732309116424E-02
 0.2055692757095E-03 -0.5002267520893E-02  0.0000000000000E+00 -0.3719586532435E-02
 0.2050512060004E-03 -0.4887099582104E-02  0.0000000000000E+00 -0.3634832329205E-02
 0.2441904267229E-03 -0.4770613471900E-02  0.0000000000000E+00 -0.3465421718094E-02
 0.3333482452623E-03 -0.4657367253310E-02  0.0000000000000E+00 -0.3198960599758E-02
 0.4851338188912E-03 -0.4553811366982E-02  0.0000000000000E+00 -0.2824744919123E-02
 0.7148049243730E-03 -0.4468650710426E-02  0.0000000000000E+00 -0.2335735658131E-02
 0.1040709716044E-02 -0.4413078373089E-02  0.0000000000000E+00 -0.1731099835481E-02
 0.1484197158918E-02 -0.4400977987873E-02  0.0000000000000E+00 -0.1020340748034E-02
 0.2068142435385E-02 -0.4448346725308E-02  0.0000000000000E+00 -0.2291218964482E-03
 0.2813614243504E-02 -0.4571025562273E-02  0.0000000000000E+00  0.5949408889547E-03
 0.3734132414870E-02 -0.4780388375079E-02  0.0000000000000E+00  0.1378346940686E-02
 0.4827681706138E-02 -0.5077081976543E-02  0.0000000000000E+00  0.2022953718358E-02
 0.6068108851962E-02 -0.5444102255911E-02  0.0000000000000E+00  0.2416120413379E-02
 0.7399274471453E-02 -0.5842035117494E-02  0.0000000000000E+00  0.2451612498460E-02
 0.8734921802811E-02 -0.6208840382765E-02  0.0000000000000E+00  0.2056987207113E-02
 0.9975787707464E-02 -0.6469926649754E-02  0.0000000000000E+00  0.1200513197205E-02
 0.9863241938021E-04 -0.4982493504098E-02  0.0000000000000E+00  0.7655750050688E-03
 0.2923922315583E-03 -0.5102598436780E-02  0.0000000000000E+00  0.6595866710358E-03
 0.4748643639197E-03 -0.5214139378815E-02  0.0000000000000E+00  0.5078235776103E-03
 0.6369568081133E-03 -0.5311321308638E-02  0.0000000000000E+00  0.3182218788257E-03
 0.7728411813997E-03 -0.5391265101551E-02  0.0000000000000E+00  0.1047208468273E-03
 0.8810142404339E-03 -0.5454486046987E-02  0.0000000000000E+00 -0.1184778546163E-03
 0.9632351362994E-03 -0.5503737289291E-02  0.0000000000000E+00 -0.3408975001591E-03
 0.1022827112631E-02 -0.5542508870486E-02  0.0000000000000E+00 -0.5569137700369E-03
 0.1063343219948E-02 -0.5573977685797E-02  0.0000000000000E+00 -0.7650118592123E-03
 0.1087843060739E-02 -0.5600533151102E-02  0.0000000000000E+00 -0.9664343045805E-03
 0.1098633196447E-02 -0.5623685421151E-02  0.0000000000000E+00 -0.1163943929392E-02
 0.1097255916719E-02 -0.5644140190944E-02  0.0000000000000E+00 -0.1360910217761E-02
 0.1084578381813E-02 -0.5661907968895E-02  0.0000000000000E+00 -0.1560671087722E-02
 0.1060915672068E-02 -0.5676396551777E-02  0.0000000000000E+00 -0.1766049376809E-02
 0.1026181389892E-02 -0.5686487755145E-02  0.0000000000000E+00 -0.1978915943247E-02
 0.9800861483462E-03 -0.5690629742253E-02  0.0000000000000E+00 -0.2199782480997E-02
 0.9224146519056E-03 -0.5686979735764E-02  0.0000000000000E+00 -0.2427438796390E-02
 0.8533793703932E-03 -0.5673611591529E-02  0.0000000000000E+00 -0.2658736697270E-02
 0.7739810380672E-03 -0.5648754334983E-02  0.0000000000000E+00 -0.2888669000853E-02
 0.6863015323112E-03 -0.5611040114998E-02  0.0000000000000E+00 -0.3110752007359E-02
 0.5937562726525E-03 -0.5559972865941E-02  0.0000000000000E+00 -0.3317701557934E-02
 0.5009031661613E-03 -0.5496099867743E-02  0.0000000000000E+00 -0.3502102569795E-02
 0.4127975764859E-03 -0.5420442579391E-02  0.0000000000000E+00 -0.3656434409155E-02
 0.3346050157227E-03 -0.5333979427416E-02  0.0000000000000E+00 -0.3772540890843E-02
 0.2716280506314E-03 -0.5237557815572E-02  0.0000000000000E+00 -0.3841048117911E-02
 0.2296105538508E-03 -0.5132122228860E-02  0.0000000000000E+00 -0.3851021949030E-02
 0.2151913073524E-03 -0.5019104687250E-02  0.0000000000000E+00 -0.3789990973037E-02
 0.2364206003109E-03 -0.4900878942891E-02  0.0000000000000E+00 -0.3644365209942E-02
 0.3033022302274E-03 -0.4781252754222E-02  0.0000000000000E+00 -0.3400265326540E-02
 0.4283459263260E-03 -0.4666007469905E-02  0.0000000000000E+00 -0.3044850274212E-02
 0.6271674308691E-03 -0.4563386961058E-02  0.0000000000000E+00 -0.2568154589911E-02
 0.9192442689627E-03 -0.4484536022336E-02  0.0000000000000E+00 -0.1965550199771E-02
 0.1328281311513E-02 -0.4444077470522E-02  0.0000000000000E+00 -0.1242126752494E-02
 0.1881218193989E-02 -0.4460001401326E-02  0.0000000000000E+00 -0.4194485611303E-03
 0.2605139303483E-02 -0.4551697089090E-02  0.0000000000000E+00  0.4568571635049E-03
 0.3521127356339E-02 -0.4735453978634E-02  0.0000000000000E+00  0.1310532604511E-02
 0.4634746957902E-02 -0.5017099087442E-02  0.0000000000000E+00  0.2033165455438E-02
 0.5924645950330E-02 -0.5382888309653E-02  0.0000000000000E+00  0.2493109855620E-02
 0.7333140174686E-02 -0.5791874855229E-02  0.0000000000000E+00  0.2558699245109E-02
 0.8765627938022E-02 -0.6174775828729E-02  0.0000000000000E+00  0.2130542328459E-02
 0.1010982776634E-01 -0.6449481371815E-02  0.0000000000000E+00  0.1172224918867E-02
 0.1023902715295E-03 -0.4950731915910E-02  0.0000000000000E+00  0.8408224597392E-03
 0.3037997531916E-03 -0.5075106770406E-02  0.0000000000000E+00  0.7313395434041E-03
 0.4932360288156E-03 -0.5189940952313E-02  0.0000000000000E+00  0.5716254004608E-03
 0.6601091996793E-03 -0.5288625378863E-02  0.0000000000000E+00  0.3713396745870E-03
 0.7981640611025E-03 -0.5368357481136E-02  0.0000000000000E+00  0.1472016387331E-03
 0.9064558693537E-03 -0.5430433543958E-02  0.0000000000000E+00 -0.8448928686623E-04
 0.9877020634040E-03 -0.5478561785838E-02  0.0000000000000E+00 -0.3124558990263E-03
 0.1046104406755E-02 -0.5516988325706E-02  0.0000000000000E+00 -0.5312728297578E-03
 0.1085824659718E-02 -0.5549347946549E-02  0.0000000000000E+00 -0.7400888949097E-03
 0.1110268106858E-02 -0.5578250769419E-02  0.0000000000000E+00 -0.9408943970555E-03
 0.1121898091607E-02 -0.5605287446827E-02  0.0000000000000E+00 -0.1137118736335E-02
 0.1122293244753E-02 -0.5631176919844E-02  0.0000000000000E+00 -0.1332691054125E-02
 0.1112277076248E-02 -0.5655912743984E-02  0.0000000000000E+00 -0.1531435273810E-02
 0.1092054791026E-02 -0.5678862949294E-02  0.0000000000000E+00 -0.1736628461702E-02
 0.1061359933375E-02 -0.5698833649341E-02  0.0000000000000E+00 -0.1950586389886E-02
 0.1019644761599E-02 -0.5714139924792E-02  0.0000000000000E+00 -0.2174243889696E-02
 0.9663610004281E-03 -0.5722731919774E-02  0.0000000000000E+00 -0.2406744229348E-02
 0.9013428188754E-03 -0.5722404316014E-02  0.0000000000000E+00 -0.2645163401857E-02
 0.8252201200893E-03 -0.5711059161531E-02  0.0000000000000E+00 -0.2884565249988E-02
 0.7397636390949E-03 -0.5686987922895E-02  0.0000000000000E+00 -0.3118421799382E-02
 0.6481697346399E-03 -0.5649389965624E-02  0.0000000000000E+00 -0.3339340971765E-02
 0.5548312619668E-03 -0.5598551443236E-02  0.0000000000000E+00 -0.3539839200946E-02
 0.4645899235002E-03 -0.5535199208977E-02  0.0000000000000E+00 -0.3712469160841E-02
 0.3822731805955E-03 -0.5459905282067E-02  0.0000000000000E+00 -0.3849233195031E-02
 0.3127093771364E-03 -0.5372973208995E-02  0.0000000000000E+00 -0.3940849813121E-02
 0.2610677499549E-03 -0.5274681170203E-02  0.0000000000000E+00 -0.3976265701865E-02
 0.2333686885255E-03 -0.5165701243650E-02  0.0000000000000E+00 -0.3942569797711E-02
 0.2370614516169E-03 -0.5047579992034E-02  0.0000000000000E+00 -0.3825318385514E-02
 0.2816369561149E-03 -0.4923258860037E-02  0.0000000000000E+00 -0.3609243923188E-02
 0.3792903101420E-03 -0.4797670059053E-02  0.0000000000000E+00 -0.3279407588872E-02
 0.5457129235892E-03 -0.4678332281621E-02  0.0000000000000E+00 -0.2822808546096E-02
 0.8011860312093E-03 -0.4575990534510E-02  0.0000000000000E+00 -0.2230618439148E-02
 0.1171497887703E-02 -0.4505623061845E-02  0.0000000000000E+00 -0.1502626855076E-02
 0.1687633944162E-02 -0.4486944418838E-02  0.0000000000000E+00 -0.6548041820119E-03
 0.2383227287716E-02 -0.4542981883258E-02  0.0000000000000E+00  0.2712028098766E-03
 0.3288305181753E-02 -0.4695660511047E-02  0.0000000000000E+00  0.1198272004586E-02
 0.4418297494542E-02 -0.4957439548402E-02  0.0000000000000E+00  0.2008305852610E-02
 0.5759258859587E-02 -0.5319625444730E-02  0.0000000000000E+00  0.2548446122228E-02
 0.7253933650242E-02 -0.5741073733510E-02  0.0000000000000E+00  0.2655677784896E-02
 0.8798255736728E-02 -0.6145338843001E-02  0.0000000000000E+00  0.2199248107462E-02
 0.1025838251589E-01 -0.6435486633134E-02  0.0000000000000E+00  0.1133051969430E-02
 0.1064864078512E-03 -0.4919485028202E-02  0.0000000000000E+00  0.9188890533508E-03
 0.3162892247057E-03 -0.5048418036732E-02  0.0000000000000E+00  0.8054312501615E-03
 0.5132769686345E-03 -0.5166552617193E-02  0.0000000000000E+00  0.6364880868844E-03
 0.6850037840416E-03 -0.5266301728732E-02  0.0000000000000E+00  0.4240995764291E-03
 0.8248250244445E-03 -0.5345079811085E-02  0.0000000000000E+00  0.1884782570952E-03
 0.9326126172921E-03 -0.5405229274417E-02  0.0000000000000E+00 -0.5171702668818E-04
 0.1012279606722E-02 -0.5451604910010E-02  0.0000000000000E+00 -0.2845485593012E-03
 0.1069026320769E-02 -0.5489272231121E-02  0.0000000000000E+00 -0.5050648098892E-03
 0.1107647057542E-02 -0.5522302718428E-02  0.0000000000000E+00 -0.7133048409945E-03
 0.1131872019575E-02 -0.5553478685819E-02  0.0000000000000E+00 -0.9121352242227E-03
 0.1144292873048E-02 -0.5584429431361E-02  0.0000000000000E+00 -0.1105702820670E-02
 0.1146505041510E-02 -0.5615864122005E-02  0.0000000000000E+00 -0.1298505015898E-02
 0.1139281777262E-02 -0.5647756275247E-02  0.0000000000000E+00 -0.1494846851205E-02
 0.1122722539012E-02 -0.5679447760875E-02  0.0000000000000E+00 -0.1698461754203E-02
 0.1096389726958E-02 -0.5709693453282E-02  0.0000000000000E+00 -0.1912133577149E-02
 0.1059482443878E-02 -0.5736702209976E-02  0.0000000000000E+00 -0.2137270248063E-02
 0.1011112905581E-02 -0.5758236759316E-02  0.0000000000000E+00 -0.2373438559334E-02
 0.9507170825081E-03 -0.5771819010708E-02  0.0000000000000E+00 -0.2618009805171E-02
 0.8785297875384E-03 -0.5775019359700E-02  0.0000000000000E+00 -0.2866171685066E-02
 0.7959967890048E-03 -0.5765781395595E-02  0.0000000000000E+00 -0.3111384173295E-02
 0.7061005077075E-03 -0.5742997808257E-02  0.0000000000000E+00 -0.3346170721956E-02
 0.6130865199546E-03 -0.5706698107937E-02  0.0000000000000E+00 -0.3563017702625E-02
 0.5215954719199E-03 -0.5657319227507E-02  0.0000000000000E+00 -0.3754627398808E-02
 0.4361086313975E-03 -0.5595023073346E-02  0.0000000000000E+00 -0.3913269576523E-02
 0.3609465504401E-03 -0.5519554265871E-02  0.0000000000000E+00 -0.4029877598290E-02
 0.3006473479546E-03 -0.5430499185004E-02  0.0000000000000E+00 -0.4093404238720E-02
 0.2605347246346E-03 -0.5327732372862E-02  0.0000000000000E+00 -0.4090629592368E-02
 0.2473494749688E-03 -0.5211913720872E-02  0.0000000000000E+00 -0.4006400728295E-02
 0.2699144598588E-03 -0.5085016336095E-02  0.0000000000000E+00 -0.3824217375276E-02
 0.3398809596506E-03 -0.4950948826958E-02  0.0000000000000E+00 -0.3527173599550E-02
 0.4726896252868E-03 -0.4816223618988E-02  0.0000000000000E+00 -0.3099246509085E-02
 0.6890055315230E-03 -0.4690774260548E-02  0.0000000000000E+00 -0.2527131010532E-02
 0.1016269511763E-02 -0.4589426149346E-02  0.0000000000000E+00 -0.1804499078221E-02
 0.1489286894631E-02 -0.4533158177962E-02  0.0000000000000E+00 -0.9401193199477E-03
 0.2148596048645E-02 -0.4548515894671E-02  0.0000000000000E+00  0.3077789481601E-04
 0.3034579657797E-02 -0.4663688155889E-02  0.0000000000000E+00  0.1032931768174E-02
 0.4175254077917E-02 -0.4899428341060E-02  0.0000000000000E+00  0.1940125217567E-02
 0.5567662564157E-02 -0.5254505431684E-02  0.0000000000000E+00  0.2576478554753E-02
 0.7157740249475E-02 -0.5689641934826E-02  0.0000000000000E+00  0.2741490807587E-02
 0.8830576112168E-02 -0.6120105535176E-02  0.0000000000000E+00  0.2264499088239E-02
 0.1042419573556E-01 -0.6428302304107E-02  0.0000000000000E+00  0.1078722140257E-02
 0.1109954493629E-03 -0.4889014340441E-02  0.0000000000000E+00  0.9999741689426E-03
 0.3300882334528E-03 -0.5022831587354E-02  0.0000000000000E+00  0.8818962287881E-03
 0.5352839394659E-03 -0.5144206441999E-02  0.0000000000000E+00  0.7020643844557E-03
 0.7118462770237E-03 -0.5244395890392E-02  0.0000000000000E+00  0.4758341060366E-03
 0.8528521840444E-03 -0.5321263219256E-02  0.0000000000000E+00  0.2278048771174E-03
 0.9593502845532E-03 -0.5378548847195E-02  0.0000000000000E+00 -0.2078041795161E-04
 0.1036732507312E-02 -0.5422467695754E-02  0.0000000000000E+00 -0.2575907135707E-03
 0.1091312186580E-02 -0.5458944429748E-02  0.0000000000000E+00 -0.4785181299908E-03
 0.1128516350645E-02 -0.5492433603244E-02  0.0000000000000E+00 -0.6847527670857E-03
 0.1152358982435E-02 -0.5525818325436E-02  0.0000000000000E+00 -0.8801616657244E-03
 0.1165519842684E-02 -0.5560713095177E-02  0.0000000000000E+00 -0.1069641970361E-02
 0.1169586832962E-02 -0.5597790270740E-02  0.0000000000000E+00 -0.1258248361827E-02
 0.1165276300828E-02 -0.5637000826795E-02  0.0000000000000E+00 -0.1450744712777E-02
 0.1152589528173E-02 -0.5677678114026E-02  0.0000000000000E+00 -0.1651308708803E-02
 0.1130932782546E-02 -0.5718557474585E-02  0.0000000000000E+00 -0.1863206208681E-02
 0.1099264335420E-02 -0.5757778011753E-02  0.0000000000000E+00 -0.2088366896584E-02
 0.1056355576923E-02 -0.5792944235804E-02  0.0000000000000E+00 -0.2326859164684E-02
 0.1001225012866E-02 -0.5821317965746E-02  0.0000000000000E+00 -0.2576434260329E-02
 0.9336848312416E-03 -0.5840135045886E-02  0.0000000000000E+00 -0.2832467449170E-02
 0.8548393587879E-03 -0.5846983244747E-02  0.0000000000000E+00 -0.3088441856374E-02
 0.7674640771072E-03 -0.5840445796192E-02  0.0000000000000E+00 -0.3336817583070E-02
 0.6756808967317E-03 -0.5820300518934E-02  0.0000000000000E+00 -0.3570088490744E-02
 0.5839481108284E-03 -0.5786700483897E-02  0.0000000000000E+00 -0.3781187047100E-02
 0.4963964334103E-03 -0.5739395945017E-02  0.0000000000000E+00 -0.3962766217103E-02
 0.4168072934446E-03 -0.5677561855984E-02  0.0000000000000E+00 -0.4106102964813E-02
 0.3490345036891E-03 -0.5600075822366E-02  0.0000000000000E+00 -0.4200288217391E-02
 0.2976332320173E-03 -0.5505991391451E-02  0.0000000000000E+00 -0.4231937222794E-02
 0.2685378896142E-03 -0.5395042085008E-02  0.0000000000000E+00 -0.4185361860673E-02
 0.2697565305714E-03 -0.5268153469148E-02  0.0000000000000E+00 -0.4043043683209E-02
 0.3121642371542E-03 -0.5128054441250E-02  0.0000000000000E+00 -0.3786342365576E-02
 0.4105909387733E-03 -0.4979968759514E-02  0.0000000000000E+00 -0.3396377752671E-02
 0.5855742920590E-03 -0.4832560038420E-02  0.0000000000000E+00 -0.2855278346384E-02
 0.8655987201634E-03 -0.4699866250109E-02  0.0000000000000E+00 -0.2149940742376E-02
 0.1288792332615E-02 -0.4603439723945E-02  0.0000000000000E+00 -0.1280311382262E-02
 0.1902661617077E-02 -0.4572919721498E-02  0.0000000000000E+00 -0.2723561021599E-03
 0.2759247931933E-02 -0.4643160560988E-02  0.0000000000000E+00  0.8042527852583E-03
 0.3902296785264E-02 -0.4845003486709E-02  0.0000000000000E+00  0.1818148898703E-02
 0.5344552588750E-02 -0.5187810831650E-02  0.0000000000000E+00  0.2569678440233E-02
 0.7039238463417E-02 -0.5636995285809E-02  0.0000000000000E+00  0.2813757136401E-02
 0.8860111778635E-02 -0.6098722614936E-02  0.0000000000000E+00  0.2326584039607E-02
 0.1061035472562E-01 -0.6428909203952E-02  0.0000000000000E+00  0.1006116796807E-02
 0.1160194831187E-03 -0.4859675258848E-02  0.0000000000000E+00  0.1084311081381E-02
 0.3455003336031E-03 -0.4998747548203E-02  0.0000000000000E+00  0.9607325741629E-03
 0.5596337604996E-03 -0.5123196786823E-02  0.0000000000000E+00  0.7678462766029E-03
 0.7408732004291E-03 -0.5222945955925E-02  0.0000000000000E+00  0.5256609790443E-03
 0.8822507387336E-03 -0.5296678985571E-02  0.0000000000000E+00  0.2642662636169E-03
 0.9864865792732E-03 -0.5349994491048E-02  0.0000000000000E+00  0.7615272272832E-05
 0.1060778734111E-02 -0.5390691175529E-02  0.0000000000000E+00 -0.2320187374815E-03
 0.1112647121102E-02 -0.5425549627212E-02  0.0000000000000E+00 -0.4518519932020E-03
 0.1148116914861E-02 -0.5459310270325E-02  0.0000000000000E+00 -0.6545117321874E-03
 0.1171420158743E-02 -0.5494859819523E-02  0.0000000000000E+00 -0.8449729828228E-03
 0.1185272221811E-02 -0.5533733502861E-02  0.0000000000000E+00 -0.1028889904464E-02
 0.1191224901031E-02 -0.5576536826303E-02  0.0000000000000E+00 -0.1211839817732E-02
 0.1189931431698E-02 -0.5623196848821E-02  0.0000000000000E+00 -0.1399003131912E-02
 0.1181306450273E-02 -0.5673060377057E-02  0.0000000000000E+00 -0.1594972772356E-02
 0.1164622262687E-02 -0.5724882904249E-02  0.0000000000000E+00 -0.1803498148868E-02
 0.1138617685145E-02 -0.5776781681166E-02  0.0000000000000E+00 -0.2027075592206E-02
 0.1101729430774E-02 -0.5826244525222E-02  0.0000000000000E+00 -0.2266361414772E-02
 0.1052541093407E-02 -0.5870294660693E-02  0.0000000000000E+00 -0.2519588622871E-02
 0.9904107179719E-03 -0.5905833197108E-02  0.0000000000000E+00 -0.2782399271956E-02
 0.9160805066757E-03 -0.5930082682718E-02  0.0000000000000E+00 -0.3048340230115E-02
 0.8321271626292E-03 -0.5941311985807E-02  0.0000000000000E+00 -0.3309826882519E-02
 0.7425787313911E-03 -0.5939051065641E-02  0.0000000000000E+00 -0.3559396490707E-02
 0.6517363080061E-03 -0.5923174991015E-02  0.0000000000000E+00 -0.3790295844019E-02
 0.5633793001971E-03 -0.5893021759993E-02  0.0000000000000E+00 -0.3995681926952E-02
 0.4807207920197E-03 -0.5847190008525E-02  0.0000000000000E+00 -0.4167306586231E-02
 0.4068812179665E-03 -0.5783841327505E-02  0.0000000000000E+00 -0.4294532443379E-02
 0.3455844219413E-03 -0.5701201896039E-02  0.0000000000000E+00 -0.4363960830755E-02
 0.3018754504749E-03 -0.5598064402996E-02  0.0000000000000E+00 -0.4359565668918E-02
 0.2828187039661E-03 -0.5474259952372E-02  0.0000000000000E+00 -0.4263080302934E-02
 0.2982915699464E-03 -0.5331215071410E-02  0.0000000000000E+00 -0.4054470038752E-02
 0.3621366258695E-03 -0.5172602335898E-02  0.0000000000000E+00 -0.3712338644388E-02
 0.4941744922185E-03 -0.5005334191870E-02  0.0000000000000E+00 -0.3214406049378E-02
 0.7231379066859E-03 -0.4841914006121E-02  0.0000000000000E+00 -0.2540408505015E-02
 0.1089648323362E-02 -0.4703518914622E-02  0.0000000000000E+00 -0.1679994888108E-02
 0.1647801558593E-02 -0.4622044338740E-02  0.0000000000000E+00 -0.6467236326965E-03
 0.2462283031266E-02 -0.4638990186112E-02  0.0000000000000E+00  0.5001599389011E-03
 0.3596000781490E-02 -0.4797040645816E-02  0.0000000000000E+00  0.1629072624795E-02
 0.5083466970391E-02 -0.5120022171922E-02  0.0000000000000E+00  0.2517609050083E-02
 0.6891482477161E-02 -0.5582223144815E-02  0.0000000000000E+00  0.2868150209430E-02
 0.8883684957802E-02 -0.6080940550723E-02  0.0000000000000E+00  0.2385472637028E-02
 0.1082041897535E-01 -0.6438791904260E-02  0.0000000000000E+00  0.9125455189542E-03
 0.1216996894795E-03 -0.4831951166679E-02  0.0000000000000E+00  0.1172177410133E-02
 0.3629328287918E-03 -0.4976698952097E-02  0.0000000000000E+00  0.1041876792275E-02
 0.5868026810715E-03 -0.5103888647697E-02  0.0000000000000E+00  0.8330947769472E-03
 0.7723460163802E-03 -0.5201962379977E-02  0.0000000000000E+00  0.5724176287517E-03
 0.9129825360281E-03 -0.5271008662260E-02  0.0000000000000E+00  0.2967527743350E-03
 0.1013772714710E-02 -0.5319073308279E-02  0.0000000000000E+00  0.3268788647599E-04
 0.1084079778319E-02 -0.5355746992441E-02  0.0000000000000E+00 -0.2082691244625E-03
 0.1132679519366E-02 -0.5388592444999E-02  0.0000000000000E+00 -0.4252577428602E-03
 0.1166112893373E-02 -0.5422483440525E-02  0.0000000000000E+00 -0.6226346037989E-03
 0.1188736586993E-02 -0.5460186385739E-02  0.0000000000000E+00 -0.8065564924627E-03
 0.1203237543438E-02 -0.5503083821852E-02  0.0000000000000E+00 -0.9834065237855E-03
 0.1211099672161E-02 -0.5551682985495E-02  0.0000000000000E+00 -0.1159222734683E-02
 0.1212907874570E-02 -0.5605887369782E-02  0.0000000000000E+00 -0.1339537797186E-02
 0.1208505943355E-02 -0.5665083524547E-02  0.0000000000000E+00 -0.1529311411543E-02
 0.1197062414855E-02 -0.5728095079865E-02  0.0000000000000E+00 -0.1732761863995E-02
 0.1177129210241E-02 -0.5793078560666E-02  0.0000000000000E+00 -0.1952989372718E-02
 0.1146825003749E-02 -0.5857462445575E-02  0.0000000000000E+00 -0.2191331872114E-02
 0.1104284884230E-02 -0.5918065390459E-02  0.0000000000000E+00 -0.2446627177539E-02
 0.1048376722247E-02 -0.5971458087359E-02  0.0000000000000E+00 -0.2714885390116E-02
 0.9794536570741E-03 -0.6014486328749E-02  0.0000000000000E+00 -0.2989767250814E-02
 0.8999017280930E-03 -0.6045095509112E-02  0.0000000000000E+00 -0.3263660214280E-02
 0.8136911853875E-03 -0.6062567915800E-02  0.0000000000000E+00 -0.3529178693147E-02
 0.7249975460995E-03 -0.6066503684403E-02  0.0000000000000E+00 -0.3779970633696E-02
 0.6372511233756E-03 -0.6055826887149E-02  0.0000000000000E+00 -0.4009820158964E-02
 0.5530690656152E-03 -0.6028556764389E-02  0.0000000000000E+00 -0.4211082597307E-02
 0.4747941107943E-03 -0.5982142631039E-02  0.0000000000000E+00 -0.4373520533204E-02
 0.4052674457567E-03 -0.5913996852852E-02  0.0000000000000E+00 -0.4483871469056E-02
 0.3485820226046E-03 -0.5821987114088E-02  0.0000000000000E+00 -0.4525982766430E-02
 0.3107578323981E-03 -0.5704844776291E-02  0.0000000000000E+00 -0.4481156186990E-02
 0.3004807647697E-03 -0.5562621363815E-02  0.0000000000000E+00 -0.4328407518596E-02
 0.3302362376625E-03 -0.5397222024454E-02  0.0000000000000E+00 -0.4044357986466E-02
 0.4184857278149E-03 -0.5213340319652E-02  0.0000000000000E+00 -0.3602780126728E-02
 0.5932402523005E-03 -0.5021121129756E-02  0.0000000000000E+00 -0.2976265762614E-02
 0.8964073768819E-03 -0.4840159670761E-02  0.0000000000000E+00 -0.2143056680738E-02
 0.1387684441691E-02 -0.4703251924989E-02  0.0000000000000E+00 -0.1101114172284E-02
 0.2144756996691E-02 -0.4657841417147E-02  0.0000000000000E+00  0.1066787741790E-03
 0.3253131611601E-02 -0.4759845933076E-02  0.0000000000000E+00  0.1356005189838E-02
 0.4776705803391E-02 -0.5052155441621E-02  0.0000000000000E+00  0.2405681585022E-02
 0.6705411079819E-02 -0.5524195623790E-02  0.0000000000000E+00  0.2897635923647E-02
 0.8896837728318E-02 -0.6066498630063E-02  0.0000000000000E+00  0.2441008323626E-02
 0.1105864553620E-01 -0.6459924911216E-02  0.0000000000000E+00  0.7953413716691E-03
 0.1282341084704E-03 -0.4806503140140E-02  0.0000000000000E+00  0.1263908466709E-02
 0.3829365098706E-03 -0.4957395698978E-02  0.0000000000000E+00  0.1125159954575E-02
 0.6173888291152E-03 -0.5086722490903E-02  0.0000000000000E+00  0.8967349415514E-03
 0.8065361829940E-03 -0.5181392894432E-02  0.0000000000000E+00  0.6145769551032E-03
 0.9449352803728E-03 -0.5243801827052E-02  0.0000000000000E+00  0.3239402350334E-03
 0.1040870299601E-02 -0.5285171399516E-02  0.0000000000000E+00  0.5360099597002E-04
 0.1106230901078E-02 -0.5317029090753E-02  0.0000000000000E+00 -0.1867472383801E-03
 0.1151020080518E-02 -0.5347538757758E-02  0.0000000000000E+00 -0.3988753762748E-03
 0.1182150990468E-02 -0.5381489708481E-02  0.0000000000000E+00 -0.5891341566717E-03
 0.1203983163173E-02 -0.5421379979732E-02  0.0000000000000E+00 -0.7648807104733E-03
 0.1219101900265E-02 -0.5468361049037E-02  0.0000000000000E+00 -0.9331559677700E-03
 0.1228889928242E-02 -0.5522811362531E-02  0.0000000000000E+00 -0.1100367179659E-02
 0.1233860134368E-02 -0.5584613486761E-02  0.0000000000000E+00 -0.1272312090237E-02
 0.1233805484653E-02 -0.5653223817344E-02  0.0000000000000E+00 -0.1454247178516E-02
 0.1227829376077E-02 -0.5727590032744E-02  0.0000000000000E+00 -0.1650824199638E-02
 0.1214342743404E-02 -0.5805983742653E-02  0.0000000000000E+00 -0.1865771011059E-02
 0.1191177300960E-02 -0.5885851507320E-02  0.0000000000000E+00 -0.2101205373679E-02
 0.1156013237678E-02 -0.5963859371617E-02  0.0000000000000E+00 -0.2356718331727E-02
 0.1107187684432E-02 -0.6036259674150E-02  0.0000000000000E+00 -0.2628820285059E-02
 0.1044628943543E-02 -0.6099507392464E-02  0.0000000000000E+00 -0.2911352380193E-02
 0.9705385589272E-03 -0.6151208274061E-02  0.0000000000000E+00 -0.3196691209424E-02
 0.8888709331642E-03 -0.6190389531955E-02  0.0000000000000E+00 -0.3477560033055E-02
 0.8037135048451E-03 -0.6216372487653E-02  0.0000000000000E+00 -0.3748096394709E-02
 0.7181513437932E-03 -0.6227661471910E-02  0.0000000000000E+00 -0.4002832743761E-02
 0.6341788766033E-03 -0.6221696121554E-02  0.0000000000000E+00 -0.4234846504487E-02
 0.5533221618914E-03 -0.6195229764746E-02  0.0000000000000E+00 -0.4434414933190E-02
 0.4775020021370E-03 -0.6144897252391E-02  0.0000000000000E+00 -0.4588552129058E-02
 0.4098214937250E-03 -0.6067691590830E-02  0.0000000000000E+00 -0.4681193190607E-02
 0.3551936058803E-03 -0.5961288995954E-02  0.0000000000000E+00 -0.4693557250303E-02
 0.3209653066819E-03 -0.5824360057265E-02  0.0000000000000E+00 -0.4604247821655E-02
 0.3179314663850E-03 -0.5656902718290E-02  0.0000000000000E+00 -0.4388631171612E-02
 0.3625401336620E-03 -0.5460986051010E-02  0.0000000000000E+00 -0.4017337515605E-02
 0.4809750867501E-03 -0.5243559919506E-02  0.0000000000000E+00 -0.3456358831359E-02
 0.7148355773166E-03 -0.5021218015079E-02  0.0000000000000E+00 -0.2672065498597E-02
 0.1127660410416E-02 -0.4825713016455E-02  0.0000000000000E+00 -0.1644004683564E-02
 0.1809441569556E-02 -0.4708730166007E-02  0.0000000000000E+00 -0.3919348166802E-03
 0.2871183625113E-02 -0.4739918211229E-02  0.0000000000000E+00  0.9776583982746E-03
 0.4415335950941E-02 -0.4986326775140E-02  0.0000000000000E+00  0.2213514581645E-02
 0.6469108266839E-02 -0.5461639313925E-02  0.0000000000000E+00  0.2891129170463E-02
 0.8893027605810E-02 -0.6054948595273E-02  0.0000000000000E+00  0.2492730807064E-02
 0.1133030404551E-01 -0.6494882231176E-02  0.0000000000000E+00  0.6516352702982E-03
 0.1359055180694E-03 -0.4784244424429E-02  0.0000000000000E+00  0.1359914025265E-02
 0.4062631710781E-03 -0.4941785019532E-02  0.0000000000000E+00  0.1210230778878E-02
 0.6521360120832E-03 -0.5072209667033E-02  0.0000000000000E+00  0.9571977139775E-03
 0.8436942141993E-03 -0.5161063268017E-02  0.0000000000000E+00  0.6501423318511E-03
 0.9778774795561E-03 -0.5214417793749E-02  0.0000000000000E+00  0.3442839803232E-03
 0.1067323825381E-02 -0.5247525192385E-02  0.0000000000000E+00  0.6950753535701E-04
 0.1126752874925E-02 -0.5273848605921E-02  0.0000000000000E+00 -0.1677837225149E-03
 0.1167243361768E-02 -0.5301820442527E-02  0.0000000000000E+00 -0.3727656134622E-03
 0.1195865111884E-02 -0.5335858584619E-02  0.0000000000000E+00 -0.5539681224068E-03
 0.1216833813683E-02 -0.5378028310923E-02  0.0000000000000E+00 -0.7198883591812E-03
 0.1232555061836E-02 -0.5429172706700E-02  0.0000000000000E+00 -0.8781046122989E-03
 0.1244277852878E-02 -0.5489514600293E-02  0.0000000000000E+00 -0.1035271866381E-02
 0.1252441419747E-02 -0.5558921041923E-02  0.0000000000000E+00 -0.1197343334318E-02
 0.1256811558764E-02 -0.5636951078257E-02  0.0000000000000E+00 -0.1369779541894E-02
 0.1256473233506E-02 -0.5722738817161E-02  0.0000000000000E+00 -0.1557604596202E-02
 0.1249757497450E-02 -0.5814762051264E-02  0.0000000000000E+00 -0.1765175877638E-02
 0.1234259588098E-02 -0.5910587736026E-02  0.0000000000000E+00 -0.1995487379809E-02
 0.1207210896292E-02 -0.6006806918091E-02  0.0000000000000E+00 -0.2249060330885E-02
 0.1166373801092E-02 -0.6099379102416E-02  0.0000000000000E+00 -0.2523080667499E-02
 0.1111204096476E-02 -0.6184352325667E-02  0.0000000000000E+00 -0.2811663952785E-02
 0.1043720196561E-02 -0.6258965579674E-02  0.0000000000000E+00 -0.3107198143711E-02
 0.9679072722449E-03 -0.6321969872237E-02  0.0000000000000E+00 -0.3402546391813E-02
 0.8878064229953E-03 -0.6372390269878E-02  0.0000000000000E+00 -0.3692424410905E-02
 0.8061606366147E-03 -0.6408296799680E-02  0.0000000000000E+00 -0.3972225491190E-02
 0.7243145458583E-03 -0.6426551491279E-02  0.0000000000000E+00 -0.4235847295196E-02
 0.6429447481440E-03 -0.6423242999795E-02  0.0000000000000E+00 -0.4474172889702E-02
 0.5630295212011E-03 -0.6394290802968E-02  0.0000000000000E+00 -0.4674614814261E-02
 0.4866728656909E-03 -0.6335900949787E-02  0.0000000000000E+00 -0.4821400789099E-02
 0.4176649904032E-03 -0.6244794765189E-02  0.0000000000000E+00 -0.4896028910985E-02
 0.3619319348452E-03 -0.6118337420066E-02  0.0000000000000E+00 -0.4877295801661E-02
 0.3283151433864E-03 -0.5954587809035E-02  0.0000000000000E+00 -0.4740216544554E-02
 0.3306370827132E-03 -0.5752705750072E-02  0.0000000000000E+00 -0.4453440683761E-02
 0.3920867803300E-03 -0.5515691961739E-02  0.0000000000000E+00 -0.3977536526882E-02
 0.5520255673260E-03 -0.5255617848951E-02  0.0000000000000E+00 -0.3267493863188E-02
 0.8751902135312E-03 -0.5000676030639E-02  0.0000000000000E+00 -0.2282619875551E-02
 0.1461627637729E-02 -0.4803768260414E-02  0.0000000000000E+00 -0.1012652802418E-02
 0.2449290175364E-02 -0.4747079010996E-02  0.0000000000000E+00  0.4676230237526E-03
 0.3989417650030E-02 -0.4926705734559E-02  0.0000000000000E+00  0.1912695796697E-02
 0.6166807337546E-02 -0.5393314713980E-02  0.0000000000000E+00  0.2831150713887E-02
 0.8862395437298E-02 -0.6045420129745E-02  0.0000000000000E+00  0.2539278334532E-02
 0.1164211838441E-01 -0.6547073122269E-02  0.0000000000000E+00  0.4782302868571E-03
 0.1451264594819E-03 -0.4766455322317E-02  0.0000000000000E+00  0.1460698528163E-02
 0.4339497360895E-03 -0.4931134642238E-02  0.0000000000000E+00  0.1296418656822E-02
 0.6919538021637E-03 -0.5060906138004E-02  0.0000000000000E+00  0.1012180551476E-02
 0.8839912864180E-03 -0.5140579306986E-02  0.0000000000000E+00  0.6765246402776E-03
 0.1011394765011E-02 -0.5181948053193E-02  0.0000000000000E+00  0.3560440500746E-03
 0.1092530668368E-02 -0.5205193607268E-02  0.0000000000000E+00  0.7962404601004E-04
 0.1145087757058E-02 -0.5225435092306E-02  0.0000000000000E+00 -0.1515775657631E-03
 0.1180893020645E-02 -0.5250844681123E-02  0.0000000000000E+00 -0.3468789171920E-03
 0.1206883167926E-02 -0.5285121984026E-02  0.0000000000000E+00 -0.5170241824772E-03
 0.1226967907798E-02 -0.5329733199278E-02  0.0000000000000E+00 -0.6714896962244E-03
 0.1243296433463E-02 -0.5385144406397E-02  0.0000000000000E+00 -0.8182191192186E-03
 0.1256954886430E-02 -0.5451402805960E-02  0.0000000000000E+00 -0.9639657330974E-03
 0.1268309638139E-02 -0.5528368472543E-02  0.0000000000000E+00 -0.1114708520994E-02
 0.1277125390382E-02 -0.5615736807207E-02  0.0000000000000E+00 -0.1275996839546E-02
 0.1282521896068E-02 -0.5712894243543E-02  0.0000000000000E+00 -0.1453135449075E-02
 0.1282827543753E-02 -0.5818630056836E-02  0.0000000000000E+00 -0.1651079918251E-02
 0.1275476834329E-02 -0.5930763701108E-02  0.0000000000000E+00 -0.1873783324368E-02
 0.1257279073670E-02 -0.6045925276237E-02  0.0000000000000E+00 -0.2122902766807E-02
 0.1225377676999E-02 -0.6159830221493E-02  0.0000000000000E+00 -0.2396533321984E-02
 0.1178693092059E-02 -0.6268103846058E-02  0.0000000000000E+00 -0.2689204012397E-02
 0.1119053022124E-02 -0.6367575273597E-02  0.0000000000000E+00 -0.2993351363305E-02
 0.1050522056327E-02 -0.6456674852279E-02  0.0000000000000E+00 -0.3302012754448E-02
 0.9771374501791E-03 -0.6534089874533E-02  0.0000000000000E+00 -0.3610568612706E-02
 0.9012987450645E-03 -0.6597425976596E-02  0.0000000000000E+00 -0.3915365856201E-02
 0.8236722900828E-03 -0.6642971600159E-02  0.0000000000000E+00 -0.4211184560544E-02
 0.7440604704881E-03 -0.6666201450363E-02  0.0000000000000E+00 -0.4489569091261E-02
 0.6624946721137E-03 -0.6662411690064E-02  0.0000000000000E+00 -0.4738426130983E-02
 0.5801008710008E-03 -0.6627147725588E-02  0.0000000000000E+00 -0.4942460402251E-02
 0.4995834838499E-03 -0.6556333562596E-02  0.0000000000000E+00 -0.5083799336097E-02
 0.4254482424288E-03 -0.6446196013274E-02  0.0000000000000E+00 -0.5142069017805E-02
 0.3644265360587E-03 -0.6292959904683E-02  0.0000000000000E+00 -0.5092971238428E-02
 0.3272102912969E-03 -0.6092775793993E-02  0.0000000000000E+00 -0.4904665067022E-02
 0.3328733307350E-03 -0.5844146552162E-02  0.0000000000000E+00 -0.4534148724108E-02
 0.4164128525665E-03 -0.5553192892620E-02  0.0000000000000E+00 -0.3926758928372E-02
 0.6402541958523E-03 -0.5241629118584E-02  0.0000000000000E+00 -0.3021517973952E-02
 0.1110181044105E-02 -0.4959015024440E-02  0.0000000000000E+00 -0.1772422671754E-02
 0.1989697330554E-02 -0.4796099677382E-02  0.0000000000000E+00 -0.2059689523167E-03
 0.3488730396905E-02 -0.4881162657164E-02  0.0000000000000E+00  0.1463799135519E-02
 0.5777643795376E-02 -0.5318517856037E-02  0.0000000000000E+00  0.2689842930114E-02
 0.8789761494656E-02 -0.6036293474892E-02  0.0000000000000E+00  0.2576999375317E-02
 0.1200288551514E-01 -0.6621155134742E-02  0.0000000000000E+00  0.2715425306899E-03
 0.1565141923059E-03 -0.4754966432354E-02  0.0000000000000E+00  0.1566882846647E-02
 0.4674421918921E-03 -0.4927145956476E-02  0.0000000000000E+00  0.1382484918214E-02
 0.7379213477565E-03 -0.5053339322791E-02  0.0000000000000E+00  0.1058284927509E-02
 0.9274147926466E-03 -0.5119167806341E-02  0.0000000000000E+00  0.6904165425842E-03
 0.1044804075214E-02 -0.5145119210248E-02  0.0000000000000E+00  0.3573707993563E-03
 0.1115713551308E-02 -0.5157038741702E-02  0.0000000000000E+00  0.8334592149359E-04
 0.1160602326073E-02 -0.5170948191495E-02  0.0000000000000E+00 -0.1381276962573E-03
 0.1191491798544E-02 -0.5194008725042E-02  0.0000000000000E+00 -0.3210242232587E-03
 0.1214836172357E-02 -0.5228826259833E-02  0.0000000000000E+00 -0.4781062296912E-03
 0.1234077861617E-02 -0.5276120229925E-02  0.0000000000000E+00 -0.6195567939795E-03
 0.1251041747750E-02 -0.5335928177467E-02  0.0000000000000E+00 -0.7534647925744E-03
 0.1266628270686E-02 -0.5408111695871E-02  0.0000000000000E+00 -0.8865090920171E-03
 0.1281134441074E-02 -0.5492535781523E-02  0.0000000000000E+00 -0.1024549056196E-02
 0.1294350461455E-02 -0.5589064357712E-02  0.0000000000000E+00 -0.1173087546587E-02
 0.1305487422465E-02 -0.5697400794536E-02  0.0000000000000E+00 -0.1337584047579E-02
 0.1312963359238E-02 -0.5816761348755E-02  0.0000000000000E+00 -0.1523513557242E-02
 0.1314159188887E-02 -0.5945383584932E-02  0.0000000000000E+00 -0.1735837609324E-02
 0.1305521424016E-02 -0.6080101625103E-02  0.0000000000000E+00 -0.1977577026158E-02
 0.1283537310361E-02 -0.6216475315224E-02  0.0000000000000E+00 -0.2248046373859E-02
 0.1246511238486E-02 -0.6349698321239E-02  0.0000000000000E+00 -0.2542399632181E-02
 0.1196057860976E-02 -0.6476124448097E-02  0.0000000000000E+00 -0.2853192762823E-02
 0.1136366752098E-02 -0.6593780428273E-02  0.0000000000000E+00 -0.3173683805527E-02
 0.1071507853144E-02 -0.6700933320519E-02  0.0000000000000E+00 -0.3499998900989E-02
 0.1003525261658E-02 -0.6794668865022E-02  0.0000000000000E+00 -0.3829493149137E-02
 0.9323764274629E-03 -0.6870709096808E-02  0.0000000000000E+00 -0.4157831807624E-02
 0.8569767980102E-03 -0.6923992832270E-02  0.0000000000000E+00 -0.4477225609286E-02
 0.7764275143583E-03 -0.6949321217133E-02  0.0000000000000E+00 -0.4776140896835E-02
 0.6909274092495E-03 -0.6941743288137E-02  0.0000000000000E+00 -0.5039917104743E-02
 0.6021857004938E-03 -0.6896596150205E-02  0.0000000000000E+00 -0.5251624796495E-02
 0.5133835603003E-03 -0.6809228810437E-02  0.0000000000000E+00 -0.5392336781463E-02
 0.4291252731319E-03 -0.6674295056259E-02  0.0000000000000E+00 -0.5439543959439E-02
 0.3566440896672E-03 -0.6485082416377E-02  0.0000000000000E+00 -0.5362653866275E-02
 0.3099629746950E-03 -0.6235392938482E-02  0.0000000000000E+00 -0.5117580901432E-02
 0.3176300929556E-03 -0.5924334144572E-02  0.0000000000000E+00 -0.4643135559511E-02
 0.4356285049389E-03 -0.5564221580545E-02  0.0000000000000E+00 -0.3860619293256E-02
 0.7687891361452E-03 -0.5195306326011E-02  0.0000000000000E+00 -0.2685783605478E-02
 0.1500053827239E-02 -0.4908949463770E-02  0.0000000000000E+00 -0.1079763000964E-02
 0.2904520662655E-02 -0.4864123629435E-02  0.0000000000000E+00  0.8127048632986E-03
 0.5274290664643E-02 -0.5238368458998E-02  0.0000000000000E+00  0.2422285123101E-02
 0.8651256702459E-02 -0.6024756495408E-02  0.0000000000000E+00  0.2596839750377E-02
 0.1242431484674E-01 -0.6723746605189E-02  0.0000000000000E+00  0.2755915511485E-04
 0.1710197060487E-03 -0.4752462346974E-02  0.0000000000000E+00  0.1679219893670E-02
 0.5087784326653E-03 -0.4932102679939E-02  0.0000000000000E+00  0.1466160316638E-02
 0.7912460445242E-03 -0.5049836245396E-02  0.0000000000000E+00  0.1090471695935E-02
 0.9735889113958E-03 -0.5095424575613E-02  0.0000000000000E+00  0.6877089522489E-03
 0.1077046799235E-02 -0.5102185181051E-02  0.0000000000000E+00  0.3464980280938E-03
 0.1135905584783E-02 -0.5101728767041E-02  0.0000000000000E+00  0.8041036298224E-04
 0.1172603547999E-02 -0.5109503780654E-02  0.0000000000000E+00 -0.1271601514507E-03
 0.1198556773248E-02 -0.5130720260478E-02  0.0000000000000E+00 -0.2948412003260E-03
 0.1219369563512E-02 -0.5166546661861E-02  0.0000000000000E+00 -0.4369232519126E-03
 0.1237877812882E-02 -0.5216849534157E-02  0.0000000000000E+00 -0.5639194506569E-03
 0.1255530318955E-02 -0.5281211348710E-02  0.0000000000000E+00 -0.6838044871076E-03
 0.1273028101062E-02 -0.5359311229400E-02  0.0000000000000E+00 -0.8029942488055E-03
 0.1290605177452E-02 -0.5451034413977E-02  0.0000000000000E+00 -0.9270739565064E-03
 0.1308101946851E-02 -0.5556441208894E-02  0.0000000000000E+00 -0.1061349613807E-02
 0.1324875596397E-02 -0.5675608551687E-02  0.0000000000000E+00 -0.1211274695208E-02
 0.1339536813090E-02 -0.5808296872869E-02  0.0000000000000E+00 -0.1382701799594E-02
 0.1349556435474E-02 -0.5953360951241E-02  0.0000000000000E+00 -0.1581585633817E-02
 0.1351126857887E-02 -0.6108072979057E-02  0.0000000000000E+00 -0.1812540613547E-02
 0.1340063123558E-02 -0.6267992516536E-02  0.0000000000000E+00 -0.2076506837201E-02
 0.1313954671742E-02 -0.6427894474544E-02  0.0000000000000E+00 -0.2369589432152E-02
 0.1274158197684E-02 -0.6583562295897E-02  0.0000000000000E+00 -0.2684603049391E-02
 0.1225021225001E-02 -0.6732473168194E-02  0.0000000000000E+00 -0.3015102902300E-02
 0.1170664520398E-02 -0.6872323157531E-02  0.0000000000000E+00 -0.3358029976393E-02
 0.1112744610021E-02 -0.6999582936990E-02  0.0000000000000E+00 -0.3711732418067E-02
 0.1050477921622E-02 -0.7109422487697E-02  0.0000000000000E+00 -0.4072668149351E-02
 0.9819003540363E-03 -0.7196364070301E-02  0.0000000000000E+00 -0.4433650495957E-02
 0.9052263480303E-03 -0.7254889016345E-02  0.0000000000000E+00 -0.4783743086748E-02
 0.8198052389126E-03 -0.7279750171527E-02  0.0000000000000E+00 -0.5109055577506E-02
 0.7264887057439E-03 -0.7265948057022E-02  0.0000000000000E+00 -0.5393857042538E-02
 0.6273283454883E-03 -0.7208297263130E-02  0.0000000000000E+00 -0.5621203603026E-02
 0.5249496101566E-03 -0.7100308863725E-02  0.0000000000000E+00 -0.5771443571595E-02
 0.4230412468489E-03 -0.6932849010426E-02  0.0000000000000E+00 -0.5817081273309E-02
 0.3299755890026E-03 -0.6695302073503E-02  0.0000000000000E+00 -0.5715905215235E-02
 0.2661289820411E-03 -0.6379389449861E-02  0.0000000000000E+00 -0.5404669797626E-02
 0.2768426167228E-03 -0.5985758817727E-02  0.0000000000000E+00 -0.4792710649987E-02
 0.4572028105821E-03 -0.5538760881891E-02  0.0000000000000E+00 -0.3760849734934E-02
 0.9967689784586E-03 -0.5117668141509E-02  0.0000000000000E+00 -0.2192275908071E-02
 0.2233213934995E-02 -0.4901443978603E-02  0.0000000000000E+00 -0.1131511904546E-03
 0.4622007368435E-02 -0.5158906558057E-02  0.0000000000000E+00  0.1955450921451E-02
 0.8408572146209E-02 -0.6006344706865E-02  0.0000000000000E+00  0.2577359592596E-02
 0.1292203674861E-01 -0.6864700077927E-02  0.0000000000000E+00 -0.2584375854329E-03
 0.1901576519258E-03 -0.4763008219131E-02  0.0000000000000E+00  0.1798578701543E-02
 0.5608550350677E-03 -0.4949047634292E-02  0.0000000000000E+00  0.1543260544030E-02
 0.8531125267540E-03 -0.5050145706942E-02  0.0000000000000E+00  0.1101263266562E-02
 0.1021478587707E-02 -0.5066931069475E-02  0.0000000000000E+00  0.6635614841111E-03
 0.1106575378732E-02 -0.5050839451439E-02  0.0000000000000E+00  0.3221108069443E-03
 0.1151965302116E-02 -0.5037783293427E-02  0.0000000000000E+00  0.7109870310180E-04
 0.1180369473690E-02 -0.5040215968284E-02  0.0000000000000E+00 -0.1180649325103E-03
 0.1201619356446E-02 -0.5060422503414E-02  0.0000000000000E+00 -0.2677796385716E-03
 0.1220156538820E-02 -0.5097903978494E-02  0.0000000000000E+00 -0.3930821408741E-03
 0.1238113150511E-02 -0.5151627331191E-02  0.0000000000000E+00 -0.5043634801832E-03
 0.1256532623524E-02 -0.5220725659750E-02  0.0000000000000E+00 -0.6091982363694E-03
 0.1275914654492E-02 -0.5304714411310E-02  0.0000000000000E+00 -0.7135454543652E-03
 0.1296439488337E-02 -0.5403517640202E-02  0.0000000000000E+00 -0.8225608571187E-03
 0.1318018007292E-02 -0.5517413036789E-02  0.0000000000000E+00 -0.9411961467586E-03
 0.1340199591831E-02 -0.5646891806441E-02  0.0000000000000E+00 -0.1074708251971E-02
 0.1361891688963E-02 -0.5792362864101E-02  0.0000000000000E+00 -0.1229109341385E-02
 0.1380835428091E-02 -0.5953522340294E-02  0.0000000000000E+00 -0.1411222703547E-02
 0.1393149008680E-02 -0.6128403431798E-02  0.0000000000000E+00 -0.1627442913828E-02
 0.1394006372856E-02 -0.6312831309790E-02  0.0000000000000E+00 -0.1880849443015E-02
 0.1380171108592E-02 -0.6501228629834E-02  0.0000000000000E+00 -0.2169003300460E-02
 0.1352664711919E-02 -0.6688677154478E-02  0.0000000000000E+00 -0.2485249626291E-02
 0.1315995493761E-02 -0.6871855095466E-02  0.0000000000000E+00 -0.2823582839052E-02
 0.1274312232420E-02 -0.7047623367208E-02  0.0000000000000E+00 -0.3181803472583E-02
 0.1228817262857E-02 -0.7211682787476E-02  0.0000000000000E+00 -0.3559113712723E-02
 0.1177956055527E-02 -0.7358682627979E-02  0.0000000000000E+00 -0.3952521583302E-02
 0.1118927495874E-02 -0.7482912551374E-02  0.0000000000000E+00 -0.4355287177296E-02
 0.1049140904017E-02 -0.7578774254305E-02  0.0000000000000E+00 -0.4757092973045E-02
 0.9671954191488E-03 -0.7640958626328E-02  0.0000000000000E+00 -0.5144955439526E-02
 0.8732526221351E-03 -0.7664395879303E-02  0.0000000000000E+00 -0.5504529691746E-02
 0.7685196401242E-03 -0.7643763004279E-02  0.0000000000000E+00 -0.5821240973213E-02
 0.6539689598274E-03 -0.7572007990414E-02  0.0000000000000E+00 -0.6079201728035E-02
 0.5299516385975E-03 -0.7438338211877E-02  0.0000000000000E+00 -0.6255768968511E-02
 0.3990706181237E-03 -0.7228609781995E-02  0.0000000000000E+00 -0.6313742928772E-02
 0.2725201485253E-03 -0.6927794203510E-02  0.0000000000000E+00 -0.6193301879515E-02
 0.1815672339531E-03 -0.6524066913613E-02  0.0000000000000E+00 -0.5800705460419E-02
 0.2019898943224E-03 -0.6020394465104E-02  0.0000000000000E+00 -0.4993284846783E-02
 0.5094759755662E-03 -0.5467458090817E-02  0.0000000000000E+00 -0.3576699949419E-02
 0.1483688035746E-02 -0.5038429566324E-02  0.0000000000000E+00 -0.1406459228953E-02
 0.3779693470623E-02 -0.5098252544256E-02  0.0000000000000E+00  0.1170579082940E-02
 0.7999163138128E-02 -0.5975062101443E-02  0.0000000000000E+00  0.2469035728976E-02
 0.1351635383899E-01 -0.7059506158363E-02  0.0000000000000E+00 -0.5934678117548E-03
 0.2164315500611E-03 -0.4793013721187E-02  0.0000000000000E+00  0.1925816788055E-02
 0.6278014538267E-03 -0.4981928334776E-02  0.0000000000000E+00  0.1605938418363E-02
 0.9242795610066E-03 -0.5052630856463E-02  0.0000000000000E+00  0.1079651139396E-02
 0.1068928485297E-02 -0.5029718438842E-02  0.0000000000000E+00  0.6128816529982E-03
 0.1131280140323E-02 -0.4988224725924E-02  0.0000000000000E+00  0.2839580333664E-03
 0.1162645467380E-02 -0.4963681148936E-02  0.0000000000000E+00  0.5643251514447E-04
 0.1183194089901E-02 -0.4962249562354E-02  0.0000000000000E+00 -0.1098604082206E-03
 0.1200248563607E-02 -0.4982623223765E-02  0.0000000000000E+00 -0.2390871363787E-03
 0.1216913228547E-02 -0.5022583016419E-02  0.0000000000000E+00 -0.3460863163325E-03
 0.1234570459664E-02 -0.5080217669011E-02  0.0000000000000E+00 -0.4406321330323E-03
 0.1253857892062E-02 -0.5154256298234E-02  0.0000000000000E+00 -0.5296037795183E-03
 0.1275085685982E-02 -0.5244085925348E-02  0.0000000000000E+00 -0.6183182386250E-03
 0.1298392089160E-02 -0.5349690950886E-02  0.0000000000000E+00 -0.7113545118098E-03
 0.1323772435386E-02 -0.5471578847730E-02  0.0000000000000E+00 -0.8131557975270E-03
 0.1350998203948E-02 -0.5610672422993E-02  0.0000000000000E+00 -0.9285749968305E-03
 0.1379362520901E-02 -0.5768099517483E-02  0.0000000000000E+00 -0.1063487048931E-02
 0.1407084155687E-02 -0.5944622214435E-02  0.0000000000000E+00 -0.1225293959697E-02
 0.1430482827431E-02 -0.6139460722877E-02  0.0000000000000E+00 -0.1422224926555E-02
 0.1444214725948E-02 -0.6349150599594E-02  0.0000000000000E+00 -0.1660106778135E-02
 0.1444116260374E-02 -0.6567948120022E-02  0.0000000000000E+00 -0.1938733186755E-02
 0.1430753707334E-02 -0.6790064179675E-02  0.0000000000000E+00 -0.2252503708302E-02
 0.1408736285376E-02 -0.7010955494732E-02  0.0000000000000E+00 -0.2596128580477E-02
 0.1382136174140E-02 -0.7226194449935E-02  0.0000000000000E+00 -0.2968261115109E-02
 0.1351579682906E-02 -0.7430471361248E-02  0.0000000000000E+00 -0.3368599952340E-02
 0.1314723851545E-02 -0.7617984539631E-02  0.0000000000000E+00 -0.3794228775378E-02
 0.1268033974228E-02 -0.7783076604926E-02  0.0000000000000E+00 -0.4238578261136E-02
 0.1208254044085E-02 -0.7920404028200E-02  0.0000000000000E+00 -0.4691979058608E-02
 0.1133349020044E-02 -0.8024866464419E-02  0.0000000000000E+00 -0.5142544592727E-02
 0.1042955802959E-02 -0.8091569385903E-02  0.0000000000000E+00 -0.5577454756037E-02
 0.9377824404491E-03 -0.8115444719570E-02  0.0000000000000E+00 -0.5984666548138E-02
 0.8176452405904E-03 -0.8089563871510E-02  0.0000000000000E+00 -0.6352642485863E-02
 0.6800797315138E-03 -0.8002552177086E-02  0.0000000000000E+00 -0.6664998127075E-02
 0.5223995770122E-03 -0.7838308393781E-02  0.0000000000000E+00 -0.6892433219566E-02
 0.3466404130327E-03 -0.7576964644743E-02  0.0000000000000E+00 -0.6984438675944E-02
 0.1682070633039E-03 -0.7195614788719E-02  0.0000000000000E+00 -0.6855300360425E-02
 0.3587726022244E-04 -0.6673980178578E-02  0.0000000000000E+00 -0.6358578727534E-02
 0.8585194772152E-04 -0.6018567241589E-02  0.0000000000000E+00 -0.5246445301100E-02
 0.6904956438835E-03 -0.5352069243660E-02  0.0000000000000E+00 -0.3173915066285E-02
 0.2707189764093E-02 -0.5102687964265E-02  0.0000000000000E+00 -0.1227844721473E-03
 0.7320088233770E-02 -0.5926451313772E-02  0.0000000000000E+00  0.2159026796710E-02
 0.1423099390330E-01 -0.7334159054411E-02  0.0000000000000E+00 -0.9939486184721E-03
 0.2541501036937E-03 -0.4853121647627E-02  0.0000000000000E+00  0.2061279981184E-02
 0.7154450804605E-03 -0.5035461714267E-02  0.0000000000000E+00  0.1639096914005E-02
 0.1004112159734E-02 -0.5052568313363E-02  0.0000000000000E+00  0.1009877522957E-02
 0.1112021617730E-02 -0.4977673781787E-02  0.0000000000000E+00  0.5317504553083E-03
 0.1148569604189E-02 -0.4911194198887E-02  0.0000000000000E+00  0.2336942244179E-03
 0.1166731821550E-02 -0.4878020868770E-02  0.0000000000000E+00  0.3825441577828E-04
 0.1180434706991E-02 -0.4874871059862E-02  0.0000000000000E+00 -0.1011879725119E-03
 0.1194077443671E-02 -0.4896929476223E-02  0.0000000000000E+00 -0.2078049215912E-03
 0.1209415260966E-02 -0.4940351261532E-02  0.0000000000000E+00 -0.2953435414837E-03
 0.1227087137219E-02 -0.5002453761146E-02  0.0000000000000E+00 -0.3724305127667E-03
 0.1247361441660E-02 -0.5081650476561E-02  0.0000000000000E+00 -0.4449782131897E-03
 0.1270383338147E-02 -0.5177250135932E-02  0.0000000000000E+00 -0.5174981020824E-03
 0.1296263223146E-02 -0.5289321887958E-02  0.0000000000000E+00 -0.5938626245880E-03
 0.1325087648573E-02 -0.5418605910047E-02  0.0000000000000E+00 -0.6778666732588E-03
 0.1356858219583E-02 -0.5566446586114E-02  0.0000000000000E+00 -0.7737551323397E-03
 0.1391305107710E-02 -0.5734703420524E-02  0.0000000000000E+00 -0.8869108389019E-03
 0.1427329190862E-02 -0.5925378833531E-02  0.0000000000000E+00 -0.1024806923377E-02
 0.1461841053193E-02 -0.6139398204969E-02  0.0000000000000E+00 -0.1197272645323E-02
 0.1489268816305E-02 -0.6374731291704E-02  0.0000000000000E+00 -0.1413499938423E-02
 0.1504486307676E-02 -0.6625908309748E-02  0.0000000000000E+00 -0.1676692046604E-02
 0.1507435649147E-02 -0.6886078203831E-02  0.0000000000000E+00 -0.1983306608375E-02
 0.1502642100101E-02 -0.7148755254434E-02  0.0000000000000E+00 -0.2329316266635E-02
 0.1493840413102E-02 -0.7407450364103E-02  0.0000000000000E+00 -0.2714106714386E-02
 0.1480876581611E-02 -0.7655487273928E-02  0.0000000000000E+00 -0.3137128595409E-02
 0.1460638326851E-02 -0.7886766046707E-02  0.0000000000000E+00 -0.3594717906208E-02
 0.1429062207386E-02 -0.8096124189316E-02  0.0000000000000E+00 -0.4080049714818E-02
 0.1382458568064E-02 -0.8278944826599E-02  0.0000000000000E+00 -0.4584174651947E-02
 0.1318292099288E-02 -0.8430659241643E-02  0.0000000000000E+00 -0.5096638483331E-02
 0.1235789216266E-02 -0.8546725521135E-02  0.0000000000000E+00 -0.5606311854005E-02
 0.1135500520531E-02 -0.8622617379765E-02  0.0000000000000E+00 -0.6103565305626E-02
 0.1016720674003E-02 -0.8652229881936E-02  0.0000000000000E+00 -0.6581269243091E-02
 0.8750010515019E-03 -0.8624963465443E-02  0.0000000000000E+00 -0.7030046703973E-02
 0.7034930941024E-03 -0.8525017193139E-02  0.0000000000000E+00 -0.7430612943382E-02
 0.4964162937534E-03 -0.8331021382158E-02  0.0000000000000E+00 -0.7747164711569E-02
 0.2537290049436E-03 -0.8013041704944E-02  0.0000000000000E+00 -0.7913895985418E-02
-0.5613072342953E-05 -0.7531358641665E-02  0.0000000000000E+00 -0.7804710643464E-02
-0.2060386642431E-03 -0.6843494275286E-02  0.0000000000000E+00 -0.7170842386588E-02
-0.6454795509382E-04 -0.5966589372491E-02  0.0000000000000E+00 -0.5508988729654E-02
 0.1389386985393E-02 -0.5281522377571E-02  0.0000000000000E+00 -0.2217253174195E-02
 0.6203842335263E-02 -0.5872007630984E-02  0.0000000000000E+00  0.1392692317466E-02
 0.1508415214331E-01 -0.7735861796307E-02  0.0000000000000E+00 -0.1513330432364E-02
 0.3110482205958E-03 -0.4962253281633E-02  0.0000000000000E+00  0.2203012096263E-02
 0.8316496486404E-03 -0.5113747554557E-02  0.0000000000000E+00  0.1612708987723E-02
 0.1088371368436E-02 -0.5038648523121E-02  0.0000000000000E+00  0.8711690217683E-03
 0.1144438852248E-02 -0.4902443484906E-02  0.0000000000000E+00  0.4207748018065E-03
 0.1155819360744E-02 -0.4817013039384E-02  0.0000000000000E+00  0.1755522639500E-03
 0.1163209683904E-02 -0.4779630227832E-02  0.0000000000000E+00  0.1906208707592E-04
 0.1171546333683E-02 -0.4777506846178E-02  0.0000000000000E+00 -0.9028867194819E-04
 0.1182837914738E-02 -0.4803088191837E-02  0.0000000000000E+00 -0.1727880026171E-03
 0.1197512610084E-02 -0.4851074151413E-02  0.0000000000000E+00 -0.2401831009713E-03
 0.1215560392646E-02 -0.4918249408876E-02  0.0000000000000E+00 -0.2994323628938E-03
 0.1236951438632E-02 -0.5002824867904E-02  0.0000000000000E+00 -0.3552816262327E-03
 0.1261700234755E-02 -0.5104098223838E-02  0.0000000000000E+00 -0.4112985359793E-03
 0.1289906355680E-02 -0.5222248861957E-02  0.0000000000000E+00 -0.4705493566938E-03
 0.1321746624666E-02 -0.5358243292050E-02  0.0000000000000E+00 -0.5360642873707E-03
 0.1357438548051E-02 -0.5513811396781E-02  0.0000000000000E+00 -0.6113020770607E-03
 0.1397141312021E-02 -0.5691484218823E-02  0.0000000000000E+00 -0.7007960147178E-03
 0.1440578221570E-02 -0.5894546681584E-02  0.0000000000000E+00 -0.8113598417874E-03
 0.1485738765691E-02 -0.6126158276903E-02  0.0000000000000E+00 -0.9536556318083E-03
 0.1527390366640E-02 -0.6386851625533E-02  0.0000000000000E+00 -0.1140609782160E-02
 0.1559608612005E-02 -0.6672405887902E-02  0.0000000000000E+00 -0.1380558500837E-02
 0.1581507321313E-02 -0.6974762922544E-02  0.0000000000000E+00 -0.1673949744078E-02
 0.1597093737125E-02 -0.7284234465777E-02  0.0000000000000E+00 -0.2019105276732E-02
 0.1609210852278E-02 -0.7590948400056E-02  0.0000000000000E+00 -0.2415758304036E-02
 0.1616609296038E-02 -0.7886372271811E-02  0.0000000000000E+00 -0.2861677024608E-02
 0.1615516244733E-02 -0.8164433522012E-02  0.0000000000000E+00 -0.3351123365866E-02
 0.1601704079211E-02 -0.8421138088442E-02  0.0000000000000E+00 -0.3876425032274E-02
 0.1571422090202E-02 -0.8653259109130E-02  0.0000000000000E+00 -0.4429504349221E-02
 0.1521808331430E-02 -0.8857179627743E-02  0.0000000000000E+00 -0.5001947816582E-02
 0.1451675887130E-02 -0.9028777721590E-02  0.0000000000000E+00 -0.5584698200485E-02
 0.1361636924488E-02 -0.9164075420288E-02  0.0000000000000E+00 -0.6170134633734E-02
 0.1251148652629E-02 -0.9258328612144E-02  0.0000000000000E+00 -0.6754789427701E-02
 0.1114920991612E-02 -0.9303294922543E-02  0.0000000000000E+00 -0.7335945118818E-02
 0.9436573354366E-03 -0.9286425449160E-02  0.0000000000000E+00 -0.7905287141045E-02
 0.7265420972530E-03 -0.9189415034396E-02  0.0000000000000E+00 -0.8445321884182E-02
 0.4512366873297E-03 -0.8982414957541E-02  0.0000000000000E+00 -0.8921077444568E-02
 0.1092201941183E-03 -0.8615724971900E-02  0.0000000000000E+00 -0.9249778384058E-02
-0.2849809510474E-03 -0.8013612389745E-02  0.0000000000000E+00 -0.9244754704820E-02
-0.6244317765648E-03 -0.7062899713266E-02  0.0000000000000E+00 -0.8417324273754E-02
-0.9850455157976E-04 -0.5878074051855E-02  0.0000000000000E+00 -0.5514532646731E-02
 0.4393511319762E-02 -0.5893282988299E-02  0.0000000000000E+00 -0.3964386034753E-03
 0.1605272341258E-01 -0.8360156760156E-02  0.0000000000000E+00 -0.2345077685419E-02
 0.4015493846674E-03 -0.5157427722181E-02  0.0000000000000E+00  0.2340003813140E-02
 0.9854402142459E-03 -0.5213615194529E-02  0.0000000000000E+00  0.1464675917838E-02
 0.1164383014334E-02 -0.4986479835967E-02  0.0000000000000E+00  0.6431108096750E-03
 0.1157773109684E-02 -0.4795850059398E-02  0.0000000000000E+00  0.2913071668386E-03
 0.1151394192961E-02 -0.4704177987765E-02  0.0000000000000E+00  0.1153774557850E-03
 0.1151257541897E-02 -0.4667477652773E-02  0.0000000000000E+00  0.1851685859144E-05
 0.1156142273969E-02 -0.4669890621385E-02  0.0000000000000E+00 -0.7493826502446E-04
 0.1166400436886E-02 -0.4700995722274E-02  0.0000000000000E+00 -0.1327960653649E-03
 0.1181137014028E-02 -0.4754736102015E-02  0.0000000000000E+00 -0.1798604018559E-03
 0.1199957709154E-02 -0.4827606981916E-02  0.0000000000000E+00 -0.2212973792685E-03
 0.1222593641304E-02 -0.4917772238310E-02  0.0000000000000E+00 -0.2604801412440E-03
 0.1248984751055E-02 -0.5024593918050E-02  0.0000000000000E+00 -0.2999594493962E-03
 0.1279234591499E-02 -0.5148388363513E-02  0.0000000000000E+00 -0.3419262493685E-03
 0.1313602863983E-02 -0.5290333476293E-02  0.0000000000000E+00 -0.3885651917457E-03
 0.1352490982703E-02 -0.5452486120999E-02  0.0000000000000E+00 -0.4424093127462E-03
 0.1396416048463E-02 -0.5637926769546E-02  0.0000000000000E+00 -0.5068602103611E-03
 0.1445906457318E-02 -0.5851046560467E-02  0.0000000000000E+00 -0.5872518431049E-03
 0.1500508333979E-02 -0.6097538612916E-02  0.0000000000000E+00 -0.6934960163832E-03
 0.1556308425166E-02 -0.6382109547409E-02  0.0000000000000E+00 -0.8417146994641E-03
 0.1607256200637E-02 -0.6703893293703E-02  0.0000000000000E+00 -0.1047704077675E-02
 0.1651477709389E-02 -0.7053744497197E-02  0.0000000000000E+00 -0.1319698349737E-02
 0.1691515238845E-02 -0.7416466685587E-02  0.0000000000000E+00 -0.1660548860720E-02
 0.1728216145071E-02 -0.7776528749023E-02  0.0000000000000E+00 -0.2069299535216E-02
 0.1758804221386E-02 -0.8122962982361E-02  0.0000000000000E+00 -0.2539367977631E-02
 0.1779155847365E-02 -0.8450394263470E-02  0.0000000000000E+00 -0.3060941428182E-02
 0.1785479044794E-02 -0.8756998802592E-02  0.0000000000000E+00 -0.3624780603403E-02
 0.1774530575273E-02 -0.9041839954959E-02  0.0000000000000E+00 -0.4223938903970E-02
 0.1743403292729E-02 -0.9302862107492E-02  0.0000000000000E+00 -0.4853037553608E-02
 0.1690324641117E-02 -0.9536349170038E-02  0.0000000000000E+00 -0.5506072830281E-02
 0.1615827539246E-02 -0.9738301966367E-02  0.0000000000000E+00 -0.6176934912671E-02
 0.1520112281593E-02 -0.9905338888717E-02  0.0000000000000E+00 -0.6863781786029E-02
 0.1398439428874E-02 -0.1003337483291E-01  0.0000000000000E+00 -0.7568539141554E-02
 0.1241589133698E-02 -0.1011682771674E-01  0.0000000000000E+00 -0.8293104243903E-02
 0.1036972092067E-02 -0.1014588380567E-01  0.0000000000000E+00 -0.9040236793509E-02
 0.7674254199677E-03 -0.1009985256428E-01  0.0000000000000E+00 -0.9810018481601E-02
 0.4019693938897E-03 -0.9935998321402E-02  0.0000000000000E+00 -0.1058701965263E-01
-0.8417586868854E-04 -0.9572932409264E-02  0.0000000000000E+00 -0.1127749730467E-01
-0.7480523231143E-03 -0.8847293396831E-02  0.0000000000000E+00 -0.1166454288504E-01
-0.1433415149469E-02 -0.7389816474176E-02  0.0000000000000E+00 -0.1038912663020E-01
 0.1566866432191E-02 -0.6334615259371E-02  0.0000000000000E+00 -0.4433403110122E-02
 0.1695910909399E-01 -0.9430719570339E-02  0.0000000000000E+00 -0.4203051900075E-02
 0.5527402507089E-03 -0.5522526844536E-02  0.0000000000000E+00  0.2422689148394E-02
 0.1179956650220E-02 -0.5293184383809E-02  0.0000000000000E+00  0.1062197316746E-02
 0.1201593442661E-02 -0.4853396788805E-02  0.0000000000000E+00  0.3356989544389E-03
 0.1146294693418E-02 -0.4659065284973E-02  0.0000000000000E+00  0.1693660374480E-03
 0.1135347925631E-02 -0.4570402589532E-02  0.0000000000000E+00  0.5598451907377E-04
 0.1129882958297E-02 -0.4541396765831E-02  0.0000000000000E+00 -0.8342804746229E-05
 0.1134271059603E-02 -0.4551996295219E-02  0.0000000000000E+00 -0.5307587871853E-04
 0.1144719288745E-02 -0.4590748090556E-02  0.0000000000000E+00 -0.8640285238130E-04
 0.1160336820279E-02 -0.4651447998066E-02  0.0000000000000E+00 -0.1136242801596E-03
 0.1180316252733E-02 -0.4730625127383E-02  0.0000000000000E+00 -0.1376772371309E-03
 0.1204317332653E-02 -0.4826565806167E-02  0.0000000000000E+00 -0.1605538137124E-03
 0.1232244176300E-02 -0.4938777502276E-02  0.0000000000000E+00 -0.1837444166343E-03
 0.1264225203642E-02 -0.5067739762594E-02  0.0000000000000E+00 -0.2085416492483E-03
 0.1300588773746E-02 -0.5214820781032E-02  0.0000000000000E+00 -0.2362442595034E-03
 0.1341872162842E-02 -0.5382327865434E-02  0.0000000000000E+00 -0.2683738633082E-03
 0.1388849650314E-02 -0.5573730966416E-02  0.0000000000000E+00 -0.3070147815870E-03
 0.1442609960550E-02 -0.5794160594917E-02  0.0000000000000E+00 -0.3554679906693E-03
 0.1504403551291E-02 -0.6051430059707E-02  0.0000000000000E+00 -0.4205124334398E-03
 0.1573066459131E-02 -0.6356177932019E-02  0.0000000000000E+00 -0.5184978568655E-03
 0.1644312827746E-02 -0.6715446624777E-02  0.0000000000000E+00 -0.6750935684534E-03
 0.1715455017143E-02 -0.7120083765395E-02  0.0000000000000E+00 -0.9141070221031E-03
 0.1785498296552E-02 -0.7544810126114E-02  0.0000000000000E+00 -0.1247361092416E-02
 0.1851166199912E-02 -0.7964524826923E-02  0.0000000000000E+00 -0.1670455335714E-02
 0.1907704797016E-02 -0.8365411387257E-02  0.0000000000000E+00 -0.2167637711698E-02
 0.1951363097005E-02 -0.8744092841353E-02  0.0000000000000E+00 -0.2722235703406E-02
 0.1979713069239E-02 -0.9102369324591E-02  0.0000000000000E+00 -0.3322741868621E-02
 0.1990804244952E-02 -0.9442731636562E-02  0.0000000000000E+00 -0.3963761099598E-02
 0.1982213992523E-02 -0.9765585739462E-02  0.0000000000000E+00 -0.4644242755117E-02
 0.1951317253535E-02 -0.1006782258876E-01  0.0000000000000E+00 -0.5363454106797E-02
 0.1897629352624E-02 -0.1034384407232E-01  0.0000000000000E+00 -0.6117077739132E-02
 0.1822097007361E-02 -0.1059012920551E-01  0.0000000000000E+00 -0.6900657364644E-02
 0.1722513340793E-02 -0.1080903771391E-01  0.0000000000000E+00 -0.7715674223785E-02
 0.1592670200622E-02 -0.1100684717605E-01  0.0000000000000E+00 -0.8572324187310E-02
 0.1423262428901E-02 -0.1118782404663E-01  0.0000000000000E+00 -0.9492797962405E-02
 0.1196148986836E-02 -0.1134925771804E-01  0.0000000000000E+00 -0.1051236981129E-01
 0.8863890117072E-03 -0.1147801838120E-01  0.0000000000000E+00 -0.1167844408855E-01
 0.4110541129415E-03 -0.1152718326923E-01  0.0000000000000E+00 -0.1305218563577E-01
-0.2207268419339E-03 -0.1140932588819E-01  0.0000000000000E+00 -0.1462068130887E-01
-0.1749847673869E-02 -0.1063603617791E-01  0.0000000000000E+00 -0.1651607698362E-01
-0.2299572976997E-02 -0.8458442091483E-02  0.0000000000000E+00 -0.1308211961669E-01
 0.1705418265631E-01 -0.1166889538324E-01  0.0000000000000E+00 -0.9902974797898E-02
 0.8060931802462E-03 -0.6301350906154E-02  0.0000000000000E+00  0.2197719644904E-02
 0.1374996900361E-02 -0.5092920727819E-02  0.0000000000000E+00  0.1336725483728E-03
 0.1142597634796E-02 -0.4655771888498E-02  0.0000000000000E+00  0.1183801491109E-03
 0.1125068018994E-02 -0.4488386277648E-02  0.0000000000000E+00  0.4189527978724E-04
 0.1102560174633E-02 -0.4415682929983E-02  0.0000000000000E+00  0.1153415635293E-04
 0.1100338569301E-02 -0.4401750609954E-02  0.0000000000000E+00 -0.8530768047389E-05
 0.1105791217829E-02 -0.4424143109666E-02  0.0000000000000E+00 -0.2203150355939E-04
 0.1118026754788E-02 -0.4472649144388E-02  0.0000000000000E+00 -0.3227566046111E-04
 0.1135237809041E-02 -0.4541455821751E-02  0.0000000000000E+00 -0.4070483477770E-04
 0.1156758461192E-02 -0.4627502755811E-02  0.0000000000000E+00 -0.4824477760459E-04
 0.1182214742987E-02 -0.4729361784847E-02  0.0000000000000E+00 -0.5550088586283E-04
 0.1211547438483E-02 -0.4846767994092E-02  0.0000000000000E+00 -0.6293941351521E-04
 0.1244921869440E-02 -0.4980387606357E-02  0.0000000000000E+00 -0.7096921368935E-04
 0.1282719576511E-02 -0.5131755452943E-02  0.0000000000000E+00 -0.8000908903580E-04
 0.1325555741647E-02 -0.5303342387075E-02  0.0000000000000E+00 -0.9054932520078E-04
 0.1374340717754E-02 -0.5498824890903E-02  0.0000000000000E+00 -0.1032722538965E-03
 0.1430418105431E-02 -0.5723657887306E-02  0.0000000000000E+00 -0.1192764947034E-03
 0.1495952717282E-02 -0.5986529566134E-02  0.0000000000000E+00 -0.1406553606780E-03
 0.1573759156264E-02 -0.6303536564328E-02  0.0000000000000E+00 -0.1756989959020E-03
 0.1666109746781E-02 -0.6699609944181E-02  0.0000000000000E+00 -0.2591058771359E-03
 0.1770993459522E-02 -0.7170174943615E-02  0.0000000000000E+00 -0.4476728292937E-03
 0.1879061047776E-02 -0.7669271999977E-02  0.0000000000000E+00 -0.7713526032320E-03
 0.1978946510907E-02 -0.8156064615986E-02  0.0000000000000E+00 -0.1214639615211E-02
 0.2063888429253E-02 -0.8614334142229E-02  0.0000000000000E+00 -0.1744502591226E-02
 0.2131973450127E-02 -0.9045041949890E-02  0.0000000000000E+00 -0.2333912184422E-02
 0.2183519864055E-02 -0.9455672768301E-02  0.0000000000000E+00 -0.2968699568052E-02
 0.2218812398789E-02 -0.9853472314609E-02  0.0000000000000E+00 -0.3645837586431E-02
 0.2236764756415E-02 -0.1024239694603E-01  0.0000000000000E+00 -0.4369721413047E-02
 0.2234197642928E-02 -0.1062118039645E-01  0.0000000000000E+00 -0.5148510609218E-02
 0.2207070082994E-02 -0.1098018659994E-01  0.0000000000000E+00 -0.5984176376385E-02
 0.2155124757247E-02 -0.1130941737875E-01  0.0000000000000E+00 -0.6861294146903E-02
 0.2082117395103E-02 -0.1162179104054E-01  0.0000000000000E+00 -0.7768562430564E-02
 0.1989563518403E-02 -0.1194362749608E-01  0.0000000000000E+00 -0.8724280043821E-02
 0.1873592514476E-02 -0.1229593438906E-01  0.0000000000000E+00 -0.9768327456680E-02
 0.1726954127726E-02 -0.1270251647139E-01  0.0000000000000E+00 -0.1096130140882E-01
 0.1525644421963E-02 -0.1319567044477E-01  0.0000000000000E+00 -0.1239575472241E-01
 0.1264687089590E-02 -0.1383219593942E-01  0.0000000000000E+00 -0.1425048139280E-01
 0.7159736133592E-03 -0.1465697309204E-01  0.0000000000000E+00 -0.1679841007347E-01
 0.4096190953686E-03 -0.1596194686598E-01  0.0000000000000E+00 -0.2090701586719E-01
-0.5006197360551E-02 -0.1627237500766E-01  0.0000000000000E+00 -0.2855412265694E-01
 0.1462446269090E-01 -0.1904069106413E-01  0.0000000000000E+00 -0.3264972379795E-01
 0.1012424457132E+00 -0.1545947998543E+00  0.0000000000000E+00 -0.5234704133876E+00
 0.1314787992705E+00 -0.1828524064937E+00  0.0000000000000E+00 -0.4528375680481E+00
 0.1612767302343E+00 -0.2105722033734E+00  0.0000000000000E+00 -0.3947379284711E+00
 0.1888877887347E+00 -0.2361386451850E+00  0.0000000000000E+00 -0.3475047728939E+00
 0.2135187394453E+00 -0.2588223018670E+00  0.0000000000000E+00 -0.3100773116703E+00
 0.2348542684976E+00 -0.2783448413307E+00  0.0000000000000E+00 -0.2816348548038E+00
 0.2528446545523E+00 -0.2946720087600E+00  0.0000000000000E+00 -0.2614294311152E+00
 0.2675754621915E+00 -0.3078977988482E+00  0.0000000000000E+00 -0.2487531084843E+00
 0.2791860863816E+00 -0.3181686843012E+00  0.0000000000000E+00 -0.2429130932479E+00
 0.2878399790278E+00 -0.3256530031361E+00  0.0000000000000E+00 -0.2432922685718E+00
 0.2937340873332E+00 -0.3305433805581E+00  0.0000000000000E+00 -0.2493464070379E+00
 0.2969380599737E+00 -0.3329369532992E+00  0.0000000000000E+00 -0.2603903727391E+00
 0.2976161918947E+00 -0.3329860655499E+00  0.0000000000000E+00 -0.2763648384715E+00
 0.2961237469181E+00 -0.3310140569240E+00  0.0000000000000E+00 -0.2970677804782E+00
 0.2926198098614E+00 -0.3271771778784E+00  0.0000000000000E+00 -0.3214333010123E+00
 0.2870459188021E+00 -0.3213769822514E+00  0.0000000000000E+00 -0.3485281145618E+00
 0.2792064449076E+00 -0.3133962356646E+00  0.0000000000000E+00 -0.3774556768611E+00
 0.2688572317801E+00 -0.3030035883021E+00  0.0000000000000E+00 -0.4074824725666E+00
 0.2559597462034E+00 -0.2900108347688E+00  0.0000000000000E+00 -0.4372081990458E+00
 0.2392936976297E+00 -0.2744509633451E+00  0.0000000000000E+00 -0.4623399714464E+00
 0.9677238421197E-01 -0.1514608072703E+00  0.0000000000000E+00 -0.5087206144076E+00
 0.1294917242158E+00 -0.1819729413273E+00  0.0000000000000E+00 -0.4385129320726E+00
 0.1611730059393E+00 -0.2114943618701E+00  0.0000000000000E+00 -0.3821434999429E+00
 0.1904616467557E+00 -0.2386835075885E+00  0.0000000000000E+00 -0.3370271334083E+00
 0.2166148021685E+00 -0.2628527059180E+00  0.0000000000000E+00 -0.3017588024574E+00
 0.2393554109222E+00 -0.2837552262110E+00  0.0000000000000E+00 -0.2753754950573E+00
 0.2586641105232E+00 -0.3013883738623E+00  0.0000000000000E+00 -0.2570661924878E+00
 0.2746476246751E+00 -0.3158673197019E+00  0.0000000000000E+00 -0.2460978804309E+00
 0.2874596780421E+00 -0.3273512669862E+00  0.0000000000000E+00 -0.2417967373679E+00
 0.2972792306959E+00 -0.3360219324199E+00  0.0000000000000E+00 -0.2435819212770E+00
 0.3042962606046E+00 -0.3420752295873E+00  0.0000000000000E+00 -0.2509175052490E+00
 0.3086056942146E+00 -0.3456116256018E+00  0.0000000000000E+00 -0.2632557055966E+00
 0.3103948273146E+00 -0.3468149740236E+00  0.0000000000000E+00 -0.2805301896328E+00
 0.3099713501397E+00 -0.3459765197373E+00  0.0000000000000E+00 -0.3024586482093E+00
 0.3074701347903E+00 -0.3432106073625E+00  0.0000000000000E+00 -0.3281581354991E+00
 0.3028558896406E+00 -0.3384635288384E+00  0.0000000000000E+00 -0.3567940527726E+00
 0.2959380297909E+00 -0.3315354643397E+00  0.0000000000000E+00 -0.3874498457326E+00
 0.2864822777828E+00 -0.3221631001758E+00  0.0000000000000E+00 -0.4191044152009E+00
 0.2736160129881E+00 -0.3096984603922E+00  0.0000000000000E+00 -0.4498808688482E+00
 0.2570259926613E+00 -0.2933262174775E+00  0.0000000000000E+00 -0.4814439503361E+00
 0.9238687382881E-01 -0.1483422546871E+00  0.0000000000000E+00 -0.4930379309838E+00
 0.1277191616254E+00 -0.1813262096437E+00  0.0000000000000E+00 -0.4236732870773E+00
 0.1613732298755E+00 -0.2127089870685E+00  0.0000000000000E+00 -0.3689382868011E+00
 0.1923111175703E+00 -0.2414845520750E+00  0.0000000000000E+00 -0.3258901549977E+00
 0.2199394864713E+00 -0.2670866757892E+00  0.0000000000000E+00 -0.2927519724005E+00
 0.2440372998794E+00 -0.2893199347860E+00  0.0000000000000E+00 -0.2683868768301E+00
 0.2646201943541E+00 -0.3082142621410E+00  0.0000000000000E+00 -0.2519136936273E+00
 0.2818187385488E+00 -0.3239080465151E+00  0.0000000000000E+00 -0.2425848027566E+00
 0.2958064993329E+00 -0.3365792286592E+00  0.0000000000000E+00 -0.2397466483713E+00
 0.3067742887801E+00 -0.3464223967925E+00  0.0000000000000E+00 -0.2428454022675E+00
 0.3149151622710E+00 -0.3536336084749E+00  0.0000000000000E+00 -0.2513961187872E+00
 0.3203578489138E+00 -0.3583457234952E+00  0.0000000000000E+00 -0.2649467042272E+00
 0.3232968987288E+00 -0.3607505100742E+00  0.0000000000000E+00 -0.2833926825257E+00
 0.3240008783036E+00 -0.3611031281431E+00  0.0000000000000E+00 -0.3064484097068E+00
 0.3225925125238E+00 -0.3595113873118E+00  0.0000000000000E+00 -0.3333570393803E+00
 0.3190289682247E+00 -0.3559204142475E+00  0.0000000000000E+00 -0.3633474610138E+00
 0.3131123767221E+00 -0.3501207360312E+00  0.0000000000000E+00 -0.3955263600333E+00
 0.3044263025947E+00 -0.3417270962257E+00  0.0000000000000E+00 -0.4288696073380E+00
 0.2923279919299E+00 -0.3300178019230E+00  0.0000000000000E+00 -0.4628408897227E+00
 0.2771071629953E+00 -0.3151624896990E+00  0.0000000000000E+00 -0.4984933953290E+00
 0.8812153840011E-01 -0.1453240238619E+00  0.0000000000000E+00 -0.4762662141688E+00
 0.1261267129979E+00 -0.1808386989466E+00  0.0000000000000E+00 -0.4081365951435E+00
 0.1618042938325E+00 -0.2141411274480E+00  0.0000000000000E+00 -0.3551604235207E+00
 0.1943876343111E+00 -0.2444898300667E+00  0.0000000000000E+00 -0.3141563546231E+00
 0.2234508680654E+00 -0.2714807937986E+00  0.0000000000000E+00 -0.2831064885071E+00
 0.2488585560783E+00 -0.2949954268885E+00  0.0000000000000E+00 -0.2607044307271E+00
 0.2706706435746E+00 -0.3151052042473E+00  0.0000000000000E+00 -0.2459988481174E+00
 0.2890467251155E+00 -0.3319760125875E+00  0.0000000000000E+00 -0.2382296586835E+00
 0.3041821465816E+00 -0.3458069958814E+00  0.0000000000000E+00 -0.2367635750346E+00
 0.3162828901215E+00 -0.3568069301030E+00  0.0000000000000E+00 -0.2410819359644E+00
 0.3255525275183E+00 -0.3651817959538E+00  0.0000000000000E+00 -0.2507501576775E+00
 0.3321482223555E+00 -0.3710916412405E+00  0.0000000000000E+00 -0.2653875740009E+00
 0.3362697909982E+00 -0.3747341554546E+00  0.0000000000000E+00 -0.2848682504836E+00
 0.3381554537736E+00 -0.3763378408788E+00  0.0000000000000E+00 -0.3089127606315E+00
 0.3379118687112E+00 -0.3759990758059E+00  0.0000000000000E+00 -0.3368714456351E+00
 0.3354856855509E+00 -0.3736554208615E+00  0.0000000000000E+00 -0.3680497117001E+00
 0.3306442227285E+00 -0.3690739790826E+00  0.0000000000000E+00 -0.4016547382127E+00
 0.3230023239590E+00 -0.3618496477127E+00  0.0000000000000E+00 -0.4370248890518E+00
 0.3121615243641E+00 -0.3515453301028E+00  0.0000000000000E+00 -0.4738292545110E+00
 0.2984619411430E+00 -0.3384166054473E+00  0.0000000000000E+00 -0.5122896261795E+00
 0.8399678207392E-01 -0.1424226323026E+00  0.0000000000000E+00 -0.4583998729419E+00
 0.1247044605985E+00 -0.1804980773495E+00  0.0000000000000E+00 -0.3918628747964E+00
 0.1624228708969E+00 -0.2157365787415E+00  0.0000000000000E+00 -0.3408034318955E+00
 0.1966411226031E+00 -0.2476463386268E+00  0.0000000000000E+00 -0.3018668277517E+00
 0.2271036484005E+00 -0.2759872025013E+00  0.0000000000000E+00 -0.2728650488551E+00
 0.2537750289805E+00 -0.3007354841632E+00  0.0000000000000E+00 -0.2523631728792E+00
 0.2767712481485E+00 -0.3220149131947E+00  0.0000000000000E+00 -0.2393474029517E+00
 0.2962864333486E+00 -0.3400241920324E+00  0.0000000000000E+00 -0.2330478268964E+00
 0.3125409550741E+00 -0.3549863857505E+00  0.0000000000000E+00 -0.2328532656328E+00
 0.3257593344846E+00 -0.3671280719609E+00  0.0000000000000E+00 -0.2382816844328E+00
 0.3361594390668E+00 -0.3766690193280E+00  0.0000000000000E+00 -0.2489455969837E+00
 0.3439227487822E+00 -0.3837930736950E+00  0.0000000000000E+00 -0.2645222657779E+00
 0.3492534618228E+00 -0.3887032594743E+00  0.0000000000000E+00 -0.2848762533422E+00
 0.3523659529762E+00 -0.3916075897861E+00  0.0000000000000E+00 -0.3097450514916E+00
 0.3533527047563E+00 -0.3925917193970E+00  0.0000000000000E+00 -0.3385785191345E+00
 0.3521497166221E+00 -0.3915870768186E+00  0.0000000000000E+00 -0.3707802160153E+00
 0.3485363018367E+00 -0.3883656452574E+00  0.0000000000000E+00 -0.4057300564173E+00
 0.3421967595379E+00 -0.3825962849896E+00  0.0000000000000E+00 -0.4429316946582E+00
 0.3328588096056E+00 -0.3739779034127E+00  0.0000000000000E+00 -0.4820173718090E+00
 0.3207688088094E+00 -0.3627074579968E+00  0.0000000000000E+00 -0.5226327576762E+00
 0.8002752471660E-01 -0.1396480515640E+00  0.0000000000000E+00 -0.4394435144502E+00
 0.1234417562608E+00 -0.1802878904322E+00  0.0000000000000E+00 -0.3748476369258E+00
 0.1631956078247E+00 -0.2174568664327E+00  0.0000000000000E+00 -0.3258735556346E+00
 0.1990269260110E+00 -0.2509047348920E+00  0.0000000000000E+00 -0.2890469952743E+00
 0.2308512912057E+00 -0.2805567224362E+00  0.0000000000000E+00 -0.2620630700702E+00
 0.2587407912187E+00 -0.3064919118819E+00  0.0000000000000E+00 -0.2433953932569E+00
 0.2828758254572E+00 -0.3288951698758E+00  0.0000000000000E+00 -0.2319845145259E+00
 0.3034908643024E+00 -0.3480034744757E+00  0.0000000000000E+00 -0.2270557925988E+00
 0.3208347340428E+00 -0.3640671574282E+00  0.0000000000000E+00 -0.2280213416061E+00
 0.3351532398840E+00 -0.3773333440861E+00  0.0000000000000E+00 -0.2344353969589E+00
 0.3466808979359E+00 -0.3880381481832E+00  0.0000000000000E+00 -0.2459541608729E+00
 0.3556203750612E+00 -0.3963864742285E+00  0.0000000000000E+00 -0.2623037026754E+00
 0.3621801305496E+00 -0.4025867746450E+00  0.0000000000000E+00 -0.2833497983531E+00
 0.3665573662206E+00 -0.4068327392079E+00  0.0000000000000E+00 -0.3088565589619E+00
 0.3688347291577E+00 -0.4092035547229E+00  0.0000000000000E+00 -0.3383697087146E+00
 0.3689517800783E+00 -0.4096354952830E+00  0.0000000000000E+00 -0.3714041531726E+00
 0.3667171767213E+00 -0.4079322629642E+00  0.0000000000000E+00 -0.4074700303671E+00
 0.3618720055860E+00 -0.4038248261590E+00  0.0000000000000E+00 -0.4461442164290E+00
 0.3541989461799E+00 -0.3970806060115E+00  0.0000000000000E+00 -0.4869748529344E+00
 0.3438116640932E+00 -0.3877837627232E+00  0.0000000000000E+00 -0.5292431516999E+00
 0.7622721103781E-01 -0.1370073814593E+00  0.0000000000000E+00 -0.4194124294405E+00
 0.1223278732610E+00 -0.1801920806819E+00  0.0000000000000E+00 -0.3571008099260E+00
 0.1640926157037E+00 -0.2192672623862E+00  0.0000000000000E+00 -0.3103845161318E+00
 0.2015038824321E+00 -0.2542200006780E+00  0.0000000000000E+00 -0.2757198815787E+00
 0.2346481373902E+00 -0.2851406822672E+00  0.0000000000000E+00 -0.2507300560302E+00
 0.2637089942097E+00 -0.3122155505834E+00  0.0000000000000E+00 -0.2338306661812E+00
 0.2889368613828E+00 -0.3356963462162E+00  0.0000000000000E+00 -0.2239348941046E+00
 0.3106112798640E+00 -0.3558630786797E+00  0.0000000000000E+00 -0.2202707900423E+00
 0.3290126785235E+00 -0.3729964295554E+00  0.0000000000000E+00 -0.2222751724525E+00
 0.3444103543749E+00 -0.3873663407564E+00  0.0000000000000E+00 -0.2295376111998E+00
 0.3570570146564E+00 -0.3992269314100E+00  0.0000000000000E+00 -0.2417548229759E+00
 0.3671743846847E+00 -0.4088023159769E+00  0.0000000000000E+00 -0.2586956151357E+00
 0.3749759993701E+00 -0.4163072479081E+00  0.0000000000000E+00 -0.2802357396384E+00
 0.3806483763659E+00 -0.4219273704724E+00  0.0000000000000E+00 -0.3061729863992E+00
 0.3842715953156E+00 -0.4257419972259E+00  0.0000000000000E+00 -0.3361434713770E+00
 0.3857975270487E+00 -0.4277026984500E+00  0.0000000000000E+00 -0.3697595608791E+00
 0.3850658961668E+00 -0.4276483881669E+00  0.0000000000000E+00 -0.4066236744147E+00
 0.3818569502663E+00 -0.4253570606879E+00  0.0000000000000E+00 -0.4463434212582E+00
 0.3759681429863E+00 -0.4206221518648E+00  0.0000000000000E+00 -0.4883941970101E+00
 0.3673813119153E+00 -0.4134131658440E+00  0.0000000000000E+00 -0.5318397894343E+00
 0.7260875464000E-01 -0.1345070373630E+00  0.0000000000000E+00 -0.3983296481953E+00
 0.1213521190996E+00 -0.1801946313456E+00  0.0000000000000E+00 -0.3386405526826E+00
 0.1650858360246E+00 -0.2211352901844E+00  0.0000000000000E+00 -0.2943548601107E+00
 0.2040330450475E+00 -0.2575495509519E+00  0.0000000000000E+00 -0.2619083622151E+00
 0.2384497267027E+00 -0.2896917264230E+00  0.0000000000000E+00 -0.2388929085354E+00
 0.2686327769727E+00 -0.3178571500184E+00  0.0000000000000E+00 -0.2236965183394E+00
 0.2949060520947E+00 -0.3423680262652E+00  0.0000000000000E+00 -0.2152230545526E+00
 0.3175975638124E+00 -0.3635508462694E+00  0.0000000000000E+00 -0.2127114901017E+00
 0.3370218285155E+00 -0.3817191612806E+00  0.0000000000000E+00 -0.2156253168937E+00
 0.3534733456599E+00 -0.3971674973030E+00  0.0000000000000E+00 -0.2235884850861E+00
 0.3672240918460E+00 -0.4101691544674E+00  0.0000000000000E+00 -0.2363354514416E+00
 0.3785136173705E+00 -0.4209663998652E+00  0.0000000000000E+00 -0.2536735008712E+00
 0.3875619516402E+00 -0.4297817726418E+00  0.0000000000000E+00 -0.2754946517404E+00
 0.3945511381895E+00 -0.4367988627756E+00  0.0000000000000E+00 -0.3016337600000E+00
 0.3995645090692E+00 -0.4421032206442E+00  0.0000000000000E+00 -0.3318060743988E+00
 0.4025698851774E+00 -0.4456661007833E+00  0.0000000000000E+00 -0.3657034293987E+00
 0.4034343218845E+00 -0.4473591883422E+00  0.0000000000000E+00 -0.4029928716742E+00
 0.4019630641906E+00 -0.4469935043363E+00  0.0000000000000E+00 -0.4432963060943E+00
 0.3979476990050E+00 -0.4443676233788E+00  0.0000000000000E+00 -0.4860398769935E+00
 0.3912507939320E+00 -0.4393478089695E+00  0.0000000000000E+00 -0.5301707724004E+00
 0.6918485882281E-01 -0.1321532873440E+00  0.0000000000000E+00 -0.3762255879251E+00
 0.1205040335805E+00 -0.1802799234324E+00  0.0000000000000E+00 -0.3194908176872E+00
 0.1661484777051E+00 -0.2230299639362E+00  0.0000000000000E+00 -0.2778065320776E+00
 0.2065771524682E+00 -0.2608527094490E+00  0.0000000000000E+00 -0.2476358973879E+00
 0.2422128678295E+00 -0.2941638687677E+00  0.0000000000000E+00 -0.2265774432863E+00
 0.2734657757623E+00 -0.3233679979392E+00  0.0000000000000E+00 -0.2130195336645E+00
 0.3007348670618E+00 -0.3488595762154E+00  0.0000000000000E+00 -0.2058738782665E+00
 0.3243987346910E+00 -0.3710137701362E+00  0.0000000000000E+00 -0.2043987382416E+00
 0.3448076876605E+00 -0.3901787674946E+00  0.0000000000000E+00 -0.2080866142707E+00
 0.3622826398719E+00 -0.4066749598210E+00  0.0000000000000E+00 -0.2165950747858E+00
 0.3771156168565E+00 -0.4207956848260E+00  0.0000000000000E+00 -0.2296938707506E+00
 0.3895633941742E+00 -0.4328008977267E+00  0.0000000000000E+00 -0.2472253802567E+00
 0.3998541784184E+00 -0.4429226527343E+00  0.0000000000000E+00 -0.2691015778826E+00
 0.4081705632360E+00 -0.4513475217155E+00  0.0000000000000E+00 -0.2951939169847E+00
 0.4146028926466E+00 -0.4581712818842E+00  0.0000000000000E+00 -0.3252841224316E+00
 0.4191354899850E+00 -0.4633859565372E+00  0.0000000000000E+00 -0.3591268183884E+00
 0.4216576856697E+00 -0.4668913621242E+00  0.0000000000000E+00 -0.3964352182514E+00
 0.4219896976519E+00 -0.4685215639293E+00  0.0000000000000E+00 -0.4368392063344E+00
 0.4199076361165E+00 -0.4680705247878E+00  0.0000000000000E+00 -0.4797357547458E+00
 0.4151702771892E+00 -0.4653171036536E+00  0.0000000000000E+00 -0.5240219635599E+00
 0.6596805558701E-01 -0.1299524199014E+00  0.0000000000000E+00 -0.3531377891749E+00
 0.1197735024554E+00 -0.1804328805866E+00  0.0000000000000E+00 -0.2996802886750E+00
 0.1672548710231E+00 -0.2249216291889E+00  0.0000000000000E+00 -0.2607641499159E+00
 0.2091004614713E+00 -0.2640904969720E+00  0.0000000000000E+00 -0.2329267880445E+00
 0.2458957412986E+00 -0.2985126194680E+00  0.0000000000000E+00 -0.2138092837012E+00
 0.2781625080679E+00 -0.3287003308943E+00  0.0000000000000E+00 -0.2018262556785E+00
 0.3063750724988E+00 -0.3551207003934E+00  0.0000000000000E+00 -0.1959133705115E+00
 0.3309635359585E+00 -0.3781985929306E+00  0.0000000000000E+00 -0.1953563117823E+00
 0.3523149184999E+00 -0.3983178295552E+00  0.0000000000000E+00 -0.1996790936593E+00
 0.3707772676770E+00 -0.4158254582323E+00  0.0000000000000E+00 -0.2085723034692E+00
 0.3866631727002E+00 -0.4310354403859E+00  0.0000000000000E+00 -0.2218387241178E+00
 0.4002463914958E+00 -0.4442252824464E+00  0.0000000000000E+00 -0.2393527422751E+00
 0.4117648282217E+00 -0.4556381473673E+00  0.0000000000000E+00 -0.2610476190835E+00
 0.4214052794940E+00 -0.4654672810940E+00  0.0000000000000E+00 -0.2868286207702E+00
 0.4292671293328E+00 -0.4738208874701E+00  0.0000000000000E+00 -0.3165319056182E+00
 0.4353501309465E+00 -0.4807109169650E+00  0.0000000000000E+00 -0.3499611735536E+00
 0.4395608501824E+00 -0.4860604096777E+00  0.0000000000000E+00 -0.3868632370155E+00
 0.4417270899821E+00 -0.4897189824563E+00  0.0000000000000E+00 -0.4268730127166E+00
 0.4416046500687E+00 -0.4914709909164E+00  0.0000000000000E+00 -0.4693700377304E+00
 0.4388629901135E+00 -0.4910225312128E+00  0.0000000000000E+00 -0.5132371237462E+00
 0.6297062620850E-01 -0.1279107370918E+00  0.0000000000000E+00 -0.3291107258438E+00
 0.1191508303364E+00 -0.1806390810372E+00  0.0000000000000E+00 -0.2792418115083E+00
 0.1683804748577E+00 -0.2267819716405E+00  0.0000000000000E+00 -0.2432546111215E+00
 0.2115687644197E+00 -0.2672256483723E+00  0.0000000000000E+00 -0.2178062925304E+00
 0.2494580644960E+00 -0.3026951591244E+00  0.0000000000000E+00 -0.2006144007992E+00
 0.2826787288690E+00 -0.3338077160195E+00  0.0000000000000E+00 -0.1901438695593E+00
 0.3117792374247E+00 -0.3611019699452E+00  0.0000000000000E+00 -0.1853693203446E+00
 0.3372410538671E+00 -0.3850524458075E+00  0.0000000000000E+00 -0.1856115729122E+00
 0.3594880758815E+00 -0.4060788502423E+00  0.0000000000000E+00 -0.1904286590834E+00
 0.3788957152152E+00 -0.4245551912271E+00  0.0000000000000E+00 -0.1995436574475E+00
 0.3957973548322E+00 -0.4408163504884E+00  0.0000000000000E+00 -0.2127901777828E+00
 0.4104835870169E+00 -0.4551573291284E+00  0.0000000000000E+00 -0.2300715523117E+00
 0.4232031530308E+00 -0.4678336026972E+00  0.0000000000000E+00 -0.2513419598517E+00
 0.4341494674312E+00 -0.4790475337990E+00  0.0000000000000E+00 -0.2765365744421E+00
 0.4434317357873E+00 -0.4889206019354E+00  0.0000000000000E+00 -0.3055354664709E+00
 0.4510632444745E+00 -0.4974828492203E+00  0.0000000000000E+00 -0.3381805943507E+00
 0.4569630084786E+00 -0.5046757159318E+00  0.0000000000000E+00 -0.3742437138827E+00
 0.4609602830423E+00 -0.5103580398972E+00  0.0000000000000E+00 -0.4133633473386E+00
 0.4627866734823E+00 -0.5143003679101E+00  0.0000000000000E+00 -0.4549092863028E+00
 0.4620350640568E+00 -0.5161471557616E+00  0.0000000000000E+00 -0.4977724626673E+00
 0.6020447910538E-01 -0.1260344805264E+00  0.0000000000000E+00 -0.3041955693137E+00
 0.1186267984965E+00 -0.1808848436832E+00  0.0000000000000E+00 -0.2582120283506E+00
 0.1695019608786E+00 -0.2285841126711E+00  0.0000000000000E+00 -0.2253068624445E+00
 0.2139495091631E+00 -0.2702227370525E+00  0.0000000000000E+00 -0.2023007102862E+00
 0.2528613144385E+00 -0.3066705716546E+00  0.0000000000000E+00 -0.1870194901451E+00
 0.2869717946716E+00 -0.3386454308526E+00  0.0000000000000E+00 -0.1780007273394E+00
 0.3169012352123E+00 -0.3667553434425E+00  0.0000000000000E+00 -0.1742718553467E+00
 0.3431813414533E+00 -0.3915234919033E+00  0.0000000000000E+00 -0.1751960120477E+00
 0.3662723486913E+00 -0.4134050190837E+00  0.0000000000000E+00 -0.1803676251143E+00
 0.3865767794853E+00 -0.4328007117657E+00  0.0000000000000E+00 -0.1895417261369E+00
 0.4044487197397E+00 -0.4500663429745E+00  0.0000000000000E+00 -0.2025805384156E+00
 0.4201953655249E+00 -0.4655142501445E+00  0.0000000000000E+00 -0.2194132559079E+00
 0.4340769849960E+00 -0.4794129521853E+00  0.0000000000000E+00 -0.2400135312453E+00
 0.4462950262485E+00 -0.4919753327042E+00  0.0000000000000E+00 -0.2643422240734E+00
 0.4569684512471E+00 -0.5033360628417E+00  0.0000000000000E+00 -0.2923145474641E+00
 0.4661217790460E+00 -0.5135409176021E+00  0.0000000000000E+00 -0.3238024728747E+00
 0.4736819662378E+00 -0.5225450765593E+00  0.0000000000000E+00 -0.3585970649523E+00
 0.4794742136104E+00 -0.5302107817885E+00  0.0000000000000E+00 -0.3963409730296E+00
 0.4832024914998E+00 -0.5362905978513E+00  0.0000000000000E+00 -0.4364024403326E+00
 0.4843930049996E+00 -0.5403751309514E+00  0.0000000000000E+00 -0.4776964420281E+00
 0.5768100874984E-01 -0.1243297312168E+00  0.0000000000000E+00 -0.2784498998294E+00
 0.1181927171649E+00 -0.1811573068741E+00  0.0000000000000E+00 -0.2366310858607E+00
 0.1705973352757E+00 -0.2303027464456E+00  0.0000000000000E+00 -0.2069517369726E+00
 0.2162119745916E+00 -0.2730483610814E+00  0.0000000000000E+00 -0.1864374345772E+00
 0.2560689892653E+00 -0.3104001172002E+00  0.0000000000000E+00 -0.1730522294108E+00
 0.2910010403165E+00 -0.3431708550023E+00  0.0000000000000E+00 -0.1654267237617E+00
 0.3216967450528E+00 -0.3720346859194E+00  0.0000000000000E+00 -0.1626538471856E+00
 0.3487360428535E+00 -0.3975615709741E+00  0.0000000000000E+00 -0.1641456334048E+00
 0.3726143067105E+00 -0.4202409833025E+00  0.0000000000000E+00 -0.1695350734036E+00
 0.3937604411096E+00 -0.4404998293920E+00  0.0000000000000E+00 -0.1786085540565E+00
 0.4125487995492E+00 -0.4587143917022E+00  0.0000000000000E+00 -0.1912546884649E+00
 0.4293027693055E+00 -0.4752139806672E+00  0.0000000000000E+00 -0.2074254793586E+00
 0.4442944019509E+00 -0.4902804234815E+00  0.0000000000000E+00 -0.2271120263078E+00
 0.4577338343626E+00 -0.5041377248155E+00  0.0000000000000E+00 -0.2502968057267E+00
 0.4697491735784E+00 -0.5169330440298E+00  0.0000000000000E+00 -0.2769231317167E+00
 0.4803737367494E+00 -0.5287253037753E+00  0.0000000000000E+00 -0.3068870321814E+00
 0.4895382888277E+00 -0.5394790347312E+00  0.0000000000000E+00 -0.3399959377915E+00
 0.4970592045466E+00 -0.5490546451615E+00  0.0000000000000E+00 -0.3758996352808E+00
 0.5026099992762E+00 -0.5571829721239E+00  0.0000000000000E+00 -0.4139746956971E+00
 0.5056569632658E+00 -0.5634054963251E+00  0.0000000000000E+00 -0.4531734383156E+00
 0.5541095203974E-01 -0.1228023019216E+00  0.0000000000000E+00 -0.2519373680355E+00
 0.1178404783372E+00 -0.1814445056251E+00  0.0000000000000E+00 -0.2145423821707E+00
 0.1716460808885E+00 -0.2319142981367E+00  0.0000000000000E+00 -0.1882218328159E+00
 0.2183274755889E+00 -0.2756713600969E+00  0.0000000000000E+00 -0.1702449937391E+00
 0.2590468902961E+00 -0.3138475257915E+00  0.0000000000000E+00 -0.1587414641094E+00
 0.2947281595796E+00 -0.3473438641279E+00  0.0000000000000E+00 -0.1524535637395E+00
 0.3261237443966E+00 -0.3768962772364E+00  0.0000000000000E+00 -0.1505511917238E+00
 0.3538590036998E+00 -0.4031188286740E+00  0.0000000000000E+00 -0.1525012010497E+00
 0.3784626357801E+00 -0.4265336057069E+00  0.0000000000000E+00 -0.1579770518062E+00
 0.4003887392764E+00 -0.4475925122165E+00  0.0000000000000E+00 -0.1667958143640E+00
 0.4200311510261E+00 -0.4666915977420E+00  0.0000000000000E+00 -0.1788702902280E+00
 0.4377288123645E+00 -0.4841765321230E+00  0.0000000000000E+00 -0.1941723454056E+00
 0.4537654367880E+00 -0.5003423025423E+00  0.0000000000000E+00 -0.2127082637130E+00
 0.4683599537346E+00 -0.5154240394349E+00  0.0000000000000E+00 -0.2344784807432E+00
 0.4816486917780E+00 -0.5295803114327E+00  0.0000000000000E+00 -0.2594489765273E+00
 0.4936714150670E+00 -0.5428806083151E+00  0.0000000000000E+00 -0.2875359210781E+00
 0.5043591350389E+00 -0.5552948977586E+00  0.0000000000000E+00 -0.3185625824389E+00
 0.5135156078247E+00 -0.5666773877254E+00  0.0000000000000E+00 -0.3521911831181E+00
 0.5207819080648E+00 -0.5767342227125E+00  0.0000000000000E+00 -0.3878180471164E+00
 0.5255686496587E+00 -0.5849602498104E+00  0.0000000000000E+00 -0.4244456618501E+00
 0.5340424886972E-01 -0.1214576311168E+00  0.0000000000000E+00 -0.2247272897408E+00
 0.1175626106674E+00 -0.1817354492962E+00  0.0000000000000E+00 -0.1919923121165E+00
 0.1726293100766E+00 -0.2333970928480E+00  0.0000000000000E+00 -0.1691513976724E+00
 0.2202695831777E+00 -0.2780630478351E+00  0.0000000000000E+00 -0.1537530672277E+00
 0.2617634140407E+00 -0.3169793008831E+00  0.0000000000000E+00 -0.1441173254135E+00
 0.2981175848646E+00 -0.3511272222061E+00  0.0000000000000E+00 -0.1391149276852E+00
 0.3301429905741E+00 -0.3812993084120E+00  0.0000000000000E+00 -0.1380029637626E+00
 0.3585068658565E+00 -0.4081503289410E+00  0.0000000000000E+00 -0.1403083402076E+00
 0.3837688592659E+00 -0.4322327075081E+00  0.0000000000000E+00 -0.1457466052580E+00
 0.4064066429596E+00 -0.4540217842363E+00  0.0000000000000E+00 -0.1541647757977E+00
 0.4268324167257E+00 -0.4739322833405E+00  0.0000000000000E+00 -0.1654977085640E+00
 0.4453998077356E+00 -0.4923253629728E+00  0.0000000000000E+00 -0.1797343642567E+00
 0.4624037606970E+00 -0.5095086778331E+00  0.0000000000000E+00 -0.1968939419462E+00
 0.4780717249040E+00 -0.5257280705434E+00  0.0000000000000E+00 -0.2169917113539E+00
 0.4925472027388E+00 -0.5411522598432E+00  0.0000000000000E+00 -0.2400123176053E+00
 0.5058743259529E+00 -0.5558589245115E+00  0.0000000000000E+00 -0.2658899157911E+00
 0.5179815452666E+00 -0.5698202328120E+00  0.0000000000000E+00 -0.2944650521453E+00
 0.5286573617731E+00 -0.5828809203776E+00  0.0000000000000E+00 -0.3254194023756E+00
 0.5375094265106E+00 -0.5947205022978E+00  0.0000000000000E+00 -0.3581815560373E+00
 0.5438954721040E+00 -0.6047885265696E+00  0.0000000000000E+00 -0.3918177353755E+00
 0.5166991381869E-01 -0.1203006840060E+00  0.0000000000000E+00 -0.1968941896179E+00
 0.1173523369906E+00 -0.1820201997943E+00  0.0000000000000E+00 -0.1690300075738E+00
 0.1735299213602E+00 -0.2347315268976E+00  0.0000000000000E+00 -0.1497762142584E+00
 0.2220143483757E+00 -0.2801974475013E+00  0.0000000000000E+00 -0.1369924792945E+00
 0.2641898430245E+00 -0.3197650207561E+00  0.0000000000000E+00 -0.1292112910359E+00
 0.3011368572011E+00 -0.3544869628317E+00  0.0000000000000E+00 -0.1254465474870E+00
 0.3337184843427E+00 -0.3852063583646E+00  0.0000000000000E+00 -0.1250514555988E+00
 0.3626396389992E+00 -0.4126146415921E+00  0.0000000000000E+00 -0.1276174972080E+00
 0.3884880358724E+00 -0.4372917859816E+00  0.0000000000000E+00 -0.1329036336531E+00
 0.4117629017058E+00 -0.4597346012819E+00  0.0000000000000E+00 -0.1407860479294E+00
 0.4328933677861E+00 -0.4803750678823E+00  0.0000000000000E+00 -0.1512196331047E+00
 0.4522466621122E+00 -0.4995887185984E+00  0.0000000000000E+00 -0.1642079050269E+00
 0.4701282900711E+00 -0.5176951102141E+00  0.0000000000000E+00 -0.1797808429151E+00
 0.4867737139458E+00 -0.5349501109671E+00  0.0000000000000E+00 -0.1979659868442E+00
 0.5023325860720E+00 -0.5515313048637E+00  0.0000000000000E+00 -0.2187638657607E+00
 0.5168517391485E+00 -0.5675225365226E+00  0.0000000000000E+00 -0.2421258662662E+00
 0.5302551280769E+00 -0.5828957541960E+00  0.0000000000000E+00 -0.2679126744691E+00
 0.5423146058844E+00 -0.5974841633865E+00  0.0000000000000E+00 -0.2958334854988E+00
 0.5526045843826E+00 -0.6109399295272E+00  0.0000000000000E+00 -0.3253622698402E+00
 0.5604324124554E+00 -0.6226685684987E+00  0.0000000000000E+00 -0.3556437491223E+00
 0.5021591639187E-01 -0.1193358625894E+00  0.0000000000000E+00 -0.1685172817629E+00
 0.1172036313910E+00 -0.1822899489105E+00  0.0000000000000E+00 -0.1457070588528E+00
 0.1743327521236E+00 -0.2359002354223E+00  0.0000000000000E+00 -0.1301334724194E+00
 0.2235405198732E+00 -0.2820515212956E+00  0.0000000000000E+00 -0.1199951622089E+00
 0.2663006254654E+00 -0.3221776289494E+00  0.0000000000000E+00 -0.1140561880389E+00
 0.3037569776587E+00 -0.3573927517649E+00  0.0000000000000E+00 -0.1114861955749E+00
 0.3368179069996E+00 -0.3885838436978E+00  0.0000000000000E+00 -0.1117421014407E+00
 0.3662212394998E+00 -0.4164743964669E+00  0.0000000000000E+00 -0.1144837568745E+00
 0.3925794205524E+00 -0.4416686944344E+00  0.0000000000000E+00 -0.1195145709748E+00
 0.4164108555476E+00 -0.4646826855942E+00  0.0000000000000E+00 -0.1267390960462E+00
 0.4381598974748E+00 -0.4859638945608E+00  0.0000000000000E+00 -0.1361303971111E+00
 0.4582060981504E+00 -0.5059008990319E+00  0.0000000000000E+00 -0.1477042684030E+00
 0.4768646761241E+00 -0.5248241850222E+00  0.0000000000000E+00 -0.1614995422592E+00
 0.4943784761035E+00 -0.5429988009230E+00  0.0000000000000E+00 -0.1775539907600E+00
 0.5109024059164E+00 -0.5606099978896E+00  0.0000000000000E+00 -0.1958822178753E+00
 0.5264848288320E+00 -0.5777462130629E+00  0.0000000000000E+00 -0.2164530973876E+00
 0.5410441851819E+00 -0.5943776308567E+00  0.0000000000000E+00 -0.2391511658034E+00
 0.5543355473586E+00 -0.6103251174784E+00  0.0000000000000E+00 -0.2637215958956E+00
 0.5659015812700E+00 -0.6252141261116E+00  0.0000000000000E+00 -0.2896968876809E+00
 0.5750023803479E+00 -0.6384082233994E+00  0.0000000000000E+00 -0.3163158472150E+00
 0.4904907750497E-01 -0.1185669271312E+00  0.0000000000000E+00 -0.1396798917103E+00
 0.1171112759081E+00 -0.1825370925277E+00  0.0000000000000E+00 -0.1220772139473E+00
 0.1750247241625E+00 -0.2368882505139E+00  0.0000000000000E+00 -0.1102616260059E+00
 0.2248297495099E+00 -0.2836053858844E+00  0.0000000000000E+00 -0.1027940923531E+00
 0.2680736366597E+00 -0.3241937046692E+00  0.0000000000000E+00 -0.9868614662452E-01
 0.3059527326791E+00 -0.3598182216140E+00  0.0000000000000E+00 -0.9727360000053E-01
 0.3394130228926E+00 -0.3914024319690E+00  0.0000000000000E+00 -0.9812330198795E-01
 0.3692199864580E+00 -0.4196967926905E+00  0.0000000000000E+00 -0.1009665313882E+00
 0.3960070743756E+00 -0.4453262690903E+00  0.0000000000000E+00 -0.1056518996941E+00
 0.4203091838647E+00 -0.4688232973683E+00  0.0000000000000E+00 -0.1121115430859E+00
 0.4425839382119E+00 -0.4906489784862E+00  0.0000000000000E+00 -0.1203350214386E+00
 0.4632217725113E+00 -0.5112034199344E+00  0.0000000000000E+00 -0.1303484114538E+00
 0.4825466460463E+00 -0.5308269120866E+00  0.0000000000000E+00 -0.1421977068297E+00
 0.5008081106062E+00 -0.5497927622915E+00  0.0000000000000E+00 -0.1559293210433E+00
 0.5181656264854E+00 -0.5682928463608E+00  0.0000000000000E+00 -0.1715708377067E+00
 0.5346684399467E+00 -0.5864191068354E+00  0.0000000000000E+00 -0.1891094857111E+00
 0.5502293540464E+00 -0.6041392885265E+00  0.0000000000000E+00 -0.2084576672263E+00
 0.5645877470134E+00 -0.6212623243354E+00  0.0000000000000E+00 -0.2294047651470E+00
 0.5772574041412E+00 -0.6373890088684E+00  0.0000000000000E+00 -0.2515543541929E+00
 0.5874555396681E+00 -0.6518444208693E+00  0.0000000000000E+00 -0.2742549221281E+00
 0.4817498129883E-01 -0.1179969306015E+00  0.0000000000000E+00 -0.1104688434462E+00
 0.1170709138411E+00 -0.1827552994766E+00  0.0000000000000E+00 -0.9819607065286E-01
 0.1755949757439E+00 -0.2376831445942E+00  0.0000000000000E+00 -0.9020024466801E-01
 0.2258667775707E+00 -0.2848425066570E+00  0.0000000000000E+00 -0.8542320787216E-01
 0.2694904133724E+00 -0.3257937052350E+00  0.0000000000000E+00 -0.8313651451360E-01
 0.3077029844375E+00 -0.3617412704686E+00  0.0000000000000E+00 -0.8285029612362E-01
 0.3414800379727E+00 -0.3936374097217E+00  0.0000000000000E+00 -0.8424615986410E-01
 0.3716090440678E+00 -0.4222540527651E+00  0.0000000000000E+00 -0.8712913084490E-01
 0.3987404097962E+00 -0.4482328896316E+00  0.0000000000000E+00 -0.9139351110879E-01
 0.4234225758813E+00 -0.4721199258866E+00  0.0000000000000E+00 -0.9699827278550E-01
 0.4461242811014E+00 -0.4943876547097E+00  0.0000000000000E+00 -0.1039480064482E+00
 0.4672452676276E+00 -0.5154460437519E+00  0.0000000000000E+00 -0.1122773628632E+00
 0.4871171773186E+00 -0.5356439538337E+00  0.0000000000000E+00 -0.1220380370606E+00
 0.5059955978626E+00 -0.5552620078404E+00  0.0000000000000E+00 -0.1332838427047E+00
 0.5240440516469E+00 -0.5744978469855E+00  0.0000000000000E+00 -0.1460547120418E+00
 0.5413125187866E+00 -0.5934463019063E+00  0.0000000000000E+00 -0.1603573401822E+00
 0.5577088632598E+00 -0.6120728023457E+00  0.0000000000000E+00 -0.1761358239890E+00
 0.5729589765929E+00 -0.6301758742964E+00  0.0000000000000E+00 -0.1932311936975E+00
 0.5865519755795E+00 -0.6473350899057E+00  0.0000000000000E+00 -0.2113294000792E+00
 0.5976681188499E+00 -0.6628421400317E+00  0.0000000000000E+00 -0.2299032776756E+00
 0.4759790354406E-01 -0.1176281662742E+00  0.0000000000000E+00 -0.8097380155854E-01
 0.1170790980035E+00 -0.1829395730144E+00  0.0000000000000E+00 -0.7412074990447E-01
 0.1760349770483E+00 -0.2382751554305E+00  0.0000000000000E+00 -0.6998985096857E-01
 0.2266395937417E+00 -0.2857498662528E+00  0.0000000000000E+00 -0.6791730283111E-01
 0.2705363565288E+00 -0.3269621755351E+00  0.0000000000000E+00 -0.6744373177268E-01
 0.3089909210251E+00 -0.3631443189977E+00  0.0000000000000E+00 -0.6825941906750E-01
 0.3429999082517E+00 -0.3952689988804E+00  0.0000000000000E+00 -0.7016413343140E-01
 0.3733668024175E+00 -0.4241238132724E+00  0.0000000000000E+00 -0.7303822605808E-01
 0.4007546607261E+00 -0.4503629623359E+00  0.0000000000000E+00 -0.7682192614899E-01
 0.4257223090045E+00 -0.4745428857084E+00  0.0000000000000E+00 -0.8150035499929E-01
 0.4487472814436E+00 -0.4971451085358E+00  0.0000000000000E+00 -0.8709190288126E-01
 0.4702369402890E+00 -0.5185876626431E+00  0.0000000000000E+00 -0.9363837404617E-01
 0.4905294921105E+00 -0.5392266664916E+00  0.0000000000000E+00 -0.1011959165455E+00
 0.5098859157109E+00 -0.5593491197542E+00  0.0000000000000E+00 -0.1098247522284E+00
 0.5284735033095E+00 -0.5791577442635E+00  0.0000000000000E+00 -0.1195767755070E+00
 0.5463432510101E+00 -0.5987500502915E+00  0.0000000000000E+00 -0.1304791815645E+00
 0.5633994802515E+00 -0.6180899599952E+00  0.0000000000000E+00 -0.1425109838431E+00
 0.5793577714220E+00 -0.6369680854088E+00  0.0000000000000E+00 -0.1555709931881E+00
 0.5936880183506E+00 -0.6549474718300E+00  0.0000000000000E+00 -0.1694369626164E+00
 0.6055410256719E+00 -0.6712931688737E+00  0.0000000000000E+00 -0.1837188249117E+00
 0.4732075770800E-01 -0.1174621292521E+00  0.0000000000000E+00 -0.5128658028254E-01
 0.1171333321983E+00 -0.1830863029434E+00  0.0000000000000E+00 -0.4990955634624E-01
 0.1763386254612E+00 -0.2386572891155E+00  0.0000000000000E+00 -0.4967174737144E-01
 0.2271395690282E+00 -0.2863181025303E+00  0.0000000000000E+00 -0.5031190358808E-01
 0.2712008967141E+00 -0.3276879188994E+00  0.0000000000000E+00 -0.5164517444924E-01
 0.3098042602325E+00 -0.3640145196988E+00  0.0000000000000E+00 -0.5354544830000E-01
 0.3439585909197E+00 -0.3962826141413E+00  0.0000000000000E+00 -0.5593262335606E-01
 0.3744771878926E+00 -0.4252894431558E+00  0.0000000000000E+00 -0.5876322133062E-01
 0.4020312664719E+00 -0.4516973145112E+00  0.0000000000000E+00 -0.6202339888475E-01
 0.4271867218417E+00 -0.4760698041570E+00  0.0000000000000E+00 -0.6572382185900E-01
 0.4504274355587E+00 -0.4988949725583E+00  0.0000000000000E+00 -0.6989569912884E-01
 0.4721666131170E+00 -0.5205970180206E+00  0.0000000000000E+00 -0.7458685463056E-01
 0.4927478624894E+00 -0.5415379435543E+00  0.0000000000000E+00 -0.7985682829186E-01
 0.5124369354229E+00 -0.5620101964008E+00  0.0000000000000E+00 -0.8577142084789E-01
 0.5314047559916E+00 -0.5822210299814E+00  0.0000000000000E+00 -0.9239417143104E-01
 0.5497039474242E+00 -0.6022707372899E+00  0.0000000000000E+00 -0.9977347461436E-01
 0.5672372226885E+00 -0.6221230653990E+00  0.0000000000000E+00 -0.1079255346330E+00
 0.5837137886786E+00 -0.6415639663276E+00  0.0000000000000E+00 -0.1168113539520E+00
 0.5985907906577E+00 -0.6601456919895E+00  0.0000000000000E+00 -0.1263074537768E+00
 0.6109985211458E+00 -0.6771148866679E+00  0.0000000000000E+00 -0.1361708476209E+00
 0.4734505930407E-01 -0.1174994923209E+00  0.0000000000000E+00 -0.2150042567789E-01
 0.1172321044943E+00 -0.1831933068037E+00  0.0000000000000E+00 -0.2562162770555E-01
 0.1765023180384E+00 -0.2388253982452E+00  0.0000000000000E+00 -0.2928783416533E-01
 0.2273615551736E+00 -0.2865416124523E+00  0.0000000000000E+00 -0.3264313043150E-01
 0.2714776184258E+00 -0.3279641252776E+00  0.0000000000000E+00 -0.3577897331907E-01
 0.3101354022424E+00 -0.3643439135439E+00  0.0000000000000E+00 -0.3875391435745E-01
 0.3443472325235E+00 -0.3966690556740E+00  0.0000000000000E+00 -0.4160850585686E-01
 0.3749298962905E+00 -0.4257402825334E+00  0.0000000000000E+00 -0.4437555551326E-01
 0.4025581610403E+00 -0.4522234914436E+00  0.0000000000000E+00 -0.4708692642653E-01
 0.4278015718348E+00 -0.4766859895659E+00  0.0000000000000E+00 -0.4977832517053E-01
 0.4511478180212E+00 -0.4996197788036E+00  0.0000000000000E+00 -0.5249306319074E-01
 0.4730140991134E+00 -0.5214532459019E+00  0.0000000000000E+00 -0.5528413900829E-01
 0.4937482209471E+00 -0.5425528547844E+00  0.0000000000000E+00 -0.5821359045220E-01
 0.5136201006750E+00 -0.5632155691946E+00  0.0000000000000E+00 -0.6135206966843E-01
 0.5328042443371E+00 -0.5836526993636E+00  0.0000000000000E+00 -0.6477439285597E-01
 0.5513557129107E+00 -0.6039676099608E+00  0.0000000000000E+00 -0.6855033532912E-01
 0.5691778898349E+00 -0.6241255400457E+00  0.0000000000000E+00 -0.7273436612435E-01
 0.5859780673596E+00 -0.6439115525441E+00  0.0000000000000E+00 -0.7735204746569E-01
 0.6012078445104E+00 -0.6628735780741E+00  0.0000000000000E+00 -0.8238275662068E-01
 0.6139870959829E+00 -0.6802492208351E+00  0.0000000000000E+00 -0.8773688275071E-01
 0.4767090912748E-01 -0.1177400964539E+00  0.0000000000000E+00  0.8290721811860E-02
 0.1173749113078E+00 -0.1832598589722E+00  0.0000000000000E+00 -0.1316575191761E-02
 0.1765249992329E+00 -0.2387782332582E+00  0.0000000000000E+00 -0.8880419994884E-02
 0.2273039490540E+00 -0.2864186192749E+00  0.0000000000000E+00 -0.1494754818420E-01
 0.2713643400491E+00 -0.3277884536171E+00  0.0000000000000E+00 -0.1988381483477E-01
 0.3099815276284E+00 -0.3641295303442E+00  0.0000000000000E+00 -0.2393107879674E-01
 0.3441622898352E+00 -0.3964246326584E+00  0.0000000000000E+00 -0.2724962811225E-01
 0.3747205432490E+00 -0.4254717964851E+00  0.0000000000000E+00 -0.2994795178481E-01
 0.4023299612050E+00 -0.4519359490052E+00  0.0000000000000E+00 -0.3210319149905E-01
 0.4275602697802E+00 -0.4763846721682E+00  0.0000000000000E+00 -0.3377570808845E-01
 0.4509003710173E+00 -0.4993112571300E+00  0.0000000000000E+00 -0.3502047951003E-01
 0.4727695518369E+00 -0.5211462398611E+00  0.0000000000000E+00 -0.3589513040048E-01
 0.4935185720577E+00 -0.5422590756157E+00  0.0000000000000E+00 -0.3646346009609E-01
 0.5134208918223E+00 -0.5629502908834E+00  0.0000000000000E+00 -0.3680031955689E-01
 0.5326545564494E+00 -0.5834347757527E+00  0.0000000000000E+00 -0.3699133083364E-01
 0.5512779249594E+00 -0.6038192949828E+00  0.0000000000000E+00 -0.3712721347228E-01
 0.5691974586958E+00 -0.6240723653082E+00  0.0000000000000E+00 -0.3730041735013E-01
 0.5861232448025E+00 -0.6439821762080E+00  0.0000000000000E+00 -0.3760116749340E-01
 0.6015089642054E+00 -0.6630992317785E+00  0.0000000000000E+00 -0.3811266408315E-01
 0.6144748057679E+00 -0.6806621185065E+00  0.0000000000000E+00 -0.3890107122230E-01
 0.4829699570559E-01 -0.1181829561420E+00  0.0000000000000E+00  0.3799297338862E-01
 0.1175622716752E+00 -0.1832867069619E+00  0.0000000000000E+00  0.2294587982010E-01
 0.1764081827114E+00 -0.2385174657077E+00  0.0000000000000E+00  0.1150797076755E-01
 0.2269687204940E+00 -0.2859512014391E+00  0.0000000000000E+00  0.2737988266797E-02
 0.2708631476385E+00 -0.3271630664885E+00  0.0000000000000E+00 -0.3998733526427E-02
 0.3093446382983E+00 -0.3633734304289E+00  0.0000000000000E+00 -0.9123600718281E-02
 0.3434055804649E+00 -0.3955512146546E+00  0.0000000000000E+00 -0.1291428380965E-01
 0.3738507283112E+00 -0.4244856400463E+00  0.0000000000000E+00 -0.1555363944397E-01
 0.4013480488319E+00 -0.4508361372698E+00  0.0000000000000E+00 -0.1716346715083E-01
 0.4264639859349E+00 -0.4751671120992E+00  0.0000000000000E+00 -0.1782852742447E-01
 0.4496860400157E+00 -0.4979704737346E+00  0.0000000000000E+00 -0.1761532384472E-01
 0.4714336356223E+00 -0.5196768255169E+00  0.0000000000000E+00 -0.1658587063917E-01
 0.4920592012959E+00 -0.5406571023613E+00  0.0000000000000E+00 -0.1480515283814E-01
 0.5118390753937E+00 -0.5612143944194E+00  0.0000000000000E+00 -0.1235165397261E-01
 0.5309547197517E+00 -0.5815666098688E+00  0.0000000000000E+00 -0.9321247155787E-02
 0.5494685393059E+00 -0.6018241225215E+00  0.0000000000000E+00 -0.5824535019197E-02
 0.5672923729868E+00 -0.6219603952733E+00  0.0000000000000E+00 -0.1990251578016E-02
 0.5841437720644E+00 -0.6417707080023E+00  0.0000000000000E+00  0.2029006353485E-02
 0.5994862213818E+00 -0.6608151184431E+00  0.0000000000000E+00  0.6048617167947E-02
 0.6124511580726E+00 -0.6783434302032E+00  0.0000000000000E+00  0.9848456994629E-02
 0.4922061695851E-01 -0.1188262795654E+00  0.0000000000000E+00  0.6751323865549E-01
 0.1177957315297E+00 -0.1832760747332E+00  0.0000000000000E+00  0.4710627015066E-01
 0.1761559469251E+00 -0.2380476831412E+00  0.0000000000000E+00  0.3183479170598E-01
 0.2263614030581E+00 -0.2851452827474E+00  0.0000000000000E+00  0.2037648924809E-01
 0.2699803818871E+00 -0.3260946163612E+00  0.0000000000000E+00  0.1183709619727E-01
 0.3082315404895E+00 -0.3620826867619E+00  0.0000000000000E+00  0.5621797773502E-02
 0.3420842619672E+00 -0.3940562095563E+00  0.0000000000000E+00  0.1339313895381E-02
 0.3723280109768E+00 -0.4227896327465E+00  0.0000000000000E+00 -0.1265570479116E-02
 0.3996205453766E+00 -0.4489324730248E+00  0.0000000000000E+00 -0.2358512677722E-02
 0.4245216251366E+00 -0.4730425718972E+00  0.0000000000000E+00 -0.2048562636834E-02
 0.4475147526404E+00 -0.4956078065707E+00  0.0000000000000E+00 -0.4139189576149E-03
 0.4690175121242E+00 -0.5170567426773E+00  0.0000000000000E+00  0.2478916933847E-02
 0.4893826769458E+00 -0.5377602488703E+00  0.0000000000000E+00  0.6564175880108E-02
 0.5088887354168E+00 -0.5580229185914E+00  0.0000000000000E+00  0.1176017168824E-01
 0.5277202789787E+00 -0.5780649525872E+00  0.0000000000000E+00  0.1796132015343E-01
 0.5459442282160E+00 -0.5980002613029E+00  0.0000000000000E+00  0.2503872594866E-01
 0.5634797421652E+00 -0.6178085558658E+00  0.0000000000000E+00  0.3283041715588E-01
 0.5800561484648E+00 -0.6372957972735E+00  0.0000000000000E+00  0.4112613089247E-01
 0.5951541877246E+00 -0.6560382874122E+00  0.0000000000000E+00  0.4964570028797E-01
 0.6079272899775E+00 -0.6733070716264E+00  0.0000000000000E+00  0.5802109448066E-01
 0.5043772103349E-01 -0.1196675035459E+00  0.0000000000000E+00  0.9675996593532E-01
 0.1180778582741E+00 -0.1832316532864E+00  0.0000000000000E+00  0.7110574616904E-01
 0.1757749049615E+00 -0.2373763561165E+00  0.0000000000000E+00  0.5205766755675E-01
 0.2254910484625E+00 -0.2840105844630E+00  0.0000000000000E+00  0.3793098250674E-01
 0.2687265788938E+00 -0.3245941841437E+00  0.0000000000000E+00  0.2758456110514E-01
 0.3066537702673E+00 -0.3602693079438E+00  0.0000000000000E+00  0.2025865486308E-01
 0.3402107397075E+00 -0.3919524683931E+00  0.0000000000000E+00  0.1545354476869E-01
 0.3701657988908E+00 -0.4203976428525E+00  0.0000000000000E+00  0.1284434639247E-01
 0.3971621786463E+00 -0.4462402013137E+00  0.0000000000000E+00  0.1222251024637E-01
 0.4217496708622E+00 -0.4700281535129E+00  0.0000000000000E+00  0.1345465235669E-01
 0.4444052400905E+00 -0.4922427571491E+00  0.0000000000000E+00  0.1645038550190E-01
 0.4655426410285E+00 -0.5133084331200E+00  0.0000000000000E+00  0.2113826260237E-01
 0.4855136403554E+00 -0.5335944199499E+00  0.0000000000000E+00  0.2745193986258E-01
 0.5045980788616E+00 -0.5534056925320E+00  0.0000000000000E+00  0.3530673875028E-01
 0.5229831566385E+00 -0.5729637911103E+00  0.0000000000000E+00  0.4458771102865E-01
 0.5407403433948E+00 -0.5923856558847E+00  0.0000000000000E+00  0.5514958211945E-01
 0.5577974486586E+00 -0.6116579281491E+00  0.0000000000000E+00  0.6680134047258E-01
 0.5738991963624E+00 -0.6306001268284E+00  0.0000000000000E+00  0.7928205791040E-01
 0.5885504003904E+00 -0.6488108161472E+00  0.0000000000000E+00  0.9222532885027E-01
 0.6009367446882E+00 -0.6655917681516E+00  0.0000000000000E+00  0.1051253370872E+00
 0.5194296591370E-01 -0.1207033428370E+00  0.0000000000000E+00  0.1256438628087E+00
 0.1184122263393E+00 -0.1831585793084E+00  0.0000000000000E+00  0.9488643124598E-01
 0.1752741501354E+00 -0.2365137788145E+00  0.0000000000000E+00  0.7213458143510E-01
 0.2243701465316E+00 -0.2825605413045E+00  0.0000000000000E+00  0.5536465528753E-01
 0.2671163668424E+00 -0.3226771721379E+00  0.0000000000000E+00  0.4320479244837E-01
 0.3046274636108E+00 -0.3579501042194E+00  0.0000000000000E+00  0.3474106618823E-01
 0.3378025055548E+00 -0.3892581190800E+00  0.0000000000000E+00  0.2937185979064E-01
 0.3673831504178E+00 -0.4173293836273E+00  0.0000000000000E+00  0.2670596975546E-01
 0.3939940444529E+00 -0.4427811487683E+00  0.0000000000000E+00  0.2649307076255E-01
 0.4181719011414E+00 -0.4661485029933E+00  0.0000000000000E+00  0.2857523675120E-01
 0.4403847036339E+00 -0.4879036016303E+00  0.0000000000000E+00  0.3284906290728E-01
 0.4610403952739E+00 -0.5084646348353E+00  0.0000000000000E+00  0.3923730979714E-01
 0.4804883801431E+00 -0.5281976576340E+00  0.0000000000000E+00  0.4767306582686E-01
 0.4990090037910E+00 -0.5474068679403E+00  0.0000000000000E+00  0.5806854609382E-01
 0.5167912768571E+00 -0.5663139291021E+00  0.0000000000000E+00  0.7029933909232E-01
 0.5339106795100E+00 -0.5850377411120E+00  0.0000000000000E+00  0.8420570570899E-01
 0.5503041417177E+00 -0.6035716925615E+00  0.0000000000000E+00  0.9957259010356E-01
 0.5657343679183E+00 -0.6217506733288E+00  0.0000000000000E+00  0.1160974091787E+00
 0.5797360734743E+00 -0.6392004802001E+00  0.0000000000000E+00  0.1333400737871E+00
 0.5915368498310E+00 -0.6552623776050E+00  0.0000000000000E+00  0.1506708909597E+00
 0.5372979682376E-01 -0.1219298538785E+00  0.0000000000000E+00  0.1540786052985E+00
 0.1188033944760E+00 -0.1830634029051E+00  0.0000000000000E+00  0.1183917794934E+00
 0.1746651787707E+00 -0.2354729851695E+00  0.0000000000000E+00  0.9202406452895E-01
 0.2230145127875E+00 -0.2808121837907E+00  0.0000000000000E+00  0.7264098981284E-01
 0.2651683208549E+00 -0.3203631540115E+00  0.0000000000000E+00  0.5865932917848E-01
 0.3021731732968E+00 -0.3551464989893E+00  0.0000000000000E+00  0.4902394771762E-01
 0.3348819096407E+00 -0.3859963316185E+00  0.0000000000000E+00  0.4303921188909E-01
 0.3640044942950E+00 -0.4136101245708E+00  0.0000000000000E+00  0.4025158897023E-01
 0.3901432667902E+00 -0.4385833727208E+00  0.0000000000000E+00  0.4037022672479E-01
 0.4138189810202E+00 -0.4614353880633E+00  0.0000000000000E+00  0.4321227741437E-01
 0.4354883311969E+00 -0.4826268869885E+00  0.0000000000000E+00  0.4866014703595E-01
 0.4555514936189E+00 -0.5025677865444E+00  0.0000000000000E+00  0.5662954534399E-01
 0.4743541869567E+00 -0.5216194580198E+00  0.0000000000000E+00  0.6705281024226E-01
 0.4921764161443E+00 -0.5400841859234E+00  0.0000000000000E+00  0.7983850486835E-01
 0.5092079243368E+00 -0.5581822828496E+00  0.0000000000000E+00  0.9485189298647E-01
 0.5255269966929E+00 -0.5760328911000E+00  0.0000000000000E+00  0.1119202540859E+00
 0.5410790718321E+00 -0.5936348857088E+00  0.0000000000000E+00  0.1308097475344E+00
 0.5556460384750E+00 -0.6108389294505E+00  0.0000000000000E+00  0.1511866663686E+00
 0.5687970061738E+00 -0.6273015992170E+00  0.0000000000000E+00  0.1725527394947E+00
 0.5798106051599E+00 -0.6424117211984E+00  0.0000000000000E+00  0.1941718572694E+00
 0.5579054336475E-01 -0.1233425118381E+00  0.0000000000000E+00  0.1819815103824E+00
 0.1192568770695E+00 -0.1829540456063E+00  0.0000000000000E+00  0.1415669208915E+00
 0.1739617947763E+00 -0.2342696438419E+00  0.0000000000000E+00  0.1116853778239E+00
 0.2214431493199E+00 -0.2787859915975E+00  0.0000000000000E+00  0.8972388215079E-01
 0.2629047819868E+00 -0.3176756868713E+00  0.0000000000000E+00  0.7391024848601E-01
 0.2993156382503E+00 -0.3518842906941E+00  0.0000000000000E+00  0.6306324852676E-01
 0.3314758705611E+00 -0.3821950193908E+00  0.0000000000000E+00  0.5640242048333E-01
 0.3600592720032E+00 -0.4092703226509E+00  0.0000000000000E+00  0.5341650593052E-01
 0.3856425632267E+00 -0.4336807123239E+00  0.0000000000000E+00  0.5377548280862E-01
 0.4087279398101E+00 -0.4559271566556E+00  0.0000000000000E+00  0.5727102030490E-01
 0.4297586732485E+00 -0.4764567816389E+00  0.0000000000000E+00  0.6376981750168E-01
 0.4491252574792E+00 -0.4956692500161E+00  0.0000000000000E+00  0.7317884761224E-01
 0.4671684878243E+00 -0.5139198585374E+00  0.0000000000000E+00  0.8542938437169E-01
 0.4841672794571E+00 -0.5315079636490E+00  0.0000000000000E+00  0.1004252788491E+00
 0.5003108003194E+00 -0.5486508556861E+00  0.0000000000000E+00  0.1180194900396E+00
 0.5156782366803E+00 -0.5654655359550E+00  0.0000000000000E+00  0.1380268459317E+00
 0.5302216778679E+00 -0.5819538776600E+00  0.0000000000000E+00  0.1601995320539E+00
 0.5437416948034E+00 -0.5979809897373E+00  0.0000000000000E+00  0.1841840211031E+00
 0.5558445690634E+00 -0.6132359516928E+00  0.0000000000000E+00  0.2094418365817E+00
 0.5658688751754E+00 -0.6271627150189E+00  0.0000000000000E+00  0.2351515812720E+00
 0.5811652899649E-01 -0.1249362989291E+00  0.0000000000000E+00  0.2092741630747E+00
 0.1197791086516E+00 -0.1828397501146E+00  0.0000000000000E+00  0.1643589927872E+00
 0.1731799976838E+00 -0.2329219362620E+00  0.0000000000000E+00  0.1310786847416E+00
 0.2196780830374E+00 -0.2765057242229E+00  0.0000000000000E+00  0.1065777384668E+00
 0.2603516453668E+00 -0.3146420923755E+00  0.0000000000000E+00  0.8892025107789E-01
 0.2960835103895E+00 -0.3481933717517E+00  0.0000000000000E+00  0.7681609510913E-01
 0.3276155290575E+00 -0.3778864830345E+00  0.0000000000000E+00  0.6941044733717E-01
 0.3555815087233E+00 -0.4043451807147E+00  0.0000000000000E+00  0.6613950952224E-01
 0.3805297234924E+00 -0.4281122509538E+00  0.0000000000000E+00  0.6663551973461E-01
 0.4029415444947E+00 -0.4496680892266E+00  0.0000000000000E+00  0.7066390338185E-01
 0.4232448930459E+00 -0.4694442974866E+00  0.0000000000000E+00  0.7807378558172E-01
 0.4418187074189E+00 -0.4878283680586E+00  0.0000000000000E+00  0.8876128343619E-01
 0.4589977685424E+00 -0.5051683070603E+00  0.0000000000000E+00  0.1026562932238E+00
 0.4750593904427E+00 -0.5217597966435E+00  0.0000000000000E+00  0.1196563571994E+00
 0.4901907420397E+00 -0.5378153605075E+00  0.0000000000000E+00  0.1395986608329E+00
 0.5044693583920E+00 -0.5534468741184E+00  0.0000000000000E+00  0.1622845882971E+00
 0.5178508048153E+00 -0.5686554448028E+00  0.0000000000000E+00  0.1874558622341E+00
 0.5301518695289E+00 -0.5833173413060E+00  0.0000000000000E+00  0.2147501778636E+00
 0.5410166463451E+00 -0.5971536249144E+00  0.0000000000000E+00  0.2436084618326E+00
 0.5498527065744E+00 -0.6096706773328E+00  0.0000000000000E+00  0.2731491682694E+00
 0.6069819590424E-01 -0.1267058022691E+00  0.0000000000000E+00  0.2358830097289E+00
 0.1203774043584E+00 -0.1827310226938E+00  0.0000000000000E+00  0.1867174721440E+00
 0.1723378610148E+00 -0.2314504228529E+00  0.0000000000000E+00  0.1501652288156E+00
 0.2177441902874E+00 -0.2739982366965E+00  0.0000000000000E+00  0.1231675556381E+00
 0.2575381266510E+00 -0.3112932149042E+00  0.0000000000000E+00  0.1036526993173E+00
 0.2925090470552E+00 -0.3441074115343E+00  0.0000000000000E+00  0.9024085889930E-01
 0.3233358524094E+00 -0.3731070031411E+00  0.0000000000000E+00  0.8201457203255E-01
 0.3506093204095E+00 -0.3988741397719E+00  0.0000000000000E+00  0.7836322972463E-01
 0.3748470108114E+00 -0.4219216987615E+00  0.0000000000000E+00  0.7888278088047E-01
 0.3965075832232E+00 -0.4427076583300E+00  0.0000000000000E+00  0.8331141526012E-01
 0.4160019117413E+00 -0.4616464041205E+00  0.0000000000000E+00  0.9147845567916E-01
 0.4336955237576E+00 -0.4791113839918E+00  0.0000000000000E+00  0.1032666044941E+00
 0.4499163034214E+00 -0.4954423345548E+00  0.0000000000000E+00  0.1186043029117E+00
 0.4649398823807E+00 -0.5109309811326E+00  0.0000000000000E+00  0.1373807420397E+00
 0.4789500802609E+00 -0.5257834662976E+00  0.0000000000000E+00  0.1594120293109E+00
 0.4920197207442E+00 -0.5401031138962E+00  0.0000000000000E+00  0.1844829978854E+00
 0.5041033951787E+00 -0.5538852814812E+00  0.0000000000000E+00  0.2123262286476E+00
 0.5150295704719E+00 -0.5670120924876E+00  0.0000000000000E+00  0.2425802265943E+00
 0.5244782543621E+00 -0.5792334888412E+00  0.0000000000000E+00  0.2746852621916E+00
 0.5319353573480E+00 -0.5901254337773E+00  0.0000000000000E+00  0.3077294624753E+00
 0.6352523908139E-01 -0.1286453162653E+00  0.0000000000000E+00  0.2617398980398E+00
 0.1210599154383E+00 -0.1826395676063E+00  0.0000000000000E+00  0.2085945085817E+00
 0.1714554068714E+00 -0.2298779045607E+00  0.0000000000000E+00  0.1689075194319E+00
 0.2156690181240E+00 -0.2712932918254E+00  0.0000000000000E+00  0.1394589816574E+00
 0.2544965169998E+00 -0.3076631678376E+00  0.0000000000000E+00  0.1180715943238E+00
 0.2886277771752E+00 -0.3396635120122E+00  0.0000000000000E+00  0.1032971287567E+00
 0.3186751962069E+00 -0.3678963888050E+00  0.0000000000000E+00  0.9416844880819E-01
 0.3451843635549E+00 -0.3929003122070E+00  0.0000000000000E+00  0.9003435433909E-01
 0.3686404938660E+00 -0.4151567035858E+00  0.0000000000000E+00  0.9045590165731E-01
 0.3894780709669E+00 -0.4350997077434E+00  0.0000000000000E+00  0.9514276919468E-01
 0.4080894699367E+00 -0.4531250571350E+00  0.0000000000000E+00  0.1039018519255E+00
 0.4248249029593E+00 -0.4695902564540E+00  0.0000000000000E+00  0.1165994090316E+00
 0.4400047232974E+00 -0.4848260663135E+00  0.0000000000000E+00  0.1331629511487E+00
 0.4539034670016E+00 -0.4991206716217E+00  0.0000000000000E+00  0.1534711101051E+00
 0.4667006085379E+00 -0.5126726444302E+00  0.0000000000000E+00  0.1773115235830E+00
 0.4784609554519E+00 -0.5255731843372E+00  0.0000000000000E+00  0.2044466489848E+00
 0.4891325048855E+00 -0.5378058291178E+00  0.0000000000000E+00  0.2345980676909E+00
 0.4985488212757E+00 -0.5492512437063E+00  0.0000000000000E+00  0.2674123399778E+00
 0.5064211828237E+00 -0.5596825868653E+00  0.0000000000000E+00  0.3023480059705E+00
 0.5123229403770E+00 -0.5687520893690E+00  0.0000000000000E+00  0.3384980750797E+00
 0.6658674321372E-01 -0.1307489406737E+00  0.0000000000000E+00  0.2867825797913E+00
 0.1218355780419E+00 -0.1825782113355E+00  0.0000000000000E+00  0.2299452971325E+00
 0.1705544856960E+00 -0.2282292893396E+00  0.0000000000000E+00  0.1872695606487E+00
 0.2134826159678E+00 -0.2684233836967E+00  0.0000000000000E+00  0.1554183694435E+00
 0.2512619374493E+00 -0.3037890791300E+00  0.0000000000000E+00  0.1321414870103E+00
 0.2844781468019E+00 -0.3349018411435E+00  0.0000000000000E+00  0.1159455783663E+00
 0.3136748265894E+00 -0.3622974847815E+00  0.0000000000000E+00  0.1058280371170E+00
 0.3393512306616E+00 -0.3864698588861E+00  0.0000000000000E+00  0.1011037014456E+00
 0.3619593121622E+00 -0.4078680932322E+00  0.0000000000000E+00  0.1012999742606E+00
 0.3819083817542E+00 -0.4269015545914E+00  0.0000000000000E+00  0.1060963933373E+00
 0.3995711210916E+00 -0.4439461550103E+00  0.0000000000000E+00  0.1152743246721E+00
 0.4152803457785E+00 -0.4593414054177E+00  0.0000000000000E+00  0.1286799724063E+00
 0.4293484712958E+00 -0.4734086271444E+00  0.0000000000000E+00  0.1462415322894E+00
 0.4420504448376E+00 -0.4864338110312E+00  0.0000000000000E+00  0.1678252692646E+00
 0.4535611376897E+00 -0.4986075913064E+00  0.0000000000000E+00  0.1931808728723E+00
 0.4639342512803E+00 -0.5100058307927E+00  0.0000000000000E+00  0.2220393616256E+00
 0.4731046171772E+00 -0.5205933733874E+00  0.0000000000000E+00  0.2541049357595E+00
 0.4809020073604E+00 -0.5302398535754E+00  0.0000000000000E+00  0.2890361710172E+00
 0.4870614880243E+00 -0.5387331252403E+00  0.0000000000000E+00  0.3263290016084E+00
 0.4912516598984E+00 -0.5458082198448E+00  0.0000000000000E+00  0.3651233092016E+00
 0.6987130647140E-01 -0.1330106564221E+00  0.0000000000000E+00  0.3109551712371E+00
 0.1227140491277E+00 -0.1825608105138E+00  0.0000000000000E+00  0.2507285230071E+00
 0.1696586772413E+00 -0.2265314829608E+00  0.0000000000000E+00  0.2052171477201E+00
 0.2112174029681E+00 -0.2654236021635E+00  0.0000000000000E+00  0.1710128046053E+00
 0.2478721107937E+00 -0.2997108554975E+00  0.0000000000000E+00  0.1458272745551E+00
 0.2801011538028E+00 -0.3298652544021E+00  0.0000000000000E+00  0.1281476828489E+00
 0.3083784129269E+00 -0.3563556475493E+00  0.0000000000000E+00  0.1169513721199E+00
 0.3331568065767E+00 -0.3796313276114E+00  0.0000000000000E+00  0.1115261134502E+00
 0.3548548923887E+00 -0.4001090687350E+00  0.0000000000000E+00  0.1113666031288E+00
 0.3738563228959E+00 -0.4181730321370E+00  0.0000000000000E+00  0.1161201927564E+00
 0.3905131827961E+00 -0.4341784475278E+00  0.0000000000000E+00  0.1255390297613E+00
 0.4051384394191E+00 -0.4484444529442E+00  0.0000000000000E+00  0.1394447609241E+00
 0.4180362603224E+00 -0.4612825581241E+00  0.0000000000000E+00  0.1577695067181E+00
 0.4294846077927E+00 -0.4729789808085E+00  0.0000000000000E+00  0.1803666400250E+00
 0.4396546711523E+00 -0.4837172745224E+00  0.0000000000000E+00  0.2069369150806E+00
 0.4485869701708E+00 -0.4935560083804E+00  0.0000000000000E+00  0.2371675243469E+00
 0.4561962072721E+00 -0.5024343319676E+00  0.0000000000000E+00  0.2707324880598E+00
 0.4622965928992E+00 -0.5101985495325E+00  0.0000000000000E+00  0.3073005236019E+00
 0.4666342023139E+00 -0.5166373126765E+00  0.0000000000000E+00  0.3464262191496E+00
 0.4689795467340E+00 -0.5215737922525E+00  0.0000000000000E+00  0.3873576457068E+00
 0.7336712987235E-01 -0.1354243391168E+00  0.0000000000000E+00  0.3342085756790E+00
 0.1237056204294E+00 -0.1826021255490E+00  0.0000000000000E+00  0.2709070017816E+00
 0.1687932512105E+00 -0.2248133473355E+00  0.0000000000000E+00  0.2227183238676E+00
 0.2089081173537E+00 -0.2623315836773E+00  0.0000000000000E+00  0.1862101052437E+00
 0.2443671713156E+00 -0.2954709846428E+00  0.0000000000000E+00  0.1590938387450E+00
 0.2755399699449E+00 -0.3245988940671E+00  0.0000000000000E+00  0.1398652736292E+00
 0.3028314906407E+00 -0.3501181877319E+00  0.0000000000000E+00  0.1274982085321E+00
 0.3266495956334E+00 -0.3724349606233E+00  0.0000000000000E+00  0.1212602070228E+00
 0.3473801241539E+00 -0.3919343580671E+00  0.0000000000000E+00  0.1206137640617E+00
 0.3653811458351E+00 -0.4089754648243E+00  0.0000000000000E+00  0.1251715918237E+00
 0.3809836214759E+00 -0.4238923713086E+00  0.0000000000000E+00  0.1346522315825E+00
 0.3944776402723E+00 -0.4369809403923E+00  0.0000000000000E+00  0.1488468343684E+00
 0.4061586360913E+00 -0.4485423597038E+00  0.0000000000000E+00  0.1676965544580E+00
 0.4163112281862E+00 -0.4588663657751E+00  0.0000000000000E+00  0.1910437284518E+00
 0.4251052898686E+00 -0.4681317608485E+00  0.0000000000000E+00  0.2185290944799E+00
 0.4325683556213E+00 -0.4763802991009E+00  0.0000000000000E+00  0.2497818406239E+00
 0.4385891819491E+00 -0.4835202919021E+00  0.0000000000000E+00  0.2844243705293E+00
 0.4429515128583E+00 -0.4893595390649E+00  0.0000000000000E+00  0.3221219294555E+00
 0.4453901442192E+00 -0.4936640992822E+00  0.0000000000000E+00  0.3625049481438E+00
 0.4457813877520E+00 -0.4963461161079E+00  0.0000000000000E+00  0.4050100467389E+00
 0.7706199619727E-01 -0.1379836070494E+00  0.0000000000000E+00  0.3565009823813E+00
 0.1248210844298E+00 -0.1827176505248E+00  0.0000000000000E+00  0.2904487968507E+00
 0.1679852612654E+00 -0.2231058076697E+00  0.0000000000000E+00  0.2397441614804E+00
 0.2065919279982E+00 -0.2591876653498E+00  0.0000000000000E+00  0.2009786925041E+00
 0.2407895185940E+00 -0.2911143685631E+00  0.0000000000000E+00  0.1719053435809E+00
 0.2708395194589E+00 -0.3191497431633E+00  0.0000000000000E+00  0.1510598687725E+00
 0.2970808870364E+00 -0.3436337669271E+00  0.0000000000000E+00  0.1374295466812E+00
 0.3198790462494E+00 -0.3649320123364E+00  0.0000000000000E+00  0.1302679687657E+00
 0.3395885284376E+00 -0.3833993678467E+00  0.0000000000000E+00  0.1290053762601E+00
 0.3565425028714E+00 -0.3993705950609E+00  0.0000000000000E+00  0.1332172266161E+00
 0.3710508616002E+00 -0.4131587993180E+00  0.0000000000000E+00  0.1425833232311E+00
 0.3833769943392E+00 -0.4250329835088E+00  0.0000000000000E+00  0.1568561024149E+00
 0.3938067547358E+00 -0.4352831583771E+00  0.0000000000000E+00  0.1759928044336E+00
 0.4026355646228E+00 -0.4442064090471E+00  0.0000000000000E+00  0.1998287131699E+00
 0.4100352335410E+00 -0.4519792751421E+00  0.0000000000000E+00  0.2279362286225E+00
 0.4160242283677E+00 -0.4586315007295E+00  0.0000000000000E+00  0.2598752761041E+00
 0.4204642961589E+00 -0.4640406004657E+00  0.0000000000000E+00  0.2951870752177E+00
 0.4230926246903E+00 -0.4679614625821E+00  0.0000000000000E+00  0.3334967803754E+00
 0.4235961935352E+00 -0.4700988863095E+00  0.0000000000000E+00  0.3745088967466E+00
 0.4219525068692E+00 -0.4704448254374E+00  0.0000000000000E+00  0.4179528340409E+00
 0.8094298749570E-01 -0.1406813086478E+00  0.0000000000000E+00  0.3777984857808E+00
 0.1260715127842E+00 -0.1829232388277E+00  0.0000000000000E+00  0.3093296682978E+00
 0.1672640281791E+00 -0.2214425152611E+00  0.0000000000000E+00  0.2562702368194E+00
 0.2043088850075E+00 -0.2560353390620E+00  0.0000000000000E+00  0.2152870118321E+00
 0.2371836888620E+00 -0.2866882055143E+00  0.0000000000000E+00  0.1842239248461E+00
 0.2660459226963E+00 -0.3135659575781E+00  0.0000000000000E+00  0.1616918074217E+00
 0.2911740969155E+00 -0.3369517679891E+00  0.0000000000000E+00  0.1467073057733E+00
 0.3128949300980E+00 -0.3571741149609E+00  0.0000000000000E+00  0.1385143073522E+00
 0.3315334606024E+00 -0.3745593891641E+00  0.0000000000000E+00  0.1365106003678E+00
 0.3473993522748E+00 -0.3894194480390E+00  0.0000000000000E+00  0.1402322478978E+00
 0.3607824605500E+00 -0.4020476582040E+00  0.0000000000000E+00  0.1493145508479E+00
 0.3719147198296E+00 -0.4126817441904E+00  0.0000000000000E+00  0.1634595050226E+00
 0.3810709857117E+00 -0.4215992475246E+00  0.0000000000000E+00  0.1826494152057E+00
 0.3885623805742E+00 -0.4291089832371E+00  0.0000000000000E+00  0.2067180339620E+00
 0.3945635397802E+00 -0.4353859366836E+00  0.0000000000000E+00  0.2351597010100E+00
 0.3990909964217E+00 -0.4404520228857E+00  0.0000000000000E+00  0.2674734465087E+00
 0.4019907380847E+00 -0.4441715815055E+00  0.0000000000000E+00  0.3030897857568E+00
 0.4029444006964E+00 -0.4462387951567E+00  0.0000000000000E+00  0.3415198222394E+00
 0.4015350290301E+00 -0.4462437219279E+00  0.0000000000000E+00  0.3824865091588E+00
 0.3978085091679E+00 -0.4442130827467E+00  0.0000000000000E+00  0.4261484988859E+00
 0.8499559697381E-01 -0.1435074610764E+00  0.0000000000000E+00  0.3980781086675E+00
 0.1274680934455E+00 -0.1832353271716E+00  0.0000000000000E+00  0.3275391809887E+00
 0.1666626539440E+00 -0.2198612812245E+00  0.0000000000000E+00  0.2722793201383E+00
 0.2021030823216E+00 -0.2529229619178E+00  0.0000000000000E+00  0.2291014775851E+00
 0.2335959748247E+00 -0.2822411753036E+00  0.0000000000000E+00  0.1960066677840E+00
 0.2612055351916E+00 -0.3078959205670E+00  0.0000000000000E+00  0.1717197568785E+00
 0.2851586723550E+00 -0.3301216092251E+00  0.0000000000000E+00  0.1552943481331E+00
 0.3057468762094E+00 -0.3492128990500E+00  0.0000000000000E+00  0.1459665541571E+00
 0.3232674314967E+00 -0.3654688841475E+00  0.0000000000000E+00  0.1431026368593E+00
 0.3380088397408E+00 -0.3791812304482E+00  0.0000000000000E+00  0.1461989614678E+00
 0.3502436390321E+00 -0.3906263606614E+00  0.0000000000000E+00  0.1548401231634E+00
 0.3601665261986E+00 -0.4000056708021E+00  0.0000000000000E+00  0.1686608430254E+00
 0.3680393535690E+00 -0.4075823355641E+00  0.0000000000000E+00  0.1876791640389E+00
 0.3741946524478E+00 -0.4136821837358E+00  0.0000000000000E+00  0.2117342810774E+00
 0.3788096076796E+00 -0.4184775558310E+00  0.0000000000000E+00  0.2402264977871E+00
 0.3818937549652E+00 -0.4219786883771E+00  0.0000000000000E+00  0.2726031229926E+00
 0.3833073676232E+00 -0.4240510301133E+00  0.0000000000000E+00  0.3082446137992E+00
 0.3827113543330E+00 -0.4244031330540E+00  0.0000000000000E+00  0.3464147429587E+00
 0.3795042995323E+00 -0.4224130377614E+00  0.0000000000000E+00  0.3866403596501E+00
 0.3736974473339E+00 -0.4180342708047E+00  0.0000000000000E+00  0.4296469214715E+00
 0.8919999701395E-01 -0.1464455050872E+00  0.0000000000000E+00  0.4173284223562E+00
 0.1290215314391E+00 -0.1836669522398E+00  0.0000000000000E+00  0.3451011072452E+00
 0.1662241710801E+00 -0.2184151439576E+00  0.0000000000000E+00  0.2877665584115E+00
 0.2000244950754E+00 -0.2499033747624E+00  0.0000000000000E+00  0.2423740599803E+00
 0.2300723184294E+00 -0.2778214613157E+00  0.0000000000000E+00  0.2072040983719E+00
 0.2563639821255E+00 -0.3021871677977E+00  0.0000000000000E+00  0.1811010197987E+00
 0.2790815090291E+00 -0.3231921481456E+00  0.0000000000000E+00  0.1631545335153E+00
 0.2984842093283E+00 -0.3410994901228E+00  0.0000000000000E+00  0.1525951195708E+00
 0.3148419967931E+00 -0.3561819900489E+00  0.0000000000000E+00  0.1487566592529E+00
 0.3284249809052E+00 -0.3687115966135E+00  0.0000000000000E+00  0.1511038086557E+00
 0.3394956115562E+00 -0.3789580999890E+00  0.0000000000000E+00  0.1591657152120E+00
 0.3482039211096E+00 -0.3870788698414E+00  0.0000000000000E+00  0.1724797932454E+00
 0.3547952794162E+00 -0.3933190429135E+00  0.0000000000000E+00  0.1911165571834E+00
 0.3596322278418E+00 -0.3980305401721E+00  0.0000000000000E+00  0.2149286582806E+00
 0.3628913662509E+00 -0.4013789475360E+00  0.0000000000000E+00  0.2431969313478E+00
 0.3645699457769E+00 -0.4033558021427E+00  0.0000000000000E+00  0.2753124110448E+00
 0.3645086620088E+00 -0.4038049475424E+00  0.0000000000000E+00  0.3106501478047E+00
 0.3625022649410E+00 -0.4025111480675E+00  0.0000000000000E+00  0.3485528861026E+00
 0.3578194938921E+00 -0.3989525863423E+00  0.0000000000000E+00  0.3875458373894E+00
 0.3500627946688E+00 -0.3924104308169E+00  0.0000000000000E+00  0.4285727408578E+00
 0.9352179864003E-01 -0.1494158148150E+00  0.0000000000000E+00  0.4356784822930E+00
 0.1307650400895E+00 -0.1842862646222E+00  0.0000000000000E+00  0.3621749881148E+00
 0.1660208516636E+00 -0.2171795698308E+00  0.0000000000000E+00  0.3026878785342E+00
 0.1981226981424E+00 -0.2470288755271E+00  0.0000000000000E+00  0.2550342111772E+00
 0.2266557125135E+00 -0.2734733883007E+00  0.0000000000000E+00  0.2177611293922E+00
 0.2515651728940E+00 -0.2964856301666E+00  0.0000000000000E+00  0.1897942732741E+00
 0.2729888498033E+00 -0.3162118448639E+00  0.0000000000000E+00  0.1702522364505E+00
 0.2911544963179E+00 -0.3328833003404E+00  0.0000000000000E+00  0.1583720387716E+00
 0.3063092128381E+00 -0.3467518972742E+00  0.0000000000000E+00  0.1534558484816E+00
 0.3186993932340E+00 -0.3580679918952E+00  0.0000000000000E+00  0.1549253916232E+00
 0.3285894849028E+00 -0.3670914715243E+00  0.0000000000000E+00  0.1623019833537E+00
 0.3360936570539E+00 -0.3739702481453E+00  0.0000000000000E+00  0.1749669916247E+00
 0.3414182060211E+00 -0.3788961378116E+00  0.0000000000000E+00  0.1930052259755E+00
 0.3449640953563E+00 -0.3822423454090E+00  0.0000000000000E+00  0.2163782772909E+00
 0.3469255936865E+00 -0.3842135131347E+00  0.0000000000000E+00  0.2441829601532E+00
 0.3472601241837E+00 -0.3847363817452E+00  0.0000000000000E+00  0.2756981854761E+00
 0.3457723743270E+00 -0.3836075898519E+00  0.0000000000000E+00  0.3103092959650E+00
 0.3422049321936E+00 -0.3805913098731E+00  0.0000000000000E+00  0.3476116204408E+00
 0.3365033489770E+00 -0.3755078560324E+00  0.0000000000000E+00  0.3867442950988E+00
 0.3280220293686E+00 -0.3687372460327E+00  0.0000000000000E+00  0.4237961883356E+00
 0.2508503641829E+00 -0.3929048285670E+00  0.0000000000000E+00 -0.2697950262751E+00
 0.1187896866019E+00 -0.1286032414134E+00  0.0000000000000E+00  0.2124023672974E+00
 0.2431701563420E-01 -0.2496870765714E-01  0.0000000000000E+00  0.7396704491846E-01
 0.3219167400217E-03  0.3502448746554E-02  0.0000000000000E+00 -0.7515104444993E-02
-0.1482270120248E-01  0.1997136454054E-01  0.0000000000000E+00 -0.4338376480285E-01
-0.2501305604054E-01  0.3068662696085E-01  0.0000000000000E+00 -0.5623090678318E-01
-0.3266762113577E-01  0.3859699184445E-01  0.0000000000000E+00 -0.5643850428803E-01
-0.3843236435316E-01  0.4450843463696E-01  0.0000000000000E+00 -0.4942104535616E-01
-0.4243308383578E-01  0.4852068475767E-01  0.0000000000000E+00 -0.3831432001889E-01
-0.4459514811815E-01  0.5058331106835E-01  0.0000000000000E+00 -0.2409049359142E-01
-0.4454604810053E-01  0.5043157941082E-01  0.0000000000000E+00 -0.7868375346938E-02
-0.4194084771669E-01  0.4736048850255E-01  0.0000000000000E+00  0.9290794439228E-02
-0.3623444623040E-01  0.4111059353922E-01  0.0000000000000E+00  0.3134951532838E-01
-0.2791905279580E-01  0.3263265370734E-01  0.0000000000000E+00  0.5523139962203E-01
-0.1769852568136E-01  0.2271476808251E-01  0.0000000000000E+00  0.7568851369987E-01
-0.6448354528190E-02  0.1201064824992E-01  0.0000000000000E+00  0.9158112719611E-01
 0.4705676760465E-02  0.1484641070303E-02  0.0000000000000E+00  0.1027616857389E+00
 0.1550316866900E-01 -0.8774335277398E-02  0.0000000000000E+00  0.1092338964473E+00
 0.2634081075788E-01 -0.1920005669971E-01  0.0000000000000E+00  0.1108504191767E+00
 0.3939553347178E-01 -0.3259240720034E-01  0.0000000000000E+00  0.1116232295955E+00
 0.2938381986062E+00 -0.3753495302865E+00  0.0000000000000E+00 -0.4558204319843E+00
 0.2157354191022E+00 -0.2573684833557E+00  0.0000000000000E+00  0.2237318703527E-01
 0.8898354211860E-01 -0.9697327275365E-01  0.0000000000000E+00  0.8148371069458E-01
 0.3487391812081E-01 -0.3587843177223E-01  0.0000000000000E+00  0.2650214535359E-01
 0.9559457703504E-02 -0.7657764191493E-02  0.0000000000000E+00 -0.1308944014270E-01
-0.6177688820654E-02  0.9203429543037E-02  0.0000000000000E+00 -0.3308449109737E-01
-0.1689321233651E-01  0.2051419773274E-01  0.0000000000000E+00 -0.3970501507699E-01
-0.2464612325209E-01  0.2860254557641E-01  0.0000000000000E+00 -0.3769301301708E-01
-0.3022144877784E-01  0.3435127593744E-01  0.0000000000000E+00 -0.3033614301608E-01
-0.3380946499501E-01  0.3800873677415E-01  0.0000000000000E+00 -0.1912828965694E-01
-0.3535796978604E-01  0.3947713478687E-01  0.0000000000000E+00 -0.4707771605362E-02
-0.3502175217013E-01  0.3896433482352E-01  0.0000000000000E+00  0.1159409840788E-01
-0.3211054782083E-01  0.3588029538080E-01  0.0000000000000E+00  0.3090167826615E-01
-0.2619442002657E-01  0.2989667587511E-01  0.0000000000000E+00  0.5067061623728E-01
-0.1786765652271E-01  0.2173948656401E-01  0.0000000000000E+00  0.6695703590198E-01
-0.8134953568483E-02  0.1238491657091E-01  0.0000000000000E+00  0.7901024884848E-01
 0.1799873903193E-02  0.2881665850966E-02  0.0000000000000E+00  0.8679408628957E-01
 0.1157690188928E-01 -0.6503171899626E-02  0.0000000000000E+00  0.9065786532623E-01
 0.2137529841498E-01 -0.1609606865795E-01  0.0000000000000E+00  0.9100993696149E-01
 0.3129438439407E-01 -0.2587936863931E-01  0.0000000000000E+00  0.9169888781097E-01
 0.2780342298124E+00 -0.3412188827147E+00  0.0000000000000E+00 -0.5269440483115E+00
 0.2498038341092E+00 -0.2909655173918E+00  0.0000000000000E+00 -0.1417383843608E+00
 0.1487295319627E+00 -0.1684521924190E+00  0.0000000000000E+00  0.1410234167505E-01
 0.7754508825292E-01 -0.8407502026916E-01  0.0000000000000E+00  0.2903416756215E-01
 0.3923684527411E-01 -0.4118035625793E-01  0.0000000000000E+00  0.4309924068180E-02
 0.1665487818839E-01 -0.1653718510997E-01  0.0000000000000E+00 -0.1580824645364E-01
 0.1787309686928E-02 -0.6509658204944E-03  0.0000000000000E+00 -0.2610796517952E-01
-0.8655388150343E-02  0.1038169494650E-01  0.0000000000000E+00 -0.2815237718494E-01
-0.1623386311484E-01  0.1831643362587E-01  0.0000000000000E+00 -0.2435628715631E-01
-0.2161434526900E-01  0.2390094409335E-01  0.0000000000000E+00 -0.1613744419779E-01
-0.2503872042612E-01  0.2739836876074E-01  0.0000000000000E+00 -0.4286858425458E-02
-0.2679842441584E-01  0.2917785669096E-01  0.0000000000000E+00  0.9771459211755E-02
-0.2620052454965E-01  0.2862235848394E-01  0.0000000000000E+00  0.2618819360633E-01
-0.2246295589651E-01  0.2492687493920E-01  0.0000000000000E+00  0.4250788085296E-01
-0.1610906991522E-01  0.1868994535425E-01  0.0000000000000E+00  0.5519842739784E-01
-0.8124892419678E-02  0.1094060973434E-01  0.0000000000000E+00  0.6373288645704E-01
 0.3266173530898E-03  0.2767152230899E-02  0.0000000000000E+00  0.6836872049112E-01
 0.8719865029207E-02 -0.5387251252899E-02  0.0000000000000E+00  0.6977124592556E-01
 0.1672084216166E-01 -0.1319766277687E-01  0.0000000000000E+00  0.6853241113768E-01
 0.2363887480146E-01 -0.2002465293326E-01  0.0000000000000E+00  0.6649383876431E-01
 0.2573384700894E+00 -0.3112195438101E+00  0.0000000000000E+00 -0.5635178982308E+00
 0.2559695858476E+00 -0.2958704526097E+00  0.0000000000000E+00 -0.2576406396659E+00
 0.1859379915441E+00 -0.2106009480933E+00  0.0000000000000E+00 -0.7235708957919E-01
 0.1183130232269E+00 -0.1311102456567E+00  0.0000000000000E+00 -0.3611348622370E-02
 0.7197665755314E-01 -0.7814437285808E-01  0.0000000000000E+00  0.2376474817130E-02
 0.4257946669326E-01 -0.4569601710566E-01  0.0000000000000E+00 -0.8486956216700E-02
 0.2312205167058E-01 -0.2465641866762E-01  0.0000000000000E+00 -0.1795265694249E-01
 0.9511781767720E-02 -0.1014564064198E-01  0.0000000000000E+00 -0.2206753302518E-01
-0.4357931471395E-03  0.3654966146767E-03  0.0000000000000E+00 -0.2104168014168E-01
-0.7856710966500E-02  0.8152528958325E-02  0.0000000000000E+00 -0.1568679088020E-01
-0.1325237806927E-01  0.1377510987470E-01  0.0000000000000E+00 -0.6706709946068E-02
-0.1703931098025E-01  0.1775133210309E-01  0.0000000000000E+00  0.4646544656297E-02
-0.1858899389979E-01  0.1949606441913E-01  0.0000000000000E+00  0.1800432912653E-01
-0.1693579870193E-01  0.1797184346334E-01  0.0000000000000E+00  0.3098542589667E-01
-0.1255091842236E-01  0.1368297902981E-01  0.0000000000000E+00  0.4034390824581E-01
-0.6428446144557E-02  0.7694889568316E-02  0.0000000000000E+00  0.4562138107495E-01
 0.3179812409217E-03  0.1096150479671E-02  0.0000000000000E+00  0.4727162428696E-01
 0.6990152851370E-02 -0.5440063751782E-02  0.0000000000000E+00  0.4610643139280E-01
 0.1297656980813E-01 -0.1132230345356E-01  0.0000000000000E+00  0.4249623603791E-01
 0.1734517915636E-01 -0.1569333126375E-01  0.0000000000000E+00  0.3695502486639E-01
 0.2375554066455E+00 -0.2862581680960E+00  0.0000000000000E+00 -0.5834436181545E+00
 0.2506907429725E+00 -0.2895181336445E+00  0.0000000000000E+00 -0.3398233260448E+00
 0.2060057441556E+00 -0.2334494188130E+00  0.0000000000000E+00 -0.1530797598918E+00
 0.1497947890629E+00 -0.1671684663314E+00  0.0000000000000E+00 -0.5360942540337E-01
 0.1032386538133E+00 -0.1137610178114E+00  0.0000000000000E+00 -0.1874510353206E-01
 0.6975160151116E-01 -0.7631270671027E-01  0.0000000000000E+00 -0.1367193636707E-01
 0.4629914260736E-01 -0.5069573424724E-01  0.0000000000000E+00 -0.1737876758902E-01
 0.2953055769950E-01 -0.3266101341627E-01  0.0000000000000E+00 -0.2079797833111E-01
 0.1707903228014E-01 -0.1940770153736E-01  0.0000000000000E+00 -0.2120923429704E-01
 0.7512022631829E-02 -0.9296792916387E-02  0.0000000000000E+00 -0.1819160026706E-01
 0.1158533147620E-03 -0.1519169182493E-02  0.0000000000000E+00 -0.1199714321158E-01
-0.5645350918789E-02  0.4578418336791E-02  0.0000000000000E+00 -0.3473162339329E-02
-0.9253923475034E-02  0.8502816759256E-02  0.0000000000000E+00  0.6752971219908E-02
-0.9646025290931E-02  0.9092951048162E-02  0.0000000000000E+00  0.1638480050688E-01
-0.7228297004419E-02  0.6764718598762E-02  0.0000000000000E+00  0.2248977773275E-01
-0.3023824598691E-02  0.2623204703226E-02  0.0000000000000E+00  0.2463107992730E-01
 0.1879142859365E-02 -0.2231060929696E-02  0.0000000000000E+00  0.2332906178680E-01
 0.6684040017904E-02 -0.7000217383394E-02  0.0000000000000E+00  0.1938029406116E-01
 0.1067461848145E-01 -0.1099058876958E-01  0.0000000000000E+00  0.1294621188780E-01
 0.1289523869574E-01 -0.1333605046133E-01  0.0000000000000E+00  0.3625777068763E-02
 0.2201107812550E+00 -0.2657758370763E+00  0.0000000000000E+00 -0.5945524071967E+00
 0.2406220300320E+00 -0.2788431763002E+00  0.0000000000000E+00 -0.3981321538885E+00
 0.2150030758520E+00 -0.2442769830188E+00  0.0000000000000E+00 -0.2220761789812E+00
 0.1718317998521E+00 -0.1926576952278E+00  0.0000000000000E+00 -0.1080980764492E+00
 0.1298286936884E+00 -0.1441894308981E+00  0.0000000000000E+00 -0.5204980900642E-01
 0.9584206459736E-01 -0.1058878726747E+00  0.0000000000000E+00 -0.3061405836981E-01
 0.7006893977732E-01 -0.7745299878482E-01  0.0000000000000E+00 -0.2532823226404E-01
 0.5076626124155E-01 -0.5651831188682E-01  0.0000000000000E+00 -0.2537270929773E-01
 0.3602159083618E-01 -0.4071369729021E-01  0.0000000000000E+00 -0.2557315832984E-01
 0.2439021073742E-01 -0.2834918620290E-01  0.0000000000000E+00 -0.2402624362728E-01
 0.1505971470840E-01 -0.1848417551856E-01  0.0000000000000E+00 -0.2022985748110E-01
 0.7408323551341E-02 -0.1036367028095E-01  0.0000000000000E+00 -0.1442563373617E-01
 0.1827249246877E-02 -0.4367151799638E-02  0.0000000000000E+00 -0.7314442783362E-02
-0.5690816976069E-03 -0.1715754154369E-02  0.0000000000000E+00 -0.1053601214632E-02
-0.1034582242028E-03 -0.2090750509057E-02  0.0000000000000E+00  0.1800379263927E-02
 0.2173568961077E-02 -0.4354844275642E-02  0.0000000000000E+00  0.8299845589124E-03
 0.5196702233190E-02 -0.7409668202597E-02  0.0000000000000E+00 -0.3454758997341E-02
 0.8125630869005E-02 -0.1039705591202E-01  0.0000000000000E+00 -0.1033463823460E-01
 0.1023641425853E-01 -0.1261816846496E-01  0.0000000000000E+00 -0.1981575881972E-01
 0.1067781830693E-01 -0.1331390880849E-01  0.0000000000000E+00 -0.3286922508292E-01
 0.2050400958525E+00 -0.2489477097027E+00  0.0000000000000E+00 -0.6005743147374E+00
 0.2288911602515E+00 -0.2669026242034E+00  0.0000000000000E+00 -0.4394118263161E+00
 0.2171344910139E+00 -0.2478478966777E+00  0.0000000000000E+00 -0.2786074261827E+00
 0.1861736206136E+00 -0.2097292749224E+00  0.0000000000000E+00 -0.1604894171495E+00
 0.1509594003459E+00 -0.1686346272003E+00  0.0000000000000E+00 -0.9098714963287E-01
 0.1192238066507E+00 -0.1325709606132E+00  0.0000000000000E+00 -0.5598015094079E-01
 0.9312321415993E-01 -0.1035236553331E+00  0.0000000000000E+00 -0.4108368933480E-01
 0.7239988786264E-01 -0.8085766611843E-01  0.0000000000000E+00 -0.3603011854421E-01
 0.5592725956851E-01 -0.6307574584034E-01  0.0000000000000E+00 -0.3452146380487E-01
 0.4253733452290E-01 -0.4876167482423E-01  0.0000000000000E+00 -0.3344059292027E-01
 0.3146831681478E-01 -0.3700821494311E-01  0.0000000000000E+00 -0.3145623315288E-01
 0.2208156883308E-01 -0.2703058523559E-01  0.0000000000000E+00 -0.2809171949507E-01
 0.1465545260693E-01 -0.1910407135999E-01  0.0000000000000E+00 -0.2398490168167E-01
 0.1033244850453E-01 -0.1447779511519E-01  0.0000000000000E+00 -0.2108262289711E-01
 0.8897816220519E-02 -0.1294630050336E-01  0.0000000000000E+00 -0.2148862659898E-01
 0.9292652302756E-02 -0.1336399126323E-01  0.0000000000000E+00 -0.2557267369572E-01
 0.1048123241795E-01 -0.1465023842312E-01  0.0000000000000E+00 -0.3285978846331E-01
 0.1161274363805E-01 -0.1592671094373E-01  0.0000000000000E+00 -0.4272638530853E-01
 0.1200904370871E-01 -0.1654030630536E-01  0.0000000000000E+00 -0.5528401401617E-01
 0.1099278804758E-01 -0.1590422944805E-01  0.0000000000000E+00 -0.7179301268921E-01
 0.1920526064132E+00 -0.2350289173955E+00  0.0000000000000E+00 -0.6034595914702E+00
 0.2170070443832E+00 -0.2551252359278E+00  0.0000000000000E+00 -0.4683491358949E+00
 0.2151642765456E+00 -0.2471575829020E+00  0.0000000000000E+00 -0.3237215266416E+00
 0.1947634541934E+00 -0.2206095976479E+00  0.0000000000000E+00 -0.2076872154803E+00
 0.1670178400355E+00 -0.1875777972140E+00  0.0000000000000E+00 -0.1309983861338E+00
 0.1392441440665E+00 -0.1556461006333E+00  0.0000000000000E+00 -0.8615698477441E-01
 0.1145212099687E+00 -0.1278684674195E+00  0.0000000000000E+00 -0.6275741143199E-01
 0.9364042923420E-01 -0.1048334649567E+00  0.0000000000000E+00 -0.5212790541436E-01
 0.7625125828929E-01 -0.8592282882680E-01  0.0000000000000E+00 -0.4794356858347E-01
 0.6161282516301E-01 -0.7018256088135E-01  0.0000000000000E+00 -0.4644251737842E-01
 0.4914429916872E-01 -0.5688764927972E-01  0.0000000000000E+00 -0.4562594116262E-01
 0.3827199489575E-01 -0.4531299706544E-01  0.0000000000000E+00 -0.4431946975290E-01
 0.2919710462670E-01 -0.3566409910240E-01  0.0000000000000E+00 -0.4302155355362E-01
 0.2308483723920E-01 -0.2920704439586E-01  0.0000000000000E+00 -0.4340465655252E-01
 0.1985546041765E-01 -0.2587118505499E-01  0.0000000000000E+00 -0.4704521601099E-01
 0.1846952466478E-01 -0.2453319399179E-01  0.0000000000000E+00 -0.5421840099101E-01
 0.1793096084378E-01 -0.2414584373194E-01  0.0000000000000E+00 -0.6447785894810E-01
 0.1739709820144E-01 -0.2383298121038E-01  0.0000000000000E+00 -0.7728615148830E-01
 0.1625982260911E-01 -0.2300992785416E-01  0.0000000000000E+00 -0.9279121117397E-01
 0.1404200455015E-01 -0.2128560849996E-01  0.0000000000000E+00 -0.1123060216706E+00
 0.1807935702337E+00 -0.2234039320373E+00  0.0000000000000E+00 -0.6042582269056E+00
 0.2056944551745E+00 -0.2441680890126E+00  0.0000000000000E+00 -0.4882073471134E+00
 0.2108801272366E+00 -0.2440989634732E+00  0.0000000000000E+00 -0.3589356401250E+00
 0.1992656746807E+00 -0.2271338876842E+00  0.0000000000000E+00 -0.2484827574264E+00
 0.1788291971021E+00 -0.2019529167245E+00  0.0000000000000E+00 -0.1692305282453E+00
 0.1558979431892E+00 -0.1751129356561E+00  0.0000000000000E+00 -0.1181518387364E+00
 0.1337884921508E+00 -0.1499633245580E+00  0.0000000000000E+00 -0.8815376450953E-01
 0.1138983257452E+00 -0.1278040310335E+00  0.0000000000000E+00 -0.7241706743742E-01
 0.9648325450245E-01 -0.1087113738756E+00  0.0000000000000E+00 -0.6523648501242E-01
 0.8123929388569E-01 -0.9221542304953E-01  0.0000000000000E+00 -0.6273052238267E-01
 0.6783336724096E-01 -0.7785635194150E-01  0.0000000000000E+00 -0.6251803519924E-01
 0.5582372754909E-01 -0.6504506498054E-01  0.0000000000000E+00 -0.6286498506598E-01
 0.4537741157186E-01 -0.5396120545979E-01  0.0000000000000E+00 -0.6411898810201E-01
 0.3768555186831E-01 -0.4588863592299E-01  0.0000000000000E+00 -0.6764184753924E-01
 0.3282861706589E-01 -0.4091303377080E-01  0.0000000000000E+00 -0.7442810191493E-01
 0.2981700238051E-01 -0.3796543459739E-01  0.0000000000000E+00 -0.8460753128585E-01
 0.2770478931427E-01 -0.3604579469502E-01  0.0000000000000E+00 -0.9773920407778E-01
 0.2566631692480E-01 -0.3429137955638E-01  0.0000000000000E+00 -0.1133480221258E+00
 0.2316681128839E-01 -0.3218801288808E-01  0.0000000000000E+00 -0.1315489387317E+00
 0.1992106702646E-01 -0.2952986509953E-01  0.0000000000000E+00 -0.1535123031249E+00
 0.1709310727616E+00 -0.2135798111095E+00  0.0000000000000E+00 -0.6035396891002E+00
 0.1952738544747E+00 -0.2343009926856E+00  0.0000000000000E+00 -0.5012859828046E+00
 0.2054329077545E+00 -0.2398713058354E+00  0.0000000000000E+00 -0.3857731621416E+00
 0.2009858241932E+00 -0.2307109604878E+00  0.0000000000000E+00 -0.2826433908146E+00
 0.1872972976765E+00 -0.2127520354834E+00  0.0000000000000E+00 -0.2040385629156E+00
 0.1695233676883E+00 -0.1913422150227E+00  0.0000000000000E+00 -0.1497576820559E+00
 0.1508152826076E+00 -0.1696826368051E+00  0.0000000000000E+00 -0.1152520413493E+00
 0.1328314321342E+00 -0.1493928168454E+00  0.0000000000000E+00 -0.9542093987267E-01
 0.1162274041510E+00 -0.1310134437577E+00  0.0000000000000E+00 -0.8545548727176E-01
 0.1010642526911E+00 -0.1144846885803E+00  0.0000000000000E+00 -0.8171494505010E-01
 0.8726095019936E-01 -0.9962339551354E-01  0.0000000000000E+00 -0.8171370465968E-01
 0.7454307221401E-01 -0.8601992305743E-01  0.0000000000000E+00 -0.8335577124013E-01
 0.6307993716606E-01 -0.7386599960204E-01  0.0000000000000E+00 -0.8687504988253E-01
 0.5409114111790E-01 -0.6446573260996E-01  0.0000000000000E+00 -0.9332135257475E-01
 0.4783516822063E-01 -0.5807673425712E-01  0.0000000000000E+00 -0.1030873709753E+00
 0.4340053508378E-01 -0.5371368026381E-01  0.0000000000000E+00 -0.1161157574503E+00
 0.3990064775926E-01 -0.5043497896640E-01  0.0000000000000E+00 -0.1319433939254E+00
 0.3652915342689E-01 -0.4739530109642E-01  0.0000000000000E+00 -0.1501296870034E+00
 0.3281209904419E-01 -0.4413761591492E-01  0.0000000000000E+00 -0.1706955735209E+00
 0.2862120744943E-01 -0.4060465966044E-01  0.0000000000000E+00 -0.1945140804684E+00
 0.1621791928207E+00 -0.2051657849221E+00  0.0000000000000E+00 -0.6016049318739E+00
 0.1858515803419E+00 -0.2255927018720E+00  0.0000000000000E+00 -0.5092210185493E+00
 0.1995567965255E+00 -0.2352314030100E+00  0.0000000000000E+00 -0.4056014499869E+00
 0.2009070691054E+00 -0.2323865092258E+00  0.0000000000000E+00 -0.3104245039104E+00
 0.1932526582984E+00 -0.2208710024909E+00  0.0000000000000E+00 -0.2345695399561E+00
 0.1805998614462E+00 -0.2048510275729E+00  0.0000000000000E+00 -0.1794598880645E+00
 0.1657243247085E+00 -0.1871528441946E+00  0.0000000000000E+00 -0.1423919773918E+00
 0.1503092645311E+00 -0.1694512217465E+00  0.0000000000000E+00 -0.1196963764859E+00
 0.1352264511375E+00 -0.1525468417675E+00  0.0000000000000E+00 -0.1075021478436E+00
 0.1207999224657E+00 -0.1366796135396E+00  0.0000000000000E+00 -0.1026030021375E+00
 0.1071643737473E+00 -0.1219073159418E+00  0.0000000000000E+00 -0.1026169846594E+00
 0.9421689394890E-01 -0.1080085803446E+00  0.0000000000000E+00 -0.1052840282763E+00
 0.8215120547370E-01 -0.9521005482756E-01  0.0000000000000E+00 -0.1107820486514E+00
 0.7221066085763E-01 -0.8483241983114E-01  0.0000000000000E+00 -0.1198759390249E+00
 0.6483711211634E-01 -0.7730948470385E-01  0.0000000000000E+00 -0.1323775690842E+00
 0.5921997817661E-01 -0.7176292232048E-01  0.0000000000000E+00 -0.1480196781890E+00
 0.5453908838681E-01 -0.6731818091260E-01  0.0000000000000E+00 -0.1662951423354E+00
 0.5000558345308E-01 -0.6314700983062E-01  0.0000000000000E+00 -0.1867756382472E+00
 0.4518186068598E-01 -0.5882471497120E-01  0.0000000000000E+00 -0.2093442864126E+00
 0.4004087580915E-01 -0.5438600546896E-01  0.0000000000000E+00 -0.2344610583147E+00
 0.1543005313773E+00 -0.1978529754406E+00  0.0000000000000E+00 -0.5986006848989E+00
 0.1774197002807E+00 -0.2180069710425E+00  0.0000000000000E+00 -0.5131826991292E+00
 0.1937105984972E+00 -0.2306482757602E+00  0.0000000000000E+00 -0.4195887677922E+00
 0.1997510273843E+00 -0.2329205656331E+00  0.0000000000000E+00 -0.3323065696125E+00
 0.1973996059006E+00 -0.2270605173835E+00  0.0000000000000E+00 -0.2604712055874E+00
 0.1896324608080E+00 -0.2161784364508E+00  0.0000000000000E+00 -0.2062818945861E+00
 0.1787624376984E+00 -0.2026329961473E+00  0.0000000000000E+00 -0.1683006856850E+00
 0.1663518610656E+00 -0.1879927160510E+00  0.0000000000000E+00 -0.1439699833846E+00
 0.1533477444845E+00 -0.1731619235621E+00  0.0000000000000E+00 -0.1302715861329E+00
 0.1402362153094E+00 -0.1585701801815E+00  0.0000000000000E+00 -0.1245016803352E+00
 0.1273128946543E+00 -0.1444583219261E+00  0.0000000000000E+00 -0.1245076404667E+00
 0.1146283740840E+00 -0.1307767519775E+00  0.0000000000000E+00 -0.1280281253186E+00
 0.1024078543301E+00 -0.1177933326285E+00  0.0000000000000E+00 -0.1352383206965E+00
 0.9190383315490E-01 -0.1068318084328E+00  0.0000000000000E+00 -0.1466599714711E+00
 0.8373164142004E-01 -0.9849191922667E-01  0.0000000000000E+00 -0.1615830952582E+00
 0.7719718862232E-01 -0.9201815808103E-01  0.0000000000000E+00 -0.1795312937785E+00
 0.7155228603572E-01 -0.8660978795276E-01  0.0000000000000E+00 -0.1999448306272E+00
 0.6602232614968E-01 -0.8145394744210E-01  0.0000000000000E+00 -0.2223996831005E+00
 0.6017294911897E-01 -0.7612551459179E-01  0.0000000000000E+00 -0.2466241110089E+00
 0.5400412180909E-01 -0.7067723675646E-01  0.0000000000000E+00 -0.2725861535608E+00
 0.1471018331745E+00 -0.1913973470676E+00  0.0000000000000E+00 -0.5945835583359E+00
 0.1699106599627E+00 -0.2114542091728E+00  0.0000000000000E+00 -0.5140090241843E+00
 0.1881689634585E+00 -0.2264005049365E+00  0.0000000000000E+00 -0.4287067665319E+00
 0.1980350882391E+00 -0.2328543801612E+00  0.0000000000000E+00 -0.3488536208599E+00
 0.2003075030771E+00 -0.2319222460015E+00  0.0000000000000E+00 -0.2816987029437E+00
 0.1970916372447E+00 -0.2258226270271E+00  0.0000000000000E+00 -0.2296411870466E+00
 0.1902253744003E+00 -0.2164333620154E+00  0.0000000000000E+00 -0.1920519531171E+00
 0.1810709931183E+00 -0.2051292086868E+00  0.0000000000000E+00 -0.1671886359034E+00
 0.1705530082405E+00 -0.1928099604785E+00  0.0000000000000E+00 -0.1527446474677E+00
 0.1592346006919E+00 -0.1800018817612E+00  0.0000000000000E+00 -0.1465058923324E+00
 0.1475146539376E+00 -0.1670668093829E+00  0.0000000000000E+00 -0.1466044083904E+00
 0.1355672097038E+00 -0.1540962482469E+00  0.0000000000000E+00 -0.1508923377488E+00
 0.1236440848369E+00 -0.1413922850372E+00  0.0000000000000E+00 -0.1595766415024E+00
 0.1129830572919E+00 -0.1302584214444E+00  0.0000000000000E+00 -0.1729791847913E+00
 0.1043478663791E+00 -0.1214352122377E+00  0.0000000000000E+00 -0.1899550608229E+00
 0.9716952295046E-01 -0.1142984716667E+00  0.0000000000000E+00 -0.2098413009831E+00
 0.9077805365991E-01 -0.1081285300179E+00  0.0000000000000E+00 -0.2320331545202E+00
 0.8441238572247E-01 -0.1021289606551E+00  0.0000000000000E+00 -0.2561241195567E+00
 0.7760347660038E-01 -0.9583743794527E-01  0.0000000000000E+00 -0.2817087893435E+00
 0.7028249871367E-01 -0.8923097475555E-01  0.0000000000000E+00 -0.3082240797639E+00
 0.1404278395413E+00 -0.1856061274989E+00  0.0000000000000E+00 -0.5895573190275E+00
 0.1632280249402E+00 -0.2058201106690E+00  0.0000000000000E+00 -0.5122977282693E+00
 0.1830822241998E+00 -0.2226388653482E+00  0.0000000000000E+00 -0.4337492722103E+00
 0.1961194621792E+00 -0.2325629698703E+00  0.0000000000000E+00 -0.3606372829854E+00
 0.2024199492970E+00 -0.2359219897014E+00  0.0000000000000E+00 -0.2983890895596E+00
 0.2033855554849E+00 -0.2342130667646E+00  0.0000000000000E+00 -0.2492340423967E+00
 0.2004104055671E+00 -0.2288648287937E+00  0.0000000000000E+00 -0.2130050383855E+00
 0.1946235450785E+00 -0.2210208735179E+00  0.0000000000000E+00 -0.1885221611954E+00
 0.1868656923909E+00 -0.2115084307751E+00  0.0000000000000E+00 -0.1740349987519E+00
 0.1777124361379E+00 -0.2008797552925E+00  0.0000000000000E+00 -0.1677613994803E+00
 0.1676141753478E+00 -0.1895615581379E+00  0.0000000000000E+00 -0.1681227612229E+00
 0.1568342965082E+00 -0.1777505942086E+00  0.0000000000000E+00 -0.1731528692655E+00
 0.1456385515969E+00 -0.1657675365591E+00  0.0000000000000E+00 -0.1831023659166E+00
 0.1352190717497E+00 -0.1548645178943E+00  0.0000000000000E+00 -0.1981299464984E+00
 0.1264497242681E+00 -0.1458847243836E+00  0.0000000000000E+00 -0.2167574507448E+00
 0.1188897707091E+00 -0.1383377916062E+00  0.0000000000000E+00 -0.2381710982379E+00
 0.1119581762119E+00 -0.1315966851847E+00  0.0000000000000E+00 -0.2617412066400E+00
 0.1049158310976E+00 -0.1248916505771E+00  0.0000000000000E+00 -0.2871160095126E+00
 0.9722322809313E-01 -0.1176895749212E+00  0.0000000000000E+00 -0.3138312337394E+00
 0.8861769189656E-01 -0.1097711103442E+00  0.0000000000000E+00 -0.3408111818658E+00
 0.1341551874187E+00 -0.1803271528733E+00  0.0000000000000E+00 -0.5834952766583E+00
 0.1572640630270E+00 -0.2009817891781E+00  0.0000000000000E+00 -0.5084710236454E+00
 0.1785163817369E+00 -0.2194276037140E+00  0.0000000000000E+00 -0.4353553513163E+00
 0.1942439792111E+00 -0.2322950645761E+00  0.0000000000000E+00 -0.3681965390699E+00
 0.2040700657478E+00 -0.2394078447649E+00  0.0000000000000E+00 -0.3107800857389E+00
 0.2088501653028E+00 -0.2417013782555E+00  0.0000000000000E+00 -0.2649487409063E+00
 0.2095885771872E+00 -0.2402097742858E+00  0.0000000000000E+00 -0.2307436867430E+00
 0.2071781131141E+00 -0.2358404577502E+00  0.0000000000000E+00 -0.2073432893663E+00
 0.2023424665448E+00 -0.2293106414360E+00  0.0000000000000E+00 -0.1934059817977E+00
 0.1956246976561E+00 -0.2211492641092E+00  0.0000000000000E+00 -0.1875036239322E+00
 0.1874847729418E+00 -0.2118021798929E+00  0.0000000000000E+00 -0.1883199769681E+00
 0.1782424602173E+00 -0.2015362913261E+00  0.0000000000000E+00 -0.1941005811273E+00
 0.1681608688999E+00 -0.1906710157645E+00  0.0000000000000E+00 -0.2051325016177E+00
 0.1583507512760E+00 -0.1803707083447E+00  0.0000000000000E+00 -0.2214407419759E+00
 0.1497467199347E+00 -0.1715316648460E+00  0.0000000000000E+00 -0.2413176466926E+00
 0.1420344399512E+00 -0.1637945066128E+00  0.0000000000000E+00 -0.2638334348992E+00
 0.1347413391342E+00 -0.1566440789599E+00  0.0000000000000E+00 -0.2883507406302E+00
 0.1271784705331E+00 -0.1493677684824E+00  0.0000000000000E+00 -0.3146272597048E+00
 0.1187179677947E+00 -0.1413464866944E+00  0.0000000000000E+00 -0.3422859377790E+00
 0.1087421399258E+00 -0.1320118035259E+00  0.0000000000000E+00 -0.3698648935982E+00
 0.1281869235964E+00 -0.1754404837213E+00  0.0000000000000E+00 -0.5763541697545E+00
 0.1519097833618E+00 -0.1968168236668E+00  0.0000000000000E+00 -0.5028220078646E+00
 0.1744803461957E+00 -0.2167722778373E+00  0.0000000000000E+00 -0.4340318811100E+00
 0.1925565127759E+00 -0.2322033438851E+00  0.0000000000000E+00 -0.3720171892786E+00
 0.2054968592352E+00 -0.2426285400746E+00  0.0000000000000E+00 -0.3191572090588E+00
 0.2137487634084E+00 -0.2485618530514E+00  0.0000000000000E+00 -0.2768018912468E+00
 0.2179899547338E+00 -0.2507068678102E+00  0.0000000000000E+00 -0.2450230302638E+00
 0.2188927501488E+00 -0.2497496828628E+00  0.0000000000000E+00 -0.2231992489892E+00
 0.2170509648732E+00 -0.2462820408836E+00  0.0000000000000E+00 -0.2102695916380E+00
 0.2129470010838E+00 -0.2407783693365E+00  0.0000000000000E+00 -0.2050777830322E+00
 0.2070191415179E+00 -0.2336693851487E+00  0.0000000000000E+00 -0.2065262619100E+00
 0.1996147149447E+00 -0.2252611955360E+00  0.0000000000000E+00 -0.2130748807228E+00
 0.1909773927290E+00 -0.2158521197852E+00  0.0000000000000E+00 -0.2250275836696E+00
 0.1820992488718E+00 -0.2064804182869E+00  0.0000000000000E+00 -0.2423042698651E+00
 0.1739149684787E+00 -0.1980355207835E+00  0.0000000000000E+00 -0.2630707901680E+00
 0.1662258242342E+00 -0.1902748716101E+00  0.0000000000000E+00 -0.2862968614805E+00
 0.1586949444287E+00 -0.1828224594301E+00  0.0000000000000E+00 -0.3113237855158E+00
 0.1507468024610E+00 -0.1750847491112E+00  0.0000000000000E+00 -0.3380550745887E+00
 0.1416995140146E+00 -0.1663977332284E+00  0.0000000000000E+00 -0.3664303517637E+00
 0.1303934503698E+00 -0.1556682368490E+00  0.0000000000000E+00 -0.3949408057422E+00
 0.1224476802750E+00 -0.1708516572403E+00  0.0000000000000E+00 -0.5680830616539E+00
 0.1470604353520E+00 -0.1932080808384E+00  0.0000000000000E+00 -0.4955483994631E+00
 0.1709447783525E+00 -0.2146388666647E+00  0.0000000000000E+00 -0.4301737903346E+00
 0.1911350253600E+00 -0.2323675630057E+00  0.0000000000000E+00 -0.3725221275518E+00
 0.2068608261667E+00 -0.2457503754371E+00  0.0000000000000E+00 -0.3238190319133E+00
 0.2182765003150E+00 -0.2549968413073E+00  0.0000000000000E+00 -0.2848921863997E+00
 0.2257971666778E+00 -0.2605446080650E+00  0.0000000000000E+00 -0.2557261454268E+00
 0.2299011753266E+00 -0.2628847402653E+00  0.0000000000000E+00 -0.2357823447486E+00
 0.2310537496637E+00 -0.2624831759249E+00  0.0000000000000E+00 -0.2241759739632E+00
 0.2296617165691E+00 -0.2597428347466E+00  0.0000000000000E+00 -0.2199461103354E+00
 0.2261202511193E+00 -0.2550554423630E+00  0.0000000000000E+00 -0.2221640689306E+00
 0.2207807344000E+00 -0.2487409150736E+00  0.0000000000000E+00 -0.2294879277674E+00
 0.2138546591022E+00 -0.2410610836609E+00  0.0000000000000E+00 -0.2422119394062E+00
 0.2061818552929E+00 -0.2328939324954E+00  0.0000000000000E+00 -0.2601886564607E+00
 0.1986298446734E+00 -0.2250555486929E+00  0.0000000000000E+00 -0.2815701882898E+00
 0.1910770719516E+00 -0.2173826094246E+00  0.0000000000000E+00 -0.3052371777934E+00
 0.1833411322660E+00 -0.2096430271779E+00  0.0000000000000E+00 -0.3304035374699E+00
 0.1750653564930E+00 -0.2014747659312E+00  0.0000000000000E+00 -0.3570609455257E+00
 0.1656696476896E+00 -0.1923182602125E+00  0.0000000000000E+00 -0.3857157394971E+00
 0.1533149113990E+00 -0.1804508975226E+00  0.0000000000000E+00 -0.4155606313416E+00
 0.1168794021915E+00 -0.1664861792194E+00  0.0000000000000E+00 -0.5586294175283E+00
 0.1426181064002E+00 -0.1900457642898E+00  0.0000000000000E+00 -0.4867772926353E+00
 0.1678552193502E+00 -0.2129670629389E+00  0.0000000000000E+00 -0.4240811559099E+00
 0.1900049629284E+00 -0.2328125773068E+00  0.0000000000000E+00 -0.3700672232067E+00
 0.2082584741095E+00 -0.2488727197086E+00  0.0000000000000E+00 -0.3250539440024E+00
 0.2225676401770E+00 -0.2611447505513E+00  0.0000000000000E+00 -0.2893671628947E+00
 0.2331441870661E+00 -0.2698603300894E+00  0.0000000000000E+00 -0.2628301320320E+00
 0.2403049225950E+00 -0.2753480024292E+00  0.0000000000000E+00 -0.2449028972530E+00
 0.2443975053920E+00 -0.2779582723785E+00  0.0000000000000E+00 -0.2347982848820E+00
 0.2457477627080E+00 -0.2780153570045E+00  0.0000000000000E+00 -0.2316864368810E+00
 0.2446940884503E+00 -0.2758565907634E+00  0.0000000000000E+00 -0.2347586649527E+00
 0.2415724851234E+00 -0.2717944060436E+00  0.0000000000000E+00 -0.2428429252316E+00
 0.2365573002758E+00 -0.2660469065975E+00  0.0000000000000E+00 -0.2561870836227E+00
 0.2303171030764E+00 -0.2593124681930E+00  0.0000000000000E+00 -0.2746270106467E+00
 0.2235877800490E+00 -0.2522726392788E+00  0.0000000000000E+00 -0.2964402096578E+00
 0.2162714447084E+00 -0.2447879154156E+00  0.0000000000000E+00 -0.3204730826213E+00
 0.2082542317740E+00 -0.2366982385228E+00  0.0000000000000E+00 -0.3457267742798E+00
 0.1995084384072E+00 -0.2279023990699E+00  0.0000000000000E+00 -0.3717973326643E+00
 0.1899478687072E+00 -0.2184067027514E+00  0.0000000000000E+00 -0.3998412637481E+00
 0.1772148375743E+00 -0.2060004470698E+00  0.0000000000000E+00 -0.4311363656122E+00
 0.1114375376990E+00 -0.1622847540639E+00  0.0000000000000E+00 -0.5479428256730E+00
 0.1384924409870E+00 -0.1872281292852E+00  0.0000000000000E+00 -0.4765841752080E+00
 0.1651407536217E+00 -0.2116784338084E+00  0.0000000000000E+00 -0.4159729640872E+00
 0.1891534398613E+00 -0.2335232145915E+00  0.0000000000000E+00 -0.3649379320300E+00
 0.2097366347702E+00 -0.2520431721177E+00  0.0000000000000E+00 -0.3231245771961E+00
 0.2267046627589E+00 -0.2670897603946E+00  0.0000000000000E+00 -0.2904006337170E+00
 0.2401185376346E+00 -0.2787426053271E+00  0.0000000000000E+00 -0.2663811073795E+00
 0.2501692234603E+00 -0.2872039571124E+00  0.0000000000000E+00 -0.2504672121111E+00
 0.2571055429879E+00 -0.2927267574337E+00  0.0000000000000E+00 -0.2419149512202E+00
 0.2611741655194E+00 -0.2955589566200E+00  0.0000000000000E+00 -0.2399829707386E+00
 0.2626461352559E+00 -0.2959693207123E+00  0.0000000000000E+00 -0.2439422098083E+00
 0.2618219603268E+00 -0.2942417493220E+00  0.0000000000000E+00 -0.2527513657328E+00
 0.2588423804092E+00 -0.2905523761826E+00  0.0000000000000E+00 -0.2665550108509E+00
 0.2542103241122E+00 -0.2854238783828E+00  0.0000000000000E+00 -0.2852169271058E+00
 0.2484924237768E+00 -0.2793707054818E+00  0.0000000000000E+00 -0.3073034146608E+00
 0.2415629551089E+00 -0.2722322948042E+00  0.0000000000000E+00 -0.3317472055841E+00
 0.2332944150636E+00 -0.2638271920982E+00  0.0000000000000E+00 -0.3574543397286E+00
 0.2236105229894E+00 -0.2540484694541E+00  0.0000000000000E+00 -0.3834322957421E+00
 0.2135419567423E+00 -0.2435872131256E+00  0.0000000000000E+00 -0.4093498580255E+00
 0.2016264466684E+00 -0.2317244140623E+00  0.0000000000000E+00 -0.4407762699283E+00
 0.1060889411176E+00 -0.1582070800880E+00  0.0000000000000E+00 -0.5359927832126E+00
 0.1345962221142E+00 -0.1846523496801E+00  0.0000000000000E+00 -0.4650220435207E+00
 0.1627161968488E+00 -0.2106787074779E+00  0.0000000000000E+00 -0.4059857765120E+00
 0.1885444447679E+00 -0.2344608962137E+00  0.0000000000000E+00 -0.3573409912515E+00
 0.2113088016724E+00 -0.2552749182151E+00  0.0000000000000E+00 -0.3182610723209E+00
 0.2307284047559E+00 -0.2728721706191E+00  0.0000000000000E+00 -0.2881818250287E+00
 0.2467649875272E+00 -0.2872350422060E+00  0.0000000000000E+00 -0.2664771906356E+00
 0.2595222959656E+00 -0.2984784753135E+00  0.0000000000000E+00 -0.2524605027586E+00
 0.2691706293206E+00 -0.3067771329941E+00  0.0000000000000E+00 -0.2453986035497E+00
 0.2758922631696E+00 -0.3123150003876E+00  0.0000000000000E+00 -0.2446030398906E+00
 0.2798869227081E+00 -0.3152979158526E+00  0.0000000000000E+00 -0.2494372754888E+00
 0.2813692019353E+00 -0.3159147748090E+00  0.0000000000000E+00 -0.2589608468015E+00
 0.2804575027749E+00 -0.3143095822687E+00  0.0000000000000E+00 -0.2730620914360E+00
 0.2775382905926E+00 -0.3108907117894E+00  0.0000000000000E+00 -0.2916779381751E+00
 0.2729920724021E+00 -0.3059783092039E+00  0.0000000000000E+00 -0.3138210394053E+00
 0.2666701314064E+00 -0.2994031473915E+00  0.0000000000000E+00 -0.3386162425135E+00
 0.2583723994836E+00 -0.2909320416700E+00  0.0000000000000E+00 -0.3650709571125E+00
 0.2479191525919E+00 -0.2803175903264E+00  0.0000000000000E+00 -0.3922230885713E+00
 0.2356723810690E+00 -0.2679363153734E+00  0.0000000000000E+00 -0.4185032931998E+00
 0.2252338350731E+00 -0.2553761460699E+00  0.0000000000000E+00 -0.4452313098789E+00
 0.9836756957421E-01 -0.1529143619541E+00  0.0000000000000E+00  0.4518251154221E+00
 0.1337328190177E+00 -0.1858525290067E+00  0.0000000000000E+00  0.3773510805868E+00
 0.1672245605573E+00 -0.2169767027977E+00  0.0000000000000E+00  0.3166598598863E+00
 0.1974870687640E+00 -0.2450009905165E+00  0.0000000000000E+00  0.2675776603719E+00
 0.2241422430833E+00 -0.2695776992455E+00  0.0000000000000E+00  0.2288147638219E+00
 0.2471594944737E+00 -0.2906991492357E+00  0.0000000000000E+00  0.1995187338313E+00
 0.2666723089755E+00 -0.3085130125559E+00  0.0000000000000E+00  0.1789098426162E+00
 0.2829125950596E+00 -0.3232582809895E+00  0.0000000000000E+00  0.1662313783598E+00
 0.2961479800582E+00 -0.3352044889443E+00  0.0000000000000E+00  0.1607331774955E+00
 0.3066320022861E+00 -0.3446065176738E+00  0.0000000000000E+00  0.1617602123562E+00
 0.3146199457075E+00 -0.3517274781343E+00  0.0000000000000E+00  0.1687386836000E+00
 0.3203706896773E+00 -0.3568015457451E+00  0.0000000000000E+00  0.1807962335340E+00
 0.3240133546953E+00 -0.3599927280093E+00  0.0000000000000E+00  0.1979635318222E+00
 0.3259801703675E+00 -0.3617595402576E+00  0.0000000000000E+00  0.2202750115294E+00
 0.3266970306927E+00 -0.3624691751007E+00  0.0000000000000E+00  0.2468424476869E+00
 0.3260109729530E+00 -0.3619589209162E+00  0.0000000000000E+00  0.2769648362629E+00
 0.3237090402602E+00 -0.3599952598961E+00  0.0000000000000E+00  0.3098809710628E+00
 0.3195880865762E+00 -0.3563235564603E+00  0.0000000000000E+00  0.3448568908194E+00
 0.3139932317092E+00 -0.3513012748525E+00  0.0000000000000E+00  0.3804639956360E+00
 0.3106692427006E+00 -0.3467088056502E+00  0.0000000000000E+00  0.4184909664452E+00
 0.1036752888595E+00 -0.1569008145298E+00  0.0000000000000E+00  0.4675806766816E+00
 0.1374851531322E+00 -0.1882173494883E+00  0.0000000000000E+00  0.3921974299848E+00
 0.1693885423568E+00 -0.2176535722943E+00  0.0000000000000E+00  0.3297909356422E+00
 0.1977605405925E+00 -0.2436715373733E+00  0.0000000000000E+00  0.2784943663789E+00
 0.2222102740506E+00 -0.2659401474855E+00  0.0000000000000E+00  0.2373923780140E+00
 0.2427982717876E+00 -0.2845451778753E+00  0.0000000000000E+00  0.2060126088901E+00
 0.2597413624399E+00 -0.2997147021717E+00  0.0000000000000E+00  0.1837892855159E+00
 0.2733415201653E+00 -0.3117573201207E+00  0.0000000000000E+00  0.1700329924656E+00
 0.2839286227994E+00 -0.3210045653589E+00  0.0000000000000E+00  0.1639662926515E+00
 0.2918038771755E+00 -0.3277585456361E+00  0.0000000000000E+00  0.1648741353911E+00
 0.2972792869443E+00 -0.3323301303028E+00  0.0000000000000E+00  0.1720800224904E+00
 0.3006862429993E+00 -0.3350372121827E+00  0.0000000000000E+00  0.1846021468958E+00
 0.3021562644369E+00 -0.3360535571714E+00  0.0000000000000E+00  0.2027072136832E+00
 0.3022534501725E+00 -0.3359671792939E+00  0.0000000000000E+00  0.2262214739039E+00
 0.3016185332947E+00 -0.3353696035104E+00  0.0000000000000E+00  0.2537062933432E+00
 0.3001225341179E+00 -0.3341058117219E+00  0.0000000000000E+00  0.2842603213518E+00
 0.2976330096799E+00 -0.3320024443308E+00  0.0000000000000E+00  0.3170032633192E+00
 0.2940858684008E+00 -0.3289762810122E+00  0.0000000000000E+00  0.3511479758353E+00
 0.2905362921759E+00 -0.3257675044563E+00  0.0000000000000E+00  0.3865728854897E+00
 0.2856408190134E+00 -0.3217823981437E+00  0.0000000000000E+00  0.4290842783954E+00
 0.1090732159403E+00 -0.1609754304875E+00  0.0000000000000E+00  0.4820009060181E+00
 0.1413935713435E+00 -0.1907324442715E+00  0.0000000000000E+00  0.4056007351223E+00
 0.1717129410484E+00 -0.2184684055544E+00  0.0000000000000E+00  0.3410418998567E+00
 0.1980943988484E+00 -0.2423684942503E+00  0.0000000000000E+00  0.2870142461607E+00
 0.2201465536778E+00 -0.2621208904081E+00  0.0000000000000E+00  0.2431737968330E+00
 0.2380561623481E+00 -0.2779447974284E+00  0.0000000000000E+00  0.2094401154108E+00
 0.2521712173394E+00 -0.2901995622807E+00  0.0000000000000E+00  0.1854235066411E+00
 0.2628987130696E+00 -0.2992987224204E+00  0.0000000000000E+00  0.1704730099764E+00
 0.2706475066858E+00 -0.3056511163101E+00  0.0000000000000E+00  0.1637525007543E+00
 0.2757793918815E+00 -0.3096163354309E+00  0.0000000000000E+00  0.1644511545387E+00
 0.2786577835250E+00 -0.3115582603044E+00  0.0000000000000E+00  0.1718044664092E+00
 0.2796371393588E+00 -0.3118098831034E+00  0.0000000000000E+00  0.1846854923129E+00
 0.2788729295740E+00 -0.3105786346452E+00  0.0000000000000E+00  0.2034539977546E+00
 0.2771195933708E+00 -0.3086535823715E+00  0.0000000000000E+00  0.2278061920681E+00
 0.2752230948085E+00 -0.3068284303303E+00  0.0000000000000E+00  0.2559177778010E+00
 0.2730913450358E+00 -0.3049788978198E+00  0.0000000000000E+00  0.2867958240650E+00
 0.2706220484655E+00 -0.3029688803478E+00  0.0000000000000E+00  0.3196576130942E+00
 0.2678158400218E+00 -0.3007432560488E+00  0.0000000000000E+00  0.3543227500867E+00
 0.2646490780143E+00 -0.2983903218815E+00  0.0000000000000E+00  0.3921516259771E+00
 0.2588775492570E+00 -0.2938416601630E+00  0.0000000000000E+00  0.4347008030664E+00
 0.1145932612552E+00 -0.1651864232547E+00  0.0000000000000E+00  0.4951145453032E+00
 0.1455373598576E+00 -0.1934879167089E+00  0.0000000000000E+00  0.4175290104373E+00
 0.1742717926548E+00 -0.2195063265638E+00  0.0000000000000E+00  0.3502864655494E+00
 0.1985218544205E+00 -0.2411281331401E+00  0.0000000000000E+00  0.2929455162876E+00
 0.2179430528181E+00 -0.2581135410757E+00  0.0000000000000E+00  0.2459358319730E+00
 0.2329074715847E+00 -0.2708744473056E+00  0.0000000000000E+00  0.2096028897381E+00
 0.2439408075508E+00 -0.2799494287332E+00  0.0000000000000E+00  0.1836820856556E+00
 0.2515867556076E+00 -0.2858889752674E+00  0.0000000000000E+00  0.1675034127963E+00
 0.2563490274250E+00 -0.2891941188050E+00  0.0000000000000E+00  0.1601196247891E+00
 0.2586502329713E+00 -0.2902828064142E+00  0.0000000000000E+00  0.1605834828438E+00
 0.2588951973818E+00 -0.2895578403660E+00  0.0000000000000E+00  0.1680027919339E+00
 0.2574424125818E+00 -0.2873479143918E+00  0.0000000000000E+00  0.1810716096736E+00
 0.2544796315595E+00 -0.2839006445485E+00  0.0000000000000E+00  0.2001946978584E+00
 0.2509648608265E+00 -0.2802182611603E+00  0.0000000000000E+00  0.2250073711432E+00
 0.2479193215396E+00 -0.2772729318935E+00  0.0000000000000E+00  0.2534859297889E+00
 0.2452426062052E+00 -0.2749324728248E+00  0.0000000000000E+00  0.2846794564873E+00
 0.2427791024290E+00 -0.2730057616547E+00  0.0000000000000E+00  0.3180335314827E+00
 0.2402144091990E+00 -0.2711922720628E+00  0.0000000000000E+00  0.3537827934538E+00
 0.2370515866396E+00 -0.2690416895430E+00  0.0000000000000E+00  0.3926465574174E+00
 0.2315644513339E+00 -0.2649798968928E+00  0.0000000000000E+00  0.4340348236020E+00
 0.1202740451466E+00 -0.1695875256960E+00  0.0000000000000E+00  0.5069537622552E+00
 0.1500001526936E+00 -0.1965800968757E+00  0.0000000000000E+00  0.4279090374084E+00
 0.1771310952939E+00 -0.2208408379423E+00  0.0000000000000E+00  0.3573248143604E+00
 0.1990584602987E+00 -0.2399697004100E+00  0.0000000000000E+00  0.2960240863545E+00
 0.2155664378740E+00 -0.2538855334764E+00  0.0000000000000E+00  0.2454300475813E+00
 0.2272936382390E+00 -0.2632757455225E+00  0.0000000000000E+00  0.2063235259844E+00
 0.2349959741529E+00 -0.2689110403791E+00  0.0000000000000E+00  0.1784900060636E+00
 0.2393820021625E+00 -0.2715070415728E+00  0.0000000000000E+00  0.1611579927903E+00
 0.2410589648632E+00 -0.2716649398420E+00  0.0000000000000E+00  0.1531945023004E+00
 0.2405043118952E+00 -0.2698532021649E+00  0.0000000000000E+00  0.1534545641070E+00
 0.2381516484711E+00 -0.2664993003462E+00  0.0000000000000E+00  0.1608729229373E+00
 0.2343443149571E+00 -0.2619065851881E+00  0.0000000000000E+00  0.1739423281227E+00
 0.2293018437658E+00 -0.2563601266876E+00  0.0000000000000E+00  0.1930804303583E+00
 0.2241714003055E+00 -0.2510611791940E+00  0.0000000000000E+00  0.2179411714457E+00
 0.2200880125301E+00 -0.2471031079280E+00  0.0000000000000E+00  0.2464705102872E+00
 0.2168930737659E+00 -0.2442947716990E+00  0.0000000000000E+00  0.2778271592518E+00
 0.2142926134129E+00 -0.2423186848859E+00  0.0000000000000E+00  0.3116052984179E+00
 0.2117627780039E+00 -0.2406555311349E+00  0.0000000000000E+00  0.3479755682417E+00
 0.2087244616611E+00 -0.2387746964147E+00  0.0000000000000E+00  0.3870824497952E+00
 0.2041621260209E+00 -0.2357697897664E+00  0.0000000000000E+00  0.4275426585524E+00
 0.1261652238701E+00 -0.1742450543703E+00  0.0000000000000E+00  0.5175558167195E+00
 0.1548711306055E+00 -0.2001104364063E+00  0.0000000000000E+00  0.4366174642261E+00
 0.1803431013310E+00 -0.2225310517868E+00  0.0000000000000E+00  0.3618796032304E+00
 0.1996875638279E+00 -0.2388784925521E+00  0.0000000000000E+00  0.2959229660184E+00
 0.2129413470959E+00 -0.2493605640841E+00  0.0000000000000E+00  0.2413877528721E+00
 0.2211130264206E+00 -0.2550450477971E+00  0.0000000000000E+00  0.1994544526549E+00
 0.2252451475768E+00 -0.2569916823730E+00  0.0000000000000E+00  0.1698434489813E+00
 0.2262337482364E+00 -0.2561035009043E+00  0.0000000000000E+00  0.1515692053433E+00
 0.2247894139782E+00 -0.2530800521396E+00  0.0000000000000E+00  0.1432147199997E+00
 0.2214300034421E+00 -0.2484238741652E+00  0.0000000000000E+00  0.1433652999970E+00
 0.2165980379196E+00 -0.2425648774477E+00  0.0000000000000E+00  0.1507369070193E+00
 0.2105987647232E+00 -0.2357563264909E+00  0.0000000000000E+00  0.1636099603428E+00
 0.2036750926059E+00 -0.2283095698882E+00  0.0000000000000E+00  0.1823896845999E+00
 0.1971311222982E+00 -0.2215925329232E+00  0.0000000000000E+00  0.2068164956805E+00
 0.1921462404363E+00 -0.2167519809397E+00  0.0000000000000E+00  0.2349522746533E+00
 0.1884670535531E+00 -0.2135022667197E+00  0.0000000000000E+00  0.2660873655303E+00
 0.1856801463130E+00 -0.2114050200726E+00  0.0000000000000E+00  0.2998633615952E+00
 0.1831575991066E+00 -0.2098341406267E+00  0.0000000000000E+00  0.3363288998076E+00
 0.1804009772392E+00 -0.2083355028304E+00  0.0000000000000E+00  0.3753025174449E+00
 0.1769977234367E+00 -0.2065957528323E+00  0.0000000000000E+00  0.4153700574800E+00
 0.1323317851448E+00 -0.1792427724612E+00  0.0000000000000E+00  0.5269583772108E+00
 0.1602450724477E+00 -0.2041864306508E+00  0.0000000000000E+00  0.4434664566532E+00
 0.1839373301629E+00 -0.2246122015988E+00  0.0000000000000E+00  0.3635867010711E+00
 0.2003459533382E+00 -0.2377912284590E+00  0.0000000000000E+00  0.2922551987417E+00
 0.2099363506832E+00 -0.2444035721939E+00  0.0000000000000E+00  0.2335345432464E+00
 0.2142114944857E+00 -0.2460234613376E+00  0.0000000000000E+00  0.1888984332286E+00
 0.2145561574462E+00 -0.2440557894380E+00  0.0000000000000E+00  0.1578328234015E+00
 0.2120665238598E+00 -0.2396027395892E+00  0.0000000000000E+00  0.1389889230746E+00
 0.2075435457989E+00 -0.2334467583355E+00  0.0000000000000E+00  0.1305463542721E+00
 0.2015192165951E+00 -0.2260952596605E+00  0.0000000000000E+00  0.1307440635522E+00
 0.1944162394217E+00 -0.2179489674299E+00  0.0000000000000E+00  0.1380392489631E+00
 0.1864743853444E+00 -0.2091816506077E+00  0.0000000000000E+00  0.1505057162794E+00
 0.1779475018909E+00 -0.2001152416764E+00  0.0000000000000E+00  0.1685145309844E+00
 0.1702576453646E+00 -0.1922447012647E+00  0.0000000000000E+00  0.1919495832357E+00
 0.1645609496378E+00 -0.1867038887304E+00  0.0000000000000E+00  0.2191251669537E+00
 0.1604974802536E+00 -0.1830976997593E+00  0.0000000000000E+00  0.2494875764993E+00
 0.1575610852424E+00 -0.1808937047344E+00  0.0000000000000E+00  0.2827162816262E+00
 0.1550845165793E+00 -0.1794224433002E+00  0.0000000000000E+00  0.3187784338641E+00
 0.1526915032957E+00 -0.1783548217645E+00  0.0000000000000E+00  0.3574108499150E+00
 0.1504068551767E+00 -0.1778172916018E+00  0.0000000000000E+00  0.3975511727653E+00
 0.1388583006009E+00 -0.1846874927591E+00  0.0000000000000E+00  0.5351940319473E+00
 0.1662202035253E+00 -0.2089198727458E+00  0.0000000000000E+00  0.4481820563300E+00
 0.1879082632282E+00 -0.2270832565208E+00  0.0000000000000E+00  0.3619809298937E+00
 0.2009072379032E+00 -0.2365786777663E+00  0.0000000000000E+00  0.2845787109567E+00
 0.2063498183749E+00 -0.2388057284700E+00  0.0000000000000E+00  0.2216118835164E+00
 0.2063748433938E+00 -0.2359885655992E+00  0.0000000000000E+00  0.1746391792564E+00
 0.2027562053732E+00 -0.2299246918566E+00  0.0000000000000E+00  0.1426738882565E+00
 0.1967857557885E+00 -0.2219090017513E+00  0.0000000000000E+00  0.1238134386943E+00
 0.1893234162424E+00 -0.2127714912568E+00  0.0000000000000E+00  0.1156982299866E+00
 0.1808740616927E+00 -0.2029791034435E+00  0.0000000000000E+00  0.1161488176226E+00
 0.1718024625438E+00 -0.1928616911342E+00  0.0000000000000E+00  0.1233391492211E+00
 0.1622526183843E+00 -0.1824812277814E+00  0.0000000000000E+00  0.1351670667375E+00
 0.1524771287555E+00 -0.1721544962062E+00  0.0000000000000E+00  0.1519567647350E+00
 0.1439761718119E+00 -0.1634631572713E+00  0.0000000000000E+00  0.1737891307935E+00
 0.1378222177283E+00 -0.1574679667745E+00  0.0000000000000E+00  0.1993650107764E+00
 0.1335427745885E+00 -0.1536572692979E+00  0.0000000000000E+00  0.2283276518739E+00
 0.1305555982749E+00 -0.1514209101838E+00  0.0000000000000E+00  0.2604162040301E+00
 0.1281822791835E+00 -0.1500764048027E+00  0.0000000000000E+00  0.2955794899228E+00
 0.1261535371223E+00 -0.1494077272640E+00  0.0000000000000E+00  0.3336455923627E+00
 0.1247801390067E+00 -0.1498397575377E+00  0.0000000000000E+00  0.3740920828027E+00
 0.1458534734239E+00 -0.1907154211879E+00  0.0000000000000E+00  0.5422818570375E+00
 0.1728932430438E+00 -0.2144225557022E+00  0.0000000000000E+00  0.4503735688030E+00
 0.1921979195356E+00 -0.2298892021512E+00  0.0000000000000E+00  0.3564783360081E+00
 0.2011612606462E+00 -0.2350240595215E+00  0.0000000000000E+00  0.2724060090777E+00
 0.2018950621902E+00 -0.2322683041431E+00  0.0000000000000E+00  0.2054094371789E+00
 0.1973239489489E+00 -0.2246487205723E+00  0.0000000000000E+00  0.1567838480044E+00
 0.1896367737496E+00 -0.2143815131092E+00  0.0000000000000E+00  0.1247474322454E+00
 0.1802889672710E+00 -0.2029182191191E+00  0.0000000000000E+00  0.1066100968608E+00
 0.1701426465998E+00 -0.1910733813835E+00  0.0000000000000E+00  0.9933118946368E-01
 0.1596168389299E+00 -0.1792091239384E+00  0.0000000000000E+00  0.1002604376920E+00
 0.1489719664028E+00 -0.1675339337806E+00  0.0000000000000E+00  0.1072936631190E+00
 0.1382261293097E+00 -0.1559662778350E+00  0.0000000000000E+00  0.1182183236620E+00
 0.1276222957159E+00 -0.1448061105791E+00  0.0000000000000E+00  0.1333154351069E+00
 0.1187019589868E+00 -0.1356847598707E+00  0.0000000000000E+00  0.1529173199340E+00
 0.1124016412350E+00 -0.1295377264861E+00  0.0000000000000E+00  0.1762373617263E+00
 0.1081319306772E+00 -0.1257314732382E+00  0.0000000000000E+00  0.2031539371461E+00
 0.1052388313612E+00 -0.1235830081875E+00  0.0000000000000E+00  0.2334893425952E+00
 0.1030374515891E+00 -0.1224030567892E+00  0.0000000000000E+00  0.2672210948468E+00
 0.1013251476908E+00 -0.1220508934514E+00  0.0000000000000E+00  0.3043763197439E+00
 0.1005698431088E+00 -0.1231272668925E+00  0.0000000000000E+00  0.3450628957455E+00
 0.1534551928427E+00 -0.1974998987724E+00  0.0000000000000E+00  0.5482144119881E+00
 0.1803501543759E+00 -0.2207979347345E+00  0.0000000000000E+00  0.4494910438228E+00
 0.1966707381952E+00 -0.2328953591128E+00  0.0000000000000E+00  0.3463560108923E+00
 0.2007878037973E+00 -0.2327950478979E+00  0.0000000000000E+00  0.2552236531765E+00
 0.1961849844599E+00 -0.2243854851309E+00  0.0000000000000E+00  0.1848139493589E+00
 0.1867146373118E+00 -0.2116420563381E+00  0.0000000000000E+00  0.1356214401670E+00
 0.1749663289179E+00 -0.1971842764234E+00  0.0000000000000E+00  0.1046475000080E+00
 0.1624848955271E+00 -0.1825383497911E+00  0.0000000000000E+00  0.8814244866312E-01
 0.1500449030263E+00 -0.1684040180130E+00  0.0000000000000E+00  0.8225787088345E-01
 0.1379028489237E+00 -0.1549546405880E+00  0.0000000000000E+00  0.8386310483167E-01
 0.1261638195636E+00 -0.1422223247106E+00  0.0000000000000E+00  0.9062843966991E-01
 0.1146949633934E+00 -0.1299565188491E+00  0.0000000000000E+00  0.1003397978371E+00
 0.1037286329605E+00 -0.1184368561113E+00  0.0000000000000E+00  0.1132594264253E+00
 0.9481675410814E-01 -0.1093137665875E+00  0.0000000000000E+00  0.1300247512471E+00
 0.8871932295552E-01 -0.1033566045343E+00  0.0000000000000E+00  0.1504646774383E+00
 0.8472847617975E-01 -0.9980774107212E-01  0.0000000000000E+00  0.1747123981395E+00
 0.8211473893190E-01 -0.9790801954593E-01  0.0000000000000E+00  0.2026804148488E+00
 0.8017756300345E-01 -0.9695338437327E-01  0.0000000000000E+00  0.2343947110381E+00
 0.7872957545028E-01 -0.9682820053172E-01  0.0000000000000E+00  0.2701342513476E+00
 0.7828063372919E-01 -0.9819759104447E-01  0.0000000000000E+00  0.3106710530793E+00
 0.1618360856086E+00 -0.2052611527583E+00  0.0000000000000E+00  0.5529368850168E+00
 0.1886498686048E+00 -0.2281261799969E+00  0.0000000000000E+00  0.4447658048789E+00
 0.2010767313601E+00 -0.2358493257216E+00  0.0000000000000E+00  0.3307313692669E+00
 0.1993226959075E+00 -0.2294069586904E+00  0.0000000000000E+00  0.2325297701736E+00
 0.1887179010537E+00 -0.2146275385666E+00  0.0000000000000E+00  0.1598841496526E+00
 0.1741464776594E+00 -0.1965445531663E+00  0.0000000000000E+00  0.1117022474852E+00
 0.1585151575729E+00 -0.1780920228776E+00  0.0000000000000E+00  0.8323647707841E-01
 0.1433230092624E+00 -0.1607209957681E+00  0.0000000000000E+00  0.6938712198827E-01
 0.1291282353823E+00 -0.1448734774988E+00  0.0000000000000E+00  0.6542523869100E-01
 0.1159344627397E+00 -0.1304353649061E+00  0.0000000000000E+00  0.6780637870957E-01
 0.1036440125442E+00 -0.1172122303060E+00  0.0000000000000E+00  0.7409382519833E-01
 0.9196037448412E-01 -0.1047733929922E+00  0.0000000000000E+00  0.8222581404053E-01
 0.8111532786099E-01 -0.9338700526993E-01  0.0000000000000E+00  0.9248838408019E-01
 0.7264902361370E-01 -0.8470106822387E-01  0.0000000000000E+00  0.1058691165143E+00
 0.6711976622173E-01 -0.7929271919489E-01  0.0000000000000E+00  0.1228782570940E+00
 0.6370566187291E-01 -0.7628411392965E-01  0.0000000000000E+00  0.1438953801854E+00
 0.6159504530362E-01 -0.7483347073943E-01  0.0000000000000E+00  0.1689072651209E+00
 0.6005583419826E-01 -0.7420658148123E-01  0.0000000000000E+00  0.1979784226609E+00
 0.5886042745016E-01 -0.7425701944197E-01  0.0000000000000E+00  0.2316438905216E+00
 0.5844959849396E-01 -0.7560463339444E-01  0.0000000000000E+00  0.2713224524573E+00
 0.1712090445928E+00 -0.2142786770855E+00  0.0000000000000E+00  0.5563124686215E+00
 0.1977958084001E+00 -0.2364376331252E+00  0.0000000000000E+00  0.4351258751134E+00
 0.2049963493234E+00 -0.2383232401035E+00  0.0000000000000E+00  0.3085453990172E+00
 0.1961145934440E+00 -0.2241744423576E+00  0.0000000000000E+00  0.2039044875498E+00
 0.1788691739682E+00 -0.2023287941662E+00  0.0000000000000E+00  0.1309662855400E+00
 0.1591882252092E+00 -0.1788956020643E+00  0.0000000000000E+00  0.8594321105267E-01
 0.1400985059784E+00 -0.1569109086548E+00  0.0000000000000E+00  0.6169985437640E-01
 0.1228353344002E+00 -0.1375064956925E+00  0.0000000000000E+00  0.5152909877356E-01
 0.1075733602032E+00 -0.1206804629904E+00  0.0000000000000E+00  0.4986849370019E-01
 0.9397299430730E-01 -0.1059334799510E+00  0.0000000000000E+00  0.5294404358882E-01
 0.8170422504818E-01 -0.9281578994163E-01  0.0000000000000E+00  0.5840761931594E-01
 0.7031558062971E-01 -0.8072983867052E-01  0.0000000000000E+00  0.6453685024042E-01
 0.6006190892327E-01 -0.6995619598847E-01  0.0000000000000E+00  0.7168969630362E-01
 0.5245915545534E-01 -0.6212848734062E-01  0.0000000000000E+00  0.8122858238875E-01
 0.4785596075234E-01 -0.5762187241447E-01  0.0000000000000E+00  0.9436442349757E-01
 0.4532920968144E-01 -0.5545077608964E-01  0.0000000000000E+00  0.1116850153564E+00
 0.4398007047303E-01 -0.5468606607371E-01  0.0000000000000E+00  0.1332137792732E+00
 0.4302864284866E-01 -0.5454700803333E-01  0.0000000000000E+00  0.1590163881935E+00
 0.4215345759606E-01 -0.5480058250773E-01  0.0000000000000E+00  0.1898412458056E+00
 0.4161677005653E-01 -0.5591077740482E-01  0.0000000000000E+00  0.2276706707523E+00
 0.1818310454697E+00 -0.2249067400668E+00  0.0000000000000E+00  0.5580629202915E+00
 0.2076852829639E+00 -0.2456649418527E+00  0.0000000000000E+00  0.4190731832628E+00
 0.2077564291536E+00 -0.2396240479013E+00  0.0000000000000E+00  0.2785611237275E+00
 0.1902724683561E+00 -0.2161501327707E+00  0.0000000000000E+00  0.1691409336268E+00
 0.1658996877456E+00 -0.1866916397562E+00  0.0000000000000E+00  0.9887206142599E-01
 0.1414333940021E+00 -0.1582561202369E+00  0.0000000000000E+00  0.5975934062407E-01
 0.1196454210880E+00 -0.1335688406630E+00  0.0000000000000E+00  0.4158141991517E-01
 0.1011895638683E+00 -0.1130814848353E+00  0.0000000000000E+00  0.3591221642632E-01
 0.8566982286163E-01 -0.9613970425519E-01  0.0000000000000E+00  0.3662283061581E-01
 0.7234208081744E-01 -0.8179609409304E-01  0.0000000000000E+00  0.4004902377003E-01
 0.6065250771238E-01 -0.6936106825436E-01  0.0000000000000E+00  0.4419164279849E-01
 0.5003254834842E-01 -0.5811586547036E-01  0.0000000000000E+00  0.4785534530683E-01
 0.4079628140408E-01 -0.4839068694626E-01  0.0000000000000E+00  0.5150064157528E-01
 0.3443047943763E-01 -0.4179915419367E-01  0.0000000000000E+00  0.5685771006035E-01
 0.3108189984082E-01 -0.3851925428585E-01  0.0000000000000E+00  0.6581009537983E-01
 0.2974793862150E-01 -0.3747952058106E-01  0.0000000000000E+00  0.7909232344776E-01
 0.2944307930524E-01 -0.3766472407429E-01  0.0000000000000E+00  0.9671319910454E-01
 0.2932973965283E-01 -0.3823743258191E-01  0.0000000000000E+00  0.1186813030058E+00
 0.2894945537284E-01 -0.3883092428316E-01  0.0000000000000E+00  0.1458695544028E+00
 0.2828534267556E-01 -0.3964849459867E-01  0.0000000000000E+00  0.1806516194025E+00
 0.1940004612801E+00 -0.2375927680626E+00  0.0000000000000E+00  0.5576626883870E+00
 0.2180170361294E+00 -0.2555540748830E+00  0.0000000000000E+00  0.3945015078862E+00
 0.2082999520616E+00 -0.2386508291000E+00  0.0000000000000E+00  0.2394044477373E+00
 0.1806101459809E+00 -0.2040538115226E+00  0.0000000000000E+00  0.1284885504023E+00
 0.1490054017763E+00 -0.1668325219351E+00  0.0000000000000E+00  0.6514683560387E-01
 0.1206073026996E+00 -0.1343237030968E+00  0.0000000000000E+00  0.3520389664060E-01
 0.9729833011872E-01 -0.1082252208876E+00  0.0000000000000E+00  0.2475513123539E-01
 0.7874425033818E-01 -0.8783840853289E-01  0.0000000000000E+00  0.2390996868050E-01
 0.6382721431761E-01 -0.7169235317879E-01  0.0000000000000E+00  0.2658416343836E-01
 0.5141379336117E-01 -0.5841857050589E-01  0.0000000000000E+00  0.2971459719788E-01
 0.4079273714406E-01 -0.4716941836717E-01  0.0000000000000E+00  0.3191747898979E-01
 0.3134515056679E-01 -0.3718062685509E-01  0.0000000000000E+00  0.3265734083194E-01
 0.2348543969672E-01 -0.2887367810616E-01  0.0000000000000E+00  0.3248396591023E-01
 0.1866734593918E-01 -0.2383539368673E-01  0.0000000000000E+00  0.3345211184996E-01
 0.1685479923418E-01 -0.2206118097708E-01  0.0000000000000E+00  0.3805187247372E-01
 0.1699444696374E-01 -0.2242336507407E-01  0.0000000000000E+00  0.4709286541762E-01
 0.1802207377290E-01 -0.2383076637401E-01  0.0000000000000E+00  0.6051843234171E-01
 0.1904657863849E-01 -0.2539375891106E-01  0.0000000000000E+00  0.7821317893986E-01
 0.1945259970587E-01 -0.2658647552160E-01  0.0000000000000E+00  0.1010448329053E+00
 0.1887065902512E-01 -0.2727022605826E-01  0.0000000000000E+00  0.1314961469424E+00
 0.2080350919617E+00 -0.2528956785418E+00  0.0000000000000E+00  0.5541425769969E+00
 0.2281151288611E+00 -0.2654918050298E+00  0.0000000000000E+00  0.3584200280702E+00
 0.2049830965082E+00 -0.2336630389998E+00  0.0000000000000E+00  0.1897158282507E+00
 0.1656138906058E+00 -0.1862152176462E+00  0.0000000000000E+00  0.8310467673905E-01
 0.1274589527633E+00 -0.1419258566329E+00  0.0000000000000E+00  0.3245225259851E-01
 0.9675397632159E-01 -0.1071407044653E+00  0.0000000000000E+00  0.1505079722215E-01
 0.7353421191921E-01 -0.8140536150446E-01  0.0000000000000E+00  0.1324937759640E-01
 0.5608024404817E-01 -0.6240817236474E-01  0.0000000000000E+00  0.1668065796810E-01
 0.4255122185559E-01 -0.4787636397995E-01  0.0000000000000E+00  0.2033260724771E-01
 0.3157043712212E-01 -0.3620239377843E-01  0.0000000000000E+00  0.2227265408905E-01
 0.2239383768155E-01 -0.2652270145556E-01  0.0000000000000E+00  0.2188230158625E-01
 0.1443155557942E-01 -0.1811425131836E-01  0.0000000000000E+00  0.1931038272378E-01
 0.8231190591775E-02 -0.1152120146391E-01  0.0000000000000E+00  0.1512228645865E-01
 0.5201630769920E-02 -0.8285575121644E-02  0.0000000000000E+00  0.1162661384539E-01
 0.5148407074142E-02 -0.8238402451101E-02  0.0000000000000E+00  0.1183348529201E-01
 0.6998496589278E-02 -0.1022902888252E-01  0.0000000000000E+00  0.1656276318229E-01
 0.9623765601457E-02 -0.1311008704576E-01  0.0000000000000E+00  0.2566106161238E-01
 0.1210532287304E-01 -0.1596770636308E-01  0.0000000000000E+00  0.3883260829216E-01
 0.1369020835523E-01 -0.1813000304840E-01  0.0000000000000E+00  0.5678464473477E-01
 0.1363891529798E-01 -0.1908706423143E-01  0.0000000000000E+00  0.8170770860474E-01
 0.2241908481343E+00 -0.2714912667912E+00  0.0000000000000E+00  0.5457009372696E+00
 0.2365770572821E+00 -0.2741494066290E+00  0.0000000000000E+00  0.3065296545415E+00
 0.1952619664947E+00 -0.2219031218410E+00  0.0000000000000E+00  0.1285812476851E+00
 0.1435187489529E+00 -0.1606090453281E+00  0.0000000000000E+00  0.3589817901050E-01
 0.1009438383975E+00 -0.1115712278611E+00  0.0000000000000E+00  0.5022829778548E-02
 0.7051720459410E-01 -0.7741254198895E-01  0.0000000000000E+00  0.2635626561781E-02
 0.4925674385236E-01 -0.5410633746296E-01  0.0000000000000E+00  0.8795362614632E-02
 0.3395604952924E-01 -0.3760116569858E-01  0.0000000000000E+00  0.1481437396759E-01
 0.2236811581002E-01 -0.2524336950744E-01  0.0000000000000E+00  0.1799191907857E-01
 0.1314672132541E-01 -0.1549373360274E-01  0.0000000000000E+00  0.1777194520690E-01
 0.5655822123941E-02 -0.7628308824992E-02  0.0000000000000E+00  0.1422988587575E-01
-0.5993916193212E-03 -0.1034331048973E-02  0.0000000000000E+00  0.8100416885480E-02
-0.4927118129640E-02  0.3614526882774E-02  0.0000000000000E+00 -0.1672933914527E-03
-0.5991850335762E-02  0.4859439731659E-02  0.0000000000000E+00 -0.8089210621380E-02
-0.4122215514389E-02  0.3018627096509E-02  0.0000000000000E+00 -0.1222257593483E-01
-0.3851393664620E-03 -0.7643663359465E-03  0.0000000000000E+00 -0.1177779377137E-01
 0.4043890105568E-02 -0.5311434747485E-02  0.0000000000000E+00 -0.6994560865250E-02
 0.8271253500022E-02 -0.9744449252245E-02  0.0000000000000E+00  0.1633078113918E-02
 0.1148246538548E-01 -0.1331527450035E-01  0.0000000000000E+00  0.1449737318619E-01
 0.1264119045764E-01 -0.1520130252048E-01  0.0000000000000E+00  0.3298880936055E-01
 0.2424171446783E+00 -0.2941250887923E+00  0.0000000000000E+00  0.5288885357108E+00
 0.2404997189599E+00 -0.2786880719442E+00  0.0000000000000E+00  0.2325454855326E+00
 0.1752657033997E+00 -0.1989811645663E+00  0.0000000000000E+00  0.5675795922308E-01
 0.1127504145004E+00 -0.1252917746350E+00  0.0000000000000E+00 -0.6986189044401E-02
 0.7023783618785E-01 -0.7655788991916E-01  0.0000000000000E+00 -0.1107776793586E-01
 0.4344082859824E-01 -0.4689372773028E-01  0.0000000000000E+00  0.1012061403887E-02
 0.2570106304378E-01 -0.2765379695025E-01  0.0000000000000E+00  0.1202490823273E-01
 0.1314509877611E-01 -0.1422945610637E-01  0.0000000000000E+00  0.1808059208060E-01
 0.3717971304060E-02 -0.4245346591604E-02  0.0000000000000E+00  0.1922423392955E-01
-0.3628743233872E-02  0.3475806176512E-02  0.0000000000000E+00  0.1603892813038E-01
-0.9316830089725E-02  0.9407431988247E-02  0.0000000000000E+00  0.9011094953849E-02
-0.1371439437557E-01  0.1402012863796E-01  0.0000000000000E+00 -0.7183468655922E-03
-0.1600250391361E-01  0.1653367405207E-01  0.0000000000000E+00 -0.1299935789340E-01
-0.1497232274397E-01  0.1564198208318E-01  0.0000000000000E+00 -0.2523497875570E-01
-0.1106555045744E-01  0.1180290329052E-01  0.0000000000000E+00 -0.3362184445271E-01
-0.5334177827007E-02  0.6139494922699E-02  0.0000000000000E+00 -0.3740505713616E-01
 0.1006288304343E-02 -0.1643150220760E-03  0.0000000000000E+00 -0.3683066900735E-01
 0.7170128389955E-02 -0.6359882745932E-02  0.0000000000000E+00 -0.3253879613238E-01
 0.1243088959561E-01 -0.1177252632330E-01  0.0000000000000E+00 -0.2455946259265E-01
 0.1565712132159E-01 -0.1544637896018E-01  0.0000000000000E+00 -0.1289538174642E-01
 0.2613649242354E+00 -0.3212886872244E+00  0.0000000000000E+00  0.4964529452117E+00
 0.2337084800800E+00 -0.2726693402721E+00  0.0000000000000E+00  0.1274217402958E+00
 0.1394075613361E+00 -0.1581889179428E+00  0.0000000000000E+00 -0.2010558640350E-01
 0.7352321252604E-01 -0.7995698209064E-01  0.0000000000000E+00 -0.3359278512643E-01
 0.3835446420031E-01 -0.4050758174321E-01  0.0000000000000E+00 -0.9403970396423E-02
 0.1770775453199E-01 -0.1792579914138E-01  0.0000000000000E+00  0.1080556048883E-01
 0.4034834939636E-02 -0.3277256340749E-02  0.0000000000000E+00  0.2202397410102E-01
-0.5761342143716E-02  0.7104693354089E-02  0.0000000000000E+00  0.2551631386050E-01
-0.1313323335722E-01  0.1485098328889E-01  0.0000000000000E+00  0.2339051488171E-01
-0.1866876168249E-01  0.2062216285754E-01  0.0000000000000E+00  0.1678450383476E-01
-0.2253111640675E-01  0.2459670073102E-01  0.0000000000000E+00  0.6256650585659E-02
-0.2495603223900E-01  0.2708841992935E-01  0.0000000000000E+00 -0.6855269228585E-02
-0.2504383947450E-01  0.2727078013410E-01  0.0000000000000E+00 -0.2296542024113E-01
-0.2180342231504E-01  0.2410467379348E-01  0.0000000000000E+00 -0.3938345638681E-01
-0.1577372184993E-01  0.1819149397057E-01  0.0000000000000E+00 -0.5198027684148E-01
-0.8004372595199E-02  0.1062915979344E-01  0.0000000000000E+00 -0.5999697836576E-01
 0.2243945069615E-03  0.2623776848676E-02  0.0000000000000E+00 -0.6354226668461E-01
 0.8331525393276E-02 -0.5342572485018E-02  0.0000000000000E+00 -0.6319930074699E-01
 0.1593099669004E-01 -0.1291344852137E-01  0.0000000000000E+00 -0.5944293334131E-01
 0.2216462118559E-01 -0.1935792265967E-01  0.0000000000000E+00 -0.5428640067525E-01
 0.2756050330492E+00 -0.3521015557408E+00  0.0000000000000E+00  0.4317921293433E+00
 0.2009168136310E+00 -0.2398947894996E+00  0.0000000000000E+00 -0.2216966291710E-01
 0.8276854002367E-01 -0.9029388444674E-01  0.0000000000000E+00 -0.7882459305977E-01
 0.3278972479259E-01 -0.3384451876344E-01  0.0000000000000E+00 -0.2742535949647E-01
 0.9532286530937E-02 -0.7887605303937E-02  0.0000000000000E+00  0.1004242685317E-01
-0.4970318297588E-02  0.7672315739653E-02  0.0000000000000E+00  0.2957118389293E-01
-0.1499256538460E-01  0.1827906189889E-01  0.0000000000000E+00  0.3677377372674E-01
-0.2246855825447E-01  0.2611247400888E-01  0.0000000000000E+00  0.3585762022374E-01
-0.2811006649320E-01  0.3196932256012E-01  0.0000000000000E+00  0.2975575668973E-01
-0.3203758287581E-01  0.3602103202954E-01  0.0000000000000E+00  0.1967759670142E-01
-0.3412051802190E-01  0.3808383780293E-01  0.0000000000000E+00  0.6032564381069E-02
-0.3444997589315E-01  0.3830308840518E-01  0.0000000000000E+00 -0.9885977783956E-02
-0.3211016597635E-01  0.3586014745580E-01  0.0000000000000E+00 -0.2952491585240E-01
-0.2650339960447E-01  0.3023606362710E-01  0.0000000000000E+00 -0.5009655167559E-01
-0.1827986235732E-01  0.2220370890053E-01  0.0000000000000E+00 -0.6702149432707E-01
-0.8500400912815E-02  0.1280890739561E-01  0.0000000000000E+00 -0.7939405768460E-01
 0.1494517233301E-02  0.3242468717181E-02  0.0000000000000E+00 -0.8709035741898E-01
 0.1129245860247E-01 -0.6177470374266E-02  0.0000000000000E+00 -0.9041252707381E-01
 0.2116231992475E-01 -0.1593578340987E-01  0.0000000000000E+00 -0.8968350612340E-01
 0.3134880424232E-01 -0.2617407225677E-01  0.0000000000000E+00 -0.8978621924478E-01
 0.2347835376276E+00 -0.3671817487289E+00  0.0000000000000E+00  0.2600526209963E+00
 0.1096592903555E+00 -0.1184498112333E+00  0.0000000000000E+00 -0.1950790038143E+00
 0.2196641316859E-01 -0.2243710937638E-01  0.0000000000000E+00 -0.6745563490538E-01
-0.1150896061737E-03  0.3769635140501E-02  0.0000000000000E+00  0.7780533988868E-02
-0.1417943768117E-01  0.1905224518879E-01  0.0000000000000E+00  0.4115517311364E-01
-0.2376481464729E-01  0.2913364886727E-01  0.0000000000000E+00  0.5346627640450E-01
-0.3115989816649E-01  0.3680258902914E-01  0.0000000000000E+00  0.5411186215704E-01
-0.3696538753473E-01  0.4280170528597E-01  0.0000000000000E+00  0.4793150040558E-01
-0.4125977146851E-01  0.4717217037222E-01  0.0000000000000E+00  0.3772930310988E-01
-0.4390631998604E-01  0.4979678772322E-01  0.0000000000000E+00  0.2421988296005E-01
-0.4444574800604E-01  0.5031628715911E-01  0.0000000000000E+00  0.8327606424762E-02
-0.4245849987936E-01  0.4794075780733E-01  0.0000000000000E+00 -0.8882705390175E-02
-0.3716203025239E-01  0.4218938505663E-01  0.0000000000000E+00 -0.3177648571960E-01
-0.2892404513500E-01  0.3384955013636E-01  0.0000000000000E+00 -0.5700222840076E-01
-0.1853155654663E-01  0.2379565635676E-01  0.0000000000000E+00 -0.7866781403449E-01
-0.6902727812164E-02  0.1274964596767E-01  0.0000000000000E+00 -0.9556881829067E-01
 0.4682568532720E-02  0.1837954012177E-02  0.0000000000000E+00 -0.1075096732684E+00
 0.1590970669187E-01 -0.8796473266977E-02  0.0000000000000E+00 -0.1145187599695E+00
 0.2722175319761E-01 -0.1963314114768E-01  0.0000000000000E+00 -0.1162807950332E+00
 0.4170978175585E-01 -0.3473129309370E-01  0.0000000000000E+00 -0.1177661097772E+00
 0.2214203965721E+00 -0.2555206540156E+00  0.0000000000000E+00 -0.4814776540486E+00
 0.1986227437002E+00 -0.2299007429507E+00  0.0000000000000E+00 -0.4727233254953E+00
 0.1763526742750E+00 -0.2057709859828E+00  0.0000000000000E+00 -0.4606156470348E+00
 0.1546578532598E+00 -0.1822804049681E+00  0.0000000000000E+00 -0.4448966806350E+00
 0.1334389555233E+00 -0.1592485969175E+00  0.0000000000000E+00 -0.4252751504237E+00
 0.1129345253094E+00 -0.1368564629320E+00  0.0000000000000E+00 -0.4017124881228E+00
 0.9345612030179E-01 -0.1153977583633E+00  0.0000000000000E+00 -0.3742543121540E+00
 0.7534526716731E-01 -0.9520961609149E-01  0.0000000000000E+00 -0.3430419082126E+00
 0.5894619026395E-01 -0.7664045051238E-01  0.0000000000000E+00 -0.3083268411319E+00
 0.4459151304162E-01 -0.6003214127642E-01  0.0000000000000E+00 -0.2704905522027E+00
 0.3258768509761E-01 -0.4570412970411E-01  0.0000000000000E+00 -0.2300590567192E+00
 0.2319754591818E-01 -0.3393542220135E-01  0.0000000000000E+00 -0.1877098002766E+00
 0.1661912844490E-01 -0.2494319532245E-01  0.0000000000000E+00 -0.1442666817577E+00
 0.1296190372744E-01 -0.1885877066446E-01  0.0000000000000E+00 -0.1006788851230E+00
 0.1222393170494E-01 -0.1570413577664E-01  0.0000000000000E+00 -0.5798016940936E-01
 0.1427660673524E-01 -0.1537533965520E-01  0.0000000000000E+00 -0.1722951257880E-01
 0.1886498110620E-01 -0.1764210900835E-01  0.0000000000000E+00  0.2055346399377E-01
 0.2564077325159E-01 -0.2217565576840E-01  0.0000000000000E+00  0.5443515161975E-01
 0.3420783099125E-01 -0.2862139150168E-01  0.0000000000000E+00  0.8348361363089E-01
 0.4465789046734E-01 -0.3694964773704E-01  0.0000000000000E+00  0.1065644713025E+00
 0.2409208895930E+00 -0.2766968770509E+00  0.0000000000000E+00 -0.5065749935308E+00
 0.2196921665804E+00 -0.2537072360324E+00  0.0000000000000E+00 -0.4984063893954E+00
 0.1967367912474E+00 -0.2288046105179E+00  0.0000000000000E+00 -0.4875533942567E+00
 0.1735228136609E+00 -0.2037742524173E+00  0.0000000000000E+00 -0.4745029612962E+00
 0.1506483867861E+00 -0.1790538065546E+00  0.0000000000000E+00 -0.4580639859763E+00
 0.1283918944482E+00 -0.1548825696136E+00  0.0000000000000E+00 -0.4376618998981E+00
 0.1070367617039E+00 -0.1315140121232E+00  0.0000000000000E+00 -0.4130052480202E+00
 0.8689892215823E-01 -0.1092509177309E+00  0.0000000000000E+00 -0.3840153934935E+00
 0.6833175440366E-01 -0.8844246889997E-01  0.0000000000000E+00 -0.3507835813268E+00
 0.5171488258199E-01 -0.6947102424227E-01  0.0000000000000E+00 -0.3135646714734E+00
 0.3743804409073E-01 -0.5273464733085E-01  0.0000000000000E+00 -0.2727860410218E+00
 0.2587963423630E-01 -0.3862532034766E-01  0.0000000000000E+00 -0.2290624273063E+00
 0.1737928596055E-01 -0.2750158331932E-01  0.0000000000000E+00 -0.1832082166196E+00
 0.1220416959032E-01 -0.1965485002276E-01  0.0000000000000E+00 -0.1362383151614E+00
 0.1051100956232E-01 -0.1527072577028E-01  0.0000000000000E+00 -0.8934680163870E-01
 0.1231020490966E-01 -0.1439119485935E-01  0.0000000000000E+00 -0.4385218702884E-01
 0.1744689737759E-01 -0.1689105791747E-01  0.0000000000000E+00 -0.1102820345470E-02
 0.2561571271598E-01 -0.2249027650405E-01  0.0000000000000E+00  0.3764273173241E-01
 0.3647578349869E-01 -0.3083941760329E-01  0.0000000000000E+00  0.7135402593190E-01
 0.4974994191789E-01 -0.4163521537299E-01  0.0000000000000E+00  0.9965250394654E-01
 0.2610548473719E+00 -0.2988283384403E+00  0.0000000000000E+00 -0.5254847582545E+00
 0.2404298799863E+00 -0.2767366207641E+00  0.0000000000000E+00 -0.5227138365815E+00
 0.2180001144674E+00 -0.2526831988586E+00  0.0000000000000E+00 -0.5156102685177E+00
 0.1945076175018E+00 -0.2274655986663E+00  0.0000000000000E+00 -0.5055469933844E+00
 0.1707143560817E+00 -0.2018887009753E+00  0.0000000000000E+00 -0.4922605324773E+00
 0.1471113186169E+00 -0.1764055189907E+00  0.0000000000000E+00 -0.4751101203012E+00
 0.1240693090778E+00 -0.1513659256436E+00  0.0000000000000E+00 -0.4535995483660E+00
 0.1019473867927E+00 -0.1271123910640E+00  0.0000000000000E+00 -0.4274074734052E+00
 0.8113112133940E-01 -0.1040210999911E+00  0.0000000000000E+00 -0.3963907200559E+00
 0.6204589523978E-01 -0.8251395583652E-01  0.0000000000000E+00 -0.3605841413529E+00
 0.4515425471583E-01 -0.6305583718529E-01  0.0000000000000E+00 -0.3202140627189E+00
 0.3094276181689E-01 -0.4614173667501E-01  0.0000000000000E+00 -0.2757233534347E+00
 0.1989861475181E-01 -0.3227416409977E-01  0.0000000000000E+00 -0.2278033593565E+00
 0.1247457262927E-01 -0.2192901903524E-01  0.0000000000000E+00 -0.1774241199093E+00
 0.9040503635196E-02 -0.1550770868629E-01  0.0000000000000E+00 -0.1258487073339E+00
 0.9822969963174E-02 -0.1327556521376E-01  0.0000000000000E+00 -0.7460862611461E-01
 0.1484210690200E-01 -0.1529483587907E-01  0.0000000000000E+00 -0.2540919968383E-01
 0.2387561402587E-01 -0.2137811433053E-01  0.0000000000000E+00  0.2006055978738E-01
 0.3646285415158E-01 -0.3108921597116E-01  0.0000000000000E+00  0.6042641585788E-01
 0.5192328355911E-01 -0.4377454250319E-01  0.0000000000000E+00  0.9488586918901E-01
 0.2826556708365E+00 -0.3225389318456E+00  0.0000000000000E+00 -0.5411342619721E+00
 0.2623308938195E+00 -0.3009961219033E+00  0.0000000000000E+00 -0.5435216477208E+00
 0.2404204184718E+00 -0.2776899343047E+00  0.0000000000000E+00 -0.5413511112851E+00
 0.2171746979073E+00 -0.2529146037323E+00  0.0000000000000E+00 -0.5355172204513E+00
 0.1931058614482E+00 -0.2271923489845E+00  0.0000000000000E+00 -0.5261424095636E+00
 0.1687051562271E+00 -0.2010122345126E+00  0.0000000000000E+00 -0.5128429819485E+00
 0.1443923913008E+00 -0.1747756688837E+00  0.0000000000000E+00 -0.4950998753719E+00
 0.1205627949481E+00 -0.1488618469963E+00  0.0000000000000E+00 -0.4724464542069E+00
 0.9763113473654E-01 -0.1236719452480E+00  0.0000000000000E+00 -0.4445272523692E+00
 0.7605728678501E-01 -0.9965624493112E-01  0.0000000000000E+00 -0.4111298011434E+00
 0.5635862832961E-01 -0.7732710257425E-01  0.0000000000000E+00 -0.3722140881418E+00
 0.3911116352281E-01 -0.5726109192147E-01  0.0000000000000E+00 -0.3279523697850E+00
 0.2493938712128E-01 -0.4009038344853E-01  0.0000000000000E+00 -0.2787825185821E+00
 0.1449173763740E-01 -0.2648035503091E-01  0.0000000000000E+00 -0.2254731123747E+00
 0.8395600158428E-02 -0.1708718494264E-01  0.0000000000000E+00 -0.1691913469683E+00
 0.7183416230006E-02 -0.1248634233137E-01  0.0000000000000E+00 -0.1115515552967E+00
 0.1118436414775E-01 -0.1306330852494E-01  0.0000000000000E+00 -0.5459630320789E-01
 0.2039158658104E-01 -0.1887379925234E-01  0.0000000000000E+00 -0.6295067349571E-03
 0.3435612593585E-01 -0.2952548640073E-01  0.0000000000000E+00  0.4813221532319E-01
 0.5220424613419E-01 -0.4417990750023E-01  0.0000000000000E+00  0.8997030782956E-01
 0.3055842870179E+00 -0.3476688793827E+00  0.0000000000000E+00 -0.5534780672369E+00
 0.2857158382848E+00 -0.3268034487839E+00  0.0000000000000E+00 -0.5605537103525E+00
 0.2643935938283E+00 -0.3043182186706E+00  0.0000000000000E+00 -0.5634316003957E+00
 0.2416376352332E+00 -0.2802446976671E+00  0.0000000000000E+00 -0.5624904895683E+00
 0.2177312119603E+00 -0.2548725792257E+00  0.0000000000000E+00 -0.5578072294305E+00
 0.1930449956911E+00 -0.2285655950283E+00  0.0000000000000E+00 -0.5491076117638E+00
 0.1679582594102E+00 -0.2016896434364E+00  0.0000000000000E+00 -0.5359133675896E+00
 0.1428530443758E+00 -0.1746089413994E+00  0.0000000000000E+00 -0.5176834655345E+00
 0.1181376526156E+00 -0.1477140958267E+00  0.0000000000000E+00 -0.4939003260931E+00
 0.9427275538097E-01 -0.1214493935673E+00  0.0000000000000E+00 -0.4641192925079E+00
 0.7179269358381E-01 -0.9633532084480E-01  0.0000000000000E+00 -0.4280103553126E+00
 0.5132098607815E-01 -0.7298530467743E-01  0.0000000000000E+00 -0.3854071885144E+00
 0.3357868558494E-01 -0.5211591526652E-01  0.0000000000000E+00 -0.3363740803973E+00
 0.1938195451090E-01 -0.3454730457669E-01  0.0000000000000E+00 -0.2812981503808E+00
 0.9620581683869E-02 -0.2118616297344E-01  0.0000000000000E+00 -0.2210112569069E+00
 0.5201717338952E-02 -0.1297578293635E-01  0.0000000000000E+00 -0.1569377575754E+00
 0.6931304728097E-02 -0.1078575316773E-01  0.0000000000000E+00 -0.9124018006623E-01
 0.1530018863414E-01 -0.1520015480748E-01  0.0000000000000E+00 -0.2686353961227E-01
 0.3019802765190E-01 -0.2620980840225E-01  0.0000000000000E+00  0.3274105439188E-01
 0.5072279622951E-01 -0.4298769048977E-01  0.0000000000000E+00  0.8434335313286E-01
 0.3296109199726E+00 -0.3739624015266E+00  0.0000000000000E+00 -0.5620752796117E+00
 0.3105068458563E+00 -0.3540863808134E+00  0.0000000000000E+00 -0.5733674626733E+00
 0.2899813758028E+00 -0.3326367377781E+00  0.0000000000000E+00 -0.5810691152428E+00
 0.2679667882868E+00 -0.3095432951632E+00  0.0000000000000E+00 -0.5851719417981E+00
 0.2445912715051E+00 -0.2849295589710E+00  0.0000000000000E+00 -0.5856000099798E+00
 0.2200946849430E+00 -0.2590252916839E+00  0.0000000000000E+00 -0.5820695302544E+00
 0.1947673723490E+00 -0.2321044801656E+00  0.0000000000000E+00 -0.5741130042412E+00
 0.1689302399529E+00 -0.2044677927702E+00  0.0000000000000E+00 -0.5611495501984E+00
 0.1429421771877E+00 -0.1764513745500E+00  0.0000000000000E+00 -0.5425476759463E+00
 0.1172201556649E+00 -0.1484484577965E+00  0.0000000000000E+00 -0.5176715442249E+00
 0.9226372897498E-01 -0.1209347251365E+00  0.0000000000000E+00 -0.4859195116868E+00
 0.6868106834443E-01 -0.9449532573605E-01  0.0000000000000E+00 -0.4467681370772E+00
 0.4721561755025E-01 -0.6985294999586E-01  0.0000000000000E+00 -0.3998341578625E+00
 0.2877163222172E-01 -0.4789584166529E-01  0.0000000000000E+00 -0.3449687101949E+00
 0.1443343906293E-01 -0.2970153081117E-01  0.0000000000000E+00 -0.2824022054599E+00
 0.5464690303991E-02 -0.1654445777426E-01  0.0000000000000E+00 -0.2129646102562E+00
 0.3255288703373E-02 -0.9857765592401E-02  0.0000000000000E+00 -0.1384085171878E+00
 0.9138113041186E-02 -0.1107764276273E-01  0.0000000000000E+00 -0.6183790965831E-01
 0.2393503056443E-01 -0.2120138369496E-01  0.0000000000000E+00  0.1199481754621E-01
 0.4725625939175E-01 -0.4000793466527E-01  0.0000000000000E+00  0.7731440012321E-01
 0.3544621673046E+00 -0.4011231681769E+00  0.0000000000000E+00 -0.5664179925765E+00
 0.3364638768370E+00 -0.3825904671892E+00  0.0000000000000E+00 -0.5814665357168E+00
 0.3170216601072E+00 -0.3624793029408E+00  0.0000000000000E+00 -0.5935841414754E+00
 0.2960458458205E+00 -0.3406890188756E+00  0.0000000000000E+00 -0.6025370008796E+00
 0.2735733290958E+00 -0.3172449636723E+00  0.0000000000000E+00 -0.6081081055801E+00
 0.2497375439623E+00 -0.2922653595028E+00  0.0000000000000E+00 -0.6099671179483E+00
 0.2247328662232E+00 -0.2659249072250E+00  0.0000000000000E+00 -0.6076393332291E+00
 0.1987963372642E+00 -0.2384365642071E+00  0.0000000000000E+00 -0.6005243849117E+00
 0.1722081375922E+00 -0.2100527276087E+00  0.0000000000000E+00 -0.5879266086486E+00
 0.1453053893765E+00 -0.1810794728117E+00  0.0000000000000E+00 -0.5690817588199E+00
 0.1185048901454E+00 -0.1518996091529E+00  0.0000000000000E+00 -0.5431794267436E+00
 0.9233315940904E-01 -0.1230028878764E+00  0.0000000000000E+00 -0.5093873060941E+00
 0.6746454537229E-01 -0.9502439035964E-01  0.0000000000000E+00 -0.4668873131665E+00
 0.4476952792854E-01 -0.6879359622878E-01  0.0000000000000E+00 -0.4149380449227E+00
 0.2537553336414E-01 -0.4539725666797E-01  0.0000000000000E+00 -0.3529871542198E+00
 0.1074042751956E-01 -0.2625800354265E-01  0.0000000000000E+00 -0.2808756579343E+00
 0.2728224876771E-02 -0.1322326773946E-01  0.0000000000000E+00 -0.1992134446004E+00
 0.3641758074043E-02 -0.8629897077508E-02  0.0000000000000E+00 -0.1100753664675E+00
 0.1598776829139E-01 -0.1517561693968E-01  0.0000000000000E+00 -0.1829229858357E-01
 0.4134041384148E-01 -0.3484816918891E-01  0.0000000000000E+00  0.6721583491866E-01
 0.3798472817222E+00 -0.4288393762691E+00  0.0000000000000E+00 -0.5660706726626E+00
 0.3632763266384E+00 -0.4119883530632E+00  0.0000000000000E+00 -0.5843795052221E+00
 0.3452268447175E+00 -0.3935453279612E+00  0.0000000000000E+00 -0.6003785638893E+00
 0.3256142091859E+00 -0.3734104719874E+00  0.0000000000000E+00 -0.6137284946888E+00
 0.3044273425938E+00 -0.3515568158429E+00  0.0000000000000E+00 -0.6241238409531E+00
 0.2817259509537E+00 -0.3280254178209E+00  0.0000000000000E+00 -0.6311957789354E+00
 0.2576240219379E+00 -0.3029076090884E+00  0.0000000000000E+00 -0.6344671632324E+00
 0.2322776215099E+00 -0.2763323176247E+00  0.0000000000000E+00 -0.6333429580163E+00
 0.2058829688210E+00 -0.2484638787017E+00  0.0000000000000E+00 -0.6271150820647E+00
 0.1786847517394E+00 -0.2195100903835E+00  0.0000000000000E+00 -0.6149684349880E+00
 0.1509935100011E+00 -0.1897390680623E+00  0.0000000000000E+00 -0.5959831271267E+00
 0.1232122199204E+00 -0.1595049787943E+00  0.0000000000000E+00 -0.5691333800386E+00
 0.9587445860803E-01 -0.1292849481872E+00  0.0000000000000E+00 -0.5332870307959E+00
 0.6969943160036E-01 -0.9973237746377E-01  0.0000000000000E+00 -0.4872134002503E+00
 0.4567329497307E-01 -0.7175606819172E-01  0.0000000000000E+00 -0.4296145129419E+00
 0.2517278025604E-01 -0.4664143285568E-01  0.0000000000000E+00 -0.3592112436987E+00
 0.1015866614457E-01 -0.2624258095069E-01  0.0000000000000E+00 -0.2749573975075E+00
 0.3480735619587E-02 -0.1329477331060E-01  0.0000000000000E+00 -0.1765661366306E+00
 0.9358998450329E-02 -0.1193984405280E-01  0.0000000000000E+00 -0.6591040845823E-01
 0.3342198220858E-01 -0.2823215650040E-01  0.0000000000000E+00  0.4869086368700E-01
 0.4054578032621E+00 -0.4567795736584E+00  0.0000000000000E+00 -0.5606792318828E+00
 0.3905879106558E+00 -0.4419019548307E+00  0.0000000000000E+00 -0.5816850024067E+00
 0.3742232500493E+00 -0.4254406903902E+00  0.0000000000000E+00 -0.6009140984699E+00
 0.3562924067480E+00 -0.4073079117555E+00  0.0000000000000E+00 -0.6180002017786E+00
 0.3367633675745E+00 -0.3874542059745E+00  0.0000000000000E+00 -0.6325978969206E+00
 0.3156523200319E+00 -0.3658757428094E+00  0.0000000000000E+00 -0.6443207534682E+00
 0.2930186616163E+00 -0.3426082054814E+00  0.0000000000000E+00 -0.6527010032793E+00
 0.2689585908225E+00 -0.3177195608911E+00  0.0000000000000E+00 -0.6571698105262E+00
 0.2436031712408E+00 -0.2913074267235E+00  0.0000000000000E+00 -0.6570482563438E+00
 0.2171227919399E+00 -0.2635027024640E+00  0.0000000000000E+00 -0.6515398389879E+00
 0.1897385397640E+00 -0.2344797949535E+00  0.0000000000000E+00 -0.6397184621988E+00
 0.1617414572238E+00 -0.2044741848091E+00  0.0000000000000E+00 -0.6205084376463E+00
 0.1335223936926E+00 -0.1738097652584E+00  0.0000000000000E+00 -0.5926542730810E+00
 0.1056182437537E+00 -0.1429412734421E+00  0.0000000000000E+00 -0.5546782756979E+00
 0.7878588267938E-01 -0.1125222605648E+00  0.0000000000000E+00 -0.5048240254143E+00
 0.5412608654781E-01 -0.8351913844385E-01  0.0000000000000E+00 -0.4409850270818E+00
 0.3330400243057E-01 -0.5741403823359E-01  0.0000000000000E+00 -0.3606240098549E+00
 0.1897473167151E-01 -0.3659622259058E-01  0.0000000000000E+00 -0.2607213519721E+00
 0.1570881760841E-01 -0.2520466054184E-01  0.0000000000000E+00 -0.1378918778396E+00
 0.3259358584818E-01 -0.3155876964476E-01  0.0000000000000E+00  0.9741184957106E-02
 0.4309584922091E+00 -0.4845787387778E+00  0.0000000000000E+00 -0.5499874744255E+00
 0.4179837228802E+00 -0.4718837761142E+00  0.0000000000000E+00 -0.5730234970884E+00
 0.4035319832408E+00 -0.4576508565715E+00  0.0000000000000E+00 -0.5947112740943E+00
 0.3875416815157E+00 -0.4418034924556E+00  0.0000000000000E+00 -0.6146932333395E+00
 0.3699741383943E+00 -0.4242864434707E+00  0.0000000000000E+00 -0.6326111870977E+00
 0.3508240337275E+00 -0.4050754063840E+00  0.0000000000000E+00 -0.6480716901009E+00
 0.3301206056780E+00 -0.3841773160022E+00  0.0000000000000E+00 -0.6606159669979E+00
 0.3079259753755E+00 -0.3616278742968E+00  0.0000000000000E+00 -0.6696997200593E+00
 0.2843349825589E+00 -0.3374905675231E+00  0.0000000000000E+00 -0.6746791913032E+00
 0.2594786778165E+00 -0.3118591879427E+00  0.0000000000000E+00 -0.6747977891338E+00
 0.2335325210605E+00 -0.2848647283202E+00  0.0000000000000E+00 -0.6691678495368E+00
 0.2067303377667E+00 -0.2566874823643E+00  0.0000000000000E+00 -0.6567423732084E+00
 0.1793860226140E+00 -0.2275760092321E+00  0.0000000000000E+00 -0.6362706206975E+00
 0.1519269492257E+00 -0.1978763620253E+00  0.0000000000000E+00 -0.6062283136490E+00
 0.1249467423785E+00 -0.1680781687338E+00  0.0000000000000E+00 -0.5647062236749E+00
 0.9929248600952E-01 -0.1388903986454E+00  0.0000000000000E+00 -0.5092260087396E+00
 0.7621774694006E-01 -0.1113730750432E+00  0.0000000000000E+00 -0.4364184969681E+00
 0.5767711499247E-01 -0.8718475828384E-01  0.0000000000000E+00 -0.3414079728978E+00
 0.4695307148838E-01 -0.6909944755059E-01  0.0000000000000E+00 -0.2164929408883E+00
 0.5069126826434E-01 -0.6240629353187E-01  0.0000000000000E+00 -0.4692258864628E-01
 0.4560009835244E+00 -0.5118609347945E+00  0.0000000000000E+00 -0.5339308570320E+00
 0.4450275588995E+00 -0.5014632995817E+00  0.0000000000000E+00 -0.5582419519366E+00
 0.4326218676073E+00 -0.4896042043780E+00  0.0000000000000E+00 -0.5815292183987E+00
 0.4187255676043E+00 -0.4762130878365E+00  0.0000000000000E+00 -0.6034459181458E+00
 0.4032959684889E+00 -0.4612334327234E+00  0.0000000000000E+00 -0.6236252263086E+00
 0.3863147062754E+00 -0.4446309498790E+00  0.0000000000000E+00 -0.6416596428671E+00
 0.3677913089894E+00 -0.4263965716926E+00  0.0000000000000E+00 -0.6570789127974E+00
 0.3477643423311E+00 -0.4065469880315E+00  0.0000000000000E+00 -0.6693310868331E+00
 0.3263027253632E+00 -0.3851253213198E+00  0.0000000000000E+00 -0.6777657983646E+00
 0.3035088128586E+00 -0.3622034607746E+00  0.0000000000000E+00 -0.6816162251626E+00
 0.2795240455513E+00 -0.3378867594527E+00  0.0000000000000E+00 -0.6799751784080E+00
 0.2545376148162E+00 -0.3123214072220E+00  0.0000000000000E+00 -0.6717597673892E+00
 0.2287985665264E+00 -0.2857047190169E+00  0.0000000000000E+00 -0.6556569764470E+00
 0.2026318909925E+00 -0.2582985939760E+00  0.0000000000000E+00 -0.6300379565084E+00
 0.1764591157341E+00 -0.2304461784129E+00  0.0000000000000E+00 -0.5928195461571E+00
 0.1508229897451E+00 -0.2025904669808E+00  0.0000000000000E+00 -0.5412321184809E+00
 0.1264118805074E+00 -0.1752888196709E+00  0.0000000000000E+00 -0.4714094934406E+00
 0.1040593935858E+00 -0.1491975757068E+00  0.0000000000000E+00 -0.3776083202168E+00
 0.8463648098394E-01 -0.1249319442698E+00  0.0000000000000E+00 -0.2505449511412E+00
 0.6785987907025E-01 -0.1020344714653E+00  0.0000000000000E+00 -0.7301756147879E-01
 0.4802389911138E+00 -0.5382531474221E+00  0.0000000000000E+00 -0.5126182580462E+00
 0.4712911376444E+00 -0.5301787583287E+00  0.0000000000000E+00 -0.5374151485366E+00
 0.4609671395965E+00 -0.5207337091462E+00  0.0000000000000E+00 -0.5614172063373E+00
 0.4492045097741E+00 -0.5098467770704E+00  0.0000000000000E+00 -0.5842798016375E+00
 0.4359515045133E+00 -0.4974562681520E+00  0.0000000000000E+00 -0.6056216100513E+00
 0.4211734435592E+00 -0.4835160442893E+00  0.0000000000000E+00 -0.6250093783390E+00
 0.4048561544120E+00 -0.4679986302295E+00  0.0000000000000E+00 -0.6419395784215E+00
 0.3870074797335E+00 -0.4508963794960E+00  0.0000000000000E+00 -0.6558195802597E+00
 0.3676580397345E+00 -0.4322218960844E+00  0.0000000000000E+00 -0.6659479316600E+00
 0.3468619595894E+00 -0.4120084153983E+00  0.0000000000000E+00 -0.6714913169730E+00
 0.3246976083448E+00 -0.3903101734146E+00  0.0000000000000E+00 -0.6714544653183E+00
 0.3012676946684E+00 -0.3672021027489E+00  0.0000000000000E+00 -0.6646380074326E+00
 0.2766971658949E+00 -0.3427773245988E+00  0.0000000000000E+00 -0.6495773118881E+00
 0.2511257988022E+00 -0.3171394280160E+00  0.0000000000000E+00 -0.6244518795504E+00
 0.2246891537626E+00 -0.2903835118062E+00  0.0000000000000E+00 -0.5869487769720E+00
 0.1974742520495E+00 -0.2625532715755E+00  0.0000000000000E+00 -0.5340530653086E+00
 0.1694182359976E+00 -0.2335451276616E+00  0.0000000000000E+00 -0.4617200079082E+00
 0.1400700919273E+00 -0.2028888989978E+00  0.0000000000000E+00 -0.3643627036787E+00
 0.1079686865410E+00 -0.1691980478995E+00  0.0000000000000E+00 -0.2340758071852E+00
 0.6885357277828E-01 -0.1287329311666E+00  0.0000000000000E+00 -0.6063915708583E-01
 0.5033430475555E+00 -0.5634001274878E+00  0.0000000000000E+00 -0.4862891419540E+00
 0.4963744141328E+00 -0.5575977007121E+00  0.0000000000000E+00 -0.5108012716719E+00
 0.4880838324258E+00 -0.5505149991088E+00  0.0000000000000E+00 -0.5346676982762E+00
 0.4783971556432E+00 -0.5420731134001E+00  0.0000000000000E+00 -0.5575401742477E+00
 0.4672455668372E+00 -0.5321978107183E+00  0.0000000000000E+00 -0.5790202493078E+00
 0.4545696548250E+00 -0.5208234528047E+00  0.0000000000000E+00 -0.5986458956537E+00
 0.4403214851024E+00 -0.5078949299966E+00  0.0000000000000E+00 -0.6158749896164E+00
 0.4244648454805E+00 -0.4933678069215E+00  0.0000000000000E+00 -0.6300669152787E+00
 0.4069739704010E+00 -0.4772070079379E+00  0.0000000000000E+00 -0.6404620109698E+00
 0.3878306942609E+00 -0.4593840200791E+00  0.0000000000000E+00 -0.6461573281071E+00
 0.3670193629146E+00 -0.4398719884893E+00  0.0000000000000E+00 -0.6460762876061E+00
 0.3445179711471E+00 -0.4186372571523E+00  0.0000000000000E+00 -0.6389291036110E+00
 0.3202827096667E+00 -0.3956247074011E+00  0.0000000000000E+00 -0.6231601314414E+00
 0.2942209563043E+00 -0.3707322652691E+00  0.0000000000000E+00 -0.5968776251210E+00
 0.2661438170294E+00 -0.3437663950987E+00  0.0000000000000E+00 -0.5577613976898E+00
 0.2356818711437E+00 -0.3143637017719E+00  0.0000000000000E+00 -0.5029467776005E+00
 0.2021328931046E+00 -0.2818510361217E+00  0.0000000000000E+00 -0.4288980403422E+00
 0.1641838912519E+00 -0.2449929191504E+00  0.0000000000000E+00 -0.3313360247725E+00
 0.1194039746099E+00 -0.2015478928647E+00  0.0000000000000E+00 -0.2055374215220E+00
 0.6384376023442E-01 -0.1477918950951E+00  0.0000000000000E+00 -0.4790141468777E-01
 0.5250105045606E+00 -0.5869746021975E+00  0.0000000000000E+00 -0.4552745201595E+00
 0.5199167663274E+00 -0.5833285126403E+00  0.0000000000000E+00 -0.4787850177094E+00
 0.5135448192820E+00 -0.5784821252181E+00  0.0000000000000E+00 -0.5017380545469E+00
 0.5058017784257E+00 -0.5723419959900E+00  0.0000000000000E+00 -0.5237824037553E+00
 0.4965936163142E+00 -0.5648134615232E+00  0.0000000000000E+00 -0.5445066815683E+00
 0.4858271802058E+00 -0.5558026149142E+00  0.0000000000000E+00 -0.5634271733791E+00
 0.4734104559916E+00 -0.5452165830744E+00  0.0000000000000E+00 -0.5799730186339E+00
 0.4592509425397E+00 -0.5329619872365E+00  0.0000000000000E+00 -0.5934695094202E+00
 0.4432519662082E+00 -0.5189414462839E+00  0.0000000000000E+00 -0.6031195189139E+00
 0.4253064498880E+00 -0.5030476828481E+00  0.0000000000000E+00 -0.6079824929325E+00
 0.4052871148398E+00 -0.4851542809470E+00  0.0000000000000E+00 -0.6069501611829E+00
 0.3830313310050E+00 -0.4651014263678E+00  0.0000000000000E+00 -0.5987182290144E+00
 0.3583177454015E+00 -0.4426739519549E+00  0.0000000000000E+00 -0.5817539951833E+00
 0.3308302152033E+00 -0.4175675444229E+00  0.0000000000000E+00 -0.5542616919299E+00
 0.3001022453452E+00 -0.3893368470624E+00  0.0000000000000E+00 -0.5141517970758E+00
 0.2654319564374E+00 -0.3573164142781E+00  0.0000000000000E+00 -0.4590312367719E+00
 0.2257558179310E+00 -0.3205034443686E+00  0.0000000000000E+00 -0.3862559438765E+00
 0.1794745164981E+00 -0.2773970700940E+00  0.0000000000000E+00 -0.2931471137521E+00
 0.1243153867605E+00 -0.2258479640268E+00  0.0000000000000E+00 -0.1775647868106E+00
 0.5739348969494E-01 -0.1631010490404E+00  0.0000000000000E+00 -0.3878591423710E-01
 0.5449711724522E+00 -0.6086832632545E+00  0.0000000000000E+00 -0.4199687450382E+00
 0.5416027046860E+00 -0.6070265167353E+00  0.0000000000000E+00 -0.4418344734825E+00
 0.5369854086382E+00 -0.6042337800278E+00  0.0000000000000E+00 -0.4631902256348E+00
 0.5310018080689E+00 -0.6001911963177E+00  0.0000000000000E+00 -0.4836882063959E+00
 0.5235261583243E+00 -0.5947770825707E+00  0.0000000000000E+00 -0.5029147121564E+00
 0.5144246197340E+00 -0.5878621518725E+00  0.0000000000000E+00 -0.5203795215085E+00
 0.5035537998236E+00 -0.5793081694126E+00  0.0000000000000E+00 -0.5355033738435E+00
 0.4907574125821E+00 -0.5689648112677E+00  0.0000000000000E+00 -0.5476042836323E+00
 0.4758607124860E+00 -0.5566644137314E+00  0.0000000000000E+00 -0.5558831492809E+00
 0.4586621129797E+00 -0.5422140666684E+00  0.0000000000000E+00 -0.5594090030687E+00
 0.4389210273736E+00 -0.5253841519580E+00  0.0000000000000E+00 -0.5571044584866E+00
 0.4163404980750E+00 -0.5058919826259E+00  0.0000000000000E+00 -0.5477326017606E+00
 0.3905426336375E+00 -0.4833786872365E+00  0.0000000000000E+00 -0.5298880380913E+00
 0.3610343562261E+00 -0.4573769960422E+00  0.0000000000000E+00 -0.5019976113099E+00
 0.3271607998377E+00 -0.4272674295878E+00  0.0000000000000E+00 -0.4623415331203E+00
 0.2880451655445E+00 -0.3922215608760E+00  0.0000000000000E+00 -0.4091148885096E+00
 0.2425194405716E+00 -0.3511361729755E+00  0.0000000000000E+00 -0.3405642936580E+00
 0.1890729303474E+00 -0.3025792761478E+00  0.0000000000000E+00 -0.2552479333827E+00
 0.1258683626224E+00 -0.2447995868788E+00  0.0000000000000E+00 -0.1524116816858E+00
 0.5087316024070E-01 -0.1758431157348E+00  0.0000000000000E+00 -0.3237659173623E-01
 0.5629897601852E+00 -0.6282695432299E+00  0.0000000000000E+00 -0.3808090013209E+00
 0.5611635458569E+00 -0.6283960731497E+00  0.0000000000000E+00 -0.4004701209146E+00
 0.5581031539551E+00 -0.6274336800270E+00  0.0000000000000E+00 -0.4196467362606E+00
 0.5536626240859E+00 -0.6252439502741E+00  0.0000000000000E+00 -0.4380048898764E+00
 0.5476805737405E+00 -0.6216739226623E+00  0.0000000000000E+00 -0.4551435274416E+00
 0.5399788331605E+00 -0.6165548267130E+00  0.0000000000000E+00 -0.4705859323430E+00
 0.5303596438301E+00 -0.6096994457621E+00  0.0000000000000E+00 -0.4837700409520E+00
 0.5186011797076E+00 -0.6008978805866E+00  0.0000000000000E+00 -0.4940385506111E+00
 0.5044510769894E+00 -0.5899114223701E+00  0.0000000000000E+00 -0.5006296959587E+00
 0.4876175162902E+00 -0.5764641087468E+00  0.0000000000000E+00 -0.5026697180219E+00
 0.4677572295699E+00 -0.5602313717411E+00  0.0000000000000E+00 -0.4991684903659E+00
 0.4444596637460E+00 -0.5408250491185E+00  0.0000000000000E+00 -0.4890206169174E+00
 0.4172265351560E+00 -0.5177740218279E+00  0.0000000000000E+00 -0.4710157492833E+00
 0.3854463774922E+00 -0.4905000662235E+00  0.0000000000000E+00 -0.4438641109387E+00
 0.3483649372893E+00 -0.4582896097082E+00  0.0000000000000E+00 -0.4062463939468E+00
 0.3050552358609E+00 -0.4202647933076E+00  0.0000000000000E+00 -0.3569007398149E+00
 0.2543979308630E+00 -0.3753630484706E+00  0.0000000000000E+00 -0.2947602386132E+00
 0.1950899123769E+00 -0.3223429277898E+00  0.0000000000000E+00 -0.2191386718045E+00
 0.1256999697954E+00 -0.2598342429102E+00  0.0000000000000E+00 -0.1299310594080E+00
 0.4477456364233E-01 -0.1864393882243E+00  0.0000000000000E+00 -0.2775672444762E-01
 0.5788658687937E+00 -0.6455138756383E+00  0.0000000000000E+00 -0.3382590905328E+00
 0.5783757878755E+00 -0.6471893271150E+00  0.0000000000000E+00 -0.3552414715738E+00
 0.5766535054387E+00 -0.6478067005178E+00  0.0000000000000E+00 -0.3717583774348E+00
 0.5735230394987E+00 -0.6472010642343E+00  0.0000000000000E+00 -0.3875021477999E+00
 0.5687863922120E+00 -0.6451866773559E+00  0.0000000000000E+00 -0.4021012961102E+00
 0.5622210057280E+00 -0.6415545730372E+00  0.0000000000000E+00 -0.4151142393179E+00
 0.5535761027387E+00 -0.6360690717825E+00  0.0000000000000E+00 -0.4260225986111E+00
 0.5425677565978E+00 -0.6284630802926E+00  0.0000000000000E+00 -0.4342251297108E+00
 0.5288725166913E+00 -0.6184320131033E+00  0.0000000000000E+00 -0.4390334179083E+00
 0.5121193819696E+00 -0.6056261414393E+00  0.0000000000000E+00 -0.4396707044376E+00
 0.4918799156768E+00 -0.5896411700177E+00  0.0000000000000E+00 -0.4352756417203E+00
 0.4676563989466E+00 -0.5700069337921E+00  0.0000000000000E+00 -0.4249134356937E+00
 0.4388682452120E+00 -0.5461743999235E+00  0.0000000000000E+00 -0.4075977170626E+00
 0.4048376363491E+00 -0.5175018307433E+00  0.0000000000000E+00 -0.3823274663395E+00
 0.3647767459863E+00 -0.4832422640327E+00  0.0000000000000E+00 -0.3481439225706E+00
 0.3177813227374E+00 -0.4425366550014E+00  0.0000000000000E+00 -0.3042113577347E+00
 0.2628379653766E+00 -0.3944197752738E+00  0.0000000000000E+00 -0.2499196982090E+00
 0.1988532114925E+00 -0.3378467397601E+00  0.0000000000000E+00 -0.1849956213699E+00
 0.1247080523811E+00 -0.2717448900258E+00  0.0000000000000E+00 -0.1095955583490E+00
 0.3933064770776E-01 -0.1950847152919E+00  0.0000000000000E+00 -0.2435164350453E-01
 0.5924325068576E+00 -0.6602324534451E+00  0.0000000000000E+00 -0.2927979944361E+00
 0.5930576526675E+00 -0.6632030622144E+00  0.0000000000000E+00 -0.3067114606278E+00
 0.5924433436355E+00 -0.6651327935250E+00  0.0000000000000E+00 -0.3201835184808E+00
 0.5903844799698E+00 -0.6658305498195E+00  0.0000000000000E+00 -0.3329455567116E+00
 0.5866483535756E+00 -0.6650790685580E+00  0.0000000000000E+00 -0.3446724020046E+00
 0.5809712724686E+00 -0.6626316728568E+00  0.0000000000000E+00 -0.3549782844523E+00
 0.5730544872400E+00 -0.6582083497215E+00  0.0000000000000E+00 -0.3634128301767E+00
 0.5625593859577E+00 -0.6514911248963E+00  0.0000000000000E+00 -0.3694581857892E+00
 0.5491019565270E+00 -0.6421187323748E+00  0.0000000000000E+00 -0.3725284719656E+00
 0.5322465665571E+00 -0.6296806246574E+00  0.0000000000000E+00 -0.3719729517693E+00
 0.5114992163506E+00 -0.6137104667358E+00  0.0000000000000E+00 -0.3670845858635E+00
 0.4863006305148E+00 -0.5936794499445E+00  0.0000000000000E+00 -0.3571159766703E+00
 0.4560199394370E+00 -0.5689901182327E+00  0.0000000000000E+00 -0.3413049500760E+00
 0.4199503345973E+00 -0.5389719921211E+00  0.0000000000000E+00 -0.3189119155984E+00
 0.3773089924933E+00 -0.5028811323595E+00  0.0000000000000E+00 -0.2892701710502E+00
 0.3272444679730E+00 -0.4599067264537E+00  0.0000000000000E+00 -0.2518475904542E+00
 0.2688550154606E+00 -0.4091880834708E+00  0.0000000000000E+00 -0.2063133261619E+00
 0.2012198030338E+00 -0.3498442831785E+00  0.0000000000000E+00 -0.1525971760302E+00
 0.1234423007028E+00 -0.2810156578381E+00  0.0000000000000E+00 -0.9092565807200E-01
 0.3470159993909E-01 -0.2019140725926E+00  0.0000000000000E+00 -0.2182792274132E-01
 0.6035539108406E+00 -0.6722752474431E+00  0.0000000000000E+00 -0.2449123586271E+00
 0.6050648815631E+00 -0.6762747510819E+00  0.0000000000000E+00 -0.2554471144875E+00
 0.6053238882513E+00 -0.6792401962808E+00  0.0000000000000E+00 -0.2655766886998E+00
 0.6040999125686E+00 -0.6809568843366E+00  0.0000000000000E+00 -0.2750831243934E+00
 0.6011300212192E+00 -0.6811797956938E+00  0.0000000000000E+00 -0.2837025145055E+00
 0.5961154160455E+00 -0.6796297491118E+00  0.0000000000000E+00 -0.2911228746515E+00
 0.5887172576440E+00 -0.6759893456593E+00  0.0000000000000E+00 -0.2969821934045E+00
 0.5785523332182E+00 -0.6698987549168E+00  0.0000000000000E+00 -0.3008677247916E+00
 0.5651887119637E+00 -0.6609514780300E+00  0.0000000000000E+00 -0.3023175897417E+00
 0.5481416413159E+00 -0.6486903277609E+00  0.0000000000000E+00 -0.3008258507999E+00
 0.5268700807029E+00 -0.6326040005999E+00  0.0000000000000E+00 -0.2958523498317E+00
 0.5007744694479E+00 -0.6121248043967E+00  0.0000000000000E+00 -0.2868386485742E+00
 0.4691965979849E+00 -0.5866283638921E+00  0.0000000000000E+00 -0.2732312345853E+00
 0.4314227813542E+00 -0.5554364440512E+00  0.0000000000000E+00 -0.2545125228299E+00
 0.3866918082846E+00 -0.5178243182963E+00  0.0000000000000E+00 -0.2302388036065E+00
 0.3342091172987E+00 -0.4730341211574E+00  0.0000000000000E+00 -0.2000820457981E+00
 0.2731679486568E+00 -0.4202950374783E+00  0.0000000000000E+00 -0.1638696795609E+00
 0.2027767756686E+00 -0.3588497311288E+00  0.0000000000000E+00 -0.1216142946239E+00
 0.1222898913889E+00 -0.2879843754702E+00  0.0000000000000E+00 -0.7352445408199E-01
 0.3104191575738E-01 -0.2070601778258E+00  0.0000000000000E+00 -0.1998397723719E-01
 0.6121232032606E+00 -0.6815238319730E+00  0.0000000000000E+00 -0.1950915812901E+00
 0.6142865045173E+00 -0.6862785184482E+00  0.0000000000000E+00 -0.2020143680287E+00
 0.6151838680050E+00 -0.6899988135215E+00  0.0000000000000E+00 -0.2085833272487E+00
 0.6145636247060E+00 -0.6924510098755E+00  0.0000000000000E+00 -0.2146404978379E+00
 0.6121392700045E+00 -0.6933682169758E+00  0.0000000000000E+00 -0.2199953320445E+00
 0.6075850867612E+00 -0.6924460948947E+00  0.0000000000000E+00 -0.2244238508989E+00
 0.6005320370677E+00 -0.6893388372177E+00  0.0000000000000E+00 -0.2276679752891E+00
 0.5905639937058E+00 -0.6836554644052E+00  0.0000000000000E+00 -0.2294358777194E+00
 0.5772145525654E+00 -0.6749566591641E+00  0.0000000000000E+00 -0.2294041150854E+00
 0.5599648123838E+00 -0.6627525126123E+00  0.0000000000000E+00 -0.2272223461874E+00
 0.5382426445588E+00 -0.6465016816988E+00  0.0000000000000E+00 -0.2225214605678E+00
 0.5114241104055E+00 -0.6256125892657E+00  0.0000000000000E+00 -0.2149258632333E+00
 0.4788377953444E+00 -0.5994474104654E+00  0.0000000000000E+00 -0.2040703609720E+00
 0.4397728633527E+00 -0.5673296335318E+00  0.0000000000000E+00 -0.1896214551807E+00
 0.3934914934993E+00 -0.5285558641866E+00  0.0000000000000E+00 -0.1713018042823E+00
 0.3392459122178E+00 -0.4824121410219E+00  0.0000000000000E+00 -0.1489152982522E+00
 0.2762994166481E+00 -0.4281942455078E+00  0.0000000000000E+00 -0.1223690490685E+00
 0.2039495384630E+00 -0.3652303538490E+00  0.0000000000000E+00 -0.9168819528550E-01
 0.1215503327865E+00 -0.2929030269415E+00  0.0000000000000E+00 -0.5702033839136E-01
 0.2852383694094E-01 -0.2106634687198E+00  0.0000000000000E+00 -0.1862185996060E-01
 0.6180602417080E+00 -0.6878893852282E+00  0.0000000000000E+00 -0.1438256473562E+00
 0.6206409032197E+00 -0.6931214030786E+00  0.0000000000000E+00 -0.1469767153384E+00
 0.6219431738268E+00 -0.6973141782140E+00  0.0000000000000E+00 -0.1498391519936E+00
 0.6217018334622E+00 -0.7002213476210E+00  0.0000000000000E+00 -0.1523215597388E+00
 0.6196151002114E+00 -0.7015616448540E+00  0.0000000000000E+00 -0.1543152953341E+00
 0.6153400600328E+00 -0.7010144529908E+00  0.0000000000000E+00 -0.1556942023927E+00
 0.6084886818135E+00 -0.6982158848504E+00  0.0000000000000E+00 -0.1563145879800E+00
 0.5986244758150E+00 -0.6927554661516E+00  0.0000000000000E+00 -0.1560157380522E+00
 0.5852601064264E+00 -0.6841737171362E+00  0.0000000000000E+00 -0.1546213264070E+00
 0.5678564164409E+00 -0.6719610721513E+00  0.0000000000000E+00 -0.1519420982429E+00
 0.5458234371262E+00 -0.6555586910479E+00  0.0000000000000E+00 -0.1477802070452E+00
 0.5185240307845E+00 -0.6343617908317E+00  0.0000000000000E+00 -0.1419355132057E+00
 0.4852808043554E+00 -0.6077261266482E+00  0.0000000000000E+00 -0.1342139661793E+00
 0.4453867872211E+00 -0.5749781229289E+00  0.0000000000000E+00 -0.1244378507424E+00
 0.3981200240588E+00 -0.5354288395513E+00  0.0000000000000E+00 -0.1124571937179E+00
 0.3427616744300E+00 -0.4883914243428E+00  0.0000000000000E+00 -0.9816112790327E-01
 0.2786164822673E+00 -0.4332010035438E+00  0.0000000000000E+00 -0.8148773924242E-01
 0.2050337580197E+00 -0.3692352249046E+00  0.0000000000000E+00 -0.6243135141023E-01
 0.1214261217781E+00 -0.2959329538392E+00  0.0000000000000E+00 -0.4104745733050E-01
 0.2728118967968E-01 -0.2128067161037E+00  0.0000000000000E+00 -0.1746736377154E-01
 0.6213092867035E+00 -0.6913105814946E+00  0.0000000000000E+00 -0.9160483120740E-01
 0.6240713942998E+00 -0.6967396456370E+00  0.0000000000000E+00 -0.9089512354257E-01
 0.6255460256215E+00 -0.7011218039369E+00  0.0000000000000E+00 -0.8997030693037E-01
 0.6254625772725E+00 -0.7042053845825E+00  0.0000000000000E+00 -0.8880931051703E-01
 0.6235131896524E+00 -0.7057031492349E+00  0.0000000000000E+00 -0.8738975597658E-01
 0.6193483102683E+00 -0.7052879339997E+00  0.0000000000000E+00 -0.8568817540845E-01
 0.6125727793160E+00 -0.7025887927422E+00  0.0000000000000E+00 -0.8368034318843E-01
 0.6027426314859E+00 -0.6971878111495E+00  0.0000000000000E+00 -0.8134151525805E-01
 0.5893629545608E+00 -0.6886179198763E+00  0.0000000000000E+00 -0.7864649798408E-01
 0.5718872891724E+00 -0.6763621722939E+00  0.0000000000000E+00 -0.7556949779916E-01
 0.5497191588826E+00 -0.6598550567228E+00  0.0000000000000E+00 -0.7208371850613E-01
 0.5222163714036E+00 -0.6384864680398E+00  0.0000000000000E+00 -0.6816069364788E-01
 0.4886986885493E+00 -0.6116089304469E+00  0.0000000000000E+00 -0.6376938140346E-01
 0.4484592706231E+00 -0.5785484893173E+00  0.0000000000000E+00 -0.5887512119862E-01
 0.4007799180065E+00 -0.5386193301341E+00  0.0000000000000E+00 -0.5343866060863E-01
 0.3449495700018E+00 -0.4911416414523E+00  0.0000000000000E+00 -0.4741559723762E-01
 0.2802848942498E+00 -0.4354616151635E+00  0.0000000000000E+00 -0.4075675320408E-01
 0.2061513556701E+00 -0.3709720063760E+00  0.0000000000000E+00 -0.3341023209933E-01
 0.1219832163175E+00 -0.2971316542916E+00  0.0000000000000E+00 -0.2532715916454E-01
 0.2730640014254E-01 -0.2134858023778E+00  0.0000000000000E+00 -0.1647569730618E-01
 0.6218372760402E+00 -0.6917519787098E+00  0.0000000000000E+00 -0.3892287246955E-01
 0.6245432339488E+00 -0.6970960592393E+00  0.0000000000000E+00 -0.3433362073482E-01
 0.6259568104248E+00 -0.7013834806577E+00  0.0000000000000E+00 -0.2960515938280E-01
 0.6258100904592E+00 -0.7043646151946E+00  0.0000000000000E+00 -0.2478736604713E-01
 0.6237985261015E+00 -0.7057548536686E+00  0.0000000000000E+00 -0.1994424537661E-01
 0.6195766682803E+00 -0.7052304175099E+00  0.0000000000000E+00 -0.1515499202303E-01
 0.6127542278649E+00 -0.7024244809146E+00  0.0000000000000E+00 -0.1051478429468E-01
 0.6028926821860E+00 -0.6969238071510E+00  0.0000000000000E+00 -0.6134821963597E-02
 0.5895027674341E+00 -0.6882662228496E+00  0.0000000000000E+00 -0.2141130569040E-02
 0.5720433236964E+00 -0.6759393794604E+00  0.0000000000000E+00  0.1328336129804E-02
 0.5499220741117E+00 -0.6593813629405E+00  0.0000000000000E+00  0.4128742061054E-02
 0.5224990023057E+00 -0.6379837956654E+00  0.0000000000000E+00  0.6115912551840E-02
 0.4890930091303E+00 -0.6110980967103E+00  0.0000000000000E+00  0.7156480154199E-02
 0.4489924246311E+00 -0.5780454747214E+00  0.0000000000000E+00  0.7140275528174E-02
 0.4014696587568E+00 -0.5381309570950E+00  0.0000000000000E+00  0.5993921874703E-02
 0.3457997586253E+00 -0.4906612695381E+00  0.0000000000000E+00  0.3693813108274E-02
 0.2812819730812E+00 -0.4349657256891E+00  0.0000000000000E+00  0.2761060029606E-03
 0.2072628313734E+00 -0.3704186842448E+00  0.0000000000000E+00 -0.4158576649282E-02
 0.1231596085251E+00 -0.2964622260933E+00  0.0000000000000E+00 -0.9446786079922E-02
 0.2848323511040E-01 -0.2126288496060E+00  0.0000000000000E+00 -0.1536376554319E-01
 0.6196343302955E+00 -0.6892044172396E+00  0.0000000000000E+00  0.1372287996169E-01
 0.6220447639320E+00 -0.6941804476851E+00  0.0000000000000E+00  0.2214134303098E-01
 0.6231615571666E+00 -0.6980875770511E+00  0.0000000000000E+00  0.3062571707502E-01
 0.6227270130502E+00 -0.7006850452121E+00  0.0000000000000E+00  0.3905824141053E-01
 0.6204488812243E+00 -0.7016990994996E+00  0.0000000000000E+00  0.4729263329955E-01
 0.6159962522141E+00 -0.7008189828503E+00  0.0000000000000E+00  0.5515185340900E-01
 0.6089954921154E+00 -0.6976929546156E+00  0.0000000000000E+00  0.6242641506673E-01
 0.5990263651824E+00 -0.6919244852239E+00  0.0000000000000E+00  0.6887399421092E-01
 0.5856186175602E+00 -0.6830688869659E+00  0.0000000000000E+00  0.7422115336985E-01
 0.5682494187734E+00 -0.6706307620689E+00  0.0000000000000E+00  0.7816804592290E-01
 0.5463421909475E+00 -0.6540627772123E+00  0.0000000000000E+00  0.8039699339275E-01
 0.5192675045687E+00 -0.6327664157344E+00  0.0000000000000E+00  0.8058575580308E-01
 0.4863468731656E+00 -0.6060955065507E+00  0.0000000000000E+00  0.7842601756368E-01
 0.4468603921501E+00 -0.5733634421083E+00  0.0000000000000E+00  0.7364693056047E-01
 0.4000591337910E+00 -0.5338549803234E+00  0.0000000000000E+00  0.6604237319904E-01
 0.3451828734682E+00 -0.4868432248754E+00  0.0000000000000E+00  0.5549899474697E-01
 0.2814829405321E+00 -0.4316116554987E+00  0.0000000000000E+00  0.4202063219978E-01
 0.2082488639943E+00 -0.3674799785070E+00  0.0000000000000E+00  0.2574433584697E-01
 0.1248360839655E+00 -0.2938313605415E+00  0.0000000000000E+00  0.6945619394651E-02
 0.3069003708979E-01 -0.2101366619436E+00  0.0000000000000E+00 -0.1396542570247E-01
 0.6147140264719E+00 -0.6836852460559E+00  0.0000000000000E+00  0.6582906769916E-01
 0.6165881529050E+00 -0.6880102350286E+00  0.0000000000000E+00  0.7795634331078E-01
 0.6171691103868E+00 -0.6912499607660E+00  0.0000000000000E+00  0.9008247825078E-01
 0.6162160680356E+00 -0.6931784940549E+00  0.0000000000000E+00  0.1020284566926E+00
 0.6134571777718E+00 -0.6935403038269E+00  0.0000000000000E+00  0.1135739863624E+00
 0.6085857232872E+00 -0.6920465138523E+00  0.0000000000000E+00  0.1244537385644E+00
 0.6012559281922E+00 -0.6883708306755E+00  0.0000000000000E+00  0.1343541375809E+00
 0.5910784501728E+00 -0.6821451681671E+00  0.0000000000000E+00  0.1429116928039E+00
 0.5776157081592E+00 -0.6729551123543E+00  0.0000000000000E+00  0.1497139642362E+00
 0.5603773011720E+00 -0.6603354771125E+00  0.0000000000000E+00  0.1543043653403E+00
 0.5388159131905E+00 -0.6437663286807E+00  0.0000000000000E+00  0.1561921464625E+00
 0.5123243017704E+00 -0.6226700464331E+00  0.0000000000000E+00  0.1548690023582E+00
 0.4802342775719E+00 -0.5964102762827E+00  0.0000000000000E+00  0.1498336612959E+00
 0.4418190076475E+00 -0.5642940340033E+00  0.0000000000000E+00  0.1406252876915E+00
 0.3963004334155E+00 -0.5255786616030E+00  0.0000000000000E+00  0.1268651957678E+00
 0.3428637931766E+00 -0.4794855731870E+00  0.0000000000000E+00  0.1083039149238E+00
 0.2806806901302E+00 -0.4252222697563E+00  0.0000000000000E+00  0.8486733460269E-01
 0.2089403368863E+00 -0.3620124826052E+00  0.0000000000000E+00  0.5669287494716E-01
 0.1268855996757E+00 -0.2891313820009E+00  0.0000000000000E+00  0.2414646585619E-01
 0.3384755158732E-01 -0.2059397911531E+00  0.0000000000000E+00 -0.1218583142775E-01
 0.6071143374804E+00 -0.6752392254631E+00  0.0000000000000E+00  0.1168841499523E+00
 0.6082109124638E+00 -0.6786319661629E+00  0.0000000000000E+00  0.1325262359892E+00
 0.6080134152710E+00 -0.6809162776596E+00  0.0000000000000E+00  0.1481079332229E+00
 0.6063032246809E+00 -0.6818857663637E+00  0.0000000000000E+00  0.1633986905951E+00
 0.6028356211785E+00 -0.6813091387739E+00  0.0000000000000E+00  0.1781162892647E+00
 0.5973364122794E+00 -0.6789269443924E+00  0.0000000000000E+00  0.1919212303693E+00
 0.5894977883361E+00 -0.6744475800034E+00  0.0000000000000E+00  0.2044112974363E+00
 0.5789732704953E+00 -0.6675424247589E+00  0.0000000000000E+00  0.2151174922719E+00
 0.5653717389770E+00 -0.6578401014278E+00  0.0000000000000E+00  0.2235026213773E+00
 0.5482506019254E+00 -0.6449199290775E+00  0.0000000000000E+00  0.2289639391709E+00
 0.5271082474627E+00 -0.6283047076546E+00  0.0000000000000E+00  0.2308415227267E+00
 0.5013761003762E+00 -0.6074531375849E+00  0.0000000000000E+00  0.2284344500161E+00
 0.4704109842999E+00 -0.5817525257451E+00  0.0000000000000E+00  0.2210272765500E+00
 0.4334891871770E+00 -0.5505130736292E+00  0.0000000000000E+00  0.2079294964107E+00
 0.3898047344646E+00 -0.5129660716932E+00  0.0000000000000E+00  0.1885300783722E+00
 0.3384757352726E+00 -0.4682696352313E+00  0.0000000000000E+00  0.1623666900283E+00
 0.2785634006494E+00 -0.4155264586235E+00  0.0000000000000E+00  0.1292036885433E+00
 0.2091069758483E+00 -0.3538169431942E+00  0.0000000000000E+00  0.8910501396097E-01
 0.1291732482775E+00 -0.2822469065338E+00  0.0000000000000E+00  0.4248141545206E-01
 0.3791292762681E-01 -0.2000026937925E+00  0.0000000000000E+00 -0.9907195111289E-02
 0.5968994738138E+00 -0.6639403234832E+00  0.0000000000000E+00  0.1663668588299E+00
 0.5969787398380E+00 -0.6661240966700E+00  0.0000000000000E+00  0.1852505248347E+00
 0.5957576894539E+00 -0.6671660874835E+00  0.0000000000000E+00  0.2040210330769E+00
 0.5930435283409E+00 -0.6668824805078E+00  0.0000000000000E+00  0.2224082892047E+00
 0.5886234579741E+00 -0.6650703556460E+00  0.0000000000000E+00  0.2400833486818E+00
 0.5822621748378E+00 -0.6615052982947E+00  0.0000000000000E+00  0.2566507506556E+00
 0.5736981462177E+00 -0.6559378325487E+00  0.0000000000000E+00  0.2716401817069E+00
 0.5626383502205E+00 -0.6480883809795E+00  0.0000000000000E+00  0.2844989253917E+00
 0.5487513328440E+00 -0.6376406247441E+00  0.0000000000000E+00  0.2945864557144E+00
 0.5316584328171E+00 -0.6242331384775E+00  0.0000000000000E+00  0.3011725338121E+00
 0.5109229640766E+00 -0.6074491120976E+00  0.0000000000000E+00  0.3034404814423E+00
 0.4860371558445E+00 -0.5868039740865E+00  0.0000000000000E+00  0.3004980028185E+00
 0.4564068835223E+00 -0.5617309402791E+00  0.0000000000000E+00  0.2913990202471E+00
 0.4213349082400E+00 -0.5315651357837E+00  0.0000000000000E+00  0.2751814123883E+00
 0.3800048302112E+00 -0.4955282994477E+00  0.0000000000000E+00  0.2509269325208E+00
 0.3314707719539E+00 -0.4527186247120E+00  0.0000000000000E+00  0.2178496919101E+00
 0.2746618173652E+00 -0.4021141006037E+00  0.0000000000000E+00  0.1754146712220E+00
 0.2084124780196E+00 -0.3426003784411E+00  0.0000000000000E+00  0.1234731416977E+00
 0.1315265205702E+00 -0.2730308281076E+00  0.0000000000000E+00  0.6238114904765E-01
 0.4286860286402E-01 -0.1923150077513E+00  0.0000000000000E+00 -0.6946683883910E-02
 0.5841624008128E+00 -0.6498941438047E+00  0.0000000000000E+00  0.2137462139938E+00
 0.5829894310363E+00 -0.6506008210338E+00  0.0000000000000E+00  0.2355123281157E+00
 0.5805002905149E+00 -0.6501186626185E+00  0.0000000000000E+00  0.2571140634090E+00
 0.5765294827161E+00 -0.6482874259596E+00  0.0000000000000E+00  0.2782547476244E+00
 0.5708983940561E+00 -0.6449342611210E+00  0.0000000000000E+00  0.2985759001046E+00
 0.5634142866628E+00 -0.6398727877231E+00  0.0000000000000E+00  0.3176474466610E+00
 0.5538675342946E+00 -0.6329004599672E+00  0.0000000000000E+00  0.3349558934765E+00
 0.5420266807435E+00 -0.6237938267386E+00  0.0000000000000E+00  0.3498924649769E+00
 0.5276311861754E+00 -0.6123015910500E+00  0.0000000000000E+00  0.3617425568659E+00
 0.5103815996502E+00 -0.5981352488975E+00  0.0000000000000E+00  0.3696774360558E+00
 0.4899265832606E+00 -0.5809567837883E+00  0.0000000000000E+00  0.3727492776255E+00
 0.4658458881089E+00 -0.5603625787010E+00  0.0000000000000E+00  0.3698914482848E+00
 0.4376281850850E+00 -0.5358625195352E+00  0.0000000000000E+00  0.3599275422780E+00
 0.4046427976459E+00 -0.5068533966947E+00  0.0000000000000E+00  0.3415953199319E+00
 0.3661053759502E+00 -0.4725866060002E+00  0.0000000000000E+00  0.3135957759159E+00
 0.3210404653863E+00 -0.4321327908225E+00  0.0000000000000E+00  0.2746831143002E+00
 0.2682514565170E+00 -0.3843525620670E+00  0.0000000000000E+00  0.2238161456294E+00
 0.2063215235268E+00 -0.3278946718548E+00  0.0000000000000E+00  0.1603811810256E+00
 0.1336753023020E+00 -0.2612514346770E+00  0.0000000000000E+00  0.8445149744783E-01
 0.4871577095081E-01 -0.1828869922984E+00  0.0000000000000E+00 -0.3008947504973E-02
 0.5690277257596E+00 -0.6332407092742E+00  0.0000000000000E+00  0.2584842504334E+00
 0.5663775680518E+00 -0.6322166417475E+00  0.0000000000000E+00  0.2826818899878E+00
 0.5623820237708E+00 -0.6299401916626E+00  0.0000000000000E+00  0.3066563297359E+00
 0.5569018030871E+00 -0.6262732442027E+00  0.0000000000000E+00  0.3300963427349E+00
 0.5497916212583E+00 -0.6210717359514E+00  0.0000000000000E+00  0.3526315344807E+00
 0.5409016249169E+00 -0.6141871131490E+00  0.0000000000000E+00  0.3738201471735E+00
 0.5300761459643E+00 -0.6054651237261E+00  0.0000000000000E+00  0.3931330591844E+00
 0.5171495709936E+00 -0.5947417955512E+00  0.0000000000000E+00  0.4099372527096E+00
 0.5019395740950E+00 -0.5818368987901E+00  0.0000000000000E+00  0.4234799839970E+00
 0.4842375928564E+00 -0.5665448277388E+00  0.0000000000000E+00  0.4328736271721E+00
 0.4637957447600E+00 -0.5486221625399E+00  0.0000000000000E+00  0.4370809256846E+00
 0.4403086153708E+00 -0.5277704417604E+00  0.0000000000000E+00  0.4349010305686E+00
 0.4133875333802E+00 -0.5036119184276E+00  0.0000000000000E+00  0.4249582449719E+00
 0.3825240734341E+00 -0.4756552828913E+00  0.0000000000000E+00  0.4056983241520E+00
 0.3470387665071E+00 -0.4432476773782E+00  0.0000000000000E+00  0.3754027731715E+00
 0.3060113322515E+00 -0.4055096258925E+00  0.0000000000000E+00  0.3322422602501E+00
 0.2581930133232E+00 -0.3612534753141E+00  0.0000000000000E+00  0.2744101539166E+00
 0.2019236591464E+00 -0.3089033809857E+00  0.0000000000000E+00  0.2004068864608E+00
 0.1351256686694E+00 -0.2464798127137E+00  0.0000000000000E+00  0.1095219419027E+00
 0.5545940685689E-01 -0.1717383082385E+00  0.0000000000000E+00  0.2391031296504E-02
 0.5516544274760E+00 -0.6141570460861E+00  0.0000000000000E+00  0.3000412798372E+00
 0.5473192964128E+00 -0.6111710124422E+00  0.0000000000000E+00  0.3261249854225E+00
 0.5415942360777E+00 -0.6068517562154E+00  0.0000000000000E+00  0.3519050312911E+00
 0.5343618678967E+00 -0.6010787703410E+00  0.0000000000000E+00  0.3770643245388E+00
 0.5255057924997E+00 -0.5937321240134E+00  0.0000000000000E+00  0.4012369686547E+00
 0.5149156991043E+00 -0.5846974786767E+00  0.0000000000000E+00  0.4239918545302E+00
 0.5024878080982E+00 -0.5738663940404E+00  0.0000000000000E+00  0.4448112158765E+00
 0.4881215721309E+00 -0.5611329397940E+00  0.0000000000000E+00  0.4630697115689E+00
 0.4717139599383E+00 -0.5463880235610E+00  0.0000000000000E+00  0.4780147239292E+00
 0.4531517124964E+00 -0.5295118495604E+00  0.0000000000000E+00  0.4887460902832E+00
 0.4323007900906E+00 -0.5103637742308E+00  0.0000000000000E+00  0.4941928840188E+00
 0.4089910818950E+00 -0.4887677205353E+00  0.0000000000000E+00  0.4930851408003E+00
 0.3829931350577E+00 -0.4644900939499E+00  0.0000000000000E+00  0.4839192018483E+00
 0.3539817869541E+00 -0.4372054376355E+00  0.0000000000000E+00  0.4649169196858E+00
 0.3214785936532E+00 -0.4064423925807E+00  0.0000000000000E+00  0.4339826721805E+00
 0.2847601663896E+00 -0.3714983719490E+00  0.0000000000000E+00  0.3886717476929E+00
 0.2427133243556E+00 -0.3313059683428E+00  0.0000000000000E+00  0.3262082653480E+00
 0.1936134503450E+00 -0.2842322346843E+00  0.0000000000000E+00  0.2436599560365E+00
 0.1348742988635E+00 -0.2278406965868E+00  0.0000000000000E+00  0.1385400494078E+00
 0.6303708996371E-01 -0.1588380831293E+00  0.0000000000000E+00  0.1004687667346E-01
 0.5322380055296E+00 -0.5928591819748E+00  0.0000000000000E+00  0.3378879535543E+00
 0.5260371843554E+00 -0.5877131325587E+00  0.0000000000000E+00  0.3652227537716E+00
 0.5183877802755E+00 -0.5811382309555E+00  0.0000000000000E+00  0.3921310612919E+00
 0.5091856636795E+00 -0.5730228589138E+00  0.0000000000000E+00  0.4182938729248E+00
 0.4983353630135E+00 -0.5632633637403E+00  0.0000000000000E+00  0.4433642781258E+00
 0.4857598106762E+00 -0.5517734835436E+00  0.0000000000000E+00  0.4669408408255E+00
 0.4714013450266E+00 -0.5384848356378E+00  0.0000000000000E+00  0.4885383732707E+00
 0.4552181925984E+00 -0.5233430430624E+00  0.0000000000000E+00  0.5075639817635E+00
 0.4371797113286E+00 -0.5063027510340E+00  0.0000000000000E+00  0.5232968234113E+00
 0.4172615178528E+00 -0.4873226409112E+00  0.0000000000000E+00  0.5348669824027E+00
 0.3954399291581E+00 -0.4663598381673E+00  0.0000000000000E+00  0.5412285095719E+00
 0.3716839031636E+00 -0.4433619242409E+00  0.0000000000000E+00  0.5411218362991E+00
 0.3459413887308E+00 -0.4182535563762E+00  0.0000000000000E+00  0.5330204367016E+00
 0.3181149527353E+00 -0.3909128166012E+00  0.0000000000000E+00  0.5150554556820E+00
 0.2880175745936E+00 -0.3611287596246E+00  0.0000000000000E+00  0.4849102595304E+00
 0.2552911516058E+00 -0.3285241399839E+00  0.0000000000000E+00  0.4396757087470E+00
 0.2192523283444E+00 -0.2924116258308E+00  0.0000000000000E+00  0.3756630932891E+00
 0.1785903577734E+00 -0.2515176630168E+00  0.0000000000000E+00  0.2882046153497E+00
 0.1307386059856E+00 -0.2034388259096E+00  0.0000000000000E+00  0.1717014393805E+00
 0.7099929989441E-01 -0.1438290020056E+00  0.0000000000000E+00  0.2108581212911E-01
 0.5110112188607E+00 -0.5696028292248E+00  0.0000000000000E+00  0.3715284276603E+00
 0.5028048523276E+00 -0.5621466688901E+00  0.0000000000000E+00  0.3994074848766E+00
 0.4930817599451E+00 -0.5531570598268E+00  0.0000000000000E+00  0.4266634749502E+00
 0.4817365422908E+00 -0.5425168410749E+00  0.0000000000000E+00  0.4529785825955E+00
 0.4686850784693E+00 -0.5301298568658E+00  0.0000000000000E+00  0.4780389308293E+00
 0.4538769447278E+00 -0.5159320351820E+00  0.0000000000000E+00  0.5014848587423E+00
 0.4372932379755E+00 -0.4998882977513E+00  0.0000000000000E+00  0.5228717543778E+00
 0.4189403631301E+00 -0.4819856712958E+00  0.0000000000000E+00  0.5416461567410E+00
 0.3988452913814E+00 -0.4622280765769E+00  0.0000000000000E+00  0.5571300884114E+00
 0.3770538459619E+00 -0.4406341473336E+00  0.0000000000000E+00  0.5685049093779E+00
 0.3536314587230E+00 -0.4172374232276E+00  0.0000000000000E+00  0.5747873766086E+00
 0.3286650145842E+00 -0.3920874068265E+00  0.0000000000000E+00  0.5747915175260E+00
 0.3022639915260E+00 -0.3652496166302E+00  0.0000000000000E+00  0.5670689232479E+00
 0.2745582827265E+00 -0.3368019305000E+00  0.0000000000000E+00  0.5498162991150E+00
 0.2456877854559E+00 -0.3068222675804E+00  0.0000000000000E+00  0.5207312598503E+00
 0.2157730559583E+00 -0.2753569656269E+00  0.0000000000000E+00  0.4767822329593E+00
 0.1848399535412E+00 -0.2423441040251E+00  0.0000000000000E+00  0.4138279338912E+00
 0.1526271681946E+00 -0.2074250328953E+00  0.0000000000000E+00  0.3259654641228E+00
 0.1180290723822E+00 -0.1694261534583E+00  0.0000000000000E+00  0.2043319131314E+00
 0.7707185665228E-01 -0.1247320895590E+00  0.0000000000000E+00  0.3573028087322E-01
 0.4882439183528E+00 -0.5446834141195E+00  0.0000000000000E+00  0.4005414974029E+00
 0.4779521898330E+00 -0.5348356301403E+00  0.0000000000000E+00  0.4282143824305E+00
 0.4660695955874E+00 -0.5233440715684E+00  0.0000000000000E+00  0.4549492475923E+00
 0.4524709691114E+00 -0.5100693662355E+00  0.0000000000000E+00  0.4804462895277E+00
 0.4370779700687E+00 -0.4949187691149E+00  0.0000000000000E+00  0.5044400540442E+00
 0.4198650809346E+00 -0.4778500925173E+00  0.0000000000000E+00  0.5266127303689E+00
 0.4008475533767E+00 -0.4588581653224E+00  0.0000000000000E+00  0.5465457049364E+00
 0.3800689513553E+00 -0.4379616200825E+00  0.0000000000000E+00  0.5637015245027E+00
 0.3575951992439E+00 -0.4151963170150E+00  0.0000000000000E+00  0.5774184944281E+00
 0.3335156892549E+00 -0.3906158266426E+00  0.0000000000000E+00  0.5869037092493E+00
 0.3079499546251E+00 -0.3642970936697E+00  0.0000000000000E+00  0.5912159645589E+00
 0.2810587883057E+00 -0.3363500168847E+00  0.0000000000000E+00  0.5892328729573E+00
 0.2530598736915E+00 -0.3069307145678E+00  0.0000000000000E+00  0.5795956267334E+00
 0.2242493958040E+00 -0.2762595198772E+00  0.0000000000000E+00  0.5606202812808E+00
 0.1950328103398E+00 -0.2446460002210E+00  0.0000000000000E+00  0.5301544167808E+00
 0.1659700862003E+00 -0.2125246960913E+00  0.0000000000000E+00  0.4853373238999E+00
 0.1378452781982E+00 -0.1805068634470E+00  0.0000000000000E+00  0.4221746819834E+00
 0.1117687354774E+00 -0.1494498735923E+00  0.0000000000000E+00  0.3347165001678E+00
 0.8935086588572E-01 -0.1205346371973E+00  0.0000000000000E+00  0.2132564933897E+00
 0.7245379798010E-01 -0.9484579103435E-01  0.0000000000000E+00  0.3888870030474E-01
 0.4642436411549E+00 -0.5184390142165E+00  0.0000000000000E+00  0.4246301351062E+00
 0.4518678311865E+00 -0.5062057223571E+00  0.0000000000000E+00  0.4513201180081E+00
 0.4378137840423E+00 -0.4922059603439E+00  0.0000000000000E+00  0.4765990997446E+00
 0.4219261637125E+00 -0.4762703038391E+00  0.0000000000000E+00  0.5002291914326E+00
 0.4041402568894E+00 -0.4583198428806E+00  0.0000000000000E+00  0.5220117147806E+00
 0.3844665483740E+00 -0.4383472228358E+00  0.0000000000000E+00  0.5416548174747E+00
 0.3629596620562E+00 -0.4163842323892E+00  0.0000000000000E+00  0.5587247866986E+00
 0.3396973105615E+00 -0.3924798807807E+00  0.0000000000000E+00  0.5726454475544E+00
 0.3147741554813E+00 -0.3666941798316E+00  0.0000000000000E+00  0.5827087144587E+00
 0.2883068572093E+00 -0.3391025930983E+00  0.0000000000000E+00  0.5880769707301E+00
 0.2604464950075E+00 -0.3098074467369E+00  0.0000000000000E+00  0.5877706735917E+00
 0.2313970705791E+00 -0.2789546037206E+00  0.0000000000000E+00  0.5806391328440E+00
 0.2014418836276E+00 -0.2467570046132E+00  0.0000000000000E+00  0.5653122674187E+00
 0.1709830361332E+00 -0.2135297606247E+00  0.0000000000000E+00  0.5401276279945E+00
 0.1406044683020E+00 -0.1797461397651E+00  0.0000000000000E+00  0.5030211100110E+00
 0.1111793907359E+00 -0.1461327363577E+00  0.0000000000000E+00  0.4513590921330E+00
 0.8406527895464E-01 -0.1138421839285E+00  0.0000000000000E+00  0.3816690599226E+00
 0.6149841369772E-01 -0.8479459395136E-01  0.0000000000000E+00  0.2891697086460E+00
 0.4745354663993E-01 -0.6243043639090E-01  0.0000000000000E+00  0.1668849655198E+00
 0.5070758598085E-01 -0.5401480239222E-01  0.0000000000000E+00  0.3208422125293E-02
 0.4393485625099E+00 -0.4912349890536E+00  0.0000000000000E+00  0.4435684274352E+00
 0.4249729065750E+00 -0.4767077599968E+00  0.0000000000000E+00  0.4684540763831E+00
 0.4088056160820E+00 -0.4602667865964E+00  0.0000000000000E+00  0.4912938168189E+00
 0.3906712878527E+00 -0.4417269710039E+00  0.0000000000000E+00  0.5119944883475E+00
 0.3705526614943E+00 -0.4210598008846E+00  0.0000000000000E+00  0.5304494562466E+00
 0.3485280958467E+00 -0.3983275004046E+00  0.0000000000000E+00  0.5463624660562E+00
 0.3247125969914E+00 -0.3736211780985E+00  0.0000000000000E+00  0.5592323516186E+00
 0.2992324975257E+00 -0.3470370872876E+00  0.0000000000000E+00  0.5683923008591E+00
 0.2722263112691E+00 -0.3186775530334E+00  0.0000000000000E+00  0.5730441317078E+00
 0.2438596990188E+00 -0.2886663469885E+00  0.0000000000000E+00  0.5722707315472E+00
 0.2143474695896E+00 -0.2571699144124E+00  0.0000000000000E+00  0.5650282450567E+00
 0.1839818798037E+00 -0.2244243190681E+00  0.0000000000000E+00  0.5501249979634E+00
 0.1531709234420E+00 -0.1907714017361E+00  0.0000000000000E+00  0.5261918112748E+00
 0.1224940647433E+00 -0.1567114060154E+00  0.0000000000000E+00  0.4916479805466E+00
 0.9278863118458E-01 -0.1229847169483E+00  0.0000000000000E+00  0.4446694160543E+00
 0.6529050526508E-01 -0.9070564733066E-01  0.0000000000000E+00  0.3831747820492E+00
 0.4187658382472E-01 -0.6159317671012E-01  0.0000000000000E+00  0.3048719836594E+00
 0.2550514109864E-01 -0.3839794017846E-01  0.0000000000000E+00  0.2075026877313E+00
 0.2112603545049E-01 -0.2576854375037E-01  0.0000000000000E+00  0.8967936345697E-01
 0.3750129712337E-01 -0.3240077947370E-01  0.0000000000000E+00 -0.4475444538288E-01
 0.4139328974831E+00 -0.4634730326594E+00  0.0000000000000E+00  0.4572278968161E+00
 0.3977226189095E+00 -0.4468240439114E+00  0.0000000000000E+00  0.4794419911760E+00
 0.3795596974915E+00 -0.4280693463191E+00  0.0000000000000E+00  0.4988552846250E+00
 0.3592977207408E+00 -0.4070611516630E+00  0.0000000000000E+00  0.5156712153908E+00
 0.3370367475202E+00 -0.3838986006608E+00  0.0000000000000E+00  0.5298867587211E+00
 0.3129684786916E+00 -0.3587580658835E+00  0.0000000000000E+00  0.5411471033127E+00
 0.2872915327864E+00 -0.3318155401847E+00  0.0000000000000E+00  0.5488334029264E+00
 0.2601975540192E+00 -0.3032319524524E+00  0.0000000000000E+00  0.5521727530421E+00
 0.2318928966993E+00 -0.2731792497994E+00  0.0000000000000E+00  0.5502993344588E+00
 0.2026290857386E+00 -0.2418709450029E+00  0.0000000000000E+00  0.5422716546591E+00
 0.1727353708047E+00 -0.2095946287090E+00  0.0000000000000E+00  0.5270732607245E+00
 0.1426557668742E+00 -0.1767484445327E+00  0.0000000000000E+00  0.5036106960010E+00
 0.1129952203612E+00 -0.1438866204868E+00  0.0000000000000E+00  0.4707206282116E+00
 0.8458160292901E-01 -0.1117809332308E+00  0.0000000000000E+00  0.4271997164527E+00
 0.5855232061061E-01 -0.8150743629286E-01  0.0000000000000E+00  0.3718797822725E+00
 0.3647708709016E-01 -0.5457113467500E-01  0.0000000000000E+00  0.3037921672551E+00
 0.2052788341310E-01 -0.3308487373207E-01  0.0000000000000E+00  0.2225174066531E+00
 0.1369486583718E-01 -0.2001147411245E-01  0.0000000000000E+00  0.1289378499152E+00
 0.1994088606537E-01 -0.1943672378609E-01  0.0000000000000E+00  0.2702476286366E-01
 0.4318882427613E-01 -0.3598792728618E-01  0.0000000000000E+00 -0.7237441780543E-01
 0.3884077824360E+00 -0.4355956555740E+00  0.0000000000000E+00  0.4656267366552E+00
 0.3705809029835E+00 -0.4170498962377E+00  0.0000000000000E+00  0.4842477060388E+00
 0.3505568671571E+00 -0.3961171927422E+00  0.0000000000000E+00  0.4993400318089E+00
 0.3283452185980E+00 -0.3728418353756E+00  0.0000000000000E+00  0.5115943545853E+00
 0.3042648296506E+00 -0.3475425237072E+00  0.0000000000000E+00  0.5210492891743E+00
 0.2786503921950E+00 -0.3205477520271E+00  0.0000000000000E+00  0.5271708838231E+00
 0.2517729535768E+00 -0.2920995219835E+00  0.0000000000000E+00  0.5291814316535E+00
 0.2238814487543E+00 -0.2624174031179E+00  0.0000000000000E+00  0.5262455365246E+00
 0.1952541421063E+00 -0.2317489377459E+00  0.0000000000000E+00  0.5175134507704E+00
 0.1662381637654E+00 -0.2004104137273E+00  0.0000000000000E+00  0.5021340601992E+00
 0.1372842838356E+00 -0.1688214889129E+00  0.0000000000000E+00  0.4792630193283E+00
 0.1089812639540E+00 -0.1375397559023E+00  0.0000000000000E+00  0.4480840145550E+00
 0.8209396279848E-01 -0.1072995939480E+00  0.0000000000000E+00  0.4078555440976E+00
 0.5760744549999E-01 -0.7905818180641E-01  0.0000000000000E+00  0.3579991493923E+00
 0.3677654589053E-01 -0.5404911987792E-01  0.0000000000000E+00  0.2982538495072E+00
 0.2117282518167E-01 -0.3383816952168E-01  0.0000000000000E+00  0.2289379658978E+00
 0.1270104244292E-01 -0.2035765910844E-01  0.0000000000000E+00  0.1513840048326E+00
 0.1349417806937E-01 -0.1584408985027E-01  0.0000000000000E+00  0.6864266428980E-01
 0.2538862500128E-01 -0.2240292074025E-01  0.0000000000000E+00 -0.1352917209978E-01
 0.4864810910502E-01 -0.4061375989372E-01  0.0000000000000E+00 -0.8670702845354E-01
 0.3631878141610E+00 -0.4080629920931E+00  0.0000000000000E+00  0.4688309277290E+00
 0.3439247301779E+00 -0.3877740566329E+00  0.0000000000000E+00  0.4829201056477E+00
 0.3221070756003E+00 -0.3647425108761E+00  0.0000000000000E+00  0.4930411013674E+00
 0.2981792935038E+00 -0.3394381589013E+00  0.0000000000000E+00  0.5006106468416E+00
 0.2727794503546E+00 -0.3125622209555E+00  0.0000000000000E+00  0.5053051421213E+00
 0.2463013365144E+00 -0.2844613103916E+00  0.0000000000000E+00  0.5062229782059E+00
 0.2190210569002E+00 -0.2553817202883E+00  0.0000000000000E+00  0.5025035536444E+00
 0.1912193058889E+00 -0.2255748926831E+00  0.0000000000000E+00  0.4933587871517E+00
 0.1632336245353E+00 -0.1953536520074E+00  0.0000000000000E+00  0.4780758057500E+00
 0.1354917828638E+00 -0.1651240577075E+00  0.0000000000000E+00  0.4560140258298E+00
 0.1085349869688E+00 -0.1354085104097E+00  0.0000000000000E+00  0.4266215389623E+00
 0.8303768820666E-01 -0.1068660255094E+00  0.0000000000000E+00  0.3894762506163E+00
 0.5982464754475E-01 -0.8031092540214E-01  0.0000000000000E+00  0.3443588218218E+00
 0.3988222525877E-01 -0.5672736718229E-01  0.0000000000000E+00  0.2913672860706E+00
 0.2435530838050E-01 -0.3727203536070E-01  0.0000000000000E+00  0.2310868939280E+00
 0.1451150306562E-01 -0.2324766356433E-01  0.0000000000000E+00  0.1648280799390E+00
 0.1163336891079E-01 -0.1601023220026E-01  0.0000000000000E+00  0.9492812351933E-01
 0.1676668180925E-01 -0.1673153799822E-01  0.0000000000000E+00  0.2502707956289E-01
 0.3023011701457E-01 -0.2588711578294E-01  0.0000000000000E+00 -0.4013468506423E-01
 0.5102531025166E-01 -0.4262544337763E-01  0.0000000000000E+00 -0.9587569902763E-01
 0.3387190547150E+00 -0.3813451178565E+00  0.0000000000000E+00  0.4667295592866E+00
 0.3178102854698E+00 -0.3591310467510E+00  0.0000000000000E+00  0.4752686799292E+00
 0.2941207358456E+00 -0.3337604373769E+00  0.0000000000000E+00  0.4808455660318E+00
 0.2690257245094E+00 -0.3070856932252E+00  0.0000000000000E+00  0.4844703994060E+00
 0.2431130222350E+00 -0.2795113874119E+00  0.0000000000000E+00  0.4846599840816E+00
 0.2166054846167E+00 -0.2512180164529E+00  0.0000000000000E+00  0.4804794953037E+00
 0.1897485453496E+00 -0.2224116799459E+00  0.0000000000000E+00  0.4711998908449E+00
 0.1628500027188E+00 -0.1933764190334E+00  0.0000000000000E+00  0.4562384775396E+00
 0.1363025357506E+00 -0.1644883915345E+00  0.0000000000000E+00  0.4351204507853E+00
 0.1105909614259E+00 -0.1362215259615E+00  0.0000000000000E+00  0.4074845659383E+00
 0.8629738429256E-01 -0.1091517056274E+00  0.0000000000000E+00  0.3731152468547E+00
 0.6410270775796E-01 -0.8395879088790E-01  0.0000000000000E+00  0.3319983307856E+00
 0.4478099066254E-01 -0.6142275695224E-01  0.0000000000000E+00  0.2844002341389E+00
 0.2917982214725E-01 -0.4240735664284E-01  0.0000000000000E+00  0.2309718464106E+00
 0.1817603035883E-01 -0.2782071602217E-01  0.0000000000000E+00  0.1728753858475E+00
 0.1259091929849E-01 -0.1853680431550E-01  0.0000000000000E+00  0.1119202830653E+00
 0.1304764553679E-01 -0.1525634895439E-01  0.0000000000000E+00  0.5065772141341E-01
 0.1976553206117E-01 -0.1829520986396E-01  0.0000000000000E+00 -0.7696837320225E-02
 0.3243756215977E-01 -0.2740257590674E-01  0.0000000000000E+00 -0.5972811509674E-01
 0.5023756902882E-01 -0.4175134308050E-01  0.0000000000000E+00 -0.1030611346132E+00
 0.3144102942910E+00 -0.3554227656700E+00  0.0000000000000E+00  0.4561134615626E+00
 0.2907592171002E+00 -0.3290271680084E+00  0.0000000000000E+00  0.4626253809708E+00
 0.2663438302867E+00 -0.3029236976905E+00  0.0000000000000E+00  0.4661174231052E+00
 0.2415153813051E+00 -0.2764223718411E+00  0.0000000000000E+00  0.4659256955631E+00
 0.2161179159140E+00 -0.2492867858409E+00  0.0000000000000E+00  0.4613528837953E+00
 0.1903701653895E+00 -0.2216691641904E+00  0.0000000000000E+00  0.4519538390317E+00
 0.1645945493900E+00 -0.1938666881784E+00  0.0000000000000E+00  0.4373315730826E+00
 0.1391890121284E+00 -0.1662646398596E+00  0.0000000000000E+00  0.4171512886857E+00
 0.1146093669708E+00 -0.1393146383444E+00  0.0000000000000E+00  0.3911664164562E+00
 0.9136635758021E-01 -0.1135284733829E+00  0.0000000000000E+00  0.3592618613715E+00
 0.7002228470437E-01 -0.8947394292638E-01  0.0000000000000E+00  0.3215057397190E+00
 0.5118247000764E-01 -0.6776666201849E-01  0.0000000000000E+00  0.2782093741822E+00
 0.3547630102804E-01 -0.4905249292849E-01  0.0000000000000E+00  0.2299934686979E+00
 0.2352183256355E-01 -0.3397442524223E-01  0.0000000000000E+00  0.1778549183039E+00
 0.1586666451015E-01 -0.2311638053437E-01  0.0000000000000E+00  0.1232216263570E+00
 0.1289932199636E-01 -0.1691688034836E-01  0.0000000000000E+00  0.6796996394212E-01
 0.1473435492655E-01 -0.1555395934489E-01  0.0000000000000E+00  0.1436383304723E-01
 0.2111709148297E-01 -0.1883717887956E-01  0.0000000000000E+00 -0.3513373391022E-01
 0.3139088623181E-01 -0.2619812653609E-01  0.0000000000000E+00 -0.7805228512447E-01
 0.4524421517350E-01 -0.3718715710071E-01  0.0000000000000E+00 -0.1119786589171E+00
</DataArray>
<DataArray type="Float64" Name="S_Centroid" NumberOfComponents="4" ComponentName0="S11" ComponentName1="S22" ComponentName2="S33" ComponentName3="S12" format="ascii">
-0.7646619219114E+00 -0.6106453150725E+01 -0.1374223035005E+01 -0.7998638822891E+00
 0.1031034829563E+00 -0.4790360538161E+01 -0.9374514250101E+00 -0.5011044446605E-01
-0.2138110353024E-01 -0.4397527310767E+01 -0.8837816960289E+00 -0.5089769991922E-01
 0.2987558479055E-02 -0.4197692023589E+01 -0.8389409055233E+00 -0.2513040498058E-01
-0.1411315429065E-02 -0.4081003540078E+01 -0.8164829832679E+00 -0.1567266655625E-01
-0.1585603803094E-03 -0.4009202625130E+01 -0.8018722490509E+00 -0.9540434979428E-02
-0.3050621368388E-03 -0.3964990481526E+01 -0.7930591205502E+00 -0.5620091587045E-02
-0.1907603481996E-03 -0.3939400254444E+01 -0.7879182146993E+00 -0.2796627369717E-02
-0.1724094898201E-03 -0.3927559259734E+01 -0.7855463455503E+00 -0.6066334030331E-03
-0.1516827899049E-03 -0.3926722941889E+01 -0.7853749366387E+00  0.1244621654376E-02
-0.1455808902591E-03 -0.3935455924453E+01 -0.7871203127977E+00  0.2941966739906E-02
-0.1469422356530E-03 -0.3953194974335E+01 -0.7906683950960E+00  0.4621359970756E-02
-0.1564938029979E-03 -0.3980043341121E+01 -0.7960399788468E+00  0.6395270233981E-02
-0.1748473547152E-03 -0.4016689626478E+01 -0.8033729067378E+00  0.8372661176580E-02
-0.2040167955673E-03 -0.4064426701209E+01 -0.8129261557144E+00  0.1067720506805E-01
-0.2492808422356E-03 -0.4125295543909E+01 -0.8251089772454E+00  0.1347668538978E-01
-0.3238424433596E-03 -0.4202435911275E+01 -0.8405519632688E+00  0.1704198488019E-01
-0.4328990714564E-03 -0.4300993941921E+01 -0.8602853810177E+00  0.2189485940931E-01
-0.1449338907207E-02 -0.4431009885533E+01 -0.8864918580978E+00  0.3020140315736E-01
-0.6078011416428E-02 -0.4608168305697E+01 -0.9228492771742E+00  0.5108239333616E-01
-0.1459480838211E-01 -0.4826814062078E+01 -0.9682817885205E+00  0.9908736225425E-01
-0.2522533940179E-01 -0.5054418863241E+01 -0.1015928855667E+01  0.1807329482038E+00
-0.3872122669928E-01 -0.5265537937727E+01 -0.1060851848693E+01  0.2901810271596E+00
-0.5686274034854E-01 -0.5453005185627E+01 -0.1101973601616E+01  0.4175666599318E+00
-0.8092871902048E-01 -0.5620916745068E+01 -0.1140369109811E+01  0.5553649812356E+00
-0.1117191892676E+00 -0.5776906273968E+01 -0.1177725110197E+01  0.6998969010202E+00
-0.1499913054986E+00 -0.5927830650589E+01 -0.1215564409331E+01  0.8505715455435E+00
-0.1968526271944E+00 -0.6078156533467E+01 -0.1255001850833E+01  0.1008737350879E+01
-0.2539141234227E+00 -0.6229109076814E+01 -0.1296604659368E+01  0.1176686182363E+01
-0.3220750220031E+00 -0.6376817984747E+01 -0.1339778621314E+01  0.1355345241738E+01
-0.3999884552540E+00 -0.6516713086293E+01 -0.1383340328923E+01  0.1541802239336E+01
-0.4874640564377E+00 -0.6657388635625E+01 -0.1428970559706E+01  0.1734218629133E+01
-0.5877182489433E+00 -0.6815301073155E+01 -0.1480603886482E+01  0.1937475383202E+01
-0.7064006634988E+00 -0.7003993375380E+01 -0.1542078830755E+01  0.2161223416706E+01
-0.8516003727539E+00 -0.7238927370654E+01 -0.1618105572793E+01  0.2419629800299E+01
-0.1042684596467E+01 -0.7542969700952E+01 -0.1717130885071E+01  0.2733905790763E+01
-0.1291271956511E+01 -0.7950622595871E+01 -0.1848378938019E+01  0.3144479251640E+01
-0.1740634452626E+01 -0.8522481379696E+01 -0.2052623197051E+01  0.3712764050874E+01
-0.2117505271530E+01 -0.9353678517151E+01 -0.2294236791923E+01  0.4633535479627E+01
-0.5404433365383E+01 -0.1036438819710E+02 -0.3153764359491E+01  0.6351964043483E+01
 0.5889650618688E+01 -0.9120335524954E+01 -0.6461369908814E+00  0.7297898199891E+01
-0.8104472164123E+00 -0.5313800373885E+01 -0.1224849536311E+01 -0.8773265552142E+00
-0.1333574994104E+00 -0.4932471008331E+01 -0.1013165716646E+01 -0.3965815135818E+00
-0.8786101862660E-02 -0.4474372800492E+01 -0.8966317938319E+00 -0.1425188993033E+00
-0.1657239272056E-01 -0.4261800788598E+01 -0.8556746490142E+00 -0.8937372601120E-01
-0.6005272097416E-02 -0.4130891542544E+01 -0.8273793752573E+00 -0.5287087077527E-01
-0.4511245135656E-02 -0.4049083750455E+01 -0.8107190111987E+00 -0.3320801028435E-01
-0.2919836837918E-02 -0.3997168747145E+01 -0.8000177287178E+00 -0.2007542096239E-01
-0.2222558686712E-02 -0.3965722716155E+01 -0.7935890667937E+00 -0.1080445736072E-01
-0.1789632016748E-02 -0.3949320119410E+01 -0.7902219620606E+00 -0.3645834684496E-02
-0.1574136928387E-02 -0.3944902506167E+01 -0.7892953403805E+00  0.2335761964477E-02
-0.1493198128143E-02 -0.3950793309924E+01 -0.7904573133893E+00  0.7754895638240E-02
-0.1519906722168E-02 -0.3966256293374E+01 -0.7935552518441E+00  0.1304901205247E-01
-0.1641765744737E-02 -0.3991258735809E+01 -0.7985801122105E+00  0.1857660649621E-01
-0.1863663535113E-02 -0.4026376303051E+01 -0.8056480053222E+00  0.2467883618558E-01
-0.2209086326784E-02 -0.4072797851402E+01 -0.8150013996902E+00  0.3173956121567E-01
-0.2738032427332E-02 -0.4132446236193E+01 -0.8270368660479E+00  0.4027342596612E-01
-0.3577927259465E-02 -0.4208281948524E+01 -0.8423719877090E+00  0.5109326925937E-01
-0.5218152973288E-02 -0.4305002037807E+01 -0.8620440510014E+00  0.6589744506363E-01
-0.1033361491185E-01 -0.4429463066770E+01 -0.8879593495681E+00  0.8882067874926E-01
-0.2289356819226E-01 -0.4586086596347E+01 -0.9217960466437E+00  0.1261958183662E+00
-0.4253088780766E-01 -0.4767507968112E+01 -0.9620077855190E+00  0.1837159170238E+00
-0.6500867302301E-01 -0.4955652791977E+01 -0.1004132307963E+01  0.2638864342530E+00
-0.8821807376942E-01 -0.5134464312201E+01 -0.1044536492759E+01  0.3648360973168E+00
-0.1132707266828E+00 -0.5297105256697E+01 -0.1082075212800E+01  0.4817639951494E+00
-0.1422875362474E+00 -0.5444128224314E+01 -0.1117283168761E+01  0.6099046628153E+00
-0.1771926766055E+00 -0.5579266554695E+01 -0.1151291863416E+01  0.7461422556927E+00
-0.2195736897408E+00 -0.5706362376669E+01 -0.1185187230943E+01  0.8891638175928E+00
-0.2709150189826E+00 -0.5827723003064E+01 -0.1219727622585E+01  0.1038915126041E+01
-0.3322795715150E+00 -0.5943285153972E+01 -0.1255112963800E+01  0.1195575958078E+01
-0.4031186485224E+00 -0.6050996024330E+01 -0.1290822953805E+01  0.1358633805070E+01
-0.4824494310065E+00 -0.6149749483569E+01 -0.1326439802681E+01  0.1527618938298E+01
-0.5721324498665E+00 -0.6242337388417E+01 -0.1362893987965E+01  0.1703387040023E+01
-0.6769904138934E+00 -0.6334254957297E+01 -0.1402249095133E+01  0.1888746222103E+01
-0.8033667170550E+00 -0.6429935952636E+01 -0.1446660555495E+01  0.2089206666019E+01
-0.9618456077482E+00 -0.6530726451426E+01 -0.1498514434164E+01  0.2313164332442E+01
-0.1165528474215E+01 -0.6632629040234E+01 -0.1559631526130E+01  0.2571665501215E+01
-0.1457179426935E+01 -0.6720067603519E+01 -0.1635449430461E+01  0.2878814333253E+01
-0.1818637273439E+01 -0.6739593024241E+01 -0.1711646085041E+01  0.3232234945180E+01
-0.2621374005222E+01 -0.6510584830760E+01 -0.1826391794412E+01  0.3662855113835E+01
-0.2639182827925E+01 -0.5305744639356E+01 -0.1588985517134E+01  0.2906667042680E+01
 0.8386527349186E+01 -0.4351609939919E+01  0.8069834938785E+00  0.2221473011016E+01
-0.8548790626902E+00 -0.4901776420761E+01 -0.1151331113846E+01 -0.8459375991263E+00
-0.2978353631676E+00 -0.4805430069515E+01 -0.1020653101745E+01 -0.5507885047934E+00
-0.7273909102671E-01 -0.4516822729545E+01 -0.9179123777922E+00 -0.2666929448392E+00
-0.3560111373869E-01 -0.4298345348439E+01 -0.8667893053516E+00 -0.1499630204146E+00
-0.2071521010945E-01 -0.4166913835978E+01 -0.8375258216975E+00 -0.9407278197217E-01
-0.1255565840673E-01 -0.4079770367845E+01 -0.8184652174464E+00 -0.5912080703707E-01
-0.8721731628405E-02 -0.4023067077006E+01 -0.8063577737425E+00 -0.3658455370748E-01
-0.6451939737325E-02 -0.3987324801018E+01 -0.7987553600534E+00 -0.2042896963239E-01
-0.5207315585297E-02 -0.3967284502444E+01 -0.7944983754448E+00 -0.7997714024123E-02
-0.4545212507022E-02 -0.3959787295155E+01 -0.7928665133471E+00  0.2367446448769E-02
-0.4291253735829E-02 -0.3963058618264E+01 -0.7934699862236E+00  0.1170724555170E-01
-0.4347662235356E-02 -0.3976252342689E+01 -0.7961200128480E+00  0.2077300263255E-01
-0.4679707331321E-02 -0.3999226795508E+01 -0.8007813125005E+00  0.3017441382944E-01
-0.5298035981126E-02 -0.4032439836842E+01 -0.8075475865980E+00  0.4048716718086E-01
-0.6269035664338E-02 -0.4076935557947E+01 -0.8166409308911E+00  0.5235136179725E-01
-0.7754650045103E-02 -0.4134420751807E+01 -0.8284350927150E+00  0.6660694110382E-01
-0.1013252229287E-01 -0.4207454478709E+01 -0.8435174127697E+00  0.8456614243798E-01
-0.1469106295806E-01 -0.4299569199898E+01 -0.8628520654286E+00  0.1086848908485E+00
-0.2489133269726E-01 -0.4414013787028E+01 -0.8877810371740E+00  0.1428940208925E+00
-0.4438753961378E-01 -0.4550355294324E+01 -0.9189485804809E+00  0.1907900669521E+00
-0.7213377911890E-01 -0.4701938553479E+01 -0.9548144807473E+00  0.2540704245407E+00
-0.1031496085635E+00 -0.4857824755912E+01 -0.9921948876799E+00  0.3333431375976E+00
-0.1341541930657E+00 -0.5007864667213E+01 -0.1028403787380E+01  0.4282277887302E+00
-0.1655151698629E+00 -0.5146293197178E+01 -0.1062361689239E+01  0.5367219453991E+00
-0.1994535676577E+00 -0.5271762551847E+01 -0.1094243240206E+01  0.6559863950599E+00
-0.2383764430552E+00 -0.5385369316248E+01 -0.1124749168621E+01  0.7834893211814E+00
-0.2842985748598E+00 -0.5488656037262E+01 -0.1154590939629E+01  0.9174936499594E+00
-0.3387389863241E+00 -0.5582277024025E+01 -0.1184203219716E+01  0.1056864554907E+01
-0.4022436302098E+00 -0.5665531766688E+01 -0.1213555097463E+01  0.1200513546358E+01
-0.4739750559111E+00 -0.5737042772291E+01 -0.1242203584151E+01  0.1347467367235E+01
-0.5534801857944E+00 -0.5795711466121E+01 -0.1269838349305E+01  0.1497766712790E+01
-0.6431940461968E+00 -0.5840638927019E+01 -0.1296766613966E+01  0.1652241831201E+01
-0.7479638073542E+00 -0.5870557512012E+01 -0.1323704283598E+01  0.1811686422207E+01
-0.8739728666965E+00 -0.5881976237801E+01 -0.1351189841034E+01  0.1977118390861E+01
-0.1028510316719E+01 -0.5865406995696E+01 -0.1378783483028E+01  0.2148957476317E+01
-0.1223873821896E+01 -0.5800145419228E+01 -0.1404803869158E+01  0.2324135307965E+01
-0.1463014693810E+01 -0.5641438218435E+01 -0.1420890603622E+01  0.2482080376106E+01
-0.1756446129187E+01 -0.5300427298598E+01 -0.1411374706588E+01  0.2574884084606E+01
-0.1958374086220E+01 -0.4533240382140E+01 -0.1298322913018E+01  0.2299383845399E+01
-0.3287613777054E-01 -0.3462409498287E+01 -0.6990571376283E+00  0.9813357104426E+00
 0.8636355896428E+01 -0.3019575225347E+01  0.1123356150956E+01  0.9468531594766E+00
-0.8799516237759E+00 -0.4643273223728E+01 -0.1104644985961E+01 -0.7972767456102E+00
-0.4152003598490E+00 -0.4652370613161E+01 -0.1013514209704E+01 -0.6119857812349E+00
-0.1533524750781E+00 -0.4493574744321E+01 -0.9293854577287E+00 -0.3613986282657E+00
-0.7002756182084E-01 -0.4314703424005E+01 -0.8769462102326E+00 -0.2122239417536E+00
-0.4047990601741E-01 -0.4187825118672E+01 -0.8456610175392E+00 -0.1342562232033E+00
-0.2543004290194E-01 -0.4101281260720E+01 -0.8253422730230E+00 -0.8632085241120E-01
-0.1746591204241E-01 -0.4042397233740E+01 -0.8119726412559E+00 -0.5423724109465E-01
-0.1301099500685E-01 -0.4004017516845E+01 -0.8034057143421E+00 -0.3121411111578E-01
-0.1046959823017E-01 -0.3981283440394E+01 -0.7983506196212E+00 -0.1338213284406E-01
-0.9121967143841E-02 -0.3971243949060E+01 -0.7960731951031E+00  0.1482854969194E-02
-0.8582019146317E-02 -0.3972144091212E+01 -0.7961452339352E+00  0.1484738727473E-01
-0.8663433087062E-02 -0.3983097946641E+01 -0.7983522878419E+00  0.2776227818092E-01
-0.9292187917057E-02 -0.4003881946224E+01 -0.8026348387884E+00  0.4108237688600E-01
-0.1048661829416E-01 -0.4034833605883E+01 -0.8090640568915E+00  0.5560764676023E-01
-0.1237197100936E-01 -0.4076816075551E+01 -0.8178376214988E+00  0.7221306009013E-01
-0.1525000788522E-01 -0.4131235935635E+01 -0.8292972010615E+00  0.9201724564565E-01
-0.1984825851219E-01 -0.4200050370071E+01 -0.8439797382928E+00  0.1166886537170E+00
-0.2805448915792E-01 -0.4285345519101E+01 -0.8626800145068E+00  0.1488196330684E+00
-0.4341531420242E-01 -0.4387832386679E+01 -0.8862495533824E+00  0.1914242879321E+00
-0.6880569159764E-01 -0.4505076419819E+01 -0.9147764359146E+00  0.2461481430283E+00
-0.1026758838361E+00 -0.4631533272439E+01 -0.9468418453641E+00  0.3128100516788E+00
-0.1400352367647E+00 -0.4760218851085E+01 -0.9800508321737E+00  0.3911259179391E+00
-0.1772351995893E+00 -0.4884552881111E+01 -0.1012357631225E+01  0.4812403261024E+00
-0.2140645346752E+00 -0.4999867743818E+01 -0.1042786471237E+01  0.5825714342446E+00
-0.2524883763577E+00 -0.5103880361748E+01 -0.1071273763584E+01  0.6934996537671E+00
-0.2949697553035E+00 -0.5195967569335E+01 -0.1098187481292E+01  0.8119619610330E+00
-0.3436099811669E+00 -0.5276007138200E+01 -0.1123923440621E+01  0.9359603736629E+00
-0.3997727114665E+00 -0.5343465479384E+01 -0.1148647655286E+01  0.1063621266392E+01
-0.4636802022233E+00 -0.5397142260817E+01 -0.1172164510075E+01  0.1193105496377E+01
-0.5345211498293E+00 -0.5435515251818E+01 -0.1194007298121E+01  0.1323031142136E+01
-0.6121208917999E+00 -0.5456630582895E+01 -0.1213750313025E+01  0.1452988896470E+01
-0.6986303067262E+00 -0.5457037446483E+01 -0.1231133568987E+01  0.1582670251099E+01
-0.7979007436183E+00 -0.5431210578380E+01 -0.1245822282964E+01  0.1710474414612E+01
-0.9137831899428E+00 -0.5370282885238E+01 -0.1256813233764E+01  0.1832776211395E+01
-0.1049315222499E+01 -0.5258582948541E+01 -0.1261579653007E+01  0.1942060162339E+01
-0.1202362786141E+01 -0.5067909535714E+01 -0.1254054483058E+01  0.2020122334996E+01
-0.1353374880047E+01 -0.4751006190112E+01 -0.1220876232224E+01  0.2025558863008E+01
-0.1422724904232E+01 -0.4224330817001E+01 -0.1129411161076E+01  0.1849498366398E+01
-0.9465319474888E+00 -0.3434736840121E+01 -0.8762537705793E+00  0.1212027246956E+01
 0.1705008986185E+01 -0.2773607208279E+01 -0.2137196476034E+00  0.8118185284780E-01
 0.8242716799975E+01 -0.2505611551540E+01  0.1147421066785E+01  0.5272057834743E+00
-0.8922926460559E+00 -0.4463236700633E+01 -0.1071105885298E+01 -0.7487447959296E+00
-0.4993087344815E+00 -0.4514601753284E+01 -0.1002782112496E+01 -0.6288113799922E+00
-0.2313531452232E+00 -0.4438300625455E+01 -0.9339307680523E+00 -0.4229926747193E+00
-0.1141671331231E+00 -0.4308094125945E+01 -0.8844522649931E+00 -0.2668826902868E+00
-0.6596175708747E-01 -0.4195875402835E+01 -0.8523674446858E+00 -0.1725917500537E+00
-0.4220684707359E-01 -0.4113554551548E+01 -0.8311522921094E+00 -0.1130766267641E+00
-0.2920184726287E-01 -0.4055232060262E+01 -0.8168867936775E+00 -0.7234988172982E-01
-0.2182151675304E-01 -0.4015727241938E+01 -0.8075097637709E+00 -0.4267034042290E-01
-0.1758889879302E-01 -0.3991245299078E+01 -0.8017668515215E+00 -0.1952857672933E-01
-0.1531207349140E-01 -0.3979201569658E+01 -0.7989027405344E+00 -0.1697797173890E-03
-0.1437635903899E-01 -0.3977992687940E+01 -0.7984738212939E+00  0.1722751344929E-01
-0.1447036662078E-01 -0.3986752947843E+01 -0.8002446748174E+00  0.3399094985482E-01
-0.1547045457212E-01 -0.4005205271397E+01 -0.8041351571764E+00  0.5120016916633E-01
-0.1740086426303E-01 -0.4033566927257E+01 -0.8101935703768E+00  0.6985809108123E-01
-0.2045412751119E-01 -0.4072493369397E+01 -0.8185895115796E+00  0.9103919129069E-01
-0.2509604470128E-01 -0.4123027480467E+01 -0.8296247173960E+00  0.1160695907765E+00
-0.3237713772859E-01 -0.4186418540971E+01 -0.8437591483129E+00  0.1467636692114E+00
-0.4449290703146E-01 -0.4263463150939E+01 -0.8615912244328E+00  0.1854558454379E+00
-0.6469133967184E-01 -0.4353318595121E+01 -0.8836020001252E+00  0.2341646398660E+00
-0.9502285683560E-01 -0.4452837554746E+01 -0.9095720958699E+00  0.2932676692795E+00
-0.1336216375432E+00 -0.4557498109531E+01 -0.9382239633955E+00  0.3617044034169E+00
-0.1757777184098E+00 -0.4662648184377E+01 -0.9676851949769E+00  0.4387723135861E+00
-0.2178498453660E+00 -0.4763880478062E+01 -0.9963460795322E+00  0.5247348681709E+00
-0.2592146415003E+00 -0.4857423200408E+01 -0.1023327583630E+01  0.6196504100738E+00
-0.3014383276839E+00 -0.4940592511372E+01 -0.1048406183434E+01  0.7225900175031E+00
-0.3467709148172E+00 -0.5011693817396E+01 -0.1071692962412E+01  0.8318035795254E+00
-0.3971581111047E+00 -0.5069462338417E+01 -0.1093324106196E+01  0.9451275932199E+00
-0.4537156484746E+00 -0.5112517888752E+01 -0.1113246724034E+01  0.1060206296655E+01
-0.5164348147452E+00 -0.5139174226750E+01 -0.1131121825154E+01  0.1174685722445E+01
-0.5845166965726E+00 -0.5147446806761E+01 -0.1146392717749E+01  0.1286665791039E+01
-0.6577050036008E+00 -0.5134464479386E+01 -0.1158433913859E+01  0.1394836285910E+01
-0.7372973752218E+00 -0.5095126032793E+01 -0.1166484698985E+01  0.1497316519246E+01
-0.8251957850358E+00 -0.5021505469745E+01 -0.1169340268381E+01  0.1589967519091E+01
-0.9217873610547E+00 -0.4902099557351E+01 -0.1164777401038E+01  0.1664978463002E+01
-0.1022758252590E+01 -0.4719324809805E+01 -0.1148416629592E+01  0.1707849383396E+01
-0.1111085982411E+01 -0.4446812823044E+01 -0.1111579777655E+01  0.1690605608046E+01
-0.1135816542613E+01 -0.4047975725028E+01 -0.1036758468977E+01  0.1557843995564E+01
-0.9317714263168E+00 -0.3490616829672E+01 -0.8844776643776E+00  0.1197178356727E+01
 0.2081231843256E-01 -0.2856488128254E+01 -0.5671351704153E+00  0.4737672158117E+00
 0.2777551096176E+01 -0.2485032369329E+01  0.5850374624102E-01 -0.3208480961942E+00
 0.7753296207301E+01 -0.2267644311830E+01  0.1097130395443E+01  0.3350062984101E+00
-0.8973631661078E+00 -0.4329029393703E+01 -0.1045278527538E+01 -0.7038834771883E+00
-0.5601844605209E+00 -0.4397151424229E+01 -0.9914671917240E+00 -0.6240355552659E+00
-0.3004635569056E+00 -0.4371421663721E+01 -0.9343770580487E+00 -0.4589963031973E+00
-0.1619489984024E+00 -0.4284232055406E+01 -0.8892362240123E+00 -0.3099233710457E+00
-0.9600738595334E-01 -0.4192072096723E+01 -0.8576159093147E+00 -0.2070971577109E+00
-0.6235962254786E-01 -0.4117392816769E+01 -0.8359505003201E+00 -0.1383973324122E+00
-0.4362490359465E-01 -0.4061747584624E+01 -0.8210745098786E+00 -0.9017359244759E-01
-0.3278468272850E-01 -0.4022537376790E+01 -0.8110644239895E+00 -0.5437712888295E-01
-0.2650430044274E-01 -0.3997178004821E+01 -0.8047364730443E+00 -0.2617062887190E-01
-0.2308801740544E-01 -0.3983651976010E+01 -0.8013480106240E+00 -0.2447876518162E-02
-0.2165222858490E-01 -0.3980595707135E+01 -0.8004495990717E+00  0.1890161931940E-01
-0.2174341129685E-01 -0.3987221107374E+01 -0.8017929156818E+00  0.3943771860621E-01
-0.2317624369006E-01 -0.4003223124579E+01 -0.8052798856534E+00  0.6043566415473E-01
-0.2597708086973E-01 -0.4028703019448E+01 -0.8109360321474E+00  0.8307004410073E-01
-0.3040630473974E-01 -0.4064093535832E+01 -0.8188999803169E+00  0.1085694930923E+00
-0.3708529967747E-01 -0.4110041776681E+01 -0.8294254276312E+00  0.1383774655192E+00
-0.4729193980602E-01 -0.4167106895570E+01 -0.8428797796351E+00  0.1742717283218E+00
-0.6328294916876E-01 -0.4235097126443E+01 -0.8596760279326E+00  0.2181530281548E+00
-0.8783583779119E-01 -0.4312299165839E+01 -0.8800270138394E+00  0.2711850784696E+00
-0.1222745907228E+00 -0.4395433478485E+01 -0.9035416273055E+00  0.3329582484237E+00
-0.1645611853877E+00 -0.4480808707523E+01 -0.9290739924264E+00  0.4020203315087E+00
-0.2103584476922E+00 -0.4565203673894E+01 -0.9551124385496E+00  0.4774718033291E+00
-0.2561897712722E+00 -0.4645555316385E+01 -0.9803490321398E+00  0.5595161856794E+00
-0.3011414662943E+00 -0.4718771007974E+01 -0.1003982509814E+01  0.6484204359363E+00
-0.3463388974199E+00 -0.4782051520502E+01 -0.1025678098868E+01  0.7435833075016E+00
-0.3936638547355E+00 -0.4833078766580E+01 -0.1045348539840E+01  0.8434230012474E+00
-0.4447526649965E+00 -0.4869846430857E+01 -0.1062919835010E+01  0.9456609648535E+00
-0.5004136206829E+00 -0.4890378471617E+01 -0.1078158434526E+01  0.1047616190671E+01
-0.5604055947340E+00 -0.4892552211322E+01 -0.1090591577462E+01  0.1146518496184E+01
-0.6237997549227E+00 -0.4873901183654E+01 -0.1099540204100E+01  0.1239866944981E+01
-0.6899213966052E+00 -0.4830872462463E+01 -0.1104158788267E+01  0.1325293391218E+01
-0.7587657414463E+00 -0.4757508311136E+01 -0.1103254826956E+01  0.1399280710504E+01
-0.8297013483539E+00 -0.4644999730007E+01 -0.1094940231988E+01  0.1455381210148E+01
-0.8986724760273E+00 -0.4481513801938E+01 -0.1076037271627E+01  0.1482418848229E+01
-0.9531954937728E+00 -0.4251315402637E+01 -0.1040902194793E+01  0.1461358655126E+01
-0.9613585464175E+00 -0.3935144939647E+01 -0.9793007118056E+00  0.1359581704014E+01
-0.8433404509013E+00 -0.3516528171423E+01 -0.8719737374583E+00  0.1121752180525E+01
-0.3962949120027E+00 -0.3012822992123E+01 -0.6818235909851E+00  0.6706280507322E+00
 0.8255010338177E+00 -0.2550889031735E+01 -0.3450776047255E+00  0.1439589238209E-02
 0.3427805737649E+01 -0.2344379427191E+01  0.2166852653204E+00 -0.4973054374716E+00
 0.7303621174649E+01 -0.2145688982939E+01  0.1031586453714E+01  0.2115587626012E+00
-0.8983610701318E+00 -0.4223955574326E+01 -0.1024463344157E+01 -0.6630706631420E+00
-0.6048429760681E+00 -0.4297700081213E+01 -0.9805086260669E+00 -0.6086680836453E+00
-0.3594501523361E+00 -0.4302729556970E+01 -0.9324359557556E+00 -0.4770734738118E+00
-0.2093569834345E+00 -0.4249553919342E+01 -0.8917821938440E+00 -0.3412191376551E+00
-0.1288012836364E+00 -0.4178357060216E+01 -0.8614316816067E+00 -0.2363403046494E+00
-0.8522338614850E-01 -0.4113663351493E+01 -0.8397773600419E+00 -0.1614619960943E+00
-0.6036290135521E-01 -0.4062361995705E+01 -0.8245449916988E+00 -0.1071251292977E+00
-0.4571322537612E-01 -0.4024626456378E+01 -0.8140679484814E+00 -0.6594787918818E-01
-0.3711343077624E-01 -0.3999171168916E+01 -0.8072569319676E+00 -0.3307034475593E-01
-0.3238406957880E-01 -0.3984642468543E+01 -0.8034053195961E+00 -0.5216648307392E-02
-0.3035898603179E-01 -0.3979990469901E+01 -0.8020699031384E+00  0.1992211318167E-01
-0.3043084502586E-01 -0.3984547554861E+01 -0.8029956919430E+00  0.4408583983141E-01
-0.3234417070728E-01 -0.3998004481787E+01 -0.8060697425102E+00  0.6870694143153E-01
-0.3612071657094E-01 -0.4020354617402E+01 -0.8112950788838E+00  0.9509390369940E-01
-0.4207917823714E-01 -0.4051806168629E+01 -0.8187770815739E+00  0.1245774128906E+00
-0.5096063969518E-01 -0.4092617501697E+01 -0.8287156406274E+00  0.1586296913853E+00
-0.6415729787617E-01 -0.4142752333321E+01 -0.8413819387771E+00  0.1988698764919E+00
-0.8381487667637E-01 -0.4201328010046E+01 -0.8570285901153E+00  0.2467260625317E+00
-0.1121912400581E+00 -0.4266193519416E+01 -0.8756769649435E+00  0.3026953553026E+00
-0.1500149407001E+00 -0.4334188662585E+01 -0.8968407340211E+00  0.3658952787291E+00
-0.1951713038211E+00 -0.4402267611754E+01 -0.9194877968165E+00  0.4347208797374E+00
-0.2436982107717E+00 -0.4468113671767E+01 -0.9423623905501E+00  0.5081763508852E+00
-0.2923313560259E+00 -0.4529511108772E+01 -0.9643685073297E+00  0.5863263560638E+00
-0.3399442367784E+00 -0.4583872846944E+01 -0.9847634314186E+00  0.6694128755694E+00
-0.3872237618178E+00 -0.4628435921129E+01 -0.1003131951537E+01  0.7569281106096E+00
-0.4356044220600E+00 -0.4660562233732E+01 -0.1019233346346E+01  0.8473447012016E+00
-0.4863217319078E+00 -0.4677801267201E+01 -0.1032824615212E+01  0.9382890401684E+00
-0.5398263225176E+00 -0.4677781712136E+01 -0.1043521622480E+01  0.1026841475442E+01
-0.5955883778010E+00 -0.4658048363704E+01 -0.1050727363958E+01  0.1109863485967E+01
-0.6523765786855E+00 -0.4615785319506E+01 -0.1053632395339E+01  0.1184236691536E+01
-0.7088173537054E+00 -0.4547094434139E+01 -0.1051182373233E+01  0.1246558843221E+01
-0.7633076498121E+00 -0.4445860772372E+01 -0.1041833699961E+01  0.1291854919673E+01
-0.8123446407602E+00 -0.4303580799510E+01 -0.1023185103301E+01  0.1311852575866E+01
-0.8471229990795E+00 -0.4109884547966E+01 -0.9914015241821E+00  0.1293226615533E+01
-0.8473388878215E+00 -0.3853236944003E+01 -0.9401151803737E+00  0.1215068641409E+01
-0.7684202951165E+00 -0.3524176243847E+01 -0.8585193205857E+00  0.1045502897888E+01
-0.5135180103226E+00 -0.3126646253146E+01 -0.7280328635422E+00  0.7410063187476E+00
 0.1172498469166E+00 -0.2707011860630E+01 -0.5179524104607E+00  0.2689376741898E+00
 0.1458987237431E+01 -0.2384707937810E+01 -0.1851441428348E+00 -0.2941482499191E+00
 0.3820393175739E+01 -0.2265228331730E+01  0.3110329734367E+00 -0.5738636303758E+00
 0.6919567505966E+01 -0.2079283580936E+01  0.9680567994311E+00  0.1140119783274E+00
-0.8970657450483E+00 -0.4138533544384E+01 -0.1007119872894E+01 -0.6259348646228E+00
-0.6380829490807E+00 -0.4212850213276E+01 -0.9701866469282E+00 -0.5882324237269E+00
-0.4089865041005E+00 -0.4236499896556E+01 -0.9290972939759E+00 -0.4830482320693E+00
-0.2541601237381E+00 -0.4208922164718E+01 -0.8926164709923E+00 -0.3622785532134E+00
-0.1626584346472E+00 -0.4157074514297E+01 -0.8639466026626E+00 -0.2598048833706E+00
-0.1100032431395E+00 -0.4103389426833E+01 -0.8426785465513E+00 -0.1816748386533E+00
-0.7899737277412E-01 -0.4057608883636E+01 -0.8273212636101E+00 -0.1227622370159E+00
-0.6036655386786E-01 -0.4022270490766E+01 -0.8165274210939E+00 -0.7706259757409E-01
-0.4927371885692E-01 -0.3997378315782E+01 -0.8093304189877E+00 -0.4001947969302E-01
-0.4310396829258E-01 -0.3982271440796E+01 -0.8050750938143E+00 -0.8355465984148E-02
-0.4041977624044E-01 -0.3976255826690E+01 -0.8033351325568E+00  0.2033830875191E-01
-0.4045723339083E-01 -0.3978815527102E+01 -0.8038545640769E+00  0.4792281252576E-01
-0.4288495050872E-01 -0.3989657033830E+01 -0.8065084088857E+00  0.7594404407695E-01
-0.4771112549586E-01 -0.4008677830853E+01 -0.8112778033588E+00  0.1058025001911E+00
-0.5529377854775E-01 -0.4035873634836E+01 -0.8182334948695E+00  0.1388779322726E+00
-0.6644347231709E-01 -0.4071152771033E+01 -0.8275192610011E+00  0.1765984802194E+00
-0.8256409555161E-01 -0.4114007711969E+01 -0.8393143740109E+00  0.2203594622268E+00
-0.1055845434290E+00 -0.4163108751085E+01 -0.8537386716245E+00  0.2711474224791E+00
-0.1372573086606E+00 -0.4216129375313E+01 -0.8706773497689E+00  0.3289652998360E+00
-0.1778377670061E+00 -0.4270126644439E+01 -0.8895928955450E+00  0.3926559988004E+00
-0.2251913653634E+00 -0.4322550017610E+01 -0.9095482901480E+00  0.4605758797791E+00
-0.2756941786656E+00 -0.4371670098222E+01 -0.9294728692278E+00  0.5316759616660E+00
-0.3262882185610E+00 -0.4415817918489E+01 -0.9484212415425E+00  0.6058502108079E+00
-0.3756785159087E+00 -0.4452787413216E+01 -0.9656932002150E+00  0.6831945849670E+00
-0.4241333941740E+00 -0.4479933834891E+01 -0.9808134604282E+00  0.7631520783477E+00
-0.4726080788755E+00 -0.4494502870640E+01 -0.9934222047062E+00  0.8441687423034E+00
-0.5218861254890E+00 -0.4493818981915E+01 -0.1003141036429E+01  0.9237795297470E+00
-0.5720150184025E+00 -0.4475286842467E+01 -0.1009460387216E+01  0.9988742660644E+00
-0.6221001767709E+00 -0.4436258132811E+01 -0.1011671676991E+01  0.1065985492067E+01
-0.6704500262332E+00 -0.4373763483473E+01 -0.1008842716974E+01  0.1121423467847E+01
-0.7147929297444E+00 -0.4283906439762E+01 -0.9997398887986E+00  0.1160893223340E+01
-0.7517744395695E+00 -0.4160989793280E+01 -0.9825528612110E+00  0.1178285500180E+01
-0.7749653090081E+00 -0.3997689450233E+01 -0.9545309660719E+00  0.1164157354290E+01
-0.7710761741454E+00 -0.3786239247315E+01 -0.9114630978739E+00  0.1104358949772E+01
-0.7132465611340E+00 -0.3520403181027E+01 -0.8467299610495E+00  0.9785962748979E+00
-0.5485322440265E+00 -0.3200563367695E+01 -0.7498191335175E+00  0.7601494727068E+00
-0.1759669138817E+00 -0.2845634159394E+01 -0.6043202236603E+00  0.4226959264079E+00
 0.5786900597040E+00 -0.2511739640186E+01 -0.3866099218573E+00 -0.2842553376828E-01
 0.1946434926526E+01 -0.2290944027065E+01 -0.6890182113464E-01 -0.4778593146472E+00
 0.4056202244592E+01 -0.2215986076921E+01  0.3680432390186E+00 -0.6067882401354E+00
 0.6596082715552E+01 -0.2042969641658E+01  0.9106226283481E+00  0.3059158320423E-01
-0.8944675373824E+00 -0.4066967596472E+01 -0.9922870415571E+00 -0.5919784690002E+00
-0.6631729765568E+00 -0.4139559249211E+01 -0.9605464594669E+00 -0.5655832441377E+00
-0.4503444189581E+00 -0.4174351563227E+01 -0.9249392102198E+00 -0.4809953353920E+00
-0.2953168326311E+00 -0.4165551206882E+01 -0.8921736211970E+00 -0.3750261579197E+00
-0.1962907465419E+00 -0.4130401854614E+01 -0.8653385331257E+00 -0.2776532195416E+00
-0.1359062484202E+00 -0.4087690277834E+01 -0.8447193178381E+00 -0.1987274974644E+00
-0.9908058360084E-01 -0.4048091478361E+01 -0.8294344247518E+00 -0.1367745821207E+00
-0.7647360776888E-01 -0.4015813580475E+01 -0.8184574498447E+00 -0.8747494239252E-01
-0.6281224885543E-01 -0.3992006771328E+01 -0.8109638161211E+00 -0.4684554750299E-01
-0.5512619119944E-01 -0.3976680364076E+01 -0.8063613230708E+00 -0.1176039171577E-01
-0.5173555952095E-01 -0.3969507538125E+01 -0.8042486315134E+00  0.2019471976785E-01
-0.5172663960180E-01 -0.3970142154224E+01 -0.8043737707512E+00  0.5094034015711E-01
-0.5468923660839E-01 -0.3978322383369E+01 -0.8066023360149E+00  0.8209011807227E-01
-0.6060732527399E-01 -0.3993865047474E+01 -0.8108944866329E+00  0.1150936427953E+00
-0.6985322982945E-01 -0.4016577283686E+01 -0.8172861148816E+00  0.1513311348027E+00
-0.8325387739394E-01 -0.4046074622657E+01 -0.8258657123166E+00  0.1921343066509E+00
-0.1021434068460E+00 -0.4081502449303E+01 -0.8367291836980E+00  0.2386510502848E+00
-0.1281774547618E+00 -0.4121267491538E+01 -0.8498890019243E+00  0.2914862123510E+00
-0.1626458057491E+00 -0.4163021675455E+01 -0.8651335091323E+00  0.3502874678452E+00
-0.2054312915828E+00 -0.4204066926102E+01 -0.8818996566782E+00  0.4137449892974E+00
-0.2544086102854E+00 -0.4242234504956E+01 -0.8993286364493E+00  0.4802272490112E+00
-0.3062403540770E+00 -0.4276187869829E+01 -0.9164856584379E+00  0.5486484569831E+00
-0.3580445505055E+00 -0.4304622530333E+01 -0.9325334300635E+00  0.6187236373302E+00
-0.4083801233590E+00 -0.4325629501154E+01 -0.9468019390110E+00  0.6903462122235E+00
-0.4571218859840E+00 -0.4336728240008E+01 -0.9587700394852E+00  0.7628294623825E+00
-0.5047411333229E+00 -0.4335185599295E+01 -0.9679853609476E+00  0.8345405261280E+00
-0.5515438215104E+00 -0.4318264225226E+01 -0.9739616238605E+00  0.9029215776135E+00
-0.5971358899048E+00 -0.4283294310218E+01 -0.9760860545694E+00  0.9647043519520E+00
-0.6401853086050E+00 -0.4227586092627E+01 -0.9735542947535E+00  0.1016140645884E+01
-0.6784203728361E+00 -0.4148224196004E+01 -0.9653289281526E+00  0.1053064284673E+01
-0.7085587962014E+00 -0.4041621338042E+01 -0.9500360410053E+00  0.1070499558605E+01
-0.7254826807176E+00 -0.3902931031119E+01 -0.9256827561611E+00  0.1061603594421E+01
-0.7200365023770E+00 -0.3726564836160E+01 -0.8893202809592E+00  0.1016471425802E+01
-0.6751382559302E+00 -0.3507897114239E+01 -0.8366070865004E+00  0.9213608504180E+00
-0.5592871978851E+00 -0.3246030165745E+01 -0.7610634840667E+00  0.7585870919854E+00
-0.3160340282991E+00 -0.2949358852868E+01 -0.6530785859651E+00  0.5091538873410E+00
 0.1499727456453E+00 -0.2645007129414E+01 -0.4990068841895E+00  0.1640560072772E+00
 0.9789133942986E+00 -0.2386587331388E+01 -0.2815347916130E+00 -0.2449718714278E+00
 0.2318480879801E+01 -0.2236290802576E+01  0.1643801568988E-01 -0.5918139070568E+00
 0.4195374870416E+01 -0.2184065072566E+01  0.4022619655641E+00 -0.6208619877095E+00
 0.6322171182090E+01 -0.2024767421779E+01  0.8594807648694E+00 -0.4229172243607E-01
-0.8911248710125E+00 -0.4005513736761E+01 -0.9793277361479E+00 -0.5607416103380E+00
-0.6823528315417E+00 -0.4075383605551E+01 -0.9515473015978E+00 -0.5422255321485E+00
-0.4848611155973E+00 -0.4116664801130E+01 -0.9203051970591E+00 -0.4736847835276E+00
-0.3324956311196E+00 -0.4121423628708E+01 -0.8907838652391E+00 -0.3812833612485E+00
-0.2288220655278E+00 -0.4100115577217E+01 -0.8657875414501E+00 -0.2904236846307E+00
-0.1622354656675E+00 -0.4067662451817E+01 -0.8459795961030E+00 -0.2125717826146E+00
-0.1201673357991E+00 -0.4034447115782E+01 -0.8309229026980E+00 -0.1489820028315E+00
-0.9374890679718E-01 -0.4005642117551E+01 -0.8198782170867E+00 -0.9701057285985E-01
-0.7753643871551E-01 -0.3983304708610E+01 -0.8121682415673E+00 -0.5341460884115E-01
-0.6830975752883E-01 -0.3968046100050E+01 -0.8072711835451E+00 -0.1534588317758E-01
-0.6418930422258E-01 -0.3959892793634E+01 -0.8048164315639E+00  0.1953012942694E-01
-0.6412627999650E-01 -0.3958673768054E+01 -0.8045600215989E+00  0.5313420897339E-01
-0.6763178432027E-01 -0.3964170652477E+01 -0.8063604993752E+00  0.8710204491764E-01
-0.7465420600013E-01 -0.3976137073541E+01 -0.8101582679806E+00  0.1228912020312E+00
-0.8555308288882E-01 -0.3994223368017E+01 -0.8159553023398E+00  0.1618414072554E+00
-0.1011231035182E+00 -0.4017816323255E+01 -0.8237878976301E+00  0.2051548936145E+00
-0.1225698729963E+00 -0.4045824097359E+01 -0.8336788064938E+00  0.2537347974654E+00
-0.1512526426618E+00 -0.4076521503892E+01 -0.8455548419105E+00  0.3078704661454E+00
-0.1880502855539E+00 -0.4107626639230E+01 -0.8591353977588E+00  0.3669594035832E+00
-0.2325508334563E+00 -0.4136683589382E+01 -0.8738468975890E+00  0.4296123705370E+00
-0.2826489847891E+00 -0.4161823105456E+01 -0.8888944312946E+00  0.4942291303494E+00
-0.3352391500794E+00 -0.4181981581335E+01 -0.9034441597453E+00  0.5596919225012E+00
-0.3875760776537E+00 -0.4196109088795E+01 -0.9167370469502E+00  0.6255410682117E+00
-0.4380815272328E+00 -0.4202539855533E+01 -0.9281242903832E+00  0.6914481826861E+00
-0.4862618618052E+00 -0.4198985033067E+01 -0.9370493929377E+00  0.7565574049062E+00
-0.5321147725159E+00 -0.4182826579729E+01 -0.9429882845007E+00  0.8191278779737E+00
-0.5754597117682E+00 -0.4151388560951E+01 -0.9453696686310E+00  0.8765101932004E+00
-0.6154331814444E+00 -0.4102056070904E+01 -0.9434978645289E+00  0.9253080245880E+00
-0.6502102498976E+00 -0.4032243508967E+01 -0.9364907657277E+00  0.9615540365840E+00
-0.6768662462842E+00 -0.3939277913061E+01 -0.9232288456262E+00  0.9807329050478E+00
-0.6910794399417E+00 -0.3820124099091E+01 -0.9022407212509E+00  0.9774350429267E+00
-0.6860829454512E+00 -0.3671070676687E+01 -0.8714307374130E+00  0.9445042567696E+00
-0.6503914511099E+00 -0.3488530903777E+01 -0.8277844833123E+00  0.8722413028371E+00
-0.5640963461309E+00 -0.3271061660167E+01 -0.7670316126892E+00  0.7483181036951E+00
-0.3932135021512E+00 -0.3022385447503E+01 -0.6831198001102E+00  0.5589549393828E+00
-0.8203567928514E-01 -0.2756303445062E+01 -0.5676678333283E+00  0.2936353322717E+00
 0.4534331649101E+00 -0.2502506761536E+01 -0.4098147254319E+00 -0.4211296456169E-01
 0.1319344062748E+01 -0.2306117772544E+01 -0.1973547449002E+00 -0.4011193525132E+00
 0.2602116079118E+01 -0.2203992111865E+01  0.7962479463707E-01 -0.6622002867266E+00
 0.4273875715047E+01 -0.2163757416657E+01  0.4220236659666E+00 -0.6268559125058E+00
 0.6087617380722E+01 -0.2018453368197E+01  0.8138328146320E+00 -0.1061619815370E+00
-0.8873573413380E+00 -0.3951646075065E+01 -0.9678006977020E+00 -0.5318368076499E+00
-0.6971742642417E+00 -0.4018426426799E+01 -0.9431201522617E+00 -0.5189589151429E+00
-0.5137417130016E+00 -0.4063269048619E+01 -0.9154021659647E+00 -0.4629828552729E+00
-0.3657561814290E+00 -0.4077697469918E+01 -0.8886907435119E+00 -0.3825944130944E+00
-0.2597146955965E+00 -0.4067564096182E+01 -0.8654557712520E+00 -0.2988097711947E+00
-0.1884296004753E+00 -0.4044293940610E+01 -0.8465447208316E+00 -0.2233500456440E+00
-0.1418443931168E+00 -0.4017309300076E+01 -0.8318307510339E+00 -0.1593221066708E+00
-0.1119069798988E+00 -0.3992163776177E+01 -0.8208141634463E+00 -0.1055627182098E+00
-0.9324340024112E-01 -0.3971548090986E+01 -0.8129583103595E+00 -0.5963077651973E-01
-0.8250020915071E-01 -0.3956573023753E+01 -0.8078146586181E+00 -0.1904539845193E-01
-0.7765025163610E-01 -0.3947584498000E+01 -0.8050469619234E+00  0.1837717114999E-01
-0.7753032893543E-01 -0.3944580867675E+01 -0.8044222513089E+00  0.5450415111230E-01
-0.8157572902472E-01 -0.3947394812978E+01 -0.8057941204079E+00  0.9095050564072E-01
-0.8968842292277E-01 -0.3955735156455E+01 -0.8090847279318E+00  0.1291446407752E+00
-0.1021892870798E+00 -0.3969130762081E+01 -0.8142640219656E+00  0.1703536532625E+00
-0.1198004109843E+00 -0.3986802366675E+01 -0.8213205677705E+00  0.2156327725212E+00
-0.1435600361318E+00 -0.4007511638497E+01 -0.8302143472968E+00  0.2656575700753E+00
-0.1745287512997E+00 -0.4029493109082E+01 -0.8408043846054E+00  0.3204637066336E+00
-0.2132256758785E+00 -0.4050579260111E+01 -0.8527609999050E+00  0.3792752608840E+00
-0.2590018368232E+00 -0.4068542375363E+01 -0.8655088553344E+00  0.4406667091471E+00
-0.3097711889974E+00 -0.4081754664242E+01 -0.8783051837357E+00  0.5030731983190E+00
-0.3626078672649E+00 -0.4089351852795E+01 -0.8903919572798E+00  0.5653457594306E+00
-0.4148629395781E+00 -0.4090473431116E+01 -0.9010672875657E+00  0.6268611288315E+00
-0.4648224622487E+00 -0.4083664003384E+01 -0.9096973066820E+00  0.6870713345706E+00
-0.5116475605462E+00 -0.4066844312032E+01 -0.9156983881607E+00  0.7449386684304E+00
-0.5548806129845E+00 -0.4037576879816E+01 -0.9184915122467E+00  0.7986033355471E+00
-0.5938575226298E+00 -0.3993341008486E+01 -0.9174397198940E+00  0.8453318990165E+00
-0.6272305330328E+00 -0.3931685514036E+01 -0.9117832230004E+00  0.8816338254852E+00
-0.6526503509584E+00 -0.3850256220672E+01 -0.9005813277458E+00  0.9033959580126E+00
-0.6665145281539E+00 -0.3746775492292E+01 -0.8826580172418E+00  0.9058978244126E+00
-0.6635074539422E+00 -0.3618928577860E+01 -0.8564872191230E+00  0.8835492752875E+00
-0.6354281640650E+00 -0.3464282970374E+01 -0.8199422391058E+00  0.8292758653054E+00
-0.5689860546461E+00 -0.3281279549476E+01 -0.7700531322991E+00  0.7341460554793E+00
-0.4425259377060E+00 -0.3071342618925E+01 -0.7027737217983E+00  0.5879523541978E+00
-0.2216015446703E+00 -0.2841698132790E+01 -0.6126599446214E+00  0.3814039329649E+00
 0.1456595036949E+00 -0.2609004343622E+01 -0.4926689753268E+00  0.1119216930432E+00
 0.7294362739144E+00 -0.2401701474768E+01 -0.3344530451544E+00 -0.2042208935050E+00
 0.1605905953460E+01 -0.2254570386109E+01 -0.1297328884630E+00 -0.5128316395130E+00
 0.2818758569998E+01 -0.2185379306487E+01  0.1266758545898E+00 -0.7050633069171E+00
 0.4313567038461E+01 -0.2152029000140E+01  0.4323076141061E+00 -0.6293544848433E+00
 0.5884334513371E+01 -0.2020472458501E+01  0.7727724224892E+00 -0.1620390881660E+00
-0.8833501261937E+00 -0.3903599754209E+01 -0.9573899903468E+00 -0.5049468873191E+00
-0.7087267094707E+00 -0.3967228511008E+01 -0.9351910580312E+00 -0.4962044542307E+00
-0.5380042942929E+00 -0.4013774233120E+01 -0.9103557190480E+00 -0.4501462348344E+00
-0.3953536941429E+00 -0.4035006798325E+01 -0.8860721116971E+00 -0.3802017938414E+00
-0.2886801712034E+00 -0.4033725666139E+01 -0.8644811803503E+00 -0.3035275333038E+00
-0.2140658467548E+00 -0.4018425162043E+01 -0.8464982143733E+00 -0.2313228552922E+00
-0.1637492251466E+00 -0.3997276125958E+01 -0.8322050826218E+00 -0.1678279383159E+00
-0.1306746858005E+00 -0.3975789432746E+01 -0.8212928359476E+00 -0.1130848669993E+00
-0.1097279730669E+00 -0.3957028953702E+01 -0.8133513974736E+00 -0.6543365933089E-01
-0.9753521775279E-01 -0.3942485281847E+01 -0.8080041119601E+00 -0.2281084899772E-01
-0.9197811947562E-01 -0.3932775548481E+01 -0.8049507455861E+00  0.1676232889851E-01
-0.9180368986291E-01 -0.3928052993968E+01 -0.8039713487463E+00  0.5505368324635E-01
-0.9637671848185E-01 -0.3928205014392E+01 -0.8049163585689E+00  0.9361950693328E-01
-0.1055435104456E+00 -0.3932913546816E+01 -0.8076914234878E+00  0.1338273030266E+00
-0.1195638205295E+00 -0.3941621236970E+01 -0.8122370236031E+00  0.1768480024064E+00
-0.1390561934833E+00 -0.3953439388050E+01 -0.8184991285033E+00  0.2235836231064E+00
-0.1648685989222E+00 -0.3967054867130E+01 -0.8263847055245E+00  0.2745059718679E+00
-0.1977727933281E+00 -0.3980724299066E+01 -0.8356994309317E+00  0.3294502486222E+00
-0.2379742804330E+00 -0.3992419661224E+01 -0.8460788009390E+00  0.3875219795708E+00
-0.2846289440309E+00 -0.4000124974352E+01 -0.8569507964462E+00  0.4472841335449E+00
-0.3356626023543E+00 -0.4002413960407E+01 -0.8676153254807E+00  0.5072049056050E+00
-0.3882821387744E+00 -0.3998577254940E+01 -0.8773718918168E+00  0.5661043294318E+00
-0.4398973299927E+00 -0.3987906441764E+01 -0.8855607675473E+00  0.6232105345319E+00
-0.4886564012831E+00 -0.3969137804807E+01 -0.8915588545032E+00  0.6777704491542E+00
-0.5333963641383E+00 -0.3940414368056E+01 -0.8947621597719E+00  0.7285689760007E+00
-0.5732268538896E+00 -0.3899525500269E+01 -0.8945504841615E+00  0.7736302084422E+00
-0.6070123828454E+00 -0.3844176829837E+01 -0.8902378558020E+00  0.8101516841260E+00
-0.6329203624563E+00 -0.3772168602283E+01 -0.8810178060760E+00  0.8345879884275E+00
-0.6480715158124E+00 -0.3681480050208E+01 -0.8659103261072E+00  0.8427606290482E+00
-0.6482047106174E+00 -0.3570339156528E+01 -0.8437087860013E+00  0.8298911049409E+00
-0.6271161453254E+00 -0.3437245863085E+01 -0.8128724137949E+00  0.7904465776764E+00
-0.5754545846121E+00 -0.3281069388397E+01 -0.7713048060952E+00  0.7177731887005E+00
-0.4787077414915E+00 -0.3102125141202E+01 -0.7161665872105E+00  0.6041274581740E+00
-0.3145252463825E+00 -0.2904177278045E+01 -0.6437405144780E+00  0.4418163402569E+00
-0.4965260907242E-01 -0.2696745972841E+01 -0.5492797245676E+00  0.2260391761471E+00
 0.3620532254531E+00 -0.2497280237351E+01 -0.4270454087430E+00 -0.3910685981695E-01
 0.9767036792607E+00 -0.2330815390201E+01 -0.2708223462237E+00 -0.3302834673647E+00
 0.1845897789184E+01 -0.2222178675369E+01 -0.7525617835842E-01 -0.5919931332366E+00
 0.2984703511577E+01 -0.2175782890799E+01  0.1617841265664E+00 -0.7302284791463E+00
 0.4328042642451E+01 -0.2147002358610E+01  0.4362080632681E+00 -0.6302308785712E+00
 0.5706205890771E+01 -0.2028616699371E+01  0.7355178492402E+00 -0.2107859592231E+00
-0.8792112955469E+00 -0.3860105662397E+01 -0.9478634057130E+00 -0.4798139224862E+00
-0.7177858612775E+00 -0.3920666161209E+01 -0.9276904183211E+00 -0.4741758476197E+00
-0.5584824953917E+00 -0.3967728088402E+01 -0.9052421302479E+00 -0.4360235754388E+00
-0.4216250718211E+00 -0.3993663434839E+01 -0.8830577144905E+00 -0.3750780113219E+00
-0.3156011501867E+00 -0.3999287642199E+01 -0.8629777713366E+00 -0.3052463563635E+00
-0.2388440410240E+00 -0.3990743594713E+01 -0.8459175397525E+00 -0.2368106995463E+00
-0.1855778323689E+00 -0.3974890037136E+01 -0.8320935863002E+00 -0.1746020966651E+00
-0.1498001978371E+00 -0.3956918420144E+01 -0.8213437358352E+00 -0.1195809293659E+00
-0.1267893746645E+00 -0.3940045313152E+01 -0.8133669496834E+00 -0.7079440528891E-01
-0.1132495560672E+00 -0.3926019618496E+01 -0.8078538469506E+00 -0.2661115431212E-01
-0.1070270500713E+00 -0.3915673304808E+01 -0.8045400829645E+00  0.1470630434193E-01
-0.1068055716793E+00 -0.3909293731419E+01 -0.8032198725885E+00  0.5478990554245E-01
-0.1118866723126E+00 -0.3906823196261E+01 -0.8037419856914E+00  0.9510546067970E-01
-0.1220540205026E+00 -0.3907933026643E+01 -0.8059974214393E+00  0.1369338979985E+00
-0.1374883561625E+00 -0.3912012277788E+01 -0.8099001388585E+00  0.1813340736061E+00
-0.1586828050510E+00 -0.3918111201779E+01 -0.8153588135157E+00  0.2290562228181E+00
-0.1862840847227E+00 -0.3924896719578E+01 -0.8222361731125E+00  0.2803939669658E+00
-0.2207912978508E+00 -0.3930689188768E+01 -0.8302961096960E+00  0.3350258538342E+00
-0.2621359852198E+00 -0.3933611962155E+01 -0.8391496019792E+00  0.3919776338804E+00
-0.3093086591873E+00 -0.3931845537081E+01 -0.8482308518933E+00  0.4498147010137E+00
-0.3602362482106E+00 -0.3924138273649E+01 -0.8568749171403E+00  0.5070339990939E+00
-0.4122174443828E+00 -0.3909909764772E+01 -0.8644254547120E+00  0.5624257535833E+00
-0.4626876614164E+00 -0.3888583579038E+01 -0.8702542610586E+00  0.6150865907954E+00
-0.5096540460639E+00 -0.3859078113777E+01 -0.8737464449880E+00  0.6640796172079E+00
-0.5516489670670E+00 -0.3819768154918E+01 -0.8742834374248E+00  0.7080276306176E+00
-0.5873744077141E+00 -0.3768702623883E+01 -0.8712154193016E+00  0.7448515394902E+00
-0.6152433015546E+00 -0.3703866092891E+01 -0.8638218917610E+00  0.7717016293063E+00
-0.6329517448013E+00 -0.3623376872437E+01 -0.8512657361326E+00  0.7850214175412E+00
-0.6371092781418E+00 -0.3525621514396E+01 -0.8325461709135E+00  0.7806493740345E+00
-0.6228518317211E+00 -0.3409400548541E+01 -0.8064504880696E+00  0.7538882232063E+00
-0.5832365629348E+00 -0.3274056464622E+01 -0.7714586170069E+00  0.6994694738067E+00
-0.5080824749535E+00 -0.3119688367157E+01 -0.7255541792337E+00  0.6114247242378E+00
-0.3822372934600E+00 -0.2948217075387E+01 -0.6660908836949E+00  0.4834672847133E+00
-0.1835773287445E+00 -0.2765133815762E+01 -0.5897422376892E+00  0.3105359488886E+00
 0.1187597963869E+00 -0.2581152338563E+01 -0.4924785157738E+00  0.9192329221671E-01
 0.5642923450227E+00 -0.2413048586492E+01 -0.3697512538036E+00 -0.1631218432688E+00
 0.1196091315174E+01 -0.2281524045873E+01 -0.2170865493747E+00 -0.4272735979779E+00
 0.2046516116177E+01 -0.2202830741478E+01 -0.3126292552622E-01 -0.6472434241394E+00
 0.3112153146385E+01 -0.2172558618730E+01  0.1879189083311E+00 -0.7437555584557E+00
 0.4325965240511E+01 -0.2147379627063E+01  0.4357171291823E+00 -0.6301862161458E+00
 0.5548632868934E+01 -0.2041415779639E+01  0.7014434283113E+00 -0.2531664561837E+00
-0.8750038863678E+00 -0.3820229119433E+01 -0.9390466151531E+00 -0.4562275465782E+00
-0.7249118286079E+00 -0.3877869402814E+01 -0.9205562600017E+00 -0.4529716126572E+00
-0.5758483896641E+00 -0.3924688142691E+01 -0.9001073198836E+00 -0.4211901569536E+00
-0.4449257217300E+00 -0.3953786663053E+01 -0.8797424900659E+00 -0.3679728649307E+00
-0.3404711641415E+00 -0.3964720526655E+01 -0.8610383509897E+00 -0.3045587728036E+00
-0.2625640680543E+00 -0.3961796758317E+01 -0.8448721778639E+00 -0.2401528683518E+00
-0.2070845491275E+00 -0.3950628482584E+01 -0.8315426187333E+00 -0.1797924042125E+00
-0.1690583390449E+00 -0.3935927792992E+01 -0.8209972386412E+00 -0.1250941397333E+00
-0.1442363328652E+00 -0.3920892823644E+01 -0.8130258434169E+00 -0.7571080741687E-01
-0.1294793278098E+00 -0.3907418999335E+01 -0.8073796774598E+00 -0.3043017604294E-01
-0.1226491741289E+00 -0.3896494424342E+01 -0.8038287316721E+00  0.1222467030636E-01
-0.1223927572629E+00 -0.3888515989047E+01 -0.8021817612153E+00  0.5372327108140E-01
-0.1279570548082E+00 -0.3883478172760E+01 -0.8022870574686E+00  0.9541596116227E-01
-0.1390587107305E+00 -0.3881055533794E+01 -0.8040228608858E+00  0.1384776033794E+00
-0.1557864581004E+00 -0.3880612026294E+01 -0.8072797089084E+00  0.1838454502447E+00
-0.1784940977119E+00 -0.3881176488915E+01 -0.8119341294242E+00  0.2321241810295E+00
-0.2076246354246E+00 -0.3881436783177E+01 -0.8178122959067E+00  0.2834539228619E+00
-0.2434234460932E+00 -0.3879804206256E+01 -0.8246455427581E+00  0.3373917018001E+00
-0.2855812887841E+00 -0.3874557961435E+01 -0.8320278624421E+00  0.3929107965250E+00
-0.3329442345676E+00 -0.3864062207376E+01 -0.8394013008968E+00  0.4485868030194E+00
-0.3834283757836E+00 -0.3847222273565E+01 -0.8461301424780E+00  0.5029413518535E+00
-0.4343894131540E+00 -0.3823572382307E+01 -0.8515923717819E+00  0.5547375484400E+00
-0.4832604675178E+00 -0.3792658458668E+01 -0.8551837979804E+00  0.6029586842774E+00
-0.5279047531243E+00 -0.3753577014170E+01 -0.8562963662187E+00  0.6465088095274E+00
-0.5665684561310E+00 -0.3704941632211E+01 -0.8543020303985E+00  0.6838704841533E+00
-0.5975727622208E+00 -0.3645083239543E+01 -0.8485312129969E+00  0.7128813826353E+00
-0.6189053789833E+00 -0.3572302351573E+01 -0.8382415586020E+00  0.7306714278596E+00
-0.6278174715800E+00 -0.3485081728929E+01 -0.8225798523592E+00  0.7337191150973E+00
-0.6204471762441E+00 -0.3382261315853E+01 -0.8005417103484E+00  0.7179588885606E+00
-0.5914110339944E+00 -0.3263241217513E+01 -0.7709304617893E+00  0.6788979819236E+00
-0.5332028038940E+00 -0.3128179799094E+01 -0.7322765315094E+00  0.6116991964259E+00
-0.4351397838800E+00 -0.2978267891262E+01 -0.6826815452011E+00  0.5112642842963E+00
-0.2819629132824E+00 -0.2816703567934E+01 -0.6197333054780E+00  0.3728906284188E+00
-0.5251371595741E-01 -0.2650101659957E+01 -0.5405230832373E+00  0.1940524553771E+00
 0.2809166056622E+00 -0.2489476877159E+01 -0.4417120608814E+00 -0.2248368417701E-01
 0.7510541100454E+00 -0.2350021681822E+01 -0.3197935191205E+00 -0.2638141512838E+00
 0.1389565886498E+01 -0.2247963069955E+01 -0.1716794392496E+00 -0.5009682958632E+00
 0.2214244136144E+01 -0.2192637719436E+01  0.4321283406099E-02 -0.6847951082736E+00
 0.3210218883415E+01 -0.2174124065486E+01  0.2072189666738E+00 -0.7494214586165E+00
 0.4312990169001E+01 -0.2152205440505E+01  0.4321569521388E+00 -0.6294313646900E+00
 0.5408116375463E+01 -0.2057836418305E+01  0.6700560014162E+00 -0.2898531114547E+00
-0.8707642400556E+00 -0.3783267874205E+01 -0.9308064367222E+00 -0.4340149087697E+00
-0.7305145588763E+00 -0.3838159922048E+01 -0.9137349098006E+00 -0.4326258633154E+00
-0.5906398840030E+00 -0.3884251852911E+01 -0.8949783607190E+00 -0.4060371345543E+00
-0.4655965854028E+00 -0.3915384708757E+01 -0.8761962718883E+00 -0.3594596518245E+00
-0.3633512255929E+00 -0.3930338453297E+01 -0.8587379485741E+00 -0.3019722212387E+00
-0.2851030118632E+00 -0.3932012762623E+01 -0.8434231674652E+00 -0.2416811489432E+00
-0.2280770410999E+00 -0.3924902680347E+01 -0.8305959566662E+00 -0.1835716921177E+00
-0.1882527299529E+00 -0.3913165615403E+01 -0.8202836812944E+00 -0.1296960606606E+00
-0.1618906653540E+00 -0.3899858270460E+01 -0.8123497992678E+00 -0.8020194656261E-01
-0.1460653974654E+00 -0.3886927153531E+01 -0.8065985222185E+00 -0.3426427360287E-01
-0.1386977002012E+00 -0.3875460200944E+01 -0.8028315921921E+00  0.9328715820314E-02
-0.1384224725026E+00 -0.3865937691927E+01 -0.8008720448199E+00  0.5186733829320E-01
-0.1444416043742E+00 -0.3858401313750E+01 -0.8005685955543E+00  0.9456839916023E-01
-0.1564028831635E+00 -0.3852539867813E+01 -0.8017885621428E+00  0.1384870967034E+00
-0.1742947247467E+00 -0.3847715888086E+01 -0.8044021345531E+00  0.1844346886053E+00
-0.1983242829880E+00 -0.3842968127220E+01 -0.8082584940855E+00  0.2328793059723E+00
-0.2287342258077E+00 -0.3837035104681E+01 -0.8131538782148E+00  0.2838301137250E+00
-0.2655357423539E+00 -0.3828436316288E+01 -0.8187944239293E+00  0.3367504062547E+00
-0.3082062066313E+00 -0.3815607248658E+01 -0.8247627033478E+00  0.3905803176031E+00
-0.3554619158498E+00 -0.3797085457189E+01 -0.8305094869833E+00  0.4439101476437E+00
-0.4051963665813E+00 -0.3771921876285E+01 -0.8354236610221E+00  0.4952833671722E+00
-0.4547933073451E+00 -0.3739758204749E+01 -0.8389103149196E+00  0.5434401747175E+00
-0.5016607810380E+00 -0.3700259246543E+01 -0.8403840180389E+00  0.5872690705803E+00
-0.5435164902904E+00 -0.3652698691318E+01 -0.8392430488275E+00  0.6255412690534E+00
-0.5783384979528E+00 -0.3595933686686E+01 -0.8348544493680E+00  0.6566246441700E+00
-0.6040954839664E+00 -0.3528591363823E+01 -0.8265373818743E+00  0.6782980326890E+00
-0.6183818006265E+00 -0.3449311691909E+01 -0.8135387106298E+00  0.6877009443412E+00
-0.6180409576988E+00 -0.3356969566413E+01 -0.7950021166688E+00  0.6813924949478E+00
-0.5987958918138E+00 -0.3250878865224E+01 -0.7699349628804E+00  0.6554746045400E+00
-0.5548458576416E+00 -0.3131032400310E+01 -0.7371756625751E+00  0.6057610815490E+00
-0.4783077290805E+00 -0.2998336874365E+01 -0.6953289310503E+00  0.5279690084300E+00
-0.3583091393801E+00 -0.2854897237943E+01 -0.6426412850407E+00  0.4179776840245E+00
-0.1799393148377E+00 -0.2704847282692E+01 -0.5769573281033E+00  0.2726773156072E+00
 0.7645431626262E-01 -0.2555390112893E+01 -0.4957871667140E+00  0.9183637723663E-01
 0.4350363566624E+00 -0.2417182715667E+01 -0.3964292777082E+00 -0.1190084415881E+00
 0.9220478182652E+00 -0.2303360751709E+01 -0.2762625908055E+00 -0.3446135624473E+00
 0.1559573862578E+01 -0.2225984839923E+01 -0.1332821974551E+00 -0.5560220856656E+00
 0.2354667164606E+01 -0.2189068200241E+01  0.3311979336638E-01 -0.7090963325736E+00
 0.3285733801841E+01 -0.2179478169865E+01  0.2212511296922E+00 -0.7496035579553E+00
 0.4292895754537E+01 -0.2160761083844E+01  0.4264269404928E+00 -0.6279881467409E+00
 0.5281935362223E+01 -0.2077126332167E+01  0.6409618155623E+00 -0.3214385915179E+00
-0.8665126911145E+00 -0.3748685402117E+01 -0.9230396324007E+00 -0.4130326054079E+00
-0.7348979378713E+00 -0.3801004861596E+01 -0.9071805734115E+00 -0.4131367924391E+00
-0.6032863879752E+00 -0.3846066443143E+01 -0.8898705794837E+00 -0.3908307125899E+00
-0.4839486383013E+00 -0.3878405110153E+01 -0.8724707626917E+00 -0.3499746832202E+00
-0.3843399626734E+00 -0.3896345447894E+01 -0.8561370948710E+00 -0.2979120867695E+00
-0.3063949965223E+00 -0.3901722214601E+01 -0.8416234547658E+00 -0.2417045780178E+00
-0.2484090123020E+00 -0.3898061463392E+01 -0.8292941074963E+00 -0.1861223761724E+00
-0.2072155446418E+00 -0.3888947699075E+01 -0.8192326609508E+00 -0.1334766630158E+00
-0.1795894215597E+00 -0.3877214873442E+01 -0.8113608710906E+00 -0.8430282565293E-01
-0.1628560034025E+00 -0.3864784093979E+01 -0.8055280314795E+00 -0.3811969103600E-01
-0.1550294744423E+00 -0.3852792506515E+01 -0.8015644081357E+00  0.6026398719975E-02
-0.1547547960014E+00 -0.3841777986451E+01 -0.7993065684011E+00  0.4923852402306E-01
-0.1611985076787E+00 -0.3831822889948E+01 -0.7986042914255E+00  0.9258853528791E-01
-0.1739399980524E+00 -0.3822638392727E+01 -0.7993156900665E+00  0.1370037216400E+00
-0.1928631930713E+00 -0.3813604410620E+01 -0.8012935326785E+00  0.1831689854610E+00
-0.2180264696553E+00 -0.3803793531188E+01 -0.8043640121547E+00  0.2314263560322E+00
-0.2494793490753E+00 -0.3792015921232E+01 -0.8082990661061E+00  0.2816739779452E+00
-0.2870178180056E+00 -0.3776909699966E+01 -0.8127855157057E+00  0.3333033090926E+00
-0.3299284021325E+00 -0.3757064914082E+01 -0.8173986754232E+00  0.3852352413462E+00
-0.3768079998499E+00 -0.3731184428343E+01 -0.8215984978813E+00  0.4360777340332E+00
-0.4255167765608E+00 -0.3698457581827E+01 -0.8247948839679E+00  0.4843947920192E+00
-0.4734429205496E+00 -0.3658630648320E+01 -0.8264147260884E+00  0.5289092438037E+00
-0.5179514575265E+00 -0.3611487178106E+01 -0.8258877394332E+00  0.5684332429183E+00
-0.5566147357889E+00 -0.3556478427920E+01 -0.8226186449998E+00  0.6016315604833E+00
-0.5871608216321E+00 -0.3492707550448E+01 -0.8159736865749E+00  0.6267845934315E+00
-0.6072354119100E+00 -0.3419105117178E+01 -0.8052681178170E+00  0.6416390390283E+00
-0.6140758121828E+00 -0.3334662368957E+01 -0.7897476479961E+00  0.6433749290256E+00
-0.6041636196853E+00 -0.3238657437514E+01 -0.7685642228923E+00  0.6286747668303E+00
-0.5728742531318E+00 -0.3130876728698E+01 -0.7407502074040E+00  0.5938688611091E+00
-0.5141015884432E+00 -0.3011872219026E+01 -0.7051947720020E+00  0.5351558011152E+00
-0.4197698443811E+00 -0.2883204138905E+01 -0.6605948065008E+00  0.4488864641292E+00
-0.2790962402580E+00 -0.2747697443918E+01 -0.6053587458556E+00  0.3319568652923E+00
-0.7788130959923E-01 -0.2610099046080E+01 -0.5375960791466E+00  0.1827687405787E+00
 0.2016666651721E+00 -0.2477761580081E+01 -0.4552189897651E+00  0.3061086766029E-02
 0.5800620927663E+00 -0.2360542330952E+01 -0.3560960529434E+00 -0.1995541433202E+00
 0.1077640585125E+01 -0.2269358142226E+01 -0.2383435149719E+00 -0.4085661920424E+00
 0.1708671203427E+01 -0.2212626766536E+01 -0.1007911141238E+00 -0.5961256251919E+00
 0.2472481456686E+01 -0.2190421847736E+01  0.5641192263068E-01 -0.7233274470701E+00
 0.3343866459452E+01 -0.2187950643421E+01  0.2311831666511E+00 -0.7458006786267E+00
 0.4268268706821E+01 -0.2172515299384E+01  0.4191506877331E+00 -0.6258177645486E+00
 0.5167911542693E+01 -0.2098735012146E+01  0.6138353152564E+00 -0.3484599410430E+00
-0.8622599140372E+00 -0.3716065991878E+01 -0.9156651948275E+00 -0.3931603629434E+00
-0.7382898977037E+00 -0.3765982564804E+01 -0.9008545059253E+00 -0.3944828596090E+00
-0.6141307360084E+00 -0.3809829200070E+01 -0.8847920004001E+00 -0.3757515579444E+00
-0.5002571890296E+00 -0.3842765376962E+01 -0.8686045261415E+00 -0.3398490720555E+00
-0.4035538146844E+00 -0.3862869486755E+01 -0.8532846730029E+00 -0.2927298293076E+00
-0.3264146940514E+00 -0.3871178395222E+01 -0.8395186303644E+00 -0.2405017819444E+00
-0.2679723085889E+00 -0.3870397765758E+01 -0.8276740272027E+00 -0.1876254756485E+00
-0.2258057111341E+00 -0.3863556939817E+01 -0.8178725423775E+00 -0.1365359948027E+00
-0.1971858347056E+00 -0.3853219212679E+01 -0.8100810215482E+00 -0.8805936286681E-01
-0.1797086100559E+00 -0.3841222593119E+01 -0.8041862526182E+00 -0.4200995818690E-01
-0.1715070136355E+00 -0.3828710362687E+01 -0.8000434871860E+00  0.2323333674748E-02
-0.1712546102197E+00 -0.3816253989374E+01 -0.7975017318025E+00  0.4585587383311E-01
-0.1780920689250E+00 -0.3803969059161E+01 -0.7964122374847E+00  0.8950912789819E-01
-0.1915327198408E+00 -0.3791594571368E+01 -0.7966254701124E+00  0.1340789158634E+00
-0.2113552681420E+00 -0.3778542059040E+01 -0.7979794773271E+00  0.1801265265394E+00
-0.2374711139330E+00 -0.3763935536324E+01 -0.8002813419765E+00  0.2278789301129E+00
-0.2697461814124E+00 -0.3746671084900E+01 -0.8032834652324E+00  0.2771406377306E+00
-0.3077791018564E+00 -0.3725511164679E+01 -0.8066580653272E+00  0.3272485973511E+00
-0.3506841684543E+00 -0.3699197518775E+01 -0.8099763495155E+00  0.3771147526190E+00
-0.3969464273785E+00 -0.3666591884395E+01 -0.8127076744651E+00  0.4253671328393E+00
-0.4443834703215E+00 -0.3627017412452E+01 -0.8142801886884E+00  0.4705904971189E+00
-0.4903691132501E+00 -0.3580324369990E+01 -0.8141387087797E+00  0.5114968744719E+00
-0.5322118309148E+00 -0.3526416445235E+01 -0.8117256673256E+00  0.5468400730760E+00
-0.5673406899236E+00 -0.3464922993975E+01 -0.8064527487968E+00  0.5752041517441E+00
-0.5932522433434E+00 -0.3395193191398E+01 -0.7976890988348E+00  0.5948094458087E+00
-0.6072997185003E+00 -0.3316462268027E+01 -0.7847524089991E+00  0.6033977640282E+00
-0.6064029534443E+00 -0.3228074528700E+01 -0.7668955078564E+00  0.5982197250643E+00
-0.5867332359835E+00 -0.3129708347290E+01 -0.7432883277306E+00  0.5761190976109E+00
-0.5433927868245E+00 -0.3021603532847E+01 -0.7129992745589E+00  0.5337030268142E+00
-0.4700841671340E+00 -0.2904818464140E+01 -0.6749805363128E+00  0.4676087824821E+00
-0.3587107871791E+00 -0.2781457063106E+01 -0.6280335794154E+00  0.3748607184584E+00
-0.1988158734935E+00 -0.2654871436691E+01 -0.5707374705416E+00  0.2533550099561E+00
 0.2281937660285E-01 -0.2530137684870E+01 -0.5014636691259E+00  0.1028621425086E+00
 0.3219298809288E+00 -0.2414422498465E+01 -0.4184985297433E+00 -0.7326533732321E-01
 0.7154748502244E+00 -0.2316521025703E+01 -0.3202092398672E+00 -0.2659708889380E+00
 0.1218590931805E+01 -0.2245172200798E+01 -0.2053162568581E+00 -0.4583036443771E+00
 0.1839318896283E+01 -0.2205741671313E+01 -0.7328455609790E-01 -0.6241822691986E+00
 0.2571578229585E+01 -0.2195502700485E+01  0.7521510694092E-01 -0.7297634679429E+00
 0.3388567806879E+01 -0.2199053794984E+01  0.2379028059239E+00 -0.7389359089571E+00
 0.4240941729555E+01 -0.2187100710388E+01  0.4107682099544E+00 -0.6228610580233E+00
 0.5064236194567E+01 -0.2122285745100E+01  0.5883900986611E+00 -0.3714401788209E+00
-0.8580107521319E+00 -0.3685083714925E+01 -0.9086189069509E+00 -0.3742961338478E+00
-0.7408632461081E+00 -0.3732757104611E+01 -0.8947240834762E+00 -0.3766320629010E+00
-0.6234470979825E+00 -0.3775283601204E+01 -0.8797461529466E+00 -0.3609212322502E+00
-0.5147614465284E+00 -0.3808371296534E+01 -0.8646265614963E+00 -0.3293335027889E+00
-0.4211143683574E+00 -0.3829986972581E+01 -0.8502202808570E+00 -0.2867128041161E+00
-0.3451644693208E+00 -0.3840574493595E+01 -0.8371478050577E+00 -0.2383182040847E+00
-0.2866893926956E+00 -0.3842156084525E+01 -0.8257691077491E+00 -0.1882533053001E+00
-0.2439062434887E+00 -0.3837244416989E+01 -0.8162301442584E+00 -0.1389775783736E+00
-0.2145493628044E+00 -0.3828109507572E+01 -0.8085317861233E+00 -0.9152398187635E-01
-0.1964910833602E+00 -0.3816465551871E+01 -0.8025913390058E+00 -0.4595344966112E-01
-0.1880000315050E+00 -0.3803427144781E+01 -0.7982854471526E+00 -0.1776243264707E-02
-0.1877931083541E+00 -0.3789578089260E+01 -0.7954742513762E+00  0.4174085835090E-01
-0.1949939271284E+00 -0.3775059455320E+01 -0.7940106883213E+00  0.8536867329076E-01
-0.2090535179796E+00 -0.3759641188252E+01 -0.7937389530740E+00  0.1297719544820E+00
-0.2296473469644E+00 -0.3742776631386E+01 -0.7944848075087E+00  0.1753934667509E+00
-0.2565444922252E+00 -0.3723653569076E+01 -0.7960396241222E+00  0.2223562645016E+00
-0.2894381621517E+00 -0.3701263135943E+01 -0.7981402715121E+00  0.2703863211221E+00
-0.3277461238374E+00 -0.3674494579938E+01 -0.8004481526827E+00  0.3187799535352E+00
-0.3704259818389E+00 -0.3642237850752E+01 -0.8025327784769E+00  0.3664481071869E+00
-0.4158567101016E+00 -0.3603508245416E+01 -0.8038730030821E+00  0.4120412925064E+00
-0.4618057976375E+00 -0.3557759624060E+01 -0.8039130963187E+00  0.4541665914167E+00
-0.5056181048861E+00 -0.3504946711326E+01 -0.8021129751948E+00  0.4915325296878E+00
-0.5445359309380E+00 -0.3445095077474E+01 -0.7979262135725E+00  0.5228518691883E+00
-0.5758490355782E+00 -0.3378012078242E+01 -0.7907722345475E+00  0.5466524678516E+00
-0.5968414116982E+00 -0.3303290463237E+01 -0.7800263866104E+00  0.5611211724042E+00
-0.6046049940021E+00 -0.3220466127968E+01 -0.7650142357936E+00  0.5640213213211E+00
-0.5957837802437E+00 -0.3129229829756E+01 -0.7450027331014E+00  0.5527018038974E+00
-0.5662936391803E+00 -0.3029645757169E+01 -0.7191878899867E+00  0.5241992153416E+00
-0.5110401744356E+00 -0.2922374659055E+01 -0.6866829769305E+00  0.4754327539560E+00
-0.4236446469848E+00 -0.2808916320517E+01 -0.6465122031342E+00  0.4035092119718E+00
-0.2961421801771E+00 -0.2691803645674E+01 -0.5975891740749E+00  0.3061318992620E+00
-0.1185913733599E+00 -0.2574736717523E+01 -0.5386656262034E+00  0.1821384496507E+00
 0.1210634851634E+00 -0.2462884989773E+01 -0.4683643079010E+00  0.3248907839621E-01
 0.4364313256448E+00 -0.2362990268780E+01 -0.3853117943687E+00 -0.1382051931554E+00
 0.8411408376542E+00 -0.2282660480320E+01 -0.2883039328292E+00 -0.3199832179076E+00
 0.1345866690075E+01 -0.2228617009625E+01 -0.1765500665407E+00 -0.4960601871181E+00
 0.1953781680576E+01 -0.2203748077112E+01 -0.4999328005198E-01 -0.6424719161963E+00
 0.2655146206775E+01 -0.2203416132541E+01  0.9034601619300E-01 -0.7300435968474E+00
 0.3422880800403E+01 -0.2212363562537E+01  0.2421034511809E+00 -0.7295334862155E+00
 0.4212298901732E+01 -0.2204288734504E+01  0.4016020394299E+00 -0.6190107216349E+00
 0.4969341420197E+01 -0.2147592083246E+01  0.5643498757997E+00 -0.3909569913787E+00
-0.8537665577621E+00 -0.3655480491089E+01 -0.9018494232089E+00 -0.3563522921831E+00
-0.7427502704430E+00 -0.3701059218359E+01 -0.8887619110040E+00 -0.3595472556325E+00
-0.6314552838671E+00 -0.3742213928615E+01 -0.8747338555310E+00 -0.3464200607702E+00
-0.5276667348255E+00 -0.3775127554336E+01 -0.8605588706556E+00 -0.3186172029454E+00
-0.4371406065664E+00 -0.3797740021783E+01 -0.8469761382909E+00 -0.2800940330269E+00
-0.3626647083876E+00 -0.3810057672922E+01 -0.8345444886976E+00 -0.2353662944176E+00
-0.3045066779709E+00 -0.3813539898002E+01 -0.8236093274672E+00 -0.1881649954749E+00
-0.2614212140331E+00 -0.3810231554313E+01 -0.8143305658036E+00 -0.1409034436870E+00
-0.2315650898418E+00 -0.3802104947625E+01 -0.8067340195147E+00 -0.9475191638937E-01
-0.2130822993419E+00 -0.3790724159223E+01 -0.8007613036453E+00 -0.4997120159406E-01
-0.2043865031778E+00 -0.3777148387012E+01 -0.7963069899039E+00 -0.6268578796029E-02
-0.2042488928750E+00 -0.3761955777804E+01 -0.7932409459560E+00  0.3691719903389E-01
-0.2117838845467E+00 -0.3745305319284E+01 -0.7914178525591E+00  0.8021028948647E-01
-0.2263849279830E+00 -0.3726999126622E+01 -0.7906768227030E+00  0.1241480215277E+00
-0.2476282549277E+00 -0.3706539118663E+01 -0.7908334865025E+00  0.1690614694196E+00
-0.2751472523708E+00 -0.3683184942300E+01 -0.7916664507309E+00  0.2149807448193E+00
-0.3084739219295E+00 -0.3656028031085E+01 -0.7929004024181E+00  0.2615664375280E+00
-0.3468602842622E+00 -0.3624084564063E+01 -0.7941889814993E+00  0.3080855648477E+00
-0.3891204464026E+00 -0.3586388816267E+01 -0.7951018643818E+00  0.3534545418268E+00
-0.4335320751030E+00 -0.3542104996701E+01 -0.7951274262091E+00  0.3963490359231E+00
-0.4778067979226E+00 -0.3490815272972E+01 -0.7937244260064E+00  0.4354011237253E+00
-0.5192496182039E+00 -0.3432579508485E+01 -0.7903658371151E+00  0.4693235588282E+00
-0.5550304357567E+00 -0.3367546516431E+01 -0.7845154021278E+00  0.4968044532198E+00
-0.5823054374533E+00 -0.3295700449822E+01 -0.7756011890124E+00  0.5163383774427E+00
-0.5981654409771E+00 -0.3216872771037E+01 -0.7630076537725E+00  0.5261036655201E+00
-0.5994725137389E+00 -0.3130891595738E+01 -0.7460728330126E+00  0.5239097209846E+00
-0.5826372676525E+00 -0.3037780708095E+01 -0.7240836059391E+00  0.5072278908264E+00
-0.5433759540185E+00 -0.2937966913812E+01 -0.6962685839414E+00  0.4733120156493E+00
-0.4764726980979E+00 -0.2832490275547E+01 -0.6617926045905E+00  0.4194154986970E+00
-0.3755687802347E+00 -0.2723220836991E+01 -0.6197579326803E+00  0.3431248667438E+00
-0.2329601960453E+00 -0.2613008680186E+01 -0.5691937837279E+00  0.2428002406319E+00
-0.3936346966703E-01 -0.2505743954001E+01 -0.5090214923186E+00  0.1181328623575E+00
 0.2160070220614E+00 -0.2406503719889E+01 -0.4380993460937E+00 -0.2892226988676E-01
 0.5446599007976E+00 -0.2321448813931E+01 -0.3553577879219E+00 -0.1928262600918E+00
 0.9571919351135E+00 -0.2256973338434E+01 -0.2599562845377E+00 -0.3631555048138E+00
 0.1460523958041E+01 -0.2218000827321E+01 -0.1514953761135E+00 -0.5237127714295E+00
 0.2054091471409E+01 -0.2205460844345E+01 -0.3027387503831E-01 -0.6527859265347E+00
 0.2725776268963E+01 -0.2213467290657E+01  0.1024617971879E+00 -0.7253805717077E+00
 0.3449122916869E+01 -0.2227394745110E+01  0.2443456379930E+00 -0.7178569790188E+00
 0.4183522177060E+01 -0.2223888348726E+01  0.3919267715070E+00 -0.6139894825274E+00
 0.4881801142583E+01 -0.2174720199877E+01  0.5414161966088E+00 -0.4077585878008E+00
-0.8495266349674E+00 -0.3627050263764E+01 -0.8953153930874E+00 -0.3392526719110E+00
-0.7440531144076E+00 -0.3670671921320E+01 -0.8829450203025E+00 -0.3431891764413E+00
-0.6383320373692E+00 -0.3710439627613E+01 -0.8697543459567E+00 -0.3322993149653E+00
-0.5391478737306E+00 -0.3742943618914E+01 -0.8564183112906E+00 -0.3078423402010E+00
-0.4517444511618E+00 -0.3766148497180E+01 -0.8435786022386E+00 -0.2730611244049E+00
-0.3789467516018E+00 -0.3779740212967E+01 -0.8317374053076E+00 -0.2318273628898E+00
-0.3213888975104E+00 -0.3784718486275E+01 -0.8212214889942E+00 -0.1875040801095E+00
-0.2782727060219E+00 -0.3782712815078E+01 -0.8121971163227E+00 -0.1424105860546E+00
-0.2481327192659E+00 -0.3775405788393E+01 -0.8047077135228E+00 -0.9779825122921E-01
-0.2293723025615E+00 -0.3764196719664E+01 -0.7987138163469E+00 -0.5408504342592E-01
-0.2205533267494E+00 -0.3750070135751E+01 -0.7941247043335E+00 -0.1114960685812E-01
-0.2205087128347E+00 -0.3733583969486E+01 -0.7908185482484E+00  0.3141072167832E-01
-0.2283504092907E+00 -0.3714908102737E+01 -0.7886517141575E+00  0.7408075411600E-01
-0.2434195571932E+00 -0.3693876584793E+01 -0.7874592401312E+00  0.1172765956670E+00
-0.2651985733354E+00 -0.3670043870451E+01 -0.7870485004851E+00  0.1612257248779E+00
-0.2931930651025E+00 -0.3642746183799E+01 -0.7871878615103E+00  0.2058759795127E+00
-0.3267854940467E+00 -0.3611177560499E+01 -0.7875926226453E+00  0.2508341333648E+00
-0.3650759658759E+00 -0.3574479596739E+01 -0.7879111242638E+00  0.2953473846836E+00
-0.4067465113309E+00 -0.3531826707560E+01 -0.7877146555161E+00  0.3383431769533E+00
-0.4499777575824E+00 -0.3482527661894E+01 -0.7865010956151E+00  0.3785253677532E+00
-0.4924214322435E+00 -0.3426290682699E+01 -0.7837424346671E+00  0.4145545444726E+00
-0.5313349485260E+00 -0.3363281151164E+01 -0.7789232315449E+00  0.4451555979550E+00
-0.5638124869708E+00 -0.3293771660738E+01 -0.7715168410383E+00  0.4690073278682E+00
-0.5868839266813E+00 -0.3217920606791E+01 -0.7609609180336E+00  0.4845920797574E+00
-0.5974665726464E+00 -0.3135791040320E+01 -0.7466515337192E+00  0.4901025276591E+00
-0.5922238236916E+00 -0.3047491158165E+01 -0.7279430072184E+00  0.4834160473430E+00
-0.5673750297716E+00 -0.2953359066467E+01 -0.7041468297403E+00  0.4621464120277E+00
-0.5184914677656E+00 -0.2854154745639E+01 -0.6745292527321E+00  0.4237817052554E+00
-0.4403065525161E+00 -0.2751250519824E+01 -0.6383114239796E+00  0.3659195006201E+00
-0.3265710682863E+00 -0.2646814340423E+01 -0.5946770906032E+00  0.2866187755452E+00
-0.1699460682141E+00 -0.2543910048981E+01 -0.5427712315269E+00  0.1848534013769E+00
 0.3809493795209E-01 -0.2446484858560E+01 -0.4816779912991E+00  0.6106260940785E-01
 0.3070224896164E+00 -0.2359384945497E+01 -0.4104724972927E+00 -0.8199955257662E-01
 0.6463369464249E+00 -0.2288101006381E+01 -0.3283528168840E+00 -0.2381600096550E+00
 0.1063935289543E+01 -0.2237852363468E+01 -0.2347834182836E+00 -0.3968809197480E+00
 0.1563630307289E+01 -0.2212005868784E+01 -0.1296751142314E+00 -0.5428292929397E+00
 0.2142039882041E+01 -0.2209972137497E+01 -0.1358645129360E-01 -0.6565348898120E+00
 0.2785595054123E+01 -0.2225118691370E+01  0.1120952742209E+00 -0.7166909596642E+00
 0.3468936273971E+01 -0.2243613120270E+01  0.2450646343918E+00 -0.7041319259102E+00
 0.4155787204588E+01 -0.2245334397775E+01  0.3820905670560E+00 -0.6071433510545E+00
 0.4800421155668E+01 -0.2204001040796E+01  0.5192840307125E+00 -0.4228523930237E+00
-0.8452971549621E+00 -0.3599631258450E+01 -0.8889856959294E+00 -0.3229333130522E+00
-0.7448570298055E+00 -0.3641430069973E+01 -0.8772574330278E+00 -0.3275250336151E+00
-0.6442247529657E+00 -0.3679828079381E+01 -0.8648105793561E+00 -0.3185997346249E+00
-0.5493532797311E+00 -0.3711762048924E+01 -0.8522230784301E+00 -0.2971270071714E+00
-0.4650231326399E+00 -0.3735250797748E+01 -0.8400547985954E+00 -0.2657759805934E+00
-0.3940361600572E+00 -0.3749747238025E+01 -0.8287566919658E+00 -0.2278643879358E+00
-0.3372966305286E+00 -0.3755878032324E+01 -0.8186349447690E+00 -0.1864046480214E+00
-0.2943743457967E+00 -0.3754909502829E+01 -0.8098567817930E+00 -0.1435921001322E+00
-0.2641364267392E+00 -0.3748251000463E+01 -0.8024774973983E+00 -0.1007153489538E+00
-0.2452280943671E+00 -0.3737132022078E+01 -0.7964720351575E+00 -0.5831193792001E-01
-0.2363574285533E+00 -0.3722450197001E+01 -0.7917615369090E+00 -0.1640632277258E-01
-0.2364231922342E+00 -0.3704732551137E+01 -0.7882311604199E+00  0.2526116166096E-01
-0.2445402872193E+00 -0.3684154074408E+01 -0.7857388840338E+00  0.6704603003187E-01
-0.2600030792144E+00 -0.3660579820842E+01 -0.7841165916955E+00  0.1092516566674E+00
-0.2822067363080E+00 -0.3633618759873E+01 -0.7831651109063E+00  0.1520113113778E+00
-0.3105381980426E+00 -0.3602685863518E+01 -0.7826448239744E+00  0.1952012965824E+00
-0.3442425630678E+00 -0.3567077779253E+01 -0.7822640801208E+00  0.2383852615981E+00
-0.3822815106004E+00 -0.3526058532992E+01 -0.7816680203662E+00  0.2807990301641E+00
-0.4232159831409E+00 -0.3478937773451E+01 -0.7804307629477E+00  0.3213862679141E+00
-0.4651345729543E+00 -0.3425163932081E+01 -0.7780597126011E+00  0.3588824684460E+00
-0.5056274947812E+00 -0.3364568225190E+01 -0.7740391555284E+00  0.3919807960492E+00
-0.5419002643779E+00 -0.3297420532859E+01 -0.7678641708895E+00  0.4194260730222E+00
-0.5709713637897E+00 -0.3224115705161E+01 -0.7590174251003E+00  0.4399019675152E+00
-0.5897540408553E+00 -0.3144981031874E+01 -0.7469470256763E+00  0.4518976370188E+00
-0.5950131927949E+00 -0.3060300216531E+01 -0.7310626927589E+00  0.4536402605110E+00
-0.5832455543061E+00 -0.2970444264535E+01 -0.7107379743589E+00  0.4430933805700E+00
-0.5505214171427E+00 -0.2876040550907E+01 -0.6853124038218E+00  0.4180274105126E+00
-0.4923199260070E+00 -0.2778146137823E+01 -0.6540932225127E+00  0.3761725339447E+00
-0.4033882662135E+00 -0.2678413682239E+01 -0.6163603988750E+00  0.3154668646017E+00
-0.2776614198739E+00 -0.2579236999751E+01 -0.5713796924392E+00  0.2344167415325E+00
-0.1082416282678E+00 -0.2483800624876E+01 -0.5184084583537E+00  0.1325476371670E+00
 0.1125863849236E+00 -0.2396002006249E+01 -0.4566831310702E+00  0.1092750222463E-01
 0.3929922045521E+00 -0.2320362177713E+01 -0.3854740003762E+00 -0.1270820584100E+00
 0.7406182475451E+00 -0.2261669230115E+01 -0.3042102010472E+00 -0.2749287061998E+00
 0.1161017792600E+01 -0.2224055746469E+01 -0.2126075939418E+00 -0.4222247123992E+00
 0.1655487876244E+01 -0.2209578426509E+01 -0.1108181117044E+00 -0.5546585680923E+00
 0.2218572322097E+01 -0.2216503364527E+01  0.4137915202122E-03 -0.6548949805316E+00
 0.2835942910083E+01 -0.2237792773645E+01  0.1196300290704E+00 -0.7047869122911E+00
 0.3483512205775E+01 -0.2260540023222E+01  0.2445944401554E+00 -0.6888542565406E+00
 0.4129103576884E+01 -0.2267029201952E+01  0.3724148805359E+00 -0.5980547207546E+00
 0.4731189438271E+01 -0.2236478357712E+01  0.4989422235466E+00 -0.4356975211229E+00
-0.8410609407840E+00 -0.3573085658118E+01 -0.8828293329357E+00 -0.3073306380556E+00
-0.7452158810228E+00 -0.3613187979118E+01 -0.8716807850172E+00 -0.3125125142176E+00
-0.6492390108372E+00 -0.3650250769206E+01 -0.8598979688221E+00 -0.3053329860942E+00
-0.5583999084440E+00 -0.3681505954768E+01 -0.8479811852783E+00 -0.2865450044645E+00
-0.4770631146206E+00 -0.3705041884245E+01 -0.8364210122368E+00 -0.2583533869521E+00
-0.4079690207942E+00 -0.3720143430497E+01 -0.8256225025609E+00 -0.2236011298675E+00
-0.3522167402924E+00 -0.3727135783474E+01 -0.8158705169106E+00 -0.1849738264352E+00
-0.3096758717682E+00 -0.3726971092137E+01 -0.8073294048112E+00 -0.1445253946338E+00
-0.2795025897151E+00 -0.3720806462450E+01 -0.8000618223549E+00 -0.1035479083200E+00
-0.2605636254133E+00 -0.3709703132218E+01 -0.7940533633586E+00 -0.6266596387011E-01
-0.2517077180770E+00 -0.3694464941593E+01 -0.7892345436946E+00 -0.2202537017999E-01
-0.2519010858271E+00 -0.3675580342671E+01 -0.7854962974044E+00  0.1850712552107E-01
-0.2602659194799E+00 -0.3653224521093E+01 -0.7826980997778E+00  0.5916938667830E-01
-0.2760553619792E+00 -0.3627291850305E+01 -0.7806694540897E+00  0.1001618099757E+00
-0.2985844140315E+00 -0.3597446022525E+01 -0.7792060989224E+00  0.1415332512967E+00
-0.3271307614802E+00 -0.3563180836578E+01 -0.7780623312057E+00  0.1830986513360E+00
-0.3608138623501E+00 -0.3523893831725E+01 -0.7769415503923E+00  0.2243880173433E+00
-0.3984692685304E+00 -0.3478967506089E+01 -0.7754873664795E+00  0.2646330901600E+00
-0.4385466590857E+00 -0.3427841491862E+01 -0.7732776417123E+00  0.3027984521928E+00
-0.4790474123129E+00 -0.3370098746216E+01 -0.7698292431771E+00  0.3376548284486E+00
-0.5174998933344E+00 -0.3305689931721E+01 -0.7646379764052E+00  0.3679323053979E+00
-0.5510557132924E+00 -0.3234987647638E+01 -0.7572086834694E+00  0.3924030658891E+00
-0.5766596328424E+00 -0.3158506432762E+01 -0.7470332242526E+00  0.4097682849677E+00
-0.5911186859747E+00 -0.3076735887368E+01 -0.7335709255997E+00  0.4185404569718E+00
-0.5910658544174E+00 -0.2990167941897E+01 -0.7162467699357E+00  0.4169983171877E+00
-0.5728614340702E+00 -0.2899417271511E+01 -0.6944557514643E+00  0.4032060032637E+00
-0.5324658410549E+00 -0.2805373421330E+01 -0.6675678624246E+00  0.3750998252117E+00
-0.4653138198695E+00 -0.2709353091904E+01 -0.6349333918159E+00  0.3306530838683E+00
-0.3662217928249E+00 -0.2613238467794E+01 -0.5958920610033E+00  0.2681318715892E+00
-0.2293682159078E+00 -0.2519583464954E+01 -0.5497903443649E+00  0.1864547938661E+00
-0.4834855134577E-01 -0.2431614836117E+01 -0.4959926848833E+00  0.8562886746418E-01
 0.1837196534502E+00 -0.2353098808928E+01 -0.4338758375607E+00 -0.3276739786970E-01
 0.4737539317663E+00 -0.2288172341687E+01 -0.3628836873915E+00 -0.1649365144227E+00
 0.8277096737752E+00 -0.2240925175907E+01 -0.2826431046380E+00 -0.3041545832311E+00
 0.1249133282523E+01 -0.2214510937404E+01 -0.1930755338532E+00 -0.4403729628698E+00
 0.1737306677861E+01 -0.2209902913993E+01 -0.9451924863480E-01 -0.5603761662601E+00
 0.2285286877145E+01 -0.2224520735137E+01  0.1215322858269E-01 -0.6488060758779E+00
 0.2878421988444E+01 -0.2251167183318E+01  0.1254509628945E+00 -0.6902285594932E+00
 0.3494150070564E+01 -0.2277846509656E+01  0.2432607158066E+00 -0.6720639369826E+00
 0.4103091806431E+01 -0.2288845300434E+01  0.3628493066063E+00 -0.5877405443409E+00
 0.4674077257747E+01 -0.2267509439702E+01  0.4813135707811E+00 -0.4407596460582E+00
-0.8368214273323E+00 -0.3547304346088E+01 -0.8768251677497E+00 -0.2923911213549E+00
-0.7451807910577E+00 -0.3585820243058E+01 -0.8662002197306E+00 -0.2981082201130E+00
-0.6534740443152E+00 -0.3621587124322E+01 -0.8550122464682E+00 -0.2924964604220E+00
-0.5664023193422E+00 -0.3652085987884E+01 -0.8436976740172E+00 -0.2761436471415E+00
-0.4879610252569E+00 -0.3675482086230E+01 -0.8326886347053E+00 -0.2508778313370E+00
-0.4208049522214E+00 -0.3690940858766E+01 -0.8223491744515E+00 -0.2191355932633E+00
-0.3661696232546E+00 -0.3698544812456E+01 -0.8129428992560E+00 -0.1833020851660E+00
-0.3241664235164E+00 -0.3698976294698E+01 -0.8046285556328E+00 -0.1452810244157E+00
-0.2942001019295E+00 -0.3693162813282E+01 -0.7974725949255E+00 -0.1063422842723E+00
-0.2753374461262E+00 -0.3682002950322E+01 -0.7914680910834E+00 -0.6716976994490E-01
-0.2665599955452E+00 -0.3666203497331E+01 -0.7865527102959E+00 -0.2800787365326E-01
-0.2669011442394E+00 -0.3646208729368E+01 -0.7826219863834E+00  0.1116695417807E-01
-0.2754937069088E+00 -0.3622189522243E+01 -0.7795366574465E+00  0.5048729704685E-01
-0.2915548644787E+00 -0.3594067008872E+01 -0.7771243862501E+00  0.9006083272951E-01
-0.3143264596010E+00 -0.3561558213010E+01 -0.7751769460733E+00  0.1298616515951E+00
-0.3429859262167E+00 -0.3524234144959E+01 -0.7734440257603E+00  0.1696526565658E+00
-0.3765376967645E+00 -0.3481590292975E+01 -0.7716256094461E+00  0.2089384815481E+00
-0.4137018282852E+00 -0.3433123193883E+01 -0.7693650158980E+00  0.2469530659912E+00
-0.4528250071521E+00 -0.3378397324784E+01 -0.7662444778051E+00  0.2826862059313E+00
-0.4918255969861E+00 -0.3317125323239E+01 -0.7617901953966E+00  0.3149475338495E+00
-0.5281703028398E+00 -0.3249373881718E+01 -0.7555088481694E+00  0.3425084630646E+00
-0.5589558514038E+00 -0.3175616363278E+01 -0.7469144540663E+00  0.3641754811402E+00
-0.5810558561208E+00 -0.3096484191631E+01 -0.7355080205102E+00  0.3786784944461E+00
-0.5911809300065E+00 -0.3012622754563E+01 -0.7207607476540E+00  0.3845676728917E+00
-0.5858505526740E+00 -0.2924720257868E+01 -0.7021141725708E+00  0.3801877693857E+00
-0.5613154020116E+00 -0.2833616785091E+01 -0.6789864475381E+00  0.3637150796117E+00
-0.5134604778005E+00 -0.2740438440720E+01 -0.6507797934015E+00  0.3332577385149E+00
-0.4377173344855E+00 -0.2646726941643E+01 -0.6168888644181E+00  0.2870291654304E+00
-0.3290177379513E+00 -0.2554548694132E+01 -0.5767132950104E+00  0.2236064211791E+00
-0.1818295283842E+00 -0.2466561940279E+01 -0.5296783016255E+00  0.1422818660077E+00
 0.9724169274483E-02 -0.2385973373804E+01 -0.4752498479876E+00  0.4347489576413E-01
 0.2516909779411E+00 -0.2316359389796E+01 -0.4129336885242E+00 -0.7083353307412E-01
 0.5497992914338E+00 -0.2261440402980E+01 -0.3423282274103E+00 -0.1965565053639E+00
 0.9084826141210E+00 -0.2224632535769E+01 -0.2632299882520E+00 -0.3269623743321E+00
 0.1329571669268E+01 -0.2208218314914E+01 -0.1757293317479E+00 -0.4524738503609E+00
 0.1810737924461E+01 -0.2212279141068E+01 -0.8030824451811E-01 -0.5609968203795E+00
 0.2343978789373E+01 -0.2233617208574E+01  0.2207231648880E-01 -0.6389906823294E+00
 0.2914664770962E+01 -0.2265037525721E+01  0.1299254509841E+00 -0.6733530134960E+00
 0.3501620105734E+01 -0.2295421341347E+01  0.2412397564722E+00 -0.6538737809426E+00
 0.4078826742459E+01 -0.2310811552354E+01  0.3536030432901E+00 -0.5759269676743E+00
 0.4619510639135E+01 -0.2297386615057E+01  0.4644248117361E+00 -0.4424630966960E+00
-0.8325758236798E+00 -0.3522198031516E+01 -0.8709547840174E+00 -0.2780656545926E+00
-0.7447905848868E+00 -0.3559231873914E+01 -0.8608045045871E+00 -0.2842750697329E+00
-0.6570057773005E+00 -0.3593750694944E+01 -0.8501513071171E+00 -0.2800871199404E+00
-0.5734485877028E+00 -0.3623446344387E+01 -0.8393789989257E+00 -0.2659624248624E+00
-0.4977887142812E+00 -0.3646562081788E+01 -0.8288701715649E+00 -0.2434213021552E+00
-0.4325821811972E+00 -0.3662180010846E+01 -0.8189524506120E+00 -0.2145526703824E+00
-0.3791561003214E+00 -0.3670187930734E+01 -0.8098688182790E+00 -0.1814684114251E+00
-0.3378149022557E+00 -0.3671038103499E+01 -0.8017706130983E+00 -0.1459197802242E+00
-0.3081749361603E+00 -0.3665451785201E+01 -0.7947253561146E+00 -0.1091356487864E+00
-0.2894813041058E+00 -0.3654173737989E+01 -0.7887310201720E+00 -0.7183604889952E-01
-0.2808387550935E+00 -0.3637813808768E+01 -0.7837305244507E+00 -0.3434317835187E-01
-0.2813459175398E+00 -0.3616768781360E+01 -0.7796229513972E+00  0.3273254166138E-02
-0.2901485587867E+00 -0.3591201658249E+01 -0.7762700549745E+00  0.4105340596100E-01
-0.3064327876818E+00 -0.3561057584683E+01 -0.7734980859989E+00  0.7902298983802E-01
-0.3293742325311E+00 -0.3526104635346E+01 -0.7710957850657E+00  0.1170910783839E+00
-0.3580589134298E+00 -0.3485988315126E+01 -0.7688094571674E+00  0.1549774894929E+00
-0.3913863442964E+00 -0.3440298215357E+01 -0.7663369233499E+00  0.1921691381287E+00
-0.4279709779301E+00 -0.3388639942103E+01 -0.7633221953811E+00  0.2279079652723E+00
-0.4660642695986E+00 -0.3330697371967E+01 -0.7593523396284E+00  0.2612131720412E+00
-0.5035059866421E+00 -0.3266307618921E+01 -0.7539627323476E+00  0.2909371086405E+00
-0.5377024137263E+00 -0.3195649412830E+01 -0.7466703764375E+00  0.3158969547757E+00
-0.5656958771925E+00 -0.3119294106214E+01 -0.7369980076634E+00  0.3349399896855E+00
-0.5842925845943E+00 -0.3037986196444E+01 -0.7244557670030E+00  0.3468348276646E+00
-0.5901168193638E+00 -0.2952519300744E+01 -0.7085272345794E+00  0.3501816646684E+00
-0.5795921720851E+00 -0.2863764980139E+01 -0.6886714407067E+00  0.3434031776712E+00
-0.5488845587866E+00 -0.2772769651274E+01 -0.6643308519114E+00  0.3247962566589E+00
-0.4938346539813E+00 -0.2680870033812E+01 -0.6349409470200E+00  0.2926428888062E+00
-0.4099065966674E+00 -0.2589799157249E+01 -0.5999411597231E+00  0.2453887939576E+00
-0.2921850287200E+00 -0.2501765788775E+01 -0.5587901718256E+00  0.1818996221958E+00
-0.1354603209308E+00 -0.2419484223081E+01 -0.5109889164167E+00  0.1017984529708E+00
 0.6559949568923E-01 -0.2346091676361E+01 -0.4560984429307E+00  0.5846989018607E-02
 0.3162247988942E+00 -0.2284934560234E+01 -0.3937419581352E+00 -0.1036724772188E+00
 0.6210335974938E+00 -0.2239305199222E+01 -0.3236543251685E+00 -0.2225104789664E+00
 0.9831033636126E+00 -0.2211986949930E+01 -0.2457767209259E+00 -0.3440571689464E+00
 0.1402813132614E+01 -0.2204499541406E+01 -0.1603372841476E+00 -0.4592948492096E+00
 0.1876559760974E+01 -0.2216200045418E+01 -0.6792805790115E-01 -0.5572379972332E+00
 0.2395621991505E+01 -0.2243453359442E+01  0.3043372686618E-01 -0.6259976451781E+00
 0.2945584046671E+01 -0.2279181392346E+01  0.1332805328510E+00 -0.6544652080668E+00
 0.3506724196733E+01 -0.2313091234571E+01  0.2387265959897E+00 -0.6344003351046E+00
 0.4055753882881E+01 -0.2332854372068E+01  0.3445799072973E+00 -0.5624870113901E+00
 0.4569211246072E+01 -0.2326394839905E+01  0.4485632879177E+00 -0.4415241079195E+00
-0.8283213926023E+00 -0.3497693566039E+01 -0.8652030046208E+00 -0.2643088552183E+00
-0.7440760820434E+00 -0.3533344660818E+01 -0.8554841613199E+00 -0.2709769953540E+00
-0.6598961723614E+00 -0.3566669700130E+01 -0.8453131870943E+00 -0.2680961089239E+00
-0.5796126518119E+00 -0.3595539076989E+01 -0.8350303582031E+00 -0.2560275222528E+00
-0.5066090044132E+00 -0.3618271758521E+01 -0.8249761648799E+00 -0.2360385326071E+00
-0.4433367143675E+00 -0.3633893114445E+01 -0.8154459779137E+00 -0.2099203784678E+00
-0.3911804334981E+00 -0.3642135254188E+01 -0.8066631495575E+00 -0.1795381884117E+00
-0.3505970334088E+00 -0.3643255359452E+01 -0.7987704904748E+00 -0.1464929076799E+00
-0.3213812917381E+00 -0.3637791386053E+01 -0.7918345473575E+00 -0.1119590681797E+00
-0.3029354063698E+00 -0.3626345131849E+01 -0.7858561193540E+00 -0.7667372837449E-01
-0.2944767440650E+00 -0.3609432121803E+01 -0.7807817848082E+00 -0.4101825733192E-01
-0.2951659920335E+00 -0.3587400219071E+01 -0.7765132537919E+00 -0.5139852776020E-02
-0.3041633294693E+00 -0.3560401867609E+01 -0.7729130509331E+00  0.3092212352274E-01
-0.3206282477600E+00 -0.3528403447894E+01 -0.7698063506018E+00  0.6712234344153E-01
-0.3436768840479E+00 -0.3491221193543E+01 -0.7669796269470E+00  0.1033145420098E+00
-0.3723123873645E+00 -0.3448571587154E+01 -0.7641768062908E+00  0.1391840314220E+00
-0.4053389328859E+00 -0.3400133804665E+01 -0.7610945588514E+00  0.1742071574456E+00
-0.4412746212959E+00 -0.3345617119085E+01 -0.7573783593621E+00  0.2076393026728E+00
-0.4782830582216E+00 -0.3284819048122E+01 -0.7526204324836E+00  0.2385331820695E+00
-0.5141300614421E+00 -0.3217695578944E+01 -0.7463651391989E+00  0.2657877219648E+00
-0.5461636089085E+00 -0.3144532904670E+01 -0.7381393137148E+00  0.2882702222761E+00
-0.5713732725732E+00 -0.3065996815049E+01 -0.7274740283646E+00  0.3048747173599E+00
-0.5865024498276E+00 -0.2982940165942E+01 -0.7138885337917E+00  0.3144172769914E+00
-0.5880992225015E+00 -0.2896296397854E+01 -0.6968791344555E+00  0.3155585629715E+00
-0.5725078669495E+00 -0.2807106864948E+01 -0.6759229564515E+00  0.3068086440159E+00
-0.5358321481826E+00 -0.2716604963954E+01 -0.6504874321203E+00  0.2865905250986E+00
-0.4738958002573E+00 -0.2626312523674E+01 -0.6200416740256E+00  0.2533586270647E+00
-0.3822256194920E+00 -0.2538122029871E+01 -0.5840695385759E+00  0.2057792427621E+00
-0.2560882266992E+00 -0.2454347026321E+01 -0.5420870586819E+00  0.1429804149759E+00
-0.9061800242128E-01 -0.2377717358893E+01 -0.4936670796190E+00  0.6487059593766E-01
 0.1189693203220E+00 -0.2311263261800E+01 -0.4384587948291E+00 -0.2751461620272E-01
 0.3771192030058E+00 -0.2258076479309E+01 -0.3761914608664E+00 -0.1316837573295E+00
 0.6874271857323E+00 -0.2221025428836E+01 -0.3067196531913E+00 -0.2433324353855E+00
 0.1051775244988E+01 -0.2202311064756E+01 -0.2301071673825E+00 -0.3560724873692E+00
 0.1469324499700E+01 -0.2202794095563E+01 -0.1466939213586E+00 -0.4614997119639E+00
 0.1935476602906E+01 -0.2221250630872E+01 -0.5715480644489E-01 -0.5496996082676E+00
 0.2441045489566E+01 -0.2253750545118E+01  0.3745898944767E-01 -0.6102690433131E+00
 0.2971979113683E+01 -0.2293405707148E+01  0.1357146833294E+00 -0.6338096052270E+00
 0.3509929407395E+01 -0.2330724339065E+01  0.2358410171803E+00 -0.6136673621622E+00
 0.4033923467920E+01 -0.2354732541091E+01  0.3358381903702E+00 -0.5475040607156E+00
 0.4523047366166E+01 -0.2354801859217E+01  0.4336491078518E+00 -0.4380178826895E+00
-0.8240554915875E+00 -0.3473730696324E+01 -0.8595572503907E+00 -0.2510783962076E+00
-0.7430618210720E+00 -0.3508094105105E+01 -0.8502311979048E+00 -0.2581789131800E+00
-0.6621958917323E+00 -0.3540284414755E+01 -0.8404960738219E+00 -0.2565101649242E+00
-0.5849565730877E+00 -0.3568323256770E+01 -0.8306559783492E+00 -0.2463546090621E+00
-0.5144765311610E+00 -0.3590601087246E+01 -0.8210155359155E+00 -0.2287699990404E+00
-0.4531018689319E+00 -0.3606106105629E+01 -0.8118416070095E+00 -0.2052921572850E+00
-0.4022491414330E+00 -0.3614446367032E+01 -0.8033391136637E+00 -0.1775644316157E+00
-0.3624940870518E+00 -0.3615714496719E+01 -0.7956417286102E+00 -0.1470424745693E+00
-0.3337805594019E+00 -0.3610287011954E+01 -0.7888135260254E+00 -0.1148373986366E+00
-0.3156477020015E+00 -0.3598634701650E+01 -0.7828564923957E+00 -0.8168775236945E-01
-0.3074144788992E+00 -0.3581183194677E+01 -0.7777195463042E+00 -0.4801759954674E-01
-0.3082996011599E+00 -0.3558231505012E+01 -0.7733062327576E+00 -0.1403681160059E-01
-0.3174783955428E+00 -0.3529919616830E+01 -0.7694796139408E+00  0.2014836003063E-01
-0.3340877332391E+00 -0.3496232444117E+01 -0.7660640468865E+00  0.5443237813083E-01
-0.3571906641734E+00 -0.3457031089611E+01 -0.7628443621242E+00  0.8862311543484E-01
-0.3857156327557E+00 -0.3412098929812E+01 -0.7595629238320E+00  0.1223795760076E+00
-0.4183805309573E+00 -0.3361199709387E+01 -0.7559160593329E+00  0.1551742545134E+00
-0.4536158072742E+00 -0.3304140612071E+01 -0.7515512950680E+00  0.1862811223884E+00
-0.4895043068463E+00 -0.3240826729989E+01 -0.7460662184843E+00  0.2147904311334E+00
-0.5237427542435E+00 -0.3171326913826E+01 -0.7390139446260E+00  0.2396515123778E+00
-0.5536236407421E+00 -0.3096029689014E+01 -0.7299306768280E+00  0.2597859622652E+00
-0.5760863254908E+00 -0.3015691023064E+01 -0.7183554804153E+00  0.2741399702450E+00
-0.5878165697414E+00 -0.2931266637278E+01 -0.7038166518916E+00  0.2815846230176E+00
-0.5852961848306E+00 -0.2843820738129E+01 -0.6858233948114E+00  0.2808496901015E+00
-0.5648054680134E+00 -0.2754550574864E+01 -0.6638712184678E+00  0.2705398364512E+00
-0.5224061958634E+00 -0.2664857351509E+01 -0.6374527189733E+00  0.2492070765727E+00
-0.4539286529147E+00 -0.2576423546235E+01 -0.6060704488610E+00  0.2154739228804E+00
-0.3549866302334E+00 -0.2491271748769E+01 -0.5692516842830E+00  0.1682125102677E+00
-0.2210498197764E+00 -0.2411787428854E+01 -0.5265674575725E+00  0.1067846501907E+00
-0.4760773538127E-01 -0.2340683110109E+01 -0.4776581762157E+00  0.3133831338568E-01
 0.1695851851276E+00 -0.2280855181592E+01 -0.4222540055850E+00 -0.5688194138106E-01
 0.4342323692800E+00 -0.2235128644271E+01 -0.3601792603652E+00 -0.1552577364504E+00
 0.7489989460169E+00 -0.2205963522605E+01 -0.2913929196597E+00 -0.2595193564193E+00
 0.1114722385994E+01 -0.2195033430624E+01 -0.2160622121456E+00 -0.3635751671048E+00
 0.1529550475148E+01 -0.2202636157498E+01 -0.1346171384759E+00 -0.4596624619087E+00
 0.1988117254699E+01 -0.2227088195929E+01 -0.4779418895820E-01 -0.5388839876424E+00
 0.2480966370807E+01 -0.2264273516843E+01  0.4333857143864E-01 -0.5921662157923E+00
 0.2994494909649E+01 -0.2307545789295E+01  0.1373898261181E+00 -0.6115678563256E+00
 0.3511626854832E+01 -0.2348155765554E+01  0.2326942213230E+00 -0.5917176096127E+00
 0.4013344708405E+01 -0.2376282518654E+01  0.3274124428291E+00 -0.5310114585079E+00
 0.4480839170224E+01 -0.2382504448433E+01  0.4196669506116E+00 -0.4320810214740E+00
-0.8197756015248E+00 -0.3450259537094E+01 -0.8540070404495E+00 -0.2383344262156E+00
-0.7417673765994E+00 -0.3483426828933E+01 -0.8450388536986E+00 -0.2458466454937E+00
-0.6639464347363E+00 -0.3514545046917E+01 -0.8356983087835E+00 -0.2453126672297E+00
-0.5895324455299E+00 -0.3541764045908E+01 -0.8262593105999E+00 -0.2369509717042E+00
-0.5214386340880E+00 -0.3563540582286E+01 -0.8169958554490E+00 -0.2216443804245E+00
-0.4619080857848E+00 -0.3578840036096E+01 -0.8081496364184E+00 -0.2007088915653E+00
-0.4123701488311E+00 -0.3587172023638E+01 -0.7999084464134E+00 -0.1755890283336E+00
-0.3734918411004E+00 -0.3588491021440E+01 -0.7923965843156E+00 -0.1476018951358E+00
-0.3453404052670E+00 -0.3583032477614E+01 -0.7856745882837E+00 -0.1177893713857E+00
-0.3275731855178E+00 -0.3571148547940E+01 -0.7797443583107E+00 -0.8687900957626E-01
-0.3195997275581E+00 -0.3553180607404E+01 -0.7745560785343E+00 -0.5532317342572E-01
-0.3206921880520E+00 -0.3529380045476E+01 -0.7700144581798E+00 -0.2338071904797E-01
-0.3300411984732E+00 -0.3499873158706E+01 -0.7659828828499E+00  0.8787318089590E-02
-0.3467645589101E+00 -0.3464660831671E+01 -0.7622850894752E+00  0.4102572465099E-01
-0.3698782620333E+00 -0.3423645507712E+01 -0.7587047652547E+00  0.7310566884780E-01
-0.3982437946178E+00 -0.3376672983800E+01 -0.7549833669337E+00  0.1046676484667E+00
-0.4305013141480E+00 -0.3323586193114E+01 -0.7508175126404E+00  0.1351866378427E+00
-0.4650018354506E+00 -0.3264284182806E+01 -0.7458572147655E+00  0.1639600888254E+00
-0.4997542975160E+00 -0.3198773259209E+01 -0.7397055223675E+00  0.1901197077616E+00
-0.5323913618945E+00 -0.3127228735818E+01 -0.7319240304490E+00  0.2126689651155E+00
-0.5601534044009E+00 -0.3050135828803E+01 -0.7220578574002E+00  0.2305876845397E+00
-0.5799327763635E+00 -0.2968335803968E+01 -0.7096537266410E+00  0.2428790306577E+00
-0.5883631161091E+00 -0.2882881113121E+01 -0.6942488561910E+00  0.2484755457803E+00
-0.5818694987494E+00 -0.2794957214081E+01 -0.6753653526297E+00  0.2461830914938E+00
-0.5566821796691E+00 -0.2705903291834E+01 -0.6525171040239E+00  0.2347060888213E+00
-0.5088385356526E+00 -0.2617269741233E+01 -0.6252216646937E+00  0.2127261702341E+00
-0.4341949427277E+00 -0.2530876730814E+01 -0.5930143435448E+00  0.1790272251031E+00
-0.3284709374722E+00 -0.2448850527769E+01 -0.5554643013253E+00  0.1326703562006E+00
-0.1873529709796E+00 -0.2373620572441E+01 -0.5121947163163E+00  0.7322129426372E-01
-0.6687850414269E-02 -0.2307856386356E+01 -0.4629088542520E+00  0.1022572789990E-02
 0.2172496202072E+00 -0.2254302887125E+01 -0.4074106594544E+00 -0.8253255178540E-01
 0.4874708110197E+00 -0.2215516251252E+01 -0.3456090931965E+00 -0.1747709123506E+00
 0.8058028579697E+00 -0.2193571398409E+01 -0.2775537122237E+00 -0.2715307585238E+00
 0.1172177963442E+01 -0.2189670873278E+01 -0.2034985849998E+00 -0.3670712453551E+00
 0.1583907058133E+01 -0.2203636543726E+01 -0.1239458989655E+00 -0.4542798419422E+00
 0.2035041119363E+01 -0.2233426230764E+01 -0.3967702287142E-01 -0.5252141580434E+00
 0.2515997290616E+01 -0.2274821870293E+01  0.4823508478339E-01 -0.5719841230559E+00
 0.3013664844358E+01 -0.2321446645302E+01  0.1384436418743E+00 -0.5878875173974E+00
 0.3512125138835E+01 -0.2365228929212E+01  0.2293792453427E+00 -0.5685915220062E+00
 0.3994028242947E+01 -0.2397331590027E+01  0.3193393353425E+00 -0.5130514041364E+00
 0.4442350425309E+01 -0.2409361795478E+01  0.4065977320250E+00 -0.4238340197679E+00
-0.8154793371815E+00 -0.3427238549487E+01 -0.8485435899781E+00 -0.2260390978767E+00
-0.7402083812777E+00 -0.3459298447414E+01 -0.8399013782539E+00 -0.2339468206495E+00
-0.6651818569238E+00 -0.3489409950199E+01 -0.8309183738061E+00 -0.2344844137356E+00
-0.5933840155763E+00 -0.3515831787910E+01 -0.8218431729436E+00 -0.2278171682573E+00
-0.5275362343301E+00 -0.3537081474539E+01 -0.8129235538874E+00 -0.2146805713122E+00
-0.4697829370088E+00 -0.3552112065136E+01 -0.8043790124152E+00 -0.1962006798220E+00
-0.4215521916303E+00 -0.3560355475325E+01 -0.7963815452581E+00 -0.1736439345403E+00
-0.3835797512330E+00 -0.3561650752298E+01 -0.7890461124639E+00 -0.1481965489831E+00
-0.3560339707412E+00 -0.3556110952296E+01 -0.7824289962665E+00 -0.1208278156911E+00
-0.3386732363926E+00 -0.3543981909924E+01 -0.7765310408345E+00 -0.9224437739374E-01
-0.3309869797347E+00 -0.3525527136740E+01 -0.7713028347882E+00 -0.6291445358562E-01
-0.3322959396809E+00 -0.3500952472004E+01 -0.7666496937609E+00 -0.3313341379049E-01
-0.3418057673474E+00 -0.3470369854498E+01 -0.7624351357303E+00 -0.3105670551329E-02
-0.3586183232284E+00 -0.3433793746515E+01 -0.7584824252509E+00  0.2697396223407E-01
-0.3817081771641E+00 -0.3391164279298E+01 -0.7545745025365E+00  0.5684869743090E-01
-0.4098771706473E+00 -0.3342384939956E+01 -0.7504524333034E+00  0.8614791459301E-01
-0.4416957949314E+00 -0.3287372206673E+01 -0.7458136114344E+00  0.1143550340532E+00
-0.4754434260756E+00 -0.3226110703454E+01 -0.7403108369374E+00  0.1407956385286E+00
-0.5090617523045E+00 -0.3158701319718E+01 -0.7335526253352E+00  0.1646466773723E+00
-0.5401245314646E+00 -0.3085419070764E+01 -0.7251087312507E+00  0.1849693432475E+00
-0.5658238060929E+00 -0.3006839770423E+01 -0.7145327259505E+00  0.2008053287951E+00
-0.5830085882537E+00 -0.2923884578090E+01 -0.7013786437202E+00  0.2112190176893E+00
-0.5882660432199E+00 -0.2837696035555E+01 -0.6851924259652E+00  0.2152098038354E+00
-0.5779734836532E+00 -0.2749571061306E+01 -0.6655089189088E+00  0.2116651284305E+00
-0.5483235500872E+00 -0.2660976991644E+01 -0.6418601179108E+00  0.1993925304481E+00
-0.4953441812695E+00 -0.2573595646668E+01 -0.6137879747336E+00  0.1772019497495E+00
-0.4149334898244E+00 -0.2489363742867E+01 -0.5808594551937E+00  0.1440301152611E+00
-0.3029302064367E+00 -0.2410487950433E+01 -0.5426836394605E+00  0.9910886707871E-01
-0.1552445432209E+00 -0.2339418557527E+01 -0.4989326275842E+00  0.4217778573214E-01
 0.3192482147936E-01 -0.2278762982775E+01 -0.4493676389552E+00 -0.2626904029548E-01
 0.2618082262933E+00 -0.2231104869215E+01 -0.3938593344533E+00 -0.1047445517295E+00
 0.5367792609305E+00 -0.2198737195244E+01 -0.3323915918157E+00 -0.1905830573619E+00
 0.8579172091972E+00 -0.2183378024546E+01 -0.2650921670199E+00 -0.2797897087392E+00
 0.1224375349682E+01 -0.2185813962967E+01 -0.1922877255224E+00 -0.3670120951381E+00
 0.1632778502294E+01 -0.2205468202796E+01 -0.1145379418072E+00 -0.4457827691090E+00
 0.2076742440519E+01 -0.2240023030305E+01 -0.3265611844390E-01 -0.5090479109713E+00
 0.2546661569354E+01 -0.2285220696689E+01  0.5228817531211E-01 -0.5499672311603E+00
 0.3029930129915E+01 -0.2334964290792E+01  0.1389931698957E+00 -0.5628916080417E+00
 0.3511672299362E+01 -0.2381793201114E+01  0.2259758230169E+00 -0.5443317650965E+00
 0.3975971695477E+01 -0.2417714737815E+01  0.3116513961765E+00 -0.4936700101026E+00
 0.4407338642407E+01 -0.2435220011648E+01  0.3944237320293E+00 -0.4133935894781E+00
-0.8111644409114E+00 -0.3404632901625E+01 -0.8431594810713E+00 -0.2141561876985E+00
-0.7383973234637E+00 -0.3435671822648E+01 -0.8348138416621E+00 -0.2224467697136E+00
-0.6659301550107E+00 -0.3464844112492E+01 -0.8261548658113E+00 -0.2240042007129E+00
-0.5965480505602E+00 -0.3490501151335E+01 -0.8174098525594E+00 -0.2189483265907E+00
-0.5328046612121E+00 -0.3511215704150E+01 -0.8088040851245E+00 -0.2078893342619E+00
-0.4767512542730E+00 -0.3525936149712E+01 -0.8005374927259E+00 -0.1917883723123E+00
-0.4298044111021E+00 -0.3534033505908E+01 -0.7927675952152E+00 -0.1717523023888E+00
-0.3927502875332E+00 -0.3535250863105E+01 -0.7856002418339E+00 -0.1488444465870E+00
-0.3658391754445E+00 -0.3529595809667E+01 -0.7790870086316E+00 -0.1239599747557E+00
-0.3489149984861E+00 -0.3517219775897E+01 -0.7732269663987E+00 -0.9777684972607E-01
-0.3415369153307E+00 -0.3498315185564E+01 -0.7679704316226E+00 -0.7076849252286E-01
-0.3430693029421E+00 -0.3473044994808E+01 -0.7632228709230E+00 -0.4325556426690E-01
-0.3527322278466E+00 -0.3441506559378E+01 -0.7588477687526E+00 -0.1547526349245E-01
-0.3696143687719E+00 -0.3403725704336E+01 -0.7546680258669E+00  0.1234749557023E-01
-0.3926541141682E+00 -0.3359676551136E+01 -0.7504661442436E+00  0.3993623843112E-01
-0.4206005428855E+00 -0.3309315387313E+01 -0.7459831971556E+00  0.6691618021765E-01
-0.4519620994918E+00 -0.3252626405929E+01 -0.7409177121248E+00  0.9278479670333E-01
-0.4849539400730E+00 -0.3189673325877E+01 -0.7349254641413E+00  0.1169002104308E+00
-0.5174569797137E+00 -0.3120644745615E+01 -0.7276203559081E+00  0.1384882433825E+00
-0.5469913134819E+00 -0.3045908300983E+01 -0.7185799336007E+00  0.1566712008781E+00
-0.5707047202409E+00 -0.2966123924301E+01 -0.7073657394490E+00  0.1705559696703E+00
-0.5854068360111E+00 -0.2882286834139E+01 -0.6935387443646E+00  0.1792718403427E+00
-0.5876439726714E+00 -0.2795622645611E+01 -0.6766533337395E+00  0.1818895044639E+00
-0.5737539673849E+00 -0.2707529832860E+01 -0.6562567698280E+00  0.1773821474949E+00
-0.5399026962235E+00 -0.2619590467746E+01 -0.6318986422100E+00  0.1646622522304E+00
-0.4821210071585E+00 -0.2533601097350E+01 -0.6031444298893E+00  0.1426652111402E+00
-0.3963606408680E+00 -0.2451595854661E+01 -0.5695913075933E+00  0.1104707586572E+00
-0.2785880470821E+00 -0.2375841759027E+01 -0.5308859691326E+00  0.6746258223894E-01
-0.1249382840127E+00 -0.2308791432801E+01 -0.4867459506158E+00  0.1352463629427E-01
 0.6804979861958E-01 -0.2252976959939E+01 -0.4369854387754E+00 -0.5073775410525E-01
 0.3031424958448E+00 -0.2210817388441E+01 -0.3815349842046E+00 -0.1237929404345E+00
 0.5821320232840E+00 -0.2184353890550E+01 -0.3204443782282E+00 -0.2030357235767E+00
 0.9054358977583E+00 -0.2174978738389E+01 -0.2539085719096E+00 -0.2846847435074E+00
 0.1271541718461E+01 -0.2183115040675E+01 -0.1823146671595E+00 -0.3638005686857E+00
 0.1676515764423E+01 -0.2207854915311E+01 -0.1062678317610E+00 -0.4345462778008E+00
 0.2113655706187E+01 -0.2246672643067E+01 -0.2660338777243E-01 -0.4906900053705E+00
 0.2573405607736E+01 -0.2295315677117E+01  0.5561798695264E-01 -0.5263210313301E+00
 0.3043656967202E+01 -0.2347965021076E+01  0.1391383912985E+00 -0.5366860921656E+00
 0.3510467459642E+01 -0.2397706734200E+01  0.2225521484048E+00 -0.5189830858414E+00
 0.3959159684147E+01 -0.2437276201577E+01  0.3043767010496E+00 -0.4729176941219E+00
 0.4375567292488E+01 -0.2459926563125E+01  0.3831281515817E+00 -0.4008753480635E+00
-0.8068287678003E+00 -0.3382413127331E+01 -0.8378483915111E+00 -0.2026507915580E+00
-0.7363441749488E+00 -0.3412515623649E+01 -0.8297719720842E+00 -0.2113144293733E+00
-0.6662143881257E+00 -0.3440817874986E+01 -0.8214064648623E+00 -0.2138492600211E+00
-0.5990554941969E+00 -0.3465750338643E+01 -0.8129611786821E+00 -0.2103351708535E+00
-0.5372744137876E+00 -0.3485935796443E+01 -0.8046420540363E+00 -0.2012746609576E+00
-0.4828353325246E+00 -0.3500323507523E+01 -0.7966317798803E+00 -0.1874849032021E+00
-0.4371360919292E+00 -0.3508237229523E+01 -0.7890746760486E+00 -0.1699295244505E+00
-0.4009984119970E+00 -0.3509340747133E+01 -0.7820678434797E+00 -0.1495569087875E+00
-0.3747381190609E+00 -0.3503551382226E+01 -0.7756579118155E+00 -0.1271878821716E+00
-0.3582708108993E+00 -0.3490937469156E+01 -0.7698416674826E+00 -0.1034657266130E+00
-0.3512158905612E+00 -0.3471627231427E+01 -0.7645686357906E+00 -0.7886002821546E-01
-0.3529765039518E+00 -0.3445743790771E+01 -0.7597440702657E+00 -0.5370675676685E-01
-0.3627863168364E+00 -0.3413370034930E+01 -0.7552312816071E+00 -0.2826619328337E-01
-0.3797232611778E+00 -0.3374541106736E+01 -0.7508528847714E+00 -0.2784511783424E-02
-0.4026944117225E+00 -0.3329261427114E+01 -0.7463911788893E+00  0.2244985601244E-01
-0.4304025564661E+00 -0.3277535105129E+01 -0.7415875433696E+00  0.4706445923222E-01
-0.4613012988635E+00 -0.3219408090035E+01 -0.7361418887492E+00  0.7057607887479E-01
-0.4935486573688E+00 -0.3155016555993E+01 -0.7297130535459E+00  0.9237953515187E-01
-0.5249710856525E+00 -0.3084629724607E+01 -0.7219201728094E+00  0.1117529658958E+00
-0.5530402925152E+00 -0.3008700495533E+01 -0.7123481682244E+00  0.1278829549057E+00
-0.5748640440550E+00 -0.2927966121017E+01 -0.7005660434536E+00  0.1399445805685E+00
-0.5872167184058E+00 -0.2843489706056E+01 -0.6861412951167E+00  0.1471352053843E+00
-0.5866092307042E+00 -0.2756572664031E+01 -0.6686363889104E+00  0.1486004163067E+00
-0.5693474530177E+00 -0.2668705143401E+01 -0.6476105289340E+00  0.1434021654871E+00
-0.5315797477507E+00 -0.2581571054681E+01 -0.6226301697643E+00  0.1305584356820E+00
-0.4693496735664E+00 -0.2497066185476E+01 -0.5932831806492E+00  0.1091260405600E+00
-0.3786709465518E+00 -0.2417305056231E+01 -0.5591952088893E+00  0.7831707688833E-01
-0.2556417738033E+00 -0.2344598148672E+01 -0.5200479922445E+00  0.3764813064569E-01
-0.9661800200301E-01 -0.2281386184107E+01 -0.4756008443090E+00 -0.1288071501108E-01
 0.1015381371438E+00 -0.2230117807108E+01 -0.4257159403364E+00 -0.7259004067233E-01
 0.3411634596219E+00 -0.2193049413190E+01 -0.3703771962326E+00 -0.1399471115731E+00
 0.6235257075320E+00 -0.2171985926384E+01 -0.3096920483851E+00 -0.2124517912839E+00
 0.9484615769956E+00 -0.2168026112932E+01 -0.2439129108219E+00 -0.2865723795916E+00
 0.1313893508464E+01 -0.2181278427250E+01 -0.1734769863422E+00 -0.3577968736976E+00
 0.1715436308121E+01 -0.2210562346497E+01 -0.9902520915085E-01 -0.4208982494944E+00
 0.2146161116399E+01 -0.2253198243218E+01 -0.2140742568282E-01 -0.4704021737608E+00
 0.2596609792910E+01 -0.2304969742302E+01  0.5832801099074E-01 -0.5012208955104E+00
 0.3055149755873E+01 -0.2360325354850E+01  0.1389648822753E+00 -0.5093647169950E+00
 0.3508669764067E+01 -0.2412837319134E+01  0.2191664922525E+00 -0.4925923640030E+00
 0.3943565589099E+01 -0.2455870265977E+01  0.2975390690580E+00 -0.4508495407887E+00
 0.4346812457056E+01 -0.2483334349259E+01  0.3726956271130E+00 -0.3863963258994E+00
-0.8024702651065E+00 -0.3360554020647E+01 -0.8326048695575E+00 -0.1914890817032E+00
-0.7340568876592E+00 -0.3389803132763E+01 -0.8247720163745E+00 -0.2005182561628E+00
-0.6660535883191E+00 -0.3417305845413E+01 -0.8166718989157E+00 -0.2039955937583E+00
-0.6009324402296E+00 -0.3441560367483E+01 -0.8084985735901E+00 -0.2019648406801E+00
-0.5409718492970E+00 -0.3461234669137E+01 -0.8004413156143E+00 -0.1948348987691E+00
-0.4880551738805E+00 -0.3475282915831E+01 -0.7926676297539E+00 -0.1832964429554E+00
-0.4435565051813E+00 -0.3482992702297E+01 -0.7853098531977E+00 -0.1681841896160E+00
-0.4083211697203E+00 -0.3483962731601E+01 -0.7784567918642E+00 -0.1503392374778E+00
-0.3827165710041E+00 -0.3478033626658E+01 -0.7721500510383E+00 -0.1305087729332E+00
-0.3667176917325E+00 -0.3465201201335E+01 -0.7663837900335E+00 -0.1092968455427E+00
-0.3599954499405E+00 -0.3445536279745E+01 -0.7611063572784E+00 -0.8716161646488E-01
-0.3619870804940E+00 -0.3419125410802E+01 -0.7562225095279E+00 -0.6444558116009E-01
-0.3719389107096E+00 -0.3386037376512E+01 -0.7515952686440E+00 -0.4142332412368E-01
-0.3889202909933E+00 -0.3346314744578E+01 -0.7470470182461E+00 -0.1835415554116E-01
-0.4118115063288E+00 -0.3299988583246E+01 -0.7423600289770E+00  0.4468684784979E-02
-0.4392751429005E+00 -0.3247105804307E+01 -0.7372762004279E+00  0.2668110253653E-01
-0.4697167908093E+00 -0.3187768069797E+01 -0.7314969830214E+00  0.4782406484418E-01
-0.5012441106970E+00 -0.3122177244635E+01 -0.7246842818651E+00  0.6733298157807E-01
-0.5316352472443E+00 -0.3050675908055E+01 -0.7164622417360E+00  0.8454153776578E-01
-0.5583187935478E+00 -0.2973794637358E+01 -0.7064226967076E+00  0.9870351495769E-01
-0.5783668466389E+00 -0.2892340951046E+01 -0.6941415698804E+00  0.1090648541030E+00
-0.5885226874762E+00 -0.2807439413286E+01 -0.6791924302733E+00  0.1148936745403E+00
-0.5852670273347E+00 -0.2720459805086E+01 -0.6611453763359E+00  0.1154133145167E+00
-0.5648804520481E+00 -0.2632974203657E+01 -0.6395709406713E+00  0.1097765546983E+00
-0.5235014781982E+00 -0.2546756087703E+01 -0.6140515223303E+00  0.9710642596147E-01
-0.4571937461751E+00 -0.2463786290903E+01 -0.5841960161207E+00  0.7657630441556E-01
-0.3620380086156E+00 -0.2386244801275E+01 -0.5496565701686E+00  0.4751963658796E-01
-0.2342642483222E+00 -0.2316471698747E+01 -0.5101471970156E+00  0.9567403711074E-02
-0.7044064594545E-01 -0.2256885451492E+01 -0.4654652264234E+00 -0.3719071513303E-01
 0.1322680144940E+00 -0.2209847557408E+01 -0.4155159147744E+00 -0.9203488884250E-01
 0.3758061263702E+00 -0.2177457891553E+01 -0.3603303584059E+00 -0.1534692581083E+00
 0.6609731747997E+00 -0.2161303569231E+01 -0.3000660833577E+00 -0.2191357725042E+00
 0.9871002878155E+00 -0.2162222219619E+01 -0.2350243898629E+00 -0.2857799407747E+00
 0.1351633306304E+01 -0.2180052433253E+01 -0.1656838278586E+00 -0.3493240719350E+00
 0.1749824761441E+01 -0.2213391034836E+01 -0.9271325606063E-01 -0.4051269703871E+00
 0.2174589851876E+01 -0.2259447207510E+01 -0.1697147137975E-01 -0.4484112973640E+00
 0.2616597748964E+01 -0.2314060812414E+01  0.6050738821155E-01 -0.4748188156228E+00
 0.3064661504216E+01 -0.2371931894310E+01  0.1385459240456E+00 -0.4810124106777E+00
 0.3506405484935E+01 -0.2427062593634E+01  0.2158685814769E+00 -0.4652088167254E+00
 0.3929154372060E+01 -0.2473361327771E+01  0.2911586131963E+00 -0.4275258366575E+00
 0.4320865902786E+01 -0.2505303655718E+01  0.3631124548244E+00 -0.3700763255260E+00
-0.7980869491233E+00 -0.3339033719336E+01 -0.8274241460214E+00 -0.1806381141354E+00
-0.7315417889167E+00 -0.3367511251377E+01 -0.8198106202749E+00 -0.1900271538771E+00
-0.6654635025293E+00 -0.3394285974253E+01 -0.8119499074554E+00 -0.1944182346169E+00
-0.6022009521805E+00 -0.3417914424023E+01 -0.8040230872215E+00 -0.1938215509888E+00
-0.5439197978495E+00 -0.3437105400789E+01 -0.7962050515920E+00 -0.1885636878869E+00
-0.4924287489570E+00 -0.3450820889336E+01 -0.7886499394104E+00 -0.1792233951651E+00
-0.4490748278534E+00 -0.3458321384851E+01 -0.7814792541859E+00 -0.1665189512120E+00
-0.4147173729317E+00 -0.3459152662023E+01 -0.7747740185360E+00 -0.1511913630454E+00
-0.3897635392959E+00 -0.3453090701673E+01 -0.7685708596464E+00 -0.1339155106931E+00
-0.3742368767576E+00 -0.3440068581415E+01 -0.7628611030021E+00 -0.1152528401532E+00
-0.3678518725560E+00 -0.3420106302642E+01 -0.7575916463286E+00 -0.9564378122301E-01
-0.3700754382570E+00 -0.3393257185200E+01 -0.7526665359071E+00 -0.7542971542292E-01
-0.3801655773164E+00 -0.3359576435027E+01 -0.7479484136139E+00 -0.5489168743755E-01
-0.3971850057951E+00 -0.3319112280888E+01 -0.7432594684120E+00 -0.3429477273551E-01
-0.4199914353638E+00 -0.3271918841794E+01 -0.7383820664343E+00 -0.1393048269857E-01
-0.4472129904857E+00 -0.3218080807109E+01 -0.7330587704423E+00  0.5850972738646E-02
-0.4772137344089E+00 -0.3157749456505E+01 -0.7269926490158E+00  0.2461924613937E-01
-0.5080574772087E+00 -0.3091185484755E+01 -0.7198486031194E+00  0.4185394620908E-01
-0.5374800520312E+00 -0.3018797415377E+01 -0.7112555040802E+00  0.5694730256707E-01
-0.5628721657764E+00 -0.2941185732365E+01 -0.7008115900713E+00  0.6922295373439E-01
-0.5812746116303E+00 -0.2859220970982E+01 -0.6880991267759E+00  0.7800005799524E-01
-0.5894036895627E+00 -0.2774082546843E+01 -0.6726972573050E+00  0.8261974562628E-01
-0.5837147649347E+00 -0.2687201108504E+01 -0.6541831844359E+00  0.8238532826430E-01
-0.5604689616827E+00 -0.2600221137772E+01 -0.6321380293105E+00  0.7654169399038E-01
-0.5158010869998E+00 -0.2514994105105E+01 -0.6061590474535E+00  0.6431571229674E-01
-0.4457999561588E+00 -0.2433573012187E+01 -0.5758746022503E+00  0.4499195902808E-01
-0.3466154231850E+00 -0.2358190442947E+01 -0.5409611812873E+00  0.1801423603541E-01
-0.2146057188275E+00 -0.2291205025178E+01 -0.5011621562689E+00 -0.1688972406454E-01
-0.4653920180680E-01 -0.2235006078186E+01 -0.4563090627980E+00 -0.5956511758433E-01
 0.1601407588417E+00 -0.2191867955313E+01 -0.4063454453494E+00 -0.1092817972342E+00
 0.4070246927782E+00 -0.2163743412816E+01 -0.3513437492429E+00 -0.1646134986320E+00
 0.6944985604787E+00 -0.2152022074586E+01 -0.2915047071652E+00 -0.2233746535905E+00
 0.1021457321690E+01 -0.2157312111487E+01 -0.2271709613445E+00 -0.2826085192763E+00
 0.1384947813976E+01 -0.2179222864160E+01 -0.1588550124040E+00 -0.3386731295576E+00
 0.1779934117643E+01 -0.2216170905243E+01 -0.8724735882013E-01 -0.3874876176768E+00
 0.2199228965164E+01 -0.2265287443152E+01 -0.1321169579451E-01 -0.4249160453086E+00
 0.2633644124932E+01 -0.2322480186571E+01  0.6223278859950E-01 -0.4472485685582E+00
 0.3072402163414E+01 -0.2382681121304E+01  0.1379442104776E+00 -0.4517077683854E+00
 0.3503773949171E+01 -0.2440269999385E+01  0.2127007931267E+00 -0.4368842972040E+00
 0.3915885474427E+01 -0.2489623921916E+01  0.2852523147528E+00 -0.4030124016165E+00
 0.4297536495163E+01 -0.2525703227361E+01  0.3543666588409E+00 -0.3520386750901E+00
-0.7936768817356E+00 -0.3317832941881E+01 -0.8223019769765E+00 -0.1700656775960E+00
-0.7288038978012E+00 -0.3345619669425E+01 -0.8148847255880E+00 -0.1798104151459E+00
-0.6644571991905E+00 -0.3371738770228E+01 -0.8072392059124E+00 -0.1850914531809E+00
-0.6028797529467E+00 -0.3394797288330E+01 -0.7995354201692E+00 -0.1858871298204E+00
-0.5461381054991E+00 -0.3413540985025E+01 -0.7919358299057E+00 -0.1824507465819E+00
-0.4959722593230E+00 -0.3426941774813E+01 -0.7845828185184E+00 -0.1752612609768E+00
-0.4537001157915E+00 -0.3434240491800E+01 -0.7775881331053E+00 -0.1649313120513E+00
-0.4201873583018E+00 -0.3434940381559E+01 -0.7710255594613E+00 -0.1521084599125E+00
-0.3958709074111E+00 -0.3428763470437E+01 -0.7649268869680E+00 -0.1373970173053E+00
-0.3808134096704E+00 -0.3415589082488E+01 -0.7592805097459E+00 -0.1213134134763E+00
-0.3747657542654E+00 -0.3395392660194E+01 -0.7540316941278E+00 -0.1042751744052E+00
-0.3772204341665E+00 -0.3368197622695E+01 -0.7490836225346E+00 -0.8661600539488E-01
-0.3874461539133E+00 -0.3334046230817E+01 -0.7442984880369E+00 -0.6861649666161E-01
-0.4045007727301E+00 -0.3292990714974E+01 -0.7394983085602E+00 -0.5054089010516E-01
-0.4272233770879E+00 -0.3245104710880E+01 -0.7344656285380E+00 -0.3267306699394E-01
-0.4542130577526E+00 -0.3190505675979E+01 -0.7289437576085E+00 -0.1534433632276E-01
-0.4837985327031E+00 -0.3129388385404E+01 -0.7226373943897E+00  0.1047743486496E-02
-0.5140060235144E+00 -0.3062065431169E+01 -0.7152143015942E+00  0.1603028910898E-01
-0.5425348985470E+00 -0.2989003750076E+01 -0.7063077402493E+00  0.2905681988991E-01
-0.5667431394541E+00 -0.2910865818485E+01 -0.6955218019519E+00  0.3952322386534E-01
-0.5836445675975E+00 -0.2828577795670E+01 -0.6824444828227E+00  0.4682393251543E-01
-0.5899325097577E+00 -0.2743367223405E+01 -0.6666599565666E+00  0.5037496320923E-01
-0.5820414641873E+00 -0.2656718117067E+01 -0.6477519259032E+00  0.4956129552634E-01
-0.5562180685755E+00 -0.2570338120056E+01 -0.6253112470442E+00  0.4372059049851E-01
-0.5085981071694E+00 -0.2486145843234E+01 -0.5989487990057E+00  0.3218182270745E-01
-0.4352985664210E+00 -0.2406254871623E+01 -0.5683106960772E+00  0.1433519371528E-01
-0.3325377787477E+00 -0.2332939448130E+01 -0.5330954533193E+00 -0.1027578118371E-01
-0.1967956136372E+00 -0.2268568260444E+01 -0.4930727821637E+00 -0.4184307084298E-01
-0.2502538249591E-01 -0.2215497605385E+01 -0.4481046042535E+00 -0.8016891635142E-01
 0.1850773080380E+00 -0.2175917774203E+01 -0.3981680991663E+00 -0.1245393494716E+00
 0.4347884345539E+00 -0.2151646306143E+01 -0.3433715794345E+00 -0.1736255524535E+00
 0.7241331880312E+00 -0.2143896767488E+01 -0.2839527201225E+00 -0.2254391004228E+00
 0.1051634037899E+01 -0.2153078373611E+01 -0.2202888704249E+00 -0.2773359453827E+00
 0.1414006579458E+01 -0.2178607760712E+01 -0.1529202385294E+00 -0.3261075024022E+00
 0.1805987197851E+01 -0.2218756974456E+01 -0.8255395655124E-01 -0.3682078093739E+00
 0.2220325774979E+01 -0.2270604618602E+01 -0.1005576887429E-01 -0.4000922834401E+00
 0.2647981107753E+01 -0.2330131348902E+01  0.6356995271750E-01 -0.4186297360080E+00
 0.3078545397974E+01 -0.2392479173300E+01  0.1372132469794E+00 -0.4215249461844E+00
 0.3500852539909E+01 -0.2452356706017E+01  0.2096991699031E+00 -0.4076735763943E+00
 0.3903715457871E+01 -0.2504542790298E+01  0.2798345376845E+00 -0.3773806944789E+00
 0.4276650907993E+01 -0.2544410996930E+01  0.3464479873752E+00 -0.3324106580415E+00
-0.7892381469250E+00 -0.3296934350195E+01 -0.8172345116017E+00 -0.1597401765859E+00
-0.7258471789845E+00 -0.3324110170150E+01 -0.8099914818966E+00 -0.1698376765989E+00
-0.6630455647315E+00 -0.3349646634465E+01 -0.8025384517980E+00 -0.1759889267790E+00
-0.6029848037310E+00 -0.3372194828218E+01 -0.7950359382368E+00 -0.1781414618895E+00
-0.5476441095569E+00 -0.3390534085542E+01 -0.7876356507565E+00 -0.1764825339296E+00
-0.4987003904085E+00 -0.3403647788516E+01 -0.7804696474148E+00 -0.1714013908369E+00
-0.4574413130144E+00 -0.3410763254338E+01 -0.7736409249986E+00 -0.1634143323806E+00
-0.4247328024795E+00 -0.3411350123640E+01 -0.7672165966564E+00 -0.1530815252715E+00
-0.4010331303482E+00 -0.3405085935490E+01 -0.7612238245107E+00 -0.1409386948055E+00
-0.3864357818182E+00 -0.3391804465452E+01 -0.7556480607141E+00 -0.1274556162012E+00
-0.3807216283616E+00 -0.3371442497941E+01 -0.7504328364428E+00 -0.1130227390303E+00
-0.3834049914255E+00 -0.3343996795139E+01 -0.7454803684214E+00 -0.9796053784538E-01
-0.3937643556862E+00 -0.3309497352323E+01 -0.7406523526384E+00 -0.8254314298252E-01
-0.4108543747563E+00 -0.3267998822631E+01 -0.7357706504414E+00 -0.6702814288090E-01
-0.4334992293458E+00 -0.3219590887272E+01 -0.7306180342107E+00 -0.5168653622591E-01
-0.4602741306132E+00 -0.3164418791632E+01 -0.7249385952515E+00 -0.3682623970488E-01
-0.4894783636912E+00 -0.3102714675505E+01 -0.7184386185449E+00 -0.2280832890915E-01
-0.5191066044720E+00 -0.3034836045092E+01 -0.7107885405044E+00 -0.1005518638642E-01
-0.5468274582695E+00 -0.2961300629489E+01 -0.7016256280067E+00  0.9504751717150E-03
-0.5699712545352E+00 -0.2882824876666E+01 -0.6905592365303E+00  0.9678917884392E-02
-0.5855291024410E+00 -0.2800383078726E+01 -0.6771824463243E+00  0.1560162502636E-01
-0.5901752121312E+00 -0.2715244111980E+01 -0.6610838746731E+00  0.1821105315875E-01
-0.5803272943556E+00 -0.2628937908753E+01 -0.6418530501860E+00  0.1697511852226E-01
-0.5522216587382E+00 -0.2543226347587E+01 -0.6190896104902E+00  0.1132446531400E-01
-0.5019984093405E+00 -0.2460085052032E+01 -0.5924167011023E+00  0.6881288359409E-03
-0.4258038050253E+00 -0.2381677836960E+01 -0.5614963367639E+00 -0.1544358974884E-01
-0.3199216622016E+00 -0.2310311449043E+01 -0.5260466300877E+00 -0.3743746813623E-01
-0.1809442425841E+00 -0.2248358433027E+01 -0.4858605423621E+00 -0.6542017895952E-01
-0.5992077581490E-02 -0.2198140786698E+01 -0.4408265794246E+00 -0.9917072135540E-01
 0.2070150955450E+00 -0.2161770340303E+01 -0.3909510547773E+00 -0.1380142670059E+00
 0.4590782181470E+00 -0.2140943188427E+01 -0.3363729990684E+00 -0.1807428365209E+00
 0.7499122417568E+00 -0.2136718832974E+01 -0.2773613223764E+00 -0.2255849047127E+00
 0.1077725440009E+01 -0.2149336597380E+01 -0.2143222346679E+00 -0.2702196912640E+00
 0.1438961273749E+01 -0.2178053155859E+01 -0.1478183786245E+00 -0.3118672731071E+00
 0.1828178209645E+01 -0.2221025989061E+01 -0.7856955705409E-01 -0.3474923542047E+00
 0.2238091742839E+01 -0.2275300058782E+01 -0.7441663299490E-02 -0.3740975058632E+00
 0.2659803863667E+01 -0.2336929068775E+01  0.6457495994064E-01 -0.3890708763783E+00
 0.3083234144073E+01 -0.2401241650546E+01  0.1363985007380E+00 -0.3905351232045E+00
 0.3497700913763E+01 -0.2463229579587E+01  0.2068942699182E+00 -0.3776345389550E+00
 0.3892600309768E+01 -0.2518013006124E+01  0.2749174648254E+00 -0.3507077328184E+00
 0.4258053959388E+01 -0.2561314688856E+01  0.3393478591631E+00 -0.3113237060076E+00
-0.7847688284097E+00 -0.3276322016586E+01 -0.8122181811022E+00 -0.1496305425270E+00
-0.7226747469794E+00 -0.3302966047265E+01 -0.8051281708462E+00 -0.1600788864786E+00
-0.6612377104834E+00 -0.3327993295480E+01 -0.7978462130814E+00 -0.1670838802496E+00
-0.6025297893304E+00 -0.3350093555751E+01 -0.7905246807961E+00 -0.1705628587540E+00
-0.5484530517088E+00 -0.3368076799892E+01 -0.7833059819924E+00 -0.1706428134109E+00
-0.5006265489364E+00 -0.3380939013206E+01 -0.7763131239965E+00 -0.1676316407974E+00
-0.4603072857003E+00 -0.3387899113479E+01 -0.7696412913044E+00 -0.1619572678800E+00
-0.4283565847765E+00 -0.3388400829637E+01 -0.7633514942575E+00 -0.1540979196151E+00
-0.4052469833677E+00 -0.3382085609517E+01 -0.7574665298641E+00 -0.1445228342170E+00
-0.3910956201267E+00 -0.3368749155323E+01 -0.7519689662950E+00 -0.1336541244421E+00
-0.3857076274417E+00 -0.3348295111100E+01 -0.7468005588365E+00 -0.1218518730661E+00
-0.3886157510536E+00 -0.3320696695706E+01 -0.7418625004064E+00 -0.1094187082025E+00
-0.3991074199737E+00 -0.3285972326960E+01 -0.7370159603692E+00 -0.9661717715472E-01
-0.4162356449952E+00 -0.3244177560765E+01 -0.7320826520609E+00 -0.8369317197776E-01
-0.4388132303741E+00 -0.3195414711980E+01 -0.7268455993017E+00 -0.7090021375884E-01
-0.4653964258884E+00 -0.3139851871063E+01 -0.7210496701348E+00 -0.5851887188616E-01
-0.4942607620426E+00 -0.3077752416725E+01 -0.7144026463989E+00 -0.4687046812069E-01
-0.5233752178603E+00 -0.3009511754027E+01 -0.7065774049062E+00 -0.3632422239300E-01
-0.5503832003818E+00 -0.2935690718043E+01 -0.6972147940742E+00 -0.2729687938822E-01
-0.5725923608373E+00 -0.2857051632965E+01 -0.6859288089815E+00 -0.2024194377538E-01
-0.5869752585253E+00 -0.2774609370833E+01 -0.6723169358900E+00 -0.1560935520236E-01
-0.5901906681125E+00 -0.2689667324152E+01 -0.6559716082277E+00 -0.1382893721621E-01
-0.5786431944348E+00 -0.2603793978313E+01 -0.6364874440339E+00 -0.1534889924709E-01
-0.5485622128253E+00 -0.2518796850217E+01 -0.6134718217498E+00 -0.2064571511598E-01
-0.4960942727233E+00 -0.2436699142458E+01 -0.5865586917766E+00 -0.3019245375758E-01
-0.4174143276586E+00 -0.2359705683463E+01 -0.5554240105009E+00 -0.4440396770418E-01
-0.3088666287770E+00 -0.2290148168537E+01 -0.5198029672085E+00 -0.6356646391952E-01
-0.1671443630443E+00 -0.2230398791516E+01 -0.4795086380572E+00 -0.8775467234033E-01
 0.1048446636182E-01 -0.2182746166435E+01 -0.4344523464884E+00 -0.1167415188292E+00
 0.2259053620677E+00 -0.2149231289659E+01 -0.3846651912502E+00 -0.1499108569710E+00
 0.4798835846854E+00 -0.2131443949805E+01 -0.3303120779460E+00 -0.1861948869783E+00
 0.7718720954492E+00 -0.2130311748590E+01 -0.2716879346766E+00 -0.2240545834415E+00
 0.1099818365372E+01 -0.2145931647687E+01 -0.2092226595808E+00 -0.2614996631154E+00
 0.1459945361496E+01 -0.2177429666372E+01 -0.1434968631134E+00 -0.2961728679419E+00
 0.1846674301508E+01 -0.2222873796211E+01 -0.7523990006175E-01 -0.3255273194750E+00
 0.2252705852522E+01 -0.2279289140546E+01 -0.5316657684020E-02 -0.3470744805339E+00
 0.2669275081932E+01 -0.2342798726429E+01  0.6529527207347E-01 -0.3586720409427E+00
 0.3086585192766E+01 -0.2408893481925E+01  0.1355383441878E+00 -0.3588076118187E+00
 0.3494364537723E+01 -0.2472805213861E+01  0.2043118678170E+00 -0.3468282532757E+00
 0.3882497389585E+01 -0.2529940156675E+01  0.2705114506129E+00 -0.3230758562854E+00
 0.4241608780877E+01 -0.2576312348983E+01  0.3330592913417E+00 -0.2889134196321E+00
-0.7802669891772E+00 -0.3255980978358E+01 -0.8072496055360E+00 -0.1397061682985E+00
-0.7192890308701E+00 -0.3282171617378E+01 -0.8002921415750E+00 -0.1505042838228E+00
-0.6590413062402E+00 -0.3306763331975E+01 -0.7931609394621E+00 -0.1583492067673E+00
-0.6015265238981E+00 -0.3328480243009E+01 -0.7860013650937E+00 -0.1631283725031E+00
-0.5485784344055E+00 -0.3346160440130E+01 -0.7789477865143E+00 -0.1649131371685E+00
-0.5017630809374E+00 -0.3358813371040E+01 -0.7721153019010E+00 -0.1639369491146E+00
-0.4623068713695E+00 -0.3365653862380E+01 -0.7655921581582E+00 -0.1605461456638E+00
-0.4310626869404E+00 -0.3366106406960E+01 -0.7594338300964E+00 -0.1551418696109E+00
-0.4085113560668E+00 -0.3359783831833E+01 -0.7536590488104E+00 -0.1481290072036E+00
-0.3947874195910E+00 -0.3346450574653E+01 -0.7482476099985E+00 -0.1398815117386E+00
-0.3897151858041E+00 -0.3325982276382E+01 -0.7431395035109E+00 -0.1307265896665E+00
-0.3928427607671E+00 -0.3298331570100E+01 -0.7382348771739E+00 -0.1209452805231E+00
-0.4034657872000E+00 -0.3263505964112E+01 -0.7333943611908E+00 -0.1107842767230E+00
-0.4206371395383E+00 -0.3221560437972E+01 -0.7284395263566E+00 -0.1004734998791E+00
-0.4431616211651E+00 -0.3172606582321E+01 -0.7231536514730E+00 -0.9024505935645E-01
-0.4695812400071E+00 -0.3116830431163E+01 -0.7172823449223E+00 -0.8034876718657E-01
-0.4981532500024E+00 -0.3054520491603E+01 -0.7105347589088E+00 -0.7106335464033E-01
-0.5268266132150E+00 -0.2986103035374E+01 -0.7025859401872E+00 -0.6270256085762E-01
-0.5532249771185E+00 -0.2912174273318E+01 -0.6930798604150E+00 -0.5561524916418E-01
-0.5746381863373E+00 -0.2833534262259E+01 -0.6816344998764E+00 -0.5017709237376E-01
-0.5880243031888E+00 -0.2751230868221E+01 -0.6678510442336E+00 -0.4675815673875E-01
-0.5900301648753E+00 -0.2666595183435E+01 -0.6513250793675E+00 -0.4570948717373E-01
-0.5770505734318E+00 -0.2581226988463E+01 -0.6316555217913E+00 -0.4739472631027E-01
-0.5453106707444E+00 -0.2496971164831E+01 -0.6084563761818E+00 -0.5219775078672E-01
-0.4909645024087E+00 -0.2415889701205E+01 -0.5813708493859E+00 -0.6049585353579E-01
-0.4102136850931E+00 -0.2340220241378E+01 -0.5500867934912E+00 -0.7261383038754E-01
-0.2994561118405E+00 -0.2272313272616E+01 -0.5143538845557E+00 -0.8876539296629E-01
-0.1554725937436E+00 -0.2214538130524E+01 -0.4740021519166E+00 -0.1089848857900E+00
 0.2434273354225E-01 -0.2169152772760E+01 -0.4289620142355E+00 -0.1330537447014E+00
 0.2417108603391E+00 -0.2138136588653E+01 -0.3792851513146E+00 -0.1604307695881E+00
 0.4972003311970E+00 -0.2122989170592E+01 -0.3251577727242E+00 -0.1902040190004E+00
 0.7900481776210E+00 -0.2124528303252E+01 -0.2668960291033E+00 -0.2210790657574E+00
 0.1117990138142E+01 -0.2142734615678E+01 -0.2049488985611E+00 -0.2514008630162E+00
 0.1477074019491E+01 -0.2176629773469E+01 -0.1399111528805E+00 -0.2792284040721E+00
 0.1861617020821E+01 -0.2224213293330E+01 -0.7251925558259E-01 -0.3024835429407E+00
 0.2264317501923E+01 -0.2282500068676E+01 -0.3636513404721E-02 -0.3191542859390E+00
 0.2676528741534E+01 -0.2347675811271E+01  0.6577058703256E-01 -0.3275267999323E+00
 0.3088692959013E+01 -0.2415368846207E+01  0.1346648245679E+00 -0.3264107011137E+00
 0.3490877628410E+01 -0.2481010009161E+01  0.2019735268595E+00 -0.3153189341450E+00
 0.3873367063941E+01 -0.2540240553096E+01  0.2666253061421E+00 -0.2945723834394E+00
 0.4227196901287E+01 -0.2589312836337E+01  0.3275768178713E+00 -0.2653194885704E+00
-0.7757306522062E+00 -0.3235896866477E+01 -0.8023255156922E+00 -0.1299368617080E+00
-0.7156919065046E+00 -0.3261711812948E+01 -0.7954807557441E+00 -0.1410843874781E+00
-0.6564628524035E+00 -0.3285941770907E+01 -0.7884809364114E+00 -0.1497575737256E+00
-0.5999852881315E+00 -0.3307341590943E+01 -0.7814653874597E+00 -0.1558140649375E+00
-0.5480323253511E+00 -0.3324775332205E+01 -0.7745615430530E+00 -0.1592732658303E+00
-0.5021214680904E+00 -0.3337266580216E+01 -0.7678776211035E+00 -0.1602998457963E+00
-0.4634489365815E+00 -0.3344029747237E+01 -0.7614957481108E+00 -0.1591642855698E+00
-0.4328561227167E+00 -0.3344475934531E+01 -0.7554664227069E+00 -0.1561949352366E+00
-0.4108270866611E+00 -0.3338196032679E+01 -0.7498046350410E+00 -0.1517344392514E+00
-0.3975083184021E+00 -0.3324929431187E+01 -0.7444875610115E+00 -0.1461085134085E+00
-0.3927387832500E+00 -0.3304528544726E+01 -0.7394534766140E+00 -0.1396096734474E+00
-0.3960792038212E+00 -0.3276928211884E+01 -0.7346014940874E+00 -0.1324944419587E+00
-0.4068328217951E+00 -0.3242125660651E+01 -0.7297917073640E+00 -0.1249902036961E+00
-0.4240538519046E+00 -0.3200173841696E+01 -0.7248455495211E+00 -0.1173073926755E+00
-0.4465423522067E+00 -0.3151190311667E+01 -0.7195465434968E+00 -0.1096534331406E+00
-0.4728306453365E+00 -0.3095374189654E+01 -0.7136409776323E+00 -0.1022445207857E+00
-0.5011630196519E+00 -0.3033033023493E+01 -0.7068392191617E+00 -0.9531440381993E-01
-0.5294739565226E+00 -0.2964616915553E+01 -0.6988181848282E+00 -0.8911937678605E-01
-0.5553726703771E+00 -0.2890749696579E+01 -0.6892244836615E+00 -0.8393880127221E-01
-0.5761359724025E+00 -0.2812260985427E+01 -0.6776794016642E+00 -0.8006917395532E-01
-0.5887113705290E+00 -0.2730224044187E+01 -0.6637870928345E+00 -0.7779959716440E-01
-0.5897370856725E+00 -0.2645990868716E+01 -0.6471456005210E+00 -0.7740145579266E-01
-0.5756010767545E+00 -0.2561185389431E+01 -0.6273573025855E+00 -0.7915330305124E-01
-0.5425263467560E+00 -0.2477681878145E+01 -0.6040416539811E+00 -0.8334677656689E-01
-0.4866745680609E+00 -0.2397572884238E+01 -0.5768494990556E+00 -0.9026532723898E-01
-0.4042707655044E+00 -0.2323121548311E+01 -0.5454784708912E+00 -0.1001478621542E+00
-0.2917582403873E+00 -0.2256692176570E+01 -0.5096900909864E+00 -0.1131424607031E+00
-0.1459906481936E+00 -0.2200650147417E+01 -0.4693281661158E+00 -0.1292527365174E+00
 0.3553430997383E-01 -0.2157226949305E+01 -0.4243385341894E+00 -0.1482806246497E+00
 0.2544039448275E+00 -0.2128350825115E+01 -0.3747893816424E+00 -0.1697730063677E+00
 0.5110285497481E+00 -0.2115447948272E+01 -0.3208838844864E+00 -0.1929861646775E+00
 0.8044733027803E+00 -0.2119248144681E+01 -0.2629549722984E+00 -0.2168794227903E+00
 0.1132307596945E+01 -0.2139640363720E+01 -0.2014665563571E+00 -0.2401359110990E+00
 0.1490444223030E+01 -0.2175565676840E+01 -0.1370242928039E+00 -0.2612247072432E+00
 0.1873123640557E+01 -0.2224972844132E+01 -0.7036984176355E-01 -0.2785196774111E+00
 0.2273048947025E+01 -0.2284872952703E+01 -0.2364801170840E-02 -0.2904588520146E+00
 0.2681673211305E+01 -0.2351505562022E+01  0.6603353084052E-01 -0.2957238699766E+00
 0.3089632560561E+01 -0.2420611148248E+01  0.1338042844564E+00 -0.2934122653723E+00
 0.3487265569276E+01 -0.2487780291135E+01  0.1998970586069E+00 -0.2831737884469E+00
 0.3865174048299E+01 -0.2548841464099E+01  0.2632665207630E+00 -0.2652891740150E+00
 0.4214718356343E+01 -0.2600236287277E+01  0.3228964186248E+00 -0.2406854946548E+00
-0.7711577840230E+00 -0.3216055598324E+01 -0.7974426883521E+00 -0.1202928149422E+00
-0.7118848027269E+00 -0.3241571844958E+01 -0.7906913413191E+00 -0.1317899939544E+00
-0.6535079015609E+00 -0.3265513751897E+01 -0.7838043423713E+00 -0.1412815181827E+00
-0.5979151081262E+00 -0.3286663947502E+01 -0.7769158227025E+00 -0.1485952426079E+00
-0.5468256156262E+00 -0.3303910636891E+01 -0.7701472619795E+00 -0.1537015371779E+00
-0.5017125020470E+00 -0.3316292103427E+01 -0.7636009324733E+00 -0.1567009071339E+00
-0.4637424386540E+00 -0.3323025536868E+01 -0.7573536063898E+00 -0.1577927746987E+00
-0.4337428913883E+00 -0.3323513824543E+01 -0.7514513543837E+00 -0.1572364445699E+00
-0.4121968316262E+00 -0.3317331951093E+01 -0.7459057676587E+00 -0.1553143645106E+00
-0.3992579128277E+00 -0.3304199961979E+01 -0.7406915859985E+00 -0.1523042820657E+00
-0.3947757292629E+00 -0.3283951494433E+01 -0.7357454557026E+00 -0.1484628319260E+00
-0.3983211679213E+00 -0.3256506219950E+01 -0.7309654884666E+00 -0.1440198520557E+00
-0.4092045735523E+00 -0.3221851666704E+01 -0.7262112588727E+00 -0.1391807543983E+00
-0.4264829694019E+00 -0.3180037320211E+01 -0.7213040686708E+00 -0.1341337110542E+00
-0.4489548344662E+00 -0.3131183436038E+01 -0.7160276647705E+00 -0.1290588457161E+00
-0.4751472336842E+00 -0.3075497403414E+01 -0.7101289380013E+00 -0.1241364338462E+00
-0.5032966658439E+00 -0.3013299752003E+01 -0.7033192940497E+00 -0.1195533000254E+00
-0.5313285498134E+00 -0.2945057385965E+01 -0.6952771975162E+00 -0.1155066935757E+00
-0.5568428980476E+00 -0.2871413989727E+01 -0.6856513877719E+00 -0.1122051516268E+00
-0.5771081733070E+00 -0.2793220562931E+01 -0.6740657572919E+00 -0.1098648986121E+00
-0.5890651701279E+00 -0.2711568168167E+01 -0.6601266774956E+00 -0.1086931675406E+00
-0.5893466555436E+00 -0.2627822938816E+01 -0.6434339284597E+00 -0.1088809407997E+00
-0.5743364094375E+00 -0.2543625917474E+01 -0.6235924746746E+00 -0.1106212657807E+00
-0.5402568828844E+00 -0.2460873053465E+01 -0.6002259962140E+00 -0.1141138808979E+00
-0.4832767492638E+00 -0.2381679710332E+01 -0.5729913004574E+00 -0.1195500279908E+00
-0.3996401958286E+00 -0.2308327933535E+01 -0.5415936339430E+00 -0.1270861451789E+00
-0.2858265505780E+00 -0.2243191835797E+01 -0.5058036848120E+00 -0.1368102138228E+00
-0.1387463817708E+00 -0.2188632860712E+01 -0.4654758554327E+00 -0.1487027942679E+00
 0.4402252870215E-01 -0.2146861348751E+01 -0.4205677702766E+00 -0.1625957269097E+00
 0.2639650147495E+00 -0.2119765776955E+01 -0.3711601579718E+00 -0.1781341208327E+00
 0.5213710656700E+00 -0.2108716116004E+01 -0.3174690147975E+00 -0.1947518373110E+00
 0.8151763851410E+00 -0.2114375806271E+01 -0.2598398880978E+00 -0.2116686102998E+00
 0.1142826401670E+01 -0.2136565585338E+01 -0.1987478396951E+00 -0.2279074345002E+00
 0.1500134916270E+01 -0.2174167628818E+01 -0.1348065445184E+00 -0.2423420515499E+00
 0.1881288310981E+01 -0.2225095071969E+01 -0.6876135322220E-01 -0.2537848598999E+00
 0.2278997314298E+01 -0.2286359120410E+01 -0.1472361244359E-02 -0.2611031140744E+00
 0.2684793752756E+01 -0.2354242716519E+01  0.6611020823247E-01 -0.2633484334419E+00
 0.3089462291298E+01 -0.2424573034125E+01  0.1329778534162E+00 -0.2598801863038E+00
 0.3483546859808E+01 -0.2493062449160E+01  0.1980968850815E+00 -0.2504627645171E+00
 0.3857888507377E+01 -0.2555681351402E+01  0.2604414350759E+00 -0.2353221201043E+00
 0.4204091764662E+01 -0.2609014545765E+01  0.3190154485330E+00 -0.2151586163447E+00
-0.7665462800918E+00 -0.3196443126183E+01 -0.7925978930656E+00 -0.1107445868141E+00
-0.7078687857194E+00 -0.3221736926937E+01 -0.7859211542423E+00 -0.1225921829353E+00
-0.6501812367563E+00 -0.3245464251207E+01 -0.7791291092026E+00 -0.1328935350379E+00
-0.5953239831030E+00 -0.3266433072333E+01 -0.7723514225961E+00 -0.1414466657845E+00
-0.5449682352972E+00 -0.3283554195000E+01 -0.7657044974693E+00 -0.1481751944580E+00
-0.5005464361456E+00 -0.3295881095558E+01 -0.7592855176550E+00 -0.1531191654407E+00
-0.4631964874682E+00 -0.3302636570767E+01 -0.7531666228702E+00 -0.1564109023370E+00
-0.4337299501321E+00 -0.3303219950080E+01 -0.7473899911793E+00 -0.1582438995122E+00
-0.4126249661436E+00 -0.3297195814113E+01 -0.7419641671074E+00 -0.1588423624472E+00
-0.4000381088160E+00 -0.3284270139445E+01 -0.7368616606323E+00 -0.1584366327104E+00
-0.3958259860720E+00 -0.3264261948388E+01 -0.7320175978000E+00 -0.1572468400594E+00
-0.3995674537612E+00 -0.3237078220951E+01 -0.7273291457805E+00 -0.1554746850945E+00
-0.4105795794316E+00 -0.3202697314548E+01 -0.7226553895643E+00 -0.1533017001374E+00
-0.4279236714032E+00 -0.3161163823056E+01 -0.7178175095881E+00 -0.1508917490725E+00
-0.4503997344284E+00 -0.3112597472215E+01 -0.7125994519473E+00 -0.1483956930716E+00
-0.4765339065675E+00 -0.3057209149951E+01 -0.7067486218352E+00 -0.1459561407541E+00
-0.5045599691997E+00 -0.2995326342463E+01 -0.6999772727631E+00 -0.1437115106925E+00
-0.5323996047061E+00 -0.2927425743506E+01 -0.6919650799535E+00 -0.1417987767080E+00
-0.5576487784595E+00 -0.2854163127339E+01 -0.6823623913277E+00 -0.1403546300975E+00
-0.5775722173085E+00 -0.2776402694717E+01 -0.6707949924008E+00 -0.1395141698445E+00
-0.5891077583406E+00 -0.2695245724031E+01 -0.6568707062626E+00 -0.1394020223593E+00
-0.5888857458850E+00 -0.2612065752279E+01 -0.6401903091724E+00 -0.1401281327636E+00
-0.5732882072084E+00 -0.2528513989798E+01 -0.6203604486454E+00 -0.1417996815342E+00
-0.5385382290632E+00 -0.2446500562977E+01 -0.5970077673041E+00 -0.1445247567461E+00
-0.4808102738174E+00 -0.2368156280762E+01 -0.5697933194064E+00 -0.1484036333007E+00
-0.3963626877717E+00 -0.2295776064565E+01 -0.5384277584906E+00 -0.1535128552490E+00
-0.2817005791584E+00 -0.2231740553979E+01 -0.5026882341181E+00 -0.1598844253478E+00
-0.1337746470767E+00 -0.2178408121229E+01 -0.4624365605519E+00 -0.1674815022179E+00
 0.4978138198938E-01 -0.2137974111892E+01 -0.4176385522038E+00 -0.1761726749932E+00
 0.2703812849897E+00 -0.2112299267062E+01 -0.3683836019039E+00 -0.1857085605530E+00
 0.5282322285888E+00 -0.2102714840061E+01 -0.3148965269868E+00 -0.1957071828922E+00
 0.8221814707501E+00 -0.2109839176505E+01 -0.2575315449885E+00 -0.2056532094183E+00
 0.1149590548909E+01 -0.2133447322083E+01 -0.1967713575670E+00 -0.2149103438263E+00
 0.1506207208337E+01 -0.2172382680023E+01 -0.1332350963225E+00 -0.2227526817031E+00
 0.1886183011117E+01 -0.2224535966718E+01 -0.6767059212852E-01 -0.2284210977243E+00
 0.2282236201665E+01 -0.2286920622966E+01 -0.9368842741645E-03 -0.2311968832423E+00
 0.2685954484044E+01 -0.2355851347695E+01  0.6602062825357E-01 -0.2304832375763E+00
 0.3088225557436E+01 -0.2427216432128E+01  0.1322018270316E+00 -0.2258826458065E+00
 0.3479734653555E+01 -0.2496813078594E+01  0.1965843179215E+00 -0.2172582404563E+00
 0.3851486936735E+01 -0.2560710093831E+01  0.2581553724275E+00 -0.2047705942368E+00
 0.4195254446786E+01 -0.2615591538977E+01  0.3159325862696E+00 -0.1888892779066E+00
-0.7618939525715E+00 -0.3177045235157E+01 -0.7877878492846E+00 -0.1012630954183E+00
-0.7036446250510E+00 -0.3202192052974E+01 -0.7811673472453E+00 -0.1134623290867E+00
-0.6464870127603E+00 -0.3225777858457E+01 -0.7744529857837E+00 -0.1245661599741E+00
-0.5922190684071E+00 -0.3246633943608E+01 -0.7677706138436E+00 -0.1343427373822E+00
-0.5424693305563E+00 -0.3263692395816E+01 -0.7612323566176E+00 -0.1426706829378E+00
-0.4986331152286E+00 -0.3276022352482E+01 -0.7549311047915E+00 -0.1495324827202E+00
-0.4618204054531E+00 -0.3282854788758E+01 -0.7489350500022E+00 -0.1549965621186E+00
-0.4328252022237E+00 -0.3283589741132E+01 -0.7432829997470E+00 -0.1591933567510E+00
-0.4121175127735E+00 -0.3277786477809E+01 -0.7379808091132E+00 -0.1622906786230E+00
-0.3998530089357E+00 -0.3265141837389E+01 -0.7329989801874E+00 -0.1644722789242E+00
-0.3958920305319E+00 -0.3245464151201E+01 -0.7282712471987E+00 -0.1659216798398E+00
-0.3998194241222E+00 -0.3218650050942E+01 -0.7236939057967E+00 -0.1668116686913E+00
-0.4109587073019E+00 -0.3184669203989E+01 -0.7191255929740E+00 -0.1672987235536E+00
-0.4283769712416E+00 -0.3143559892853E+01 -0.7143873834642E+00 -0.1675210672289E+00
-0.4508788149111E+00 -0.3095438120130E+01 -0.7092633975770E+00 -0.1675989842642E+00
-0.4769937139075E+00 -0.3040513544659E+01 -0.7035014621963E+00 -0.1676362278048E+00
-0.5049577306684E+00 -0.2979114621790E+01 -0.6968144808750E+00 -0.1677217908063E+00
-0.5326940710444E+00 -0.2911720847726E+01 -0.6888829940191E+00 -0.1679315174095E+00
-0.5577997533464E+00 -0.2838992335811E+01 -0.6793584279548E+00 -0.1683295362672E+00
-0.5775403284369E+00 -0.2761798318670E+01 -0.6678677393735E+00 -0.1689692070027E+00
-0.5888543694987E+00 -0.2681242720568E+01 -0.6540194277589E+00 -0.1698919677562E+00
-0.5883727329097E+00 -0.2598699776772E+01 -0.6374145114346E+00 -0.1711261762325E+00
-0.5724779476635E+00 -0.2515823992441E+01 -0.6176603972247E+00 -0.1726928026608E+00
-0.5373946393162E+00 -0.2434532325119E+01 -0.5943854017441E+00 -0.1746083897208E+00
-0.4793014355735E+00 -0.2356963928268E+01 -0.5672530812211E+00 -0.1768830318496E+00
-0.3944653134078E+00 -0.2285420962560E+01 -0.5359772631803E+00 -0.1795150406697E+00
-0.2794063242642E+00 -0.2222287817338E+01 -0.5003388357761E+00 -0.1824830863823E+00
-0.1310979471460E+00 -0.2169921224073E+01 -0.4602038411013E+00 -0.1857365215987E+00
 0.5279470247705E-01 -0.2130508235291E+01 -0.4155427127548E+00 -0.1891849869449E+00
 0.2736458745123E+00 -0.2105894297540E+01 -0.3664496900660E+00 -0.1926891164136E+00
 0.5316170316601E+00 -0.2097389574994E+01 -0.3131545133332E+00 -0.1960550924180E+00
 0.8255070519363E+00 -0.2105588373953E+01 -0.2560162682183E+00 -0.1990351564389E+00
 0.1152632056887E+01 -0.2130241887849E+01 -0.1955219691059E+00 -0.2013340128641E+00
 0.1508704566285E+01 -0.2170173782733E+01 -0.1322938452609E+00 -0.2026231595523E+00
 0.1887858294942E+01 -0.2223264258335E+01 -0.6708119367818E-01 -0.2025654311928E+00
 0.2282816893194E+01 -0.2286529900471E+01 -0.7426014664216E-03 -0.2008464939704E+00
 0.2685199852689E+01 -0.2356304770728E+01  0.6577901737247E-01 -0.1972095163007E+00
 0.3085952327620E+01 -0.2428512612734E+01  0.1314879449365E+00 -0.1914883062259E+00
 0.3475837918484E+01 -0.2498999121395E+01  0.1953677623290E+00 -0.1836346497243E+00
 0.3845952847684E+01 -0.2563889193782E+01  0.2564127346013E+00 -0.1737368535261E+00
 0.4188162556806E+01 -0.2619923609843E+01  0.3136477940662E+00 -0.1620307308664E+00
-0.7571985204171E+00 -0.3157847385618E+01 -0.7830091928747E+00 -0.9181961903515E-01
-0.6992128440457E+00 -0.3182921824593E+01 -0.7764269452974E+00 -0.1043721191108E+00
-0.6424288649995E+00 -0.3206438601613E+01 -0.7697735047930E+00 -0.1162720490023E+00
-0.5886068186347E+00 -0.3227250604552E+01 -0.7631714960095E+00 -0.1272576771746E+00
-0.5393374055205E+00 -0.3244310069292E+01 -0.7567295062386E+00 -0.1371639224369E+00
-0.4959820841029E+00 -0.3256702264240E+01 -0.7505368808525E+00 -0.1459178963373E+00
-0.4596237840948E+00 -0.3263668747119E+01 -0.7446585173390E+00 -0.1535266280134E+00
-0.4310374983423E+00 -0.3264614253992E+01 -0.7391303614808E+00 -0.1600597882229E+00
-0.4106820956111E+00 -0.3259097534245E+01 -0.7339559369079E+00 -0.1656305317362E+00
-0.3987088325872E+00 -0.3246810959732E+01 -0.7291039693283E+00 -0.1703770609819E+00
-0.3949787535982E+00 -0.3227555907759E+01 -0.7245069430674E+00 -0.1744466753399E+00
-0.3990808929905E+00 -0.3201220896962E+01 -0.7200603687203E+00 -0.1779831192903E+00
-0.4103450414687E+00 -0.3167767344674E+01 -0.7156224878921E+00 -0.1811173517957E+00
-0.4278456017058E+00 -0.3127225809087E+01 -0.7110142927536E+00 -0.1839613214853E+00
-0.4503948216400E+00 -0.3079705410436E+01 -0.7060200569357E+00 -0.1866040638627E+00
-0.4765297410759E+00 -0.3025409895111E+01 -0.7003879376741E+00 -0.1891098454152E+00
-0.5044936574724E+00 -0.2964662742440E+01 -0.6938312903213E+00 -0.1915176798176E+00
-0.5322165202140E+00 -0.2897939296758E+01 -0.6860311736171E+00 -0.1938418080550E+00
-0.5573014684586E+00 -0.2825896282198E+01 -0.6766395602141E+00 -0.1960733870579E+00
-0.5770194073676E+00 -0.2749399810930E+01 -0.6652838535730E+00 -0.1981836611361E+00
-0.5883133043315E+00 -0.2669548898537E+01 -0.6515724502828E+00 -0.2001304467170E+00
-0.5878174059651E+00 -0.2587711793986E+01 -0.6351058494540E+00 -0.2018600340753E+00
-0.5719168960318E+00 -0.2505539469044E+01 -0.6154912821866E+00 -0.2033068338951E+00
-0.5368386770201E+00 -0.2424948457393E+01 -0.5923574357095E+00 -0.2043957712340E+00
-0.4787636838515E+00 -0.2348079308224E+01 -0.5653686068397E+00 -0.2050470508444E+00
-0.3939617024531E+00 -0.2277236001636E+01 -0.5342395487786E+00 -0.2051814589982E+00
-0.2789565676271E+00 -0.2214804170891E+01 -0.4987521551355E+00 -0.2047254720811E+00
-0.1307268851760E+00 -0.2163140635764E+01 -0.4587735110243E+00 -0.2036161618488E+00
 0.5305560681809E-01 -0.2124431136815E+01 -0.4142751121725E+00 -0.2018060009653E+00
 0.2737571952599E+00 -0.2100518463747E+01 -0.3653522591417E+00 -0.1992674433154E+00
 0.5315305307827E+00 -0.2092709365127E+01 -0.3122357715216E+00 -0.1959963519286E+00
 0.8251656273645E+00 -0.2101595003859E+01 -0.2552858791030E+00 -0.1920134596762E+00
 0.1151970781656E+01 -0.2126924166749E+01 -0.1949906799241E+00 -0.1873643862799E+00
 0.1507652975292E+01 -0.2167519214426E+01 -0.1319732497935E+00 -0.1821165856947E+00
 0.1886343821215E+01 -0.2221261023662E+01 -0.6698344148767E-01 -0.1763519409841E+00
 0.2280769199376E+01 -0.2285169584284E+01 -0.8800769946345E-03 -0.1701562986759E+00
 0.2682555646914E+01 -0.2355585507503E+01  0.6539402885659E-01 -0.1636077911942E+00
 0.3082660131852E+01 -0.2428442258451E+01  0.1308435766299E+00 -0.1567664139261E+00
 0.3471862248963E+01 -0.2499597995349E+01  0.1944528536203E+00 -0.1496680646009E+00
 0.3841277270761E+01 -0.2565191958266E+01  0.2552170663020E+00 -0.1423254123538E+00
 0.4182791230533E+01 -0.2621979792409E+01  0.3121622922763E+00 -0.1347385872286E+00
-0.7524576017929E+00 -0.3138834596556E+01 -0.7782584512667E+00 -0.8238580335039E-01
-0.6945737563556E+00 -0.3163910322457E+01 -0.7716968272617E+00 -0.9529357296945E-01
-0.6380099895728E+00 -0.3187429816567E+01 -0.7650879726287E+00 -0.1079840559400E+00
-0.5844930945532E+00 -0.3208266047362E+01 -0.7585518396863E+00 -0.1201656856599E+00
-0.5355804311911E+00 -0.3225390401714E+01 -0.7521941777895E+00 -0.1316305624359E+00
-0.4926026752975E+00 -0.3237904774242E+01 -0.7461015010258E+00 -0.1422519438806E+00
-0.4566165359705E+00 -0.3245063623982E+01 -0.7403360430224E+00 -0.1519773103427E+00
-0.4283766490686E+00 -0.3246280217007E+01 -0.7349313841666E+00 -0.1608174254847E+00
-0.4083279179200E+00 -0.3241117386691E+01 -0.7298890717985E+00 -0.1688324096073E+00
-0.3966138679135E+00 -0.3229267533260E+01 -0.7251762910406E+00 -0.1761161674852E+00
-0.3930933964495E+00 -0.3210528683512E+01 -0.7207244267319E+00 -0.1827806245305E+00
-0.3973580542899E+00 -0.3184783398138E+01 -0.7164283011612E+00 -0.1889409762021E+00
-0.4087438099501E+00 -0.3151985254528E+01 -0.7121458235073E+00 -0.1947028888405E+00
-0.4263339443010E+00 -0.3112155682907E+01 -0.7076979359872E+00 -0.2001520912658E+00
-0.4489514158321E+00 -0.3065393796383E+01 -0.7028690529165E+00 -0.2053463327886E+00
-0.4751450445622E+00 -0.3011892791656E+01 -0.6974075776359E+00 -0.2103103179704E+00
-0.5031703006567E+00 -0.2951965273783E+01 -0.6910271251850E+00 -0.2150329954153E+00
-0.5309690831882E+00 -0.2886075521467E+01 -0.6834089311147E+00 -0.2194669138479E+00
-0.5561557115066E+00 -0.2814869172457E+01 -0.6742049868391E+00 -0.2235301605756E+00
-0.5760109704638E+00 -0.2739201088199E+01 -0.6630424216126E+00 -0.2271117279229E+00
-0.5874858738553E+00 -0.2660157835094E+01 -0.6495287514685E+00 -0.2300855235521E+00
-0.5872209229240E+00 -0.2579095001813E+01 -0.6332631943838E+00 -0.2323153549479E+00
-0.5716060815914E+00 -0.2497653213579E+01 -0.6138518681812E+00 -0.2336487083327E+00
-0.5368712241865E+00 -0.2417741349298E+01 -0.5909225235023E+00 -0.2339186283284E+00
-0.4791976785478E+00 -0.2341494438390E+01 -0.5641384317939E+00 -0.2329552095295E+00
-0.3948521552285E+00 -0.2271212899920E+01 -0.5332130189752E+00 -0.2306014503056E+00
-0.2803510533653E+00 -0.2209281145065E+01 -0.4979264471058E+00 -0.2267312537162E+00
-0.1326604089402E+00 -0.2158057843808E+01 -0.4581436573764E+00 -0.2212688630288E+00
 0.5056619858621E-01 -0.2119734423044E+01 -0.4138336510581E+00 -0.2142088528032E+00
 0.2707186316607E+00 -0.2096163646396E+01 -0.3650890083873E+00 -0.2056346224337E+00
 0.5279775469098E+00 -0.2088666483094E+01 -0.3121377918881E+00 -0.1957308126163E+00
 0.8211634857514E+00 -0.2097851779245E+01 -0.2553376625036E+00 -0.1847859050670E+00
 0.1147614342116E+01 -0.2123487261651E+01 -0.1951745868155E+00 -0.1731860402656E+00
 0.1503061049628E+01 -0.2164412296857E+01 -0.1322702514168E+00 -0.1613947425457E+00
 0.1881648662417E+01 -0.2218519504995E+01 -0.6737416951952E-01 -0.1499136592565E+00
 0.2276101932705E+01 -0.2282832421094E+01 -0.1346097697865E-02 -0.1392300677552E+00
 0.2678029565981E+01 -0.2353685299616E+01  0.6486885423961E-01 -0.1297585966497E+00
 0.3078354632363E+01 -0.2426995537765E+01  0.1302718208608E+00 -0.1217868528443E+00
 0.3467810347431E+01 -0.2498597706773E+01  0.1938425310201E+00 -0.1154357497230E+00
 0.3837459086543E+01 -0.2564603648516E+01  0.2545710913988E+00 -0.1106423907892E+00
 0.4179134747199E+01 -0.2621742025219E+01  0.3114785490373E+00 -0.1071703149792E+00
-0.7476687088664E+00 -0.3119991367246E+01 -0.7735320267491E+00 -0.7293367327185E-01
-0.6897274900899E+00 -0.3145141020088E+01 -0.7669737134643E+00 -0.8619906827906E-01
-0.6332331967985E+00 -0.3168734058688E+01 -0.7603934624280E+00 -0.9967530894849E-01
-0.5798832364736E+00 -0.3189662132768E+01 -0.7539090850824E+00 -0.1130411014104E+00
-0.5312059234999E+00 -0.3206914874455E+01 -0.7476241707315E+00 -0.1260462257045E+00
-0.4885040767733E+00 -0.3219611345490E+01 -0.7416230955037E+00 -0.1385109738576E+00
-0.4528089417556E+00 -0.3227021215940E+01 -0.7359660425058E+00 -0.1503244977563E+00
-0.4248534472690E+00 -0.3228570054916E+01 -0.7306847113251E+00 -0.1614400924202E+00
-0.4050657617186E+00 -0.3223829295026E+01 -0.7257790221639E+00 -0.1718663570036E+00
-0.3935784540686E+00 -0.3212495765711E+01 -0.7212148547029E+00 -0.1816543523890E+00
-0.3902455222771E+00 -0.3194367667180E+01 -0.7169226485745E+00 -0.1908819293945E+00
-0.3946594496280E+00 -0.3169323706480E+01 -0.7127966418432E+00 -0.1996368359362E+00
-0.4061623531914E+00 -0.3137310014166E+01 -0.7086944840318E+00 -0.2080003492380E+00
-0.4238480021554E+00 -0.3098337502666E+01 -0.7044371114613E+00 -0.2160327093358E+00
-0.4465531527917E+00 -0.3052492189637E+01 -0.6998090789138E+00 -0.2237609710086E+00
-0.4728426363380E+00 -0.2999952133939E+01 -0.6945589644052E+00 -0.2311707551743E+00
-0.5009890443320E+00 -0.2941013220584E+01 -0.6884004632412E+00 -0.2382013282848E+00
-0.5289514433245E+00 -0.2876121797576E+01 -0.6810146583280E+00 -0.2447438449641E+00
-0.5543604072804E+00 -0.2805904758976E+01 -0.6720530432657E+00 -0.2506435400891E+00
-0.5745111465226E+00 -0.2731197612161E+01 -0.6611417615886E+00 -0.2557072608018E+00
-0.5863663978313E+00 -0.2653066946069E+01 -0.6478866784343E+00 -0.2597248692257E+00
-0.5865758112312E+00 -0.2572849014856E+01 -0.6318849746332E+00 -0.2624773429842E+00
-0.5715363027627E+00 -0.2492167268831E+01 -0.6127407234492E+00 -0.2637248677782E+00
-0.5374814922845E+00 -0.2412915658043E+01 -0.5900794388583E+00 -0.2632081607806E+00
-0.4805913081498E+00 -0.2337216690843E+01 -0.5635616081964E+00 -0.2606664834694E+00
-0.3971236686257E+00 -0.2267361706620E+01 -0.5328970829898E+00 -0.2558638249149E+00
-0.2835765214786E+00 -0.2205731237170E+01 -0.4978615591484E+00 -0.2486196284493E+00
-0.1368858497606E+00 -0.2154687332520E+01 -0.4583146432855E+00 -0.2388426976894E+00
 0.4533752778964E-01 -0.2116433860517E+01 -0.4142192727179E+00 -0.2265664716773E+00
 0.2645385044931E+00 -0.2092845980625E+01 -0.3656615006751E+00 -0.2119817373560E+00
 0.5209626415737E+00 -0.2085276400432E+01 -0.3128627564336E+00 -0.1954585660147E+00
 0.8135007008497E+00 -0.2094372497536E+01 -0.2561743631546E+00 -0.1775507546062E+00
 0.1139558141396E+01 -0.2119942481466E+01 -0.1960768709358E+00 -0.1589842224006E+00
 0.1494920085120E+01 -0.2160861397891E+01 -0.1331882645390E+00 -0.1406202048026E+00
 0.1873761389679E+01 -0.2215045129121E+01 -0.6825674890565E-01 -0.1233844413671E+00
 0.2268803022645E+01 -0.2279521310448E+01 -0.2143657592565E-02 -0.1081723503106E+00
 0.2671611359138E+01 -0.2350605164508E+01  0.6420123988273E-01 -0.9574317195575E-01
 0.3073029777683E+01 -0.2424172179295E+01  0.1297715216113E+00 -0.8662017382893E-01
 0.3463682184538E+01 -0.2495996942718E+01  0.1935370512480E+00 -0.8101569814537E-01
 0.3834505187581E+01 -0.2562121593842E+01  0.2544767225398E+00 -0.7879484612082E-01
 0.4177206699806E+01 -0.2619205297532E+01  0.3116002850981E+00 -0.7948470773574E-01
-0.7428292449880E+00 -0.3101301635671E+01 -0.7688261875882E+00 -0.6343564773943E-01
-0.6846740003131E+00 -0.3126596737893E+01 -0.7622541589996E+00 -0.7706136696481E-01
-0.6281009397942E+00 -0.3150333054792E+01 -0.7556868101778E+00 -0.9131928715675E-01
-0.5747821057828E+00 -0.3171419544228E+01 -0.7492403411667E+00 -0.1058585554619E+00
-0.5262209917840E+00 -0.3188863225652E+01 -0.7430168545590E+00 -0.1203867460107E+00
-0.4836953802087E+00 -0.3201800934569E+01 -0.7370992739392E+00 -0.1346714485194E+00
-0.4482116920547E+00 -0.3209519927333E+01 -0.7315463347784E+00 -0.1485440908814E+00
-0.4204796996426E+00 -0.3211461893614E+01 -0.7263883294753E+00 -0.1619015306239E+00
-0.4009080083202E+00 -0.3207211393226E+01 -0.7216238910622E+00 -0.1747022581844E+00
-0.3896149928359E+00 -0.3196474070938E+01 -0.7172178234422E+00 -0.1869561492579E+00
-0.3864470228962E+00 -0.3179051797307E+01 -0.7130997746666E+00 -0.1987087257359E+00
-0.3909959744342E+00 -0.3154821508517E+01 -0.7091635071575E+00 -0.2100219882936E+00
-0.4026101338292E+00 -0.3123722278185E+01 -0.7052664929122E+00 -0.2209543951124E+00
-0.4203954163911E+00 -0.3085753130912E+01 -0.7012297199097E+00 -0.2315420958232E+00
-0.4432055065013E+00 -0.3040983940665E+01 -0.6968378998169E+00 -0.2417826647021E+00
-0.4696255170211E+00 -0.2989573093879E+01 -0.6918397324893E+00 -0.2516236677597E+00
-0.4979501467962E+00 -0.2931793969026E+01 -0.6859488333858E+00 -0.2609555407815E+00
-0.5261608841259E+00 -0.2868068176152E+01 -0.6788458221711E+00 -0.2696087319465E+00
-0.5519096701357E+00 -0.2798996257744E+01 -0.6701811955625E+00 -0.2773561604452E+00
-0.5725107313514E+00 -0.2725386296365E+01 -0.6595794153719E+00 -0.2839228856104E+00
-0.5849422578303E+00 -0.2648277386516E+01 -0.6466439385051E+00 -0.2890147471194E+00
-0.5858660145426E+00 -0.2568979763735E+01 -0.6309691650577E+00 -0.2923296266362E+00
-0.5716881607262E+00 -0.2489092831202E+01 -0.6121562075075E+00 -0.2935400406416E+00
-0.5386470343917E+00 -0.2410488227740E+01 -0.5898270612154E+00 -0.2922937737483E+00
-0.4829196704357E+00 -0.2335268736849E+01 -0.5636376898559E+00 -0.2882380619414E+00
-0.4007498749253E+00 -0.2265710785965E+01 -0.5332921401247E+00 -0.2810557415016E+00
-0.2886065960427E+00 -0.2204187948556E+01 -0.4985589163488E+00 -0.2705084367436E+00
-0.1433787562757E+00 -0.2153066685848E+01 -0.4592890952686E+00 -0.2564848582862E+00
 0.3738980644188E-01 -0.2114569551338E+01 -0.4154359551696E+00 -0.2390515611072E+00
 0.2552303182387E+00 -0.2090606102240E+01 -0.3670751622702E+00 -0.2185004368211E+00
 0.5104903645105E+00 -0.2082578090037E+01 -0.3144175497904E+00 -0.1953811103866E+00
 0.8021713364993E+00 -0.2091192372222E+01 -0.2578042109862E+00 -0.1705084433150E+00
 0.1127785483526E+01 -0.2116319666431E+01 -0.1977068395272E+00 -0.1449468988401E+00
 0.1483204052347E+01 -0.2156890215170E+01 -0.1347372345723E+00 -0.1199584650973E+00
 0.1862649933348E+01 -0.2210855725705E+01 -0.6964115950924E-01 -0.9690085694449E-01
 0.2258839270184E+01 -0.2275249454434E+01 -0.3282036899064E-02 -0.7708985300200E-01
 0.2663272533876E+01 -0.2346355493323E+01  0.6338340905518E-01 -0.6164416562847E-01
 0.3066667540939E+01 -0.2419981544710E+01  0.1293372011729E+00 -0.5133762873874E-01
 0.3459474838424E+01 -0.2491805141103E+01  0.1935339423482E+00 -0.4648616598387E-01
 0.3832430470629E+01 -0.2557755267549E+01  0.2549350444150E+00 -0.4689009834393E-01
 0.4177040170709E+01 -0.2614377725460E+01  0.3125324937069E+00 -0.5184134467653E-01
-0.7379365041888E+00 -0.3082748772971E+01 -0.7641370668186E+00 -0.5386455596471E-01
-0.6794130701932E+00 -0.3108259636694E+01 -0.7575345526656E+00 -0.6785364324047E-01
-0.6226153186457E+00 -0.3132207694687E+01 -0.7509646138569E+00 -0.8288989828111E-01
-0.5691940953508E+00 -0.3153517775993E+01 -0.7445423853633E+00 -0.9859312605339E-01
-0.5206323583806E+00 -0.3171213434295E+01 -0.7383691695376E+00 -0.1146284051569E+00
-0.4781856103278E+00 -0.3184449973285E+01 -0.7325271276380E+00 -0.1307102447981E+00
-0.4428359241668E+00 -0.3192534752523E+01 -0.7270741461722E+00 -0.1466123331279E+00
-0.4152682671577E+00 -0.3194929546042E+01 -0.7220395733992E+00 -0.1621757217076E+00
-0.3958686792429E+00 -0.3191236679908E+01 -0.7174210825206E+00 -0.1773101171015E+00
-0.3847379888336E+00 -0.3181175062198E+01 -0.7131826208336E+00 -0.1919860847974E+00
-0.3817121593881E+00 -0.3164553753679E+01 -0.7092531931821E+00 -0.2062190144294E+00
-0.3863809218035E+00 -0.3141250008616E+01 -0.7055261965971E+00 -0.2200474561771E+00
-0.3980987869998E+00 -0.3111196243962E+01 -0.7018590166509E+00 -0.2335092788768E+00
-0.4159855256637E+00 -0.3074378253205E+01 -0.6980727661759E+00 -0.2466185994240E+00
-0.4389149401186E+00 -0.3030846763777E+01 -0.6939523511199E+00 -0.2593453414748E+00
-0.4654967579292E+00 -0.2980736014977E+01 -0.6892465648518E+00 -0.2716005915356E+00
-0.4940528337612E+00 -0.2924291159959E+01 -0.6836688089315E+00 -0.2832272737494E+00
-0.5225923923180E+00 -0.2861902331957E+01 -0.6768989549416E+00 -0.2939962086170E+00
-0.5487939143337E+00 -0.2794136174469E+01 -0.6685860277232E+00 -0.3036088608942E+00
-0.5699953008396E+00 -0.2721765314662E+01 -0.6583521329106E+00 -0.3117091198807E+00
-0.5831940058089E+00 -0.2645793848325E+01 -0.6457975804500E+00 -0.3179190008173E+00
-0.5850669861763E+00 -0.2567499291628E+01 -0.6305132649562E+00 -0.3218531257334E+00
-0.5720321231620E+00 -0.2488450059768E+01 -0.6120964457069E+00 -0.3230960128103E+00
-0.5403337606548E+00 -0.2410487929383E+01 -0.5901643468017E+00 -0.3212017965240E+00
-0.4861450181230E+00 -0.2335688441376E+01 -0.5643667003096E+00 -0.3157240830268E+00
-0.4056908957320E+00 -0.2266306794195E+01 -0.5343995459486E+00 -0.3062615535366E+00
-0.2954015298674E+00 -0.2204705873499E+01 -0.5000214881241E+00 -0.2925132391428E+00
-0.1521025235112E+00 -0.2153256813713E+01 -0.4610718743154E+00 -0.2743410975567E+00
 0.2675288182574E-01 -0.2114206311102E+01 -0.4174906920763E+00 -0.2518365317402E+00
 0.2428132964423E+00 -0.2089509671589E+01 -0.3693392805329E+00 -0.2253834567744E+00
 0.4965657809764E+00 -0.2080634664268E+01 -0.3168137813793E+00 -0.1957024937073E+00
 0.7871638716230E+00 -0.2088368726749E+01 -0.2602409749030E+00 -0.1638632791506E+00
 0.1112267795532E+01 -0.2112667861152E+01 -0.2000800161055E+00 -0.1312668353182E+00
 0.1467869538083E+01 -0.2152538351935E+01 -0.1369337648109E+00 -0.9958012091931E-01
 0.1848261221355E+01 -0.2205981953620E+01 -0.7154414751904E-01 -0.7060415730625E-01
 0.2246155737757E+01 -0.2270040624844E+01 -0.4776977488439E-02 -0.4609289238982E-01
 0.2652965624735E+01 -0.2340956192817E+01  0.6240188731340E-01 -0.2754639462788E-01
 0.3059237232572E+01 -0.2414442701313E+01  0.1289589081733E+00 -0.1601123491598E-01
 0.3455182004890E+01 -0.2486042539547E+01  0.1938278959569E+00 -0.1192521825468E-01
 0.3831257652669E+01 -0.2551526325067E+01  0.2559462693343E+00 -0.1503505767932E-01
 0.4178687909823E+01 -0.2607280557491E+01  0.3142814751496E+00 -0.2440005335499E-01
-0.7329876730335E+00 -0.3064315614143E+01 -0.7594606687521E+00 -0.4419365358899E-01
-0.6739443006507E+00 -0.3090111250905E+01 -0.7528111215289E+00 -0.5854951201029E-01
-0.6167780599126E+00 -0.3114338062289E+01 -0.7462232355598E+00 -0.7436155818091E-01
-0.5631231086752E+00 -0.3135935154769E+01 -0.7398116637129E+00 -0.9122049705767E-01
-0.5144463494904E+00 -0.3153941726156E+01 -0.7336776260620E+00 -0.1087481745772E+00
-0.4719837356684E+00 -0.3167532357240E+01 -0.7279032294284E+00 -0.1266049592666E+00
-0.4366932542008E+00 -0.3176037250632E+01 -0.7225461117334E+00 -0.1445061439992E+00
-0.4092331145482E+00 -0.3178942479127E+01 -0.7176351294286E+00 -0.1622372106255E+00
-0.3899634972649E+00 -0.3175872982367E+01 -0.7131673065534E+00 -0.1796603380802E+00
-0.3789641177099E+00 -0.3166565514460E+01 -0.7091059370005E+00 -0.1967088936629E+00
-0.3760576359396E+00 -0.3150839914756E+01 -0.7053795206501E+00 -0.2133707958989E+00
-0.3808300631580E+00 -0.3128575875172E+01 -0.7018811981248E+00 -0.2296640411922E+00
-0.3926422104139E+00 -0.3099699578952E+01 -0.6984683682811E+00 -0.2456087943037E+00
-0.4106294683056E+00 -0.3064182279479E+01 -0.6949623599126E+00 -0.2611998490703E+00
-0.4336890220510E+00 -0.3022052607239E+01 -0.6911483361569E+00 -0.2763819174574E+00
-0.4604596319144E+00 -0.2973416248021E+01 -0.6867751862208E+00 -0.2910317240415E+00
-0.4892954437885E+00 -0.2918484489156E+01 -0.6815559967448E+00 -0.3049464660342E+00
-0.5182388165787E+00 -0.2857609329154E+01 -0.6751696392073E+00 -0.3178388071370E+00
-0.5450000228933E+00 -0.2791316038839E+01 -0.6672632222895E+00 -0.3293399487133E+00
-0.5669453836488E+00 -0.2720333809992E+01 -0.6574558485250E+00 -0.3390135004339E+00
-0.5810955299655E+00 -0.2645624253111E+01 -0.6453439662316E+00 -0.3463980460829E+00
-0.5841458319693E+00 -0.2568425445420E+01 -0.6305142648732E+00 -0.3510249165169E+00
-0.5725286216629E+00 -0.2490267785889E+01 -0.6125592906382E+00 -0.3523903876940E+00
-0.5424959615959E+00 -0.2412955416611E+01 -0.5910902844493E+00 -0.3499541787797E+00
-0.4902166747839E+00 -0.2338528700827E+01 -0.5657490835525E+00 -0.3431743317816E+00
-0.4118931165507E+00 -0.2269214641983E+01 -0.5362215596971E+00 -0.3315616026534E+00
-0.3039078102501E+00 -0.2207360831757E+01 -0.5022537358856E+00 -0.3147463243405E+00
-0.1630078193937E+00 -0.2155342294815E+01 -0.4636700297510E+00 -0.2925550888479E+00
 0.1346696967155E-01 -0.2115434245068E+01 -0.4203934613436E+00 -0.2650933520347E+00
 0.2273132132534E+00 -0.2089648176127E+01 -0.3724669981249E+00 -0.2328250724444E+00
 0.4791952933261E+00 -0.2079534356629E+01 -0.3200678174300E+00 -0.1966304161609E+00
 0.7684618645146E+00 -0.2085982065803E+01 -0.2635040441842E+00 -0.1578251479380E+00
 0.1092964974964E+01 -0.2109056355993E+01 -0.2032182792340E+00 -0.1181437371256E+00
 0.1448855649571E+01 -0.2147862207162E+01 -0.1398013136015E+00 -0.7966316924963E-01
 0.1830520598789E+01 -0.2200467953967E+01 -0.7398947213818E-01 -0.4464237827725E-01
 0.2230674764540E+01 -0.2263929559709E+01 -0.6650959132893E-02 -0.1529697891535E-01
 0.2640623002874E+01 -0.2334436876643E+01  0.6123722615863E-01  0.6462297028658E-02
 0.3050694365665E+01 -0.2407584496708E+01  0.1286219757082E+00  0.1928610394141E-01
 0.3450793161408E+01 -0.2478740204794E+01  0.1944105942197E+00  0.2258970201770E-01
 0.3831016899376E+01 -0.2543468606532E+01  0.2575096624059E+00  0.1666443743096E-01
 0.4182222510920E+01 -0.2597948108278E+01  0.3168548852499E+00  0.2679612602751E-02
-0.7279798349131E+00 -0.3045984526142E+01 -0.7547928834584E+00 -0.3439663725047E-01
-0.6682670879267E+00 -0.3072132562667E+01 -0.7480799412660E+00 -0.4912305690111E-01
-0.6105904704308E+00 -0.3096703507450E+01 -0.7414588066248E+00 -0.6570927355530E-01
-0.5565725068520E+00 -0.3118648895527E+01 -0.7350442914289E+00 -0.8371712382774E-01
-0.5076688570830E+00 -0.3137022601367E+01 -0.7289383025521E+00 -0.1027239671039E+00
-0.4650986613464E+00 -0.3151019440684E+01 -0.7232236311830E+00 -0.1223342232478E+00
-0.4297958055351E+00 -0.3159995512131E+01 -0.7179582742316E+00 -0.1422034602555E+00
-0.4023893697943E+00 -0.3163465761730E+01 -0.7131710369319E+00 -0.1620614339035E+00
-0.3832099681090E+00 -0.3161082894961E+01 -0.7088585831768E+00 -0.1817240094358E+00
-0.3723123222614E+00 -0.3152606297449E+01 -0.7049837344471E+00 -0.2010897360775E+00
-0.3695027064035E+00 -0.3137870283388E+01 -0.7014746084111E+00 -0.2201222090534E+00
-0.3743617650934E+00 -0.3116759152121E+01 -0.6982241938472E+00 -0.2388223764462E+00
-0.3862566936560E+00 -0.3089193308838E+01 -0.6950900108564E+00 -0.2571962377631E+00
-0.4043403267804E+00 -0.3055128199892E+01 -0.6918937156445E+00 -0.2752226182715E+00
-0.4275365876288E+00 -0.3014567469874E+01 -0.6884208217588E+00 -0.2928240587665E+00
-0.4545177932999E+00 -0.2967583924111E+01 -0.6844203536808E+00 -0.3098455763779E+00
-0.4836756265276E+00 -0.2914349434974E+01 -0.6796050224271E+00 -0.3260408891772E+00
-0.5130910828283E+00 -0.2855171304276E+01 -0.6736524874590E+00 -0.3410663674231E+00
-0.5405115763018E+00 -0.2790526046262E+01 -0.6662075344400E+00 -0.3544844752684E+00
-0.5633366955171E+00 -0.2721091502080E+01 -0.6568856493077E+00 -0.3657797198921E+00
-0.5786142807632E+00 -0.2647779337915E+01 -0.6452787333510E+00 -0.3744078659613E+00
-0.5830615065539E+00 -0.2571781457623E+01 -0.6309686022375E+00 -0.3798170910274E+00
-0.5731281881276E+00 -0.2494583117720E+01 -0.6135422703119E+00 -0.3814153282030E+00
-0.5450763458546E+00 -0.2417942789405E+01 -0.5926038358824E+00 -0.3785671522367E+00
-0.4950709285477E+00 -0.2343857213800E+01 -0.5677856369301E+00 -0.3706328833863E+00
-0.4192888895227E+00 -0.2274517430136E+01 -0.5387612719600E+00 -0.3570309339336E+00
-0.3140576316546E+00 -0.2212250031839E+01 -0.5052615402277E+00 -0.3373156166164E+00
-0.1760318103399E+00 -0.2159431824295E+01 -0.4670927338872E+00 -0.3112676690871E+00
-0.2416347210203E-02 -0.2118369515462E+01 -0.4241571788549E+00 -0.2789932778705E+00
 0.2087635364250E+00 -0.2091140012645E+01 -0.3764753008539E+00 -0.2410214461134E+00
 0.4583877827044E+00 -0.2079391858914E+01 -0.3242008200730E+00 -0.1983772705166E+00
 0.7460448904943E+00 -0.2084137547631E+01 -0.2676185354151E+00 -0.1526112226056E+00
 0.1069825898743E+01 -0.2105576129745E+01 -0.2071500492871E+00 -0.1057864737197E+00
 0.1426083909684E+01 -0.2142936216158E+01 -0.1433704634313E+00 -0.6039546042754E-01
 0.1809331039143E+01 -0.2194372261335E+01 -0.7700824558602E-01 -0.1917264719187E-01
 0.2212294595551E+01 -0.2256962510136E+01 -0.8933583050193E-02  0.1517539686471E-01
 0.2626155197933E+01 -0.2326837116242E+01  0.5986361723021E-01  0.4029002365773E-01
 0.3040979041942E+01 -0.2399445640710E+01  0.1283066821583E+00  0.5448038522206E-01
 0.3446292358807E+01 -0.2469940048791E+01  0.1952704649128E+00  0.5698216047499E-01
 0.3831745252155E+01 -0.2533628106729E+01  0.2596234329539E+00  0.4810425753083E-01
 0.4187736574236E+01 -0.2586427630632E+01  0.3202617934931E+00  0.2923885734892E-01
-0.7229099761895E+00 -0.3027737515304E+01 -0.7501295094765E+00 -0.2444765573181E-01
-0.6623805875072E+00 -0.3054304118698E+01 -0.7433369523177E+00 -0.3954885674153E-01
-0.6040533627852E+00 -0.3079282759563E+01 -0.7366672354469E+00 -0.5690872866069E-01
-0.5495450207902E+00 -0.3101635191136E+01 -0.7302360532666E+00 -0.7606040994787E-01
-0.5003052702468E+00 -0.3120428881604E+01 -0.7241468411609E+00 -0.9653490425765E-01
-0.4575392034445E+00 -0.3134880034295E+01 -0.7184838582542E+00 -0.1178780338182E+00
-0.4221562339722E+00 -0.3144374113565E+01 -0.7133060801365E+00 -0.1396835897772E+00
-0.3947533938732E+00 -0.3148459990463E+01 -0.7086426874268E+00 -0.1616250562136E+00
-0.3756274823696E+00 -0.3146823689782E+01 -0.7044902449280E+00 -0.1834731923544E+00
-0.3648039352158E+00 -0.3139252278482E+01 -0.7008112531825E+00 -0.2050944202279E+00
-0.3620693115929E+00 -0.3125598380758E+01 -0.6975335488642E+00 -0.2264316771047E+00
-0.3669971400333E+00 -0.3105753136181E+01 -0.6945500655925E+00 -0.2474729900297E+00
-0.3789610842812E+00 -0.3079631666945E+01 -0.6917185605526E+00 -0.2682143844794E+00
-0.3971333122071E+00 -0.3047172395408E+01 -0.6888611517878E+00 -0.2886227084069E+00
-0.4204679444142E+00 -0.3008351164132E+01 -0.6857638319280E+00 -0.3086019649398E+00
-0.4476755052462E+00 -0.2963203664750E+01 -0.6821758441644E+00 -0.3279686490314E+00
-0.4771905923981E+00 -0.2911856913104E+01 -0.6778095112005E+00 -0.3464357072047E+00
-0.5071384651478E+00 -0.2854567066132E+01 -0.6723411162746E+00 -0.3636054717982E+00
-0.5353091408534E+00 -0.2791754606675E+01 -0.6654127594210E+00 -0.3789735361244E+00
-0.5591404360449E+00 -0.2724038193414E+01 -0.6566357356765E+00 -0.3919467840072E+00
-0.5757115595720E+00 -0.2652272132470E+01 -0.6455967480286E+00 -0.4018990204983E+00
-0.5817650675855E+00 -0.2577595416641E+01 -0.6318721062609E+00 -0.4081956209383E+00
-0.5737716371846E+00 -0.2501440935361E+01 -0.6150425236740E+00 -0.4101562880606E+00
-0.5480061021801E+00 -0.2425513158962E+01 -0.5947038610901E+00 -0.4070498608847E+00
-0.5006309159932E+00 -0.2351756175170E+01 -0.5704774267335E+00 -0.3981366883507E+00
-0.4277961783964E+00 -0.2282316346057E+01 -0.5420225129675E+00 -0.3827379224281E+00
-0.3257682490363E+00 -0.2219492250854E+01 -0.5090521075635E+00 -0.3603234630950E+00
-0.1910971960741E+00 -0.2165658753164E+01 -0.4713511968714E+00 -0.3306159363037E+00
-0.2083285737279E-01 -0.2123155291879E+01 -0.4287976362400E+00 -0.2937064270607E+00
 0.1872068906704E+00 -0.2094131850912E+01 -0.3813849977315E+00 -0.2501708361243E+00
 0.4341560929307E+00 -0.2080350029525E+01 -0.3292387922248E+00 -0.2011610936328E+00
 0.7198897858178E+00 -0.2082966888535E+01 -0.2726154246058E+00 -0.1484476668878E+00
 0.1042789129128E+01 -0.2102341737330E+01 -0.2119105247980E+00 -0.9441540235668E-01
 0.1399458168908E+01 -0.2137854490161E+01 -0.1476792664511E+00 -0.4197735132565E-01
 0.1784572149744E+01 -0.2187769015349E+01 -0.8063937432258E-01  0.5636247875462E-02
 0.2190887596801E+01 -0.2249197963560E+01 -0.1166207352563E-01  0.4519271670809E-01
 0.2609448681852E+01 -0.2318206760460E+01  0.5824838514643E-01  0.7383964673161E-01
 0.3030013805283E+01 -0.2390074795646E+01  0.1279878038345E+00  0.8949618977407E-01
 0.3441656606355E+01 -0.2459694832759E+01  0.1963923576457E+00  0.9117707889784E-01
 0.3833485824681E+01 -0.2522062916112E+01  0.2622845856222E+00  0.7918259499013E-01
 0.4195342877359E+01 -0.2572779107386E+01  0.3245127588303E+00  0.5512010361540E-01
-0.7177749954617E+00 -0.3009556377724E+01 -0.7454662857455E+00 -0.1432131632368E-01
-0.6562836632942E+00 -0.3036606193892E+01 -0.7385779824429E+00 -0.2980201002695E-01
-0.5971669501917E+00 -0.3062054086621E+01 -0.7318442182679E+00 -0.4793637824442E-01
-0.5420426266084E+00 -0.3084869338045E+01 -0.7253824037396E+00 -0.6822890015821E-01
-0.4923603755674E+00 -0.3104131777187E+01 -0.7192984412694E+00 -0.9016160623438E-01
-0.4493140465642E+00 -0.3119080404792E+01 -0.7136789009059E+00 -0.1132181078269E+00
-0.4137877523325E+00 -0.3129134059144E+01 -0.7085843728541E+00 -0.1369275836188E+00
-0.3863428635873E+00 -0.3133881193129E+01 -0.7040448218344E+00 -0.1609063185630E+00
-0.3672374396864E+00 -0.3133047201114E+01 -0.7000569385917E+00 -0.1848812164115E+00
-0.3564628295797E+00 -0.3126452198367E+01 -0.6965830159692E+00 -0.2086896296869E+00
-0.3537822473130E+00 -0.3113971113021E+01 -0.6935506824016E+00 -0.2322580601461E+00
-0.3587602302490E+00 -0.3095504224772E+01 -0.6908529012988E+00 -0.2555663791525E+00
-0.3707769902885E+00 -0.3070961909711E+01 -0.6883477902571E+00 -0.2786054799734E+00
-0.3890259888754E+00 -0.3040264407188E+01 -0.6858580894328E+00 -0.3013348511450E+00
-0.4124951215357E+00 -0.3003357028769E+01 -0.6831704402410E+00 -0.3236441742234E+00
-0.4399379153854E+00 -0.2960234231127E+01 -0.6800344394359E+00 -0.3453251309730E+00
-0.4698374149567E+00 -0.2910972859520E+01 -0.6761620649710E+00 -0.3660530599733E+00
-0.5003689140354E+00 -0.2855771612766E+01 -0.6712281153624E+00 -0.3853789023745E+00
-0.5293706190112E+00 -0.2794987799496E+01 -0.6648716936088E+00 -0.4027335915678E+00
-0.5543236514187E+00 -0.2729173171189E+01 -0.6566993743071E+00 -0.4174481847502E+00
-0.5723428748795E+00 -0.2659117323881E+01 -0.6462920493826E+00 -0.4288156641281E+00
-0.5801999947971E+00 -0.2585899618778E+01 -0.6332199321508E+00 -0.4361192163314E+00
-0.5743903037825E+00 -0.2510893266850E+01 -0.6170567233213E+00 -0.4385907195111E+00
-0.5512049971682E+00 -0.2435740099975E+01 -0.5973890283304E+00 -0.4354029422638E+00
-0.5068065096656E+00 -0.2362321875336E+01 -0.5738256855510E+00 -0.4257140764105E+00
-0.4373181597456E+00 -0.2292730498746E+01 -0.5460097398345E+00 -0.4087427803628E+00
-0.3389412236913E+00 -0.2229228006399E+01 -0.5136338536719E+00 -0.3838652622991E+00
-0.2081110590937E+00 -0.2174181696206E+01 -0.4764585581597E+00 -0.3507321557912E+00
-0.4170418970982E-01 -0.2129962868287E+01 -0.4343334180715E+00 -0.3094011485356E+00
 0.1626968652024E+00 -0.2098800275829E+01 -0.3872206878953E+00 -0.2604736190455E+00
 0.4065189004426E+00 -0.2082581989750E+01 -0.3352126228566E+00 -0.2052063931046E+00
 0.6899722590432E+00 -0.2082630739096E+01 -0.2785317001610E+00 -0.1455713215717E+00
 0.1011783884973E+01 -0.2099493702049E+01 -0.2175419666567E+00 -0.8426481351215E-01
 0.1368864591484E+01 -0.2132732924497E+01 -0.1527736688792E+00 -0.2462461973687E-01
 0.1756098997304E+01 -0.2180749536652E+01 -0.8493010913525E-01  0.2960093246813E-01
 0.2166298038011E+01 -0.2240707587002E+01 -0.1488191001989E-01  0.7461201985157E-01
 0.2590363058539E+01 -0.2308606342642E+01  0.5635134401922E-01  0.1070072774777E+00
 0.3017700899533E+01 -0.2379530681070E+01  0.1276340455945E+00  0.1242562031216E+00
 0.3436853802515E+01 -0.2448068168949E+01  0.1977571296600E+00  0.1251010093107E+00
 0.3836286757527E+01 -0.2508843140669E+01  0.2654887273278E+00  0.1098005214954E+00
 0.4205174466299E+01 -0.2557074979347E+01  0.3296199023021E+00  0.8016737559544E-01
-0.7125717143824E+00 -0.2991422896882E+01 -0.7407989332917E+00 -0.3992684052936E-02
-0.6499748187871E+00 -0.3019019006443E+01 -0.7337987759805E+00 -0.1985815640288E-01
-0.5899307055514E+00 -0.3044995503635E+01 -0.7269852526702E+00 -0.3876954877705E-01
-0.5340663794698E+00 -0.3068325899542E+01 -0.7204784665384E+00 -0.6020249502335E-01
-0.4838382242116E+00 -0.3088100972593E+01 -0.7143878500061E+00 -0.8358651208221E-01
-0.4404316850589E+00 -0.3103584272726E+01 -0.7088032021189E+00 -0.1083382660122E+00
-0.4047041567862E+00 -0.3114232705170E+01 -0.7037873828785E+00 -0.1339186312389E+00
-0.3771768699942E+00 -0.3119680707140E+01 -0.6993715258483E+00 -0.1598854006255E+00
-0.3580633967772E+00 -0.3119699683294E+01 -0.6955526263788E+00 -0.1859229824970E+00
-0.3473155968780E+00 -0.3114148522210E+01 -0.6922928341336E+00 -0.2118431560015E+00
-0.3446693624386E+00 -0.3102928614129E+01 -0.6895196055882E+00 -0.2375608149915E+00
-0.3496782241181E+00 -0.3085951738840E+01 -0.6871260028306E+00 -0.2630530963648E+00
-0.3617290179834E+00 -0.3063124102348E+01 -0.6849706342732E+00 -0.2883112491774E+00
-0.3800385382714E+00 -0.3034346668306E+01 -0.6828770514911E+00 -0.3132926333382E+00
-0.4036321631867E+00 -0.2999531593689E+01 -0.6806327615173E+00 -0.3378773945667E+00
-0.4313113804032E+00 -0.2958628114208E+01 -0.6779879090250E+00 -0.3618366260625E+00
-0.4616133870546E+00 -0.2911657742410E+01 -0.6746542359461E+00 -0.3848116740660E+00
-0.4927694435288E+00 -0.2858755565509E+01 -0.6703050117959E+00 -0.4063051250083E+00
-0.5226716639613E+00 -0.2800208733901E+01 -0.6645760894753E+00 -0.4256858111061E+00
-0.5488496662735E+00 -0.2736494503293E+01 -0.6570688437044E+00 -0.4422110921982E+00
-0.5684583707992E+00 -0.2668330505160E+01 -0.6473577848383E+00 -0.4550945727742E+00
-0.5783025806339E+00 -0.2596729796015E+01 -0.6350064847921E+00 -0.4635381797414E+00
-0.5749063451472E+00 -0.2522998535580E+01 -0.6195809853780E+00 -0.4666867549962E+00
-0.5545815205908E+00 -0.2448706976451E+01 -0.6006577083588E+00 -0.4636170532016E+00
-0.5134942233787E+00 -0.2375664185427E+01 -0.5778316903715E+00 -0.4533831664761E+00
-0.4477427955237E+00 -0.2305896667864E+01 -0.5507279008841E+00 -0.4350959241863E+00
-0.3534615745586E+00 -0.2241619692331E+01 -0.5190162611119E+00 -0.4080279029395E+00
-0.2269635343981E+00 -0.2185185180533E+01 -0.4824297501749E+00 -0.3717424327741E+00
-0.6493600434182E-01 -0.2138992925858E+01 -0.4407857926083E+00 -0.3262431347096E+00
 0.1353001954959E+00 -0.2105353702925E+01 -0.3940107073571E+00 -0.2721320698948E+00
 0.3755030262385E+00 -0.2086293626989E+01 -0.3421581252486E+00 -0.2107448008232E+00
 0.6562689496388E+00 -0.2083321580170E+01 -0.2854105303593E+00 -0.1442313460816E+00
 0.9767313700376E+00 -0.2097201487589E+01 -0.2240940268496E+00 -0.7558550628599E-01
 0.1334171797181E+01 -0.2127711866642E+01 -0.1587080162572E+00 -0.8571692417609E-02
 0.1723740796656E+01 -0.2173424354986E+01 -0.8993671300626E-01  0.5252007065880E-01
 0.2138339426176E+01 -0.2231577451967E+01 -0.1864760543604E-01  0.1032760092518E+00
 0.2568727588338E+01 -0.2298107600349E+01  0.5412399840433E-01  0.1396803999536E+00
 0.3003918845671E+01 -0.2367882197565E+01  0.1272073315167E+00  0.1586805284534E+00
 0.3431840164549E+01 -0.2435134530746E+01  0.1993411297311E+00  0.1586823189360E+00
 0.3840199885608E+01 -0.2494050817605E+01  0.2692298176124E+00  0.1398624654373E+00
 0.4217384724802E+01 -0.2539399810370E+01  0.3355969878873E+00  0.1042265839911E+00
-0.7072968909579E+00 -0.2973319094869E+01 -0.7361232081345E+00  0.6562728243178E-02
-0.6434521071170E+00 -0.3001522990596E+01 -0.7289950304054E+00 -0.9693494171686E-02
-0.5823431790689E+00 -0.3028085034805E+01 -0.7220856535348E+00 -0.2938655064956E-01
-0.5256162006437E+00 -0.3051978907196E+01 -0.7155190322300E+00 -0.5196269394202E-01
-0.4747419635139E+00 -0.3072304726465E+01 -0.7094093485669E+00 -0.7679423851568E-01
-0.4309003491052E+00 -0.3088352801285E+01 -0.7038506405662E+00 -0.1032248546413E+00
-0.3949198578758E+00 -0.3099623659401E+01 -0.6989087138699E+00 -0.1306424835523E+00
-0.3672760351024E+00 -0.3105805026510E+01 -0.6946162226731E+00 -0.1585447990536E+00
-0.3481312402639E+00 -0.3106721638258E+01 -0.6909705860006E+00 -0.1865752733996E+00
-0.3373917520953E+00 -0.3102277264088E+01 -0.6879338134876E+00 -0.2145241366914E+00
-0.3347617841395E+00 -0.3092404065648E+01 -0.6854331801712E+00 -0.2423001637939E+00
-0.3397817007995E+00 -0.3077027722251E+01 -0.6833618947929E+00 -0.2698838513761E+00
-0.3518450412477E+00 -0.3056050876311E+01 -0.6815791936681E+00 -0.2972729289022E+00
-0.3701940589935E+00 -0.3029354198733E+01 -0.6799096616767E+00 -0.3244284520323E+00
-0.3938954632311E+00 -0.2996814197064E+01 -0.6781419421641E+00 -0.3512263695682E+00
-0.4218038370484E+00 -0.2958331064954E+01 -0.6760269904740E+00 -0.3774219172902E+00
-0.4525164287455E+00 -0.2913866001923E+01 -0.6732764961663E+00 -0.4026265129069E+00
-0.4843265757719E+00 -0.2863484518719E+01 -0.6695622288754E+00 -0.4262978126256E+00
-0.5151861579927E+00 -0.2807396812868E+01 -0.6645166040742E+00 -0.4477454558830E+00
-0.5426785861204E+00 -0.2745998226360E+01 -0.6577353722972E+00 -0.4661555801469E+00
-0.5640033320006E+00 -0.2679927304600E+01 -0.6487861369878E+00 -0.4806641961574E+00
-0.5760024002648E+00 -0.2610124214507E+01 -0.6372253324498E+00 -0.4903932707751E+00
-0.5752331195485E+00 -0.2537820670808E+01 -0.6226107673490E+00 -0.4944018767623E+00
-0.5580330962249E+00 -0.2464506127812E+01 -0.6045078538153E+00 -0.4916713509010E+00
-0.5205771589715E+00 -0.2391905908957E+01 -0.5824966222655E+00 -0.4811501879953E+00
-0.4589424054939E+00 -0.2321968940396E+01 -0.5561822774658E+00 -0.4618361980579E+00
-0.3691968654624E+00 -0.2256851646194E+01 -0.5252097101575E+00 -0.4328879971939E+00
-0.2475263262068E+00 -0.2198880300862E+01 -0.4892813327046E+00 -0.3937651205835E+00
-0.9041591991256E-01 -0.2150476913483E+01 -0.4481785733574E+00 -0.3443942303387E+00
 0.1050993266579E+00 -0.2114034555444E+01 -0.4017870517444E+00 -0.2853498422141E+00
 0.3411462264915E+00 -0.2091726520661E+01 -0.3501160640509E+00 -0.2180154940877E+00
 0.6187599999985E+00 -0.2085267189770E+01 -0.2933014423249E+00 -0.1446907710564E+00
 0.9375465423228E+00 -0.2095667135956E+01 -0.2316241221782E+00 -0.6864748290252E-01
 0.1295231235091E+01 -0.2122959453760E+01 -0.1655456462006E+00  0.5924776412497E-02
 0.1687299496036E+01 -0.2165925798707E+01 -0.9572526196065E-01  0.7417045454480E-01
 0.2106791348311E+01 -0.2221909618120E+01 -0.2302365430482E-01  0.1310095650189E+00
 0.2544336930116E+01 -0.2286794130077E+01  0.5150856077528E-01  0.1717355205048E+00
 0.2988518205574E+01 -0.2355208552971E+01  0.1266619324080E+00  0.1926857637290E+00
 0.3426557083200E+01 -0.2420979263374E+01  0.2011155669619E+00  0.1918513092798E+00
 0.3845279109202E+01 -0.2477779825193E+01  0.2734998608774E+00  0.1692766041139E+00
 0.4232147289696E+01 -0.2519849874346E+01  0.3424594881730E+00  0.1271457236152E+00
-0.7019472350171E+00 -0.2955227545539E+01 -0.7314349670104E+00  0.1736898157031E-01
-0.6367130152967E+00 -0.2984099136081E+01 -0.7241624410664E+00  0.7152066522629E-03
-0.5744017667460E+00 -0.3011301036802E+01 -0.7171405713959E+00 -0.1976680573515E-01
-0.5166906113362E+00 -0.3035802103337E+01 -0.7104985535219E+00 -0.4349287584786E-01
-0.4650736311923E+00 -0.3056709983637E+01 -0.7043567334616E+00 -0.6977198851612E-01
-0.4207279185721E+00 -0.3073344570180E+01 -0.6988145081635E+00 -0.9786721378726E-01
-0.3844499217724E+00 -0.3085256649285E+01 -0.6939413245521E+00 -0.1270879087304E+00
-0.3566626521944E+00 -0.3092195614082E+01 -0.6897716635336E+00 -0.1568697226694E+00
-0.3374693877099E+00 -0.3094047613383E+01 -0.6863034104454E+00 -0.1868170705047E+00
-0.3267239664058E+00 -0.3090767789841E+01 -0.6834983614343E+00 -0.2167032965018E+00
-0.3240941696229E+00 -0.3082323500274E+01 -0.6812835441314E+00 -0.2464372699894E+00
-0.3291049019895E+00 -0.3068656725421E+01 -0.6795523356082E+00 -0.2760096282782E+00
-0.3411565011188E+00 -0.3049667165899E+01 -0.6781647435090E+00 -0.3054313246254E+00
-0.3595189022892E+00 -0.3025214269687E+01 -0.6769466444825E+00 -0.3346735012047E+00
-0.3833041416417E+00 -0.2995136559106E+01 -0.6756881502180E+00 -0.3636137809466E+00
-0.4114252211278E+00 -0.2959281567323E+01 -0.6741413677356E+00 -0.3919967697968E+00
-0.4425455490636E+00 -0.2917545418831E+01 -0.6720182035928E+00 -0.4194084660650E+00
-0.4750268455929E+00 -0.2869918305004E+01 -0.6689890400880E+00 -0.4452654068629E+00
-0.5068867579410E+00 -0.2816526899507E+01 -0.6646827413942E+00 -0.4688212970095E+00
-0.5357678747626E+00 -0.2757677422863E+01 -0.6586890693404E+00 -0.4891938825405E+00
-0.5589187713529E+00 -0.2693922390785E+01 -0.6505682421219E+00 -0.5054437313564E+00
-0.5732228698629E+00 -0.2626122635431E+01 -0.6398691105936E+00 -0.5166145759507E+00
-0.5752756540894E+00 -0.2555428068191E+01 -0.6261407537863E+00 -0.5216815669642E+00
-0.5614463743279E+00 -0.2483237895874E+01 -0.6089368631143E+00 -0.5195319186822E+00
-0.5279250147393E+00 -0.2411181972383E+01 -0.5878214061836E+00 -0.5090076977773E+00
-0.4707732627616E+00 -0.2341118198379E+01 -0.5623783006081E+00 -0.4889889296008E+00
-0.3859962511475E+00 -0.2275130103894E+01 -0.5322252789390E+00 -0.4585098723654E+00
-0.2696510874197E+00 -0.2215505333743E+01 -0.4970312916389E+00 -0.4169089129065E+00
-0.1180111756152E+00 -0.2164678503966E+01 -0.4565379427191E+00 -0.3640108701093E+00
 0.7219538998755E-01 -0.2125121680145E+01 -0.4105852641498E+00 -0.3003310681268E+00
 0.3035005338399E+00 -0.2099161302402E+01 -0.3591321590639E+00 -0.2272653043123E+00
 0.5774322554273E+00 -0.2088734738879E+01 -0.3022605011944E+00 -0.1472279021032E+00
 0.8941404687525E+00 -0.2095129678450E+01 -0.2401978455187E+00 -0.6374274737813E-01
 0.1251877932489E+01 -0.2118675764724E+01 -0.1733595690301E+00  0.1858192464401E-01
 0.1646548353672E+01 -0.2158411301848E+01 -0.1023725911607E+00  0.9430243191353E-01
 0.2071395818704E+01 -0.2211824200303E+01 -0.2808567673842E-01  0.1576154816226E+00
 0.2516945978286E+01 -0.2274762225499E+01  0.4843675127928E-01  0.2030351642883E+00
 0.2971316362352E+01 -0.2341599369552E+01  0.1259434004367E+00  0.2261837520283E+00
 0.3420927328319E+01 -0.2405698579498E+01  0.2030457527898E+00  0.2245402669531E+00
 0.3851578455235E+01 -0.2460135804699E+01  0.2782885342539E+00  0.1979551325146E+00
 0.4249655722563E+01 -0.2498532621425E+01  0.3502246254465E+00  0.1487748998101E+00
-0.6965194250800E+00 -0.2937131760238E+01 -0.7267302478927E+00  0.2844974739420E-01
-0.6297543161047E+00 -0.2966729404950E+01 -0.7192967549293E+00  0.1139059663422E-01
-0.5661024190890E+00 -0.2994622590703E+01 -0.7121450125701E+00 -0.9890995443247E-02
-0.5072864043423E+00 -0.3019769225329E+01 -0.7054111364457E+00 -0.3477862849366E-01
-0.4548339091860E+00 -0.3041282492232E+01 -0.6992232907028E+00 -0.6251002210387E-01
-0.4099218275416E+00 -0.3058515522916E+01 -0.6936874804283E+00 -0.9225820134881E-01
-0.3733101272410E+00 -0.3071077347228E+01 -0.6888775051589E+00 -0.1232471844263E+00
-0.3453608542896E+00 -0.3078788670616E+01 -0.6848299151858E+00 -0.1548485036491E+00
-0.3261090183331E+00 -0.3081605966163E+01 -0.6815430070550E+00 -0.1866298736409E+00
-0.3153483258274E+00 -0.3079542598929E+01 -0.6789781950689E+00 -0.2183531893777E+00
-0.3127049800937E+00 -0.3072605592915E+01 -0.6770621246909E+00 -0.2499344211597E+00
-0.3176860253347E+00 -0.3060755578322E+01 -0.6756883307999E+00 -0.2813818206131E+00
-0.3296987302922E+00 -0.3043889929078E+01 -0.6747177419282E+00 -0.3127268968443E+00
-0.3480430386032E+00 -0.3021846041509E+01 -0.6739778260655E+00 -0.3439577977476E+00
-0.3718804591689E+00 -0.2994422315405E+01 -0.6732605649471E+00 -0.3749601966216E+00
-0.4001879317144E+00 -0.2961410255874E+01 -0.6723196475360E+00 -0.4054737827295E+00
-0.4317013594405E+00 -0.2922636413371E+01 -0.6708675645590E+00 -0.4350640885046E+00
-0.4648573633518E+00 -0.2878010177156E+01 -0.6685735180641E+00 -0.4631107295559E+00
-0.4977455068407E+00 -0.2827568387188E+01 -0.6650627887160E+00 -0.4888150823836E+00
-0.5280730075800E+00 -0.2771521188906E+01 -0.6599188491307E+00 -0.5112296945327E+00
-0.5531421040107E+00 -0.2710328354417E+01 -0.6526941014115E+00 -0.5293422326496E+00
-0.5698819009851E+00 -0.2644765137618E+01 -0.6429294173009E+00 -0.5421203996562E+00
-0.5749312148269E+00 -0.2575892396283E+01 -0.6301647316122E+00 -0.5484579542882E+00
-0.5646976259833E+00 -0.2505009482610E+01 -0.6139414308671E+00 -0.5471501510424E+00
-0.5353941838399E+00 -0.2433638435791E+01 -0.5938065327745E+00 -0.5369327029373E+00
-0.4830752487761E+00 -0.2363531428025E+01 -0.5693213438437E+00 -0.5165638203270E+00
-0.4036895239770E+00 -0.2296683000819E+01 -0.5400745130069E+00 -0.4849433092594E+00
-0.2931677024653E+00 -0.2235326262484E+01 -0.5056988005253E+00 -0.4412705879755E+00
-0.1475660555434E+00 -0.2181895079476E+01 -0.4658922339462E+00 -0.3852420877328E+00
 0.3671159403110E-01 -0.2138932972683E+01 -0.4204442819954E+00 -0.3172789970236E+00
 0.2626361950532E+00 -0.2108921457978E+01 -0.3692570580874E+00 -0.2387484184493E+00
 0.5322831893686E+00 -0.2094035577481E+01 -0.3123504822769E+00 -0.1521374885917E+00
 0.8464234037094E+00 -0.2095870441597E+01 -0.2498894113012E+00 -0.6118816158661E-01
 0.1203931765659E+01 -0.2115097959490E+01 -0.1822332414816E+00  0.2908627773087E-01
 0.1601230606890E+01 -0.2151067625713E+01 -0.1099674054031E+00  0.1126345627052E+00
 0.2031853116838E+01 -0.2201462090620E+01 -0.3392179526189E-01  0.1828692377919E+00
 0.2486263615257E+01 -0.2262121970086E+01  0.4482832970223E-01  0.2334240085852E+00
 0.2952091050112E+01 -0.2327154709199E+01  0.1249872700451E+00  0.2590799113543E+00
 0.3414850488774E+01 -0.2389399461285E+01  0.2050902085539E+00  0.2566835171227E+00
 0.3859149897063E+01 -0.2441236063179E+01  0.2835827710026E+00  0.2258144222553E+00
 0.4270122716792E+01 -0.2475565963649E+01  0.3589113559769E+00  0.1689661123456E+00
-0.6910101273078E+00 -0.2919016660633E+01 -0.7220053683470E+00  0.3982836261477E-01
-0.6225718798410E+00 -0.2949397240567E+01 -0.7143938347269E+00  0.2235474468627E-01
-0.5574392775618E+00 -0.2978029973234E+01 -0.7070938606956E+00  0.2587628156820E-03
-0.4973982439667E+00 -0.3003854333251E+01 -0.7002505258781E+00 -0.2580814139676E-01
-0.4440218358543E+00 -0.3025986917719E+01 -0.6940017610560E+00 -0.5500220536061E-01
-0.3984889657822E+00 -0.3043818873885E+01 -0.6884615781924E+00 -0.8639478367089E-01
-0.3615170475525E+00 -0.3057027139999E+01 -0.6837088476983E+00 -0.1191166297451E+00
-0.3333968182954E+00 -0.3065514852956E+01 -0.6797823443799E+00 -0.1524730221089E+00
-0.3140843368752E+00 -0.3069318594348E+01 -0.6766805963279E+00 -0.1859980189168E+00
-0.3033046151575E+00 -0.3068517089385E+01 -0.6743643509574E+00 -0.2194484364656E+00
-0.3006367734734E+00 -0.3063161446679E+01 -0.6727596540553E+00 -0.2527552163849E+00
-0.3055675348977E+00 -0.3053233161413E+01 -0.6717601492722E+00 -0.2859523847010E+00
-0.3175112982316E+00 -0.3038627860542E+01 -0.6712278417568E+00 -0.3190998799522E+00
-0.3358004519906E+00 -0.3019160181394E+01 -0.6709921366755E+00 -0.3522102513828E+00
-0.3596502685063E+00 -0.2994586513952E+01 -0.6708473664881E+00 -0.3851840698013E+00
-0.3881073399632E+00 -0.2964639279959E+01 -0.6705493339764E+00 -0.4177622951590E+00
-0.4199866387855E+00 -0.2929071274632E+01 -0.6698115926645E+00 -0.4494953943798E+00
-0.4538064364349E+00 -0.2887705906261E+01 -0.6683024784976E+00 -0.4797306481060E+00
-0.4877345127660E+00 -0.2840484172464E+01 -0.6656437469648E+00 -0.5076210558570E+00
-0.5195482030388E+00 -0.2787513491259E+01 -0.6614123487153E+00 -0.5321575223040E+00
-0.5466079127611E+00 -0.2729154464427E+01 -0.6551524852001E+00 -0.5522577622957E+00
-0.5658926595598E+00 -0.2666090797170E+01 -0.6463967009780E+00 -0.5668161814752E+00
-0.5740899928219E+00 -0.2599287239877E+01 -0.6346754559973E+00 -0.5746484626496E+00
-0.5676532596343E+00 -0.2529933622501E+01 -0.6195173856586E+00 -0.5744611029477E+00
-0.5428279712611E+00 -0.2459431297071E+01 -0.6004518626139E+00 -0.5648846919650E+00
-0.4956716052196E+00 -0.2389410810133E+01 -0.5770164916688E+00 -0.5445526655684E+00
-0.4220862054177E+00 -0.2321759564689E+01 -0.5487691621985E+00 -0.5122210083964E+00
-0.3178825174049E+00 -0.2258637146562E+01 -0.5153039404719E+00 -0.4669323639859E+00
-0.1788991054553E+00 -0.2202459178580E+01 -0.4762716639040E+00 -0.4082270269091E+00
-0.1202966487103E-02 -0.2155828161812E+01 -0.4314062320883E+00 -0.3363940728522E+00
 0.2186462632458E+00 -0.2121377562090E+01 -0.3805462654395E+00 -0.2527255527853E+00
 0.4833256799421E+00 -0.2101530768702E+01 -0.3236410225746E+00 -0.1597315425566E+00
 0.7943087773411E+00 -0.2098219385950E+01 -0.2607821256077E+00 -0.6132828818808E-01
 0.1151199461413E+01 -0.2112506616031E+01 -0.1922614337885E+00  0.3708890627691E-01
 0.1551058402541E+01 -0.2144116251423E+01 -0.1186115715439E+00  0.1288473788930E+00
 0.1987817156524E+01 -0.2190988592130E+01 -0.4063428772664E-01  0.2065125504115E+00
 0.2451945184973E+01 -0.2248998733835E+01  0.4058929083242E-01  0.2627238222294E+00
 0.2930572234141E+01 -0.2311984929445E+01  0.1237174627826E+00  0.2912709308429E+00
 0.3408197462443E+01 -0.2372199272502E+01  0.2071996410757E+00  0.2882175783757E+00
 0.3868041093885E+01 -0.2421209370862E+01  0.2893663489166E+00  0.2527751216767E+00
 0.4293778523628E+01 -0.2451077129245E+01  0.3685402843682E+00  0.1875727067879E+00
-0.6854160155203E+00 -0.2900869157369E+01 -0.7172570452659E+00  0.5152790736310E-01
-0.6151604349017E+00 -0.2932088188232E+01 -0.7094497351983E+00  0.3362914070850E-01
-0.5484042220053E+00 -0.2961505221087E+01 -0.7019818990789E+00  0.1069869936361E-01
-0.4870181824993E+00 -0.2988032182608E+01 -0.6950100833780E+00 -0.1657268281022E-01
-0.4326344765325E+00 -0.3010786943010E+01 -0.6886842941707E+00 -0.4724665822076E-01
-0.3864355870857E+00 -0.3029204958274E+01 -0.6831281192514E+00 -0.8027870541822E-01
-0.3490881706256E+00 -0.3043042827420E+01 -0.6784262097184E+00 -0.1146971795269E+00
-0.3207990156404E+00 -0.3052298933763E+01 -0.6746195999332E+00 -0.1497391394089E+00
-0.3014328763381E+00 -0.3057100632432E+01 -0.6717067117632E+00 -0.1849089871690E+00
-0.2906366281644E+00 -0.3057599313256E+01 -0.6696471982625E+00 -0.2199659537360E+00
-0.2879365139520E+00 -0.3053894384818E+01 -0.6683661897134E+00 -0.2548647545720E+00
-0.2927964859582E+00 -0.3045990186474E+01 -0.6677573444368E+00 -0.2896740110316E+00
-0.3046383750825E+00 -0.3033781107780E+01 -0.6676839065217E+00 -0.3244904362027E+00
-0.3228295625393E+00 -0.3017058469034E+01 -0.6679776162683E+00 -0.3593587827031E+00
-0.3466435042931E+00 -0.2995535080336E+01 -0.6684357268862E+00 -0.3942017935255E+00
-0.3752023466033E+00 -0.2968881615319E+01 -0.6688168023505E+00 -0.4287683495072E+00
-0.4074069551911E+00 -0.2936773318171E+01 -0.6688360646388E+00 -0.4625997070720E+00
-0.4418642545832E+00 -0.2898942791275E+01 -0.6681614191281E+00 -0.4950157945923E+00
-0.4768267001891E+00 -0.2855229524350E+01 -0.6664112548380E+00 -0.5251255272110E+00
-0.5101472383975E+00 -0.2805631905573E+01 -0.6631558386759E+00 -0.5518620792600E+00
-0.5392488120595E+00 -0.2750405288209E+01 -0.6579308298576E+00 -0.5740765795148E+00
-0.5611644393041E+00 -0.2690136210546E+01 -0.6502601396596E+00 -0.5905934370927E+00
-0.5726359194835E+00 -0.2625686561184E+01 -0.6396645056653E+00 -0.6001544592139E+00
-0.5701704782320E+00 -0.2558127041865E+01 -0.6256595133425E+00 -0.6013818000833E+00
-0.5500569545844E+00 -0.2488725049373E+01 -0.6077564098477E+00 -0.5928035681403E+00
-0.5083688158551E+00 -0.2418972534932E+01 -0.5854682788816E+00 -0.5729268912406E+00
-0.4409747216048E+00 -0.2350629624299E+01 -0.5583208775005E+00 -0.5403557569659E+00
-0.3435765557518E+00 -0.2285760242950E+01 -0.5258673675764E+00 -0.4939588139784E+00
-0.2118001643073E+00 -0.2226739805942E+01 -0.4877080013174E+00 -0.4330918672465E+00
-0.4136906601908E-01 -0.2176211668679E+01 -0.4435161535485E+00 -0.3578713229044E+00
 0.1716519314615E+00 -0.2136951909287E+01 -0.3930600014221E+00 -0.2694624400521E+00
 0.4305938150958E+00 -0.2111637416519E+01 -0.3362087252945E+00 -0.1703396458536E+00
 0.7377183580299E+00 -0.2102562628352E+01 -0.2729688581320E+00 -0.6453810528668E-01
 0.1093477637487E+01 -0.2111233516817E+01 -0.2035511788991E+00  0.4220015910423E-01
 0.1495712267926E+01 -0.2137820266928E+01 -0.1284216017142E+00  0.1425761245870E+00
 0.1938890539853E+01 -0.2180598333537E+01 -0.4834155945719E-01  0.2282454260203E+00
 0.2413583544506E+01 -0.2235535385389E+01  0.3560963235403E-01  0.2907267391015E+00
 0.2906431766319E+01 -0.2296210326570E+01  0.1220442897685E+00  0.3226413816392E+00
 0.3400803600621E+01 -0.2354224638341E+01  0.2093157955751E+00  0.3190815153470E+00
 0.3878293529993E+01 -0.2400195356032E+01  0.2956196391973E+00  0.2787624256221E+00
 0.4320867680231E+01 -0.2425200488532E+01  0.3791334439894E+00  0.2044482268753E+00
-0.6797337907335E+00 -0.2882678858971E+01 -0.7124825405577E+00  0.6357131129877E-01
-0.6075132619858E+00 -0.2914790651347E+01 -0.7044607931638E+00  0.4523470241054E-01
-0.5389863066009E+00 -0.2945032803107E+01 -0.6968038323248E+00  0.2144312150706E-01
-0.4761350781279E+00 -0.2972278639308E+01 -0.6896827537643E+00 -0.7067186103357E-02
-0.4206665526933E+00 -0.2995645334794E+01 -0.6832623876789E+00 -0.3924652477907E-01
-0.3737672363704E+00 -0.3014620997675E+01 -0.6776776569074E+00 -0.7391725084314E-01
-0.3360420717336E+00 -0.3029056226906E+01 -0.6730196697566E+00 -0.1099950000476E+00
-0.3075985188581E+00 -0.3039059389255E+01 -0.6693315915965E+00 -0.1466471311460E+00
-0.2881958415662E+00 -0.3044860111359E+01 -0.6666112005183E+00 -0.1833536921921E+00
-0.2773924995260E+00 -0.3046689727116E+01 -0.6648164552349E+00 -0.2198851611959E+00
-0.2746558899147E+00 -0.3044699757482E+01 -0.6638711393718E+00 -0.2562298207047E+00
-0.2794248543214E+00 -0.3038918997584E+01 -0.6636687802706E+00 -0.2925003160510E+00
-0.2911291052058E+00 -0.3029240999725E+01 -0.6640740308817E+00 -0.3288388519089E+00
-0.3091736695050E+00 -0.3015433397672E+01 -0.6649214233435E+00 -0.3653305001625E+00
-0.3328947069154E+00 -0.2997164255873E+01 -0.6660118024821E+00 -0.4019278237199E+00
-0.3614959848724E+00 -0.2974040325299E+01 -0.6671072719750E+00 -0.4383947264213E+00
-0.3939713419240E+00 -0.2945655972488E+01 -0.6679254728353E+00 -0.4742695794972E+00
-0.4290236369231E+00 -0.2911648580572E+01 -0.6681344534549E+00 -0.5088503528138E+00
-0.4649966320275E+00 -0.2871750851493E+01 -0.6673495066484E+00 -0.5412065080094E+00
-0.4998243490420E+00 -0.2825846238910E+01 -0.6651341275018E+00 -0.5702177454929E+00
-0.5309964129082E+00 -0.2774079180395E+01 -0.6610151285105E+00 -0.5946723871591E+00
-0.5556036561462E+00 -0.2716933865461E+01 -0.6545075140744E+00 -0.6133287454742E+00
-0.5704476243002E+00 -0.2655162980587E+01 -0.6451221305905E+00 -0.6248599279663E+00
-0.5720980994720E+00 -0.2589708700128E+01 -0.6323613693429E+00 -0.6278095393947E+00
-0.5568995240002E+00 -0.2521690974462E+01 -0.6157181088674E+00 -0.6206075155540E+00
-0.5209566701879E+00 -0.2452445305207E+01 -0.5946804039404E+00 -0.6016349333062E+00
-0.4601217322518E+00 -0.2383582573751E+01 -0.5687408696755E+00 -0.5693373082869E+00
-0.3700038016287E+00 -0.2317045793439E+01 -0.5374099270215E+00 -0.5223933234286E+00
-0.2460272892243E+00 -0.2255143501236E+01 -0.5002341655461E+00 -0.4599461029925E+00
-0.8357271497878E-01 -0.2200535442189E+01 -0.4568216382408E+00 -0.3818969373871E+00
 0.1218086299274E+00 -0.2156123484642E+01 -0.4068629770056E+00 -0.2892274524054E+00
 0.3741498549360E+00 -0.2124835819041E+01 -0.3501371980385E+00 -0.1843085383570E+00
 0.6765888301700E+00 -0.2109351308580E+01 -0.2865524999519E+00 -0.7122541692796E-01
 0.1030557196938E+01 -0.2111671169905E+01 -0.2162227978153E+00  0.4398404628536E-01
 0.1434841414585E+01 -0.2132493132738E+01 -0.1395303457098E+00  0.1534023968717E+00
 0.1884619507897E+01 -0.2170521908844E+01 -0.5718048104136E-01  0.2477164784178E+00
 0.2370698623765E+01 -0.2221895790023E+01  0.2976056719185E-01  0.3171863356421E+00
 0.2879270034530E+01 -0.2279960716942E+01  0.1198618653037E+00  0.3530584494105E+00
 0.3392459491725E+01 -0.2335608804182E+01  0.2113701406583E+00  0.3492173705708E+00
 0.3889942107901E+01 -0.2378342258155E+01  0.3023199744542E+00  0.3037073105461E+00
 0.4351642483077E+01 -0.2398072795074E+01  0.3907139434226E+00  0.2194443667398E+00
-0.6739602000925E+00 -0.2864438944087E+01 -0.7076798393812E+00  0.7598149485644E-01
-0.5996218027106E+00 -0.2897496815581E+01 -0.6994237340805E+00  0.5719178348395E-01
-0.5291710570933E+00 -0.2928600420295E+01 -0.6915543057827E+00  0.3250406643457E-01
-0.4647338985732E+00 -0.2956571132917E+01 -0.6842610164944E+00  0.2709019140048E-02
-0.4081100353137E+00 -0.2980523950330E+01 -0.6777268072276E+00 -0.3101089695959E-01
-0.3604887156055E+00 -0.3000010748428E+01 -0.6720999028218E+00 -0.6732411027039E-01
-0.3223986604386E+00 -0.3014993658061E+01 -0.6674784736460E+00 -0.1050221427806E+00
-0.2938293784960E+00 -0.3025707903129E+01 -0.6639074662180E+00 -0.1432021067866E+00
-0.2744184984188E+00 -0.3032497582855E+01 -0.6613832261101E+00 -0.1813267342330E+00
-0.2636250556648E+00 -0.3035680947977E+01 -0.6598612105611E+00 -0.2191881629040E+00
-0.2608516332258E+00 -0.3035464777901E+01 -0.6592632920491E+00 -0.2568190649002E+00
-0.2655098620782E+00 -0.3031903407731E+01 -0.6594826637888E+00 -0.2943860548835E+00
-0.2770379835682E+00 -0.3024889801821E+01 -0.6603855669184E+00 -0.3320857811096E+00
-0.2948814111498E+00 -0.3014167780933E+01 -0.6618098482783E+00 -0.3700519444441E+00
-0.3184435793267E+00 -0.2999360014395E+01 -0.6635607286321E+00 -0.4082748805001E+00
-0.3470160707426E+00 -0.2980007772538E+01 -0.6654047785715E+00 -0.4465410602255E+00
-0.3796930308529E+00 -0.2955621791285E+01 -0.6670629743676E+00 -0.4843927919330E+00
-0.4152808439244E+00 -0.2925740300003E+01 -0.6682042387425E+00 -0.5211119184391E+00
-0.4522214053263E+00 -0.2889984361017E+01 -0.6684411632291E+00 -0.5557334172262E+00
-0.4885352147654E+00 -0.2848117030508E+01 -0.6673304589987E+00 -0.5870880943269E+00
-0.5217823934547E+00 -0.2800166634137E+01 -0.6643898154186E+00 -0.6139056409855E+00
-0.5491149714768E+00 -0.2746510352432E+01 -0.6591250746035E+00 -0.6348827894448E+00
-0.5673995475531E+00 -0.2687785865941E+01 -0.6510370924000E+00 -0.6486301792353E+00
-0.5732775592937E+00 -0.2624797793767E+01 -0.6396150801431E+00 -0.6536201941322E+00
-0.5631626333814E+00 -0.2558505138061E+01 -0.6243335635918E+00 -0.6481908145735E+00
-0.5332085569270E+00 -0.2490068471286E+01 -0.6046554146527E+00 -0.6305994747890E+00
-0.4792716797726E+00 -0.2420925905544E+01 -0.5800395257067E+00 -0.5991289766659E+00
-0.3968896326412E+00 -0.2352871357266E+01 -0.5499522061764E+00 -0.5522540649789E+00
-0.2813036562200E+00 -0.2288115018397E+01 -0.5138837425808E+00 -0.4888780987916E+00
-0.1275601880761E+00 -0.2229301617007E+01 -0.4713723680406E+00 -0.4086438936466E+00
 0.6931291979203E-01 -0.2179433161206E+01 -0.4220240545714E+00 -0.3122881374711E+00
 0.3140925139385E+00 -0.2141677440193E+01 -0.3655169906975E+00 -0.2020007173767E+00
 0.6108801188894E+00 -0.2119111948885E+01 -0.3016463704939E+00 -0.8183270449844E-01
 0.9622294972846E+00 -0.2114284414754E+01 -0.2304109869273E+00  0.4195238422790E-01
 0.1368065337416E+01 -0.2128509739471E+01 -0.1520888826774E+00  0.1608446444988E+00
 0.1824489045710E+01 -0.2161034866687E+01 -0.6730916519841E-01  0.2645112316134E+00
 0.2322725889753E+01 -0.2208270223295E+01  0.2289113363262E-01  0.3418061443970E+00
 0.2848598655394E+01 -0.2263376348583E+01  0.1170444631063E+00  0.3823632130063E+00
 0.3382897568840E+01 -0.2316485858263E+01  0.2132823452937E+00  0.3785698112541E+00
 0.3903016925966E+01 -0.2355801059802E+01  0.3094431778439E+00  0.3275493958869E+00
 0.4386351672137E+01 -0.2369817187127E+01  0.4033069030116E+00  0.2324096539000E+00
-0.6680920499224E+00 -0.2846147240018E+01 -0.7028478684614E+00  0.8878155469165E-01
-0.5914751539032E+00 -0.2880203781185E+01 -0.6943357973640E+00  0.6952017943641E-01
-0.5189395902940E+00 -0.2912199955385E+01 -0.6862279193614E+00  0.4389084897504E-01
-0.4527948887553E+00 -0.2940889135387E+01 -0.6787368149424E+00  0.1275128616335E-01
-0.3949537092894E+00 -0.2965383642927E+01 -0.6720674804578E+00 -0.2255592698897E-01
-0.3466041119498E+00 -0.2985313984253E+01 -0.6663836291705E+00 -0.6052036268310E-01
-0.3081795240443E+00 -0.3000775270427E+01 -0.6617909687557E+00 -0.9979722529968E-01
-0.2795290811348E+00 -0.3012148768506E+01 -0.6583355797382E+00 -0.1394143945525E+00
-0.2601506062612E+00 -0.3019905706559E+01 -0.6560112723393E+00 -0.1788265977114E+00
-0.2493921726582E+00 -0.3024457522878E+01 -0.6547699488640E+00 -0.2178598829651E+00
-0.2465858229546E+00 -0.3026068401197E+01 -0.6545308545836E+00 -0.2566031673168E+00
-0.2511142813526E+00 -0.3024818585804E+01 -0.6551865831944E+00 -0.2952873555292E+00
-0.2624252174676E+00 -0.3020600511871E+01 -0.6566051556519E+00 -0.3341725437036E+00
-0.2800072263277E+00 -0.3013134377985E+01 -0.6586283306769E+00 -0.3734494122247E+00
-0.3033355651229E+00 -0.3001997467567E+01 -0.6610666163886E+00 -0.4131542428371E+00
-0.3317958912692E+00 -0.2986664788603E+01 -0.6636921458642E+00 -0.4531040510567E+00
-0.3645902351991E+00 -0.2966561398239E+01 -0.6662303366153E+00 -0.4928524430022E+00
-0.4006364457514E+00 -0.2941122996247E+01 -0.6683518983589E+00 -0.5316714473824E+00
-0.4384816112983E+00 -0.2909854622593E+01 -0.6696672567572E+00 -0.5685668725364E+00
-0.4762380240666E+00 -0.2872393951070E+01 -0.6697264050070E+00 -0.6023255045417E+00
-0.5115396686601E+00 -0.2828648522549E+01 -0.6680376481963E+00 -0.6316229448114E+00
-0.5416025421208E+00 -0.2778884451001E+01 -0.6640974085203E+00 -0.6550994796013E+00
-0.5633632133727E+00 -0.2723619268015E+01 -0.6573965060736E+00 -0.6713106337489E+00
-0.5735441159533E+00 -0.2663511558697E+01 -0.6474111445773E+00 -0.6786665721384E+00
-0.5686427982797E+00 -0.2599346112950E+01 -0.6335977916873E+00 -0.6754216653604E+00
-0.5448820498952E+00 -0.2532089802705E+01 -0.6153943796902E+00 -0.6597146045576E+00
-0.4981466555860E+00 -0.2462983283989E+01 -0.5922259967398E+00 -0.6296640065677E+00
-0.4239295356090E+00 -0.2393640616723E+01 -0.5635140388633E+00 -0.5835295238879E+00
-0.3173145945731E+00 -0.2326137497910E+01 -0.5286904263747E+00 -0.5199499012918E+00
-0.1730328617857E+00 -0.2263064850665E+01 -0.4872195497503E+00 -0.4382665158206E+00
 0.1441010297410E-01 -0.2207489004706E+01 -0.4386157868823E+00 -0.3389064508003E+00
 0.2505666372711E+00 -0.2162793679411E+01 -0.3824454141268E+00 -0.2237917363338E+00
 0.5405857002156E+00 -0.2132458484662E+01 -0.3183745616334E+00 -0.9683810756309E-01
 0.8882948082555E+00 -0.2119624474605E+01 -0.2462659369395E+00  0.3555894955820E-01
 0.1294976935740E+01 -0.2126320456291E+01 -0.1662687065878E+00  0.1643473475630E+00
 0.1757918910956E+01 -0.2152469182180E+01 -0.7891005542080E-01  0.2781385516085E+00
 0.2269003023515E+01 -0.2194884695274E+01  0.1482366586907E-01  0.3642246624180E+00
 0.2813821895235E+01 -0.2246609708544E+01  0.1134424390286E+00  0.4103588808900E+00
 0.3371765904178E+01 -0.2296989196883E+01  0.2149553446619E+00  0.4070776579419E+00
 0.3917556814452E+01 -0.2332697822047E+01  0.3169718032043E+00  0.3502466224188E+00
 0.4425197748442E+01 -0.2340510011570E+01  0.4169375535872E+00  0.2431844484513E+00
-0.6621262155539E+00 -0.2827807569900E+01 -0.6979867674916E+00  0.1019950015377E+00
-0.5830594131608E+00 -0.2862914957353E+01 -0.6891948843726E+00  0.8223912139186E-01
-0.5082675125528E+00 -0.2895828607130E+01 -0.6808192340816E+00  0.5560945955795E-01
-0.4402925857385E+00 -0.2925214648590E+01 -0.6731014568957E+00  0.2304847328140E-01
-0.3811827330119E+00 -0.2950184014832E+01 -0.6662733594970E+00 -0.1390617656681E-01
-0.3321169316239E+00 -0.2970465759436E+01 -0.6605165480544E+00 -0.5353558794398E-01
-0.2934084071585E+00 -0.2986314179613E+01 -0.6559445271286E+00 -0.9434612509878E-01
-0.2647391123983E+00 -0.2998278179724E+01 -0.6526034681491E+00 -0.1352998657396E+00
-0.2454469018954E+00 -0.3006968811532E+01 -0.6504831523784E+00 -0.1758557694103E+00
-0.2347571394388E+00 -0.3012895734356E+01 -0.6495305844376E+00 -0.2158881414650E+00
-0.2319261675721E+00 -0.3016381271467E+01 -0.6496614974885E+00 -0.2555549811778E+00
-0.2363067100122E+00 -0.3017531018886E+01 -0.6507675554769E+00 -0.2951619737178E+00
-0.2473570702988E+00 -0.3016236717946E+01 -0.6527187673753E+00 -0.3350414825142E+00
-0.2646118192128E+00 -0.3012195551947E+01 -0.6553614839976E+00 -0.3754493671667E+00
-0.2876224548800E+00 -0.3004940264768E+01 -0.6585125537422E+00 -0.4164761450926E+00
-0.3158749429876E+00 -0.2993879797255E+01 -0.6619509579124E+00 -0.4579777795777E+00
-0.3486869961544E+00 -0.2978352350203E+01 -0.6654078791868E+00 -0.4995271342965E+00
-0.3850962614570E+00 -0.2957688373894E+01 -0.6685569370325E+00 -0.5403932863764E+00
-0.4237623724095E+00 -0.2931273011677E+01 -0.6710070868161E+00 -0.5795585555217E+00
-0.4628946272497E+00 -0.2898614072159E+01 -0.6723017498999E+00 -0.6157708426392E+00
-0.5002036685156E+00 -0.2859494200436E+01 -0.6719395838029E+00 -0.6476565140848E+00
-0.5329714058175E+00 -0.2814065058661E+01 -0.6694073028706E+00 -0.6738051445524E+00
-0.5582086722773E+00 -0.2762719665257E+01 -0.6641856774040E+00 -0.6927256674285E+00
-0.5727282667471E+00 -0.2705962824338E+01 -0.6557382279884E+00 -0.7027768195149E+00
-0.5731273609715E+00 -0.2644392365144E+01 -0.6435039548120E+00 -0.7021400188867E+00
-0.5557198222182E+00 -0.2578762802877E+01 -0.6268965343605E+00 -0.6888429024105E+00
-0.5164466432371E+00 -0.2510092022677E+01 -0.6053077422025E+00 -0.6608417164219E+00
-0.4507881924647E+00 -0.2439781464447E+01 -0.5781139399969E+00 -0.6161735504708E+00
-0.3537048595712E+00 -0.2369731880929E+01 -0.5446873562164E+00 -0.5531912256532E+00
-0.2196419476781E+00 -0.2302434047018E+01 -0.5044152064556E+00 -0.4708937893097E+00
-0.4259744241559E-01 -0.2240971408291E+01 -0.4567137769469E+00 -0.3693323696075E+00
 0.1837744558627E+00 -0.2188905284709E+01 -0.4010261717451E+00 -0.2500657661244E+00
 0.4657454272153E+00 -0.2150106044096E+01 -0.3368721283959E+00 -0.1167550401026E+00
 0.8085736065123E+00 -0.2128345924660E+01 -0.2639544675627E+00  0.2419391049203E-01
 0.1215148663428E+01 -0.2126468663899E+01 -0.1822640028101E+00  0.1632691550261E+00
 0.1684258864888E+01 -0.2145228800916E+01 -0.9219398857922E-01  0.2880137355385E+00
 0.2208761074688E+01 -0.2182011231623E+01  0.5349968692576E-02  0.3840004100619E+00
 0.2774204554432E+01 -0.2229842141660E+01  0.1088724841767E+00  0.4367868134934E+00
 0.3358619849125E+01 -0.2277231510756E+01  0.2162776708965E+00  0.4346743184295E+00
 0.3933564555044E+01 -0.2309166420866E+01  0.3248796316768E+00  0.3717251969242E+00
 0.4468350502096E+01 -0.2309848257267E+01  0.4317004553985E+00  0.2516949924668E+00
-0.6560596422613E+00 -0.2809431461582E+01 -0.6930982310966E+00  0.1156460551567E+00
-0.5743568174726E+00 -0.2845641761160E+01 -0.6839997259189E+00  0.9536724821917E-01
-0.4971235346899E+00 -0.2879490275279E+01 -0.6753227720569E+00  0.6766175341751E-01
-0.4271946521884E+00 -0.2909532645116E+01 -0.6673454694051E+00  0.3358141615249E-01
-0.3667782273690E+00 -0.2934882947722E+01 -0.6603322448578E+00 -0.5096252555989E-02
-0.3170303885321E+00 -0.2955395372517E+01 -0.6544851619624E+00 -0.4640911766788E-01
-0.2781118699601E+00 -0.2971515366350E+01 -0.6499254569467E+00 -0.8870265791949E-01
-0.2495056434814E+00 -0.2983983402337E+01 -0.6466978188002E+00 -0.1308801612318E+00
-0.2303676345210E+00 -0.2993562444422E+01 -0.6447860253967E+00 -0.1724207463031E+00
-0.2197890148923E+00 -0.3000863464922E+01 -0.6441305055612E+00 -0.2132636518096E+00
-0.2169462504992E+00 -0.3006265763393E+01 -0.6446424123843E+00 -0.2536496468428E+00
-0.2211618046811E+00 -0.3009898575642E+01 -0.6462120856939E+00 -0.2939695707944E+00
-0.2319061758872E+00 -0.3011652541753E+01 -0.6487117531945E+00 -0.3346363895904E+00
-0.2487626210758E+00 -0.3011202980086E+01 -0.6519931299478E+00 -0.3759789548803E+00
-0.2713630214172E+00 -0.3008039998445E+01 -0.6558806137459E+00 -0.4181502960090E+00
-0.2992997273426E+00 -0.3001507893016E+01 -0.6601615339090E+00 -0.4610541449410E+00
-0.3320141040254E+00 -0.2990857911999E+01 -0.6645744131079E+00 -0.5042912657316E+00
-0.3686723799016E+00 -0.2975313314557E+01 -0.6687971488576E+00 -0.5471352976120E+00
-0.4080544653280E+00 -0.2954136019617E+01 -0.6724381070092E+00 -0.5885511583019E+00
-0.4484717848599E+00 -0.2926699996641E+01 -0.6750343663589E+00 -0.6272532206868E+00
-0.4877137298568E+00 -0.2892659462264E+01 -0.6760746484985E+00 -0.6618237141773E+00
-0.5231290066589E+00 -0.2852048963116E+01 -0.6750356040138E+00 -0.6908077975841E+00
-0.5518061184335E+00 -0.2805133520316E+01 -0.6713879377543E+00 -0.7126775343192E+00
-0.5706573868481E+00 -0.2752257317603E+01 -0.6645829507933E+00 -0.7257528979127E+00
-0.5763960429938E+00 -0.2693819287606E+01 -0.6540430758659E+00 -0.7281554567073E+00
-0.5654509308836E+00 -0.2630343523756E+01 -0.6391589004522E+00 -0.7178125032883E+00
-0.5338502154354E+00 -0.2562599876886E+01 -0.6192900276925E+00 -0.6925234722506E+00
-0.4770990583122E+00 -0.2491743216316E+01 -0.5937684637734E+00 -0.6500999742458E+00
-0.3900763102081E+00 -0.2419455327597E+01 -0.5619063359341E+00 -0.5885925920991E+00
-0.2669832953171E+00 -0.2348073147465E+01 -0.5230112963499E+00 -0.5066212829927E+00
-0.1013413071848E+00 -0.2280637723711E+01 -0.4763958132781E+00 -0.4037955609027E+00
 0.1139885484281E+00 -0.2220832167924E+01 -0.4213687301781E+00 -0.2812088890891E+00
 0.3864612528167E+00 -0.2172886531979E+01 -0.3572850611564E+00 -0.1421298074536E+00
 0.7229218941599E+00 -0.2141226997708E+01 -0.2836610249366E+00  0.7179136076629E-02
 0.1128141416169E+01 -0.2129612869932E+01 -0.2002942937373E+00  0.1568697948082E+00
 0.1602789014481E+01 -0.2139809261623E+01 -0.1074040510288E+00  0.2934392665724E+00
 0.2141100333380E+01 -0.2169983871300E+01 -0.5776707669966E-02  0.4005897508721E+00
 0.2728891013652E+01 -0.2213294464458E+01  0.1031193113756E+00  0.4613202679113E+00
 0.3342754254651E+01 -0.2257359175663E+01  0.2170790190322E+00  0.4612137413767E+00
 0.3951432970239E+01 -0.2285260236345E+01  0.3332345517445E+00  0.3919581664195E+00
 0.4514430830649E+01 -0.2276905671948E+01  0.4475050384086E+00  0.2575548464998E+00
-0.6498810045044E+00 -0.2791036602166E+01 -0.6881835315888E+00  0.1297629009375E+00
-0.5653390199849E+00 -0.2828398049509E+01 -0.6787474240130E+00  0.1089290166970E+00
-0.4854581691580E+00 -0.2863185066886E+01 -0.6697286571886E+00  0.8005356619063E-01
-0.4134475144497E+00 -0.2893815995113E+01 -0.6614527117689E+00  0.4433254804541E-01
-0.3516996835349E+00 -0.2919416769259E+01 -0.6542233003076E+00  0.3839903538644E-02
-0.3013267053071E+00 -0.2940002260994E+01 -0.6482658029202E+00 -0.3917830065486E-01
-0.2622952943481E+00 -0.2956247999450E+01 -0.6437086683516E+00 -0.8289610040127E-01
-0.2338521147663E+00 -0.2969112415777E+01 -0.6405929156541E+00 -0.1261697860708E+00
-0.2149476057867E+00 -0.2979521473869E+01 -0.6388938254514E+00 -0.1685189429727E+00
-0.2045279306522E+00 -0.2988188307245E+01 -0.6385432570944E+00 -0.2099668731874E+00
-0.2016867477288E+00 -0.2995546148020E+01 -0.6394465886783E+00 -0.2508514890442E+00
-0.2057169045280E+00 -0.3001745317682E+01 -0.6414924540009E+00 -0.2916588371149E+00
-0.2161029585191E+00 -0.3006675210805E+01 -0.6445556434695E+00 -0.3328902288750E+00
-0.2324794079691E+00 -0.3009991587091E+01 -0.6484942086754E+00 -0.3749549850765E+00
-0.2545623998296E+00 -0.3011145515887E+01 -0.6531415928758E+00 -0.4180771497126E+00
-0.2820568172761E+00 -0.3009419856150E+01 -0.6582953444945E+00 -0.4622178892315E+00
-0.3145363589322E+00 -0.3003980235733E+01 -0.6637033288231E+00 -0.5070157368698E+00
-0.3513059102001E+00 -0.2993941590229E+01 -0.6690495100555E+00 -0.5517575747837E+00
-0.3912747760352E+00 -0.2978439535506E+01 -0.6739428723508E+00 -0.5953977555471E+00
-0.4328624445901E+00 -0.2956710176937E+01 -0.6779145344071E+00 -0.6366228357271E+00
-0.4739391351408E+00 -0.2928275662287E+01 -0.6804429696249E+00 -0.6739762636788E+00
-0.5119207819071E+00 -0.2893050779809E+01 -0.6809943224908E+00 -0.7059656476197E+00
-0.5439767651209E+00 -0.2851169133214E+01 -0.6790291897853E+00 -0.7310371825503E+00
-0.5671288157063E+00 -0.2802807261772E+01 -0.6739872255388E+00 -0.7474867195381E+00
-0.5782245979050E+00 -0.2748152663471E+01 -0.6652754621886E+00 -0.7533915023347E+00
-0.5738349687496E+00 -0.2687479863704E+01 -0.6522629762102E+00 -0.7465919435096E+00
-0.5501106373514E+00 -0.2621283635746E+01 -0.6342788640711E+00 -0.7247394321865E+00
-0.5026250465231E+00 -0.2550435202638E+01 -0.6106120589310E+00 -0.6854209916485E+00
-0.4262263016293E+00 -0.2476347692195E+01 -0.5805148074151E+00 -0.6263727845233E+00
-0.3149260297482E+00 -0.2401140674705E+01 -0.5432133489851E+00 -0.5458020124396E+00
-0.1618161373899E+00 -0.2327737709514E+01 -0.4979107768002E+00 -0.4428099478533E+00
 0.4101678730707E-01 -0.2259866167296E+01 -0.4437698826104E+00 -0.3179130527758E+00
 0.3022587074477E+00 -0.2202059730666E+01 -0.3799602103056E+00 -0.1738257487023E+00
 0.6305038863437E+00 -0.2159402026438E+01 -0.3057796325753E+00 -0.1647230869313E-01
 0.1032721915586E+01 -0.2136668662856E+01 -0.2207893527439E+00  0.1441395306300E+00
 0.1511934757505E+01 -0.2136847094800E+01 -0.1249824693213E+00  0.2935291594860E+00
 0.2064303858608E+01 -0.2159165934865E+01 -0.1897241553407E-01  0.4133769210075E+00
 0.2676337605596E+01 -0.2197137214640E+01  0.9584007961951E-01  0.4837000773876E+00
 0.3323347724770E+01 -0.2237465177287E+01  0.2171765127328E+00  0.4866034795183E+00
 0.3970371557589E+01 -0.2260858979684E+01  0.3419025206756E+00  0.4113046818928E+00
 0.4571847580715E+01 -0.2241407694319E+01  0.4660879842246E+00  0.2550636477420E+00
-0.6436037226217E+00 -0.2772660453651E+01 -0.6832528454357E+00  0.1443693788621E+00
-0.5559846411087E+00 -0.2811220549857E+01 -0.6734410482281E+00  0.1229409241199E+00
-0.4732294485967E+00 -0.2846937066784E+01 -0.6640333129711E+00  0.9277427009652E-01
-0.3990079760461E+00 -0.2878058067295E+01 -0.6554132184345E+00  0.5526018004386E-01
-0.3359247852080E+00 -0.2903737683497E+01 -0.6479325033959E+00  0.1284112390104E-01
-0.2850143805078E+00 -0.2924199059658E+01 -0.6418426975973E+00 -0.3190625888698E-01
-0.2459965425805E+00 -0.2940394759426E+01 -0.6372782698975E+00 -0.7697758491952E-01
-0.2178384184043E+00 -0.2953528982938E+01 -0.6342734897200E+00 -0.1212008432384E+00
-0.1992606923887E+00 -0.2964698953800E+01 -0.6327919386670E+00 -0.1641618315236E+00
-0.1890554282370E+00 -0.2974716916889E+01 -0.6327544784540E+00 -0.2059895794775E+00
-0.1862325562806E+00 -0.2984063949627E+01 -0.6340593106298E+00 -0.2471337523535E+00
-0.1900572264947E+00 -0.2992907328613E+01 -0.6365929205074E+00 -0.2881847014856E+00
-0.2000302425285E+00 -0.3001134890569E+01 -0.6402330361598E+00 -0.3297385769554E+00
-0.2158394635381E+00 -0.3008386109598E+01 -0.6448451242361E+00 -0.3722917010277E+00
-0.2372884104764E+00 -0.3014078355905E+01 -0.6502733629660E+00 -0.4161473718821E+00
-0.2642000574840E+00 -0.3017438305837E+01 -0.6563276824442E+00 -0.4613344042420E+00
-0.2962891617689E+00 -0.3017549132711E+01 -0.6627676687719E+00 -0.5075401201947E+00
-0.3330100698813E+00 -0.3013417584938E+01 -0.6692855409370E+00 -0.5540745623185E+00
-0.3734114684244E+00 -0.3004050633913E+01 -0.6754924305330E+00 -0.5998891843044E+00
-0.4160271009345E+00 -0.2988543052382E+01 -0.6809140408097E+00 -0.6436488050164E+00
-0.4588092779488E+00 -0.2966281916547E+01 -0.6850182491067E+00 -0.6838636348918E+00
-0.4992399335111E+00 -0.2937060345924E+01 -0.6872600661279E+00 -0.7190111446955E+00
-0.5345710380716E+00 -0.2900878042957E+01 -0.6870898264441E+00 -0.7475241470699E+00
-0.5619430290961E+00 -0.2857737978230E+01 -0.6839362116566E+00 -0.7676914020127E+00
-0.5783569167059E+00 -0.2807604943841E+01 -0.6771923822003E+00 -0.7775643973240E+00
-0.5805542398336E+00 -0.2750486233029E+01 -0.6662081044998E+00 -0.7749138589994E+00
-0.5648465089281E+00 -0.2686575998702E+01 -0.6502845112161E+00 -0.7572567333703E+00
-0.5269238705557E+00 -0.2616425489793E+01 -0.6286698814376E+00 -0.7219628561432E+00
-0.4616631071380E+00 -0.2541127893045E+01 -0.6005582089857E+00 -0.6664501232945E+00
-0.3629550258297E+00 -0.2462515514729E+01 -0.5650941165323E+00 -0.5884885233559E+00
-0.2235320975228E+00 -0.2383305273325E+01 -0.5213674819386E+00 -0.4866115942354E+00
-0.3475549889510E-01 -0.2307167197057E+01 -0.4683845461699E+00 -0.3606457981629E+00
 0.2133070238257E+00 -0.2238849281247E+01 -0.4051084575208E+00 -0.2125709886458E+00
 0.5311420760584E+00 -0.2184061734153E+01 -0.3305839365451E+00 -0.4773372830816E-01
 0.9282543543748E+00 -0.2148678890391E+01 -0.2440849108404E+00  0.1239460182244E+00
 0.1410575171277E+01 -0.2137141815724E+01 -0.1453133310549E+00  0.2871556119298E+00
 0.1976895112009E+01 -0.2150089745525E+01 -0.3463892721930E-01  0.4214486902778E+00
 0.2615046266760E+01 -0.2181708349607E+01  0.8666758472212E-01  0.5033584182039E+00
 0.3299314270555E+01 -0.2217898044470E+01  0.2162832484398E+00  0.5107526025773E+00
 0.3990395391647E+01 -0.2236172170212E+01  0.3508446495151E+00  0.4285390004177E+00
 0.4643503358908E+01 -0.2208877606248E+01  0.4869251577879E+00  0.2501069154632E+00
-0.6372172133993E+00 -0.2754353009591E+01 -0.6783140547057E+00  0.1594947923266E+00
-0.5462541139225E+00 -0.2794166886814E+01 -0.6680842101026E+00  0.1374138894579E+00
-0.4603725045285E+00 -0.2830790724781E+01 -0.6582326556703E+00  0.1057965784061E+00
-0.3838186368625E+00 -0.2862267846020E+01 -0.6492173062506E+00  0.6629622459071E-01
-0.3194306229083E+00 -0.2887808234426E+01 -0.6414477810251E+00  0.2181684303485E-01
-0.2681151658389E+00 -0.2907906945708E+01 -0.6352044317747E+00 -0.2468288631710E-01
-0.2292773406609E+00 -0.2923849177965E+01 -0.6306253131222E+00 -0.7102031235676E-01
-0.2015556289732E+00 -0.2937112281811E+01 -0.6277335915109E+00 -0.1160237018029E+00
-0.1834173492703E+00 -0.2948967719796E+01 -0.6264770231485E+00 -0.1593774702734E+00
-0.1734945857109E+00 -0.2960318000390E+01 -0.6267625265597E+00 -0.2013404796209E+00
-0.1707156589847E+00 -0.2971681742694E+01 -0.6284794897008E+00 -0.2424883180211E+00
-0.1743217547049E+00 -0.2983236792588E+01 -0.6315117188689E+00 -0.2835229613295E+00
-0.1838325766714E+00 -0.2994868549152E+01 -0.6357402346379E+00 -0.3251398091345E+00
-0.1989908298020E+00 -0.3006204249432E+01 -0.6410390253991E+00 -0.3679269525881E+00
-0.2196892093595E+00 -0.3016634679512E+01 -0.6472647874193E+00 -0.4122741538192E+00
-0.2458729529805E+00 -0.3025337900494E+01 -0.6542421804438E+00 -0.4582880157362E+00
-0.2774057279876E+00 -0.3031320049344E+01 -0.6617451653271E+00 -0.5057164146587E+00
-0.3139019755631E+00 -0.3033481536276E+01 -0.6694767123439E+00 -0.5539034772224E+00
-0.3545597635335E+00 -0.3030699495658E+01 -0.6770518619272E+00 -0.6018060403498E+00
-0.3980325140199E+00 -0.3021924860549E+01 -0.6839914851060E+00 -0.6480733332569E+00
-0.4423538737165E+00 -0.3006407675096E+01 -0.6897523200406E+00 -0.6911878228530E+00
-0.4850676831224E+00 -0.2983818941043E+01 -0.6937773351712E+00 -0.7296047002287E+00
-0.5235072761739E+00 -0.2954024001753E+01 -0.6955062659492E+00 -0.7617571666820E+00
-0.5549388164948E+00 -0.2916848995270E+01 -0.6943575726997E+00 -0.7859460169737E+00
-0.5765341286204E+00 -0.2872028233837E+01 -0.6897124827691E+00 -0.8002183559107E+00
-0.5852333506594E+00 -0.2819288671241E+01 -0.6809044145263E+00 -0.8022962373888E+00
-0.5775471620582E+00 -0.2758503821059E+01 -0.6672102065657E+00 -0.7895814507550E+00
-0.5493328677316E+00 -0.2689874338750E+01 -0.6478414509498E+00 -0.7592427501856E+00
-0.4955616577309E+00 -0.2614126229324E+01 -0.6219375866785E+00 -0.7083886079366E+00
-0.4100866475711E+00 -0.2532733890729E+01 -0.5885641164304E+00 -0.6343438055521E+00
-0.2853774069772E+00 -0.2448108398242E+01 -0.5466971691903E+00 -0.5350322049026E+00
-0.1121609768090E+00 -0.2363736092592E+01 -0.4951794212589E+00 -0.4094896239353E+00
 0.1207010688875E+00 -0.2284448417654E+01 -0.4327494762017E+00 -0.2587764061269E+00
 0.4256765698574E+00 -0.2216498254962E+01 -0.3581643423580E+00 -0.8738511668512E-01
 0.8151194530451E+00 -0.2166895703121E+01 -0.2703552540438E+00  0.9517857549381E-01
 0.1298479915743E+01 -0.2141762298619E+01 -0.1686564790885E+00  0.2730276252617E+00
 0.1878040097373E+01 -0.2143562411532E+01 -0.5310446362319E-01  0.4235761354976E+00
 0.2543846591616E+01 -0.2167626005009E+01  0.7524411844260E-01  0.5193978852976E+00
 0.3269539697685E+01 -0.2199216551198E+01  0.2140646324871E+00  0.5330623414071E+00
 0.4012185543883E+01 -0.2212982676802E+01  0.3598405787783E+00  0.4438629839934E+00
 0.4720809680562E+01 -0.2178902443202E+01  0.5083814550476E+00  0.2442135241574E+00
-0.6307181859616E+00 -0.2736185758832E+01 -0.6733807989929E+00  0.1751713453440E+00
-0.5360983147987E+00 -0.2777309360732E+01 -0.6626815449808E+00  0.1523624044975E+00
-0.4468051313479E+00 -0.2814795534270E+01 -0.6523201428440E+00  0.1190886248002E+00
-0.3678039845166E+00 -0.2846443386087E+01 -0.6428494836999E+00  0.7736243201350E-01
-0.3021807423367E+00 -0.2871564711888E+01 -0.6347491003035E+00  0.3066700799323E-01
-0.2506403020021E+00 -0.2891010884325E+01 -0.6283302466282E+00 -0.1760193472008E-01
-0.2121880055500E+00 -0.2906464602710E+01 -0.6237305309462E+00 -0.6509497880215E-01
-0.1850792786685E+00 -0.2919701243736E+01 -0.6209561137338E+00 -0.1106818392580E+00
-0.1675068632686E+00 -0.2932162109014E+01 -0.6199338036942E+00 -0.1541851860566E+00
-0.1579414514062E+00 -0.2944824309600E+01 -0.6205531614482E+00 -0.1960196655664E+00
-0.1552354429122E+00 -0.2958229410299E+01 -0.6226929799210E+00 -0.2368997361480E+00
-0.1586116736079E+00 -0.2972557568535E+01 -0.6262338577601E+00 -0.2776439689198E+00
-0.1676117428942E+00 -0.2987690827654E+01 -0.6310605235131E+00 -0.3190490145847E+00
-0.1820338744235E+00 -0.3003249592550E+01 -0.6370567028876E+00 -0.3617975952894E+00
-0.2018602815841E+00 -0.3018607600720E+01 -0.6440935860586E+00 -0.4063721635503E+00
-0.2271612487391E+00 -0.3032904861101E+01 -0.6520132316838E+00 -0.4529674758951E+00
-0.2579566710520E+00 -0.3045078714214E+01 -0.6606070868971E+00 -0.5014050465356E+00
-0.2940323826371E+00 -0.3053927015320E+01 -0.6695918895691E+00 -0.5510757073517E+00
-0.3347470550735E+00 -0.3058196748985E+01 -0.6785887709235E+00 -0.6009510922551E+00
-0.3788796503620E+00 -0.3056692794541E+01 -0.6871144992194E+00 -0.6496712065912E+00
-0.4245432143999E+00 -0.3048526416327E+01 -0.6946139364958E+00 -0.6956960340565E+00
-0.4693370155888E+00 -0.3033246469723E+01 -0.7005167075008E+00 -0.7374664983656E+00
-0.5106721710798E+00 -0.3010584303403E+01 -0.7042513053908E+00 -0.7734310732543E+00
-0.5459462050037E+00 -0.2980187225067E+01 -0.7052266965229E+00 -0.8019235803065E+00
-0.5725188633173E+00 -0.2941553268322E+01 -0.7028144368006E+00 -0.8210103756945E+00
-0.5875569839432E+00 -0.2894119028280E+01 -0.6963352128209E+00 -0.8283886858312E+00
-0.5878092502129E+00 -0.2837421716366E+01 -0.6850462035237E+00 -0.8213687058166E+00
-0.5693519853967E+00 -0.2771285914783E+01 -0.6681275899917E+00 -0.7969413283362E+00
-0.5273209918645E+00 -0.2696027576542E+01 -0.6446697232876E+00 -0.7519258154634E+00
-0.4556262388985E+00 -0.2612693054039E+01 -0.6136638677319E+00 -0.6832099126515E+00
-0.3465945394030E+00 -0.2523280036168E+01 -0.5739749236671E+00 -0.5880851123095E+00
-0.1904509027800E+00 -0.2430941132932E+01 -0.5242784149548E+00 -0.4647121736684E+00
 0.2505116746070E-01 -0.2340415888976E+01 -0.4630729512034E+00 -0.3130472606966E+00
 0.3143876781482E+00 -0.2258353300046E+01 -0.3887931301730E+00 -0.1364175375803E+00
 0.6930454446632E+00 -0.2192875036076E+01 -0.2999659227523E+00  0.5650058525065E-01
 0.1174661133335E+01 -0.2151991230404E+01 -0.1954660223265E+00  0.2496400003354E+00
 0.1766076442333E+01 -0.2140480649192E+01 -0.7488084248759E-01  0.4183970515879E+00
 0.2460751383408E+01 -0.2155450398593E+01  0.6106019787280E-01  0.5309262741455E+00
 0.3232591784337E+01 -0.2181994612112E+01  0.2101194375761E+00  0.5532662038126E+00
 0.4034400569119E+01 -0.2192097156971E+01  0.3684606879201E+00  0.4581766879166E+00
 0.4805283811037E+01 -0.2150494983784E+01  0.5309577733624E+00  0.2360524930450E+00
-0.6241027090513E+00 -0.2718257468873E+01 -0.6684720455458E+00  0.1914352189726E+00
-0.5254529508385E+00 -0.2760747637553E+01 -0.6572401274719E+00  0.1677981767002E+00
-0.4324228959011E+00 -0.2799018550785E+01 -0.6462882989677E+00  0.1326016844383E+00
-0.3508731527874E+00 -0.2830583776951E+01 -0.6362913954292E+00  0.8835407820329E-01
-0.2841360861789E+00 -0.2854929761265E+01 -0.6278131788439E+00  0.3926630346399E-01
-0.2326081822456E+00 -0.2873375630566E+01 -0.6211967718189E+00 -0.1077438053328E-01
-0.1947898041517E+00 -0.2888075012768E+01 -0.6165729725715E+00 -0.5928094970719E-01
-0.1684954242789E+00 -0.2901119814113E+01 -0.6139230568266E+00 -0.1052218351323E+00
-0.1516270271092E+00 -0.2914106093570E+01 -0.6131466332724E+00 -0.1486051748381E+00
-0.1424987103864E+00 -0.2928061497382E+01 -0.6141120507047E+00 -0.1900281712411E+00
-0.1398969509637E+00 -0.2943531237505E+01 -0.6166856468830E+00 -0.2303547537342E+00
-0.1430338978340E+00 -0.2960687708967E+01 -0.6207443306101E+00 -0.2705218776403E+00
-0.1514762882585E+00 -0.2979408803114E+01 -0.6261770276052E+00 -0.3114264265609E+00
-0.1650774604224E+00 -0.2999315078337E+01 -0.6328785171825E+00 -0.3538461979135E+00
-0.1839075912131E+00 -0.3019775575937E+01 -0.6407366429777E+00 -0.3983611609166E+00
-0.2081628537366E+00 -0.3039906452476E+01 -0.6496138709225E+00 -0.4452646339073E+00
-0.2380257292543E+00 -0.3058588082623E+01 -0.6593227722002E+00 -0.4944663652999E+00
-0.2734653882665E+00 -0.3074522086817E+01 -0.6695975049944E+00 -0.5454187080561E+00
-0.3140139341023E+00 -0.3086326071900E+01 -0.6800680113342E+00 -0.5971190995724E+00
-0.3585825495264E+00 -0.3092656786320E+01 -0.6902478774547E+00 -0.6482050344932E+00
-0.4053605410100E+00 -0.3092484832655E+01 -0.6995690851574E+00 -0.6971188986763E+00
-0.4519933536858E+00 -0.3085236942101E+01 -0.7074460696991E+00 -0.7422953528699E+00
-0.4959635359036E+00 -0.3070511320937E+01 -0.7132949819971E+00 -0.7822140394758E+00
-0.5348039814327E+00 -0.3047775518835E+01 -0.7165159107304E+00 -0.8152644930841E+00
-0.5660789141811E+00 -0.3016287581559E+01 -0.7164733098243E+00 -0.8395578308919E+00
-0.5872097097343E+00 -0.2975187425870E+01 -0.7124794377376E+00 -0.8527925476155E+00
-0.5952213318785E+00 -0.2923665950053E+01 -0.7037774668733E+00 -0.8522144962935E+00
-0.5864605463620E+00 -0.2861153538980E+01 -0.6895228273431E+00 -0.8346668163218E+00
-0.5562998064301E+00 -0.2787520965870E+01 -0.6687641644253E+00 -0.7967119512038E+00
-0.4988090408269E+00 -0.2703321446439E+01 -0.6404261069962E+00 -0.7348278314146E+00
-0.4063146136733E+00 -0.2610028459981E+01 -0.6032686237203E+00 -0.6456763544558E+00
-0.2687155873661E+00 -0.2510290495162E+01 -0.5558012247877E+00 -0.5264856258866E+00
-0.7282613746307E-01 -0.2408532657124E+01 -0.4962717663125E+00 -0.3759373070291E+00
 0.1977762946433E+00 -0.2311575812705E+01 -0.4227599099120E+00 -0.1958581911694E+00
 0.5619261430913E+00 -0.2228537159693E+01 -0.3333222082873E+00  0.6412061404077E-02
 0.1038143113372E+01 -0.2169468467698E+01 -0.2262650742369E+00  0.2151941178351E+00
 0.1639109433794E+01 -0.2142008231390E+01 -0.1005797610180E+00  0.4041927526560E+00
 0.2363353443120E+01 -0.2145883210615E+01  0.4349404714899E-01  0.5367663642406E+00
 0.3186294311467E+01 -0.2166781585364E+01  0.2039025482588E+00  0.5711439168288E+00
 0.4055860959484E+01 -0.2173589711438E+01  0.3764542552188E+00  0.4717706422115E+00
 0.4898400090247E+01 -0.2123474075508E+01  0.5549852112177E+00  0.2247337786621E+00
-0.6173656459185E+00 -0.2700703053163E+01 -0.6636137497048E+00  0.2083279513457E+00
-0.5142331612352E+00 -0.2744616414366E+01 -0.6517699248323E+00  0.1837283805412E+00
-0.4170931654363E+00 -0.2783547485170E+01 -0.6401281396598E+00  0.1462634130650E+00
-0.3329181790154E+00 -0.2814685742608E+01 -0.6295207937053E+00  0.9913210517809E-01
-0.2652575818486E+00 -0.2837805660168E+01 -0.6206126576512E+00  0.4745934928159E-01
-0.2140483076260E+00 -0.2854839605963E+01 -0.6137775918637E+00 -0.4329253729167E-02
-0.1771580239250E+00 -0.2868491435185E+01 -0.6091299008988E+00 -0.5366473186061E-01
-0.1519021929421E+00 -0.2881175776301E+01 -0.6066156028878E+00 -0.9969127683383E-01
-0.1358844870298E+00 -0.2894613627632E+01 -0.6060996319640E+00 -0.1426568261219E+00
-0.1272753475049E+00 -0.2909849218874E+01 -0.6074249223271E+00 -0.1833670132372E+00
-0.1248102543563E+00 -0.2927407304838E+01 -0.6104435209351E+00 -0.2228420766050E+00
-0.1277004231365E+00 -0.2947440876009E+01 -0.6150282689938E+00 -0.2621350747297E+00
-0.1355410739053E+00 -0.2969823203376E+01 -0.6210728647109E+00 -0.3022384810780E+00
-0.1482389043143E+00 -0.2994183748163E+01 -0.6284845398606E+00 -0.3440226468129E+00
-0.1659481188010E+00 -0.3019902385518E+01 -0.6371701103583E+00 -0.3881679591778E+00
-0.1889889975537E+00 -0.3046089968447E+01 -0.6470158028414E+00 -0.4350764357077E+00
-0.2177113947019E+00 -0.3071586309584E+01 -0.6578595506600E+00 -0.4847623247720E+00
-0.2522802818722E+00 -0.3095006515901E+01 -0.6694573695302E+00 -0.5367571362354E+00
-0.2924160885477E+00 -0.3114841030341E+01 -0.6814514339322E+00 -0.5900973837782E+00
-0.3371702677149E+00 -0.3129596345586E+01 -0.6933533329919E+00 -0.6434253851467E+00
-0.3848041120655E+00 -0.3138099885769E+01 -0.7045808100660E+00 -0.6951703280797E+00
-0.4329968127823E+00 -0.3139655729254E+01 -0.7145305190547E+00 -0.7437684337246E+00
-0.4792928001701E+00 -0.3133729708047E+01 -0.7226045124110E+00 -0.7877472995228E+00
-0.5213625461478E+00 -0.3119609364040E+01 -0.7281943928884E+00 -0.8255762931796E+00
-0.5569906670691E+00 -0.3096311139691E+01 -0.7306603722397E+00 -0.8554381155449E+00
-0.5838802677194E+00 -0.3062676230753E+01 -0.7293113105621E+00 -0.8750600431166E+00
-0.5993692475022E+00 -0.3017546167942E+01 -0.7233830938680E+00 -0.8816535858924E+00
-0.6001237004359E+00 -0.2959948684001E+01 -0.7120144874973E+00 -0.8719503854747E+00
-0.5818232584160E+00 -0.2889285752568E+01 -0.6942218125416E+00 -0.8423007652434E+00
-0.5388052225838E+00 -0.2805562999623E+01 -0.6688736544083E+00 -0.7888213242027E+00
-0.4635562652241E+00 -0.2709622800599E+01 -0.6346358226214E+00 -0.7075786967158E+00
-0.3458698568714E+00 -0.2603425822298E+01 -0.5898591446234E+00 -0.5948496540194E+00
-0.1718710363344E+00 -0.2490814768189E+01 -0.5325371688400E+00 -0.4479043202161E+00
 0.7662910039214E-01 -0.2378467583744E+01 -0.4603677035304E+00 -0.2667315373088E+00
 0.4219064823540E+00 -0.2276252402018E+01 -0.3708691894591E+00 -0.5674085447574E-01
 0.8880320977886E+00 -0.2196304766602E+01 -0.2616545376616E+00  0.1675526631794E+00
 0.1495025500584E+01 -0.2149682937020E+01 -0.1309314892382E+00  0.3787810196223E+00
 0.2248666595421E+01 -0.2139818152180E+01  0.2176968897275E-01  0.5353496737190E+00
 0.3127772020383E+01 -0.2153992028677E+01  0.1947560012431E+00  0.5861994019610E+00
 0.4075239513238E+01 -0.2157608135271E+01  0.3835262813085E+00  0.4847050070476E+00
 0.5001737460129E+01 -0.2097955826226E+01  0.5807563354345E+00  0.2096076654809E+00
-0.6104996435093E+00 -0.2683705780847E+01 -0.6588410946887E+00  0.2258981413935E+00
-0.5023258778296E+00 -0.2729095823052E+01 -0.6462843498067E+00  0.2001526191202E+00
-0.4006474793052E+00 -0.2768493534809E+01 -0.6338282122676E+00  0.1599679738950E+00
-0.3138129527653E+00 -0.2798737595075E+01 -0.6225101188441E+00  0.1095127036956E+00
-0.2455105744278E+00 -0.2820064619828E+01 -0.6131150479872E+00  0.5505547145013E-01
-0.1950067053941E+00 -0.2835207144804E+01 -0.6060427790704E+00  0.1586515052900E-02
-0.1593856033013E+00 -0.2847498058975E+01 -0.6013767414165E+00 -0.4833723685527E-01
-0.1354112843744E+00 -0.2859659922739E+01 -0.5990142503487E+00 -0.9413583168329E-01
-0.1203948216384E+00 -0.2873489475295E+01 -0.5987768683092E+00 -0.1363566105337E+00
-0.1123860124882E+00 -0.2890002663201E+01 -0.6004777440856E+00 -0.1760360376509E+00
-0.1100895446726E+00 -0.2909675256333E+01 -0.6039529692008E+00 -0.2143520628977E+00
-0.1127274068160E+00 -0.2932628119535E+01 -0.6090711143461E+00 -0.2524666280671E+00
-0.1199265597201E+00 -0.2958730002886E+01 -0.6157313216964E+00 -0.2914589850911E+00
-0.1316437062732E+00 -0.2987629877234E+01 -0.6238547259977E+00 -0.3322859934156E+00
-0.1481102727930E+00 -0.3018737418554E+01 -0.6333695477073E+00 -0.3757287800811E+00
-0.1697654239916E+00 -0.3051181819465E+01 -0.6441894582906E+00 -0.4223074139942E+00
-0.1971287383246E+00 -0.3083784546154E+01 -0.6561826666736E+00 -0.4721586269050E+00
-0.2305736670267E+00 -0.3115088557405E+01 -0.6691324548572E+00 -0.5249142951277E+00
-0.2700264503427E+00 -0.3143461407823E+01 -0.6826975818061E+00 -0.5796665135512E+00
-0.3146889965155E+00 -0.3167256985012E+01 -0.6963892066824E+00 -0.6350708796967E+00
-0.3628893688457E+00 -0.3185155673685E+01 -0.7096090190801E+00 -0.6895472654790E+00
-0.4123244807999E+00 -0.3196336889316E+01 -0.7217322847778E+00 -0.7415409337222E+00
-0.4605874835656E+00 -0.3200133851354E+01 -0.7321442778937E+00 -0.7896449655429E+00
-0.5054867614624E+00 -0.3195653863194E+01 -0.7402281359615E+00 -0.8324337327142E+00
-0.5450426338858E+00 -0.3181672127565E+01 -0.7453429633966E+00 -0.8681888699753E+00
-0.5772661915076E+00 -0.3156733912381E+01 -0.7468000319059E+00 -0.8946942568153E+00
-0.5998422681327E+00 -0.3119336561034E+01 -0.7438357769173E+00 -0.9091585041493E+00
-0.6098003780173E+00 -0.3068108644191E+01 -0.7355818154028E+00 -0.9082428454357E+00
-0.6031923964795E+00 -0.3001975163996E+01 -0.7210335228394E+00 -0.8881417275722E+00
-0.5747290147696E+00 -0.2920356776176E+01 -0.6990171686053E+00 -0.8446812559756E+00
-0.5172299920335E+00 -0.2823371220376E+01 -0.6681202524377E+00 -0.7734038823266E+00
-0.4206439343764E+00 -0.2712105880389E+01 -0.6265499722894E+00 -0.6696679252906E+00
-0.2707447884481E+00 -0.2589516413025E+01 -0.5720522488189E+00 -0.5292517705638E+00
-0.4790634862038E-01 -0.2461726025119E+01 -0.5019264822272E+00 -0.3499989341532E+00
 0.2734946967883E+00 -0.2338941087279E+01 -0.4130892842537E+00 -0.1347340898105E+00
 0.7236308155489E+00 -0.2235233017677E+01 -0.3023204449305E+00  0.1041999870123E+00
 0.1331522559237E+01 -0.2165578026789E+01 -0.1668110959960E+00  0.3393901293228E+00
 0.2113034120965E+01 -0.2138419677773E+01 -0.5077111437260E-02  0.5245018841313E+00
 0.3053292603020E+01 -0.2144084726562E+01  0.1818415780013E+00  0.5975312921474E+00
 0.4090805455131E+01 -0.2144455157936E+01  0.3892700652395E+00  0.4969734648133E+00
 0.5117067224232E+01 -0.2074270624414E+01  0.6085593290320E+00  0.1901136493100E+00
-0.6034934048542E+00 -0.2667514589794E+01 -0.6542016086781E+00  0.2442036265047E+00
-0.4895788531610E+00 -0.2714425423006E+01 -0.6408008647820E+00  0.2170576645182E+00
-0.3828719484371E+00 -0.2753993329535E+01 -0.6273730649430E+00  0.1735614114330E+00
-0.2934136693362E+00 -0.2782708828303E+01 -0.6152245086954E+00  0.1192536723604E+00
-0.2248720308833E+00 -0.2801535023771E+01 -0.6052814199502E+00  0.6182349449959E-01
-0.1755531323923E+00 -0.2814238968751E+01 -0.5979584291389E+00  0.6809976332253E-02
-0.1415872198224E+00 -0.2824848367642E+01 -0.5932871263335E+00 -0.4338940082193E-01
-0.1191492320973E+00 -0.2836345877168E+01 -0.5910990306610E+00 -0.8859536287585E-01
-0.1052822181746E+00 -0.2850530683814E+01 -0.5911625892068E+00 -0.1297155421360E+00
-0.9795001973558E-01 -0.2868334584827E+01 -0.5932569297527E+00 -0.1680326021791E+00
-0.9585191016287E-01 -0.2890152472094E+01 -0.5972008853504E+00 -0.2048763586132E+00
-0.9823394484662E-01 -0.2916060045205E+01 -0.6028588069936E+00 -0.2415047357925E+00
-0.1047577748234E+00 -0.2945922452914E+01 -0.6101360546393E+00 -0.2790703737206E+00
-0.1154249805198E+00 -0.2979420585033E+01 -0.6189691223339E+00 -0.3186065432801E+00
-0.1305341014776E+00 -0.3016016383778E+01 -0.6293101064286E+00 -0.3609920541025E+00
-0.1506335877286E+00 -0.3054886818394E+01 -0.6411040907777E+00 -0.4068727849725E+00
-0.1764114645023E+00 -0.3094864561139E+01 -0.6542552148774E+00 -0.4565274722233E+00
-0.2084619401894E+00 -0.3134441214043E+01 -0.6685806408092E+00 -0.5097139940548E+00
-0.2469376828087E+00 -0.3171868846214E+01 -0.6837613159933E+00 -0.5656011215362E+00
-0.2912044194850E+00 -0.3205346073007E+01 -0.6993101089189E+00 -0.6228681757060E+00
-0.3396512108956E+00 -0.3233400052544E+01 -0.7146102633365E+00 -0.6799292096198E+00
-0.3899726802270E+00 -0.3255080631940E+01 -0.7290106732964E+00 -0.7352455592464E+00
-0.4397935589998E+00 -0.3269585731348E+01 -0.7418758691244E+00 -0.7874938800643E+00
-0.4870586832651E+00 -0.3275841180724E+01 -0.7525799840122E+00 -0.8353791977095E+00
-0.5300389761717E+00 -0.3272383065196E+01 -0.7604844196057E+00 -0.8773088722601E+00
-0.5670786547915E+00 -0.3257468957207E+01 -0.7649095337977E+00 -0.9111501088214E+00
-0.5962398883297E+00 -0.3229266672877E+01 -0.7651013236423E+00 -0.9341398870666E+00
-0.6149526595288E+00 -0.3186023126765E+01 -0.7601951685866E+00 -0.9429130739979E+00
-0.6196963291086E+00 -0.3126197409838E+01 -0.7491787589529E+00 -0.9335742033043E+00
-0.6056525589712E+00 -0.3048611773148E+01 -0.7308528773143E+00 -0.9017515641347E+00
-0.5661496096556E+00 -0.2952590546277E+01 -0.7037480416732E+00 -0.8425745784211E+00
-0.4915829887061E+00 -0.2838177169323E+01 -0.6659520415293E+00 -0.7505791912042E+00
-0.3678000311034E+00 -0.2707117267817E+01 -0.6149834689481E+00 -0.6200553656712E+00
-0.1742403136197E+00 -0.2564476577535E+01 -0.5477433863929E+00 -0.4464701407116E+00
 0.1177063551845E+00 -0.2420183791296E+01 -0.4604954940842E+00 -0.2293987853228E+00
 0.5446092357593E+00 -0.2289806762967E+01 -0.3490395106427E+00  0.2222474456542E-01
 0.1146205618807E+01 -0.2192535016516E+01 -0.2092658826601E+00  0.2825010805146E+00
 0.1952037184750E+01 -0.2143321657168E+01 -0.3825689505364E-01  0.5011836623015E+00
 0.2957978982213E+01 -0.2137690464969E+01  0.1640577058933E+00  0.6036741492606E+00
 0.4100118372248E+01 -0.2134605094927E+01  0.3931026613219E+00  0.5085433994925E+00
 0.5246480174167E+01 -0.2052924160797E+01  0.6387112121914E+00  0.1656961186862E+00
-0.5963287238585E+00 -0.2652469239007E+01 -0.6497596022552E+00  0.2633142632438E+00
-0.4757846895271E+00 -0.2700923104354E+01 -0.6353415682436E+00  0.2344083232876E+00
-0.3634954554083E+00 -0.2740208499513E+01 -0.6207408002341E+00  0.1868197790259E+00
-0.2715622592016E+00 -0.2766532701933E+01 -0.6076190012811E+00  0.1280368653285E+00
-0.2033417789844E+00 -0.2781982234007E+01 -0.5970648114953E+00  0.6748754879769E-01
-0.1557903199635E+00 -0.2791641021383E+01 -0.5894862770533E+00  0.1116687413269E-01
-0.1239035540000E+00 -0.2800261877283E+01 -0.5848330949713E+00 -0.3890567456589E-01
-0.1032581302865E+00 -0.2810990972843E+01 -0.5828498293111E+00 -0.8309903651754E-01
-0.9067859017763E-01 -0.2825528874615E+01 -0.5832415016494E+00 -0.1227362823351E+00
-0.8408992087152E-01 -0.2844657890226E+01 -0.5857495709479E+00 -0.1593501476195E+00
-0.8221577111629E-01 -0.2868658659738E+01 -0.5901748949652E+00 -0.1944074928026E+00
-0.8434052148539E-01 -0.2897549385654E+01 -0.5963779903146E+00 -0.2292431618596E+00
-0.9016292440692E-01 -0.2931193592821E+01 -0.6042713124500E+00 -0.2650650181410E+00
-0.9972249815358E-01 -0.2969318033525E+01 -0.6138081154823E+00 -0.3029681614383E+00
-0.1133711997449E+00 -0.3011462612890E+01 -0.6249667718396E+00 -0.3439217074037E+00
-0.1317517889882E+00 -0.3056887817581E+01 -0.6377279308166E+00 -0.3887022930052E+00
-0.1557142246234E+00 -0.3104476220750E+01 -0.6520380987909E+00 -0.4377511184292E+00
-0.1860842412476E+00 -0.3152697821086E+01 -0.6677564224171E+00 -0.4909829845572E+00
-0.2232651465061E+00 -0.3199701538523E+01 -0.6845933472071E+00 -0.5476708913605E+00
-0.2668044082025E+00 -0.3243527874146E+01 -0.7020664669313E+00 -0.6065317443671E+00
-0.3151464113028E+00 -0.3282540917678E+01 -0.7195374765181E+00 -0.6659773336426E+00
-0.3659591561694E+00 -0.3315651009310E+01 -0.7363220440680E+00 -0.7244916717539E+00
-0.4168775826726E+00 -0.3341913405616E+01 -0.7517582088597E+00 -0.7808534136251E+00
-0.4659800312826E+00 -0.3360068697305E+01 -0.7652097571199E+00 -0.8339234862125E+00
-0.5118028812161E+00 -0.3368417456687E+01 -0.7760440791446E+00 -0.8822596862437E+00
-0.5530473954736E+00 -0.3364944024589E+01 -0.7835982956891E+00 -0.9238364421202E+00
-0.5881790797329E+00 -0.3347512095600E+01 -0.7871382467958E+00 -0.9559483578462E+00
-0.6150563535342E+00 -0.3314020132062E+01 -0.7858153088289E+00 -0.9752485789544E+00
-0.6306270417201E+00 -0.3262494785948E+01 -0.7786243771361E+00 -0.9778244247179E+00
-0.6306248549915E+00 -0.3191177083610E+01 -0.7643603991102E+00 -0.9592182937958E+00
-0.6090523575631E+00 -0.3098566594995E+01 -0.7415238015612E+00 -0.9142981584819E+00
-0.5570591156976E+00 -0.2983528353285E+01 -0.7081175043483E+00 -0.8369453136725E+00
-0.4610638447974E+00 -0.2846286758147E+01 -0.6614701304455E+00 -0.7200747547449E+00
-0.3002605288046E+00 -0.2690282853034E+01 -0.5981086852802E+00 -0.5566803108251E+00
-0.4375992581262E-01 -0.2524332180848E+01 -0.5136184289857E+00 -0.3425009748918E+00
 0.3512550047126E+00 -0.2364649878360E+01 -0.4026789807299E+00 -0.8165308660559E-01
 0.9367800313977E+00 -0.2234512392535E+01 -0.2595464760951E+00  0.2036788324680E+00
 0.1760419025412E+01 -0.2156940434060E+01 -0.7930428291141E-01  0.4611488700308E+00
 0.2835388017743E+01 -0.2135756795229E+01  0.1399262465879E+00  0.6023185756840E+00
 0.4099605809048E+01 -0.2128717592602E+01  0.3941776491630E+00  0.5193189168486E+00
 0.5392546385349E+01 -0.2034614544823E+01  0.6715863781126E+00  0.1357573476416E+00
-0.5889753412586E+00 -0.2639037812208E+01 -0.6456026403136E+00  0.2833154212266E+00
-0.4606572832810E+00 -0.2689010690501E+01 -0.6299336041431E+00  0.2521314116401E+00
-0.3421757947715E+00 -0.2727319821813E+01 -0.6138991324647E+00  0.1994161899167E+00
-0.2480953491675E+00 -0.2750077627210E+01 -0.5996346042109E+00  0.1354463187993E+00
-0.1809594413200E+00 -0.2761082465456E+01 -0.5884083901232E+00  0.7172582905587E-01
-0.1358652767013E+00 -0.2767052360902E+01 -0.5805835361721E+00  0.1448073649675E-01
-0.1065051676821E+00 -0.2773422444745E+01 -0.5759855310682E+00 -0.3495494210380E-01
-0.8789543007860E-01 -0.2783338675174E+01 -0.5742468296075E+00 -0.7765950261176E-01
-0.7672197757359E-01 -0.2798273511024E+01 -0.5749991062877E+00 -0.1154100252148E+00
-0.7092960531456E-01 -0.2818788817076E+01 -0.5779436930901E+00 -0.1499767411236E+00
-0.6929896699158E-01 -0.2845018863655E+01 -0.5828635748146E+00 -0.1829384604413E+00
-0.7116712401938E-01 -0.2876913972539E+01 -0.5896162280977E+00 -0.2156816382937E+00
-0.7627159285048E-01 -0.2914339278165E+01 -0.5981221831158E+00 -0.2494465273634E+00
-0.8468124312068E-01 -0.2957082334746E+01 -0.6083527246384E+00 -0.2853707371859E+00
-0.9678416560090E-01 -0.3004789179490E+01 -0.6203146782617E+00 -0.3245009567361E+00
-0.1132961351125E+00 -0.3056845939767E+01 -0.6340284244236E+00 -0.3677449735946E+00
-0.1352152079658E+00 -0.3112234918957E+01 -0.6494900350627E+00 -0.4157265364277E+00
-0.1636060346104E+00 -0.3169446783139E+01 -0.6666105734831E+00 -0.4685542344375E+00
-0.1991505579169E+00 -0.3226547593527E+01 -0.6851396404981E+00 -0.5256418044235E+00
-0.2416022307551E+00 -0.3281417399098E+01 -0.7046039364701E+00 -0.5857633220421E+00
-0.2894562385798E+00 -0.3332241971121E+01 -0.7243396527336E+00 -0.6473329449987E+00
-0.3403251264086E+00 -0.3377773929066E+01 -0.7436198221757E+00 -0.7088638298672E+00
-0.3918284315419E+00 -0.3416910379393E+01 -0.7617477735379E+00 -0.7692550836946E+00
-0.4421742200619E+00 -0.3448198144386E+01 -0.7780744844838E+00 -0.8275469752760E+00
-0.4901796445413E+00 -0.3469707152615E+01 -0.7919773712327E+00 -0.8824681843075E+00
-0.5349255751680E+00 -0.3479170462831E+01 -0.8028192195627E+00 -0.9321193497063E+00
-0.5753017850968E+00 -0.3474185246301E+01 -0.8098974183480E+00 -0.9738780838857E+00
-0.6096124474153E+00 -0.3452351530138E+01 -0.8123928076162E+00 -0.1004458495234E+01
-0.6352965190187E+00 -0.3411321410288E+01 -0.8093235979212E+00 -0.1020006020589E+01
-0.6486958072288E+00 -0.3348808031736E+01 -0.7995007797065E+00 -0.1016103289489E+01
-0.6446288005128E+00 -0.3262505024187E+01 -0.7814267765841E+00 -0.9875451109962E+00
-0.6152996587327E+00 -0.3150025832765E+01 -0.7530651095211E+00 -0.9278001401460E+00
-0.5482423552586E+00 -0.3009816825007E+01 -0.7116118466570E+00 -0.8286534410423E+00
-0.4232660679019E+00 -0.2843117485341E+01 -0.6532767203832E+00 -0.6807278864735E+00
-0.2083215660065E+00 -0.2656599161664E+01 -0.5729841540722E+00 -0.4755458062253E+00
 0.1448253062376E+00 -0.2465756311505E+01 -0.4641862079704E+00 -0.2109693333132E+00
 0.7014002251184E+00 -0.2297086928418E+01 -0.3191373454155E+00  0.9742146303985E-01
 0.1532078446512E+01 -0.2182972954507E+01 -0.1301789035388E+00  0.3984782899889E+00
 0.2676932584381E+01 -0.2139784925125E+01  0.1074295334521E+00  0.5898230639284E+00
 0.4083911335608E+01 -0.2127678468566E+01  0.3912465792385E+00  0.5290163183804E+00
 0.5558527839236E+01 -0.2020301936390E+01  0.7076451911140E+00  0.9963130951446E-01
-0.5813818873286E+00 -0.2627874291329E+01 -0.6418512452959E+00  0.3043121926115E+00
-0.4437966391157E+00 -0.2679248457867E+01 -0.6246090287040E+00  0.2700872195005E+00
-0.3184848655776E+00 -0.2715509834694E+01 -0.6067989490964E+00  0.2108709477005E+00
-0.2228630920892E+00 -0.2733100833106E+01 -0.5911927938486E+00  0.1409426330411E+00
-0.1578290408199E+00 -0.2738388541996E+01 -0.5792435251946E+00  0.7417584358133E-01
-0.1159820880363E+00 -0.2740033863034E+01 -0.5712031987257E+00  0.1658834287756E-01
-0.8959502275137E-01 -0.2743979536727E+01 -0.5667149203404E+00 -0.3157865945555E-01
-0.7323231920997E-01 -0.2753123021624E+01 -0.5652710765901E+00 -0.7226644090219E-01
-0.6355408506511E-01 -0.2768556224994E+01 -0.5664220704522E+00 -0.1077133710819E+00
-0.5859189846260E-01 -0.2790550686293E+01 -0.5698285254422E+00 -0.1398936863660E+00
-0.5721649644264E-01 -0.2819066839525E+01 -0.5752566757656E+00 -0.1704623160805E+00
-0.5883102268861E-01 -0.2853980054243E+01 -0.5825622240671E+00 -0.2008261938965E+00
-0.6321250342442E-01 -0.2895161709175E+01 -0.5916748513366E+00 -0.2322309412970E+00
-0.7044935446822E-01 -0.2942475262998E+01 -0.6025849324724E+00 -0.2658326742453E+00
-0.8094538442395E-01 -0.2995702102023E+01 -0.6153295064586E+00 -0.3027365511387E+00
-0.9546111010641E-01 -0.3054401769670E+01 -0.6299725853425E+00 -0.3439749821148E+00
-0.1151189551872E+00 -0.3117719170829E+01 -0.6465676348378E+00 -0.3903715249405E+00
-0.1412234858274E+00 -0.3184225290732E+01 -0.6650897652224E+00 -0.4422714086530E+00
-0.1747666156831E+00 -0.3251936565746E+01 -0.6853406464982E+00 -0.4992777741734E+00
-0.2157405000501E+00 -0.3318572549893E+01 -0.7068626205217E+00 -0.5602508345246E+00
-0.2626893487153E+00 -0.3382117797519E+01 -0.7289614401092E+00 -0.6236148658065E+00
-0.3131370493937E+00 -0.3441135753544E+01 -0.7508545717762E+00 -0.6879193221348E+00
-0.3646583618478E+00 -0.3494336406038E+01 -0.7717989650780E+00 -0.7522017924456E+00
-0.4155876569961E+00 -0.3540056283262E+01 -0.7911287998403E+00 -0.8157012180161E+00
-0.4650392466716E+00 -0.3576140859879E+01 -0.8082360333538E+00 -0.8773301146012E+00
-0.5124944036562E+00 -0.3600103529676E+01 -0.8225195989230E+00 -0.9353268916897E+00
-0.5572823806463E+00 -0.3609326690640E+01 -0.8333218266748E+00 -0.9871721081698E+00
-0.5981589418151E+00 -0.3601179182936E+01 -0.8398676374652E+00 -0.1029679247912E+01
-0.6330555230968E+00 -0.3573020951814E+01 -0.8412153075173E+00 -0.1059124859057E+01
-0.6589448862921E+00 -0.3522129985724E+01 -0.8362149868638E+00 -0.1071264376049E+01
-0.6715630410661E+00 -0.3445474051153E+01 -0.8234074307135E+00 -0.1061035672037E+01
-0.6644353833491E+00 -0.3339429578910E+01 -0.8007730043842E+00 -0.1021805219758E+01
-0.6267574104012E+00 -0.3200515688550E+01 -0.7654546311964E+00 -0.9446143151765E+00
-0.5399363333712E+00 -0.3027272054355E+01 -0.7134416881764E+00 -0.8180747747124E+00
-0.3723072837214E+00 -0.2823091991983E+01 -0.6390798646640E+00 -0.6294829096766E+00
-0.7198485309974E-01 -0.2600816542046E+01 -0.5345602869948E+00 -0.3692547223651E+00
 0.4392624399004E+00 -0.2388152973051E+01 -0.3897781124383E+00 -0.4291019829275E-01
 0.1260244287964E+01 -0.2227211142570E+01 -0.1933933738030E+00  0.3049581524757E+00
 0.2471119068428E+01 -0.2152281608178E+01  0.6376749300020E-01  0.5603839423820E+00
 0.4044826736082E+01 -0.2132696152554E+01  0.3824261224040E+00  0.5368748685243E+00
 0.5748664855093E+01 -0.2011352063085E+01  0.7474625695397E+00  0.5657136041990E-01
-0.5734596898721E+00 -0.2619909945064E+01 -0.6386739365043E+00  0.3264339255741E+00
-0.4246357350100E+00 -0.2672380791248E+01 -0.6194033144814E+00  0.2880176905793E+00
-0.2918963935722E+00 -0.2704921666974E+01 -0.5993636210405E+00  0.2204760260168E+00
-0.1957651022719E+00 -0.2715174512260E+01 -0.5821879315816E+00  0.1438367793478E+00
-0.1341531956702E+00 -0.2713287891541E+01 -0.5694882259282E+00  0.7445224968099E-01
-0.9641453265459E-01 -0.2710061314918E+01 -0.5612951778784E+00  0.1736373360137E-01
-0.7340819242902E-01 -0.2711554234864E+01 -0.5569924937584E+00 -0.2877660331546E-01
-0.5945022627859E-01 -0.2720075437832E+01 -0.5559051411057E+00 -0.6688004634613E-01
-0.5131689849687E-01 -0.2736176238575E+01 -0.5574986357217E+00 -0.9960546427164E-01
-0.4719567819398E-01 -0.2759778209600E+01 -0.5613947859242E+00 -0.1290743317585E+00
-0.4607795654062E-01 -0.2790648751898E+01 -0.5673453501418E+00 -0.1569718313965E+00
-0.4744426599101E-01 -0.2828585911816E+01 -0.5752060441326E+00 -0.1846893937115E+00
-0.5111085012547E-01 -0.2873473435865E+01 -0.5849168659140E+00 -0.2134477195107E+00
-0.5717536354581E-01 -0.2925264864409E+01 -0.5964880544793E+00 -0.2443932382653E+00
-0.6603489063445E-01 -0.2983904973805E+01 -0.6099879819774E+00 -0.2786633425535E+00
-0.7845944753482E-01 -0.3049178068487E+01 -0.6255275125255E+00 -0.3173986569705E+00
-0.9565929759626E-01 -0.3120468779175E+01 -0.6432256249391E+00 -0.3616328343777E+00
-0.1191688952063E+00 -0.3196511824696E+01 -0.6631361538620E+00 -0.4119952127597E+00
-0.1503230824450E+00 -0.3275328335344E+01 -0.6851302937671E+00 -0.4683429933907E+00
-0.1893963181457E+00 -0.3354483626837E+01 -0.7087759995581E+00 -0.5296665887223E+00
-0.2349851571006E+00 -0.3431727777942E+01 -0.7333425979361E+00 -0.5944151574453E+00
-0.2844879931013E+00 -0.3505382643590E+01 -0.7579741386330E+00 -0.6611841245095E+00
-0.3354030613547E+00 -0.3573920209004E+01 -0.7818646657225E+00 -0.7291664358952E+00
-0.3861899937928E+00 -0.3635437538507E+01 -0.8043255184453E+00 -0.7978110707555E+00
-0.4362782675882E+00 -0.3687563894626E+01 -0.8247684447329E+00 -0.8662149577704E+00
-0.4855674697531E+00 -0.3727638140985E+01 -0.8426411347039E+00 -0.9327553329514E+00
-0.5338349032584E+00 -0.3752896866719E+01 -0.8573463667709E+00 -0.9950293510361E+00
-0.5802824716671E+00 -0.3760561921013E+01 -0.8681688914727E+00 -0.1049982727547E+01
-0.6233129851955E+00 -0.3747805415227E+01 -0.8742236931114E+00 -0.1094088496553E+01
-0.6605131546923E+00 -0.3711601634922E+01 -0.8744229709528E+00 -0.1123403493348E+01
-0.6885825147943E+00 -0.3648340978023E+01 -0.8673847114885E+00 -0.1133238322069E+01
-0.7025703051871E+00 -0.3553289675626E+01 -0.8511720088460E+00 -0.1117219552699E+01
-0.6938251631188E+00 -0.3421056786836E+01 -0.8229764022543E+00 -0.1066162685151E+01
-0.6463630417272E+00 -0.3247181467571E+01 -0.7787089134633E+00 -0.9673199058291E+00
-0.5307927331483E+00 -0.3030730262558E+01 -0.7123046097554E+00 -0.8042956840976E+00
-0.2944652619581E+00 -0.2779505031685E+01 -0.6147940678897E+00 -0.5595382497517E+00
 0.1515646885853E+00 -0.2518853342703E+01 -0.4734577378786E+00 -0.2249506246422E+00
 0.9380498549645E+00 -0.2298885258701E+01 -0.2721670848028E+00  0.1693135127667E+00
 0.2202610300150E+01 -0.2177664323822E+01  0.4989195340054E-02  0.5046427327261E+00
 0.3969481987316E+01 -0.2145523496608E+01  0.3647917035775E+00  0.5410082799848E+00
 0.5968543446755E+01 -0.2009815471736E+01  0.7917456068017E+00  0.5741490634668E-02
-0.5650532814523E+00 -0.2616504131784E+01 -0.6363114921290E+00  0.3498374769790E+00
-0.4023595905468E+00 -0.2669393381835E+01 -0.6143506036309E+00  0.3054500652076E+00
-0.2617850233864E+00 -0.2695569304809E+01 -0.5914708744527E+00  0.2271816027556E+00
-0.1668151429741E+00 -0.2695570756281E+01 -0.5724771883816E+00  0.1432726980294E+00
-0.1102775114032E+00 -0.2684957496795E+01 -0.5590470099701E+00  0.7218708900693E-01
-0.7751479514074E-01 -0.2676529101946E+01 -0.5508087876251E+00  0.1675215891303E-01
-0.5820690074899E-01 -0.2675751614520E+01 -0.5467917112017E+00 -0.2649169815309E-01
-0.4673517559813E-01 -0.2683933933101E+01 -0.5461338298779E+00 -0.6142524991536E-01
-0.4014840348963E-01 -0.2700946824120E+01 -0.5482190536911E+00 -0.9102567725573E-01
-0.3685255288765E-01 -0.2726322274141E+01 -0.5526349736407E+00 -0.1174832185951E+00
-0.3598474614228E-01 -0.2759627100905E+01 -0.5591223777410E+00 -0.1424592677936E+00
-0.3711096194083E-01 -0.2800585676104E+01 -0.5675393360659E+00 -0.1672904680857E+00
-0.4008525094152E-01 -0.2849101740394E+01 -0.5778374068775E+00 -0.1931404071258E+00
-0.4500465641584E-01 -0.2905230964206E+01 -0.5900471329168E+00 -0.2211145023273E+00
-0.5223698239137E-01 -0.2969105370182E+01 -0.6042684795190E+00 -0.2523488942082E+00
-0.6252079588531E-01 -0.3040784824305E+01 -0.6206611332866E+00 -0.2880628742000E+00
-0.7710212809750E-01 -0.3119984365005E+01 -0.6394173081486E+00 -0.3294970062269E+00
-0.9771745331965E-01 -0.3205717377661E+01 -0.6606869760411E+00 -0.3776126268845E+00
-0.1260750197826E+00 -0.3296098195283E+01 -0.6844346532119E+00 -0.4326055900092E+00
-0.1627883210657E+00 -0.3388558790674E+01 -0.7102694329317E+00 -0.4936644638057E+00
-0.2065180046287E+00 -0.3480568202156E+01 -0.7374172523454E+00 -0.5592923005674E+00
-0.2544983889470E+00 -0.3570121044544E+01 -0.7649238980964E+00 -0.6281464364191E+00
-0.3041201683479E+00 -0.3655365025829E+01 -0.7918970506355E+00 -0.6995895766778E+00
-0.3539728662189E+00 -0.3734109335746E+01 -0.8176164525764E+00 -0.7732775851768E+00
-0.4038209645089E+00 -0.3803779459948E+01 -0.8415200974310E+00 -0.8484725290075E+00
-0.4539948333855E+00 -0.3861605001730E+01 -0.8631199798846E+00 -0.9236771843637E+00
-0.5047199684575E+00 -0.3904768028503E+01 -0.8818976125334E+00 -0.9966131405974E+00
-0.5556290786633E+00 -0.3930443824632E+01 -0.8972145940285E+00 -0.1064386576004E+01
-0.6055546368927E+00 -0.3935736613108E+01 -0.9082582635343E+00 -0.1123720214405E+01
-0.6526366712427E+00 -0.3917480666725E+01 -0.9140234812136E+00 -0.1171084081055E+01
-0.6945153574973E+00 -0.3871706380391E+01 -0.9132443611860E+00 -0.1202384074430E+01
-0.7278728016233E+00 -0.3792827067876E+01 -0.9041399873726E+00 -0.1211891928930E+01
-0.7465833141983E+00 -0.3673782332973E+01 -0.8840731426079E+00 -0.1190813583550E+01
-0.7381768972669E+00 -0.3507142903683E+01 -0.8490639728420E+00 -0.1125972871709E+01
-0.6775539556254E+00 -0.3286971213499E+01 -0.7929050456401E+00 -0.9984813829342E+00
-0.5152707995210E+00 -0.3013588998514E+01 -0.7057719701237E+00 -0.7835103594988E+00
-0.1570267121125E+00 -0.2704708839105E+01 -0.5723471187722E+00 -0.4567241463804E+00
 0.5599182895971E+00 -0.2412855833686E+01 -0.3705875143399E+00 -0.2357316461950E-01
 0.1851267065173E+01 -0.2224113727411E+01 -0.7456933355870E-01  0.4073856076240E+00
 0.3837214426252E+01 -0.2169000914279E+01  0.3336427073664E+00  0.5369499137907E+00
 0.6225478743839E+01 -0.2018994913411E+01  0.8412967786219E+00 -0.5384116349814E-01
-0.5558857937577E+00 -0.2619704901573E+01 -0.6351181485300E+00  0.3747038952242E+00
-0.3757816105950E+00 -0.2671574383793E+01 -0.6094712079595E+00  0.3215126125412E+00
-0.2274577361241E+00 -0.2687148660722E+01 -0.5829212880554E+00  0.2294298466306E+00
-0.1362523356498E+00 -0.2673089686509E+01 -0.5618684128043E+00  0.1382419755132E+00
-0.8674139346052E-01 -0.2652330899660E+01 -0.5478144667872E+00  0.6710641794674E-01
-0.5971141394470E-01 -0.2638773322349E+01 -0.5396969553008E+00  0.1481222977609E-01
-0.4426919008200E-01 -0.2636179784467E+01 -0.5360898028983E+00 -0.2459686087855E-01
-0.3527016289349E-01 -0.2644454264689E+01 -0.5359448935026E+00 -0.5578742456386E-01
-0.3017748874716E-01 -0.2662702697757E+01 -0.5385760453262E+00 -0.8189211247873E-01
-0.2766317025648E-01 -0.2690055031020E+01 -0.5435436483547E+00 -0.1050757247772E+00
-0.2702711994737E-01 -0.2725884731276E+01 -0.5505823784490E+00 -0.1269162989284E+00
-0.2792442956952E-01 -0.2769853200177E+01 -0.5595555342874E+00 -0.1486553026236E+00
-0.3024441504342E-01 -0.2821893211668E+01 -0.5704275338424E+00 -0.1713668448075E+00
-0.3407515434788E-01 -0.2882171415642E+01 -0.5832493226890E+00 -0.1960825300877E+00
-0.3973521463374E-01 -0.2951023290017E+01 -0.5981517098433E+00 -0.2238975519379E+00
-0.4788836353120E-01 -0.3028827753238E+01 -0.6153432325232E+00 -0.2560644454860E+00
-0.5974732505926E-01 -0.3115729720963E+01 -0.6350954186681E+00 -0.2940047291754E+00
-0.7719548795821E-01 -0.3211175663707E+01 -0.6576742401332E+00 -0.3390506062054E+00
-0.1023341581522E+00 -0.3313516517946E+01 -0.6831701453997E+00 -0.3918436329883E+00
-0.1361867111409E+00 -0.3420103260663E+01 -0.7112580049593E+00 -0.4518756864736E+00
-0.1775025605764E+00 -0.3528061663254E+01 -0.7411128558095E+00 -0.5177603375248E+00
-0.2233157297791E+00 -0.3634920133484E+01 -0.7716471841511E+00 -0.5882464233416E+00
-0.2708853577870E+00 -0.3738358515687E+01 -0.8018487866433E+00 -0.6628757218085E+00
-0.3189463720738E+00 -0.3835821384312E+01 -0.8309535636592E+00 -0.7414820216426E+00
-0.3676192434442E+00 -0.3924552019405E+01 -0.8584342653615E+00 -0.8234419944762E+00
-0.4176670442304E+00 -0.4001767055016E+01 -0.8838868330202E+00 -0.9073514930166E+00
-0.4697514988889E+00 -0.4064716139262E+01 -0.9068935411439E+00 -0.9910610335897E+00
-0.5239134869597E+00 -0.4110644330334E+01 -0.9269115772708E+00 -0.1071865713906E+01
-0.5793591040364E+00 -0.4136712637467E+01 -0.9432143623558E+00 -0.1146777016266E+01
-0.6346784171086E+00 -0.4139796176905E+01 -0.9548949330318E+00 -0.1212758533074E+01
-0.6883517098066E+00 -0.4115842097228E+01 -0.9608387757246E+00 -0.1266500356862E+01
-0.7386849744236E+00 -0.4058805737209E+01 -0.9594981566242E+00 -0.1303285198536E+01
-0.7822677034897E+00 -0.3960467862313E+01 -0.9485471272949E+00 -0.1315363106894E+01
-0.8107935778050E+00 -0.3810924550369E+01 -0.9243436394086E+00 -0.1290271221694E+01
-0.8052497390166E+00 -0.3599263960230E+01 -0.8809027529758E+00 -0.1208480301253E+01
-0.7239493082460E+00 -0.3316609451568E+01 -0.8081117640046E+00 -0.1040267673830E+01
-0.4763269865511E+00 -0.2966716174693E+01 -0.6886086425098E+00 -0.7451458209451E+00
 0.1244892341876E+00 -0.2593059759926E+01 -0.4937141125045E+00 -0.2930123386375E+00
 0.1391739066751E+01 -0.2307405096929E+01 -0.1831332087645E+00  0.2438706416735E+00
 0.3614109782877E+01 -0.2208484052484E+01  0.2811251502677E+00  0.5143824422592E+00
 0.6528598505725E+01 -0.2044676471880E+01  0.8967844201321E+00 -0.1236391271419E+00
-0.5454566145625E+00 -0.2632725472399E+01 -0.6356364268640E+00  0.4012118298484E+00
-0.3431559196485E+00 -0.2680543325761E+01 -0.6047398580933E+00  0.3345705029947E+00
-0.1882656543888E+00 -0.2678644988816E+01 -0.5733821371851E+00  0.2249273201488E+00
-0.1047228602986E+00 -0.2645825739045E+01 -0.5501097280661E+00  0.1276836773909E+00
-0.6432003600993E-01 -0.2614113723947E+01 -0.5356867599737E+00  0.5915792347109E-01
-0.4348602403332E-01 -0.2596122107826E+01 -0.5279216342384E+00  0.1175677395923E-01
-0.3187129111601E-01 -0.2592472806529E+01 -0.5248688273502E+00 -0.2288758498911E-01
-0.2522625872543E-01 -0.2601422830399E+01 -0.5253298256529E+00 -0.4980981995519E-01
-0.2151808282806E-01 -0.2621308178441E+01 -0.5285652601300E+00 -0.7210131572354E-01
-0.1971332298769E-01 -0.2650875036734E+01 -0.5341176799034E+00 -0.9179836082041E-01
-0.1928122590407E-01 -0.2689328798563E+01 -0.5417220129656E+00 -0.1103341204590E+00
-0.1996434439365E-01 -0.2736285842368E+01 -0.5512500455667E+00 -0.1288162993936E+00
-0.2168370756550E-01 -0.2791718300705E+01 -0.5626804100387E+00 -0.1481988562590E+00
-0.2451239010529E-01 -0.2855908751039E+01 -0.5760842368131E+00 -0.1694074573974E+00
-0.2870551562177E-01 -0.2929401602977E+01 -0.5916214325356E+00 -0.1934531238592E+00
-0.3481243642404E-01 -0.3012921611688E+01 -0.6095468187053E+00 -0.2215598013103E+00
-0.4392856994318E-01 -0.3107139549887E+01 -0.6302136333569E+00 -0.2552695743029E+00
-0.5799021237004E-01 -0.3212133350498E+01 -0.6540247223194E+00 -0.2962968589632E+00
-0.7948497447185E-01 -0.3326720518716E+01 -0.6812411087889E+00 -0.3458555779193E+00
-0.1099282227519E+00 -0.3448288372959E+01 -0.7116433297465E+00 -0.4039027462374E+00
-0.1482013167764E+00 -0.3573542094523E+01 -0.7443486933515E+00 -0.4692716047308E+00
-0.1911125679086E+00 -0.3699317467574E+01 -0.7780860186910E+00 -0.5408601195895E+00
-0.2357847075412E+00 -0.3822589125331E+01 -0.8116747786694E+00 -0.6183877307785E+00
-0.2811323299401E+00 -0.3940320255916E+01 -0.8442905297522E+00 -0.7017916549946E+00
-0.3276512894632E+00 -0.4049613109876E+01 -0.8754528929132E+00 -0.7904643262406E+00
-0.3765195643173E+00 -0.4147815629599E+01 -0.9048670522667E+00 -0.8830371355435E+00
-0.4288038904013E+00 -0.4232411411074E+01 -0.9322430741865E+00 -0.9774956347823E+00
-0.4849264648227E+00 -0.4300849573872E+01 -0.9571552220016E+00 -0.1071363454157E+01
-0.5444092138036E+00 -0.4350461366377E+01 -0.9789741306240E+00 -0.1161969737955E+01
-0.6061548784992E+00 -0.4378332852472E+01 -0.9968975610492E+00 -0.1246805527766E+01
-0.6693032052473E+00 -0.4380640326072E+01 -0.1009988721314E+01 -0.1323467181268E+01
-0.7336435305233E+00 -0.4351406816788E+01 -0.1017010084617E+01 -0.1388541273025E+01
-0.7984319796038E+00 -0.4282060292116E+01 -0.1016098469485E+01 -0.1435923583843E+01
-0.8597782162230E+00 -0.4161280315430E+01 -0.1004211721295E+01 -0.1455091387208E+01
-0.9059425963655E+00 -0.3974201693755E+01 -0.9760288725681E+00 -0.1428187571542E+01
-0.9070099008790E+00 -0.3702783826769E+01 -0.9219587592679E+00 -0.1324703898280E+01
-0.7882166088819E+00 -0.3331724598111E+01 -0.8239882536770E+00 -0.1093009435015E+01
-0.3597342746478E+00 -0.2877469638205E+01 -0.6474407922181E+00 -0.6612323038339E+00
 0.7952876414433E+00 -0.2458828070624E+01 -0.3327080907939E+00 -0.2558009830049E-01
 0.3243597444155E+01 -0.2275794020280E+01  0.1935606876594E+00  0.4497972481975E+00
 0.6887474528736E+01 -0.2098005847993E+01  0.9578937504223E+00 -0.2070726283341E+00
-0.5328501857696E+00 -0.2660880076868E+01 -0.6387460620456E+00  0.4294333283469E+00
-0.3019002075438E+00 -0.2698111366063E+01 -0.6000023236620E+00  0.3414785229029E+00
-0.1439055239442E+00 -0.2667522381467E+01 -0.5622855894610E+00  0.2103911500934E+00
-0.7355380632740E-01 -0.2610926883158E+01 -0.5368961458974E+00  0.1107813445808E+00
-0.4401609372069E-01 -0.2568917672065E+01 -0.5225867609443E+00  0.4868629663282E-01
-0.2931856586362E-01 -0.2547965513908E+01 -0.5154568236353E+00  0.7969669934016E-02
-0.2126837823202E-01 -0.2544312441488E+01 -0.5131161715900E+00 -0.2108082755429E-01
-0.1675274905581E-01 -0.2554672292708E+01 -0.5142850160163E+00 -0.4329269189065E-01
-0.1426254306544E-01 -0.2576665254409E+01 -0.5181855672165E+00 -0.6152990432297E-01
-0.1307018136107E-01 -0.2608712215900E+01 -0.5243564872657E+00 -0.7758968996703E-01
-0.1280622290540E-01 -0.2649894515615E+01 -0.5325401556395E+00 -0.9270379418428E-01
-0.1329401112949E-01 -0.2699807951990E+01 -0.5426204007097E+00 -0.1078121043327E+00
-0.1448181865042E-01 -0.2758475608129E+01 -0.5545914936199E+00 -0.1237213798152E+00
-0.1642436348935E-01 -0.2826296672603E+01 -0.5685442156904E+00 -0.1412222232448E+00
-0.1930747388642E-01 -0.2904017802429E+01 -0.5846650639754E+00 -0.1611989855038E+00
-0.2353931904638E-01 -0.2992709531770E+01 -0.6032497791523E+00 -0.1847730909790E+00
-0.3000863628582E-01 -0.3093636972174E+01 -0.6247291310012E+00 -0.2135014418401E+00
-0.4056029272767E-01 -0.3207743309096E+01 -0.6496607300455E+00 -0.2494318004894E+00
-0.5800779816377E-01 -0.3334674501696E+01 -0.6785364700830E+00 -0.2944791531069E+00
-0.8443933398980E-01 -0.3472103749503E+01 -0.7113086272979E+00 -0.3493108421750E+00
-0.1189355192632E+00 -0.3616232949318E+01 -0.7470337048480E+00 -0.4131888757187E+00
-0.1580815265871E+00 -0.3762830415357E+01 -0.7841824000741E+00 -0.4852742210105E+00
-0.1989012298618E+00 -0.3907772377820E+01 -0.8213347337751E+00 -0.5654388974262E+00
-0.2405529300736E+00 -0.4047371193761E+01 -0.8575848375459E+00 -0.6535684557536E+00
-0.2839184574750E+00 -0.4178670270118E+01 -0.8925177588182E+00 -0.7488995619335E+00
-0.3305382665888E+00 -0.4299365922025E+01 -0.9259808515209E+00 -0.8500103551428E+00
-0.3818209331656E+00 -0.4407405670944E+01 -0.9578453350949E+00 -0.9550363834505E+00
-0.4385404185121E+00 -0.4500603467145E+01 -0.9878287918513E+00 -0.1061799681390E+01
-0.5004956706513E+00 -0.4576543467779E+01 -0.1015407842817E+01 -0.1167981633350E+01
-0.5667521490902E+00 -0.4632634597449E+01 -0.1039877364803E+01 -0.1271576102181E+01
-0.6368538005787E+00 -0.4665583188881E+01 -0.1060487413694E+01 -0.1371097755572E+01
-0.7117999221083E+00 -0.4670118461005E+01 -0.1076383692662E+01 -0.1464593059690E+01
-0.7932006939994E+00 -0.4638413304133E+01 -0.1086322815814E+01 -0.1548044359360E+01
-0.8812994980500E+00 -0.4559398520545E+01 -0.1088139619934E+01 -0.1613992644235E+01
-0.9719619250686E+00 -0.4416449712300E+01 -0.1077682343533E+01 -0.1648728326201E+01
-0.1049140430481E+01 -0.4184867743244E+01 -0.1046801650343E+01 -0.1625981380017E+01
-0.1064951262263E+01 -0.3830557759995E+01 -0.9791018190414E+00 -0.1493925493496E+01
-0.8645529621100E+00 -0.3323736879918E+01 -0.8376579808877E+00 -0.1147705982494E+01
 0.3833687036835E-01 -0.2741208690630E+01 -0.5405743721075E+00 -0.4619277434768E+00
 0.2631022454342E+01 -0.2400581685765E+01  0.4608815440219E-01  0.2901442320848E+00
 0.7305659281779E+01 -0.2202679836115E+01  0.1020595904341E+01 -0.3152771726261E+00
-0.5163972924348E+00 -0.2713606246240E+01 -0.6460007173611E+00  0.4589608522482E+00
-0.2482151474867E+00 -0.2725463976000E+01 -0.5947358335596E+00  0.3359810382745E+00
-0.9516154802522E-01 -0.2648086496500E+01 -0.5486496170806E+00  0.1814935457510E+00
-0.4509557894954E-01 -0.2564629879840E+01 -0.5219450995354E+00  0.8766141682532E-01
-0.2690773428521E-01 -0.2515587894825E+01 -0.5084991333992E+00  0.3657338823210E-01
-0.1760994190505E-01 -0.2493793232312E+01 -0.5022806423280E+00  0.3971268130955E-02
-0.1268355566340E-01 -0.2491455707783E+01 -0.5008278601521E+00 -0.1881013994249E-01
-0.9963419807670E-02 -0.2504099291353E+01 -0.5028125497246E+00 -0.3599750045582E-01
-0.8475528008592E-02 -0.2528720005706E+01 -0.5074391143044E+00 -0.5003814591142E-01
-0.7778879181696E-02 -0.2563532956802E+01 -0.5142623748598E+00 -0.6238174211460E-01
-0.7641556495526E-02 -0.2607548344428E+01 -0.5230379879787E+00 -0.7401700528132E-01
-0.7957969458624E-02 -0.2660373987285E+01 -0.5336663993010E+00 -0.8568719478288E-01
-0.8697713436311E-02 -0.2722095714046E+01 -0.5461586936349E+00 -0.9803111573440E-01
-0.9896790757868E-02 -0.2793225915810E+01 -0.5606245496676E+00 -0.1116800595915E+00
-0.1167462605452E-01 -0.2874695429291E+01 -0.5772740196711E+00 -0.1273545990714E+00
-0.1429431626877E-01 -0.2967888280118E+01 -0.5964365281650E+00 -0.1459991693703E+00
-0.1836582022118E-01 -0.3074667855611E+01 -0.6186067443845E+00 -0.1690332999526E+00
-0.2544490679573E-01 -0.3197068666667E+01 -0.6445027242963E+00 -0.1986782561333E+00
-0.3851253874581E-01 -0.3336113360629E+01 -0.6749251899320E+00 -0.2376270373598E+00
-0.6027382858109E-01 -0.3490279861690E+01 -0.7101107486358E+00 -0.2876163536268E+00
-0.9010191244773E-01 -0.3655214505201E+01 -0.7490632946916E+00 -0.3487395291501E+00
-0.1244249522632E+00 -0.3824978360949E+01 -0.7898806744125E+00 -0.4206469316079E+00
-0.1602923800882E+00 -0.3993692059041E+01 -0.8307969002056E+00 -0.5032829787575E+00
-0.1972132277563E+00 -0.4156788871193E+01 -0.8708004327657E+00 -0.5961827119793E+00
-0.2364400974300E+00 -0.4311419156787E+01 -0.9095718643971E+00 -0.6981506994882E+00
-0.2797669355500E+00 -0.4455951161700E+01 -0.9471436335636E+00 -0.8075885463848E+00
-0.3288292942115E+00 -0.4589113116686E+01 -0.9835884968360E+00 -0.9228134037959E+00
-0.3847147885168E+00 -0.4709293094098E+01 -0.1018801591704E+01 -0.1042072459200E+01
-0.4475103268396E+00 -0.4814365986295E+01 -0.1052375278308E+01 -0.1163478788878E+01
-0.5163233204001E+00 -0.4902036786498E+01 -0.1083672037528E+01 -0.1285444712169E+01
-0.5907964152670E+00 -0.4969745264714E+01 -0.1112108352568E+01 -0.1407247793943E+01
-0.6727237704757E+00 -0.5013647057260E+01 -0.1137274182494E+01 -0.1528321895958E+01
-0.7655272640166E+00 -0.5028061747012E+01 -0.1158717819472E+01 -0.1646934816961E+01
-0.8726731722162E+00 -0.5004321966809E+01 -0.1175399045320E+01 -0.1759442054835E+01
-0.9968706114265E+00 -0.4927558787027E+01 -0.1184885897347E+01 -0.1858557796336E+01
-0.1135950609219E+01 -0.4771344419365E+01 -0.1181459023322E+01 -0.1927037158560E+01
-0.1271324496847E+01 -0.4491587588307E+01 -0.1152582434206E+01 -0.1925990558721E+01
-0.1327864859264E+01 -0.4010559826226E+01 -0.1067684953008E+01 -0.1753609219344E+01
-0.8711239431982E+00 -0.3279277895666E+01 -0.8300803801419E+00 -0.1148860965216E+01
 0.1622328086735E+01 -0.2663836197646E+01 -0.2083016252860E+00 -0.8259137551891E-01
 0.7757046797568E+01 -0.2414986582475E+01  0.1068412058939E+01 -0.4885578499157E+00
-0.4932264295563E+00 -0.2809466884991E+01 -0.6605386727522E+00  0.4875007931935E+00
-0.1766464499159E+00 -0.2759586197157E+01 -0.5872465381653E+00  0.3051408154584E+00
-0.4568720454676E-01 -0.2608546719141E+01 -0.5308467926477E+00  0.1339814183495E+00
-0.2288301536196E-01 -0.2503559329652E+01 -0.5052884765321E+00  0.6068899294066E-01
-0.1369462554304E-01 -0.2453516361453E+01 -0.4934422047521E+00  0.2403696989551E-01
-0.8673273938081E-02 -0.2433146265696E+01 -0.4883639152040E+00  0.3857678863637E-03
-0.6294668425119E-02 -0.2433808368794E+01 -0.4880206147158E+00 -0.1561213850799E-01
-0.4915842003532E-02 -0.2449664235582E+01 -0.4909160228323E+00 -0.2766584688230E-01
-0.4192796469309E-02 -0.2477473255345E+01 -0.4963332177588E+00 -0.3747091696026E-01
-0.3857810461668E-02 -0.2515343092170E+01 -0.5038401880342E+00 -0.4610362056644E-01
-0.3805245110922E-02 -0.2562291021929E+01 -0.5132192610556E+00 -0.5426669595773E-01
-0.3979862156515E-02 -0.2617970967792E+01 -0.5243901738036E+00 -0.6249155180234E-01
-0.4368068546182E-02 -0.2682544293150E+01 -0.5373824803468E+00 -0.7123463510819E-01
-0.4989183199106E-02 -0.2756629318147E+01 -0.5523237084995E+00 -0.8095108141264E-01
-0.5905873875934E-02 -0.2841312993377E+01 -0.5694437819359E+00 -0.9216860659321E-01
-0.7258705681025E-02 -0.2938234872572E+01 -0.5890987244289E+00 -0.1055958768963E+00
-0.9364005615631E-02 -0.3049761088808E+01 -0.6118250280017E+00 -0.1223441336763E+00
-0.1326463762940E-01 -0.3179117524307E+01 -0.6384764419013E+00 -0.1444783363877E+00
-0.2178832863992E-01 -0.3329462475665E+01 -0.6702501708484E+00 -0.1753572286195E+00
-0.3817619681247E-01 -0.3501155144187E+01 -0.7078662787479E+00 -0.2182716823068E+00
-0.6219913787438E-01 -0.3689375048277E+01 -0.7503148484108E+00 -0.2749371555123E+00
-0.9033414871814E-01 -0.3885326607807E+01 -0.7951321631534E+00 -0.3459476784575E+00
-0.1199533773343E+00 -0.4080263740038E+01 -0.8400434359921E+00 -0.4311040687661E+00
-0.1510758683571E+00 -0.4268478859693E+01 -0.8839109587812E+00 -0.5290349940259E+00
-0.1852459772752E+00 -0.4447558512871E+01 -0.9265609118360E+00 -0.6376961292874E+00
-0.2243170545200E+00 -0.4617016146688E+01 -0.9682666546699E+00 -0.7551626238335E+00
-0.2699608096562E+00 -0.4776781852727E+01 -0.1009348547517E+01 -0.8799872694749E+00
-0.3235068220183E+00 -0.4926117394013E+01 -0.1049924858851E+01 -0.1011049487824E+01
-0.3854237213244E+00 -0.5063204464355E+01 -0.1089725653374E+01 -0.1147098503460E+01
-0.4548600004128E+00 -0.5185747282669E+01 -0.1128121473427E+01 -0.1286861436944E+01
-0.5312347168189E+00 -0.5291839359292E+01 -0.1164614832576E+01 -0.1429954535205E+01
-0.6166135167835E+00 -0.5379869447365E+01 -0.1199296610701E+01 -0.1576778983908E+01
-0.7153432485526E+00 -0.5448016924483E+01 -0.1232672052975E+01 -0.1727730046522E+01
-0.8330549512130E+00 -0.5492578230366E+01 -0.1265126655168E+01 -0.1883382660637E+01
-0.9764098748230E+00 -0.5504442357015E+01 -0.1296170465682E+01 -0.2043753845258E+01
-0.1156683466936E+01 -0.5464170004277E+01 -0.1324170713974E+01 -0.2205629088820E+01
-0.1376338347117E+01 -0.5329986895871E+01 -0.1341265068584E+01 -0.2349478599305E+01
-0.1644375402526E+01 -0.5019059174860E+01 -0.1332686935336E+01 -0.2430113095015E+01
-0.1822705174804E+01 -0.4304539053935E+01 -0.1225448864008E+01 -0.2164401375917E+01
-0.9326340118070E-02 -0.3301610370092E+01 -0.6621873519095E+00 -0.9236256456483E+00
 0.8111905117712E+01 -0.2883856798449E+01  0.1045609679433E+01 -0.8756358103409E+00
-0.4599397162364E+00 -0.2991300999635E+01 -0.6902481534598E+00  0.5047269046619E+00
-0.7963303939692E-01 -0.2776775130211E+01 -0.5712816424343E+00  0.2212911071058E+00
-0.6530987324654E-02 -0.2529443577503E+01 -0.5071949205234E+00  0.6993728200108E-01
-0.1026202754994E-01 -0.2429162012539E+01 -0.4878848152878E+00  0.3528459104738E-01
-0.4029301700585E-02 -0.2381425343781E+01 -0.4770909362055E+00  0.1166344144473E-01
-0.3036807960166E-02 -0.2366070020478E+01 -0.4738213727481E+00 -0.1738084317815E-02
-0.2071130784797E-02 -0.2371349189410E+01 -0.4746840711123E+00 -0.1105747470557E-01
-0.1648752934951E-02 -0.2391426821709E+01 -0.4786151220606E+00 -0.1800059420140E-01
-0.1402889392771E-02 -0.2422979891023E+01 -0.4848765633083E+00 -0.2367172497446E-01
-0.1300028416994E-02 -0.2464192264015E+01 -0.4930984658342E+00 -0.2868275766437E-01
-0.1291189651477E-02 -0.2514159157919E+01 -0.5030900770108E+00 -0.3344871110702E-01
-0.1361234597785E-02 -0.2572620260952E+01 -0.5147963067810E+00 -0.3828008670375E-01
-0.1505422563916E-02 -0.2639824151944E+01 -0.5282659227733E+00 -0.4344617681882E-01
-0.1731358781963E-02 -0.2716485333197E+01 -0.5436433464968E+00 -0.4921755394098E-01
-0.2061015885474E-02 -0.2803811020709E+01 -0.5611744156810E+00 -0.5591122138369E-01
-0.2546176256796E-02 -0.2903621426022E+01 -0.5812335291169E+00 -0.6396141267178E-01
-0.3294563990212E-02 -0.3018615621280E+01 -0.6043820460600E+00 -0.7405583120552E-01
-0.4696662137208E-02 -0.3152960658901E+01 -0.6315314736182E+00 -0.8760675674905E-01
-0.8876696406266E-02 -0.3312728517847E+01 -0.6643210527498E+00 -0.1080203865787E+00
-0.1919381102695E-01 -0.3502426907594E+01 -0.7043241542194E+00 -0.1406444930785E+00
-0.3586997644525E-01 -0.3717344460027E+01 -0.7506428984798E+00 -0.1904389624652E+00
-0.5594681693572E-01 -0.3943575316725E+01 -0.7999044386516E+00 -0.2598668936079E+00
-0.7775835801570E-01 -0.4167629609040E+01 -0.8490776060633E+00 -0.3480115274094E+00
-0.1020267163540E+00 -0.4382491782503E+01 -0.8969037131364E+00 -0.4515911888156E+00
-0.1303667527363E+00 -0.4586806715985E+01 -0.9434347078024E+00 -0.5671324368011E+00
-0.1643773918874E+00 -0.4781911711182E+01 -0.9892578353550E+00 -0.6922378875768E+00
-0.2054881719656E+00 -0.4969461444098E+01 -0.1034989938635E+01 -0.8257835603655E+00
-0.2551013830711E+00 -0.5150017925908E+01 -0.1081023877904E+01 -0.9675505715797E+00
-0.3142435792466E+00 -0.5322218501099E+01 -0.1127292432867E+01 -0.1117386269474E+01
-0.3824065089924E+00 -0.5483020423383E+01 -0.1173085403955E+01 -0.1274391192487E+01
-0.4585751924482E+00 -0.5630336101635E+01 -0.1217782276963E+01 -0.1437636947397E+01
-0.5443034120380E+00 -0.5765783005198E+01 -0.1262017302253E+01 -0.1607432125963E+01
-0.6439120272009E+00 -0.5893710921108E+01 -0.1307524609145E+01 -0.1785900867921E+01
-0.7631631333176E+00 -0.6017782485073E+01 -0.1356189143887E+01 -0.1977666237256E+01
-0.9117586120197E+00 -0.6139011392734E+01 -0.1410154021964E+01 -0.2190077038580E+01
-0.1101730913572E+01 -0.6253567314488E+01 -0.1471059667532E+01 -0.2433009179072E+01
-0.1372634315137E+01 -0.6346899878687E+01 -0.1543906861771E+01 -0.2719205334033E+01
-0.1707254654755E+01 -0.6369170912452E+01 -0.1615285137511E+01 -0.3045975265116E+01
-0.2449364880165E+01 -0.6151943414318E+01 -0.1720261684531E+01 -0.3440849363043E+01
-0.2452324197611E+01 -0.5018519655607E+01 -0.1494168792908E+01 -0.2725441580041E+01
 0.7853866004907E+01 -0.4114083148518E+01  0.7479565824231E+00 -0.2063119744438E+01
-0.4273580991672E+00 -0.3388793127812E+01 -0.7632302567689E+00  0.4578582582179E+00
 0.5653705281634E-01 -0.2638428618899E+01 -0.5163783209112E+00  0.2784844750851E-01
-0.1185853282683E-01 -0.2427845828199E+01 -0.4879408794761E+00  0.2466253100352E-01
 0.1650793718070E-02 -0.2337288490741E+01 -0.4671275463653E+00  0.8728183267331E-02
-0.7558769057622E-03 -0.2300023831452E+01 -0.4601559485284E+00  0.2402949234226E-02
-0.5505760289848E-04 -0.2292592209932E+01 -0.4585294603396E+00 -0.1777243338792E-02
-0.1358778833069E-03 -0.2304275175284E+01 -0.4608822175011E+00 -0.4589896563475E-02
-0.7530674290246E-04 -0.2329523592281E+01 -0.4659197867475E+00 -0.6724095912698E-02
-0.7009308065786E-04 -0.2365359100036E+01 -0.4730858456729E+00 -0.8480173890960E-02
-0.6513850522094E-04 -0.2410173972938E+01 -0.4820478294717E+00 -0.1005099530933E-01
-0.6984736021476E-04 -0.2463226727840E+01 -0.4926593223813E+00 -0.1156268452604E-01
-0.8032367231514E-04 -0.2524378414309E+01 -0.5048917551198E+00 -0.1311237778310E-01
-0.9725296739949E-04 -0.2593976194775E+01 -0.5188146972793E+00 -0.1478525281523E-01
-0.1218392344601E-03 -0.2672819761536E+01 -0.5345883281201E+00 -0.1666856017439E-01
-0.1554887879403E-03 -0.2762196368896E+01 -0.5524703797692E+00 -0.1886444270331E-01
-0.2030725437611E-03 -0.2864022069038E+01 -0.5728450368525E+00 -0.2151505284166E-01
-0.2757739166628E-03 -0.2981140763488E+01 -0.5962833163662E+00 -0.2484926966816E-01
-0.3776122947892E-03 -0.3118078555975E+01 -0.6236912429477E+00 -0.2930320006847E-01
-0.1180563432693E-02 -0.3283387105528E+01 -0.6569135435809E+00 -0.3660395738867E-01
-0.4884872497124E-02 -0.3490601401741E+01 -0.6990972652650E+00 -0.5398039093591E-01
-0.1197239436153E-01 -0.3737459219750E+01 -0.7498863339964E+00 -0.9326517253790E-01
-0.2125388226332E-01 -0.3999725975613E+01 -0.8041959835588E+00 -0.1606984586076E+00
-0.3337204516293E-01 -0.4256293337547E+01 -0.8579330893262E+00 -0.2530499192072E+00
-0.4983063708437E-01 -0.4499090030819E+01 -0.9097841471375E+00 -0.3634380389362E+00
-0.7182615552576E-01 -0.4728915893967E+01 -0.9601484242058E+00 -0.4862317038804E+00
-0.1002213181797E+00 -0.4949884902950E+01 -0.1010021259277E+01 -0.6184790751415E+00
-0.1358642925880E+00 -0.5165982910678E+01 -0.1060369456454E+01 -0.7595494952867E+00
-0.1799080716628E+00 -0.5379558768101E+01 -0.1111893384521E+01 -0.9103586254573E+00
-0.2339430595628E+00 -0.5590350562668E+01 -0.1164858741804E+01 -0.1072606374257E+01
-0.2988759000700E+00 -0.5793566170980E+01 -0.1218488432367E+01 -0.1246703408651E+01
-0.3734609125595E+00 -0.5983686788623E+01 -0.1271429559182E+01 -0.1429436277055E+01
-0.4574057901201E+00 -0.6167367624123E+01 -0.1324954702592E+01 -0.1618450502348E+01
-0.5535241194139E+00 -0.6359020361029E+01 -0.1382508916690E+01 -0.1817558337949E+01
-0.6668839691774E+00 -0.6570853497657E+01 -0.1447547514937E+01 -0.2035068215088E+01
-0.8048194748157E+00 -0.6817098876181E+01 -0.1524383692914E+01 -0.2283604454499E+01
-0.9851518096021E+00 -0.7119032988842E+01 -0.1620836983841E+01 -0.2582448894088E+01
-0.1218534426583E+01 -0.7508902339716E+01 -0.1745487379270E+01 -0.2968850282794E+01
-0.1637927632715E+01 -0.8043322077391E+01 -0.1936249970873E+01 -0.3499668756615E+01
-0.1989370949330E+01 -0.8810856749615E+01 -0.2160045571976E+01 -0.4355628294848E+01
-0.5041272901135E+01 -0.9735513575772E+01 -0.2955357339420E+01 -0.5948775538755E+01
 0.5480161040527E+01 -0.8546986322564E+01 -0.6133650655471E+00 -0.6802025774347E+01
-0.1292589024417E+01 -0.2336822680642E+01 -0.1705823497051E+01 -0.1068306966964E+01
-0.1105909281033E+01 -0.2388893795397E+01 -0.1642557441756E+01 -0.9241583028885E+00
-0.9178413328467E+00 -0.2435592083497E+01 -0.1576113701684E+01 -0.8055876097780E+00
-0.7397710392916E+00 -0.2474572811799E+01 -0.1510741606181E+01 -0.7091934146444E+00
-0.5769761277721E+00 -0.2504898746937E+01 -0.1448481187439E+01 -0.6328108406566E+00
-0.4319260042706E+00 -0.2526616250166E+01 -0.1390514856058E+01 -0.5747650102697E+00
-0.3053181208925E+00 -0.2540080013775E+01 -0.1337337119902E+01 -0.5335294516882E+00
-0.1970727685973E+00 -0.2545943223725E+01 -0.1289217513122E+01 -0.5076594054817E+00
-0.1068472834052E+00 -0.2545030022863E+01 -0.1246382330785E+01 -0.4957410070304E+00
-0.3413073730300E-01 -0.2538183727757E+01 -0.1208987795512E+01 -0.4965148342226E+00
 0.2201892216642E-01 -0.2526052377415E+01 -0.1176895720982E+01 -0.5088702188574E+00
 0.6100710553444E-01 -0.2509911318073E+01 -0.1150984976974E+01 -0.5314089243883E+00
 0.8388650336651E-01 -0.2490000263801E+01 -0.1130873464536E+01 -0.5640098748891E+00
 0.9312787800392E-01 -0.2466618262203E+01 -0.1115540477744E+01 -0.6062607769778E+00
 0.8947117764382E-01 -0.2440312447836E+01 -0.1104895394188E+01 -0.6559863291285E+00
 0.7395618979040E-01 -0.2409402592034E+01 -0.1097659806270E+01 -0.7112818670296E+00
 0.4647521894728E-01 -0.2372311234329E+01 -0.1093142924457E+01 -0.7703177085046E+00
 0.5622246257992E-02 -0.2328503551889E+01 -0.1091754210877E+01 -0.8315968834634E+00
-0.4397456989838E-01 -0.2272425922613E+01 -0.1088708228719E+01 -0.8922616314293E+00
-0.1473668252841E+00 -0.2244283810555E+01 -0.1124075795993E+01 -0.9435509629007E+00
-0.1353552021377E+01 -0.2366748722127E+01 -0.1748541345012E+01 -0.1038205336368E+01
-0.1149433167377E+01 -0.2420717517563E+01 -0.1677970817666E+01 -0.8949243518944E+00
-0.9510650301124E+00 -0.2472156328527E+01 -0.1608914034480E+01 -0.7798846943934E+00
-0.7643928460615E+00 -0.2516005722356E+01 -0.1541787323246E+01 -0.6878104769013E+00
-0.5942126340518E+00 -0.2551222872726E+01 -0.1478354684436E+01 -0.6158342912287E+00
-0.4426250104453E+00 -0.2577770469863E+01 -0.1419585872144E+01 -0.5619908066950E+00
-0.3102419246806E+00 -0.2596170434230E+01 -0.1366013805223E+01 -0.5246248830536E+00
-0.1968978479898E+00 -0.2607162929034E+01 -0.1317908561859E+01 -0.5022405727152E+00
-0.1021404986270E+00 -0.2611572929349E+01 -0.1275445307914E+01 -0.4934627297225E+00
-0.2532756456454E-01 -0.2610230273256E+01 -0.1238712180634E+01 -0.4971059621928E+00
 0.3412659628691E-01 -0.2604124386227E+01 -0.1207898958208E+01 -0.5120765417398E+00
 0.7643228823602E-01 -0.2593842488690E+01 -0.1183182791213E+01 -0.5372565424695E+00
 0.1024640415273E+00 -0.2580024945702E+01 -0.1164453622009E+01 -0.5725105915516E+00
 0.1140035383818E+00 -0.2563334708185E+01 -0.1151185646888E+01 -0.6172625478665E+00
 0.1122575979508E+00 -0.2543582168092E+01 -0.1142722545068E+01 -0.6697104811535E+00
 0.9767099755845E-01 -0.2519959284070E+01 -0.1138475491773E+01 -0.7281511286978E+00
 0.6976110596084E-01 -0.2491355198690E+01 -0.1138149220696E+01 -0.7907139715240E+00
 0.2850005792823E-01 -0.2455766792897E+01 -0.1140815362542E+01 -0.8553151337567E+00
-0.3685637987784E-01 -0.2417731783361E+01 -0.1153656433796E+01 -0.9181242228837E+00
-0.1115336995952E+00 -0.2357869253004E+01 -0.1160619384778E+01 -0.9825386749521E+00
-0.1411960236651E+01 -0.2394528108941E+01 -0.1789049517891E+01 -0.1006199859967E+01
-0.1192664069404E+01 -0.2454073749077E+01 -0.1713966770339E+01 -0.8646393620834E+00
-0.9826810258471E+00 -0.2509547218694E+01 -0.1641347270771E+01 -0.7529352797966E+00
-0.7872684486655E+00 -0.2557863020082E+01 -0.1572211786324E+01 -0.6650819495142E+00
-0.6097148885505E+00 -0.2597576776940E+01 -0.1507427078957E+01 -0.5974530053834E+00
-0.4517414638795E+00 -0.2628709770402E+01 -0.1447812076440E+01 -0.5477283205057E+00
-0.3137414514424E+00 -0.2651841275767E+01 -0.1393823878253E+01 -0.5141095792481E+00
-0.1954319453977E+00 -0.2667786172153E+01 -0.1345712511836E+01 -0.4950710264354E+00
-0.9624435472651E-01 -0.2677410593522E+01 -0.1303617822370E+01 -0.4892788746239E+00
-0.1552058853479E-01 -0.2681629511401E+01 -0.1267660543755E+01 -0.4956028621723E+00
 0.4743134627906E-01 -0.2681339148774E+01 -0.1237936664033E+01 -0.5130533040633E+00
 0.9300480526779E-01 -0.2677213859873E+01 -0.1214578252584E+01 -0.5407075600859E+00
 0.1220828120387E+00 -0.2669947430237E+01 -0.1197496367516E+01 -0.5783524137869E+00
 0.1361902049268E+00 -0.2660152680796E+01 -0.1186262360650E+01 -0.6254049182761E+00
 0.1363047847739E+00 -0.2647792767833E+01 -0.1180399349044E+01 -0.6803204890829E+00
 0.1226366800789E+00 -0.2632258760817E+01 -0.1179522374955E+01 -0.7415254312418E+00
 0.9474928329632E-01 -0.2612324648504E+01 -0.1183260418647E+01 -0.8071966537838E+00
 0.4994597896654E-01 -0.2587414834684E+01 -0.1192610359162E+01 -0.8752440973180E+00
-0.1187281852175E-01 -0.2552059734267E+01 -0.1205048296754E+01 -0.9445732450981E+00
-0.8568523918104E-01 -0.2503112394996E+01 -0.1216734884977E+01 -0.1017333460680E+01
-0.1469243179868E+01 -0.2422082210282E+01 -0.1828922928731E+01 -0.9719718664388E+00
-0.1234491805692E+01 -0.2487411855461E+01 -0.1749294716305E+01 -0.8329318274988E+00
-0.1012928785141E+01 -0.2547399893653E+01 -0.1673354474789E+01 -0.7248171914464E+00
-0.8084879565069E+00 -0.2599824547257E+01 -0.1601906872706E+01 -0.6411354181181E+00
-0.6236062628468E+00 -0.2643735496583E+01 -0.1535650623037E+01 -0.5777683443605E+00
-0.4593751704040E+00 -0.2679187347579E+01 -0.1475124379710E+01 -0.5320498590582E+00
-0.3159186409953E+00 -0.2706840470779E+01 -0.1420696778931E+01 -0.5020384659529E+00
-0.1927864458679E+00 -0.2727573132425E+01 -0.1372568998317E+01 -0.4861829772994E+00
-0.8930269048198E-01 -0.2742319600645E+01 -0.1330862473454E+01 -0.4831909698501E+00
-0.4715957750452E-02 -0.2752021348650E+01 -0.1295666530722E+01 -0.4920039513468E+00
 0.6172763772194E-01 -0.2757596133839E+01 -0.1267058189961E+01 -0.5117350160834E+00
 0.1105773632942E+00 -0.2759789429221E+01 -0.1245129667828E+01 -0.5416072943185E+00
 0.1427167980495E+00 -0.2759340128601E+01 -0.1229812962240E+01 -0.5813637769685E+00
 0.1594289828215E+00 -0.2756870181390E+01 -0.1220797360231E+01 -0.6304342058817E+00
 0.1614779283572E+00 -0.2752444296525E+01 -0.1217754189950E+01 -0.6874927467516E+00
 0.1489364828032E+00 -0.2745517015105E+01 -0.1220392847086E+01 -0.7511218612215E+00
 0.1208618123984E+00 -0.2735130850371E+01 -0.1228706444731E+01 -0.8197035480376E+00
 0.7631959496553E-01 -0.2718994577390E+01 -0.1242057238589E+01 -0.8918875294004E+00
 0.1491860866014E-01 -0.2694088962789E+01 -0.1259210063247E+01 -0.9669984793780E+00
-0.5924999736727E-01 -0.2658754271272E+01 -0.1277462003021E+01 -0.1045489033867E+01
-0.1525193302069E+01 -0.2449354177825E+01 -0.1868037310812E+01 -0.9355099455381E+00
-0.1274879669644E+01 -0.2520604315340E+01 -0.1783877468418E+01 -0.7997201532943E+00
-0.1041637373219E+01 -0.2585145332178E+01 -0.1704587867213E+01 -0.6955172085140E+00
-0.8281621205066E+00 -0.2641580331079E+01 -0.1630778948109E+01 -0.6160547510132E+00
-0.6359898339926E+00 -0.2689421880155E+01 -0.1562943501685E+01 -0.5568674470947E+00
-0.4656402224212E+00 -0.2728948441170E+01 -0.1501456668080E+01 -0.5150268838446E+00
-0.3168875365765E+00 -0.2760912686898E+01 -0.1446566101364E+01 -0.4884640880527E+00
-0.1890856948136E+00 -0.2786271922965E+01 -0.1398418076809E+01 -0.4756078103783E+00
-0.8142137898875E-01 -0.2806022772319E+01 -0.1357098747673E+01 -0.4752107465748E+00
 0.6956073277777E-02 -0.2821155792059E+01 -0.1322673864472E+01 -0.4862891522980E+00
 0.7687513108780E-01 -0.2832628783087E+01 -0.1295204213155E+01 -0.5080522391542E+00
 0.1290008851412E+00 -0.2841267780440E+01 -0.1274765437557E+01 -0.5398413591683E+00
 0.1642043264569E+00 -0.2847863926178E+01 -0.1261320008670E+01 -0.5813801093331E+00
 0.1835638544071E+00 -0.2853062853208E+01 -0.1254664526254E+01 -0.6321327586588E+00
 0.1876752507561E+00 -0.2856995870706E+01 -0.1254580688194E+01 -0.6909765702225E+00
 0.1764234347371E+00 -0.2859236949115E+01 -0.1260922348560E+01 -0.7566943190122E+00
 0.1491420065023E+00 -0.2858621045300E+01 -0.1273455145005E+01 -0.8280205239721E+00
 0.1050360145537E+00 -0.2853302945100E+01 -0.1291685454081E+01 -0.9039422347294E+00
 0.4391532683838E-01 -0.2841132483739E+01 -0.1314692060409E+01 -0.9837089228570E+00
-0.3163508548346E-01 -0.2821334135934E+01 -0.1340895530665E+01 -0.1066597465510E+01
-0.1579591494528E+01 -0.2476226500482E+01 -0.1906234452819E+01 -0.8968234996052E+00
-0.1313685481030E+01 -0.2553398325680E+01 -0.1817529384543E+01 -0.7649951780199E+00
-0.1068779184419E+01 -0.2622462754077E+01 -0.1734883706693E+01 -0.6650480732630E+00
-0.8463233736593E+00 -0.2682779133937E+01 -0.1658678174363E+01 -0.5898918275688E+00
-0.6469710357920E+00 -0.2734350685003E+01 -0.1589221204743E+01 -0.5348225924138E+00
-0.4706515847255E+00 -0.2777723844150E+01 -0.1526736447699E+01 -0.4967252927638E+00
-0.3167715264463E+00 -0.2813795999218E+01 -0.1471366733330E+01 -0.4734377851306E+00
-0.1844540164026E+00 -0.2843614585000E+01 -0.1423192239050E+01 -0.4633791689448E+00
-0.7273157078326E-01 -0.2868249497422E+01 -0.1382261098550E+01 -0.4653496771246E+00
 0.1935688818457E-01 -0.2888751620174E+01 -0.1348615520614E+01 -0.4784395860183E+00
 0.9271748861980E-01 -0.2906135763278E+01 -0.1322306585735E+01 -0.5019472674947E+00
 0.1481058984164E+00 -0.2921309815459E+01 -0.1303405837704E+01 -0.5353136793634E+00
 0.1863731913722E+00 -0.2935124383382E+01 -0.1291913056968E+01 -0.5782648950670E+00
 0.2084365627114E+00 -0.2948257747720E+01 -0.1287715953688E+01 -0.6303195085966E+00
 0.2147439822069E+00 -0.2960922485187E+01 -0.1290703893127E+01 -0.6905504265082E+00
 0.2051538414454E+00 -0.2972753407504E+01 -0.1300771792749E+01 -0.7579676601505E+00
 0.1790435979661E+00 -0.2982790852294E+01 -0.1317761206192E+01 -0.8315714912195E+00
 0.1356799660538E+00 -0.2989613227277E+01 -0.1341348629373E+01 -0.9104984016139E+00
 0.7466377570219E-01 -0.2991783378586E+01 -0.1371046209878E+01 -0.9938262312844E+00
-0.2597662373647E-02 -0.2988701447720E+01 -0.1405910578178E+01 -0.1080088065570E+01
-0.1632180016851E+01 -0.2502525293056E+01 -0.1943311490727E+01 -0.8559437342461E+00
-0.1350782582217E+01 -0.2585557905434E+01 -0.1850080024503E+01 -0.7287771637053E+00
-0.1094321490840E+01 -0.2659055688394E+01 -0.1764087269765E+01 -0.6334377885378E+00
-0.8630164348661E+00 -0.2723113918457E+01 -0.1685481261787E+01 -0.5626936363313E+00
-0.6566399219999E+00 -0.2778226942730E+01 -0.1614387422328E+01 -0.5116939923133E+00
-0.4745265908146E+00 -0.2825239020448E+01 -0.1550889833360E+01 -0.4772054415731E+00
-0.3156969566972E+00 -0.2865220255087E+01 -0.1495031085747E+01 -0.4570099883391E+00
-0.1790250173217E+00 -0.2899328523788E+01 -0.1446826160652E+01 -0.4495322249407E+00
-0.6337424492674E-01 -0.2928717545532E+01 -0.1406283137949E+01 -0.4536228012913E+00
 0.3233391272259E-01 -0.2954509743296E+01 -0.1373422636886E+01 -0.4684441048693E+00
 0.1090857717240E+00 -0.2977787480030E+01 -0.1348289799484E+01 -0.4933771901468E+00
 0.1677099457715E+00 -0.2999541896232E+01 -0.1330961013341E+01 -0.5279502353990E+00
 0.2090390457841E+00 -0.3020688496746E+01 -0.1321475238600E+01 -0.5719096731952E+00
 0.2338623248164E+00 -0.3041957052690E+01 -0.1319804518753E+01 -0.6248428298928E+00
 0.2425311325138E+00 -0.3063646798908E+01 -0.1325924359842E+01 -0.6860070849992E+00
 0.2348586326308E+00 -0.3085550453730E+01 -0.1339825152518E+01 -0.7546113493447E+00
 0.2102165563612E+00 -0.3106984606875E+01 -0.1361480980288E+01 -0.8298442341724E+00
 0.1677799989165E+00 -0.3126971068875E+01 -0.1390819799353E+01 -0.9109049420820E+00
 0.1068507003233E+00 -0.3144538260889E+01 -0.1427713149845E+01 -0.9967228518493E+00
 0.2774886281270E-01 -0.3159167375524E+01 -0.1471766697241E+01 -0.1085387326256E+01
-0.1682698393991E+01 -0.2528068974280E+01 -0.1979060658068E+01 -0.8129176500374E+00
-0.1386044384833E+01 -0.2616847448872E+01 -0.1881359157069E+01 -0.6911031693004E+00
-0.1118237564175E+01 -0.2694650325490E+01 -0.1792057303597E+01 -0.6007242047947E+00
-0.8782839468961E+00 -0.2762294544340E+01 -0.1711071886541E+01 -0.5345068620969E+00
-0.6650853915783E+00 -0.2820764793839E+01 -0.1638349582991E+01 -0.4875365484268E+00
-0.4773801184213E+00 -0.2871216557061E+01 -0.1573840433485E+01 -0.4565235071852E+00
-0.3137934554556E+00 -0.2914912144748E+01 -0.1517491628247E+01 -0.4392307239329E+00
-0.1729379602112E+00 -0.2953135554636E+01 -0.1469254548252E+01 -0.4341050821921E+00
-0.5349903409797E-01 -0.2987135729523E+01 -0.1429098335277E+01 -0.4400516674868E+00
 0.4572451265182E-01 -0.3018115665192E+01 -0.1397023838150E+01 -0.4563030311580E+00
 0.1258004716641E+00 -0.3047233189331E+01 -0.1373073373821E+01 -0.4823172482312E+00
 0.1876197357436E+00 -0.3075564010722E+01 -0.1357333805797E+01 -0.5177010226060E+00
 0.2320001407678E+00 -0.3104096695742E+01 -0.1349885377414E+01 -0.5622339835996E+00
 0.2596352774412E+00 -0.3133630035372E+01 -0.1350777532801E+01 -0.6155791025401E+00
 0.2707943504954E+00 -0.3164584140917E+01 -0.1360081198048E+01 -0.6771552544243E+00
 0.2652362336916E+00 -0.3196951466915E+01 -0.1377906156120E+01 -0.7463335299904E+00
 0.2422702689507E+00 -0.3230356306219E+01 -0.1404400433954E+01 -0.8224344326550E+00
 0.2009168625864E+00 -0.3264211991354E+01 -0.1439748706869E+01 -0.9046863397016E+00
 0.1401019325550E+00 -0.3297919794249E+01 -0.1484174391232E+01 -0.9919181171176E+00
 0.5914636221772E-01 -0.3331052019721E+01 -0.1537795655126E+01 -0.1081981169041E+01
-0.1730889023479E+01 -0.2552677375846E+01 -0.2013276202576E+01 -0.7678073229188E+00
-0.1419348642506E+01 -0.2647038263962E+01 -0.1911201841193E+01 -0.6520220774414E+00
-0.1140502636039E+01 -0.2728986072598E+01 -0.1818659688446E+01 -0.5669521067405E+00
-0.8921688139585E+00 -0.2800045802923E+01 -0.1735340865533E+01 -0.5053793828342E+00
-0.6723943773469E+00 -0.2861687181560E+01 -0.1661018328473E+01 -0.4624029458572E+00
-0.4793263191594E+00 -0.2915382540325E+01 -0.1595513159911E+01 -0.4347337425251E+00
-0.3111918589134E+00 -0.2962597751991E+01 -0.1538681113222E+01 -0.4201507723131E+00
-0.1663361669117E+00 -0.3004754556263E+01 -0.1490412636112E+01 -0.4171402824640E+00
-0.4326158921448E-01 -0.3043206306566E+01 -0.1450639907337E+01 -0.4246665600805E+00
 0.5935842850004E-01 -0.3079244021771E+01 -0.1419346225238E+01 -0.4420307652275E+00
 0.1426738731466E+00 -0.3114106952688E+01 -0.1396573543842E+01 -0.4687630019119E+00
 0.2076311457350E+00 -0.3148957803522E+01 -0.1382423525653E+01 -0.5045415927697E+00
 0.2550386826764E+00 -0.3184866753390E+01 -0.1377019189743E+01 -0.5491868940833E+00
 0.2855145693881E+00 -0.3222722514892E+01 -0.1380487730885E+01 -0.6024365657634E+00
 0.2992538426074E+00 -0.3263089729795E+01 -0.1393002863445E+01 -0.6638451483579E+00
 0.2959463266861E+00 -0.3306182029387E+01 -0.1414810776681E+01 -0.7329118748564E+00
 0.2748050413988E+00 -0.3351925768864E+01 -0.1446246738241E+01 -0.8090514664753E+00
 0.2346534446273E+00 -0.3400086401509E+01 -0.1487753485961E+01 -0.8915085850789E+00
 0.1740069013907E+00 -0.3450393758301E+01 -0.1539901818842E+01 -0.9790525614998E+00
 0.9123872044209E-01 -0.3502587326729E+01 -0.1603333840888E+01 -0.1069432579561E+01
-0.1776501132140E+01 -0.2576176542945E+01 -0.2045758502101E+01 -0.7206893662475E+00
-0.1450577985472E+01 -0.2675910162147E+01 -0.1939449424462E+01 -0.6115924263633E+00
-0.1161094077866E+01 -0.2761814488193E+01 -0.1843767021371E+01 -0.5321717349538E+00
-0.9047134636247E+00 -0.2836105132306E+01 -0.1758184735628E+01 -0.4753607923130E+00
-0.6786521921336E+00 -0.2900727135840E+01 -0.1682308279881E+01 -0.4363454772951E+00
-0.4804779078889E+00 -0.2957469089335E+01 -0.1615835084597E+01 -0.4118903180452E+00
-0.3080231153543E+00 -0.3008005864043E+01 -0.1558533616364E+01 -0.3998232054498E+00
-0.1593648763805E+00 -0.3053904180316E+01 -0.1510236452817E+01 -0.3986863508994E+00
-0.3282123621773E-01 -0.3096628373621E+01 -0.1470841312894E+01 -0.4075083547372E+00
 0.7306036704271E-01 -0.3137563006619E+01 -0.1440316236948E+01 -0.4256577625273E+00
 0.1595119342349E+00 -0.3178033428007E+01 -0.1418705098474E+01 -0.4527320904035E+00
 0.2275309945182E+00 -0.3219292167225E+01 -0.1406127747606E+01 -0.4884749846309E+00
 0.2779204469289E+00 -0.3262499864469E+01 -0.1402752322686E+01 -0.5327502434596E+00
 0.3112365235915E+00 -0.3308651481744E+01 -0.1408785026759E+01 -0.5853645326588E+00
 0.3276028792194E+00 -0.3358470661741E+01 -0.1424507854172E+01 -0.6459834813774E+00
 0.3266285260695E+00 -0.3412396162316E+01 -0.1450310785357E+01 -0.7142064772192E+00
 0.3074053724963E+00 -0.3470640589180E+01 -0.1486720548070E+01 -0.7895168108760E+00
 0.2685331219560E+00 -0.3533287584957E+01 -0.1534434593719E+01 -0.8711694144139E+00
 0.2081020271385E+00 -0.3600369979971E+01 -0.1594365933787E+01 -0.9578980369612E+00
 0.1235915733303E+00 -0.3671859537202E+01 -0.1667685938790E+01 -0.1047422702372E+01
-0.1819293420006E+01 -0.2598401025945E+01 -0.2076316384331E+01 -0.6716545430830E+00
-0.1479620871097E+01 -0.2703253163410E+01 -0.1965950791232E+01 -0.5698812484382E+00
-0.1179991418382E+01 -0.2792899364580E+01 -0.1867258663256E+01 -0.4964379822831E+00
-0.9159597617427E+00 -0.2870222672683E+01 -0.1779505739666E+01 -0.4445026381775E+00
-0.6839421466672E+00 -0.2937628775517E+01 -0.1702138329109E+01 -0.4094171448203E+00
-0.4809455250685E+00 -0.2997216730735E+01 -0.1634736256082E+01 -0.3880487137011E+00
-0.3044169430513E+00 -0.3050870852911E+01 -0.1576985260102E+01 -0.3783047357039E+00
-0.1521693899224E+00 -0.3100306125679E+01 -0.1528663488455E+01 -0.3787991286994E+00
-0.2233867151605E-01 -0.3147101637821E+01 -0.1489636941610E+01 -0.3886299168120E+00
 0.8665238744933E-01 -0.3192739070077E+01 -0.1459860737132E+01 -0.4072319543047E+00
 0.1761166141538E+00 -0.3238633206250E+01 -0.1439382794634E+01 -0.4342656692966E+00
 0.2470991373593E+00 -0.3286129094671E+01 -0.1428344076313E+01 -0.4695337806086E+00
 0.3003999135358E+00 -0.3336484806671E+01 -0.1426959896154E+01 -0.5129427756234E+00
 0.3365222958552E+00 -0.3390812406066E+01 -0.1435516348158E+01 -0.5643603564619E+00
 0.3555195894984E+00 -0.3450000159395E+01 -0.1454405864162E+01 -0.6235417688135E+00
 0.3569102969051E+00 -0.3514706415193E+01 -0.1484164171831E+01 -0.6901644788264E+00
 0.3396468678728E+00 -0.3585409153312E+01 -0.1525508270287E+01 -0.7637626820126E+00
 0.3020865473327E+00 -0.3662478039309E+01 -0.1579383997223E+01 -0.8435986687221E+00
 0.2418887791998E+00 -0.3746221597064E+01 -0.1647036420219E+01 -0.9283862993299E+00
 0.1557429808917E+00 -0.3836837511401E+01 -0.1730114424951E+01 -0.1015862169533E+01
-0.1859036097673E+01 -0.2619195117195E+01 -0.2104768665650E+01 -0.6208072848172E+00
-0.1506372252309E+01 -0.2728868751993E+01 -0.1990563266973E+01 -0.5269633235919E+00
-0.1197176362595E+01 -0.2822017480442E+01 -0.1889021101436E+01 -0.4598099237290E+00
-0.9259486701513E+00 -0.2902161921614E+01 -0.1799211973566E+01 -0.4128585927556E+00
-0.6883449635627E+00 -0.2972148582121E+01 -0.1720431962108E+01 -0.3816724291770E+00
-0.4808367553615E+00 -0.3034376453450E+01 -0.1652150203951E+01 -0.3632667907832E+00
-0.3005003924148E+00 -0.3090935409595E+01 -0.1593974822902E+01 -0.3556568479348E+00
-0.1448931473173E+00 -0.3143688387940E+01 -0.1545633317650E+01 -0.3575428820200E+00
-0.1197368888832E-01 -0.3194330294632E+01 -0.1506962868432E+01 -0.3680971944094E+00
 0.9995642972081E-01 -0.3244441496464E+01 -0.1477907977621E+01 -0.3868198495726E+00
 0.1922885151497E+00 -0.3295528070186E+01 -0.1458522587168E+01 -0.4134296705713E+00
 0.2661120451591E+00 -0.3349029246219E+01 -0.1448971080823E+01 -0.4477821552772E+00
 0.3222255391416E+00 -0.3406304819724E+01 -0.1449517258197E+01 -0.4898235335508E+00
 0.3610856090199E+00 -0.3468589328587E+01 -0.1460526744492E+01 -0.5394739271178E+00
 0.3826755476962E+00 -0.3536934717069E+01 -0.1482501805845E+01 -0.5965603014309E+00
 0.3864158209616E+00 -0.3612207433906E+01 -0.1516122054239E+01 -0.6608213737497E+00
 0.3711059250607E+00 -0.3695126905980E+01 -0.1562289857069E+01 -0.7318307453941E+00
 0.3348480806074E+00 -0.3786315169261E+01 -0.1622189527553E+01 -0.8088591292878E+00
 0.2748803103959E+00 -0.3886315976044E+01 -0.1697374758550E+01 -0.8906172258908E+00
 0.1872096746330E+00 -0.3995517414273E+01 -0.1789904633091E+01 -0.9748906988072E+00
-0.1895512770945E+01 -0.2638413751003E+01 -0.2130945459911E+01 -0.5682651021535E+00
-0.1530734210929E+01 -0.2752571044732E+01 -0.2013153465055E+01 -0.4829205837809E+00
-0.1212632786497E+01 -0.2848959651992E+01 -0.1908948441248E+01 -0.4223504839601E+00
-0.9347198677971E+00 -0.2931700831347E+01 -0.1817217723989E+01 -0.3804845606702E+00
-0.6919380749855E+00 -0.3004056878761E+01 -0.1737117623855E+01 -0.3531678154105E+00
-0.4802550647979E+00 -0.3068711782484E+01 -0.1668014413992E+01 -0.3376055589712E+00
-0.2963963610582E+00 -0.3127953224466E+01 -0.1609444301114E+01 -0.3319466271785E+00
-0.1376758283678E+00 -0.3183788540338E+01 -0.1561088249332E+01 -0.3349910888528E+00
-0.1882901316380E-02 -0.3238026944810E+01 -0.1522757623817E+01 -0.3459899460022E+00
 0.1127969322332E+00 -0.3292347031759E+01 -0.1494388542987E+01 -0.3645072534722E+00
 0.2078299714789E+00 -0.3348346322227E+01 -0.1476042681108E+01 -0.3903156910611E+00
 0.2843467846189E+00 -0.3407558320304E+01 -0.1467909418049E+01 -0.4233173051567E+00
 0.3431452323408E+00 -0.3471445894967E+01 -0.1470301307705E+01 -0.4634939316162E+00
 0.3846396241804E+00 -0.3541366742996E+01 -0.1483661742080E+01 -0.5108098080198E+00
 0.4087436901274E+00 -0.3618530670723E+01 -0.1508599877053E+01 -0.5651492488598E+00
 0.4147747393479E+00 -0.3703996857971E+01 -0.1545934391832E+01 -0.6263000661843E+00
 0.4013705953777E+00 -0.3798700116432E+01 -0.1596744870845E+01 -0.6938692613616E+00
 0.3663738925975E+00 -0.3903478558653E+01 -0.1662439188830E+01 -0.7671421134401E+00
 0.3066193065369E+00 -0.4019066294522E+01 -0.1744850079928E+01 -0.8448463184343E+00
 0.2175243814995E+00 -0.4145995865267E+01 -0.1846381592688E+01 -0.9248437524146E+00
-0.1928522177286E+01 -0.2655923214453E+01 -0.2154689328652E+01 -0.5141578943670E+00
-0.1552616522440E+01 -0.2774187886542E+01 -0.2033598067064E+01 -0.4378415966217E+00
-0.1226346671466E+01 -0.2873531893313E+01 -0.1926942920558E+01 -0.3841261897317E+00
-0.9423112962803E+00 -0.2958633076225E+01 -0.1833443850427E+01 -0.3474387630145E+00
-0.6947948424895E+00 -0.3033139399845E+01 -0.1752129089453E+01 -0.3239621719145E+00
-0.4792986750534E+00 -0.3100000814760E+01 -0.1682270755946E+01 -0.3111297221697E+00
-0.2922220929013E+00 -0.3161691571281E+01 -0.1623339418049E+01 -0.3072473302978E+00
-0.1306514652233E+00 -0.3220356905989E+01 -0.1574973930475E+01 -0.3112269411701E+00
 0.7782533089181E-02 -0.3277916414420E+01 -0.1536962920327E+01 -0.3224021468047E+00
 0.1250035383713E+00 -0.3336144429713E+01 -0.1509236215102E+01 -0.3403996214271E+00
 0.2225483016903E+00 -0.3396728226829E+01 -0.1491864561031E+01 -0.3650414089246E+00
 0.3015851280127E+00 -0.3461293832131E+01 -0.1485063087169E+01 -0.3962700929858E+00
 0.3629115804442E+00 -0.3531405726103E+01 -0.1489192244682E+01 -0.4340984977256E+00
 0.4069032574710E+00 -0.3608541615865E+01 -0.1504770024628E+01 -0.4785275121089E+00
 0.4334055256100E+00 -0.3694059796965E+01 -0.1532507503650E+01 -0.5294877076279E+00
 0.4416302762167E+00 -0.3789194312447E+01 -0.1573355093038E+01 -0.5868080026760E+00
 0.4300503837558E+00 -0.3895068120966E+01 -0.1628558332358E+01 -0.6501277197903E+00
 0.3962517671491E+00 -0.4012699238672E+01 -0.1699730307304E+01 -0.7187575171504E+00
 0.3366889602158E+00 -0.4142968720059E+01 -0.1788951482589E+01 -0.7914654029201E+00
 0.2462631354555E+00 -0.4286507886462E+01 -0.1898915028157E+01 -0.8662156371313E+00
-0.1957879822802E+01 -0.2671601782510E+01 -0.2175856348978E+01 -0.4586271222919E+00
-0.1571937160491E+01 -0.2793561896027E+01 -0.2051784551360E+01 -0.3918210454534E+00
-0.1238305993565E+01 -0.2895556619091E+01 -0.1942915423020E+01 -0.3452069343052E+00
-0.9487586572358E+00 -0.2982769397713E+01 -0.1847818181139E+01 -0.3137817701070E+00
-0.6969837336574E+00 -0.3059198898527E+01 -0.1765405832649E+01 -0.2941169908784E+00
-0.4780594157229E+00 -0.3128038222242E+01 -0.1694865885545E+01 -0.2839080159143E+00
-0.2880876827491E+00 -0.3191933803414E+01 -0.1635610094348E+01 -0.2816387017846E+00
-0.1239465791458E+00 -0.3253159621673E+01 -0.1587239910359E+01 -0.2863435516763E+00
 0.1687917314199E-01 -0.3313739469453E+01 -0.1549524335336E+01 -0.2974420517882E+00
 0.1364138180375E+00 -0.3375538948875E+01 -0.1522388807632E+01 -0.3146219916791E+00
 0.2362590906944E+00 -0.3440331524802E+01 -0.1505914040211E+01 -0.3377504259148E+00
 0.3176175808664E+00 -0.3509832098598E+01 -0.1500340819529E+01 -0.3668048253111E+00
 0.3812867706312E+00 -0.3585702777607E+01 -0.1506075519459E+01 -0.4018243716447E+00
 0.4276069384805E+00 -0.3669535087077E+01 -0.1523706225975E+01 -0.4428402276120E+00
 0.4563575711840E+00 -0.3762823912164E+01 -0.1554039176319E+01 -0.4898210567345E+00
 0.4666462063477E+00 -0.3866958901103E+01 -0.1598146962481E+01 -0.5426324816463E+00
 0.4567830343575E+00 -0.3983224226707E+01 -0.1657427356200E+01 -0.6009490864981E+00
 0.4241068193624E+00 -0.4112784131871E+01 -0.1733678332482E+01 -0.6641212298765E+00
 0.3647184429734E+00 -0.4256628208972E+01 -0.1829197585380E+01 -0.7309827680158E+00
 0.2730608122794E+00 -0.4415445308558E+01 -0.1946920708313E+01 -0.7996280320271E+00
-0.1983419443467E+01 -0.2685340251484E+01 -0.2194317051062E+01 -0.4018248770971E+00
-0.1588622723293E+01 -0.2810551445855E+01 -0.2067611854256E+01 -0.3449591994100E+00
-0.1248500552372E+01 -0.2914873811918E+01 -0.1956785946253E+01 -0.3056657436323E+00
-0.9540948667932E+00 -0.3003938933260E+01 -0.1860275881306E+01 -0.2795764885828E+00
-0.6985674732334E+00 -0.3082056715087E+01 -0.1776893364004E+01 -0.2636965125320E+00
-0.4766215755136E+00 -0.3152637169654E+01 -0.1705751605903E+01 -0.2560133624260E+00
-0.2840946061335E+00 -0.3218481721604E+01 -0.1646210869861E+01 -0.2552070524494E+00
-0.1176783596734E+00 -0.3281981548326E+01 -0.1597840152707E+01 -0.2604438720642E+00
 0.2527350822715E-01 -0.3345256379625E+01 -0.1560391945599E+01 -0.2712319056345E+00
 0.1468759358136E+00 -0.3410256732327E+01 -0.1533788970471E+01 -0.2873184653951E+00
 0.2487893855987E+00 -0.3478836885458E+01 -0.1518122321084E+01 -0.3086114963823E+00
 0.3322472192354E+00 -0.3552795154162E+01 -0.1513657525576E+01 -0.3351181737961E+00
 0.3980471351603E+00 -0.3633885114172E+01 -0.1520843846278E+01 -0.3668996797160E+00
 0.4464977686555E+00 -0.3723803560902E+01 -0.1540333718449E+01 -0.4040122183770E+00
 0.4773168922066E+00 -0.3824168380407E+01 -0.1573020195464E+01 -0.4464568692615E+00
 0.4895122854192E+00 -0.3936505169889E+01 -0.1620086651592E+01 -0.4941344213522E+00
 0.4812390789296E+00 -0.4062233913624E+01 -0.1683067568037E+01 -0.5467605605843E+00
 0.4496044509204E+00 -0.4202635427428E+01 -0.1763924554484E+01 -0.6037418076301E+00
 0.3903853067107E+00 -0.4358775978405E+01 -0.1865143610966E+01 -0.6640046328653E+00
 0.2976158263311E+00 -0.4531367773316E+01 -0.1989863410036E+01 -0.7258035702260E+00
-0.2004994447614E+01 -0.2697042525650E+01 -0.2209957371829E+01 -0.3439128202032E+00
-0.1602608848750E+01 -0.2825031626482E+01 -0.2080991018081E+01 -0.2973613448388E+00
-0.1256921824131E+01 -0.2931342182819E+01 -0.1968484078273E+01 -0.2655785153571E+00
-0.9583495459209E+00 -0.3021990531957E+01 -0.1870759831858E+01 -0.2448880863392E+00
-0.6996022454212E+00 -0.3101554306205E+01 -0.1786543574733E+01 -0.2327677308804E+00
-0.4750608238374E+00 -0.3173631150204E+01 -0.1714885223450E+01 -0.2275228482966E+00
-0.2803343403411E+00 -0.3241157814976E+01 -0.1655101308801E+01 -0.2280451051659E+00
-0.1119529528881E+00 -0.3306629020649E+01 -0.1606733523487E+01 -0.2336403203415E+00
 0.3284404655176E-01 -0.3372250303095E+01 -0.1569520936594E+01 -0.2439072879015E+00
 0.1562511681556E+00 -0.3440049002686E+01 -0.1543384978315E+01 -0.2586512166305E+00
 0.2599806919019E+00 -0.3511953156200E+01 -0.1528427054344E+01 -0.2778171371866E+00
 0.3452932262906E+00 -0.3589837377645E+01 -0.1524935747269E+01 -0.3014372826995E+00
 0.4129872342283E+00 -0.3675538732950E+01 -0.1533399200510E+01 -0.3295909028371E+00
 0.4633440049352E+00 -0.3770848965954E+01 -0.1554527327736E+01 -0.3623550834774E+00
 0.4960256544979E+00 -0.3877494364584E+01 -0.1589290289709E+01 -0.3997596286412E+00
 0.5099483106089E+00 -0.3997117170169E+01 -0.1638969359836E+01 -0.4417410154350E+00
 0.5031246741073E+00 -0.4131250088992E+01 -0.1705218940671E+01 -0.4880636040762E+00
 0.4724514287952E+00 -0.4281265574394E+01 -0.1790142643891E+01 -0.5382073389989E+00
 0.4134149649002E+00 -0.4448281803865E+01 -0.1896387409504E+01 -0.5912181386038E+00
 0.3196869285882E+00 -0.4633009417254E+01 -0.2027261564531E+01 -0.6455425458602E+00
-0.2022479137206E+01 -0.2706626095460E+01 -0.2222679453716E+01 -0.2850610037215E+00
-0.1613840542589E+01 -0.2836895108625E+01 -0.2091845750765E+01 -0.2491371715231E+00
-0.1263562770159E+01 -0.2944840219181E+01 -0.1977949399973E+01 -0.2250237267251E+00
-0.9615485013017E+00 -0.3036793953573E+01 -0.1879220949025E+01 -0.2097838621153E+00
-0.7001369155267E+00 -0.3117554637197E+01 -0.1794315025229E+01 -0.2014002993970E+00
-0.4734431819139E+00 -0.3190875650620E+01 -0.1722229846923E+01 -0.1985175511825E+00
-0.2768870654909E+00 -0.3259807291835E+01 -0.1662246343727E+01 -0.2002516368725E+00
-0.1068638598788E+00 -0.3326932348810E+01 -0.1613884213991E+01 -0.2060541458573E+00
 0.3948326034002E-01 -0.3394530389244E+01 -0.1576872146586E+01 -0.2156161219996E+00
 0.1644162347649E+00 -0.3464695936476E+01 -0.1551131455870E+01 -0.2287990677077E+00
 0.2696917225816E+00 -0.3539422226214E+01 -0.1536773332809E+01 -0.2455816766045E+00
 0.3565940829512E+00 -0.3620651603726E+01 -0.1534107030873E+01 -0.2660171664479E+00
 0.4259234481758E+00 -0.3710295159803E+01 -0.1543654700549E+01 -0.2901994019286E+00
 0.4779388655243E+00 -0.3810227966107E+01 -0.1566175873301E+01 -0.3182231044280E+00
 0.5122547788942E+00 -0.3922269603666E+01 -0.1602706963578E+01 -0.3501445670323E+00
 0.5277070743946E+00 -0.4048160467202E+01 -0.1654613090423E+01 -0.3859377262539E+00
 0.5221832050629E+00 -0.4189525543954E+01 -0.1723650894907E+01 -0.4254238110109E+00
 0.4923955517908E+00 -0.4347808824987E+01 -0.1812044233806E+01 -0.4681729904755E+00
 0.4335776344610E+00 -0.4524162830823E+01 -0.1922575037414E+01 -0.5133762334631E+00
 0.3390856801943E+00 -0.4719281509774E+01 -0.2058692034681E+01 -0.5597039231642E+00
-0.2035769791247E+01 -0.2714022493431E+01 -0.2232402368137E+01 -0.2254466194609E+00
-0.1622272457996E+01 -0.2846052921510E+01 -0.2100112923041E+01 -0.2004001443520E+00
-0.1268417659630E+01 -0.2955267131766E+01 -0.1985131846921E+01 -0.1840821321248E+00
-0.9637132555148E+00 -0.3048240947930E+01 -0.1885618470837E+01 -0.1743330774315E+00
-0.7002123308002E+00 -0.3129943429128E+01 -0.1800173202600E+01 -0.1696663562878E+00
-0.4718241020623E+00 -0.3204249634507E+01 -0.1727754651805E+01 -0.1690822371241E+00
-0.2738205041277E+00 -0.3274299884905E+01 -0.1667616578616E+01 -0.1719309386376E+00
-0.1024905060331E+00 -0.3342748046754E+01 -0.1619262115703E+01 -0.1778145528889E+00
 0.4509932306355E-01 -0.3411934554955E+01 -0.1582412554976E+01 -0.1865173697610E+00
 0.1712653755067E+00 -0.3484010144877E+01 -0.1556990037655E+01 -0.1979556589064E+00
 0.2778008321341E+00 -0.3561023398779E+01 -0.1543114602409E+01 -0.2121387888419E+00
 0.3660103565498E+00 -0.3644974591109E+01 -0.1541113186334E+01 -0.2291374754168E+00
 0.4366970507748E+00 -0.3737838181803E+01 -0.1551536327648E+01 -0.2490572186930E+00
 0.4901036848223E+00 -0.3841560015437E+01 -0.1575184471394E+01 -0.2720078424750E+00
 0.5258068230170E+00 -0.3958037664833E+01 -0.1613148491562E+01 -0.2980708411433E+00
 0.5425764696057E+00 -0.4089092190040E+01 -0.1666862384376E+01 -0.3272598781882E+00
 0.5381960212062E+00 -0.4236423025953E+01 -0.1738166687822E+01 -0.3594608655751E+00
 0.5092243413473E+00 -0.4401530156061E+01 -0.1829383728275E+01 -0.3943493752126E+00
 0.4506840826173E+00 -0.4585589658141E+01 -0.1943405615567E+01 -0.4312844903073E+00
 0.3556665629013E+00 -0.4789273273441E+01 -0.2083795148668E+01 -0.4691903629837E+00
-0.2044785571669E+01 -0.2719177693923E+01 -0.2239062729149E+01 -0.1652526563759E+00
-0.1627869121483E+01 -0.2852435126631E+01 -0.2105742991273E+01 -0.1512668366624E+00
-0.1271481904440E+01 -0.2962543671031E+01 -0.1989992015424E+01 -0.1428364306639E+00
-0.9648606321654E+00 -0.3056246184859E+01 -0.1889920199208E+01 -0.1386067405841E+00
-0.6998607094193E+00 -0.3138630230025E+01 -0.1804090736963E+01 -0.1376402690355E+00
-0.4702476677074E+00 -0.3213656812882E+01 -0.1731435101486E+01 -0.1393049369854E+00
-0.2711889159931E+00 -0.3284531396527E+01 -0.1671188542646E+01 -0.1431921091598E+00
-0.9889700336426E-01 -0.3353960743514E+01 -0.1622843136916E+01 -0.1490576043210E+00
 0.4961761041891E-01 -0.3424331874284E+01 -0.1586115699994E+01 -0.1567794412475E+00
 0.1767121402403E+00 -0.3497839677894E+01 -0.1560929938738E+01 -0.1663272552355E+00
 0.2842081032837E+00 -0.3576577165069E+01 -0.1547413455114E+01 -0.1777385774528E+00
 0.3734270663960E+00 -0.3662591724355E+01 -0.1545907385320E+01 -0.1910987226982E+00
 0.4451767714531E+00 -0.3757909593597E+01 -0.1556984422458E+01 -0.2065222788317E+00
 0.4996904783003E+00 -0.3864534159790E+01 -0.1581476526289E+01 -0.2241321475867E+00
 0.5365182288166E+00 -0.3984425642494E+01 -0.1620516480318E+01 -0.2440342359265E+00
 0.5543809827330E+00 -0.4119469230452E+01 -0.1675591472178E+01 -0.2662840442252E+00
 0.5509826141962E+00 -0.4271423268273E+01 -0.1748607102981E+01 -0.2908387427728E+00
 0.5227632559442E+00 -0.4441832082085E+01 -0.1841962343614E+01 -0.3174918230904E+00
 0.4645808971677E+00 -0.4631890495458E+01 -0.1958635506228E+01 -0.3457897199057E+00
 0.3693167038253E+00 -0.4842251441404E+01 -0.2102279321330E+01 -0.3749363776749E+00
-0.2049469237694E+01 -0.2722052450321E+01 -0.2242615187679E+01 -0.1046664904574E+00
-0.1630605103904E+01 -0.2855991370782E+01 -0.2108700337754E+01 -0.1018562375239E+00
-0.1272751916115E+01 -0.2966612793312E+01 -0.1992501408377E+01 -0.1013709130852E+00
-0.9650024108862E+00 -0.3060748010784E+01 -0.1892102693386E+01 -0.1026773543447E+00
-0.6991051367529E+00 -0.3143549284096E+01 -0.1806047573218E+01 -0.1053983152880E+00
-0.4687459363097E+00 -0.3219026672953E+01 -0.1733253121957E+01 -0.1092764251907E+00
-0.2690322736452E+00 -0.3290424949814E+01 -0.1672944890783E+01 -0.1141482110233E+00
-0.9613113549337E-01 -0.3360484734256E+01 -0.1624609454662E+01 -0.1199249415883E+00
 0.5298193178550E-01 -0.3431624524032E+01 -0.1587962014328E+01 -0.1265783651736E+00
 0.1806908568507E+00 -0.3506070476746E+01 -0.1562928417387E+01 -0.1341302488006E+00
 0.2888370551108E+00 -0.3585948287285E+01 -0.1549642275191E+01 -0.1426442840521E+00
 0.3787556087778E+00 -0.3673340848131E+01 -0.1548455058569E+01 -0.1522180707980E+00
 0.4512608587494E+00 -0.3770313863220E+01 -0.1559954908144E+01 -0.1629731190951E+00
 0.5065839766466E+00 -0.3878914524149E+01 -0.1584995353306E+01 -0.1750437161580E+00
 0.5442610612495E+00 -0.4001150313755E+01 -0.1624737944557E+01 -0.1885595336856E+00
 0.5629827659625E+00 -0.4138954726480E+01 -0.1680706817180E+01 -0.2036193361128E+00
 0.5604005703737E+00 -0.4294131221675E+01 -0.1754853401661E+01 -0.2202561933072E+00
 0.5328738082587E+00 -0.4468259889700E+01 -0.1849631453586E+01 -0.2383905184628E+00
 0.4751459212372E+00 -0.4662554012101E+01 -0.1968081797714E+01 -0.2577703140393E+00
 0.3799469926204E+00 -0.4877658757821E+01 -0.2113924524283E+01 -0.2778996892477E+00
-0.2049787659200E+01 -0.2722622564338E+01 -0.2243032799374E+01 -0.4387841978638E-01
-0.1630465137730E+01 -0.2856691307288E+01 -0.2108963523809E+01 -0.5228903617617E-01
-0.1272224992640E+01 -0.2967440162519E+01 -0.1992642617871E+01 -0.5977109018180E-01
-0.9641450643748E+00 -0.3061709015569E+01 -0.1892151412775E+01 -0.6661863358770E-01
-0.6979591837311E+00 -0.3144660180423E+01 -0.1806031096572E+01 -0.7301831295527E-01
-0.4673384425671E+00 -0.3220315243927E+01 -0.1733197228256E+01 -0.7908962120178E-01
-0.2673756389780E+00 -0.3291931919788E+01 -0.1672874548377E+01 -0.8491531814408E-01
-0.9422358832334E-01 -0.3362265137194E+01 -0.1624549696873E+01 -0.9056235826377E-01
 0.5515546668724E-01 -0.3433749240158E+01 -0.1587939069504E+01 -0.9609576829534E-01
 0.1831577516911E+00 -0.3508628216204E+01 -0.1562971114357E+01 -0.1015884187977E+00
 0.2916359510257E+00 -0.3589048120794E+01 -0.1549783715860E+01 -0.1071287004761E+00
 0.3819352328688E+00 -0.3677115158240E+01 -0.1548734560997E+01 -0.1128247735778E+00
 0.4548786617976E+00 -0.3774921650741E+01 -0.1560420200845E+01 -0.1188032459172E+00
 0.5107031855614E+00 -0.3884544450124E+01 -0.1585705390322E+01 -0.1252083055473E+00
 0.5489443411288E+00 -0.4008022779712E+01 -0.1625766862011E+01 -0.1321926385888E+00
 0.5682824634833E+00 -0.4147322939816E+01 -0.1682149019610E+01 -0.1398986436423E+00
 0.5663455026864E+00 -0.4304280745674E+01 -0.1756829559748E+01 -0.1484374820068E+00
 0.5394521879130E+00 -0.4480505448418E+01 -0.1852295027739E+01 -0.1578613214866E+00
 0.4822841582748E+00 -0.4677231856458E+01 -0.1971625413146E+01 -0.1681280748724E+00
 0.3874849251423E+00 -0.4895112290644E+01 -0.2118584856412E+01 -0.1790548629018E+00
-0.2045732117552E+01 -0.2720879079657E+01 -0.2240307257006E+01  0.1691984044609E-01
-0.1627444179194E+01 -0.2854524875209E+01 -0.2106525450226E+01 -0.2686888148631E-02
-0.1269899239200E+01 -0.2965014475232E+01 -0.1990409440735E+01 -0.1812330612670E-01
-0.9622895848662E+00 -0.3059116396072E+01 -0.1890060806247E+01 -0.3050520040065E-01
-0.6964266572300E+00 -0.3141948266014E+01 -0.1804036209349E+01 -0.4057921398141E-01
-0.4660318740446E+00 -0.3217505582287E+01 -0.1731262600085E+01 -0.4883893635948E-01
-0.2662287552115E+00 -0.3289032522943E+01 -0.1670972796494E+01 -0.5561148598847E-01
-0.9318744345410E-01 -0.3359278628691E+01 -0.1622659049793E+01 -0.6111826899815E-01
 0.5612138724132E-01 -0.3430678249097E+01 -0.1586041721050E+01 -0.6551671739814E-01
 0.1840917031755E+00 -0.3505479491443E+01 -0.1561052256526E+01 -0.6893001656293E-01
 0.2925786907086E+00 -0.3585836121201E+01 -0.1547830988406E+01 -0.7147036640497E-01
 0.3829340615359E+00 -0.3673865091542E+01 -0.1546737580180E+01 -0.7325536822365E-01
 0.4559917432015E+00 -0.3771672128282E+01 -0.1558369777035E+01 -0.7441522474625E-01
 0.5120025129778E+00 -0.3881349256730E+01 -0.1583592965547E+01 -0.7510269303415E-01
 0.5505150564563E+00 -0.4004951609287E+01 -0.1623585175713E+01 -0.7549251196661E-01
 0.5702199072978E+00 -0.4144462626902E+01 -0.1679894073953E+01 -0.7576982347426E-01
 0.5687511912226E+00 -0.4301737890294E+01 -0.1754503744114E+01 -0.7612330077629E-01
 0.5424284410601E+00 -0.4478410016116E+01 -0.1849911335584E+01 -0.7673707657937E-01
 0.4859260763577E+00 -0.4675740033885E+01 -0.1969212555043E+01 -0.7778094717155E-01
 0.3918675291580E+00 -0.4894405635432E+01 -0.2116192904582E+01 -0.7938994133438E-01
-0.2037318387656E+01 -0.2716828395748E+01 -0.2234448982533E+01  0.7753668044781E-01
-0.1621547414814E+01 -0.2849502430655E+01 -0.2101393422040E+01  0.4682832620144E-01
-0.1265773525624E+01 -0.2959347602177E+01 -0.1985806925030E+01  0.2348565464669E-01
-0.9594314050409E+00 -0.3052982108506E+01 -0.1885834346584E+01  0.5587731161261E-02
-0.6945014891759E+00 -0.3135424814123E+01 -0.1800065357985E+01 -0.8160680672795E-02
-0.4648199275918E+00 -0.3210607965440E+01 -0.1727451105343E+01 -0.1861959331771E-01
-0.2655858645165E+00 -0.3281736051124E+01 -0.1667241296122E+01 -0.2635568126556E-01
-0.9301794638837E-01 -0.3351533738245E+01 -0.1618939287671E+01 -0.3174212133996E-01
 0.5588315292376E-01 -0.3422419650312E+01 -0.1582272149759E+01 -0.3502748400970E-01
 0.1834946141972E+00 -0.3496632319538E+01 -0.1557174717561E+01 -0.3638474987536E-01
 0.2916652731868E+00 -0.3576320500359E+01 -0.1543787952855E+01 -0.3594964052859E-01
 0.3817496496556E+00 -0.3663599174601E+01 -0.1542469272812E+01 -0.3384871561758E-01
 0.4545945270768E+00 -0.3760574062698E+01 -0.1553810377801E+01 -0.3021459765335E-01
 0.5104724876610E+00 -0.3869337596760E+01 -0.1578666597273E+01 -0.2520745710741E-01
 0.5489589008298E+00 -0.3991944489059E+01 -0.1618203222363E+01 -0.1902295339458E-01
 0.5687747819062E+00 -0.4130378943649E+01 -0.1673953951773E+01 -0.1188680617127E-01
 0.5675899998296E+00 -0.4286502935781E+01 -0.1747889075464E+01 -0.4061737917613E-02
 0.5417665023424E+00 -0.4461966073416E+01 -0.1842493793731E+01  0.4140829296185E-02
 0.4860267271008E+00 -0.4658060378397E+01 -0.1960855811136E+01  0.1234411667929E-01
 0.3930410133894E+00 -0.4875508330785E+01 -0.2106759633832E+01  0.2009889184207E-01
-0.2024586601968E+01 -0.2710492302622E+01 -0.2225487079513E+01  0.1377821198168E+00
-0.1612790213070E+01 -0.2841654729426E+01 -0.2093589117663E+01  0.9613524528338E-01
-0.1259847482405E+01 -0.2950474545271E+01 -0.1978851347989E+01  0.6496896271795E-01
-0.9555604159159E+00 -0.3043342808652E+01 -0.1879484510780E+01  0.4158467196860E-01
-0.6921677675468E+00 -0.3125126946044E+01 -0.1794128510837E+01  0.2415733919769E-01
-0.4636833506289E+00 -0.3199659790608E+01 -0.1721771272014E+01  0.1147305668992E-01
-0.2654257564245E+00 -0.3270080744672E+01 -0.1661688051301E+01  0.2733293666259E-02
-0.9369255589714E-01 -0.3339070696175E+01 -0.1613398724382E+01 -0.2582796898250E-02
 0.5446446995401E-01 -0.3409017240616E+01 -0.1576639798212E+01 -0.4813291182928E-02
 0.1813913943483E+00 -0.3482135943454E+01 -0.1551349934145E+01 -0.4180740078562E-02
 0.2889218210982E+00 -0.3560558015538E+01 -0.1537669007487E+01 -0.8447325672460E-03
 0.3784090698291E+00 -0.3646383810176E+01 -0.1535948124067E+01  0.5059014154811E-02
 0.4507144747453E+00 -0.3741705634026E+01 -0.1546765840939E+01  0.1339627731721E-01
 0.5061400690582E+00 -0.3848601379405E+01 -0.1570956811878E+01  0.2400035040364E-01
 0.5443007584660E+00 -0.3969108353626E+01 -0.1609659565643E+01  0.3665575544489E-01
 0.5639672913661E+00 -0.4105193894130E+01 -0.1664376499078E+01  0.5109944075299E-01
 0.5628736854924E+00 -0.4258711208340E+01 -0.1737043631333E+01  0.6700085139286E-01
 0.5374649735663E+00 -0.4431318482456E+01 -0.1830111144536E+01  0.8393087944044E-01
 0.4825663690958E+00 -0.4624341696828E+01 -0.1946634399097E+01  0.1013177557719E+00
 0.3909619950539E+00 -0.4838566015734E+01 -0.2090373884418E+01  0.1184103969953E+00
-0.2007600895734E+01 -0.2701907935397E+01 -0.2213469145017E+01  0.1974693183955E+00
-0.1601198019317E+01 -0.2831032761377E+01 -0.2083148461642E+01  0.1451137678096E+00
-0.1252121533073E+01 -0.2938453212311E+01 -0.1969570125335E+01  0.1062401379571E+00
-0.9506610789893E+00 -0.3030259582412E+01 -0.1871032706113E+01  0.7741016844388E-01
-0.6893999069432E+00 -0.3111117309060E+01 -0.1786243086991E+01  0.5629502270920E-01
-0.4625901654542E+00 -0.3184725180768E+01 -0.1714238208376E+01  0.4134419363165E-01
-0.2657120459123E+00 -0.3254133305889E+01 -0.1654327311151E+01  0.3153784649229E-01
-0.9517127426297E-01 -0.3321960835016E+01 -0.1606052087287E+01  0.2621295184263E-01
 0.5190891433921E-01 -0.3390549782167E+01 -0.1569161203899E+01  0.2494389848221E-01
 0.1778295487908E+00 -0.3462079941406E+01 -0.1543597680614E+01  0.2745847421959E-01
 0.2844001593025E+00 -0.3538652893755E+01 -0.1529498781313E+01  0.3357221533722E-01
 0.3729685123904E+00 -0.3622341997578E+01 -0.1527205534165E+01  0.4313931146840E-01
 0.4444117668370E+00 -0.3715212972476E+01 -0.1537276562751E+01  0.5602436711193E-01
 0.4990685226046E+00 -0.3819314221280E+01 -0.1560515474419E+01  0.7205456893655E-01
 0.5366049112902E+00 -0.3936647940292E+01 -0.1598020219577E+01  0.9099532870369E-01
 0.5558588276295E+00 -0.4069145254813E+01 -0.1651244616588E+01  0.1125501676820E+00
 0.5546546010693E+00 -0.4218632655078E+01 -0.1722069681016E+01  0.1363292663811E+00
 0.5295588840524E+00 -0.4386764888060E+01 -0.1812886817286E+01  0.1618001183157E+00
 0.4755530490230E+00 -0.4574900900124E+01 -0.1926693485131E+01  0.1882149569899E+00
 0.3856016967788E+00 -0.4783902441453E+01 -0.2067201344754E+01  0.2145415044335E+00
-0.1986448833788E+01 -0.2691127645587E+01 -0.2198460939730E+01  0.2564160467563E+00
-0.1586806193718E+01 -0.2817707442258E+01 -0.2070121403658E+01  0.1936457782101E+00
-0.1242596957084E+01 -0.2923364015386E+01 -0.1958001652095E+01  0.1472134316196E+00
-0.9447126262891E+00 -0.3013817476278E+01 -0.1860509143488E+01  0.1129890925152E+00
-0.6861629512003E+00 -0.3093483520419E+01 -0.1776433837155E+01  0.8817304588451E-01
-0.4614960690779E+00 -0.3165894307313E+01 -0.1704873472579E+01  0.7090013513552E-01
-0.2663936737698E+00 -0.3233988062441E+01 -0.1645179411846E+01  0.5994257104992E-01
-0.9739725116940E-01 -0.3300305555992E+01 -0.1596920315315E+01  0.5450197913698E-01
 0.4827922508939E-01 -0.3367129729604E+01 -0.1559859733165E+01  0.5406749139599E-01
 0.1728783777785E+00 -0.3436592662433E+01 -0.1533945709897E+01  0.5831680974362E-01
 0.2781769460641E+00 -0.3510754915229E+01 -0.1519311641654E+01  0.6703890394678E-01
 0.3655123856581E+00 -0.3591651005752E+01 -0.1516285147598E+01  0.8007614250807E-01
 0.4357784585693E+00 -0.3681307413247E+01 -0.1525398604830E+01  0.9729197115413E-01
 0.4893568057611E+00 -0.3781728388443E+01 -0.1547414639935E+01  0.1185072370223E+00
 0.5259749011223E+00 -0.3894862677807E+01 -0.1583377251026E+01  0.1434680390803E+00
 0.5445525741438E+00 -0.4022583840262E+01 -0.1634674690929E+01  0.1718483791373E+00
 0.5430272565498E+00 -0.4166670030042E+01 -0.1703112099222E+01  0.2032093677231E+00
 0.5181224252570E+00 -0.4328755298050E+01 -0.1790997445670E+01  0.2369334883119E+00
 0.4650268322698E+00 -0.4510224411252E+01 -0.1901242857300E+01  0.2721225997862E+00
 0.3769533473937E+00 -0.4712023095247E+01 -0.2037482776323E+01  0.3074916144529E+00
-0.1961240658140E+01 -0.2678218824853E+01 -0.2180545951476E+01  0.3144461335173E+00
-0.1569659798306E+01 -0.2801769176371E+01 -0.2054571612887E+01  0.2416158767130E+00
-0.1231275992361E+01 -0.2905309315923E+01 -0.1944195089962E+01  0.1878042134767E+00
-0.9376893515026E+00 -0.2994124849408E+01 -0.1847952669741E+01  0.1482469181056E+00
-0.6824130097849E+00 -0.3072337398933E+01 -0.1764732687621E+01  0.1197129167879E+00
-0.4603450088894E+00 -0.3143282448967E+01 -0.1693704900897E+01  0.1000488729742E+00
-0.2674056284896E+00 -0.3209765799280E+01 -0.1634270566907E+01  0.8783512637549E-01
-0.1002976590187E+00 -0.3274234881453E+01 -0.1586030289999E+01  0.8214610000586E-01
 0.4365627095160E-01 -0.3338901444081E+01 -0.1548765227443E+01  0.8238821787250E-01
 0.1666277890449E+00 -0.3405839026438E+01 -0.1522429277713E+01  0.8818832132533E-01
 0.2703523530291E+00 -0.3477056703828E+01 -0.1507151041053E+01  0.9930642260289E-01
 0.3561518966356E+00 -0.3554539045978E+01 -0.1503241956378E+01  0.1155705007957E+00
 0.4249370586312E+00 -0.3640261495590E+01 -0.1511202481538E+01  0.1368424699931E+00
 0.4771383761933E+00 -0.3736170207092E+01 -0.1531744956637E+01  0.1629357243533E+00
 0.5125529209768E+00 -0.3844141805766E+01 -0.1565846771879E+01  0.1935752919661E+00
 0.5301939074835E+00 -0.3965968903480E+01 -0.1614814244023E+01  0.2284086819932E+00
 0.5281301250606E+00 -0.4103355419679E+01 -0.1680355884208E+01  0.2669586686539E+00
 0.5032724253495E+00 -0.4257890712901E+01 -0.1764670590673E+01  0.3085442173290E+00
 0.4510654971345E+00 -0.4430969630868E+01 -0.1870554938110E+01  0.3521484482340E+00
 0.3650417020170E+00 -0.4623620858593E+01 -0.2001532198514E+01  0.3962690967894E+00
-0.1932108249082E+01 -0.2663263577034E+01 -0.2159824752796E+01  0.3713908378162E+00
-0.1549813288507E+01 -0.2783327259613E+01 -0.2036576052451E+01  0.2889120836863E+00
-0.1218161917727E+01 -0.2884412688948E+01 -0.1928210060246E+01  0.2279293426827E+00
-0.9295609376214E+00 -0.2971312534858E+01 -0.1833410527415E+01  0.1831099637215E+00
-0.6780977752643E+00 -0.3047813976607E+01 -0.1751178518938E+01  0.1508372419305E+00
-0.4590698853456E+00 -0.3117028781152E+01 -0.1680766368991E+01  0.1287005073018E+00
-0.2686698443416E+00 -0.3181612254671E+01 -0.1621632582423E+01  0.1151069806716E+00
-0.1037847964446E+00 -0.3243905593498E+01 -0.1573414479282E+01  0.1090132774976E+00
 0.3813773284643E-01 -0.3306038904766E+01 -0.1535913546906E+01  0.1097458833719E+00
 0.1591867626435E+00 -0.3370017715589E+01 -0.1509090544057E+01  0.1168796333701E+00
 0.2610483253274E+00 -0.3437790269049E+01 -0.1493068709762E+01  0.1301424848028E+00
 0.3450231214492E+00 -0.3511280993904E+01 -0.1488141196279E+01  0.1493445870849E+00
 0.4120385012300E+00 -0.3592403732065E+01 -0.1494771654701E+01  0.1743456825326E+00
 0.4625793294782E+00 -0.3683033911051E+01 -0.1513613649500E+01  0.2049495488378E+00
 0.4965185689222E+00 -0.3784957581511E+01 -0.1545566331997E+01  0.2408561023170E+00
 0.5129703766677E+00 -0.3899861351953E+01 -0.1591838754346E+01  0.2816874409053E+00
 0.5101474696377E+00 -0.4029344597423E+01 -0.1654022645864E+01  0.3269378207833E+00
 0.4851723913410E+00 -0.4174920202400E+01 -0.1734181466799E+01  0.3758857576580E+00
 0.4337908471709E+00 -0.4337966384275E+01 -0.1834962497785E+01  0.4274323199011E+00
 0.3499339459888E+00 -0.4519582752631E+01 -0.1959734934151E+01  0.4799011866585E+00
-0.1899204001605E+01 -0.2646358401907E+01 -0.2136414324232E+01  0.4270901290702E+00
-0.1527330185976E+01 -0.2762509202350E+01 -0.2016224507399E+01  0.3354265161642E+00
-0.1203259190346E+01 -0.2860818105755E+01 -0.1910116324323E+01  0.2675075200978E+00
-0.9202928746153E+00 -0.2945532905892E+01 -0.1816938112230E+01  0.2175055888842E+00
-0.6731571633644E+00 -0.3020070380542E+01 -0.1735816941234E+01  0.1814699003061E+00
-0.4575934140822E+00 -0.3087294975975E+01 -0.1666097539101E+01  0.1567675411662E+00
-0.2700963013722E+00 -0.3149696353062E+01 -0.1607302543508E+01  0.1416539742724E+00
-0.1077574384360E+00 -0.3209499030494E+01 -0.1559110536443E+01  0.1349785909712E+00
 0.3183649309110E-01 -0.3268742997121E+01 -0.1521346053035E+01  0.1359908567115E+00
 0.1506814677465E+00 -0.3329357856387E+01 -0.1493977898872E+01  0.1442120478350E+00
 0.2504064228889E+00 -0.3393222929178E+01 -0.1477123754209E+01  0.1593342564184E+00
 0.3322845484708E+00 -0.3462193313698E+01 -0.1471057115926E+01  0.1811454765473E+00
 0.3972594511002E+00 -0.3538112289245E+01 -0.1476200830184E+01  0.2095026394021E+00
 0.4458757445837E+00 -0.3622774001925E+01 -0.1493142177163E+01  0.2441966475436E+00
 0.4780867207084E+00 -0.3717856558397E+01 -0.1522691819852E+01  0.2848952264207E+00
 0.4931108905503E+00 -0.3824914551769E+01 -0.1565947716801E+01  0.3311930376096E+00
 0.4893107829945E+00 -0.3945408606798E+01 -0.1624365973068E+01  0.3825629844615E+00
 0.4640368366224E+00 -0.4080735456185E+01 -0.1699848346883E+01  0.4382656694649E+00
 0.4133755083959E+00 -0.4232217439288E+01 -0.1794855702967E+01  0.4971601265921E+00
 0.3317494782594E+00 -0.4400999031322E+01 -0.1912547285089E+01  0.5574472826345E+00
-0.1862699452242E+01 -0.2627613731121E+01 -0.2110447190828E+01  0.4813938977963E+00
-0.1502282662255E+01 -0.2739459916533E+01 -0.1993619006974E+01  0.3810560659091E+00
-0.1186573553925E+01 -0.2834688999620E+01 -0.1889993395373E+01  0.3064596508925E+00
-0.9098468903558E+00 -0.2916958838856E+01 -0.1798598688168E+01  0.2513623586489E+00
-0.6675240013527E+00 -0.2989284581012E+01 -0.1718700029352E+01  0.2115361212272E+00
-0.4558290790570E+00 -0.3054263606019E+01 -0.1649743557801E+01  0.1841650183112E+00
-0.2715842662372E+00 -0.3114208168748E+01 -0.1591322440407E+01  0.1673766777532E+00
-0.1121023753829E+00 -0.3171218541869E+01 -0.1543160827194E+01  0.1599249587514E+00
 0.2487879236388E-01 -0.3227238392204E+01 -0.1505109008107E+01  0.1609852672336E+00
 0.1412531029112E+00 -0.3284115232736E+01 -0.1477145197271E+01  0.1700232965871E+00
 0.2385853194551E+00 -0.3343652707376E+01 -0.1459381668621E+01  0.1866907260272E+00
 0.3181141511254E+00 -0.3407628332506E+01 -0.1452071661566E+01  0.2107481726079E+00
 0.3807989443276E+00 -0.3477807744419E+01 -0.1455594132351E+01  0.2420495979752E+00
 0.4272501665498E+00 -0.3555896218367E+01 -0.1470463640625E+01  0.2803688615329E+00
 0.4575043751263E+00 -0.3643448879459E+01 -0.1497393913238E+01  0.3253306723270E+00
 0.4708836342976E+00 -0.3741862632957E+01 -0.1537360125471E+01  0.3764959143571E+00
 0.4658991934118E+00 -0.3852421939314E+01 -0.1591665686537E+01  0.4333188343262E+00
 0.4401353686377E+00 -0.3976361218452E+01 -0.1662026145197E+01  0.4950616873285E+00
 0.3900500781701E+00 -0.4114895816109E+01 -0.1750677492391E+01  0.5605821681925E+00
 0.3106657604697E+00 -0.4269174207021E+01 -0.1860498965160E+01  0.6280193116835E+00
-0.1822783718332E+01 -0.2607153332628E+01 -0.2082070408670E+01  0.5341630576573E+00
-0.1474751046719E+01 -0.2714340774437E+01 -0.1968873150950E+01  0.4257030790835E+00
-0.1168112132982E+01 -0.2806207283012E+01 -0.1867930120779E+01  0.3447092236100E+00
-0.8981813916849E+00 -0.2885782658396E+01 -0.1778463099027E+01  0.2846101668785E+00
-0.6611247500212E+00 -0.2955654077749E+01 -0.1699886044741E+01  0.2409624375909E+00
-0.4536821587941E+00 -0.3018136402455E+01 -0.1631754719648E+01  0.2108104670214E+00
-0.2730236580972E+00 -0.3075356660418E+01 -0.1573738745711E+01  0.1921805079277E+00
-0.1166961296984E+00 -0.3129286645455E+01 -0.1525611900453E+01  0.1837435804329E+00
 0.1740217605757E-01 -0.3181770061034E+01 -0.1487252902167E+01  0.1846038810830E+00
 0.1310555021130E+00 -0.3234568087189E+01 -0.1458650911286E+01  0.1941689168813E+00
 0.2257580347281E+00 -0.3289403303109E+01 -0.1439913272487E+01  0.2120445959384E+00
 0.3027060495283E+00 -0.3347968073486E+01 -0.1431273147630E+01  0.2379579778085E+00
 0.3628743588532E+00 -0.3411945193640E+01 -0.1433063288715E+01  0.2717611250136E+00
 0.4069471259762E+00 -0.3482947320539E+01 -0.1445720087778E+01  0.3132063474072E+00
 0.4350462966977E+00 -0.3562395555394E+01 -0.1469854147859E+01  0.3618602525036E+00
 0.4465925641069E+00 -0.3651505968968E+01 -0.1506309296464E+01  0.4172380594911E+00
 0.4402373385226E+00 -0.3751347701625E+01 -0.1556221866711E+01  0.4787715671044E+00
 0.4137953569005E+00 -0.3862939605678E+01 -0.1621097792814E+01  0.5457394697851E+00
 0.3641096688721E+00 -0.3987334292571E+01 -0.1702915568819E+01  0.6170367473789E+00
 0.2869168381606E+00 -0.4125634307238E+01 -0.1804197205890E+01  0.6908123986821E+00
-0.1779661697945E+01 -0.2585113469567E+01 -0.2051444323527E+01  0.5852705714774E+00
-0.1444823250061E+01 -0.2687328513834E+01 -0.1942111324105E+01  0.4692761169775E+00
-0.1147883499220E+01 -0.2775572378236E+01 -0.1844024257727E+01  0.3821827771441E+00
-0.8852518907166E+00 -0.2852215156248E+01 -0.1756609507618E+01  0.3171803460603E+00
-0.6538802249756E+00 -0.2919394580198E+01 -0.1679439154172E+01  0.2696765043214E+00
-0.4510507847612E+00 -0.2979132370262E+01 -0.1612186078772E+01  0.2366236295108E+00
-0.2742965164712E+00 -0.3033367177365E+01 -0.1554601932160E+01  0.2159755861281E+00
-0.1214068361293E+00 -0.3083941897910E+01 -0.1506513901177E+01  0.2063340847501E+00
 0.9553233950328E-02 -0.3132599443677E+01 -0.1467831714849E+01  0.2067346415158E+00
 0.1202525555878E+00 -0.3181012493398E+01 -0.1438557167122E+01  0.2165232518845E+00
 0.2121089937336E+00 -0.3230818666617E+01 -0.1418793542657E+01  0.2352537240115E+00
 0.2862669112296E+00 -0.3283617790425E+01 -0.1408754909649E+01  0.2626121887972E+00
 0.3437167284630E+00 -0.3341006125301E+01 -0.1408726012941E+01  0.2984521069551E+00
 0.3852275826981E+00 -0.3404504076982E+01 -0.1419059948714E+01  0.3425005497974E+00
 0.4110092490788E+00 -0.3475393729567E+01 -0.1440260702176E+01  0.3942466796510E+00
 0.4205723555350E+00 -0.3554693288803E+01 -0.1473036834900E+01  0.4531415547054E+00
 0.4126913306285E+00 -0.3643218838230E+01 -0.1518347924722E+01  0.5185815019705E+00
 0.3853968507098E+00 -0.3741712789110E+01 -0.1577468487047E+01  0.5898697372481E+00
 0.3359197837122E+00 -0.3850997008518E+01 -0.1652086291468E+01  0.6659775548429E+00
 0.2607835038192E+00 -0.3972113967953E+01 -0.1744325313719E+01  0.7451496112197E+00
-0.1733552030934E+01 -0.2561641676069E+01 -0.2018741037171E+01  0.6346023907943E+00
-0.1412594131400E+01 -0.2658613967682E+01 -0.1913467801715E+01  0.5116908636948E+00
-0.1125897750825E+01 -0.2743000446839E+01 -0.1818382148290E+01  0.4188105058908E+00
-0.8710114542303E+00 -0.2816484946141E+01 -0.1733123303779E+01  0.3490057239673E+00
-0.6457062816943E+00 -0.2880738798981E+01 -0.1657429183714E+01  0.2976066830069E+00
-0.4478270115752E+00 -0.2937485822594E+01 -0.1591097028024E+01  0.2615258835772E+00
-0.2752785406091E+00 -0.2988478789651E+01 -0.1533965941331E+01  0.2386762698259E+00
-0.1260962972699E+00 -0.3035435622846E+01 -0.1485919998686E+01  0.2276043133482E+00
 0.1485140113262E-02 -0.3080000417993E+01 -0.1446902176933E+01  0.2272787820797E+00
 0.1090154362064E+00 -0.3123757444100E+01 -0.1416928740116E+01  0.2369799854094E+00
 0.1978311165865E+00 -0.3168257173180E+01 -0.1396100243058E+01  0.2562021017614E+00
 0.2690123042144E+00 -0.3214999504175E+01 -0.1384613980470E+01  0.2845811449738E+00
 0.3235657493641E+00 -0.3265490655369E+01 -0.1382704702315E+01  0.3219785854001E+00
 0.3623620420812E+00 -0.3321162812339E+01 -0.1390636358494E+01  0.3680951840230E+00
 0.3857045962760E+00 -0.3383160491167E+01 -0.1408804267025E+01  0.4223202352008E+00
 0.3931817108759E+00 -0.3452299837349E+01 -0.1437785515796E+01  0.4840153562024E+00
 0.3836635886175E+00 -0.3529114125738E+01 -0.1478361748697E+01  0.5525152822027E+00
 0.3553657763440E+00 -0.3614002155168E+01 -0.1531559094162E+01  0.6271439262268E+00
 0.3058905622812E+00 -0.3707462563383E+01 -0.1598738836463E+01  0.7069922845522E+00
 0.2326175821838E+00 -0.3810457274101E+01 -0.1681584650936E+01  0.7905258082061E+00
-0.1684684308822E+01 -0.2536894387020E+01 -0.1984141982013E+01  0.6820583182654E+00
-0.1378164559639E+01 -0.2628400258525E+01 -0.1883085459761E+01  0.5528714326558E+00
-0.1102166599064E+01 -0.2708724145452E+01 -0.1791118645380E+01  0.4545271919352E+00
-0.8554109577996E+00 -0.2778838310506E+01 -0.1708097151772E+01  0.3800206232545E+00
-0.6365143521838E+00 -0.2839935398699E+01 -0.1633931378771E+01  0.3246813038246E+00
-0.4438976307034E+00 -0.2893444016412E+01 -0.1568550570166E+01  0.2854393341685E+00
-0.2758406298122E+00 -0.2940941360025E+01 -0.1511887531389E+01  0.2602004257867E+00
-0.1306221019843E+00 -0.2984028456367E+01 -0.1463885758712E+01  0.2474698104513E+00
-0.6645007131532E-02 -0.3024255141093E+01 -0.1424523066052E+01  0.2461505391010E+00
 0.9751970697119E-01 -0.3063119522773E+01 -0.1393831909892E+01  0.2554522284188E+00
 0.1831228382226E+00 -0.3102085298256E+01 -0.1371912352736E+01  0.2748004728403E+00
 0.2511638236342E+00 -0.3142544671627E+01 -0.1358948995110E+01  0.3037690499778E+00
 0.3026645519240E+00 -0.3185910943946E+01 -0.1355125800813E+01  0.3422378665184E+00
 0.3386231206742E+00 -0.3233530326962E+01 -0.1360606383504E+01  0.3898851604220E+00
 0.3594474075329E+00 -0.3286418108555E+01 -0.1375676225991E+01  0.4459777441982E+00
 0.3647951548760E+00 -0.3345199357203E+01 -0.1400789971541E+01  0.5097588588295E+00
 0.3535870840760E+00 -0.3410125057144E+01 -0.1436572843698E+01  0.5804578995102E+00
 0.3241713864175E+00 -0.3481179849008E+01 -0.1483793973654E+01  0.6573916932994E+00
 0.2744660364567E+00 -0.3558408429922E+01 -0.1543452921014E+01  0.7398060172200E+00
 0.2028205404688E+00 -0.3642597845751E+01 -0.1616695329382E+01  0.8265511164640E+00
-0.1633294975356E+01 -0.2511032132176E+01 -0.1947833735600E+01  0.7275530258579E+00
-0.1341640807111E+01 -0.2596900950800E+01 -0.1851114621523E+01  0.5927526471148E+00
-0.1076703404883E+01 -0.2672993483463E+01 -0.1762357533053E+01  0.4892737993364E+00
-0.8383999891392E+00 -0.2739541188020E+01 -0.1681632348999E+01  0.4101605972798E+00
-0.6262113862213E+00 -0.2797247662092E+01 -0.1609025748626E+01  0.3508272320822E+00
-0.4391451033280E+00 -0.2847264544555E+01 -0.1544612530587E+01  0.3082854467245E+00
-0.2758502996470E+00 -0.2891012154680E+01 -0.1488425349759E+01  0.2804684628422E+00
-0.1348401627509E+00 -0.2929987342919E+01 -0.1440468924011E+01  0.2658529976966E+00
-0.1467904392856E-01 -0.2965650051564E+01 -0.1400754671329E+01  0.2632762782953E+00
 0.8594202007749E-01 -0.2999417565822E+01 -0.1369333503027E+01  0.2718718912738E+00
 0.1681851569590E+00 -0.3032670604486E+01 -0.1346308156923E+01  0.2909863741770E+00
 0.2329459578956E+00 -0.3066686607425E+01 -0.1331858101901E+01  0.3201144949838E+00
 0.2812582585139E+00 -0.3102782205916E+01 -0.1326116251915E+01  0.3591689889312E+00
 0.3142746821535E+00 -0.3142223172363E+01 -0.1329135787028E+01  0.4078137006774E+00
 0.3325452583190E+00 -0.3185881310588E+01 -0.1341067941165E+01  0.4651759771579E+00
 0.3357847988143E+00 -0.3234238588151E+01 -0.1362273277533E+01  0.5303577067650E+00
 0.3229248717648E+00 -0.3287299199018E+01 -0.1393255930275E+01  0.6024226029735E+00
 0.2923268413091E+00 -0.3344628619895E+01 -0.1434581832297E+01  0.6806056747875E+00
 0.2421433289115E+00 -0.3405591693821E+01 -0.1486820727736E+01  0.7643038715312E+00
 0.1718205204471E+00 -0.3470617573554E+01 -0.1550434611028E+01  0.8529649681220E+00
-0.1579621124059E+01 -0.2484210088644E+01 -0.1910000665126E+01  0.7710173185453E+00
-0.1303130568664E+01 -0.2564333637491E+01 -0.1817708172283E+01  0.6312850378544E+00
-0.1049526950604E+01 -0.2636084272054E+01 -0.1732237270256E+01  0.5230004837289E+00
-0.8199251215791E+00 -0.2698881139713E+01 -0.1653838938613E+01  0.4393612489932E+00
-0.6147007155537E+00 -0.2752953347395E+01 -0.1582797405571E+01  0.3759671938684E+00
-0.4334462648783E+00 -0.2799209043427E+01 -0.1519347991050E+01  0.3299832807200E+00
-0.2751740600950E+00 -0.2838953102601E+01 -0.1463639762755E+01  0.2994026650862E+00
-0.1386068164343E+00 -0.2873582512770E+01 -0.1415728981135E+01  0.2826822601316E+00
-0.2246108389695E-01 -0.2904472717934E+01 -0.1375658883371E+01  0.2785930622011E+00
 0.7445693626532E-01 -0.2932966740924E+01 -0.1343499604782E+01  0.2861882612480E+00
 0.1532180651229E+00 -0.2960374258847E+01 -0.1319363407704E+01  0.3047235734060E+00
 0.2145838471227E+00 -0.2987850702495E+01 -0.1303435418719E+01  0.3335908268473E+00
 0.2595902652356E+00 -0.3016614771039E+01 -0.1295801514441E+01  0.3727539088853E+00
 0.2895809790404E+00 -0.3047853161671E+01 -0.1296387922548E+01  0.4218735390401E+00
 0.3052575957102E+00 -0.3082291290562E+01 -0.1305205833270E+01  0.4799177575524E+00
 0.3065155219501E+00 -0.3120190682084E+01 -0.1322427321909E+01  0.5458641769911E+00
 0.2921393686304E+00 -0.3161584387600E+01 -0.1348639155495E+01  0.6185505836787E+00
 0.2604285380093E+00 -0.3205625325426E+01 -0.1384242486575E+01  0.6969792296251E+00
 0.2094569367785E+00 -0.3250864498509E+01 -0.1429461550388E+01  0.7805847132020E+00
 0.1400246184802E+00 -0.3296798208448E+01 -0.1483683583522E+01  0.8696908147581E+00
-0.1523866609893E+01 -0.2456532153712E+01 -0.1870787414149E+01  0.8124043040618E+00
-0.1262755996705E+01 -0.2530933224742E+01 -0.1783033929558E+01  0.6684473086824E+00
-0.1020652689824E+01 -0.2598301406077E+01 -0.1700908420759E+01  0.5556720823655E+00
-0.7999426850831E+00 -0.2657191846750E+01 -0.1624853225840E+01  0.4675540362671E+00
-0.6018697126699E+00 -0.2707327470003E+01 -0.1555322671911E+01  0.4000136080468E+00
-0.4266767409788E+00 -0.2749539827592E+01 -0.1492821783442E+01  0.3504484837096E+00
-0.2736774896318E+00 -0.2785025579751E+01 -0.1437590438963E+01  0.3169272413449E+00
-0.1417834898357E+00 -0.2815088697144E+01 -0.1389729924356E+01  0.2978909270929E+00
-0.2983918489798E-01 -0.2841007822460E+01 -0.1349298090036E+01  0.2920461979089E+00
 0.6323180753509E-01 -0.2864074603773E+01 -0.1316396110893E+01  0.2983652277272E+00
 0.1384176857222E+00 -0.2885541499152E+01 -0.1291148189037E+01  0.3160002516101E+00
 0.1962989389184E+00 -0.2906444724825E+01 -0.1273768516145E+01  0.3442058023717E+00
 0.2379020724437E+00 -0.2927900742912E+01 -0.1264299371913E+01  0.3830187024308E+00
 0.2647986550472E+00 -0.2951025168718E+01 -0.1262526458223E+01  0.4321107780594E+00
 0.2778667769435E+00 -0.2976366546147E+01 -0.1268294888309E+01  0.4902581591468E+00
 0.2771229519769E+00 -0.3003989064326E+01 -0.1281627069554E+01  0.5563329045177E+00
 0.2618313945339E+00 -0.3033509007063E+01 -0.1302688474585E+01  0.6290706409167E+00
 0.2290847681763E+00 -0.3065260080973E+01 -0.1333002393633E+01  0.7069688637544E+00
 0.1770851604691E+00 -0.3096046831139E+01 -0.1371911981735E+01  0.7890619591094E+00
 0.1077238565242E+00 -0.3123834179315E+01 -0.1417571848116E+01  0.8768304526938E+00
-0.1466216860796E+01 -0.2428035237499E+01 -0.1830298481556E+01  0.8516906585605E+00
-0.1220547946859E+01 -0.2496827473114E+01 -0.1747166442956E+01  0.7042879745409E+00
-0.9902248954093E+00 -0.2560181284591E+01 -0.1668690900368E+01  0.5872786911120E+00
-0.7783403242597E+00 -0.2614780610801E+01 -0.1594766835434E+01  0.4946409391365E+00
-0.5876025244271E+00 -0.2660638361803E+01 -0.1526673212656E+01  0.4228655072243E+00
-0.4187113899968E+00 -0.2698512003777E+01 -0.1465094991358E+01  0.3695939182562E+00
-0.2712319027096E+00 -0.2729491729906E+01 -0.1410340103752E+01  0.3329684360156E+00
-0.1442264332464E+00 -0.2754772147409E+01 -0.1362529329452E+01  0.3114186116215E+00
-0.3668545590042E-01 -0.2775558873803E+01 -0.1321754831608E+01  0.3035850191297E+00
 0.5243471241204E-01 -0.2793020708339E+01 -0.1288075414819E+01  0.3083751199556E+00
 0.1239706064972E+00 -0.2808493524637E+01 -0.1261725768325E+01  0.3248279904921E+00
 0.1783000093297E+00 -0.2822854241884E+01 -0.1242940486148E+01  0.3519995783373E+00
 0.2164318836213E+00 -0.2837095965099E+01 -0.1231712115170E+01  0.3900337904864E+00
 0.2401855538102E+00 -0.2852315542632E+01 -0.1227701091632E+01  0.4386299152141E+00
 0.2506339822267E+00 -0.2868836688821E+01 -0.1230555268978E+01  0.4963202684592E+00
 0.2479486413774E+00 -0.2886442168999E+01 -0.1240091954837E+01  0.5618620638125E+00
 0.2313786600851E+00 -0.2904595258994E+01 -0.1256411798300E+01  0.6339798939931E+00
 0.2004055526745E+00 -0.2922098176423E+01 -0.1279195529917E+01  0.7113324211943E+00
 0.1453480953009E+00 -0.2943517540814E+01 -0.1315139636055E+01  0.7909098728647E+00
 0.7485575053150E-01 -0.2955647213092E+01 -0.1353971983969E+01  0.8746382473579E+00
-0.1405365890482E+01 -0.2396947987021E+01 -0.1787087517893E+01  0.8891397605027E+00
-0.1177487896306E+01 -0.2463411590050E+01 -0.1711222754247E+01  0.7391326294052E+00
-0.9580507097797E+00 -0.2522134064087E+01 -0.1635686839569E+01  0.6177303648565E+00
-0.7550027564353E+00 -0.2571947956560E+01 -0.1563666831142E+01  0.5204779824164E+00
-0.5717662548173E+00 -0.2613109525102E+01 -0.1496891612765E+01  0.4444104685077E+00
-0.4094356229158E+00 -0.2646377678038E+01 -0.1436232247806E+01  0.3873352518938E+00
-0.2677194445393E+00 -0.2672620241049E+01 -0.1381959648722E+01  0.3474535440583E+00
-0.1458004955202E+00 -0.2692893545171E+01 -0.1334186195741E+01  0.3232082426531E+00
-0.4282368106437E-01 -0.2708379234705E+01 -0.1293065367132E+01  0.3131752012368E+00
 0.4209000040585E-01 -0.2720225859504E+01 -0.1258723850584E+01  0.3161742688751E+00
 0.1101657243780E+00 -0.2729348385791E+01 -0.1231015847742E+01  0.3312285377251E+00
 0.1607906370572E+00 -0.2737429386514E+01 -0.1211020209173E+01  0.3570754934013E+00
 0.1952697392319E+00 -0.2744788809408E+01 -0.1198273959944E+01  0.3938882165960E+00
 0.2161271387648E+00 -0.2752062417786E+01 -0.1191889578117E+01  0.4415883213599E+00
 0.2238240968748E+00 -0.2760417157877E+01 -0.1192198735647E+01  0.4983325721454E+00
 0.2191678329464E+00 -0.2768573010003E+01 -0.1198220430177E+01  0.5626493585708E+00
 0.2016184977594E+00 -0.2775442582936E+01 -0.1209697316965E+01  0.6332842779932E+00
 0.1694353188386E+00 -0.2780753426683E+01 -0.1227319507574E+01  0.7094114708626E+00
 0.1264002312274E+00 -0.2779767954841E+01 -0.1247082826935E+01  0.7892740722702E+00
 0.3708644485807E-01 -0.2806828967249E+01 -0.1301778982222E+01  0.8648901809781E+00
-0.3517998206062E+01 -0.6145570423498E+01 -0.4541877244374E+01 -0.5506020948856E+00
 0.1710891586187E+00 -0.8386778953237E+00 -0.3137667054555E+00  0.4334742193258E+00
 0.7841671436406E-01 -0.1227495033148E+00 -0.2083641075399E-01  0.1509531530172E+00
 0.1235895720124E+00  0.1365713353149E+00  0.1222756261337E+00 -0.1533694785936E-01
 0.1041162990265E+00  0.2461328940111E+00  0.1646171203101E+00 -0.8853829558781E-01
 0.7930577267608E-01  0.3066514177641E+00  0.1813998790468E+00 -0.1147569527118E+00
 0.5624128216321E-01  0.3471172537469E+00  0.1895785113969E+00 -0.1151806210894E+00
 0.3740211237594E-01  0.3759359860795E+00  0.1942689057813E+00 -0.1008592763188E+00
 0.2144131173102E-01  0.3926811838421E+00  0.1946375724257E+00 -0.7819248989789E-01
 0.9437250383953E-02  0.3979207575826E+00  0.1914582632587E+00 -0.4916427267541E-01
 0.6356238976183E-02  0.3940200250512E+00  0.1881768436156E+00 -0.1605790888432E-01
 0.2093891067818E-02  0.3665891412378E+00  0.1732810247442E+00  0.1896080499339E-01
 0.8008324118333E-02  0.3237023642503E+00  0.1559040231378E+00  0.6397860276285E-01
 0.3675164404503E-01  0.2839014667072E+00  0.1507069616713E+00  0.1127171421772E+00
 0.8814437340457E-01  0.2530965929827E+00  0.1603832537952E+00  0.1544663546148E+00
 0.1515222223683E+00  0.2268650909115E+00  0.1778420367905E+00  0.1869002597355E+00
 0.2171285622916E+00  0.2039814778313E+00  0.1979217183558E+00  0.2097177261678E+00
 0.2784178016205E+00  0.1793259486977E+00  0.2151395621039E+00  0.2229263194610E+00
 0.3358233275472E+00  0.1499422357328E+00  0.2283098141625E+00  0.2262253454420E+00
 0.3783130085188E+00  0.8448467900650E-01  0.2175149125852E+00  0.2278025095633E+00
-0.1406804923173E+01 -0.4138183410665E+01 -0.2606144510294E+01 -0.9302457803142E+00
-0.4505723966789E+00 -0.2381608734808E+01 -0.1331125128423E+01  0.4565956541514E-01
 0.1077441692974E+00 -0.6512632389599E+00 -0.2554539620934E+00  0.1662932872667E+00
 0.1102254212486E+00 -0.1785596805898E+00 -0.3211710180893E-01  0.5408601096955E-01
 0.9982063784095E-01  0.2954626270234E-01  0.6080244310113E-01 -0.2671314317003E-01
 0.7152630959299E-01  0.1343063845977E+00  0.9674136602427E-01 -0.6751936964122E-01
 0.4682111052076E-01  0.1995044170497E+00  0.1157729976645E+00 -0.8103064307998E-01
 0.2590142986409E-01  0.2432429354628E+00  0.1264978513828E+00 -0.7692451642377E-01
 0.8689235128797E-02  0.2722513770376E+00  0.1320420873833E+00 -0.6191049600138E-01
-0.3735390951278E-02  0.2894001267116E+00  0.1342624254668E+00 -0.3903732586215E-01
-0.1261705569843E-01  0.2928323509693E+00  0.1317011884433E+00 -0.9607697161591E-02
-0.1689056881950E-01  0.2850934599709E+00  0.1260553585214E+00  0.2366142534140E-01
-0.1053412184273E-01  0.2669795241032E+00  0.1205293387567E+00  0.6306464957390E-01
 0.1145544039468E-01  0.2403986891586E+00  0.1183714405898E+00  0.1034094209763E+00
 0.5086398991327E-01  0.2125257985616E+00  0.1237932002692E+00  0.1366470121557E+00
 0.1026792730488E+00  0.1864338451142E+00  0.1358831651920E+00  0.1612454059440E+00
 0.1570283011908E+00  0.1614437785322E+00  0.1496818770902E+00  0.1771307884897E+00
 0.2094739530737E+00  0.1356777334674E+00  0.1622212922629E+00  0.1850160518362E+00
 0.2560378087662E+00  0.1030934532425E+00  0.1687916927160E+00  0.1857345653781E+00
 0.3008653309106E+00  0.6750307344227E-01  0.1731331496067E+00  0.1871405875211E+00
-0.8853559068380E+00 -0.3412919633488E+01 -0.2020189498829E+01 -0.1075396017834E+01
-0.2964462776874E+00 -0.2503668122339E+01 -0.1316053764674E+01 -0.2892620091342E+00
-0.2352912279841E-01 -0.1318148407039E+01 -0.6305884374243E+00  0.2878028915609E-01
 0.1077304339160E+00 -0.5519434789539E+00 -0.2087801306383E+00  0.5925340323611E-01
 0.9801092475077E-01 -0.2302225511564E+00 -0.6213946425304E-01  0.8795763411583E-02
 0.7174207052226E-01 -0.6373573896869E-01  0.3762975820632E-02 -0.3226172748256E-01
 0.4362722288315E-01  0.3367507794683E-01  0.3633208129794E-01 -0.5328156163407E-01
 0.1986672592579E-01  0.9756910597589E-01  0.5519484085380E-01 -0.5745383103626E-01
 0.3249191782262E-03  0.1413465386424E+00  0.6658558500683E-01 -0.4970670852258E-01
-0.1511287852434E-01  0.1706638129012E+00  0.7310893897170E-01 -0.3293355961403E-01
-0.2675432350309E-01  0.1872746121271E+00  0.7544453546191E-01 -0.8748690671294E-02
-0.3330424104172E-01  0.1951703759060E+00  0.7607708319326E-01  0.1994175350955E-01
-0.2950813417216E-01  0.1942587355341E+00  0.7743278244373E-01  0.5344529311748E-01
-0.1290717366212E-01  0.1805207074568E+00  0.7877836068369E-01  0.8675077732129E-01
 0.1676647689469E-01  0.1588032740281E+00  0.8251778272442E-01  0.1126498519237E+00
 0.5686350594871E-01  0.1346818821507E+00  0.9002633217837E-01  0.1300671153239E+00
 0.1002495704345E+00  0.1102109372908E+00  0.9891643838000E-01  0.1395280011154E+00
 0.1421442389183E+00  0.8456417241400E-01  0.1065529530559E+00  0.1423902979227E+00
 0.1808942022249E+00  0.5877785543805E-01  0.1126458668159E+00  0.1398620636597E+00
 0.2120419521676E+00  0.3382347147320E-01  0.1155567488181E+00  0.1357017118739E+00
-0.6723670327121E+00 -0.2993011989286E+01 -0.1722728135970E+01 -0.1150036527934E+01
-0.2309681249878E+00 -0.2483376447048E+01 -0.1275741945621E+01 -0.5257972242344E+00
-0.2961289767638E-01 -0.1648139183223E+01 -0.7885434760227E+00 -0.1476675298732E+00
 0.7374742222706E-01 -0.9443067373073E+00 -0.4091628770499E+00 -0.7370099235303E-02
 0.9658322337136E-01 -0.5161556767632E+00 -0.1971990525940E+00  0.4849948610320E-02
 0.7414893677353E-01 -0.2861591606571E+00 -0.9964480497254E-01 -0.1732031882364E-01
 0.4531773079253E-01 -0.1496964340113E+00 -0.4905799038840E-01 -0.3663807542254E-01
 0.1855736380788E-01 -0.6167701343964E-01 -0.2026623527553E-01 -0.4503578172056E-01
-0.4026323655594E-02 -0.7557531965489E-03 -0.2247576114806E-02 -0.4294220440560E-01
-0.2261008217546E-01  0.4273375430538E-01  0.9458125877072E-02 -0.3201385896515E-01
-0.3737814601611E-01  0.7293813139570E-01  0.1671319308601E-01 -0.1368716316634E-01
-0.4678290787645E-01  0.9521971706863E-01  0.2276530026258E-01  0.9482744204214E-02
-0.4687187132505E-01  0.1085773464293E+00  0.2900157322542E-01  0.3674352885945E-01
-0.3600046974604E-01  0.1064797024727E+00  0.3312523929750E-01  0.6323556310570E-01
-0.1503310493296E-01  0.9204402761171E-01  0.3619513356721E-01  0.8233450669087E-01
 0.1425317112254E-01  0.7189943938510E-01  0.4049172683589E-01  0.9310485941213E-01
 0.4651161602667E-01  0.4968781700373E-01  0.4521373340961E-01  0.9647270270469E-01
 0.7809190598791E-01  0.2735632797472E-01  0.4956066983673E-01  0.9409475802080E-01
 0.1058570981993E+00  0.6678023581305E-02  0.5289150710271E-01  0.8672701239260E-01
 0.1236108318070E+00 -0.1124023124159E-01  0.5281418213178E-01  0.7541841815583E-01
-0.5875491511827E+00 -0.2725563743698E+01 -0.1557163056644E+01 -0.1190701262505E+01
-0.2181923992298E+00 -0.2423126591291E+01 -0.1241419922396E+01 -0.6935169924905E+00
-0.3661101325407E-01 -0.1830305557438E+01 -0.8774507859995E+00 -0.3124076735019E+00
 0.5592240635609E-01 -0.1237805167731E+01 -0.5554848964372E+00 -0.1094069907078E+00
 0.8495294964567E-01 -0.8007599964794E+00 -0.3364293111585E+00 -0.3825531336176E-01
 0.7492359036325E-01 -0.5212572600036E+00 -0.2097768241989E+00 -0.2790191097583E-01
 0.4840480092701E-01 -0.3474926559434E+00 -0.1405712915012E+00 -0.3546687265942E-01
 0.2044349234871E-01 -0.2333996552685E+00 -0.1000893963184E+00 -0.4244485377139E-01
-0.4743712100214E-02 -0.1536691563740E+00 -0.7445404799405E-01 -0.4328415166171E-01
-0.2640276467260E-01 -0.9501017512912E-01 -0.5706408156207E-01 -0.3712571486084E-01
-0.4439504976840E-01 -0.5106861098709E-01 -0.4486792044128E-01 -0.2448396575777E-01
-0.5715505769727E-01 -0.1542538723249E-01 -0.3411280903046E-01 -0.7088086412541E-02
-0.6178609188644E-01  0.1069039892453E-01 -0.2401497563119E-01  0.1378157392936E-01
-0.5705485722781E-01  0.1943076054480E-01 -0.1768332539616E-01  0.3343836840850E-01
-0.4432514709127E-01  0.1278920235579E-01 -0.1482189398808E-01  0.4589750561425E-01
-0.2515107613130E-01 -0.2101976921108E-02 -0.1280893490214E-01  0.5026751009648E-01
-0.3581830921389E-02 -0.2035817293116E-01 -0.1125180178216E-01  0.4761033021575E-01
 0.1717272420279E-01 -0.3868138768454E-01 -0.1010907181078E-01  0.3955162056506E-01
 0.3346742041810E-01 -0.5496199700476E-01 -0.1010245097011E-01  0.2642084060877E-01
 0.3853964633571E-01 -0.6852684010650E-01 -0.1409398103652E-01  0.7399545044292E-02
-0.5616277864017E+00 -0.2544838475076E+01 -0.1460039139192E+01 -0.1213372260569E+01
-0.2399058631009E+00 -0.2360172013115E+01 -0.1222036598722E+01 -0.8125146004313E+00
-0.5840484600938E-01 -0.1933017332716E+01 -0.9359684216271E+00 -0.4532166921659E+00
 0.3549235229401E-01 -0.1452219873728E+01 -0.6658619333852E+00 -0.2206083194630E+00
 0.7076023258047E-01 -0.1047681093170E+01 -0.4591528033123E+00 -0.1062241000993E+00
 0.6999961087919E-01 -0.7533878888581E+00 -0.3211924898354E+00 -0.6247767019314E-01
 0.4990672111680E-01 -0.5522236408496E+00 -0.2360889516756E+00 -0.5169026996853E-01
 0.2330013508689E-01 -0.4145960821187E+00 -0.1839090946385E+00 -0.5178103942511E-01
-0.2992822451542E-02 -0.3161980803643E+00 -0.1500197239429E+00 -0.5219011908280E-01
-0.2702760178178E-01 -0.2422904466107E+00 -0.1265794824234E+00 -0.4903315029953E-01
-0.4802133542897E-01 -0.1849351732011E+00 -0.1094895587784E+00 -0.4128542346430E-01
-0.6425261849559E-01 -0.1367913688903E+00 -0.9449067383170E-01 -0.2944006887319E-01
-0.7374960512930E-01 -0.9903287472742E-01 -0.8120776532669E-01 -0.1492743426387E-01
-0.7537535427130E-01 -0.8005565001698E-01 -0.7305257183020E-01 -0.2150206562217E-02
-0.7057724866195E-01 -0.7868864574956E-01 -0.7015497019547E-01  0.3674243398749E-02
-0.6086974269174E-01 -0.8751632735302E-01 -0.6974145274415E-01  0.1693846039970E-02
-0.4954366178591E-01 -0.1009982350349E+00 -0.7075469132634E-01 -0.7050528571719E-02
-0.3945795057278E-01 -0.1150607538220E+00 -0.7262379088132E-01 -0.2109109845507E-01
-0.3437003908863E-01 -0.1276540502806E+00 -0.7615132181037E-01 -0.4044032415468E-01
-0.4070023030139E-01 -0.1386256471784E+00 -0.8428316220174E-01 -0.6708005124402E-01
-0.5669504688995E+00 -0.2419961921648E+01 -0.1403848819997E+01 -0.1225661867805E+01
-0.2810828360853E+00 -0.2304730937542E+01 -0.1215332470522E+01 -0.8967588299437E+00
-0.9572997224745E-01 -0.1993617270487E+01 -0.9819932015945E+00 -0.5685865845075E+00
 0.6752393181883E-02 -0.1609177793990E+01 -0.7531399364694E+00 -0.3275294230197E+00
 0.5103454088341E-01 -0.1253430878730E+01 -0.5651262773547E+00 -0.1856880606258E+00
 0.5988206139687E-01 -0.9678516833709E+00 -0.4267457212454E+00 -0.1142452060943E+00
 0.4756365343062E-01 -0.7550766308652E+00 -0.3325310985508E+00 -0.8384426401657E-01
 0.2509099727029E-01 -0.6004500398944E+00 -0.2704187493475E+00 -0.7353085423149E-01
-0.2825055525961E-03 -0.4860090586357E+00 -0.2285570345888E+00 -0.7045196700585E-01
-0.2538773788363E-01 -0.3980367559292E+00 -0.1990095115873E+00 -0.6824610805590E-01
-0.4868387768321E-01 -0.3281799259013E+00 -0.1771259872354E+00 -0.6419639424160E-01
-0.6810499875351E-01 -0.2685627706249E+00 -0.1582338512065E+00 -0.5733003983234E-01
-0.8241656939599E-01 -0.2202105448829E+00 -0.1422347433503E+00 -0.4894877898188E-01
-0.9036502826252E-01 -0.1916313288333E+00 -0.1325382874989E+00 -0.4302576104939E-01
-0.9312371159044E-01 -0.1822833717602E+00 -0.1294413288465E+00 -0.4385434003348E-01
-0.9224286350116E-01 -0.1847189597639E+00 -0.1301720566044E+00 -0.5218913003360E-01
-0.9051420378224E-01 -0.1930916358698E+00 -0.1332947442984E+00 -0.6706079283664E-01
-0.9053060753441E-01 -0.2029365446941E+00 -0.1379295611975E+00 -0.8719670478200E-01
-0.9586059245011E-01 -0.2123885517857E+00 -0.1448770974234E+00 -0.1128245184918E+00
-0.1121639509607E+00 -0.2219476959298E+00 -0.1570324736402E+00 -0.1465163525458E+00
-0.5901842809545E+00 -0.2333374175465E+01 -0.1374072471032E+01 -0.1231550187673E+01
-0.3330018101755E+00 -0.2260072343620E+01 -0.1218744849193E+01 -0.9558145638260E+00
-0.1446936572033E+00 -0.2031721656479E+01 -0.1022915194836E+01 -0.6606561773554E+00
-0.3142038495929E-01 -0.1726820597931E+01 -0.8263732598626E+00 -0.4238514605076E+00
 0.2434632224568E-01 -0.1422982810559E+01 -0.6573591478397E+00 -0.2673436453878E+00
 0.4392716898122E-01 -0.1159706483831E+01 -0.5244162766492E+00 -0.1758305813148E+00
 0.4068448040308E-01 -0.9486611423919E+00 -0.4267490300524E+00 -0.1280763499651E+00
 0.2433327803680E-01 -0.7857642499301E+00 -0.3578725558821E+00 -0.1063834805237E+00
 0.2002553531047E-02 -0.6599324964592E+00 -0.3092270723919E+00 -0.9784401759664E-01
-0.2251742230195E-01 -0.5604577739397E+00 -0.2739983415386E+00 -0.9478064778793E-01
-0.4698751352107E-01 -0.4797709769269E+00 -0.2475764898826E+00 -0.9311416571351E-01
-0.6890824400924E-01 -0.4100714767806E+00 -0.2251204682002E+00 -0.9044789752824E-01
-0.8759598629476E-01 -0.3523355935670E+00 -0.2067678420106E+00 -0.8779908895614E-01
-0.1015202046839E+00 -0.3149564564287E+00 -0.1957440302265E+00 -0.8858093181168E-01
-0.1112967915847E+00 -0.2979361610122E+00 -0.1923394872327E+00 -0.9601064499825E-01
-0.1184865976018E+00 -0.2940078983832E+00 -0.1938724126212E+00 -0.1106497980306E+00
-0.1255195363828E+00 -0.2972615960148E+00 -0.1987071317228E+00 -0.1315874673477E+00
-0.1347645575408E+00 -0.3030505960929E+00 -0.2057731216859E+00 -0.1577268398999E+00
-0.1494530596120E+00 -0.3097377555104E+00 -0.2158196825602E+00 -0.1893698188760E+00
-0.1742839075894E+00 -0.3184782466864E+00 -0.2315982119222E+00 -0.2291959627790E+00
-0.6244391152747E+00 -0.2274224840168E+01 -0.1362372055603E+01 -0.1233180055909E+01
-0.3905401247421E+00 -0.2226713775975E+01 -0.1230109330217E+01 -0.9963415255293E+00
-0.2013635877154E+00 -0.2058421102323E+01 -0.1062098801624E+01 -0.7325217151348E+00
-0.7769517537761E-01 -0.1818101553789E+01 -0.8910244604481E+00 -0.5071076686283E+00
-0.9414689597155E-02 -0.1563627400354E+01 -0.7393297804019E+00 -0.3453684252705E+00
 0.2196125945091E-01 -0.1329103553258E+01 -0.6143568765313E+00 -0.2411262016985E+00
 0.2892099451362E-01 -0.1129249686870E+01 -0.5171544840956E+00 -0.1799056420021E+00
 0.2028696161234E-01 -0.9662532709374E+00 -0.4446041642551E+00 -0.1477899336656E+00
 0.2842136582028E-02 -0.8346869595177E+00 -0.3909670657881E+00 -0.1331356838068E+00
-0.1934849360653E-01 -0.7273269306510E+00 -0.3509374485109E+00 -0.1280214743542E+00
-0.4359187593052E-01 -0.6382437914432E+00 -0.3204627628528E+00 -0.1275878270407E+00
-0.6697991547091E-01 -0.5603219261960E+00 -0.2948318648356E+00 -0.1282958879938E+00
-0.8923389547824E-01 -0.4946976387934E+00 -0.2744478204116E+00 -0.1308550778653E+00
-0.1084568865248E+00 -0.4495760206435E+00 -0.2622754657039E+00 -0.1380445869267E+00
-0.1244869842322E+00 -0.4254733144219E+00 -0.2584813397118E+00 -0.1518940856638E+00
-0.1388260434599E+00 -0.4154890517573E+00 -0.2605280940913E+00 -0.1726684313356E+00
-0.1536044221911E+00 -0.4138108877461E+00 -0.2666851949941E+00 -0.1994677635858E+00
-0.1710068198658E+00 -0.4157321118241E+00 -0.2757672971948E+00 -0.2313224943219E+00
-0.1938745508588E+00 -0.4198126089051E+00 -0.2884329643575E+00 -0.2684672221191E+00
-0.2259095839822E+00 -0.4277501234356E+00 -0.3072200617071E+00 -0.3132904147947E+00
-0.6659212121342E+00 -0.2235353392472E+01 -0.1363599060707E+01 -0.1231713652224E+01
-0.4507702667079E+00 -0.2204136991233E+01 -0.1247806408067E+01 -0.1023032618798E+01
-0.2625899286832E+00 -0.2080158148892E+01 -0.1101091593667E+01 -0.7872921682744E+00
-0.1300451712813E+00 -0.1892072865286E+01 -0.9503954747760E+00 -0.5768232470281E+00
-0.4938016350346E-01 -0.1682234585888E+01 -0.8138589301499E+00 -0.4164052307778E+00
-0.5677262068684E-02 -0.1478598009022E+01 -0.6976093756434E+00 -0.3056279228110E+00
 0.1233067065548E-01 -0.1295824103518E+01 -0.6032419119154E+00 -0.2352082478424E+00
 0.1265547231076E-01 -0.1139280238744E+01 -0.5295136388807E+00 -0.1947366121430E+00
 0.1646661748524E-02 -0.1007499657065E+01 -0.4727509065996E+00 -0.1743989537573E+00
-0.1658159455855E-01 -0.8963731922982E+00 -0.4290887487343E+00 -0.1667651941150E+00
-0.3909469663604E-01 -0.8018879450623E+00 -0.3952618405957E+00 -0.1667626627060E+00
-0.6268947865912E-01 -0.7180486435638E+00 -0.3669469165140E+00 -0.1701138189954E+00
-0.8739135385651E-01 -0.6463543615265E+00 -0.3448604853553E+00 -0.1772960203122E+00
-0.1109244441766E+00 -0.5948300516215E+00 -0.3317046121838E+00 -0.1904517401029E+00
-0.1322058327897E+00 -0.5644993126413E+00 -0.3274514175221E+00 -0.2103823899161E+00
-0.1525949609866E+00 -0.5489795137471E+00 -0.3297400022885E+00 -0.2369709337642E+00
-0.1739521492906E+00 -0.5426689933678E+00 -0.3368119361951E+00 -0.2692722327192E+00
-0.1983224479959E+00 -0.5408712422464E+00 -0.3474210335327E+00 -0.3063871165820E+00
-0.2281814125372E+00 -0.5422618820128E+00 -0.3621083475200E+00 -0.3483583135904E+00
-0.2663231195441E+00 -0.5488776794054E+00 -0.3831443745345E+00 -0.3969675114820E+00
-0.7124452974695E+00 -0.2211812554778E+01 -0.1374401187071E+01 -0.1227765168085E+01
-0.5120565656553E+00 -0.2191420984217E+01 -0.1270634445217E+01 -0.1039226569311E+01
-0.3260990851206E+00 -0.2100744798949E+01 -0.1140616622620E+01 -0.8277580618691E+00
-0.1864566045615E+00 -0.1955001823674E+01 -0.1006485458718E+01 -0.6335193962493E+00
-0.9424909693669E-01 -0.1784549754590E+01 -0.8830354579780E+00 -0.4787133472374E+00
-0.3823509601407E-01 -0.1611504032061E+01 -0.7753773882288E+00 -0.3662446698163E+00
-0.8703690494558E-02 -0.1449018666777E+01 -0.6851295061800E+00 -0.2905958724637E+00
 0.1485466731151E-02 -0.1303659376276E+01 -0.6120217359340E+00 -0.2442783195571E+00
-0.1836475082577E-02 -0.1176421345035E+01 -0.5537811740507E+00 -0.2193921386342E+00
-0.1465708445098E-01 -0.1065593966958E+01 -0.5077179928743E+00 -0.2093938820830E+00
-0.3396735469721E-01 -0.9689538439825E+00 -0.4713729621839E+00 -0.2094224178421E+00
-0.5639991127147E-01 -0.8818100110979E+00 -0.4409586623952E+00 -0.2148653640035E+00
-0.8221677615083E-01 -0.8061402881716E+00 -0.4175278191725E+00 -0.2260858137576E+00
-0.1088154297016E+00 -0.7498075962981E+00 -0.4035528211963E+00 -0.2446447737187E+00
-0.1341352478191E+00 -0.7143254393925E+00 -0.3987765219780E+00 -0.2701583044726E+00
-0.1593186945385E+00 -0.6939427786336E+00 -0.4010328913737E+00 -0.3020809761410E+00
-0.1859746892673E+00 -0.6833512990560E+00 -0.4085832134756E+00 -0.3393778417759E+00
-0.2160636144040E+00 -0.6779109343039E+00 -0.4201680368270E+00 -0.3811747722423E+00
-0.2517843268596E+00 -0.6763009625392E+00 -0.4362000849111E+00 -0.4272332379231E+00
-0.2952216401408E+00 -0.6806374824048E+00 -0.4586537864331E+00 -0.4784919561324E+00
-0.7626949640040E+00 -0.2200056217488E+01 -0.1392493051769E+01 -0.1221634051805E+01
-0.5735261524942E+00 -0.2187512567367E+01 -0.1297688195043E+01 -0.1047311631725E+01
-0.3903450118756E+00 -0.2122422051065E+01 -0.1181000516587E+01 -0.8563036084337E+00
-0.2452122910077E+00 -0.2011218794552E+01 -0.1060522607523E+01 -0.6781766732286E+00
-0.1426293507007E+00 -0.1875119651225E+01 -0.9483420284996E+00 -0.5315738893849E+00
-0.7473880116285E-01 -0.1731109811726E+01 -0.8487488459049E+00 -0.4209834586803E+00
-0.3356569627344E-01 -0.1590281754049E+01 -0.7632082997158E+00 -0.3434707873908E+00
-0.1293127546683E-01 -0.1459235673034E+01 -0.6919184640405E+00 -0.2938162928600E+00
-0.7605381209991E-02 -0.1340297904930E+01 -0.6335145428790E+00 -0.2658603800787E+00
-0.1379525219016E-01 -0.1233413193959E+01 -0.5861879682031E+00 -0.2540850621147E+00
-0.2854263933282E-01 -0.1137812911989E+01 -0.5481871077308E+00 -0.2540972256482E+00
-0.4843774453418E-01 -0.1050091321108E+01 -0.5163086595420E+00 -0.2612818886172E+00
-0.7392539017772E-01 -0.9727057458396E+00 -0.4919166326804E+00 -0.2759965730737E+00
-0.1021712990450E+00 -0.9133371837344E+00 -0.4772889856957E+00 -0.2993060644694E+00
-0.1301654280415E+00 -0.8739350639373E+00 -0.4719272300330E+00 -0.3297614191616E+00
-0.1587771452845E+00 -0.8494520303481E+00 -0.4738677113454E+00 -0.3663903957634E+00
-0.1893801661198E+00 -0.8349396523106E+00 -0.4814303134412E+00 -0.4080506750803E+00
-0.2239130703760E+00 -0.8258570447082E+00 -0.4933919528382E+00 -0.4538769046547E+00
-0.2644441164141E+00 -0.8207643769091E+00 -0.5100479905682E+00 -0.5033145126711E+00
-0.3126609788559E+00 -0.8215644836178E+00 -0.5330859660106E+00 -0.5562982730242E+00
-0.8158354196537E+00 -0.2197464727885E+01 -0.1416251065751E+01 -0.1213435834323E+01
-0.6347501845680E+00 -0.2191341488424E+01 -0.1328263082937E+01 -0.1048998009390E+01
-0.4543323763910E+00 -0.2146452656926E+01 -0.1222368962559E+01 -0.8749117691420E+00
-0.3049633483596E+00 -0.2063695873869E+01 -0.1113269831624E+01 -0.7119461655975E+00
-0.1932298206839E+00 -0.1957432879578E+01 -0.1010811466560E+01 -0.5748953125962E+00
-0.1141541764331E+00 -0.1840334848330E+01 -0.9186098393088E+00 -0.4686554841486E+00
-0.6151232619913E-01 -0.1721343904752E+01 -0.8379424264217E+00 -0.3919427617814E+00
-0.3014294234437E-01 -0.1606470297929E+01 -0.7692082209775E+00 -0.3412012980387E+00
-0.1548208268126E-01 -0.1498596241921E+01 -0.7116168107581E+00 -0.3117237705950E+00
-0.1405072439495E-01 -0.1398689429408E+01 -0.6639878706033E+00 -0.2989916172474E+00
-0.2303628808435E-01 -0.1307042261862E+01 -0.6251369168892E+00 -0.2991926704271E+00
-0.3908946702837E-01 -0.1221389296357E+01 -0.5924250172887E+00 -0.3079435466758E+00
-0.6278970422228E-01 -0.1144570806627E+01 -0.5674594386597E+00 -0.3256666155751E+00
-0.9118621578093E-01 -0.1084008578775E+01 -0.5523415520404E+00 -0.3530187447583E+00
-0.1204204239979E+00 -0.1041984010936E+01 -0.5463300830334E+00 -0.3876633897490E+00
-0.1510499442900E+00 -0.1014184616897E+01 -0.5476602423686E+00 -0.4282475533740E+00
-0.1842204303496E+00 -0.9960840378562E+00 -0.5547430986497E+00 -0.4735370504252E+00
-0.2219079405200E+00 -0.9833011916582E+00 -0.5664482906870E+00 -0.5227022852335E+00
-0.2662416923111E+00 -0.9741637930714E+00 -0.5829905766511E+00 -0.5749158970856E+00
-0.3189682615099E+00 -0.9700436639530E+00 -0.6058356034309E+00 -0.6290287347222E+00
-0.8713009578485E+00 -0.2202051844806E+01 -0.1444475813584E+01 -0.1203178203073E+01
-0.6955508815072E+00 -0.2201869803583E+01 -0.1361787718538E+01 -0.1045505568744E+01
-0.5174617080267E+00 -0.2173466156504E+01 -0.1264736093122E+01 -0.8852025970654E+00
-0.3647129363508E+00 -0.2114437150217E+01 -0.1165200537731E+01 -0.7359944556690E+00
-0.2449497530279E+00 -0.2034100525901E+01 -0.1071153628380E+01 -0.6089573261256E+00
-0.1554963511377E+00 -0.1941613178094E+01 -0.9856414762390E+00 -0.5086409032628E+00
-0.9176557947062E-01 -0.1843909394609E+01 -0.9097672355100E+00 -0.4347041603229E+00
-0.4961436312333E-01 -0.1746122195505E+01 -0.8439961804145E+00 -0.3847391047924E+00
-0.2517993250140E-01 -0.1651196763069E+01 -0.7878970449197E+00 -0.3551734671286E+00
-0.1536689620953E-01 -0.1560641148199E+01 -0.7407237789932E+00 -0.3423702032987E+00
-0.1757952072629E-01 -0.1475439658585E+01 -0.7017190124964E+00 -0.3431076762434E+00
-0.2861236146275E-01 -0.1394264977741E+01 -0.6687523477294E+00 -0.3533732028691E+00
-0.4913669639976E-01 -0.1320181955210E+01 -0.6435797646242E+00 -0.3736782980921E+00
-0.7620510160456E-01 -0.1260219754173E+01 -0.6281196806222E+00 -0.4043468299166E+00
-0.1052698104303E+00 -0.1216838989502E+01 -0.6213911343920E+00 -0.4423621447359E+00
-0.1365430744434E+00 -0.1186451492908E+01 -0.6218074450783E+00 -0.4860634661858E+00
-0.1709257317246E+00 -0.1165027207619E+01 -0.6278978798990E+00 -0.5341657282699E+00
-0.2104547547711E+00 -0.1148444476653E+01 -0.6386826371493E+00 -0.5859510402969E+00
-0.2575366612283E+00 -0.1134731776284E+01 -0.6543661639710E+00 -0.6404719061099E+00
-0.3146288938812E+00 -0.1124379107765E+01 -0.6763337590584E+00 -0.6955330247799E+00
-0.9286742593344E+00 -0.2212275649322E+01 -0.1476246453324E+01 -0.1190806688023E+01
-0.7558834455656E+00 -0.2218111414935E+01 -0.1397777580890E+01 -0.1037695967465E+01
-0.5794075251075E+00 -0.2203668691531E+01 -0.1308045818502E+01 -0.8884803095293E+00
-0.4237667086999E+00 -0.2164742399039E+01 -0.1216599277552E+01 -0.7514215089152E+00
-0.2969082649401E+00 -0.2107022186868E+01 -0.1129847309484E+01 -0.6342450734508E+00
-0.1978952053927E+00 -0.2036881098959E+01 -0.1050344860381E+01 -0.5407117165737E+00
-0.1235814556602E+00 -0.1959493095814E+01 -0.9790450367098E+00 -0.4709054835309E+00
-0.7079011044035E-01 -0.1879029176659E+01 -0.9164150626123E+00 -0.4231495704784E+00
-0.3636011366075E-01 -0.1798209535419E+01 -0.8622477328805E+00 -0.3947060856214E+00
-0.1762339229080E-01 -0.1718741604957E+01 -0.8160915466367E+00 -0.3826604573148E+00
-0.1225132023873E-01 -0.1641993986192E+01 -0.7774952920504E+00 -0.3843264839200E+00
-0.1724847248492E-01 -0.1567365826980E+01 -0.7447687188596E+00 -0.3961236352748E+00
-0.3334125479556E-01 -0.1497961193389E+01 -0.7197121488213E+00 -0.4186377587429E+00
-0.5770981693346E-01 -0.1440246387935E+01 -0.7040394145024E+00 -0.4519198819499E+00
-0.8531431839511E-01 -0.1396654665503E+01 -0.6965254206653E+00 -0.4924849936496E+00
-0.1159975852351E+00 -0.1364279000794E+01 -0.6957299936692E+00 -0.5384355818635E+00
-0.1503270024930E+00 -0.1339655240576E+01 -0.7002916524663E+00 -0.5884708997226E+00
-0.1903579160254E+00 -0.1319118076188E+01 -0.7094537145407E+00 -0.6420964488979E+00
-0.2389336985309E+00 -0.1300421268735E+01 -0.7234968327800E+00 -0.6985427307277E+00
-0.3001505467874E+00 -0.1282819704530E+01 -0.7439960162322E+00 -0.7548263140779E+00
-0.9876161167236E+00 -0.2226911657801E+01 -0.1510828050194E+01 -0.1176233000453E+01
-0.8157633373575E+00 -0.2239137244751E+01 -0.1435803269949E+01 -0.1026167363821E+01
-0.6400262766755E+00 -0.2236975763819E+01 -0.1352190955603E+01 -0.8857793499224E+00
-0.4816747668572E+00 -0.2215388468920E+01 -0.1267619717600E+01 -0.7592187542455E+00
-0.3484406603293E+00 -0.2177523924301E+01 -0.1187203351765E+01 -0.6513412435054E+00
-0.2406275944835E+00 -0.2127609704013E+01 -0.1113071527470E+01 -0.5649018193291E+00
-0.1562960009331E+00 -0.2069344257766E+01 -0.1046050918935E+01 -0.5000470009439E+00
-0.9314236426291E-01 -0.2005968623004E+01 -0.9865821615133E+00 -0.4555086717759E+00
-0.4867668383073E-01 -0.1939831810902E+01 -0.9345989901540E+00 -0.4291216159357E+00
-0.2067499734758E-01 -0.1872615286279E+01 -0.8898464310477E+00 -0.4185260881601E+00
-0.7106495645846E-02 -0.1805835177376E+01 -0.8520825841591E+00 -0.4214821675050E+00
-0.5235542294360E-02 -0.1739422933418E+01 -0.8199894815050E+00 -0.4348466957053E+00
-0.1581480670910E-01 -0.1676343430563E+01 -0.7953143695005E+00 -0.4592399670450E+00
-0.3627171488480E-01 -0.1622311173962E+01 -0.7795339557806E+00 -0.4944985103298E+00
-0.6134428544628E-01 -0.1579509548972E+01 -0.7712013002206E+00 -0.5368791640436E+00
-0.9044233577272E-01 -0.1545547217950E+01 -0.7689150882994E+00 -0.5842793096177E+00
-0.1236894494587E+00 -0.1517638037768E+01 -0.7714239170400E+00 -0.6353546648332E+00
-0.1628589317226E+00 -0.1492783633096E+01 -0.7781520034911E+00 -0.6899083160466E+00
-0.2113055579203E+00 -0.1468845343605E+01 -0.7896709217141E+00 -0.7478170450222E+00
-0.2758872193291E+00 -0.1443485943618E+01 -0.8081053845356E+00 -0.8060016450254E+00
-0.1047823633194E+01 -0.2244963787288E+01 -0.1547610083701E+01 -0.1159353187989E+01
-0.8752222007532E+00 -0.2264073288371E+01 -0.1475468876146E+01 -0.1011323265031E+01
-0.6992880235240E+00 -0.2273098820789E+01 -0.1397021813284E+01 -0.8779056952724E+00
-0.5381762149014E+00 -0.2266758209633E+01 -0.1318319176187E+01 -0.7602492405182E+00
-0.3990774026651E+00 -0.2246470063770E+01 -0.1243407306071E+01 -0.6608551677059E+00
-0.2831271783180E+00 -0.2214855104874E+01 -0.1174051670122E+01 -0.5814126257771E+00
-0.1893514804872E+00 -0.2174419950435E+01 -0.1110972569716E+01 -0.5218900931309E+00
-0.1162043773931E+00 -0.2127575463073E+01 -0.1054576522344E+01 -0.4811884590609E+00
-0.6180984620377E-01 -0.2076246278811E+01 -0.1004886376208E+01 -0.4575019880510E+00
-0.2438244570948E-01 -0.2021952044536E+01 -0.9617772079761E+00 -0.4488696132934E+00
-0.2198928060553E-02 -0.1966181352030E+01 -0.9251387292960E+00 -0.4533960594096E+00
 0.7180932178120E-02 -0.1909233965186E+01 -0.8939649232465E+00 -0.4683427101092E+00
 0.3010921370210E-02 -0.1853788030189E+01 -0.8698652389385E+00 -0.4943100808217E+00
-0.1250098211100E-01 -0.1804647056170E+01 -0.8540595758257E+00 -0.5309972585136E+00
-0.3416936626871E-01 -0.1763497503860E+01 -0.8449034268175E+00 -0.5746330377921E+00
-0.6115495056526E-01 -0.1728337324881E+01 -0.8410613673267E+00 -0.6229330164101E+00
-0.9261375177831E-01 -0.1696630730401E+01 -0.8409449044915E+00 -0.6742929341589E+00
-0.1298299675655E+00 -0.1666728427686E+01 -0.8443824436264E+00 -0.7286958077863E+00
-0.1758277889131E+00 -0.1637002924392E+01 -0.8520304330924E+00 -0.7871749792038E+00
-0.2418379767275E+00 -0.1604147402002E+01 -0.8676131258025E+00 -0.8480829217930E+00
-0.1109008170016E+01 -0.2265602380794E+01 -0.1586066954858E+01 -0.1140060036697E+01
-0.9342797206062E+00 -0.2292091438809E+01 -0.1516394441079E+01 -0.9934230470001E+00
-0.7572280570320E+00 -0.2311604720697E+01 -0.1442351401874E+01 -0.8654717474567E+00
-0.5931483087561E+00 -0.2318934188667E+01 -0.1368678770317E+01 -0.7552392316464E+00
-0.4485160668987E+00 -0.2314357675832E+01 -0.1298550655790E+01 -0.6633753964612E+00
-0.3249784151500E+00 -0.2299314705438E+01 -0.1233417763548E+01 -0.5905452308763E+00
-0.2223085217789E+00 -0.2275388185303E+01 -0.1173917449351E+01 -0.5363880249900E+00
-0.1395885354966E+00 -0.2244294353629E+01 -0.1120424955047E+01 -0.4998018315338E+00
-0.7549044178566E-01 -0.2207554842578E+01 -0.1073031280929E+01 -0.4791801736172E+00
-0.2863285143452E-01 -0.2166441505056E+01 -0.1031684944934E+01 -0.4728294634059E+00
 0.2399308779516E-02 -0.2122297342795E+01 -0.9963520734602E+00 -0.4790993166185E+00
 0.1973107997198E-01 -0.2075643987715E+01 -0.9662790641885E+00 -0.4955978069970E+00
 0.2267507697425E-01 -0.2028770667029E+01 -0.9428649249343E+00 -0.5228307833274E+00
 0.1300715347089E-01 -0.1985480894148E+01 -0.9270626557667E+00 -0.5604632874885E+00
-0.4531732327898E-02 -0.1946819159731E+01 -0.9171349169414E+00 -0.6049800202005E+00
-0.2901047507868E-01 -0.1910885415886E+01 -0.9117510664411E+00 -0.6540266997575E+00
-0.5941691843961E-01 -0.1875549451736E+01 -0.9094341916759E+00 -0.7055648460412E+00
-0.9351392136002E-01 -0.1838047953294E+01 -0.9078340787846E+00 -0.7587700672771E+00
-0.1346108377224E+00 -0.1801364191966E+01 -0.9099082616457E+00 -0.8160025797395E+00
-0.1970303155676E+00 -0.1761174335792E+01 -0.9203561838045E+00 -0.8798701346160E+00
-0.1170880165531E+01 -0.2288114010367E+01 -0.1625727258548E+01 -0.1118250665546E+01
-0.9929405499654E+00 -0.2322412266440E+01 -0.1558215819759E+01 -0.9726207665194E+00
-0.8138954799675E+00 -0.2351932980929E+01 -0.1487939372847E+01 -0.8489244171930E+00
-0.6465705345353E+00 -0.2371781370435E+01 -0.1418625391738E+01 -0.7447712904612E+00
-0.4965900430263E+00 -0.2381405582873E+01 -0.1352657940742E+01 -0.6594379131800E+00
-0.3658990017177E+00 -0.2381386444795E+01 -0.1291224156586E+01 -0.5926543550052E+00
-0.2548434553090E+00 -0.2372644040544E+01 -0.1234919119919E+01 -0.5436349134602E+00
-0.1630048078246E+00 -0.2356364730308E+01 -0.1184103679919E+01 -0.5111575761515E+00
-0.8949914990350E-01 -0.2333712622832E+01 -0.1138909530297E+01 -0.4937039824825E+00
-0.3336062607906E-01 -0.2305740718287E+01 -0.1099377629064E+01 -0.4897611651698E+00
 0.6589905645006E-02 -0.2273473181788E+01 -0.1065435137085E+01 -0.4978412449105E+00
 0.3211002968512E-01 -0.2237537766640E+01 -0.1036551033740E+01 -0.5158191141586E+00
 0.4264254704550E-01 -0.2199785032699E+01 -0.1013856965686E+01 -0.5439898185041E+00
 0.3960881361804E-01 -0.2162979769781E+01 -0.9979843468652E+00 -0.5820753619123E+00
 0.2699004347438E-01 -0.2127553343001E+01 -0.9872647482737E+00 -0.6271498263470E+00
 0.5386956404944E-02 -0.2091736514329E+01 -0.9805842897372E+00 -0.6770351139860E+00
-0.2399589769306E-01 -0.2053063683673E+01 -0.9762180007658E+00 -0.7294986530989E+00
-0.6048999013467E-01 -0.2010118532301E+01 -0.9731860030766E+00 -0.7825148899041E+00
-0.8903078229206E-01 -0.1954864130205E+01 -0.9606306064370E+00 -0.8354078741988E+00
-0.1393508352861E+00 -0.1908129860111E+01 -0.9623159243958E+00 -0.8995434087465E+00
-0.1233346110764E+01 -0.2312105381865E+01 -0.1666362197309E+01 -0.1093862823770E+01
-0.1051061608650E+01 -0.2354117004785E+01 -0.1600433944255E+01 -0.9490245793833E+00
-0.8693474314423E+00 -0.2393408266665E+01 -0.1533495174221E+01 -0.8285424017168E+00
-0.6985077952042E+00 -0.2425060208774E+01 -0.1468076958146E+01 -0.7292673296762E+00
-0.5432344086858E+00 -0.2447657756709E+01 -0.1405719314170E+01 -0.6495123930185E+00
-0.4057050910114E+00 -0.2461217645229E+01 -0.1347453682615E+01 -0.5881261740049E+00
-0.2867364385548E+00 -0.2466328398417E+01 -0.1293940470095E+01 -0.5438310017381E+00
-0.1862629771303E+00 -0.2463817147463E+01 -0.1245537655400E+01 -0.5152255162518E+00
-0.1037291307050E+00 -0.2454536325733E+01 -0.1202384761476E+01 -0.5008134770382E+00
-0.3844557680848E-01 -0.2439291552459E+01 -0.1164536447802E+01 -0.4991898777325E+00
 0.1020743457759E-01 -0.2419118439069E+01 -0.1132188169239E+01 -0.5090556646756E+00
 0.4392745254128E-01 -0.2393966332065E+01 -0.1104518270575E+01 -0.5284915245133E+00
 0.6237914814520E-01 -0.2365241609103E+01 -0.1082345353905E+01 -0.5572695748110E+00
 0.6643946506928E-01 -0.2335311567009E+01 -0.1066369885207E+01 -0.5952610987993E+00
 0.5959140839206E-01 -0.2303553008243E+01 -0.1054661949255E+01 -0.6404511013465E+00
 0.4188374300616E-01 -0.2268619437634E+01 -0.1046565773821E+01 -0.6910535567104E+00
 0.1355869309109E-01 -0.2228500252211E+01 -0.1041022530146E+01 -0.7450427702215E+00
-0.2395346505366E-01 -0.2180021805244E+01 -0.1035868374413E+01 -0.8004552834477E+00
-0.6963983800939E-01 -0.2125185539441E+01 -0.1031567924785E+01 -0.8540883541615E+00
-0.4441193644567E-01 -0.2006085330457E+01 -0.9637337129999E+00 -0.9086353270204E+00
-0.1342512733086E+01 -0.2368153270768E+01 -0.1744013017388E+01  0.9220920730377E+00
-0.1120564185823E+01 -0.2424994178817E+01 -0.1666412427154E+01  0.7701042467200E+00
-0.9081654586346E+00 -0.2476333881764E+01 -0.1590714685953E+01  0.6462446125370E+00
-0.7130828681834E+00 -0.2519156580997E+01 -0.1519152537262E+01  0.5460768583446E+00
-0.5378318989753E+00 -0.2553015338686E+01 -0.1452698198016E+01  0.4669689061376E+00
-0.3832698781791E+00 -0.2578611282855E+01 -0.1392084142155E+01  0.4071810897819E+00
-0.2493055316969E+00 -0.2597000723525E+01 -0.1337763936561E+01  0.3651221280843E+00
-0.1352187675843E+00 -0.2609385610607E+01 -0.1289964054478E+01  0.3392477112134E+00
-0.3997820390881E-01 -0.2616927059070E+01 -0.1248745470433E+01  0.3280268931139E+00
 0.3740807209843E-01 -0.2620708338057E+01 -0.1214151121921E+01  0.3301228826274E+00
 0.9773178505293E-01 -0.2622053620589E+01 -0.1186431259692E+01  0.3443646606874E+00
 0.1428394390670E+00 -0.2621128871021E+01 -0.1164796030064E+01  0.3689719054707E+00
 0.1721426218390E+00 -0.2619718942485E+01 -0.1150360867786E+01  0.4040072081279E+00
 0.1865651079434E+00 -0.2620535754027E+01 -0.1143966200758E+01  0.4495408402205E+00
 0.1897220872629E+00 -0.2623201203971E+01 -0.1143735181952E+01  0.5037600977287E+00
 0.1813009218281E+00 -0.2626739463589E+01 -0.1149356111712E+01  0.5652343601786E+00
 0.1610897897704E+00 -0.2629540009049E+01 -0.1160171600118E+01  0.6324101455389E+00
 0.1299057877867E+00 -0.2628917247252E+01 -0.1174535382970E+01  0.7037895736716E+00
 0.8876288214315E-01 -0.2626724901944E+01 -0.1192842146281E+01  0.7764571345808E+00
 0.1157524281043E+00 -0.2567423281626E+01 -0.1152285298233E+01  0.8540631975196E+00
-0.1278603992601E+01 -0.2342179925665E+01 -0.1701768437269E+01  0.9542462797158E+00
-0.1060885857425E+01 -0.2390283828383E+01 -0.1622049748216E+01  0.8004029189854E+00
-0.8517857537705E+00 -0.2431549488321E+01 -0.1543167559869E+01  0.6730427263462E+00
-0.6607166766769E+00 -0.2462480261672E+01 -0.1467902557301E+01  0.5683558502138E+00
-0.4911852522707E+00 -0.2483635954034E+01 -0.1398165963417E+01  0.4844742412379E+00
-0.3437516141922E+00 -0.2496173859459E+01 -0.1334764969231E+01  0.4204338960351E+00
-0.2178902813562E+00 -0.2501384424480E+01 -0.1278059108501E+01  0.3750801748264E+00
-0.1125805447114E+00 -0.2500739078428E+01 -0.1228260219760E+01  0.3470061073540E+00
-0.2652890467117E-01 -0.2495643960381E+01 -0.1185421243568E+01  0.3346250873152E+00
 0.4146524958581E-01 -0.2487360968023E+01 -0.1149570984750E+01  0.3364778276017E+00
 0.9271166909068E-01 -0.2477122689104E+01 -0.1120673176564E+01  0.3511837196530E+00
 0.1289945406660E+00 -0.2465795074426E+01 -0.1098296248082E+01  0.3767390756030E+00
 0.1494999289988E+00 -0.2455438120495E+01 -0.1083790947254E+01  0.4136881915257E+00
 0.1557656459180E+00 -0.2449216517282E+01 -0.1077921906807E+01  0.4616764777293E+00
 0.1519802495695E+00 -0.2447971331335E+01 -0.1079115805693E+01  0.5177679460182E+00
 0.1384498129256E+00 -0.2450237315050E+01 -0.1086540123243E+01  0.5801231052701E+00
 0.1159419713665E+00 -0.2453998659333E+01 -0.1098886640557E+01  0.6469454358700E+00
 0.8480672591250E-01 -0.2458304090081E+01 -0.1115543758330E+01  0.7166285226940E+00
 0.5942234418177E-01 -0.2456103358398E+01 -0.1126440073824E+01  0.7889242567413E+00
 0.1033385495057E-01 -0.2468944584436E+01 -0.1155547039927E+01  0.8756822015172E+00
-0.1214261691432E+01 -0.2316501065500E+01 -0.1659458491549E+01  0.9836753192019E+00
-0.1000384695727E+01 -0.2356001087092E+01 -0.1577501313924E+01  0.8277566029616E+00
-0.7940333969691E+00 -0.2386610323170E+01 -0.1494902544674E+01  0.6960038778230E+00
-0.6070176894948E+00 -0.2404825417886E+01 -0.1415566256879E+01  0.5857433599866E+00
-0.4434791982269E+00 -0.2411917747112E+01 -0.1342036560906E+01  0.4962730551636E+00
-0.3036930583642E+00 -0.2409819426507E+01 -0.1275350864655E+01  0.4274288073074E+00
-0.1866019271249E+00 -0.2400360213084E+01 -0.1215872202814E+01  0.3784153199827E+00
-0.9075380194294E-01 -0.2385437213967E+01 -0.1163809774526E+01  0.3479041022748E+00
-0.1447928074666E-01 -0.2366718560189E+01 -0.1119162982401E+01  0.3341887773205E+00
 0.4376875629034E-01 -0.2345601561208E+01 -0.1081861415567E+01  0.3356146013716E+00
 0.8545874693127E-01 -0.2323586331877E+01 -0.1051919962257E+01  0.3506213603030E+00
 0.1127237715713E+00 -0.2301345709824E+01 -0.1028652308370E+01  0.3769091682912E+00
 0.1245370763538E+00 -0.2281387677512E+01 -0.1013719779973E+01  0.4152122406522E+00
 0.1228708435324E+00 -0.2268040079804E+01 -0.1008229538490E+01  0.4649105964344E+00
 0.1128488858871E+00 -0.2262871626810E+01 -0.1010510685671E+01  0.5222811796093E+00
 0.9512459376795E-01 -0.2264345787148E+01 -0.1019533958303E+01  0.5852976006074E+00
 0.7036139909888E-01 -0.2270826067344E+01 -0.1034218391452E+01  0.6523624762315E+00
 0.4034459342115E-01 -0.2280304780178E+01 -0.1052781285105E+01  0.7231076538246E+00
 0.1398689365249E-02 -0.2296721312073E+01 -0.1078801629936E+01  0.8003094414186E+00
-0.6125703921562E-01 -0.2317253814188E+01 -0.1117900098264E+01  0.8871444967733E+00
-0.1149876834893E+01 -0.2291834731778E+01 -0.1617604432233E+01  0.1010437848377E+01
-0.9390829379039E+00 -0.2322859578073E+01 -0.1533112978621E+01  0.8521000219917E+00
-0.7349607134672E+00 -0.2342218344234E+01 -0.1446274153451E+01  0.7148703384355E+00
-0.5519482240194E+00 -0.2346437970620E+01 -0.1362241508025E+01  0.5978479929085E+00
-0.3947990148671E+00 -0.2337887154785E+01 -0.1284362496479E+01  0.5019098615763E+00
-0.2632673158189E+00 -0.2319520047651E+01 -0.1213910057752E+01  0.4277609998125E+00
-0.1556192373544E+00 -0.2293946734125E+01 -0.1151296003675E+01  0.3748613996011E+00
-0.6985287230998E-01 -0.2263631367457E+01 -0.1096737589909E+01  0.3418436998616E+00
-0.3826574871315E-02 -0.2230533295983E+01 -0.1050149136638E+01  0.3267747447325E+00
 0.4433367953210E-01 -0.2196209340185E+01 -0.1011381557941E+01  0.3277213938245E+00
 0.7634491499436E-01 -0.2162238914363E+01 -0.9803701772167E+00  0.3428628409594E+00
 0.9462309520301E-01 -0.2129010894247E+01 -0.9561622631257E+00  0.3695338975927E+00
 0.9802056968879E-01 -0.2099449946820E+01 -0.9406718048657E+00  0.4085606082057E+00
 0.8903361054368E-01 -0.2079060766671E+01 -0.9353127610076E+00  0.4591987169912E+00
 0.7339884422633E-01 -0.2070243008259E+01 -0.9385167547151E+00  0.5173182244784E+00
 0.5172242527810E-01 -0.2071441164321E+01 -0.9492678049425E+00  0.5809784830982E+00
 0.2450455173616E-01 -0.2080739793170E+01 -0.9664305610226E+00  0.6490480239605E+00
-0.9981658416283E-02 -0.2097355869341E+01 -0.9904486355337E+00  0.7220057015116E+00
-0.5525527423715E-01 -0.2120942117474E+01 -0.1022812771510E+01  0.8013195055833E+00
-0.1232239231441E+00 -0.2149935550203E+01 -0.1068384949763E+01  0.8857853550080E+00
-0.1085774978408E+01 -0.2268883431786E+01 -0.1576689448792E+01  0.1034599515646E+01
-0.8770451489113E+00 -0.2291658413607E+01 -0.1489290670606E+01  0.8732837505213E+00
-0.6745382630427E+00 -0.2298913502059E+01 -0.1397522326053E+01  0.7292343156125E+00
-0.4955628862229E+00 -0.2287514564038E+01 -0.1308046398305E+01  0.6041307889686E+00
-0.3453052995587E+00 -0.2261435796420E+01 -0.1225168312003E+01  0.5008776485314E+00
-0.2227191439903E+00 -0.2225043160967E+01 -0.1150448280412E+01  0.4210684207178E+00
-0.1251919731138E+00 -0.2181955299402E+01 -0.1084359215332E+01  0.3642653187926E+00
-0.5005767043634E-01 -0.2135319075129E+01 -0.1027127067810E+01  0.3288938631040E+00
 0.5355799993419E-02 -0.2087394833154E+01 -0.9785583431033E+00  0.3126418416829E+00
 0.4328441296624E-01 -0.2039807482846E+01 -0.9383658404634E+00  0.3131725800641E+00
 0.6569408782024E-01 -0.1994105704941E+01 -0.9063534577481E+00  0.3283120878934E+00
 0.7526479165650E-01 -0.1950249088130E+01 -0.8812426171072E+00  0.3549843433955E+00
 0.7079715586108E-01 -0.1911496602699E+01 -0.8651287378196E+00  0.3940416949284E+00
 0.5524411398996E-01 -0.1884480701866E+01 -0.8597411941213E+00  0.4447779012704E+00
 0.3457050693338E-01 -0.1872332027095E+01 -0.8637479122852E+00  0.5030010418103E+00
 0.9169179722050E-02 -0.1873230191049E+01 -0.8761086731015E+00  0.5669942030145E+00
-0.2140790686851E-01 -0.1885127493273E+01 -0.8960716357935E+00  0.6359291809605E+00
-0.5944399442005E-01 -0.1906049339341E+01 -0.9237818645248E+00  0.7101542214774E+00
-0.1088531999163E+00 -0.1935380377217E+01 -0.9607897788159E+00  0.7899641838962E+00
-0.1772703247108E+00 -0.1972910798769E+01 -0.1010585125472E+01  0.8725360385695E+00
-0.1022286119716E+01 -0.2248450521691E+01 -0.1537246217562E+01  0.1056236361508E+01
-0.8142996599295E+00 -0.2263204016255E+01 -0.1446426724138E+01  0.8910560501636E+00
-0.6127720954751E+00 -0.2257156395249E+01 -0.1348866387219E+01  0.7385298031099E+00
-0.4379919658011E+00 -0.2228057503498E+01 -0.1253043247392E+01  0.6039244209355E+00
-0.2952755400439E+00 -0.2182222117819E+01 -0.1164423896242E+01  0.4926280674855E+00
-0.1823991693700E+00 -0.2125901514692E+01 -0.1084901318757E+01  0.4070499037074E+00
-0.9565727007019E-01 -0.2063970863298E+01 -0.1015025220109E+01  0.3466192839164E+00
-0.3161620861642E-01 -0.2000339676094E+01 -0.9550192633914E+00  0.3093249091146E+00
 0.1297724252178E-01 -0.1937510375867E+01 -0.9045305703782E+00  0.2922749390120E+00
 0.4072663289139E-01 -0.1877044297673E+01 -0.8630693002584E+00  0.2925822451291E+00
 0.5384137507022E-01 -0.1820292974887E+01 -0.8302322498082E+00  0.3076263411052E+00
 0.5522941177118E-01 -0.1766628104866E+01 -0.8043573837143E+00  0.3338978785214E+00
 0.4369399480257E-01 -0.1719508710685E+01 -0.7876329144670E+00  0.3722238464240E+00
 0.2251733540017E-01 -0.1686558809747E+01 -0.7820994909591E+00  0.4220744813228E+00
-0.2443749768117E-02 -0.1671416083269E+01 -0.7867141195319E+00  0.4794944384569E+00
-0.3119227742003E-01 -0.1671883381905E+01 -0.8004455578524E+00  0.5430354402982E+00
-0.6461778080879E-01 -0.1685373563289E+01 -0.8224959296398E+00  0.6119660445682E+00
-0.1053413632187E+00 -0.1709389281798E+01 -0.8529234009947E+00  0.6863855103680E+00
-0.1568141388035E+00 -0.1743493650578E+01 -0.8931446587442E+00  0.7659235056107E+00
-0.2238918247838E+00 -0.1789579484294E+01 -0.9463315128665E+00  0.8476939955446E+00
-0.9597453067655E+00 -0.2231478195985E+01 -0.1499875042488E+01  0.1075425260486E+01
-0.7508662003052E+00 -0.2238341724363E+01 -0.1404927721030E+01  0.9050335857405E+00
-0.5497244192873E+00 -0.2217273529871E+01 -0.1300489032806E+01  0.7420136762571E+00
-0.3794912494579E+00 -0.2167806278652E+01 -0.1197229835175E+01  0.5964391815893E+00
-0.2451300943639E+00 -0.2099578760673E+01 -0.1102013159072E+01  0.4766011090526E+00
-0.1427846340747E+00 -0.2021294659367E+01 -0.1017117265338E+01  0.3855070069016E+00
-0.6744605469946E-01 -0.1939331553704E+01 -0.9431854735575E+00  0.3221078031215E+00
-0.1483193294611E-01 -0.1858379948519E+01 -0.8804095820554E+00  0.2836508636476E+00
 0.1891859664020E-01 -0.1781041829858E+01 -0.8281979175119E+00  0.2664211313836E+00
 0.3676280569167E-01 -0.1708602404930E+01 -0.7857646096491E+00  0.2668246197106E+00
 0.4112875302731E-01 -0.1641994541610E+01 -0.7524069187254E+00  0.2817127532143E+00
 0.3510536724433E-01 -0.1579817229788E+01 -0.7260145735540E+00  0.3071545232682E+00
 0.1755189488894E-01 -0.1525561345413E+01 -0.7087644399485E+00  0.3439072063695E+00
-0.8058307106440E-02 -0.1487659723120E+01 -0.7029874724233E+00  0.3917338436558E+00
-0.3629414664862E-01 -0.1470028181967E+01 -0.7079714926538E+00  0.4471942186355E+00
-0.6750026559544E-01 -0.1469929572908E+01 -0.7225920222636E+00  0.5091583197992E+00
-0.1029024207020E+00 -0.1484350544177E+01 -0.7460088916007E+00  0.5769720037866E+00
-0.1451533389293E+00 -0.1510487870157E+01 -0.7781513662969E+00  0.6505682329033E+00
-0.1972972091850E+00 -0.1548506700322E+01 -0.8205278353873E+00  0.7294098983772E+00
-0.2624825352206E+00 -0.1602172931321E+01 -0.8763880670518E+00  0.8113289246687E+00
-0.8985184611204E+00 -0.2219113537130E+01 -0.1465287035461E+01  0.1092232719145E+01
-0.6867776518323E+00 -0.2217961637854E+01 -0.1365227462690E+01  0.9146572585581E+00
-0.4855612436236E+00 -0.2179404182748E+01 -0.1252533747218E+01  0.7387365922189E+00
-0.3204858337795E+00 -0.2106142633879E+01 -0.1140515376907E+01  0.5807728799745E+00
-0.1954617686872E+00 -0.2012423185854E+01 -0.1037705926002E+01  0.4522691504003E+00
-0.1044869554932E+00 -0.1910051891623E+01 -0.9468332557429E+00  0.3564064885673E+00
-0.4107590377357E-01 -0.1807120383695E+01 -0.8686522529068E+00  0.2911712007596E+00
-0.5304462705435E-04 -0.1709011240053E+01 -0.8032602117622E+00  0.2526804873362E+00
 0.2304831183170E-01 -0.1618155393578E+01 -0.7497003265192E+00  0.2361188368989E+00
 0.3150166790675E-01 -0.1535245946165E+01 -0.7067598089886E+00  0.2370384035037E+00
 0.2791229482108E-01 -0.1460512823439E+01 -0.6733222467427E+00  0.2517125496350E+00
 0.1549055023916E-01 -0.1391586374027E+01 -0.6467650355400E+00  0.2758511568308E+00
-0.6784665687380E-02 -0.1331811707422E+01 -0.6291402937656E+00  0.3101158466495E+00
-0.3539540615345E-01 -0.1290249811592E+01 -0.6230532507601E+00  0.3546716957846E+00
-0.6558970057553E-01 -0.1270855760748E+01 -0.6281293652290E+00  0.4068673692615E+00
-0.9804392106443E-01 -0.1270288999102E+01 -0.6431164708472E+00  0.4659748001206E+00
-0.1342421964447E+00 -0.1285166721700E+01 -0.6671221898358E+00  0.5314616413088E+00
-0.1768232555875E+00 -0.1312572987065E+01 -0.7000162322710E+00  0.6032234493112E+00
-0.2285888897949E+00 -0.1353328745345E+01 -0.7435012866299E+00  0.6809093727209E+00
-0.2919191751518E+00 -0.1412816712977E+01 -0.8012258653881E+00  0.7634532308288E+00
-0.8390412355303E+00 -0.2212791826897E+01 -0.1434361535703E+01  0.1106697668321E+01
-0.6221211938170E+00 -0.2203002006307E+01 -0.1327807900691E+01  0.9191297329963E+00
-0.4206140757381E+00 -0.2143418655449E+01 -0.1205095380601E+01  0.7275068087697E+00
-0.2616217117655E+00 -0.2041969958792E+01 -0.1082688082416E+01  0.5559306312216E+00
-0.1470557404566E+00 -0.1919151114683E+01 -0.9711172194523E+00  0.4192029333582E+00
-0.6824525061280E-01 -0.1790582678627E+01 -0.8736491245267E+00  0.3199670370032E+00
-0.1713065187619E-01 -0.1666184885290E+01 -0.7911583004615E+00  0.2545865966257E+00
 0.1235306921241E-01 -0.1551757896914E+01 -0.7235202671844E+00  0.2175716264229E+00
 0.2524584107606E-01 -0.1449105294745E+01 -0.6692139415270E+00  0.2027167133556E+00
 0.2507733138600E-01 -0.1357885783483E+01 -0.6264199708970E+00  0.2046131383129E+00
 0.1457099901792E-01 -0.1277289819105E+01 -0.5934778439356E+00  0.2189666596040E+00
-0.3013720808381E-02 -0.1203799057067E+01 -0.5672020041628E+00  0.2412618852202E+00
-0.2850713616871E-01 -0.1140459815825E+01 -0.5494144660436E+00  0.2720723167654E+00
-0.5848969656297E-01 -0.1096802835599E+01 -0.5429874887389E+00  0.3120761633837E+00
-0.8910620779057E-01 -0.1076613831943E+01 -0.5478884172851E+00  0.3596680854474E+00
-0.1213516200580E+00 -0.1075896126609E+01 -0.5627064395064E+00  0.4145998720630E+00
-0.1569682220482E+00 -0.1090934914841E+01 -0.5865144728505E+00  0.4765088628256E+00
-0.1986113582522E+00 -0.1118776699318E+01 -0.6191723854875E+00  0.5453491735990E+00
-0.2490878392672E+00 -0.1160826783444E+01 -0.6626598709937E+00  0.6211761632465E+00
-0.3107345678448E+00 -0.1223783997162E+01 -0.7212237237239E+00  0.7042099918885E+00
-0.7818843095675E+00 -0.2214354072424E+01 -0.1408232035964E+01  0.1118804923332E+01
-0.5571052182999E+00 -0.2194444358853E+01 -0.1293228297982E+01  0.9173286616067E+00
-0.3554644098004E+00 -0.2108795420643E+01 -0.1158202117371E+01  0.7068490023942E+00
-0.2038187663912E+00 -0.1973544693113E+01 -0.1023360823371E+01  0.5208645987417E+00
-0.1008935842643E+00 -0.1817507747251E+01 -0.9016486235254E+00  0.3771713255281E+00
-0.3489851760570E-01 -0.1660844207291E+01 -0.7969990786802E+00  0.2767784495449E+00
 0.3778561152287E-02 -0.1515203502697E+01 -0.7103697207242E+00  0.2135663267201E+00
 0.2203881811039E-01 -0.1386219327188E+01 -0.6411648376401E+00  0.1798825484380E+00
 0.2543608863464E-01 -0.1274355426866E+01 -0.5869920874798E+00  0.1678732060207E+00
 0.1767545525222E-01 -0.1177661237601E+01 -0.5451933163213E+00  0.1711491936728E+00
 0.1519188694613E-02 -0.1093934462293E+01 -0.5134351772888E+00  0.1849559994763E+00
-0.1981176582145E-01 -0.1018389245172E+01 -0.4879544739294E+00  0.2047750977928E+00
-0.4688072187747E-01 -0.9536786371917E+00 -0.4702628975697E+00  0.2311416867696E+00
-0.7650274365138E-01 -0.9096885430846E+00 -0.4635099035903E+00  0.2653566354133E+00
-0.1058750119135E+00 -0.8898583900586E+00 -0.4679946977399E+00  0.3070707705312E+00
-0.1362956211329E+00 -0.8895046717514E+00 -0.4821261364328E+00  0.3565559148596E+00
-0.1697930095866E+00 -0.9045797794797E+00 -0.5049552095804E+00  0.4136335000269E+00
-0.2091144171970E+00 -0.9320978764638E+00 -0.5363697766601E+00  0.4783565535269E+00
-0.2573182928394E+00 -0.9738806443675E+00 -0.5786634990195E+00  0.5512943909523E+00
-0.3172878586732E+00 -0.1037607144048E+01 -0.6368006496637E+00  0.6340225578188E+00
-0.7278650047455E+00 -0.2226221080927E+01 -0.1388420456745E+01  0.1128442623398E+01
-0.4921682625536E+00 -0.2193294992920E+01 -0.1262167726871E+01  0.9076853168154E+00
-0.2910554272710E+00 -0.2074427090275E+01 -0.1111776780427E+01  0.6749619786431E+00
-0.1483157250070E+00 -0.1898232683968E+01 -0.9618777497788E+00  0.4745505517596E+00
-0.5812619413148E-01 -0.1704434112284E+01 -0.8284033419142E+00  0.3262941832291E+00
-0.5326964880183E-02 -0.1518351581722E+01 -0.7161289150867E+00  0.2279637705629E+00
 0.2107368369694E-01 -0.1352833176399E+01 -0.6259269599824E+00  0.1698703615223E+00
 0.2872974449311E-01 -0.1212266195413E+01 -0.5562621305216E+00  0.1416063715195E+00
 0.2363473750386E-01 -0.1094739601693E+01 -0.5034192848922E+00  0.1335208953960E+00
 0.9567621386045E-02 -0.9960235126774E+00 -0.4636342677310E+00  0.1383803648256E+00
-0.1077696094874E-01 -0.9122310141298E+00 -0.4338137471866E+00  0.1512118882825E+00
-0.3431945412278E-01 -0.8373144240652E+00 -0.4096679217093E+00  0.1678077838923E+00
-0.6127676649374E-01 -0.7735311880139E+00 -0.3923597376234E+00  0.1887518043983E+00
-0.8881083752140E-01 -0.7310561108486E+00 -0.3853374647566E+00  0.2160594216331E+00
-0.1152450124899E+00 -0.7128469942668E+00 -0.3892032421885E+00  0.2507719534564E+00
-0.1421450684406E+00 -0.7135319089144E+00 -0.4021681783368E+00  0.2936640414328E+00
-0.1718610187510E+00 -0.7287121050926E+00 -0.4232693671329E+00  0.3447087046079E+00
-0.2073129858791E+00 -0.7553228462398E+00 -0.4524388399483E+00  0.4040375975949E+00
-0.2520253255947E+00 -0.7953618439624E+00 -0.4922719684433E+00  0.4727426341009E+00
-0.3099245004383E+00 -0.8570846310388E+00 -0.5484942904030E+00  0.5537192911782E+00
-0.6782437924074E+00 -0.2251663065840E+01 -0.1377056219883E+01  0.1135331569536E+01
-0.4281570308962E+00 -0.2200538426314E+01 -0.1235486861755E+01  0.8880119907476E+00
-0.2288338127770E+00 -0.2038301526191E+01 -0.1065553606612E+01  0.6296844883009E+00
-0.9668386574071E-01 -0.1812149319383E+01 -0.8971515947328E+00  0.4161316075820E+00
-0.1999119653493E-01 -0.1575901271815E+01 -0.7500694582219E+00  0.2672781339719E+00
 0.1964808043714E-01 -0.1360285909553E+01 -0.6300997780864E+00  0.1753943084130E+00
 0.3429125409746E-01 -0.1177992071919E+01 -0.5375393830127E+00  0.1259180702580E+00
 0.3229078561161E-01 -0.1030328929914E+01 -0.4690779266323E+00  0.1051614261538E+00
 0.2000432400529E-01 -0.9116439346832E+00 -0.4190706159557E+00  0.1017724362054E+00
 0.1153173031097E-02 -0.8147916205215E+00 -0.3824100693506E+00  0.1080490686362E+00
-0.2178107323274E-01 -0.7341076656055E+00 -0.3552677063529E+00  0.1191992231904E+00
-0.4597049217912E-01 -0.6624824081902E+00 -0.3329728623290E+00  0.1317078577403E+00
-0.7119729180389E-01 -0.6018834347311E+00 -0.3163479406691E+00  0.1463055027791E+00
-0.9503649440670E-01 -0.5627411592593E+00 -0.3091554964389E+00  0.1657726172543E+00
-0.1169129689403E+00 -0.5474347373172E+00 -0.3122434211490E+00  0.1925804562737E+00
-0.1385975123485E+00 -0.5499443933804E+00 -0.3236146948718E+00  0.2279286029529E+00
-0.1627900335489E+00 -0.5655089585560E+00 -0.3423005254211E+00  0.2718648558800E+00
-0.1926471319266E+00 -0.5909150950332E+00 -0.3682742457371E+00  0.3245232414743E+00
-0.2323089118514E+00 -0.6280396881061E+00 -0.4043638409544E+00  0.3874311142031E+00
-0.2871548959000E+00 -0.6852265185140E+00 -0.4570192636154E+00  0.4646340223203E+00
-0.6350825091283E+00 -0.2295236737154E+01 -0.1377250042260E+01  0.1138903919886E+01
-0.3666205407954E+00 -0.2217029623180E+01 -0.1214315573989E+01  0.8552513951075E+00
-0.1709111857869E+00 -0.1996953950757E+01 -0.1018896611591E+01  0.5684920897008E+00
-0.5075875237874E-01 -0.1709626513425E+01 -0.8273810728292E+00  0.3451855791101E+00
 0.1236491380736E-01 -0.1426783362877E+01 -0.6647766693767E+00  0.2017797173595E+00
 0.3940970370677E-01 -0.1183812804383E+01 -0.5378694559536E+00  0.1219578381072E+00
 0.4317811851531E-01 -0.9903494813062E+00 -0.4451705393826E+00  0.8486004071202E-01
 0.3280076287546E-01 -0.8417749468277E+00 -0.3802178654932E+00  0.7329023766417E-01
 0.1492145067486E-01 -0.7271582524446E+00 -0.3347512959827E+00  0.7474047070512E-01
-0.6997360730199E-02 -0.6361327690383E+00 -0.3022711602245E+00  0.8173270163778E-01
-0.3087570199525E-01 -0.5615433594327E+00 -0.2784369581649E+00  0.9018702619251E-01
-0.5423169975844E-01 -0.4956537973359E+00 -0.2584461829788E+00  0.9766397009314E-01
-0.7629888235401E-01 -0.4403273248955E+00 -0.2428143167914E+00  0.1051033502389E+00
-0.9506450502117E-01 -0.4062058670339E+00 -0.2355970742683E+00  0.1160361430744E+00
-0.1109280579775E+00 -0.3950144015821E+00 -0.2377929553899E+00  0.1343063172106E+00
-0.1257800715368E+00 -0.4001778644229E+00 -0.2472002292740E+00  0.1614129051263E+00
-0.1426930694893E+00 -0.4166024712605E+00 -0.2628689034857E+00  0.1973738758836E+00
-0.1650905525501E+00 -0.4408749292421E+00 -0.2848037757200E+00  0.2422067410245E+00
-0.1977770660892E+00 -0.4744316771544E+00 -0.3159381085232E+00  0.2976929684104E+00
-0.2478612667018E+00 -0.5251422353930E+00 -0.3633116450631E+00  0.3686767745899E+00
-0.6019289559202E+00 -0.2363533975074E+01 -0.1393767574032E+01  0.1138087120080E+01
-0.3102983200213E+00 -0.2243241631844E+01 -0.1200163774332E+01  0.8051051187881E+00
-0.1201982641353E+00 -0.1944487168315E+01 -0.9704021507904E+00  0.4885805059826E+00
-0.1237507347637E-01 -0.1582432044152E+01 -0.7495593433842E+00  0.2622215316459E+00
 0.3820258412196E-01 -0.1250931799419E+01 -0.5699827297438E+00  0.1329527258300E+00
 0.5372314615094E-01 -0.9868115722292E+00 -0.4385515591445E+00  0.7184468707991E-01
 0.4777288186454E-01 -0.7910987555763E+00 -0.3493631597584E+00  0.5052067603157E-01
 0.3063951359371E-01 -0.6492897068396E+00 -0.2907655900881E+00  0.4879585448957E-01
 0.9048826576662E-02 -0.5440922656940E+00 -0.2514704157473E+00  0.5425339481615E-01
-0.1411003519324E-01 -0.4624053982795E+00 -0.2239622531641E+00  0.6064203514689E-01
-0.3737930748096E-01 -0.3964085139404E+00 -0.2038802755509E+00  0.6513771227688E-01
-0.5863705484694E-01 -0.3383341057753E+00 -0.1865764450192E+00  0.6664763440494E-01
-0.7641806561150E-01 -0.2901287506945E+00 -0.1722770032269E+00  0.6629380803382E-01
-0.8904364512794E-01 -0.2625242151703E+00 -0.1652368939211E+00  0.6826961607570E-01
-0.9766743964862E-01 -0.2565081753336E+00 -0.1664625386194E+00  0.7765688266241E-01
-0.1042125569666E+00 -0.2651015858228E+00 -0.1735776466708E+00  0.9610788868533E-01
-0.1121606110255E+00 -0.2829885301311E+00 -0.1857200958725E+00  0.1235070048792E+00
-0.1251959105568E+00 -0.3065850435592E+00 -0.2029370479198E+00  0.1596187326598E+00
-0.1486915313659E+00 -0.3366061242835E+00 -0.2280898975767E+00  0.2062139448718E+00
-0.1915344761541E+00 -0.3798646195043E+00 -0.2685575742782E+00  0.2683594837736E+00
-0.5851951898373E+00 -0.2466545275051E+01 -0.1434318014860E+01  0.1130903219278E+01
-0.2639543760649E+00 -0.2278676556845E+01 -0.1195036535437E+01  0.7314694456344E+00
-0.8031201440322E-01 -0.1870704405684E+01 -0.9169777151151E+00  0.3871751600093E+00
 0.1729320658780E-01 -0.1418743971116E+01 -0.6586818576574E+00  0.1696013812376E+00
 0.5769337654280E-01 -0.1041836458619E+01 -0.4625472474027E+00  0.6622908698944E-01
 0.6282153461578E-01 -0.7694016529445E+00 -0.3320926547722E+00  0.3071591272318E-01
 0.4847704537735E-01 -0.5839293772729E+00 -0.2516625953526E+00  0.2703954613702E-01
 0.2657744626820E-01 -0.4570487435644E+00 -0.2023215092161E+00  0.3404215914617E-01
 0.3418817600505E-02 -0.3656733697827E+00 -0.1702596390938E+00  0.4149511686570E-01
-0.1923764009104E-01 -0.2958614399095E+00 -0.1480965672246E+00  0.4545439613697E-01
-0.4060786607758E-01 -0.2402672096563E+00 -0.1320112852601E+00  0.4465775837550E-01
-0.5884174082091E-01 -0.1916817690828E+00 -0.1177460493561E+00  0.3940894436621E-01
-0.7159412312129E-01 -0.1522161315772E+00 -0.1051908194415E+00  0.3086180912431E-01
-0.7737115229694E-01 -0.1324209723072E+00 -0.9860229831383E-01  0.2372778337718E-01
-0.7778186001747E-01 -0.1324218989403E+00 -0.9879576645958E-01  0.2414997000328E-01
-0.7472383123631E-01 -0.1450402617905E+00 -0.1032891234606E+00  0.3380155754229E-01
-0.7218673975034E-01 -0.1649779751204E+00 -0.1114674157065E+00  0.5236951353711E-01
-0.7408168653602E-01 -0.1886654794294E+00 -0.1234911676905E+00  0.7925022106867E-01
-0.8607421206069E-01 -0.2159526260584E+00 -0.1419526135559E+00  0.1158870301649E+00
-0.1185234676198E+00 -0.2520988943787E+00 -0.1741925096975E+00  0.1667504258592E+00
-0.5972615610910E+00 -0.2620453868550E+01 -0.1512326248095E+01  0.1113675383086E+01
-0.2356721096896E+00 -0.2320269923262E+01 -0.1201292752440E+01  0.6255707240615E+00
-0.5480438737414E-01 -0.1757519035023E+01 -0.8517920063663E+00  0.2624107097742E+00
 0.3936639325756E-01 -0.1201971543590E+01 -0.5464244192703E+00  0.7326158987677E-01
 0.7222839918302E-01 -0.7951800352291E+00 -0.3397872680798E+00  0.1025067302576E-01
 0.6736216584164E-01 -0.5364327186605E+00 -0.2204631592657E+00  0.5378829722282E-02
 0.4599290687487E-01 -0.3758972212849E+00 -0.1550550273794E+00  0.1794971963625E-01
 0.2205159488749E-01 -0.2700186715854E+00 -0.1165445257524E+00  0.3023341628490E-01
-0.6314443582454E-03 -0.1949640376483E+00 -0.9192987630991E-01  0.3671820223093E-01
-0.2138043839757E-01 -0.1382802545256E+00 -0.7504052548357E-01  0.3626927596186E-01
-0.3998091043160E-01 -0.9420185312427E-01 -0.6306589871130E-01  0.2904058344346E-01
-0.5468116458845E-01 -0.5645642756806E-01 -0.5223466818107E-01  0.1653146304500E-01
-0.6207788765081E-01 -0.2721403042901E-01 -0.4196720139107E-01 -0.3414150848743E-03
-0.6066285593865E-01 -0.1637187603571E-01 -0.3620632393611E-01 -0.1650859311824E-01
-0.5211016775252E-01 -0.2296387135787E-01 -0.3528479829239E-01 -0.2494403254029E-01
-0.3832489930190E-01 -0.3987276448473E-01 -0.3675290188650E-01 -0.2403631383862E-01
-0.2402126193669E-01 -0.6220626136788E-01 -0.4052693585036E-01 -0.1427461402229E-01
-0.1334195676415E-01 -0.8687543744528E-01 -0.4710217515896E-01  0.3332812480087E-02
-0.1173281119614E-01 -0.1129480761183E+00 -0.5860001688917E-01  0.2958647591418E-01
-0.3025722391662E-01 -0.1439000524909E+00 -0.8185391970393E-01  0.6732410079041E-01
-0.6637893900295E+00 -0.2853757691685E+01 -0.1653247124213E+01  0.1079364359469E+01
-0.2393565992629E+00 -0.2358490441406E+01 -0.1220988106018E+01  0.4745826239207E+00
-0.4287918868330E-01 -0.1570417426518E+01 -0.7582494072212E+00  0.1158325699370E+00
 0.5922352766133E-01 -0.9123772451077E+00 -0.4009822461828E+00 -0.1425752867360E-01
 0.8461530912454E-01 -0.5145509203695E+00 -0.2020697367726E+00 -0.2260768968336E-01
 0.6691069341751E-01 -0.3018017816918E+00 -0.1103988112089E+00  0.2065431438178E-02
 0.4246795142108E-01 -0.1753069875067E+00 -0.6243434680188E-01  0.2454062906628E-01
 0.1898353762696E-01 -0.9274933953497E-01 -0.3466992680883E-01  0.3689916754136E-01
-0.1686265064218E-02 -0.3418960344023E-01 -0.1686165815432E-01  0.3923313050028E-01
-0.1970102096514E-01  0.9297139917091E-02 -0.4889824080179E-02  0.3273250641507E-01
-0.3513108267328E-01  0.4129447689062E-01  0.2896795274802E-02  0.1838998971665E-01
-0.4620194325408E-01  0.6700019158680E-01  0.9775176691583E-02 -0.1466014012602E-02
-0.4833335244016E-01  0.8446737405804E-01  0.1698299011733E-01 -0.2652930184479E-01
-0.3970064550930E-01  0.8525570082526E-01  0.2141087594420E-01 -0.5149995668604E-01
-0.2159028644922E-01  0.7175034116918E-01  0.2357522565859E-01 -0.6861600914281E-01
 0.3976078190591E-02  0.5080739557431E-01  0.2574823260420E-01 -0.7633685136018E-01
 0.3102753228349E-01  0.2624955951873E-01  0.2692023307876E-01 -0.7516463068820E-01
 0.5517164222092E-01 -0.5289307238487E-04  0.2590581203410E-01 -0.6640570644646E-01
 0.7178803411534E-01 -0.2700141869502E-01  0.2104970919416E-01 -0.5012135227053E-01
 0.7064463849063E-01 -0.5630842398690E-01  0.6738020799659E-02 -0.2631710562627E-01
-0.8491341476385E+00 -0.3227312155526E+01 -0.1915929757628E+01  0.1013169276764E+01
-0.2917751506737E+00 -0.2358623398685E+01 -0.1245687315039E+01  0.2600443681615E+00
-0.3148187430125E-01 -0.1246161382547E+01 -0.6004923291957E+00 -0.4103180902002E-01
 0.9438919626885E-01 -0.5320605781848E+00 -0.2057055489788E+00 -0.6855670439525E-01
 0.8770766331139E-01 -0.2341782387599E+00 -0.6884117028620E-01 -0.1919177633480E-01
 0.6530505514373E-01 -0.8013802119205E-01 -0.6971494025028E-02  0.2205216428080E-01
 0.4069061382913E-01  0.1084534327275E-01  0.2422189977645E-01  0.4494688595690E-01
 0.1943500093837E-01  0.7194943158424E-01  0.4295068317669E-01  0.5207410996162E-01
 0.1316219887073E-02  0.1155375124128E+00  0.5492125404163E-01  0.4773574469525E-01
-0.1374334609884E-01  0.1466277746028E+00  0.6245568123844E-01  0.3425408948647E-01
-0.2592125124789E-01  0.1664371862051E+00  0.6604248926239E-01  0.1276867467497E-01
-0.3368297705045E-01  0.1787433585028E+00  0.6817837910970E-01 -0.1399034537581E-01
-0.3101825190977E-01  0.1825108078903E+00  0.7120150113027E-01 -0.4686820461175E-01
-0.1541613536999E-01  0.1719638488984E+00  0.7357742517173E-01 -0.8037440085459E-01
 0.1292037672237E-01  0.1515539107960E+00  0.7730291493758E-01 -0.1060821977217E+00
 0.5125085550493E-01  0.1273060898060E+00  0.8392176408326E-01 -0.1224428130906E+00
 0.9197987429088E-01  0.1017732716119E+00  0.9106397834336E-01 -0.1296780953799E+00
 0.1295713831726E+00  0.7375873872613E-01  0.9556515705001E-01 -0.1289781648944E+00
 0.1615039035816E+00  0.4377147405181E-01  0.9647942724298E-01 -0.1213121089582E+00
 0.1802058180070E+00  0.1072604707256E-01  0.8973797635979E-01 -0.1107885728965E+00
-0.1320888583537E+01 -0.3882956294962E+01 -0.2445807086691E+01  0.8812084279458E+00
-0.4261659231976E+00 -0.2225396957843E+01 -0.1246234550928E+01 -0.4524421007159E-01
 0.9722453559552E-01 -0.6091527077137E+00 -0.2406062402853E+00 -0.1608665165790E+00
 0.1001109077148E+00 -0.1718655968162E+00 -0.3372470379212E-01 -0.5597012146676E-01
 0.9149233584760E-01  0.2039073646393E-01  0.5258504385304E-01  0.2049474869656E-01
 0.6610337734823E-01  0.1177059652972E+00  0.8639039082423E-01  0.6034935493248E-01
 0.4388431114741E-01  0.1796868715983E+00  0.1050784556240E+00  0.7504851787053E-01
 0.2479774402746E-01  0.2230876717938E+00  0.1165061451405E+00  0.7317881684249E-01
 0.8656209883255E-02  0.2538782062181E+00  0.1233911752547E+00  0.6072603410991E-01
-0.3403670032781E-02  0.2743865951123E+00  0.1273619744643E+00  0.4015836064770E-01
-0.1254903830766E-01  0.2821626183592E+00  0.1267183823028E+00  0.1231135588972E-01
-0.1741739793878E-01  0.2795338851524E+00  0.1231947486779E+00 -0.2017546488158E-01
-0.1116453999167E-01  0.2662653109768E+00  0.1198973620589E+00 -0.6025493035988E-01
 0.1116653335661E-01  0.2427561793876E+00  0.1193436746871E+00 -0.1022378606453E+00
 0.5084462969499E-01  0.2160836961876E+00  0.1254563128466E+00 -0.1367785599621E+00
 0.1030594495082E+00  0.1900362181845E+00  0.1377549634662E+00 -0.1620286892836E+00
 0.1575547169039E+00  0.1646892127622E+00  0.1514546465589E+00 -0.1777354234482E+00
 0.2096321009714E+00  0.1383262683554E+00  0.1635404331688E+00 -0.1845153615248E+00
 0.2534837589564E+00  0.1020629288964E+00  0.1671069428670E+00 -0.1830275636656E+00
 0.2934049107778E+00  0.5861765957072E-01  0.1654506076442E+00 -0.1832371822808E+00
-0.3274839752958E+01 -0.5731840923753E+01 -0.4233139907317E+01  0.5307196351167E+00
 0.1665314820024E+00 -0.7645260762580E+00 -0.2810574585873E+00 -0.3981204162704E+00
 0.7460935936686E-01 -0.1066295083106E+00 -0.1504946996538E-01 -0.1376645611430E+00
 0.1163762553430E+00  0.1322322747300E+00  0.1168460088379E+00  0.1587864080649E-01
 0.9792198449405E-01  0.2335615065223E+00  0.1557972403825E+00  0.8399014927963E-01
 0.7465735365808E-01  0.2905694498109E+00  0.1716565971951E+00  0.1091148498936E+00
 0.5322929959060E-01  0.3306272067365E+00  0.1804125575161E+00  0.1104323718386E+00
 0.3572421601827E-01  0.3613041869791E+00  0.1866033489355E+00  0.9781938866214E-01
 0.2062864485783E-01  0.3815753465413E+00  0.1890358754781E+00  0.7699857783770E-01
 0.9125205468356E-02  0.3915868698980E+00  0.1883346749445E+00  0.4942833261161E-01
 0.6286286055555E-02  0.3930701033698E+00  0.1876975025539E+00  0.1699511516636E-01
 0.1983069692602E-02  0.3709596319783E+00  0.1752830693407E+00 -0.1812797019873E-01
 0.9056792045803E-02  0.3329401201004E+00  0.1607385483010E+00 -0.6484997090892E-01
 0.3942479898956E-01  0.2956435554070E+00  0.1574821261669E+00 -0.1163310784632E+00
 0.9266893976066E-01  0.2654330742003E+00  0.1683079461348E+00 -0.1605465593843E+00
 0.1587678741553E+00  0.2389816447503E+00  0.1869422734115E+00 -0.1950384048330E+00
 0.2275918082467E+00  0.2159811367249E+00  0.2084792836079E+00 -0.2194074966441E+00
 0.2923674811816E+00  0.1915259302474E+00  0.2274299027948E+00 -0.2337117552292E+00
 0.3537382795081E+00  0.1624938126375E+00  0.2426290826930E+00 -0.2373077451582E+00
 0.3933657443946E+00  0.8136135700060E-01  0.2231217370898E+00 -0.2403389997402E+00
-0.1865235733878E+00 -0.2133221740630E+01 -0.1090280294823E+01 -0.9826074580389E+00
-0.1893397555482E+00 -0.1938415212685E+01 -0.1000044832533E+01 -0.9647414813851E+00
-0.2207786030148E+00 -0.1780467013495E+01 -0.9405854373741E+00 -0.9400319334865E+00
-0.2519134395596E+00 -0.1627171637523E+01 -0.8831699839889E+00 -0.9079524101954E+00
-0.2805573887358E+00 -0.1475200460891E+01 -0.8252061872318E+00 -0.8679084709563E+00
-0.3038937885968E+00 -0.1323448843470E+01 -0.7648510351315E+00 -0.8198214049971E+00
-0.3200817849447E+00 -0.1172546596514E+01 -0.7015353375062E+00 -0.7637843111378E+00
-0.3275869097661E+00 -0.1023729290979E+01 -0.6351186127392E+00 -0.7000855275322E+00
-0.3251381328741E+00 -0.8785529936345E+00 -0.5657348280241E+00 -0.6292384517999E+00
-0.3116737540677E+00 -0.7387090781611E+00 -0.4936799298954E+00 -0.5520215355552E+00
-0.2863583402727E+00 -0.6059167682940E+00 -0.4193692999627E+00 -0.4695082793996E+00
-0.2486359787497E+00 -0.4818317671817E+00 -0.3433198397170E+00 -0.3830812253650E+00
-0.1983104464448E+00 -0.3679525844083E+00 -0.2661436238259E+00 -0.2944217997443E+00
-0.1356335456607E+00 -0.2655138494064E+00 -0.1885392752033E+00 -0.2054671126626E+00
-0.6137822741409E-01 -0.1753703396763E+00 -0.1112718262502E+00 -0.1183268764416E+00
 0.2314230978503E-01 -0.9788604292715E-01 -0.3512955448770E-01 -0.3516227059750E-01
 0.1160985530239E+00 -0.3290997817679E-01  0.3909863007896E-01  0.4194584491926E-01
 0.2154456833958E+00  0.2027658519675E-01  0.1107894659575E+00  0.1110921462528E+00
 0.3182378443790E+00  0.6179203807748E-01  0.1786140443015E+00  0.1703747218338E+00
 0.4287311131459E+00  0.9563912020488E-01  0.2464540090498E+00  0.2174785130387E+00
-0.1605074844044E+00 -0.2273233064256E+01 -0.1143858054969E+01 -0.1033826518248E+01
-0.1908538757872E+00 -0.2123096336998E+01 -0.1087556597251E+01 -0.1017155897550E+01
-0.2222902685564E+00 -0.1959193950640E+01 -0.1025297580422E+01 -0.9950069278615E+00
-0.2589664488352E+00 -0.1798954474893E+01 -0.9672228316990E+00 -0.9683733911857E+00
-0.2933090832084E+00 -0.1639032322425E+01 -0.9082004583442E+00 -0.9348244619342E+00
-0.3229321862862E+00 -0.1479154489517E+01 -0.8469807354792E+00 -0.8931875515368E+00
-0.3457211913369E+00 -0.1319397819992E+01 -0.7826059333397E+00 -0.8428678537860E+00
-0.3599661326438E+00 -0.1160577724677E+01 -0.7146556111282E+00 -0.7837048853161E+00
-0.3640904866547E+00 -0.1003985276168E+01 -0.6429956068958E+00 -0.7158848604311E+00
-0.3566321957061E+00 -0.8512685504920E+00 -0.5677133492732E+00 -0.6399279014850E+00
-0.3362667059529E+00 -0.7043185079721E+00 -0.4890750493043E+00 -0.5567062066184E+00
-0.3018839570426E+00 -0.5651694861703E+00 -0.4075151172765E+00 -0.4674743418205E+00
-0.2527022042782E+00 -0.4358894259772E+00 -0.3236380653992E+00 -0.3738943199350E+00
-0.1884060872137E+00 -0.3184429020664E+00 -0.2382190243574E+00 -0.2780373781058E+00
-0.1092793163767E+00 -0.2145108892481E+00 -0.1521813962577E+00 -0.1823404116554E+00
-0.1628931568871E-01 -0.1252746209568E+00 -0.6653505005461E-01 -0.8949425931511E-01
 0.8898356319242E-01 -0.5117135649294E-01  0.1777173710368E-01 -0.2250653768091E-02
 0.2044828382930E+00  0.8131861725452E-02  0.9992890875520E-01  0.7682190155700E-01
 0.3290910797753E+00  0.5433515668726E-01  0.1802103306803E+00  0.1456204612036E+00
 0.4625114173787E+00  0.8951077507257E-01  0.2594504297940E+00  0.2033724571987E+00
-0.1421938238795E+00 -0.2427431318844E+01 -0.1207723814017E+01 -0.1072417874858E+01
-0.1794812685168E+00 -0.2290364946761E+01 -0.1160827718236E+01 -0.1066762932664E+01
-0.2191185108408E+00 -0.2140274893321E+01 -0.1108914897143E+01 -0.1052265854971E+01
-0.2598498942531E+00 -0.1982189553479E+01 -0.1053758537761E+01 -0.1031728558764E+01
-0.2999374230812E+00 -0.1820766228629E+01 -0.9967307137756E+00 -0.1004613332401E+01
-0.3361628898400E+00 -0.1656639779105E+01 -0.9366172520286E+00 -0.9696124911969E+00
-0.3663435852593E+00 -0.1490569034013E+01 -0.8727489288445E+00 -0.9257133647629E+00
-0.3884835581345E+00 -0.1323421427696E+01 -0.8045953412994E+00 -0.8722601505139E+00
-0.4007089956407E+00 -0.1156432348623E+01 -0.7318564299476E+00 -0.8089606538314E+00
-0.4011724057279E+00 -0.9912126146810E+00 -0.6544209579323E+00 -0.7358860033578E+00
-0.3880604167791E+00 -0.8297342616316E+00 -0.5723634974013E+00 -0.6534980877114E+00
-0.3596566106541E+00 -0.6742872169986E+00 -0.4859535977642E+00 -0.5627007217516E+00
-0.3144619772994E+00 -0.5274120952337E+00 -0.3956808130870E+00 -0.4649048153903E+00
-0.2513683855919E+00 -0.3917912088263E+00 -0.3022850086099E+00 -0.3620900409250E+00
-0.1698745598257E+00 -0.2700713448926E+00 -0.2067745746931E+00 -0.2568340968081E+00
-0.7029534028764E-01 -0.1645750757802E+00 -0.1103890952719E+00 -0.1522625023982E+00
 0.4610502071019E-01 -0.7690290910823E-01 -0.1447500751037E-01 -0.5185550960089E-01
 0.1773035136635E+00 -0.7405581818530E-02  0.7985202776459E-01  0.4093991796664E-01
 0.3206381694523E+00  0.4491543403383E-01  0.1718101932027E+00  0.1233192161365E+00
 0.4724697383374E+00  0.8186636633779E-01  0.2605379685365E+00  0.1936446311550E+00
-0.1214824240226E+00 -0.2591664477789E+01 -0.1275179040617E+01 -0.1104355637573E+01
-0.1654967893863E+00 -0.2464790732977E+01 -0.1236235132375E+01 -0.1109227853391E+01
-0.2103024894701E+00 -0.2325038624967E+01 -0.1191610320763E+01 -0.1104798187192E+01
-0.2562770854622E+00 -0.2175008930445E+01 -0.1142704424578E+01 -0.1092892287522E+01
-0.3016528422807E+00 -0.2017155743397E+01 -0.1089840032504E+01 -0.1073760020388E+01
-0.3443548831828E+00 -0.1853405458854E+01 -0.1032947358137E+01 -0.1046618331356E+01
-0.3820813868599E+00 -0.1684808164180E+01 -0.9714380865247E+00 -0.1010407909742E+01
-0.4127065447928E+00 -0.1512398961784E+01 -0.9047995857963E+00 -0.9641764379389E+00
-0.4341028805442E+00 -0.1337380758765E+01 -0.8325973083634E+00 -0.9071984749585E+00
-0.4440865753737E+00 -0.1161284664593E+01 -0.7545244808704E+00 -0.8390404111772E+00
-0.4403853594454E+00 -0.9860414043934E+00 -0.6704205773038E+00 -0.7596205886606E+00
-0.4206664068309E+00 -0.8140225518204E+00 -0.5803038090942E+00 -0.6692905511243E+00
-0.3826261734741E+00 -0.6480538086682E+00 -0.4844195903782E+00 -0.5689439159351E+00
-0.3241595702297E+00 -0.4913926016646E+00 -0.3833095198181E+00 -0.4601492093010E+00
-0.2436264400880E+00 -0.3476378079319E+00 -0.2778941958645E+00 -0.3452884634805E+00
-0.1402292646363E+00 -0.2205139935233E+00 -0.1695493309050E+00 -0.2276562354840E+00
-0.1442462389467E-01 -0.1133947165165E+00 -0.6007508984088E-01 -0.1114210270452E+00
 0.1317588578751E+00 -0.2850802320746E-01  0.4852789217071E-01 -0.1284707623403E-02
 0.2946780983125E+00  0.3393682325785E-01  0.1544490127463E+00  0.9822901094331E-01
 0.4696390321212E+00  0.7623432309023E-01  0.2565604762986E+00  0.1836128732705E+00
-0.9827893574368E-01 -0.2764618392602E+01 -0.1345561740910E+01 -0.1129547076910E+01
-0.1474983552980E+00 -0.2647577080055E+01 -0.1313685451284E+01 -0.1143987164912E+01
-0.1973440309743E+00 -0.2518616736934E+01 -0.1276501557679E+01 -0.1149860409903E+01
-0.2480993514171E+00 -0.2378231324166E+01 -0.1234375414393E+01 -0.1147939775560E+01
-0.2988142287580E+00 -0.2227809296388E+01 -0.1187513053806E+01 -0.1138382101802E+01
-0.3477538262192E+00 -0.2068613381572E+01 -0.1135692584781E+01 -0.1120627780019E+01
-0.3929424668163E+00 -0.1901709418434E+01 -0.1078486383332E+01 -0.1093700751070E+01
-0.4322509056289E+00 -0.1728014113926E+01 -0.1015324556615E+01 -0.1056496869295E+01
-0.4634468415066E+00 -0.1548556019702E+01 -0.9456413423695E+00 -0.1007959849987E+01
-0.4841261286093E+00 -0.1364624696459E+01 -0.8689128855783E+00 -0.9471822303760E+00
-0.4916648106042E+00 -0.1177901604747E+01 -0.7846962132248E+00 -0.8734905217545E+00
-0.4831952484559E+00 -0.9905678641962E+00 -0.6926686611896E+00 -0.7865452833203E+00
-0.4556310511821E+00 -0.8054049324921E+00 -0.5926869108236E+00 -0.6864777156533E+00
-0.4057685009387E+00 -0.6258879259645E+00 -0.4848785194147E+00 -0.5740778583855E+00
-0.3305161958653E+00 -0.4562580108950E+00 -0.3697838762394E+00 -0.4510433818084E+00
-0.2273270502513E+00 -0.3015209289861E+00 -0.2485585496111E+00 -0.3202811381687E+00
-0.9494642227846E-01 -0.1672609443609E+00 -0.1232374620079E+00 -0.1862044492658E+00
 0.6564810988949E-01 -0.5884308793237E-01  0.3198360311732E-02 -0.5482355027358E-01
 0.2507717435512E+00  0.2053567783735E-01  0.1275144877292E+00  0.6681847840497E-01
 0.4543447158625E+00  0.7185293302467E-01  0.2473128943497E+00  0.1721292922475E+00
-0.7268981304003E-01 -0.2944417658223E+01 -0.1418040507897E+01 -0.1147092408301E+01
-0.1259843410951E+00 -0.2838609758273E+01 -0.1393359223169E+01 -0.1170137679874E+01
-0.1802133833278E+00 -0.2721511808168E+01 -0.1363810836544E+01 -0.1185855338192E+01
-0.2355748375143E+00 -0.2592758853508E+01 -0.1329316831409E+01 -0.1194228453618E+01
-0.2913957837183E+00 -0.2452705297618E+01 -0.1289727504957E+01 -0.1195102062152E+01
-0.3463743743083E+00 -0.2301966117228E+01 -0.1244720027865E+01 -0.1187897001482E+01
-0.3988025575396E+00 -0.2141136650849E+01 -0.1193771424915E+01 -0.1171659193279E+01
-0.4467234507614E+00 -0.1970797054949E+01 -0.1136234634802E+01 -0.1145203164599E+01
-0.4879449978951E+00 -0.1791592148902E+01 -0.1071382456277E+01 -0.1107240155890E+01
-0.5200062617489E+00 -0.1604367950226E+01 -0.9984558770956E+00 -0.1056472540091E+01
-0.5401050268158E+00 -0.1410302799405E+01 -0.9166916759987E+00 -0.9916724736344E+00
-0.5450228821094E+00 -0.1211048980937E+01 -0.8253537735385E+00 -0.9117717090601E+00
-0.5310618199312E+00 -0.1008892708262E+01 -0.7237786264151E+00 -0.8159880779321E+00
-0.4940190565374E+00 -0.8069475216361E+00 -0.6114542901907E+00 -0.7040177764789E+00
-0.4292514612018E+00 -0.6093941955279E+00 -0.4881634574248E+00 -0.5763310320182E+00
-0.3319461956877E+00 -0.4217794532228E+00 -0.3542510540894E+00 -0.4346216539365E+00
-0.1978126997837E+00 -0.2513353704221E+00 -0.2110995924613E+00 -0.2824663618369E+00
-0.2471375159291E-01 -0.1072270406554E+00 -0.6201217219943E-01 -0.1261998157315E+00
 0.1850963136336E+00  0.8660512009377E-03  0.8740231125054E-01  0.2447921950191E-01
 0.4246318398642E+00  0.6845145566916E-01  0.2317491483129E+00  0.1577844901753E+00
-0.4509792143768E-01 -0.3129119701414E+01 -0.1491882278956E+01 -0.1155955087828E+01
-0.1014737374188E+00 -0.3036389429702E+01 -0.1474795684806E+01 -0.1186666400384E+01
-0.1594416070831E+00 -0.2932914927895E+01 -0.1453407567754E+01 -0.1211396208075E+01
-0.2190163062782E+00 -0.2817934123472E+01 -0.1427366698362E+01 -0.1229667349731E+01
-0.2796780708055E+00 -0.2691181308549E+01 -0.1396303904755E+01 -0.1241036951170E+01
-0.3403959064875E+00 -0.2552652657119E+01 -0.1359732821446E+01 -0.1244830853965E+01
-0.3997473798481E+00 -0.2402432171057E+01 -0.1317024385585E+01 -0.1240080272902E+01
-0.4559949418497E+00 -0.2240619030935E+01 -0.1267408563994E+01 -0.1225559970201E+01
-0.5071066875094E+00 -0.2067355118166E+01 -0.1209997045598E+01 -0.1199850222705E+01
-0.5507139556283E+00 -0.1882897067681E+01 -0.1143797178054E+01 -0.1161391345472E+01
-0.5840288345735E+00 -0.1687720669339E+01 -0.1067722264131E+01 -0.1108529443233E+01
-0.6037266811528E+00 -0.1482649323847E+01 -0.9805967198626E+00 -0.1039565931647E+01
-0.6057995837671E+00 -0.1269019730150E+01 -0.8811650753058E+00 -0.9528312521328E+00
-0.5853836704126E+00 -0.1048906626533E+01 -0.7681164376161E+00 -0.8468123372636E+00
-0.5365767047314E+00 -0.8254452357089E+00 -0.6401503103833E+00 -0.7203819479715E+00
-0.4523016854942E+00 -0.6033156899522E+00 -0.4961401652015E+00 -0.5732156289021E+00
-0.3244201665447E+00 -0.3895282997250E+00 -0.3355557782957E+00 -0.4065580505346E+00
-0.1446203911432E+00 -0.1947087795575E+00 -0.1594847098248E+00 -0.2246436052179E+00
 0.9122293998198E-01 -0.3597455086024E-01  0.2596674282136E-01 -0.3733122162940E-01
 0.3763115437208E+00  0.6533773518128E-01  0.2075751605575E+00  0.1371751734146E+00
-0.1601677282465E-01 -0.3316778644854E+01 -0.1566413842336E+01 -0.1155246271677E+01
-0.7469876560400E-01 -0.3239044399605E+01 -0.1557459283698E+01 -0.1192611236114E+01
-0.1357874478303E+00 -0.3151184073454E+01 -0.1544876611085E+01 -0.1225262376278E+01
-0.1991421781137E+00 -0.3052304144400E+01 -0.1528179767706E+01 -0.1252507133034E+01
-0.2643000638248E+00 -0.2941786426962E+01 -0.1506860646848E+01 -0.1273722125427E+01
-0.3304211873751E+00 -0.2819202286432E+01 -0.1480323028935E+01 -0.1288154651933E+01
-0.3963159013221E+00 -0.2684200111448E+01 -0.1447842522330E+01 -0.1294830946422E+01
-0.4604795247337E+00 -0.2536438461660E+01 -0.1408551450033E+01 -0.1292536650061E+01
-0.5210917465920E+00 -0.2375568676760E+01 -0.1361430395522E+01 -0.1279826699129E+01
-0.5759743710289E+00 -0.2201259442236E+01 -0.1305299888924E+01 -0.1255037623442E+01
-0.6225034643742E+00 -0.2013248682087E+01 -0.1238803505695E+01 -0.1216292097163E+01
-0.6574736572971E+00 -0.1811421408089E+01 -0.1160380677788E+01 -0.1161496694898E+01
-0.6769021721077E+00 -0.1595920159772E+01 -0.1068226493274E+01 -0.1088340880058E+01
-0.6757495286485E+00 -0.1367307933553E+01 -0.9602370047991E+00 -0.9943130625417E+00
-0.6475173608083E+00 -0.1126820884319E+01 -0.8339389730945E+00 -0.8767643128373E+00
-0.5836666317606E+00 -0.8767858691890E+00 -0.6864126737053E+00 -0.7330841714081E+00
-0.4727836514476E+00 -0.6213601703243E+00 -0.5142475949285E+00 -0.5611375463887E+00
-0.2995750602846E+00 -0.3680465253613E+00 -0.3137821444577E+00 -0.3603390546405E+00
-0.4431683506078E-01 -0.1312508861645E+00 -0.8251682876657E-01 -0.1345110377789E+00
 0.3023494500580E+00  0.5069990410299E-01  0.1659331960348E+00  0.9936910964590E-01
 0.1402973668814E-01 -0.3505306498495E+01 -0.1640900073887E+01 -0.1144243331301E+01
-0.4641667373362E-01 -0.3444334494801E+01 -0.1640653045050E+01 -0.1187112250772E+01
-0.1101225129908E+00 -0.3374056966411E+01 -0.1637564351166E+01 -0.1226355303994E+01
-0.1768531930040E+00 -0.3293589189424E+01 -0.1631107915604E+01 -0.1261224902612E+01
-0.2461830604998E+00 -0.3202173159015E+01 -0.1620727419061E+01 -0.1291016117212E+01
-0.3174060210536E+00 -0.3099153218580E+01 -0.1605782838555E+01 -0.1314940314267E+01
-0.3895214244234E+00 -0.2983916802437E+01 -0.1585515962603E+01 -0.1332042864915E+01
-0.4612339809263E+00 -0.2855838683740E+01 -0.1559024148439E+01 -0.1341162879712E+01
-0.5309393782988E+00 -0.2714247943189E+01 -0.1525238037231E+01 -0.1340914809952E+01
-0.5966795588833E+00 -0.2558416272327E+01 -0.1482895036908E+01 -0.1329673141870E+01
-0.6560596375563E+00 -0.2387563045971E+01 -0.1430502657629E+01 -0.1305547883097E+01
-0.7061152170802E+00 -0.2200872940876E+01 -0.1366284430774E+01 -0.1266343751326E+01
-0.7431102192371E+00 -0.1997527195565E+01 -0.1288099581690E+01 -0.1209498517473E+01
-0.7622264350949E+00 -0.1776755077533E+01 -0.1193321307909E+01 -0.1131996481934E+01
-0.7570710193271E+00 -0.1537920584222E+01 -0.1078646050932E+01 -0.1030253113926E+01
-0.7188550083574E+00 -0.1280672253677E+01 -0.9397778107725E+00 -0.8999694437540E+00
-0.6349303544307E+00 -0.1005208071728E+01 -0.7708650583391E+00 -0.7359673676476E+00
-0.4859603052624E+00 -0.7127805269242E+00 -0.5634081896987E+00 -0.5320843922113E+00
-0.2394909480541E+00 -0.4064847365579E+00 -0.3036085709976E+00 -0.2814119958193E+00
 0.1661210032601E+00 -0.9572534590306E-01  0.3308595887387E-01  0.1987996931634E-01
 0.4462549055221E-01 -0.3692261169568E+01 -0.1714388764789E+01 -0.1122423418105E+01
-0.1727895077990E-01 -0.3649391194519E+01 -0.1723334963919E+01 -0.1169435709292E+01
-0.8326193175078E-01 -0.3598293933835E+01 -0.1730331252437E+01 -0.1213696478728E+01
-0.1530985833034E+00 -0.3538180928788E+01 -0.1734901366283E+01 -0.1254475987424E+01
-0.2264172793096E+00 -0.3468297207918E+01 -0.1736515804593E+01 -0.1291043240022E+01
-0.3026327925588E+00 -0.3387936632251E+01 -0.1734567625261E+01 -0.1322595286993E+01
-0.3809126831451E+00 -0.3296414406653E+01 -0.1728343727821E+01 -0.1348195852110E+01
-0.4601587012924E+00 -0.3193031559314E+01 -0.1716999418130E+01 -0.1366734123678E+01
-0.5389812877548E+00 -0.3077044759536E+01 -0.1699532237916E+01 -0.1376896309899E+01
-0.6156542895906E+00 -0.2947645580295E+01 -0.1674750934598E+01 -0.1377138346288E+01
-0.6880398052206E+00 -0.2803946947266E+01 -0.1641233769506E+01 -0.1365648673632E+01
-0.7534718851227E+00 -0.2644973193314E+01 -0.1597269182814E+01 -0.1340290558655E+01
-0.8085803677480E+00 -0.2469649886834E+01 -0.1540768215746E+01 -0.1298511471864E+01
-0.8490208271742E+00 -0.2276789445683E+01 -0.1469130824517E+01 -0.1237200641103E+01
-0.8690452379380E+00 -0.2065065284264E+01 -0.1379031941937E+01 -0.1152461681904E+01
-0.8607802042050E+00 -0.1832955244401E+01 -0.1266055657634E+01 -0.1039236753373E+01
-0.8129210002230E+00 -0.1578597825265E+01 -0.1124013845129E+01 -0.8906499945347E+00
-0.7080248210592E+00 -0.1299297773687E+01 -0.9434416171378E+00 -0.6967509656627E+00
-0.5164361922508E+00 -0.9901199438144E+00 -0.7080813821547E+00 -0.4418223287018E+00
-0.1676588808927E+00 -0.6292815824761E+00 -0.3745620168333E+00 -0.9576038507006E-01
 0.7523013777154E-01 -0.3875226674897E+01 -0.1785998367919E+01 -0.1089654811153E+01
 0.1203105678519E-01 -0.3851196940149E+01 -0.1804407960604E+01 -0.1139269290590E+01
-0.5608061865957E-01 -0.3820268670632E+01 -0.1821884161346E+01 -0.1186794324225E+01
-0.1289523341665E+00 -0.3781763175662E+01 -0.1838036284958E+01 -0.1231522282929E+01
-0.2063162538939E+00 -0.3735007690275E+01 -0.1852422249061E+01 -0.1272704544519E+01
-0.2877381606751E+00 -0.3679353086505E+01 -0.1864532881445E+01 -0.1309509476301E+01
-0.3725846102853E+00 -0.3614167799371E+01 -0.1873773627786E+01 -0.1340977374143E+01
-0.4599987603353E+00 -0.3538820519414E+01 -0.1879445056715E+01 -0.1365981810971E+01
-0.5488745180714E+00 -0.3452662466071E+01 -0.1880722377777E+01 -0.1383195507988E+01
-0.6378200401671E+00 -0.3355012995975E+01 -0.1876631522227E+01 -0.1391053521868E+01
-0.7251041938563E+00 -0.3245148297957E+01 -0.1866018666419E+01 -0.1387704446856E+01
-0.8085798913844E+00 -0.3122290187294E+01 -0.1847508932293E+01 -0.1370938301906E+01
-0.8855766366578E+00 -0.2985590048742E+01 -0.1819448337523E+01 -0.1338075463222E+01
-0.9527507379616E+00 -0.2834099657726E+01 -0.1779819681459E+01 -0.1285791749019E+01
-0.1005875609140E+01 -0.2666713545781E+01 -0.1726116898435E+01 -0.1209835809465E+01
-0.1039546523804E+01 -0.2482050429978E+01 -0.1655150564080E+01 -0.1104555344734E+01
-0.1046765144069E+01 -0.2278196574367E+01 -0.1562732003702E+01 -0.9620601914753E+00
-0.1018461299121E+01 -0.2052163215439E+01 -0.1443193518183E+01 -0.7706292255571E+00
-0.9429032718338E+00 -0.1798284600094E+01 -0.1288358296538E+01 -0.5113162272335E+00
-0.8156778919847E+00 -0.1509124221263E+01 -0.1092656990455E+01 -0.1490154317102E+00
 0.1052848405329E+00 -0.4051825932373E+01 -0.1854874308460E+01 -0.1046159711147E+01
 0.4083589847196E-01 -0.4046796333305E+01 -0.1882801399596E+01 -0.1096765610148E+01
-0.2940531466047E-01 -0.4036347557676E+01 -0.1910903845151E+01 -0.1145749401617E+01
-0.1054145468854E+00 -0.4019909598405E+01 -0.1938902343369E+01 -0.1192407759411E+01
-0.1870848584795E+00 -0.3996912505101E+01 -0.1966478755895E+01 -0.1235962470495E+01
-0.2741914621910E+00 -0.3966801619669E+01 -0.1993266743419E+01 -0.1275529344583E+01
-0.3663668788692E+00 -0.3929039472132E+01 -0.2018840979850E+01 -0.1310080773351E+01
-0.4630838667050E+00 -0.3883099621436E+01 -0.2042706234245E+01 -0.1338407307738E+01
-0.5636414166227E+00 -0.3828457483837E+01 -0.2064286477980E+01 -0.1359077412653E+01
-0.6671507053351E+00 -0.3764580809838E+01 -0.2082913806848E+01 -0.1370390443913E+01
-0.7725202576704E+00 -0.3690919369259E+01 -0.2097816619336E+01 -0.1370315236455E+01
-0.8784427767472E+00 -0.3606890931683E+01 -0.2108106837615E+01 -0.1356404097901E+01
-0.9833907031270E+00 -0.3511858013315E+01 -0.2112766891369E+01 -0.1325667984520E+01
-0.1085636496851E+01 -0.3405086404112E+01 -0.2110639758099E+01 -0.1274391591953E+01
-0.1183333181197E+01 -0.3285670593387E+01 -0.2100431768727E+01 -0.1197854647853E+01
-0.1274740324929E+01 -0.3152403688186E+01 -0.2080757680886E+01 -0.1089904215799E+01
-0.1358812494172E+01 -0.3003560918605E+01 -0.2050315498805E+01 -0.9422857311890E+00
-0.1436777726294E+01 -0.2836610343449E+01 -0.2008492387685E+01 -0.7435973550494E+00
-0.1516984860382E+01 -0.2648277654934E+01 -0.1957673377233E+01 -0.4777057293367E+00
-0.1633475027590E+01 -0.2439950554550E+01 -0.1914510018750E+01 -0.1237533819082E+00
 0.1342691482995E+00 -0.4219784630918E+01 -0.1920192271960E+01 -0.9924268211192E+00
 0.6853886890370E-01 -0.4233388133952E+01 -0.1957479149608E+01 -0.1042451575686E+01
-0.3919534361252E-02 -0.4243098442022E+01 -0.1996098443837E+01 -0.1091158568795E+01
-0.8325643149670E-01 -0.4248441206480E+01 -0.2035897884685E+01 -0.1137837091224E+01
-0.1695795459498E+00 -0.4248940273974E+01 -0.2076704310097E+01 -0.1181673979137E+01
-0.2629322753584E+00 -0.4244128636259E+01 -0.2118318623088E+01 -0.1221726318651E+01
-0.3632808609467E+00 -0.4233551946122E+01 -0.2160511413842E+01 -0.1256887734930E+01
-0.4705101894601E+00 -0.4216765916588E+01 -0.2203019764255E+01 -0.1285850848550E+01
-0.5844277571322E+00 -0.4193329712462E+01 -0.2245546005014E+01 -0.1307065329570E+01
-0.7047768752151E+00 -0.4162796120223E+01 -0.2287759302053E+01 -0.1318688425778E+01
-0.8312633202518E+00 -0.4124697410285E+01 -0.2329301537445E+01 -0.1318523037000E+01
-0.9636044008504E+00 -0.4078523702558E+01 -0.2369800202591E+01 -0.1303936947202E+01
-0.1101617338192E+01 -0.4023688430634E+01 -0.2408893705238E+01 -0.1271755371320E+01
-0.1245377981626E+01 -0.3959472765759E+01 -0.2446279845067E+01 -0.1218117603276E+01
-0.1395508921444E+01 -0.3884938360721E+01 -0.2481810216323E+01 -0.1138288567637E+01
-0.1553710651830E+01 -0.3798794624735E+01 -0.2515677473605E+01 -0.1026421995935E+01
-0.1723779052277E+01 -0.3699223662966E+01 -0.2548811269700E+01 -0.8753021238572E+00
-0.1913551568333E+01 -0.3583660999901E+01 -0.2583689900516E+01 -0.6761959694717E+00
-0.2139006904531E+01 -0.3449014527939E+01 -0.2626370066600E+01 -0.4194641258953E+00
-0.2423469124587E+01 -0.3287288126633E+01 -0.2684055901266E+01 -0.9775798923799E-01
 0.1617350760102E+00 -0.4376979649132E+01 -0.1981164944342E+01 -0.9291316745483E+00
 0.9465894378381E-01 -0.4408383014838E+01 -0.2027450308253E+01 -0.9771122818319E+00
 0.1987460254340E-01 -0.4437378235766E+01 -0.2076226702348E+01 -0.1023955214191E+01
-0.6297919921147E-01 -0.4463566037130E+01 -0.2127476255684E+01 -0.1068943682000E+01
-0.1542659126408E+00 -0.4486539703246E+01 -0.2181178633934E+01 -0.1111238126551E+01
-0.2543416403631E+00 -0.4505891827974E+01 -0.2237309724444E+01 -0.1149851375175E+01
-0.3635544861947E+00 -0.4521215873509E+01 -0.2295842063238E+01 -0.1183618406335E+01
-0.4822539453306E+00 -0.4532102641579E+01 -0.2356747589870E+01 -0.1211162265105E+01
-0.6108119841210E+00 -0.4538132038294E+01 -0.2420003684397E+01 -0.1230856162047E+01
-0.7496592491384E+00 -0.4538859793991E+01 -0.2485603943966E+01 -0.1240780598828E+01
-0.8993428301970E+00 -0.4533797509826E+01 -0.2553575953334E+01 -0.1238673799337E+01
-0.1060616553896E+01 -0.4522382913327E+01 -0.2624009742939E+01 -0.1221873937755E+01
-0.1234581679914E+01 -0.4503935549326E+01 -0.2697103090902E+01 -0.1187253052357E+01
-0.1422906810521E+01 -0.4477591546166E+01 -0.2773234220609E+01 -0.1131146310978E+01
-0.1628171859377E+01 -0.4442208973526E+01 -0.2853078984228E+01 -0.1049289382638E+01
-0.1854406530299E+01 -0.4396236616914E+01 -0.2937802271739E+01 -0.9367984431513E+00
-0.2107893434864E+01 -0.4337523078711E+01 -0.3029345753696E+01 -0.7882774371218E+00
-0.2398307978450E+01 -0.4263089966053E+01 -0.3130857025976E+01 -0.5982594163058E+00
-0.2738869804415E+01 -0.4168107972052E+01 -0.3246279546706E+01 -0.3623771162338E+00
-0.3145506220950E+01 -0.4045483930804E+01 -0.3379765362752E+01 -0.7915492707868E-01
 0.1873189753842E+00 -0.4521474643564E+01 -0.2037053158878E+01 -0.8570790722016E+00
 0.1188416271605E+00 -0.4569440913055E+01 -0.2091781659065E+01 -0.9017030078383E+00
 0.4165927222896E-01 -0.4616378236307E+01 -0.2150117907663E+01 -0.9452861755315E+00
-0.4482330739482E-01 -0.4661937614758E+01 -0.2212177627801E+01 -0.9871187893635E+00
-0.1412492164871E+00 -0.4705752244250E+01 -0.2278090680768E+01 -0.1026356556253E+01
-0.2483103037374E+00 -0.4747439987413E+01 -0.2348002630885E+01 -0.1061999024348E+01
-0.3667567494350E+00 -0.4786601525412E+01 -0.2422078383035E+01 -0.1092864029138E+01
-0.4974170802306E+00 -0.4822813915778E+01 -0.2500508561782E+01 -0.1117559763421E+01
-0.6412309685963E+00 -0.4855619242289E+01 -0.2583519592563E+01 -0.1134455407616E+01
-0.7992986261510E+00 -0.4884507525987E+01 -0.2671388884729E+01 -0.1141651027597E+01
-0.9729527351002E+00 -0.4908892245768E+01 -0.2764467133996E+01 -0.1136947875384E+01
-0.1163861638712E+01 -0.4928075848707E+01 -0.2863210611825E+01 -0.1117821637153E+01
-0.1374175873819E+01 -0.4941201676198E+01 -0.2968227440979E+01 -0.1081404160247E+01
-0.1606733159524E+01 -0.4947187661287E+01 -0.3080342777969E+01 -0.1024484921871E+01
-0.1865337824870E+01 -0.4944636722982E+01 -0.3200688029372E+01 -0.9435541499902E+00
-0.2155115226463E+01 -0.4931714112064E+01 -0.3330809780660E+01 -0.8349283445742E+00
-0.2482904467149E+01 -0.4905988606041E+01 -0.3472779735591E+01 -0.6950291712943E+00
-0.2857388060151E+01 -0.4864131761758E+01 -0.3629114307093E+01 -0.5209141501831E+00
-0.3288814375468E+01 -0.4801744782823E+01 -0.3802562794752E+01 -0.3110442485906E+00
-0.3787992314966E+01 -0.4713364870718E+01 -0.3995637867137E+01 -0.6607467706631E-01
 0.2107407401086E+00 -0.4651542134917E+01 -0.2087176650266E+01 -0.7771612278157E+00
 0.1408521266190E+00 -0.4714493261019E+01 -0.2149611327716E+01 -0.8172859617130E+00
 0.6128186134337E-01 -0.4777643995569E+01 -0.2216690197464E+01 -0.8564219114304E+00
-0.2880710486066E-01 -0.4840670677579E+01 -0.2288654551942E+01 -0.8938875310848E+00
-0.1303427279093E+00 -0.4903218227301E+01 -0.2365773642949E+01 -0.9288643424708E+00
-0.2443527524848E+00 -0.4964898306817E+01 -0.2448347991662E+01 -0.9603794545401E+00
-0.3719814085928E+00 -0.5025283818865E+01 -0.2536714650471E+01 -0.9872857986620E+00
-0.5145154422937E+00 -0.5083899365568E+01 -0.2631254953021E+01 -0.1008241940840E+01
-0.6734214979382E+00 -0.5140207213232E+01 -0.2732405487320E+01 -0.1021693257887E+01
-0.8503976681679E+00 -0.5193587977963E+01 -0.2840673246477E+01 -0.1025856568223E+01
-0.1047442940236E+01 -0.5243314785724E+01 -0.2956656123702E+01 -0.1018711205655E+01
-0.1266948938831E+01 -0.5288519198682E+01 -0.3081070016817E+01 -0.9980012598244E+00
-0.1511818003181E+01 -0.5328146810291E+01 -0.3214783454178E+01 -0.9612566319699E+00
-0.1785608774710E+01 -0.5360900384613E+01 -0.3358859296362E+01 -0.9058451250993E+00
-0.2092700519759E+01 -0.5385168061194E+01 -0.3514598224134E+01 -0.8290742740331E+00
-0.2438447318935E+01 -0.5398937236309E+01 -0.3683570731622E+01 -0.7283688573557E+00
-0.2829233132935E+01 -0.5399686111891E+01 -0.3867592035259E+01 -0.6015515078617E+00
-0.3272348300148E+01 -0.5384319078051E+01 -0.4068633657434E+01 -0.4472217795555E+00
-0.3775585548041E+01 -0.5349194580769E+01 -0.4288646649663E+01 -0.2651654275783E+00
-0.4346666052529E+01 -0.5290396469076E+01 -0.4529419373666E+01 -0.5664637646965E-01
 0.2317952542581E+00 -0.4765673094415E+01 -0.2130922579469E+01 -0.6903246751166E+00
 0.1605568162638E+00 -0.4841749779591E+01 -0.2200160687183E+01 -0.7249825956365E+00
 0.7872177236737E-01 -0.4919074990692E+01 -0.2274966006842E+01 -0.7586905668087E+00
-0.1478148245837E-01 -0.4997328848674E+01 -0.2355691849657E+01 -0.7908207104370E+00
-0.1211529910516E+00 -0.5076145115755E+01 -0.2442730104003E+01 -0.8206148906864E+00
-0.2417356951205E+00 -0.5155105408351E+01 -0.2536515312198E+01 -0.8471719176624E+00
-0.3780358946804E+00 -0.5233730488501E+01 -0.2637530193405E+01 -0.8694338754216E+00
-0.5317506830245E+00 -0.5311468388494E+01 -0.2746312956648E+01 -0.8861737348223E+00
-0.7048034381759E+00 -0.5387679073788E+01 -0.2863466773360E+01 -0.8959865678863E+00
-0.8993885840474E+00 -0.5461615213906E+01 -0.2989671777455E+01 -0.8972871526411E+00
-0.1118026712283E+01 -0.5532398494208E+01 -0.3125699839123E+01 -0.8883176368843E+00
-0.1363630300906E+01 -0.5598990846131E+01 -0.3272431930807E+01 -0.8671702776291E+00
-0.1639577951649E+01 -0.5660160179952E+01 -0.3430876913151E+01 -0.8318320763125E+00
-0.1949789861848E+01 -0.5714440750992E+01 -0.3602188378898E+01 -0.7802601360195E+00
-0.2298788190227E+01 -0.5760090274744E+01 -0.3787672868929E+01 -0.7104978017407E+00
-0.2691709139679E+01 -0.5795047826844E+01 -0.3988775764149E+01 -0.6208395060844E+00
-0.3134229262051E+01 -0.5816913919942E+01 -0.4207037284866E+01 -0.5100402008402E+00
-0.3632364821629E+01 -0.5822976869334E+01 -0.4444010583481E+01 -0.3775420847346E+00
-0.4192165148214E+01 -0.5810340424657E+01 -0.4701177607326E+01 -0.2236644049752E+00
-0.4819358494216E+01 -0.5776155894990E+01 -0.4979891750296E+01 -0.4969723168220E-01
 0.2503385622693E+00 -0.4862579647194E+01 -0.2167753304417E+01 -0.5975469279052E+00
 0.1778991883555E+00 -0.4949695570423E+01 -0.2242744293883E+01 -0.6259417568910E+00
 0.9405174254423E-01 -0.5038912086763E+01 -0.2324084355888E+01 -0.6534357525316E+00
-0.2488607635406E-02 -0.5129896896648E+01 -0.2412221180895E+01 -0.6794807285339E+00
-0.1131655285894E+00 -0.5222257051645E+01 -0.2507648606350E+01 -0.7034130658859E+00
-0.2395993343358E+00 -0.5315529727536E+01 -0.2610910652457E+01 -0.7244454790615E+00
-0.3836084656225E+00 -0.5409171069541E+01 -0.2722606374621E+01 -0.7416588376967E+00
-0.5472348560061E+00 -0.5502543067592E+01 -0.2843395616879E+01 -0.7539962981403E+00
-0.7327731576530E+00 -0.5594898422420E+01 -0.2974005635091E+01 -0.7602621883015E+00
-0.9428034958605E+00 -0.5685363463847E+01 -0.3115238463161E+01 -0.7591284736142E+00
-0.1180226713149E+01 -0.5772919300899E+01 -0.3267978618314E+01 -0.7491522166556E+00
-0.1448299672442E+01 -0.5856381637075E+01 -0.3433200206765E+01 -0.7288081162447E+00
-0.1750665676469E+01 -0.5934380200962E+01 -0.3611971553231E+01 -0.6965407150057E+00
-0.2091371198673E+01 -0.6005339882331E+01 -0.3805454198420E+01 -0.6508406446062E+00
-0.2474854674977E+01 -0.6067467432392E+01 -0.4014891380280E+01 -0.5903472883362E+00
-0.2905890531051E+01 -0.6118752551724E+01 -0.4241582238146E+01 -0.5139746748132E+00
-0.3389471992474E+01 -0.6156994847499E+01 -0.4486839403407E+01 -0.4210476047535E+00
-0.3930633644891E+01 -0.6179874814929E+01 -0.4751938964063E+01 -0.3114228084773E+00
-0.4534213383317E+01 -0.6185062195027E+01 -0.5038059509043E+01 -0.1855625676444E+00
-0.5204609720451E+01 -0.6170387976465E+01 -0.5346248903990E+01 -0.4454678114086E-01
 0.2662726405322E+00 -0.4941193315869E+01 -0.2197212711835E+01 -0.4998211404606E+00
 0.1928745331316E+00 -0.5037083155375E+01 -0.2276778046680E+01 -0.5213206422339E+00
 0.1073993191200E+00 -0.5135719397508E+01 -0.2363310430848E+01 -0.5419932426840E+00
 0.8382282330150E-02 -0.5236747505210E+01 -0.2457331648521E+01 -0.5613941318704E+00
-0.1058225265827E+00 -0.5339740150880E+01 -0.2559414451916E+01 -0.5789847239502E+00
-0.2370618994537E+00 -0.5444185026767E+01 -0.2670186048551E+01 -0.5941283160971E+00
-0.3874043659322E+00 -0.5549472138703E+01 -0.2790331950101E+01 -0.6060861094803E+00
-0.5591616596646E+00 -0.5654880390879E+01 -0.2920599756348E+01 -0.6140157653787E+00
-0.7549098938570E+00 -0.5759563734625E+01 -0.3061802597620E+01 -0.6169746734425E+00
-0.9775089907574E+00 -0.5862537439930E+01 -0.3214821814269E+01 -0.6139303082528E+00
-0.1230118056010E+01 -0.5962665330472E+01 -0.3380608183072E+01 -0.6037803062687E+00
-0.1516203201687E+01 -0.6058649221063E+01 -0.3560180629662E+01 -0.5853849975649E+00
-0.1839532774560E+01 -0.6149022418369E+01 -0.3754620931153E+01 -0.5576147649120E+00
-0.2204153207393E+01 -0.6232150049050E+01 -0.3965062520471E+01 -0.5194133123189E+00
-0.2614338002330E+01 -0.6306240562797E+01 -0.4192671914975E+01 -0.4698751097822E+00
-0.3074503541096E+01 -0.6369373904814E+01 -0.4438622388320E+01 -0.4083307060416E+00
-0.3589091969141E+01 -0.6419553139334E+01 -0.4704063189052E+01 -0.3344279177425E+00
-0.4162427175165E+01 -0.6454780265993E+01 -0.4990087484687E+01 -0.2481924382091E+00
-0.4798572163265E+01 -0.6473161008946E+01 -0.5297714577502E+01 -0.1500499064114E+00
-0.5501092843207E+01 -0.6472938123926E+01 -0.5627794540278E+01 -0.4078362704775E-01
 0.2795304818382E+00 -0.5000661502989E+01 -0.2218931574313E+01 -0.3981460845884E+00
 0.2055064732195E+00 -0.5102922196251E+01 -0.2301785383987E+01 -0.4122742208011E+00
 0.1189121888039E+00 -0.5208364066645E+01 -0.2392042376518E+01 -0.4256802600364E+00
 0.1814612247352E-01 -0.5316607492389E+01 -0.2490276837544E+01 -0.4380418326774E+00
-0.9858824921749E-01 -0.5427190241213E+01 -0.2597115883915E+01 -0.4489700657610E+00
-0.2333038730471E+00 -0.5539553598395E+01 -0.2713243004696E+01 -0.4580078593487E+00
-0.3882498018122E+00 -0.5653028884798E+01 -0.2839400975505E+01 -0.4646285213749E+00
-0.5659285553426E+00 -0.5766824306952E+01 -0.2976393837729E+01 -0.4682364855214E+00
-0.7691098649453E+00 -0.5880012774108E+01 -0.3125087632429E+01 -0.4681716638192E+00
-0.1000838662184E+01 -0.5991521625399E+01 -0.3286409326829E+01 -0.4637190742279E+00
-0.1264434465744E+01 -0.6100125597247E+01 -0.3461343220827E+01 -0.4541254300985E+00
-0.1563478652371E+01 -0.6204444777242E+01 -0.3650924002658E+01 -0.4386242110359E+00
-0.1901785647115E+01 -0.6302949756030E+01 -0.3856225629697E+01 -0.4164701247703E+00
-0.2283354263667E+01 -0.6393976703264E+01 -0.4078345544114E+01 -0.3869825619071E+00
-0.2712296732104E+01 -0.6475755337955E+01 -0.4318384461975E+01 -0.3495955192269E+00
-0.3192746258400E+01 -0.6546452600874E+01 -0.4577423452249E+01 -0.3039087721897E+00
-0.3728748407603E+01 -0.6604232745265E+01 -0.4856501129530E+01 -0.2497327534034E+00
-0.4324150188490E+01 -0.6647333424301E+01 -0.5156597284933E+01 -0.1871187660405E+00
-0.4982499519768E+01 -0.6674145887377E+01 -0.5478623327463E+01 -0.1163680376278E+00
-0.5707087970672E+01 -0.6683362688446E+01 -0.5823511795015E+01 -0.3800379586877E-01
 0.2900624788322E+00 -0.5040344166046E+01 -0.2232632387328E+01 -0.2935217295363E+00
 0.2158245375588E+00 -0.5146470594538E+01 -0.2317403640902E+01 -0.2999524805257E+00
 0.1287224399087E+00 -0.5256001450339E+01 -0.2409821128790E+01 -0.3057941879900E+00
 0.2707074241258E-01 -0.5368534082711E+01 -0.2510487763573E+01 -0.3108603262496E+00
-0.9101825457578E-01 -0.5483576402073E+01 -0.2620059481979E+01 -0.3149291744067E+00
-0.2276571012780E+00 -0.5600532668997E+01 -0.2739249185081E+01 -0.3177432704468E+00
-0.3852015469636E+00 -0.5718689578488E+01 -0.2868828821686E+01 -0.3190093634831E+00
-0.5662649691028E+00 -0.5837203512016E+01 -0.3009630178492E+01 -0.3183994656708E+00
-0.7737271219070E+00 -0.5955089671262E+01 -0.3162543884768E+01 -0.3155537276172E+00
-0.1010734771505E+01 -0.6071214320883E+01 -0.3328516064980E+01 -0.3100859150328E+00
-0.1280691221131E+01 -0.6184291748267E+01 -0.3508541986718E+01 -0.3015922595205E+00
-0.1587231502892E+01 -0.6292887921468E+01 -0.3703656120056E+01 -0.2896643128995E+00
-0.1934180326977E+01 -0.6395433110202E+01 -0.3914918305545E+01 -0.2739060536493E+00
-0.2325491020572E+01 -0.6490245759255E+01 -0.4143396276009E+01 -0.2539547976393E+00
-0.2765165928083E+01 -0.6575569456112E+01 -0.4390145619437E+01 -0.2295044771614E+00
-0.3257161846168E+01 -0.6649623476564E+01 -0.4656189089874E+01 -0.2003288326181E+00
-0.3805287961764E+01 -0.6710665457227E+01 -0.4942498094390E+01 -0.1663015087929E+00
-0.4413106173124E+01 -0.6757061207369E+01 -0.5249978655516E+01 -0.1274109213487E+00
-0.5083853085408E+01 -0.6787359517880E+01 -0.5579469909394E+01 -0.8377032115058E-01
-0.5820416491281E+01 -0.6800367127927E+01 -0.5931768285983E+01 -0.3564768119533E-01
 0.2978197309379E+00 -0.5059812388501E+01 -0.2238136543378E+01 -0.1869486352688E+00
 0.2238236038073E+00 -0.5167241869694E+01 -0.2323406579074E+01 -0.1855002522781E+00
 0.1368807640993E+00 -0.5278089973184E+01 -0.2416368322141E+01 -0.1836128714354E+00
 0.3528141262264E-01 -0.5391934762616E+01 -0.2517627068111E+01 -0.1812434909981E+00
-0.8289033963781E-01 -0.5508263155823E+01 -0.2627842136201E+01 -0.1783464409132E+00
-0.2197770634558E+00 -0.5626455615873E+01 -0.2747729352315E+01 -0.1748738275060E+00
-0.3777658345157E+00 -0.5745772255433E+01 -0.2878062894976E+01 -0.1707762107271E+00
-0.5595016791100E+00 -0.5865340224782E+01 -0.3019675687170E+01 -0.1660030924980E+00
-0.7678948613425E+00 -0.5984143332663E+01 -0.3173457943133E+01 -0.1605030572405E+00
-0.1006119432180E+01 -0.6101015197399E+01 -0.3340353267430E+01 -0.1542234650213E+00
-0.1277600018976E+01 -0.6214637637696E+01 -0.3521351689705E+01 -0.1471096297236E+00
-0.1585983730857E+01 -0.6323546344672E+01 -0.3717479126070E+01 -0.1391034565371E+00
-0.1935094555100E+01 -0.6426146064850E+01 -0.3929783081409E+01 -0.1301415948065E+00
-0.2328868979048E+01 -0.6520737390368E+01 -0.4159314983076E+01 -0.1201533086660E+00
-0.2771273871699E+01 -0.6605556520281E+01 -0.4407110273052E+01 -0.1090584911265E+00
-0.3266210647347E+01 -0.6678827839723E+01 -0.4674168077068E+01 -0.9676652505321E-01
-0.3817412390265E+01 -0.6738826716770E+01 -0.4961432367722E+01 -0.8317704742272E-01
-0.4428341582970E+01 -0.6783947144253E+01 -0.5269775688429E+01 -0.6818414719679E-01
-0.5102093159843E+01 -0.6812766102492E+01 -0.5599983839094E+01 -0.5168807996955E-01
-0.5841219823988E+01 -0.6824045141195E+01 -0.5952674518538E+01 -0.3362387208069E-01
 0.3027433809797E+00 -0.5058845418266E+01 -0.2235367951855E+01 -0.7943443367575E-01
 0.2294399724227E+00 -0.5165006126597E+01 -0.2319716086578E+01 -0.7006861380135E-01
 0.1433248378475E+00 -0.5274390640352E+01 -0.2411600921061E+01 -0.6041869266696E-01
 0.4271975259622E-01 -0.5386564764679E+01 -0.2511607149309E+01 -0.5058646136170E-01
-0.7425583421496E-01 -0.5501004327473E+01 -0.2620372269347E+01 -0.4070254161792E-01
-0.2097047851565E+00 -0.5617080649910E+01 -0.2738589147535E+01 -0.3092855517413E-01
-0.3659703050522E+00 -0.5734046671771E+01 -0.2867007971835E+01 -0.2145874347594E-01
-0.5456507442640E+00 -0.5851024174432E+01 -0.3006437204162E+01 -0.1252004483382E-01
-0.7516092548251E+00 -0.5966992892866E+01 -0.3157743001406E+01 -0.4369654226074E-02
-0.9869758323026E+00 -0.6080782788094E+01 -0.3321846543161E+01  0.2710890063023E-02
-0.1255138717210E+01 -0.6191071117345E+01 -0.3499718613364E+01  0.8426004213066E-02
-0.1559721800329E+01 -0.6296386285685E+01 -0.3692370791061E+01  0.1248145419755E-01
-0.1904544776427E+01 -0.6395120722275E+01 -0.3900842774496E+01  0.1460506155103E-01
-0.2293563641349E+01 -0.6485555070677E+01 -0.4126185784187E+01  0.1457199088564E-01
-0.2730791021151E+01 -0.6565895578758E+01 -0.4369442690875E+01  0.1223249363176E-01
-0.3220198759981E+01 -0.6634325408315E+01 -0.4631626347352E+01  0.7538394104632E-02
-0.3765608321926E+01 -0.6689068319277E+01 -0.4913698008902E+01  0.5634816391520E-03
-0.4370576719569E+01 -0.6728460458698E+01 -0.5216547460554E+01 -0.8486891127865E-02
-0.5038275534856E+01 -0.6751017718360E+01 -0.5540967814958E+01 -0.1927915528078E-01
-0.5771390552141E+01 -0.6755521510965E+01 -0.5887648654727E+01 -0.3135462358296E-01
 0.3047700911462E+00 -0.5037428882717E+01 -0.2224349626397E+01  0.2800587749554E-01
 0.2325793134670E+00 -0.5139768493409E+01 -0.2306378908723E+01  0.4518641438558E-01
 0.1479228282074E+00 -0.5244930785218E+01 -0.2395593733719E+01  0.6250146346909E-01
 0.4920729363232E-01 -0.5352474581206E+01 -0.2492535618838E+01  0.7971069682083E-01
-0.6535157159370E-01 -0.5461873946272E+01 -0.2597795986808E+01  0.9651557824061E-01
-0.1977487471608E+00 -0.5572504813007E+01 -0.2712019166400E+01  0.1125548029668E+00
-0.3502092578283E+00 -0.5683631493709E+01 -0.2835905146029E+01  0.1274008471783E+00
-0.5252063040219E+00 -0.5794393452810E+01 -0.2970211878178E+01  0.1405591719730E+00
-0.7254767101720E+00 -0.5903793059376E+01 -0.3115756783785E+01  0.1514717416940E+00
-0.9540315782131E+00 -0.6010685381670E+01 -0.3273416962842E+01  0.1595266244618E+00
-0.1214159317131E+01 -0.6113771436042E+01 -0.3444127445256E+01  0.1640754968530E+00
-0.1509417397054E+01 -0.6211596667410E+01 -0.3628876601094E+01  0.1644607262621E+00
-0.1843608363526E+01 -0.6302556855780E+01 -0.3828697643363E+01  0.1600530971985E+00
-0.2220735201659E+01 -0.6384914120377E+01 -0.4044655171098E+01  0.1502998584086E+00
-0.2644931783401E+01 -0.6456826129816E+01 -0.4277826208362E+01  0.1347803535767E+00
-0.3120366665030E+01 -0.6516391558982E+01 -0.4529276353798E+01  0.1132632546775E+00
-0.3651123582524E+01 -0.6561713772765E+01 -0.4800033544811E+01  0.8575639231399E-01
-0.4241067269947E+01 -0.6590980914715E+01 -0.5091062633878E+01  0.5253946095480E-01
-0.4893715078468E+01 -0.6602561792128E+01 -0.5403250115476E+01  0.1417473346997E-01
-0.5612143398472E+01 -0.6595109517773E+01 -0.5737408856083E+01 -0.2850086880366E-01
 0.3038346774001E+00 -0.4995754194358E+01 -0.2205202167377E+01  0.1343450362297E+00
 0.2331232651709E+00 -0.5091768118468E+01 -0.2283563075258E+01  0.1590945783143E+00
 0.1504862869816E+00 -0.5189999722054E+01 -0.2368571308477E+01  0.1838417924976E+00
 0.5446431175608E-01 -0.5290003292948E+01 -0.2460703314919E+01  0.2082213403578E+00
-0.5657394484070E-01 -0.5391257547529E+01 -0.2560480794919E+01  0.2317836458255E+00
-0.1844507831547E+00 -0.5493153796192E+01 -0.2668474145525E+01  0.2539872217660E+00
-0.3312004590962E+00 -0.5594983152621E+01 -0.2785306290442E+01  0.2741921177343E+00
-0.4990917444616E+00 -0.5695922843941E+01 -0.2911656849164E+01  0.2916565161629E+00
-0.6906514010983E+00 -0.5795022101211E+01 -0.3048266538354E+01  0.3055387027706E+00
-0.9086872548699E+00 -0.5891188394765E+01 -0.3195941547222E+01  0.3149068682967E+00
-0.1156308735888E+01 -0.5983175033155E+01 -0.3355557362939E+01  0.3187594828349E+00
-0.1436941476871E+01 -0.6069571473295E+01 -0.3528061077630E+01  0.3160591887425E+00
-0.1754330643024E+01 -0.6148798213342E+01 -0.3714470553071E+01  0.3057829824844E+00
-0.2112525137427E+01 -0.6219108984230E+01 -0.3915868027247E+01  0.2869903832767E+00
-0.2515832564941E+01 -0.6278604384395E+01 -0.4133385355704E+01  0.2589085630014E+00
-0.2968735124847E+01 -0.6325263153543E+01 -0.4368179179764E+01  0.2210283979830E+00
-0.3475761781369E+01 -0.6356998354671E+01 -0.4621397252217E+01  0.1731986421868E+00
-0.4041325529362E+01 -0.6371745202646E+01 -0.4894143231630E+01  0.1156997448839E+00
-0.4669549560847E+01 -0.6367578058863E+01 -0.5187449968106E+01  0.4927850178729E-01
-0.5364115384046E+01 -0.6342839232760E+01 -0.5502268655943E+01 -0.2486904375028E-01
 0.2998751193221E+00 -0.4934221060202E+01 -0.2178142586689E+01  0.2385390817287E+00
 0.2309361164043E+00 -0.5021483800617E+01 -0.2251557405869E+01  0.2704617063197E+00
 0.1507796628477E+00 -0.5110157863584E+01 -0.2330907748434E+01  0.3022610884550E+00
 0.5812247566611E-01 -0.5199791777759E+01 -0.2416584565854E+01  0.3334667157706E+00
-0.4846356738751E-01 -0.5289870755117E+01 -0.2509017125214E+01  0.3635026314472E+00
-0.1705689617238E+00 -0.5379807156445E+01 -0.2608676768923E+01  0.3916759806631E+00
-0.3099682380504E+00 -0.5468928929334E+01 -0.2716081661782E+01  0.4171659134735E+00
-0.4686465659916E+00 -0.5556465734420E+01 -0.2831802774011E+01  0.4390152907067E+00
-0.6488315771298E+00 -0.5641532970586E+01 -0.2956471329928E+01  0.4561277990991E+00
-0.8530303221432E+00 -0.5723114126105E+01 -0.3090787882837E+01  0.4672733456257E+00
-0.1084070710526E+01 -0.5800041959727E+01 -0.3235532946812E+01  0.4711051488039E+00
-0.1345145535646E+01 -0.5870979163647E+01 -0.3391578600065E+01  0.4661927555129E+00
-0.1639854641406E+01 -0.5934399583848E+01 -0.3559899476840E+01  0.4510760749577E+00
-0.1972236265331E+01 -0.5988572026980E+01 -0.3741579887896E+01  0.4243459113864E+00
-0.2346771565343E+01 -0.6031550368974E+01 -0.3937811299141E+01  0.3847552622961E+00
-0.2768339205335E+01 -0.6061177454960E+01 -0.4149872819813E+01  0.3313605921632E+00
-0.3242097314716E+01 -0.6075117150780E+01 -0.4379090787676E+01  0.2636809972410E+00
-0.3773283215748E+01 -0.6070931866764E+01 -0.4626781077045E+01  0.1818469674148E+00
-0.4366953843167E+01 -0.6046219782534E+01 -0.4894191591666E+01  0.8669676629900E-01
-0.5027715053047E+01 -0.5998799222893E+01 -0.5182461696547E+01 -0.2021876554964E-01
 0.2928415251481E+00 -0.4853443365952E+01 -0.2143482859741E+01  0.3395242019689E+00
 0.2258780990290E+00 -0.4929643686817E+01 -0.2210769820653E+01  0.3780622958876E+00
 0.1485384839355E+00 -0.5006252446520E+01 -0.2283125556624E+01  0.4163694555966E+00
 0.5974868365942E-01 -0.5082806458669E+01 -0.2360837148267E+01  0.4538944681327E+00
-0.4167570809332E-01 -0.5158793318856E+01 -0.2444220436467E+01  0.4899660181153E+00
-0.1570432627161E+00 -0.5233645197986E+01 -0.2533623570104E+01  0.5237770425791E+00
-0.2878069504747E+00 -0.5306729316857E+01 -0.2629432038977E+01  0.5543677182187E+00
-0.4355926361176E+00 -0.5377334400125E+01 -0.2732075700105E+01  0.5806100522905E+00
-0.6022371063602E+00 -0.5444653263708E+01 -0.2842038466724E+01  0.6011968488844E+00
-0.7898369973789E+00 -0.5507761781999E+01 -0.2959871418800E+01  0.6146378246047E+00
-0.1000810191793E+01 -0.5565594179880E+01 -0.3086210046858E+01  0.6192662891598E+00
-0.1237970968420E+01 -0.5616914359445E+01 -0.3221796095925E+01  0.6132612307392E+00
-0.1504618475487E+01 -0.5660283065801E+01 -0.3367503715864E+01  0.5946918785377E+00
-0.1804633352557E+01 -0.5694021290502E+01 -0.3524367673298E+01  0.5615947196151E+00
-0.2142567242093E+01 -0.5716171855843E+01 -0.3693607366661E+01  0.5120957810701E+00
-0.2523689938787E+01 -0.5724462988998E+01 -0.3876631866226E+01  0.4445912083404E+00
-0.2953936162118E+01 -0.5716286849946E+01 -0.4075004805334E+01  0.3579891252331E+00
-0.3439698087881E+01 -0.5688730156892E+01 -0.4290361264161E+01  0.2519860036691E+00
-0.3987444254724E+01 -0.5638698740462E+01 -0.4524287196262E+01  0.1273084675474E+00
-0.4603244300056E+01 -0.5563177405386E+01 -0.4778218189438E+01 -0.1417690589703E-01
 0.2827092620355E+00 -0.4754256230284E+01 -0.2101627069746E+01  0.4362167636065E+00
 0.2178240754611E+00 -0.4817238181970E+01 -0.2161724624576E+01  0.4806374047076E+00
 0.1434955052473E+00 -0.4879439001411E+01 -0.2225893437551E+01  0.5247225788113E+00
 0.5888007244378E-01 -0.4940372620082E+01 -0.2294301491571E+01  0.5678668323470E+00
-0.3693553786714E-01 -0.4999517807921E+01 -0.2367133066516E+01  0.6093385721362E+00
-0.1449412776307E+00 -0.5056317095434E+01 -0.2444591429140E+01  0.6482600957522E+00
-0.2662191456740E+00 -0.5110170146589E+01 -0.2526902960954E+01  0.6835834566289E+00
-0.4019698063504E+00 -0.5160420861156E+01 -0.2614323607097E+01  0.7140662556339E+00
-0.5535522071361E+00 -0.5206339056727E+01 -0.2707148887149E+01  0.7382501166515E+00
-0.7225386008361E+00 -0.5247097170006E+01 -0.2805728805179E+01  0.7544437476644E+00
-0.9107889424948E+00 -0.5281741464606E+01 -0.2910489283955E+01  0.7607128120976E+00
-0.1120550301174E+01 -0.5309156291550E+01 -0.3021962090916E+01  0.7548805073159E+00
-0.1354588037479E+01 -0.5328019488131E+01 -0.3140825529070E+01  0.7345460052446E+00
-0.1616354536239E+01 -0.5336747169217E+01 -0.3267957793275E+01  0.6971333065488E+00
-0.1910194113855E+01 -0.5333426696020E+01 -0.3404501772006E+01  0.6399913799393E+00
-0.2241562098734E+01 -0.5315738657182E+01 -0.3551931346272E+01  0.5605777847408E+00
-0.2617172104895E+01 -0.5280861978827E+01 -0.3712076009934E+01  0.4567676445120E+00
-0.3044903804313E+01 -0.5225378072946E+01 -0.3887032472453E+01  0.3273085329708E+00
-0.3533351128265E+01 -0.5145296994793E+01 -0.4078964607492E+01  0.1723499949313E+00
-0.4090988106079E+01 -0.5036305507863E+01 -0.4289827987672E+01 -0.6140709198801E-02
 0.2694940525671E+00 -0.4637724053591E+01 -0.2053068095274E+01  0.5275188788633E+00
 0.2066864460316E+00 -0.4685534822423E+01 -0.2105058731565E+01  0.5769018167694E+00
 0.1354138680948E+00 -0.4731207423335E+01 -0.2160022965484E+01  0.6258292448664E+00
 0.5507022039462E-01 -0.4774215690827E+01 -0.2217998365478E+01  0.6736660061277E+00
-0.3497654520258E-01 -0.4814010660138E+01 -0.2279023980730E+01  0.7196561934014E+00
-0.1353796271876E+00 -0.4850027541484E+01 -0.2343141363333E+01  0.7628982601564E+00
-0.2468196799511E+00 -0.4881682008977E+01 -0.2410395787683E+01  0.8023123663330E+00
-0.3700251527375E+00 -0.4908357264764E+01 -0.2480839729933E+01  0.8366066388613E+00
-0.5058072503116E+00 -0.4929384694246E+01 -0.2554540207463E+01  0.8642448660009E+00
-0.6551117820321E+00 -0.4944019624674E+01 -0.2631591754477E+01  0.8834155663737E+00
-0.8190931969650E+00 -0.4951411189296E+01 -0.2712137054663E+01  0.8920018898757E+00
-0.9992203914979E+00 -0.4950563485034E+01 -0.2796398414877E+01  0.8875531243291E+00
-0.1197429060623E+01 -0.4940283968996E+01 -0.2884725116604E+01  0.8672617251357E+00
-0.1416341646623E+01 -0.4919114532425E+01 -0.2977664396600E+01  0.8279557642470E+00
-0.1659582328384E+01 -0.4885241285633E+01 -0.3076067090786E+01  0.7661281091345E+00
-0.1932211981114E+01 -0.4836379159567E+01 -0.3181237828051E+01  0.6780454296316E+00
-0.2241281245947E+01 -0.4769634262844E+01 -0.3295130280774E+01  0.5600207227330E+00
-0.2596261742932E+01 -0.4681270071692E+01 -0.3420439944198E+01  0.4089936461700E+00
-0.3008769075109E+01 -0.4566342469773E+01 -0.3560302417064E+01  0.2235141673295E+00
-0.3491395712199E+01 -0.4418733325585E+01 -0.3717760638329E+01  0.4879655711109E-02
 0.2532677650766E+00 -0.4505146416587E+01 -0.1998382961141E+01  0.6123291430216E+00
 0.1924389470675E+00 -0.4536092929645E+01 -0.2041517366633E+01  0.6655611952795E+00
 0.1241238774129E+00 -0.4563410788809E+01 -0.2086464843064E+01  0.7181735338295E+00
 0.4794348646631E-01 -0.4586508101936E+01 -0.2133125363860E+01  0.7695190302951E+00
-0.3646441539813E-01 -0.4604782445687E+01 -0.2181386019177E+01  0.8188509571022E+00
-0.1294212971351E+00 -0.4617638352942E+01 -0.2231118029877E+01  0.8652894997428E+00
-0.2312017341172E+00 -0.4624484195389E+01 -0.2282172381079E+01  0.9077779923209E+00
-0.3420440154592E+00 -0.4624715496177E+01 -0.2334376964548E+01  0.9450402284580E+00
-0.4621748862732E+00 -0.4617693189640E+01 -0.2387537989624E+01  0.9755402537078E+00
-0.5918476299489E+00 -0.4602719315066E+01 -0.2441446457965E+01  0.9974410013869E+00
-0.7313982039567E+00 -0.4579008673695E+01 -0.2495891226166E+01  0.1008556906979E+01
-0.8813301818163E+00 -0.4545651827361E+01 -0.2550681537844E+01  0.1006296206531E+01
-0.1042447684974E+01 -0.4501562908218E+01 -0.2605684972191E+01  0.9875902086545E+00
-0.1216068500953E+01 -0.4445404114142E+01 -0.2660892122346E+01  0.9488100409445E+00
-0.1404371986763E+01 -0.4375478055433E+01 -0.2716529512942E+01  0.8856789235357E+00
-0.1610975845267E+01 -0.4289582126372E+01 -0.2773262239637E+01  0.7932076489961E+00
-0.1841887175132E+01 -0.4184823065597E+01 -0.2832553805958E+01  0.6657311543112E+00
-0.2107076179829E+01 -0.4057466732550E+01 -0.2897335161469E+01  0.4972652168042E+00
-0.2421887563261E+01 -0.3902356933647E+01 -0.2972394906008E+01  0.2827347949391E+00
-0.2805730579596E+01 -0.3711343531731E+01 -0.3063024824555E+01  0.2050382996246E-01
 0.2341720142692E+00 -0.4358061407840E+01 -0.1938228010062E+01  0.6895672527109E+00
 0.1751385464787E+00 -0.4370781118081E+01 -0.1971952003652E+01  0.7453525593220E+00
 0.1095616493185E+00 -0.4378299624651E+01 -0.2006306843318E+01  0.8002674726732E+00
 0.3725573669669E-01 -0.4379921910123E+01 -0.2041053096334E+01  0.8536609658449E+00
-0.4190729736601E-01 -0.4374963328446E+01 -0.2075929188866E+01  0.9048250581334E+00
-0.1279480474190E+00 -0.4362777823179E+01 -0.2110641153828E+01  0.9529404922534E+00
-0.2207590854066E+00 -0.4342743499624E+01 -0.2144846209524E+01  0.9970170891162E+00
-0.3201079464264E+00 -0.4314235442159E+01 -0.2178141387110E+01  0.1035844861582E+01
-0.4256492934362E+00 -0.4276598122529E+01 -0.2210056279898E+01  0.1067952701706E+01
-0.5369411823609E+00 -0.4229121425208E+01 -0.2240049419876E+01  0.1091565271095E+01
-0.6534666723505E+00 -0.4171016745919E+01 -0.2267507200835E+01  0.1104547979614E+01
-0.7746690001115E+00 -0.4101386665685E+01 -0.2291746157112E+01  0.1104330279057E+01
-0.9000159213271E+00 -0.4019178965110E+01 -0.2312021590761E+01  0.1087796810477E+01
-0.1029122273383E+01 -0.3923113170981E+01 -0.2327550652948E+01  0.1051133583877E+01
-0.1161986466000E+01 -0.3811563342508E+01 -0.2337568404070E+01  0.9896127753543E+00
-0.1299458095365E+01 -0.3682377654807E+01 -0.2341462796642E+01  0.8972973655174E+00
-0.1444199230039E+01 -0.3532623534489E+01 -0.2339106693395E+01  0.7666593746811E+00
-0.1602749018242E+01 -0.3358291961667E+01 -0.2331689254643E+01  0.5881726848642E+00
-0.1790801740277E+01 -0.3154791259323E+01 -0.2324428703916E+01  0.3504111010607E+00
-0.2038775549380E+01 -0.2915625761928E+01 -0.2328568610409E+01  0.4303226968615E-01
 0.2124229542276E+00 -0.4198246633372E+01 -0.1873337124446E+01  0.7582212815543E+00
 0.1549413970160E+00 -0.4191799509438E+01 -0.1897323308026E+01  0.8151173167357E+00
 0.9180379911351E-01 -0.4178558734031E+01 -0.1920774814539E+01  0.8707417863188E+00
 0.2295600794500E-01 -0.4157670049999E+01 -0.1943315594836E+01  0.9244460876793E+00
-0.5156053864166E-01 -0.4128356196376E+01 -0.1964560860476E+01  0.9755896555448E+00
-0.1315152788042E+00 -0.4089919281646E+01 -0.1984074238379E+01  0.1023438488059E+01
-0.2164682023827E+00 -0.4041698963553E+01 -0.2001338562914E+01  0.1067085213881E+01
-0.3057735919118E+00 -0.3983022714999E+01 -0.2015734259136E+01  0.1105400320776E+01
-0.3985843744524E+00 -0.3913169552643E+01 -0.2026524340595E+01  0.1137000181353E+01
-0.4938441924898E+00 -0.3831346208647E+01 -0.2032839483378E+01  0.1160214101712E+01
-0.5902662950371E+00 -0.3736669897387E+01 -0.2033660005281E+01  0.1173035463418E+01
-0.6863008317646E+00 -0.3628147452153E+01 -0.2027790688298E+01  0.1173043914270E+01
-0.7800954466207E+00 -0.3504640788243E+01 -0.2013826025278E+01  0.1157283517771E+01
-0.8694568886850E+00 -0.3364804699796E+01 -0.1990102941539E+01  0.1122074080737E+01
-0.9518325352279E+00 -0.3206975610674E+01 -0.1954639823616E+01  0.1062716857699E+01
-0.1024357347966E+01 -0.3028969682593E+01 -0.1905063699531E+01  0.9730249660122E+00
-0.1084119209890E+01 -0.2827727609534E+01 -0.1838568000466E+01  0.8445468045445E+00
-0.1129072465468E+01 -0.2598673287435E+01 -0.1752040499420E+01  0.6652356416064E+00
-0.1161556650036E+01 -0.2334843287071E+01 -0.1643307966272E+01  0.4170039046881E+00
-0.1209251505749E+01 -0.2032941082789E+01 -0.1523830512748E+01  0.7291894061673E-01
 0.1883043003032E+00 -0.4027725631574E+01 -0.1804528021120E+01  0.8174316280157E+00
 0.1321031004961E+00 -0.4001724739482E+01 -0.1818722165710E+01  0.8739069036280E+00
 0.7110021516703E-01 -0.3967322919356E+01 -0.1831224666324E+01  0.9284678529821E+00
 0.5238955292874E-02 -0.3923497110534E+01 -0.1841581328292E+01  0.9805026324844E+00
-0.6533987749380E-01 -0.3869408203777E+01 -0.1849331593507E+01  0.1029469498884E+01
-0.1402074447211E+00 -0.3804351012802E+01 -0.1853942470334E+01  0.1074719858767E+01
-0.2186485212182E+00 -0.3727651457529E+01 -0.1854760985307E+01  0.1115399398734E+01
-0.2996881682838E+00 -0.3638588462574E+01 -0.1850990011809E+01  0.1150411275428E+01
-0.3820960719663E+00 -0.3536347161295E+01 -0.1841668314962E+01  0.1178405091625E+01
-0.4643620468038E+00 -0.3420000889599E+01 -0.1825650575479E+01  0.1197762672909E+01
-0.5446365279224E+00 -0.3288502033392E+01 -0.1801575119248E+01  0.1206563193956E+01
-0.6206359892978E+00 -0.3140671930894E+01 -0.1767814718006E+01  0.1202516068235E+01
-0.6895035189288E+00 -0.2975179391229E+01 -0.1722400963405E+01  0.1182848218783E+01
-0.7476050028380E+00 -0.2790498537888E+01 -0.1662908659923E+01  0.1144123023950E+01
-0.7902197039115E+00 -0.2584827095411E+01 -0.1586271991658E+01  0.1081947790226E+01
-0.8110517388747E+00 -0.2355928402542E+01 -0.1488480662691E+01  0.9904843352927E+00
-0.8013760229252E+00 -0.2100772520490E+01 -0.1364009811945E+01  0.8615809843383E+00
-0.7485721119490E+00 -0.1814770517180E+01 -0.1204771032635E+01  0.6830948988557E+00
-0.6323346905630E+00 -0.1489010214046E+01 -0.9970321026372E+00  0.4352173338014E+00
-0.4202046542050E+00 -0.1103060120124E+01 -0.7159344421187E+00  0.7936469456382E-01
 0.1620948441529E+00 -0.3848854772860E+01 -0.1732777162098E+01  0.8665921131643E+00
 0.1070246327791E+00 -0.3803479670570E+01 -0.1737333863355E+01  0.9210614660696E+00
 0.4792552803181E-01 -0.3748073431725E+01 -0.1739069510325E+01  0.9726512247574E+00
-0.1538605151022E-01 -0.3681494085306E+01 -0.1737533659897E+01  0.1020875901711E+01
-0.8272033517209E-01 -0.3602965643211E+01 -0.1732272405446E+01  0.1065330031028E+01
-0.1534641514255E+00 -0.3511887710107E+01 -0.1722715370551E+01  0.1105417995743E+01
-0.2266644404315E+00 -0.3407659930543E+01 -0.1708132450026E+01  0.1140254667657E+01
-0.3010862805594E+00 -0.3289564614992E+01 -0.1687605916629E+01  0.1168664179630E+01
-0.3752354482084E+00 -0.3156738859905E+01 -0.1660027920603E+01  0.1189201459043E+01
-0.4473186007746E+00 -0.3008173502066E+01 -0.1624081284216E+01  0.1200157084096E+01
-0.5151603154984E+00 -0.2842727426547E+01 -0.1578207234758E+01  0.1199531987895E+01
-0.5760690750826E+00 -0.2659137135138E+01 -0.1520546914947E+01  0.1184977823092E+01
-0.6266389763733E+00 -0.2456022195166E+01 -0.1448850746949E+01  0.1153698505872E+01
-0.6624474493589E+00 -0.2231887437398E+01 -0.1360337393326E+01  0.1102301282515E+01
-0.6775725659833E+00 -0.1985126069358E+01 -0.1251468355436E+01  0.1026573694732E+01
-0.6637624701735E+00 -0.1714016050999E+01 -0.1117555902117E+01  0.9211410051000E+00
-0.6089270759248E+00 -0.1416712639368E+01 -0.9520506637730E+00  0.7789164494533E+00
-0.4938298939035E+00 -0.1090944211323E+01 -0.7448438275671E+00  0.5901422630215E+00
-0.2851649721359E+00 -0.7336710256867E+00 -0.4788529177620E+00  0.3405815625615E+00
 0.1012288103690E+00 -0.3262095098677E+00 -0.1057409284962E+00  0.6547800261010E-02
 0.1343057352061E+00 -0.3663994478337E+01 -0.1658953705064E+01  0.9052416893775E+00
 0.8047580374665E-01 -0.3599853450551E+01 -0.1654107489803E+01  0.9560287280877E+00
 0.2323726842862E-01 -0.3523997031095E+01 -0.1645357084280E+01  0.1002640443301E+01
-0.3781583646075E-01 -0.3435359752916E+01 -0.1632392522867E+01  0.1044886711761E+01
-0.1023942055478E+00 -0.3333465483184E+01 -0.1614854049608E+01  0.1082549911585E+01
-0.1696621363260E+00 -0.3218052327579E+01 -0.1592225793997E+01  0.1115025441835E+01
-0.2383861450320E+00 -0.3088728086486E+01 -0.1563743684847E+01  0.1141290514433E+01
-0.3070888700954E+00 -0.2944923912289E+01 -0.1528446003844E+01  0.1159984288408E+01
-0.3740478935119E+00 -0.2785900402825E+01 -0.1485175695511E+01  0.1169477820760E+01
-0.4372477360290E+00 -0.2610823435781E+01 -0.1432593447117E+01  0.1167899453084E+01
-0.4942653092812E+00 -0.2418826061870E+01 -0.1369152940968E+01  0.1153118868398E+01
-0.5421110795242E+00 -0.2209075157904E+01 -0.1293057528311E+01  0.1122704078387E+01
-0.5770046701740E+00 -0.1980850896529E+01 -0.1202192113301E+01  0.1073860840207E+01
-0.5940480163605E+00 -0.1733662183647E+01 -0.1094023791229E+01  0.1003363226419E+01
-0.5867239350289E+00 -0.1467431479143E+01 -0.9654530422119E+00  0.9074886049283E+00
-0.5461010854744E+00 -0.1182820076177E+01 -0.8125929439153E+00  0.7819893517549E+00
-0.4594696081904E+00 -0.8817951617363E+00 -0.6303944402666E+00  0.6221877222585E+00
-0.3081161121846E+00 -0.5689450155680E+00 -0.4122187289982E+00  0.4234748732644E+00
-0.6220521649099E-01 -0.2536116623640E+00 -0.1484339326854E+00  0.1830191092443E+00
 0.3161442874270E+00  0.3082968884024E-01  0.1630777684320E+00 -0.9133560289628E-01
 0.1055858028334E+00 -0.3475662894530E+01 -0.1583936229080E+01  0.9331181575243E+00
 0.5344818774723E-01 -0.3393681051052E+01 -0.1569909441771E+01  0.9784530440098E+00
-0.1765451409062E-02 -0.3298210530860E+01 -0.1550988707733E+01  0.1018072010264E+01
-0.6060873066094E-01 -0.3188604130764E+01 -0.1527130040996E+01  0.1052390236345E+01
-0.1226438908361E+00 -0.3065237151104E+01 -0.1498304085912E+01  0.1081401549287E+01
-0.1865983912335E+00 -0.2928339391723E+01 -0.1464020754276E+01  0.1104381844391E+01
-0.2509381379871E+00 -0.2777905784816E+01 -0.1423556640107E+01  0.1120068170146E+01
-0.3138988551810E+00 -0.2613611128359E+01 -0.1375929688774E+01  0.1126883170387E+01
-0.3735381863458E+00 -0.2435057153318E+01 -0.1320039806294E+01  0.1123059867153E+01
-0.4276141452601E+00 -0.2241899986493E+01 -0.1254671638741E+01  0.1106676847140E+01
-0.4734509006844E+00 -0.2033981512210E+01 -0.1178493231071E+01  0.1075659716637E+01
-0.5077695112738E+00 -0.1811460171135E+01 -0.1090037947967E+01  0.1027776931448E+01
-0.5264791993130E+00 -0.1574976509747E+01 -0.9876841807531E+00  0.9606543440680E+00
-0.5244073831260E+00 -0.1325887123204E+01 -0.8696384157693E+00  0.8718361567330E+00
-0.4949499784926E+00 -0.1066622456113E+01 -0.7339390424032E+00  0.7589383317838E+00
-0.4296310738154E+00 -0.8012564690766E+00 -0.5785171436919E+00  0.6199840153091E+00
-0.3176947074445E+00 -0.5365222878064E+00 -0.4014819867496E+00  0.4541171568031E+00
-0.1460621643119E+00 -0.2836390621770E+00 -0.2019595759375E+00  0.2631384694280E+00
 0.9751084532854E-01 -0.6321409297104E-01  0.1611947356714E-01  0.5515257731749E-01
 0.4065136669130E+00  0.8334325211092E-01  0.2302327513573E+00 -0.1477028936002E+00
 0.7661003467550E-01 -0.3286669306868E+01 -0.1508727854104E+01  0.9502586470057E+00
 0.2683185531627E-01 -0.3187987735949E+01 -0.1485743260129E+01  0.9882606253704E+00
-0.2584626467231E-01 -0.3073495491223E+01 -0.1456690621576E+01  0.1019061290232E+01
-0.8249631881021E-01 -0.2944484296534E+01 -0.1422680885603E+01  0.1044070112245E+01
-0.1418112632244E+00 -0.2802249442352E+01 -0.1383708528111E+01  0.1063365897136E+01
-0.2022268543765E+00 -0.2647933567471E+01 -0.1339575394870E+01  0.1075858947450E+01
-0.2617081046570E+00 -0.2481595761805E+01 -0.1289352813967E+01  0.1079962106291E+01
-0.3183000587622E+00 -0.2303193333320E+01 -0.1232101891153E+01  0.1073970483574E+01
-0.3698846737105E+00 -0.2112754388806E+01 -0.1166840356423E+01  0.1056149900388E+01
-0.4140589783789E+00 -0.1910583785685E+01 -0.1092582096339E+01  0.1024763388993E+01
-0.4479883493166E+00 -0.1697399667671E+01 -0.1008332365427E+01  0.9780877953408E+00
-0.4682731167783E+00 -0.1474481361905E+01 -0.9130946026654E+00  0.9144571733028E+00
-0.4708168964057E+00 -0.1243851822528E+01 -0.8058942958549E+00  0.8323582539355E+00
-0.4507074090612E+00 -0.1008526296478E+01 -0.6858398398641E+00  0.7306105095563E+00
-0.4021439919904E+00 -0.7728609954275E+00 -0.5522523426857E+00  0.6086813260184E+00
-0.3185266721814E+00 -0.5430613446220E+00 -0.4049463668705E+00  0.4672203389458E+00
-0.1929623902310E+00 -0.3278958660603E+00 -0.2448033798360E+00  0.3089469488885E+00
-0.2005495281704E-01 -0.1398029852392E+00 -0.7513323069588E-01  0.1400870700928E+00
 0.1990883296472E+00  0.4020795850089E-02  0.9546128874160E-01 -0.2761055532807E-01
 0.4554442531574E+00  0.9111009368340E-01  0.2568805423636E+00 -0.1769531194364E+00
 0.4761470161374E-01 -0.3100347775446E+01 -0.1434784541062E+01  0.9567978124677E+00
 0.1789200549700E-02 -0.2984736462324E+01 -0.1401985209478E+01  0.9855512368149E+00
-0.4845096579170E-01 -0.2851918667969E+01 -0.1363173724410E+01  0.1006206330137E+01
-0.1021026059898E+00 -0.2704622821999E+01 -0.1319160947809E+01  0.1021654382138E+01
-0.1585805695650E+00 -0.2547730250319E+01 -0.1271966082119E+01  0.1031234984757E+01
-0.2147691684221E+00 -0.2381147320815E+01 -0.1220080746847E+01  0.1033108119625E+01
-0.2685882761338E+00 -0.2204926143779E+01 -0.1162551774411E+01  0.1025517457249E+01
-0.3179569225270E+00 -0.2019157734405E+01 -0.1098443885972E+01  0.1006854668473E+01
-0.3607071296530E+00 -0.1824328667749E+01 -0.1026966822174E+01  0.9756649104851E+00
-0.3943987497067E+00 -0.1621402181605E+01 -0.9474264353133E+00  0.9306408697951E+00
-0.4162215149726E+00 -0.1411909260182E+01 -0.8592214621434E+00  0.8706562026699E+00
-0.4229290320766E+00 -0.1198046231546E+01 -0.7618583719704E+00  0.7948494916983E+00
-0.4108211794666E+00 -0.9828031103259E+00 -0.6550034145411E+00  0.7027731063287E+00
-0.3758015549881E+00 -0.7701264224142E+00 -0.5385861480130E+00  0.5946271149120E+00
-0.3135743486375E+00 -0.5651145273770E+00 -0.4129837706794E+00  0.4716059063580E+00
-0.2200887809188E+00 -0.3742078285129E+00 -0.2793194057244E+00  0.3363838368830E+00
-0.9245738269013E-01 -0.2052884077247E+00 -0.1399405211400E+00  0.1937308644823E+00
 0.6955908162362E-01 -0.6716834627284E-01  0.1123645612018E-02  0.5107567261875E-01
 0.2622460895629E+00  0.3319615959141E-01  0.1388578567503E+00 -0.8190752060567E-01
 0.4768337336523E+00  0.9458575934523E-01  0.2685671610277E+00 -0.1956646920518E+00
 0.1965268391596E-01 -0.2919384757535E+01 -0.1362874071144E+01  0.9525093054390E+00
-0.2395509206108E-01 -0.2786980940101E+01 -0.1321139931765E+01  0.9699360822747E+00
-0.6689896477557E-01 -0.2629679265721E+01 -0.1267391765119E+01  0.9813174824934E+00
-0.1188191204835E+00 -0.2470294296817E+01 -0.1216883303045E+01  0.9887151016304E+00
-0.1714591549590E+00 -0.2304620012391E+01 -0.1163757205703E+01  0.9891020091318E+00
-0.2225551157127E+00 -0.2132038795096E+01 -0.1106659135273E+01  0.9805703993741E+00
-0.2698476118045E+00 -0.1952134247028E+01 -0.1044331471002E+01  0.9616324310756E+00
-0.3113207416301E+00 -0.1765306137716E+01 -0.9760146308171E+00  0.9310989345093E+00
-0.3448435045928E+00 -0.1572561576140E+01 -0.9011803856585E+00  0.8880009206902E+00
-0.3680889211806E+00 -0.1375486829701E+01 -0.8194806008360E+00  0.8316011556505E+00
-0.3784821442362E+00 -0.1176233532312E+01 -0.7307163661242E+00  0.7614596880760E+00
-0.3732106269075E+00 -0.9775432749317E+00 -0.6348543322542E+00  0.6775476143976E+00
-0.3493041081584E+00 -0.7827887926519E+00 -0.5320836620312E+00  0.5804086415705E+00
-0.3038198384289E+00 -0.5960124051560E+00 -0.4229211534122E+00  0.4713711155059E+00
-0.2341796089396E+00 -0.4219214310551E+00 -0.3083674880154E+00  0.3528069101790E+00
-0.1387150124900E+00 -0.2657669457114E+00 -0.1901065198725E+00  0.2284087411349E+00
-0.1736270955030E-01 -0.1328892177713E+00 -0.7061840566202E-01  0.1033831050092E+00
 0.1276859407258E+00 -0.2766402644158E-01  0.4701029959433E-01 -0.1570783127850E-01
 0.2933807599979E+00  0.4913529830390E-01  0.1609825469936E+00 -0.1218941125412E+00
 0.4763796037084E+00  0.1009146560190E+00  0.2713283013837E+00 -0.2103288463200E+00
-0.2797571946646E-01 -0.2761988211320E+01 -0.1311283044144E+01  0.9308437998621E+00
-0.3676075788855E-01 -0.2566501107322E+01 -0.1223533073546E+01  0.9441334313183E+00
-0.8244266236649E-01 -0.2405983594770E+01 -0.1169560337888E+01  0.9512600479248E+00
-0.1302967334410E+00 -0.2244328380650E+01 -0.1116073800792E+01  0.9508687672264E+00
-0.1783872961854E+00 -0.2077998325297E+01 -0.1060501239407E+01  0.9415364983050E+00
-0.2236951628461E+00 -0.1905488346169E+01 -0.1000716246699E+01  0.9223547742820E+00
-0.2640973937893E+00 -0.1727204487092E+01 -0.9359118816402E+00  0.8925134151780E+00
-0.2975648824218E+00 -0.1544314483384E+01 -0.8656832997330E+00  0.8513291612735E+00
-0.3221030639680E+00 -0.1358527576299E+01 -0.7898963989220E+00  0.7982988097418E+00
-0.3356607167425E+00 -0.1171966149923E+01 -0.7085846255355E+00  0.7331874727813E+00
-0.3361184965725E+00 -0.9871235078382E+00 -0.6219237404956E+00  0.6561341632240E+00
-0.3213348108147E+00 -0.8068414725396E+00 -0.5302428518316E+00  0.5677742334854E+00
-0.2892674738258E+00 -0.6342829596425E+00 -0.4340687026291E+00  0.4693744262947E+00
-0.2381910476416E+00 -0.4728696511208E+00 -0.3341985275707E+00  0.3629692213227E+00
-0.1670317359677E+00 -0.3261462056661E+00 -0.2317936319800E+00  0.2514727070550E+00
-0.7580224671695E-01 -0.1975010318961E+00 -0.1284525406223E+00  0.1387142122393E+00
 0.3393518609926E-01 -0.8969058653750E-01 -0.2620503813951E-01  0.2931394501811E-01
 0.1590873720532E+00 -0.3991282619976E-02  0.7289516184873E-01 -0.7170149783411E-01
 0.2941530701520E+00  0.5909587499036E-01  0.1660270037958E+00 -0.1592903779342E+00
 0.4422768741368E+00  0.1058222931529E+00  0.2576066079728E+00 -0.2285278755262E+00
</DataArray>
<DataArray type="Float64" Name="S_Mises" NumberOfComponents="1" ComponentName0="S_Mises" format="ascii">
 0.5064597720992E+01
 0.4465067372205E+01
 0.4015021709415E+01
 0.3849400054737E+01
 0.3739285293272E+01
 0.3674380716055E+01
 0.3633754121470E+01
 0.3610382599361E+01
 0.3599543362970E+01
 0.3598791790397E+01
 0.3606800095128E+01
 0.3623057222562E+01
 0.3647657279008E+01
 0.3681230937803E+01
 0.3724961684429E+01
 0.3780716305542E+01
 0.3851362928491E+01
 0.3941614325061E+01
 0.4060044023395E+01
 0.4219080526159E+01
 0.4413345913692E+01
 0.4614308317540E+01
 0.4798111558020E+01
 0.4956918692451E+01
 0.5093583629538E+01
 0.5214555623699E+01
 0.5325613892585E+01
 0.5430112177020E+01
 0.5528099045463E+01
 0.5615487445882E+01
 0.5689148309963E+01
 0.5757202418934E+01
 0.5832624909405E+01
 0.5924126199566E+01
 0.6040658659579E+01
 0.6190677755482E+01
 0.6399011516890E+01
 0.6631359197871E+01
 0.7149445948562E+01
 0.6389826250933E+01
 0.1303511113310E+02
 0.4311115742807E+01
 0.4425296992296E+01
 0.4094506395554E+01
 0.3894082177384E+01
 0.3781701654076E+01
 0.3707798800993E+01
 0.3661363410081E+01
 0.3633044614219E+01
 0.3618323068476E+01
 0.3614429409103E+01
 0.3619886694304E+01
 0.3634039522521E+01
 0.3656866902792E+01
 0.3688892924816E+01
 0.3731190289961E+01
 0.3785478141504E+01
 0.3854378111096E+01
 0.3941842955694E+01
 0.4052232756233E+01
 0.4186751814391E+01
 0.4338932922652E+01
 0.4495267913904E+01
 0.4642556170130E+01
 0.4773740715510E+01
 0.4887827702560E+01
 0.4986894388128E+01
 0.5073375814203E+01
 0.5148396923083E+01
 0.5211236110606E+01
 0.5260503086547E+01
 0.5295985550915E+01
 0.5319092768204E+01
 0.5331759751394E+01
 0.5334095143935E+01
 0.5320883623375E+01
 0.5281089356970E+01
 0.5176056129872E+01
 0.4975314213150E+01
 0.4341636901144E+01
 0.3318716970336E+01
 0.1109776357799E+02
 0.3907115435046E+01
 0.4193173751209E+01
 0.4087563638083E+01
 0.3913913584712E+01
 0.3804140321412E+01
 0.3730136525252E+01
 0.3680924513579E+01
 0.3649799208681E+01
 0.3632327615970E+01
 0.3625932820941E+01
 0.3629113818457E+01
 0.3641165464594E+01
 0.3661982913203E+01
 0.3691978158886E+01
 0.3732060396042E+01
 0.3783677489066E+01
 0.3848903387011E+01
 0.3930049770479E+01
 0.4027610455800E+01
 0.4138581710081E+01
 0.4257649368264E+01
 0.4378380496445E+01
 0.4493820480219E+01
 0.4598422555521E+01
 0.4689383466316E+01
 0.4766029599556E+01
 0.4828398578575E+01
 0.4876092396116E+01
 0.4908183195838E+01
 0.4924105816594E+01
 0.4923295912516E+01
 0.4903435835608E+01
 0.4860366119940E+01
 0.4787267444938E+01
 0.4671619168905E+01
 0.4488542344477E+01
 0.4199644018189E+01
 0.3728512228708E+01
 0.2960599181343E+01
 0.3149731136512E+01
 0.1023400644615E+02
 0.3656156887826E+01
 0.3971955887435E+01
 0.4008940122230E+01
 0.3904264690118E+01
 0.3809123902827E+01
 0.3740601487515E+01
 0.3692354000829E+01
 0.3660380634581E+01
 0.3641372022641E+01
 0.3633139974702E+01
 0.3634353371498E+01
 0.3644334171086E+01
 0.3662930721549E+01
 0.3690439254693E+01
 0.3727560955708E+01
 0.3775368352693E+01
 0.3835133144685E+01
 0.3907413840224E+01
 0.3990326527541E+01
 0.4079608954835E+01
 0.4171337694893E+01
 0.4262709999622E+01
 0.4350296845264E+01
 0.4429965270891E+01
 0.4498240193776E+01
 0.4552841966204E+01
 0.4592234197066E+01
 0.4615051919665E+01
 0.4620142578554E+01
 0.4606791447894E+01
 0.4573470514393E+01
 0.4515764708986E+01
 0.4426379384650E+01
 0.4295270173035E+01
 0.4107251290247E+01
 0.3839961853152E+01
 0.3465780715104E+01
 0.2959185387823E+01
 0.2524077873898E+01
 0.3891821354503E+01
 0.9466108788830E+01
 0.3484979704660E+01
 0.3788729381906E+01
 0.3903372292967E+01
 0.3866761332017E+01
 0.3798267111002E+01
 0.3739817618463E+01
 0.3695689848756E+01
 0.3664781599930E+01
 0.3645384274429E+01
 0.3635982323514E+01
 0.3635546964103E+01
 0.3643508277922E+01
 0.3659701203505E+01
 0.3684307663473E+01
 0.3717790501427E+01
 0.3760771875375E+01
 0.3813644750254E+01
 0.3875570421475E+01
 0.3943467487857E+01
 0.4013026882304E+01
 0.4081495638063E+01
 0.4148004069600E+01
 0.4211102370171E+01
 0.4267767550965E+01
 0.4314442427993E+01
 0.4348023941940E+01
 0.4366047934174E+01
 0.4366554099206E+01
 0.4348105555642E+01
 0.4309551582058E+01
 0.4248583522988E+01
 0.4159873501522E+01
 0.4035258798021E+01
 0.3864550830277E+01
 0.3635366526992E+01
 0.3335479970425E+01
 0.2962930388047E+01
 0.2582817051891E+01
 0.2633028396705E+01
 0.4558375763022E+01
 0.8833048766808E+01
 0.3360151172403E+01
 0.3640536043384E+01
 0.3793930801673E+01
 0.3811047166185E+01
 0.3773353397405E+01
 0.3728914099882E+01
 0.3691320884689E+01
 0.3663154681555E+01
 0.3644418877882E+01
 0.3634474791173E+01
 0.3632704782890E+01
 0.3638711540628E+01
 0.3652348575933E+01
 0.3673690234568E+01
 0.3702947215899E+01
 0.3740268771866E+01
 0.3785255684821E+01
 0.3836127152343E+01
 0.3889354020581E+01
 0.3941038807399E+01
 0.3989316482237E+01
 0.4034358324355E+01
 0.4075823452371E+01
 0.4111513704588E+01
 0.4138078630715E+01
 0.4152107775508E+01
 0.4150679197006E+01
 0.4131501063388E+01
 0.4092889941430E+01
 0.4033329389814E+01
 0.3950155892868E+01
 0.3838110433229E+01
 0.3689835758263E+01
 0.3497533462017E+01
 0.3255152866130E+01
 0.2964856027965E+01
 0.2658986706290E+01
 0.2486091714789E+01
 0.2969500654597E+01
 0.5009414567803E+01
 0.8328354014909E+01
 0.3264370622398E+01
 0.3520090725372E+01
 0.3690301082047E+01
 0.3745899518759E+01
 0.3737488679242E+01
 0.3709178462876E+01
 0.3679906926120E+01
 0.3655803975392E+01
 0.3638635666621E+01
 0.3628711204960E+01
 0.3625900283144E+01
 0.3630025320444E+01
 0.3640986153718E+01
 0.3658761962076E+01
 0.3683316932350E+01
 0.3714360536508E+01
 0.3750870704753E+01
 0.3790521894164E+01
 0.3829768132353E+01
 0.3865256736783E+01
 0.3895770075709E+01
 0.3922036442985E+01
 0.3944335682877E+01
 0.3961080056429E+01
 0.3969260154638E+01
 0.3965486558909E+01
 0.3946708811769E+01
 0.3910513403694E+01
 0.3855093865848E+01
 0.3778792699552E+01
 0.3679061421774E+01
 0.3551490853909E+01
 0.3390735874447E+01
 0.3193067928132E+01
 0.2960600359247E+01
 0.2711829227282E+01
 0.2512747702066E+01
 0.2566312274146E+01
 0.3340302492583E+01
 0.5290912987102E+01
 0.7927360341502E+01
 0.3187865821140E+01
 0.3420827448425E+01
 0.3595781276630E+01
 0.3677339579259E+01
 0.3694039547321E+01
 0.3682131295671E+01
 0.3662246326236E+01
 0.3643161449283E+01
 0.3628282340718E+01
 0.3618854583969E+01
 0.3615264235722E+01
 0.3617583354318E+01
 0.3625780318246E+01
 0.3639756739695E+01
 0.3659255462069E+01
 0.3683618551829E+01
 0.3711389569553E+01
 0.3739997835432E+01
 0.3766108837251E+01
 0.3786913786105E+01
 0.3801662341483E+01
 0.3811375543889E+01
 0.3816683270863E+01
 0.3816461734287E+01
 0.3808100136949E+01
 0.3788433112717E+01
 0.3754509916378E+01
 0.3703973704088E+01
 0.3635062534592E+01
 0.3546246744132E+01
 0.3435514222888E+01
 0.3299884038797E+01
 0.3136798389708E+01
 0.2947478138643E+01
 0.2742852037013E+01
 0.2557335800608E+01
 0.2483354376471E+01
 0.2738497407712E+01
 0.3671132942821E+01
 0.5459856714995E+01
 0.7605307006664E+01
 0.3124738852696E+01
 0.3337649983326E+01
 0.3510851041154E+01
 0.3609013227750E+01
 0.3645921944084E+01
 0.3649374852621E+01
 0.3639220865031E+01
 0.3625743073394E+01
 0.3613677811172E+01
 0.3605125807508E+01
 0.3600977446870E+01
 0.3601565444848E+01
 0.3606943195991E+01
 0.3616956505470E+01
 0.3631167213014E+01
 0.3648641255501E+01
 0.3667660575729E+01
 0.3685617507380E+01
 0.3699497427348E+01
 0.3706986090657E+01
 0.3707674261046E+01
 0.3702734230170E+01
 0.3693000143769E+01
 0.3677717800083E+01
 0.3654695468611E+01
 0.3621114294416E+01
 0.3574281696300E+01
 0.3512050225522E+01
 0.3432877962271E+01
 0.3335616687848E+01
 0.3219123857234E+01
 0.3082228526604E+01
 0.2925562021693E+01
 0.2755574835209E+01
 0.2591752385362E+01
 0.2482025556850E+01
 0.2533614425522E+01
 0.2945044223707E+01
 0.3944625049066E+01
 0.5557609515036E+01
 0.7342726273440E+01
 0.3071237491861E+01
 0.3266762675033E+01
 0.3434845285953E+01
 0.3542929183922E+01
 0.3595380113013E+01
 0.3612416532105E+01
 0.3611739681627E+01
 0.3604113198631E+01
 0.3595192356222E+01
 0.3587792190410E+01
 0.3583262554548E+01
 0.3582190376572E+01
 0.3584724552078E+01
 0.3590679363864E+01
 0.3599484594864E+01
 0.3610024083430E+01
 0.3620461088999E+01
 0.3628287250733E+01
 0.3630849030601E+01
 0.3626266433611E+01
 0.3614387050802E+01
 0.3596462977023E+01
 0.3573458829846E+01
 0.3544931995717E+01
 0.3509112912475E+01
 0.3463601154969E+01
 0.3406072345717E+01
 0.3334715546538E+01
 0.3248368093864E+01
 0.3146472341452E+01
 0.3028989350621E+01
 0.2896764518320E+01
 0.2753731591375E+01
 0.2611418236560E+01
 0.2496873499889E+01
 0.2467556738259E+01
 0.2632692322216E+01
 0.3153666936999E+01
 0.4163925095350E+01
 0.5610978005377E+01
 0.7125413379498E+01
 0.3024869403234E+01
 0.3205363785074E+01
 0.3366715115412E+01
 0.3480066995510E+01
 0.3544018695835E+01
 0.3572562483271E+01
 0.3580683105609E+01
 0.3578854604906E+01
 0.3573228668053E+01
 0.3567155762330E+01
 0.3562375556491E+01
 0.3559708406030E+01
 0.3559403347461E+01
 0.3561267843679E+01
 0.3564650820700E+01
 0.3568340628001E+01
 0.3570492557416E+01
 0.3568781949133E+01
 0.3560921902149E+01
 0.3545410667942E+01
 0.3522298881047E+01
 0.3492887143358E+01
 0.3458237896821E+01
 0.3418186091981E+01
 0.3371379661697E+01
 0.3315876935537E+01
 0.3249797081831E+01
 0.3171766290432E+01
 0.3081130883396E+01
 0.2978077779874E+01
 0.2863811923811E+01
 0.2741259095936E+01
 0.2617558221907E+01
 0.2508836849320E+01
 0.2448105803224E+01
 0.2497449854346E+01
 0.2757662067240E+01
 0.3348929243010E+01
 0.4337874151087E+01
 0.5636794416566E+01
 0.6943207372558E+01
 0.2983918706139E+01
 0.3151378365735E+01
 0.3305361457137E+01
 0.3420794421239E+01
 0.3492923071868E+01
 0.3530880985022E+01
 0.3546860332886E+01
 0.3550542889877E+01
 0.3548205133338E+01
 0.3543541960340E+01
 0.3538597381297E+01
 0.3534393697908E+01
 0.3531279409683E+01
 0.3529078237106E+01
 0.3527106789969E+01
 0.3524131970278E+01
 0.3518382656949E+01
 0.3507766662059E+01
 0.3490351847186E+01
 0.3464968034971E+01
 0.3431836367235E+01
 0.3392297343330E+01
 0.3347501548851E+01
 0.3297542523034E+01
 0.3241477617623E+01
 0.3177844112579E+01
 0.3105254078793E+01
 0.3022845081971E+01
 0.2930567688614E+01
 0.2829452662702E+01
 0.2722009406969E+01
 0.2613199861692E+01
 0.2513115972044E+01
 0.2441746782524E+01
 0.2436015375415E+01
 0.2557766286390E+01
 0.2893058495809E+01
 0.3524865592942E+01
 0.4475696220927E+01
 0.5645598296070E+01
 0.6788801805548E+01
 0.2947168072927E+01
 0.3103256832449E+01
 0.3249770607421E+01
 0.3365133437031E+01
 0.3442790070778E+01
 0.3488210100452E+01
 0.3510985555131E+01
 0.3519726444124E+01
 0.3520541663403E+01
 0.3517289329065E+01
 0.3512225836193E+01
 0.3506537031031E+01
 0.3500665650618E+01
 0.3494471556877E+01
 0.3487281761123E+01
 0.3477901496096E+01
 0.3464690603707E+01
 0.3445814542416E+01
 0.3419676728996E+01
 0.3385401755198E+01
 0.3343362986020E+01
 0.3294944486296E+01
 0.3241387453182E+01
 0.3183033932666E+01
 0.3119340975947E+01
 0.3049331651327E+01
 0.2972140064586E+01
 0.2887464596738E+01
 0.2795921433421E+01
 0.2699436166604E+01
 0.2601820062172E+01
 0.2509945994253E+01
 0.2436485692217E+01
 0.2404343189613E+01
 0.2452110942505E+01
 0.2637428715317E+01
 0.3029255886616E+01
 0.3680341101181E+01
 0.4585366859647E+01
 0.5644050539921E+01
 0.6656852131287E+01
 0.2913731779657E+01
 0.3059829997968E+01
 0.3199059291336E+01
 0.3312923052612E+01
 0.3394040120950E+01
 0.3445186792592E+01
 0.3473669938875E+01
 0.3486912830163E+01
 0.3490648279729E+01
 0.3488740520797E+01
 0.3483568188567E+01
 0.3476439000814E+01
 0.3467881090004E+01
 0.3457806213118E+01
 0.3445587069166E+01
 0.3430113104928E+01
 0.3409913464956E+01
 0.3383421243186E+01
 0.3349354177896E+01
 0.3307103452956E+01
 0.3257185523614E+01
 0.3201037698157E+01
 0.3139999953006E+01
 0.3074657520784E+01
 0.3004856314495E+01
 0.2930102685111E+01
 0.2850065828806E+01
 0.2765032338331E+01
 0.2676315331235E+01
 0.2586746668850E+01
 0.2501388456664E+01
 0.2428836569880E+01
 0.2383870524830E+01
 0.2391227513299E+01
 0.2489037261890E+01
 0.2728114010119E+01
 0.3160700681125E+01
 0.3816477142881E+01
 0.4673326017311E+01
 0.5636423941773E+01
 0.6543357864295E+01
 0.2882951502943E+01
 0.3020206205915E+01
 0.3152479795436E+01
 0.3263916095228E+01
 0.3346904207512E+01
 0.3402282896355E+01
 0.3435424497120E+01
 0.3452561207711E+01
 0.3458916554458E+01
 0.3458234749390E+01
 0.3452934576615E+01
 0.3444403908370E+01
 0.3433244841538E+01
 0.3419432322255E+01
 0.3402412158573E+01
 0.3381191435766E+01
 0.3354492452993E+01
 0.3321016409830E+01
 0.3279774670471E+01
 0.3230403673083E+01
 0.3173559354323E+01
 0.3110744182074E+01
 0.3043406964031E+01
 0.2972372857573E+01
 0.2897864706223E+01
 0.2819862786609E+01
 0.2738571660348E+01
 0.2654874986602E+01
 0.2570789307399E+01
 0.2490033266966E+01
 0.2418831399887E+01
 0.2367263536669E+01
 0.2351669535440E+01
 0.2397501794580E+01
 0.2540662629583E+01
 0.2823856869044E+01
 0.3284480223709E+01
 0.3935303847329E+01
 0.4744633658848E+01
 0.5625513734356E+01
 0.6445247383207E+01
 0.2854329067141E+01
 0.2983698374929E+01
 0.3109408864184E+01
 0.3217835101562E+01
 0.3301487686783E+01
 0.3359840154495E+01
 0.3396669220883E+01
 0.3417079675902E+01
 0.3425713787708E+01
 0.3426101762894E+01
 0.3420632380875E+01
 0.3410734475437E+01
 0.3397071132261E+01
 0.3379687477851E+01
 0.3358122337555E+01
 0.3331523268189E+01
 0.3298818812301E+01
 0.3258972936328E+01
 0.3211271518697E+01
 0.3155579986144E+01
 0.3092693148608E+01
 0.3024190551766E+01
 0.2951639564797E+01
 0.2876102359423E+01
 0.2798165586460E+01
 0.2718268939163E+01
 0.2637142652926E+01
 0.2556261501043E+01
 0.2478332482620E+01
 0.2407917728289E+01
 0.2352285848946E+01
 0.2322719765973E+01
 0.2336528716091E+01
 0.2418833708088E+01
 0.2602052202781E+01
 0.2920550893986E+01
 0.3399307390534E+01
 0.4039079177947E+01
 0.4803228400355E+01
 0.5613204999296E+01
 0.6360102209059E+01
 0.2827481730980E+01
 0.2949771934576E+01
 0.3069331263704E+01
 0.3174403370218E+01
 0.3257815488570E+01
 0.3318100833041E+01
 0.3357744997573E+01
 0.3380826125613E+01
 0.3391379558619E+01
 0.3392657270323E+01
 0.3386961579177E+01
 0.3375727412272E+01
 0.3359665296929E+01
 0.3338893715644E+01
 0.3313057716631E+01
 0.3281459496844E+01
 0.3243239082872E+01
 0.3197614430246E+01
 0.3144128649543E+01
 0.3082863434606E+01
 0.3014753147589E+01
 0.2941465056051E+01
 0.2864693288716E+01
 0.2785733460864E+01
 0.2705521670136E+01
 0.2624938664752E+01
 0.2545223161253E+01
 0.2468423831439E+01
 0.2397910390712E+01
 0.2339026592783E+01
 0.2299942062753E+01
 0.2292831109428E+01
 0.2335377992095E+01
 0.2451486392422E+01
 0.2669353973565E+01
 0.3015475003440E+01
 0.3504849519581E+01
 0.4129954527286E+01
 0.4852162537908E+01
 0.5600842870821E+01
 0.6285978817714E+01
 0.2802111663747E+01
 0.2918007320662E+01
 0.3031822856211E+01
 0.3133361175143E+01
 0.3215863325227E+01
 0.3277232881095E+01
 0.3318926086067E+01
 0.3344111325343E+01
 0.3356224192074E+01
 0.3358199699507E+01
 0.3352211070531E+01
 0.3339669834901E+01
 0.3321320672380E+01
 0.3297355450277E+01
 0.3267532968818E+01
 0.3231317359748E+01
 0.3188059743310E+01
 0.3137221326469E+01
 0.3078586858184E+01
 0.3012443895272E+01
 0.2939867190665E+01
 0.2862620434383E+01
 0.2782530592096E+01
 0.2701121962068E+01
 0.2619664559062E+01
 0.2539459055766E+01
 0.2462230089787E+01
 0.2390574812169E+01
 0.2328486814253E+01
 0.2282014731659E+01
 0.2260066193771E+01
 0.2275378849606E+01
 0.2345455989224E+01
 0.2492311694669E+01
 0.2739638498257E+01
 0.3106900806201E+01
 0.3601307228269E+01
 0.4209820234736E+01
 0.4893757855513E+01
 0.5589484510915E+01
 0.6221307024569E+01
 0.2777984609762E+01
 0.2888072659704E+01
 0.2996535147369E+01
 0.3094473263759E+01
 0.3175578773133E+01
 0.3237349802576E+01
 0.3280431870700E+01
 0.3307203222929E+01
 0.3320528660519E+01
 0.3323008107680E+01
 0.3316655904363E+01
 0.3302836483275E+01
 0.3282316288286E+01
 0.3255358181725E+01
 0.3221837644908E+01
 0.3181382731246E+01
 0.3133551287817E+01
 0.3078035977023E+01
 0.3014848983651E+01
 0.2944474705242E+01
 0.2868128575853E+01
 0.2787677181717E+01
 0.2705084082917E+01
 0.2622096110467E+01
 0.2540300676038E+01
 0.2461395412501E+01
 0.2387564727948E+01
 0.2321923063234E+01
 0.2269040620140E+01
 0.2235582106698E+01
 0.2231015816094E+01
 0.2268315668148E+01
 0.2364321626945E+01
 0.2538712757206E+01
 0.2810728135895E+01
 0.3193790515209E+01
 0.3689160011410E+01
 0.4280270628068E+01
 0.4929652659946E+01
 0.5580035578229E+01
 0.6164853277255E+01
 0.2754914655898E+01
 0.2859703645237E+01
 0.2963181921547E+01
 0.3057531361978E+01
 0.3136895198522E+01
 0.3198525918053E+01
 0.3242437271006E+01
 0.3270331731677E+01
 0.3284545484573E+01
 0.3287341043224E+01
 0.3280555320653E+01
 0.3265487665855E+01
 0.3242915243548E+01
 0.3213167802751E+01
 0.3176236857273E+01
 0.3131912377912E+01
 0.3079951814333E+01
 0.3020266965747E+01
 0.2953084312539E+01
 0.2879076772619E+01
 0.2799599788219E+01
 0.2716627054752E+01
 0.2632260204143E+01
 0.2548461077119E+01
 0.2467117228447E+01
 0.2390299249578E+01
 0.2320622980416E+01
 0.2261684994343E+01
 0.2218578325404E+01
 0.2198485498382E+01
 0.2211250794358E+01
 0.2269776056008E+01
 0.2389852233616E+01
 0.2588586409587E+01
 0.2881037763272E+01
 0.3275577289271E+01
 0.3769008065110E+01
 0.4342661766322E+01
 0.4960851030654E+01
 0.5573082900253E+01
 0.6115813395195E+01
 0.2732751764053E+01
 0.2832694442632E+01
 0.2931541334145E+01
 0.3022376752012E+01
 0.3099773992214E+01
 0.3160851511051E+01
 0.3205135124206E+01
 0.3233756425936E+01
 0.3248572532864E+01
 0.3251518420777E+01
 0.3244245099880E+01
 0.3227974767936E+01
 0.3203486346311E+01
 0.3171171538903E+01
 0.3131134606631E+01
 0.3083322265208E+01
 0.3027682035729E+01
 0.2964331529746E+01
 0.2893698165361E+01
 0.2816634223564E+01
 0.2734632313528E+01
 0.2649774238066E+01
 0.2564297735022E+01
 0.2480369096021E+01
 0.2400155934308E+01
 0.2326074431005E+01
 0.2261138835413E+01
 0.2209385984513E+01
 0.2176368709145E+01
 0.2169678725071E+01
 0.2199350329427E+01
 0.2277942185152E+01
 0.2419927054146E+01
 0.2639795677319E+01
 0.2948855136978E+01
 0.3351370557453E+01
 0.3840888262474E+01
 0.4397646627837E+01
 0.4988006765307E+01
 0.5567310371730E+01
 0.6080412681640E+01
 0.2711381820207E+01
 0.2806877181380E+01
 0.2901423574821E+01
 0.2988855241710E+01
 0.3064145128992E+01
 0.3124354745654E+01
 0.3168636838208E+01
 0.3197645481013E+01
 0.3212810569566E+01
 0.3215757159095E+01
 0.3207949193270E+01
 0.3190524196137E+01
 0.3164255472520E+01
 0.3129591063484E+01
 0.3086742731665E+01
 0.3035806685058E+01
 0.2976909805598E+01
 0.2910362254346E+01
 0.2836779658567E+01
 0.2757184558282E+01
 0.2673202757170E+01
 0.2587023218933E+01
 0.2501016102934E+01
 0.2417540852861E+01
 0.2339025286743E+01
 0.2268204416233E+01
 0.2208458063032E+01
 0.2164220430748E+01
 0.2141438639638E+01
 0.2148003860016E+01
 0.2193966335972E+01
 0.2291319370516E+01
 0.2453052756071E+01
 0.2691121680997E+01
 0.3013552608052E+01
 0.3421322685649E+01
 0.3905650503054E+01
 0.4446338288496E+01
 0.5011995997665E+01
 0.5562272836918E+01
 0.6054788235599E+01
 0.2690704089458E+01
 0.2782104533412E+01
 0.2872651167250E+01
 0.2956804130940E+01
 0.3029901173874E+01
 0.3089000231548E+01
 0.3132972164193E+01
 0.3162074822142E+01
 0.3177361527750E+01
 0.3180169215043E+01
 0.3171778445754E+01
 0.3153237762723E+01
 0.3125308583653E+01
 0.3088489109862E+01
 0.3043091996306E+01
 0.2989354502613E+01
 0.2927571917986E+01
 0.2858234535236E+01
 0.2782134760059E+01
 0.2700457094933E+01
 0.2614956456372E+01
 0.2527927375789E+01
 0.2441868512305E+01
 0.2359322243523E+01
 0.2282959322632E+01
 0.2215810454664E+01
 0.2161592087338E+01
 0.2125096292102E+01
 0.2112601949247E+01
 0.2132195956367E+01
 0.2193790202758E+01
 0.2308640080087E+01
 0.2488167163973E+01
 0.2741935531558E+01
 0.3075134187522E+01
 0.3486116881752E+01
 0.3964452674880E+01
 0.4489985335292E+01
 0.5033409335938E+01
 0.5558951082933E+01
 0.6030580743812E+01
 0.2670639560376E+01
 0.2758264786644E+01
 0.2845093452584E+01
 0.2926109728245E+01
 0.2996979842459E+01
 0.3054793535219E+01
 0.3098211530809E+01
 0.3127165469111E+01
 0.3142380418005E+01
 0.3144929842041E+01
 0.3135918767801E+01
 0.3116305676874E+01
 0.3086835402612E+01
 0.3048050239157E+01
 0.3000356392446E+01
 0.2944122899721E+01
 0.2879802122141E+01
 0.2808052209782E+01
 0.2729831128343E+01
 0.2646476739921E+01
 0.2559867982941E+01
 0.2472401973419E+01
 0.2386700767429E+01
 0.2305479007004E+01
 0.2231633438669E+01
 0.2168467998593E+01
 0.2120007142293E+01
 0.2091360748550E+01
 0.2089076313301E+01
 0.2121336989634E+01
 0.2197782686131E+01
 0.2328807878068E+01
 0.2524251530106E+01
 0.2791480882839E+01
 0.3133268524047E+01
 0.3545898210815E+01
 0.4017816454259E+01
 0.4529194050110E+01
 0.5052812791569E+01
 0.5556787832577E+01
 0.6009555536775E+01
 0.2651123781491E+01
 0.2735266698097E+01
 0.2818642677081E+01
 0.2896675576701E+01
 0.2965324857214E+01
 0.3021734576987E+01
 0.3064411459779E+01
 0.3093020568112E+01
 0.3108003580043E+01
 0.3110196332111E+01
 0.3100539023946E+01
 0.3079901534437E+01
 0.3049008824334E+01
 0.3008441510804E+01
 0.2958691645436E+01
 0.2900250310459E+01
 0.2833715452404E+01
 0.2759900976033E+01
 0.2679919316562E+01
 0.2595252760443E+01
 0.2507898301664E+01
 0.2420351512536E+01
 0.2335351820494E+01
 0.2255775206896E+01
 0.2184727925215E+01
 0.2125765457840E+01
 0.2083192152660E+01
 0.2062395626291E+01
 0.2070129858952E+01
 0.2114582403198E+01
 0.2205011686848E+01
 0.2350874780059E+01
 0.2560467843110E+01
 0.2839180202384E+01
 0.3187751436455E+01
 0.3600852119074E+01
 0.4066200868262E+01
 0.4564498828007E+01
 0.5070510265291E+01
 0.5555624680561E+01
 0.5991804689655E+01
 0.2632103899060E+01
 0.2713035572983E+01
 0.2793209765407E+01
 0.2868420043716E+01
 0.2934886077186E+01
 0.2989819727387E+01
 0.3031617404284E+01
 0.3059727956101E+01
 0.3074350514021E+01
 0.3076109118464E+01
 0.3065791650502E+01
 0.3044182757256E+01
 0.3011985450763E+01
 0.2969813309396E+01
 0.2918236428771E+01
 0.2857858019634E+01
 0.2789410138998E+01
 0.2713850533737E+01
 0.2632435098949E+01
 0.2546781296815E+01
 0.2458997480756E+01
 0.2371672636388E+01
 0.2287656844404E+01
 0.2209976403897E+01
 0.2141931117841E+01
 0.2087307140892E+01
 0.2050661238061E+01
 0.2037619290907E+01
 0.2055082314525E+01
 0.2111160813410E+01
 0.2214647821886E+01
 0.2374027511444E+01
 0.2596131643310E+01
 0.2884596877888E+01
 0.3238469821549E+01
 0.3651178903193E+01
 0.4110012434871E+01
 0.4596324357305E+01
 0.5086710048157E+01
 0.5555330737766E+01
 0.5977071606345E+01
 0.2613536354543E+01
 0.2691510046277E+01
 0.2768720914106E+01
 0.2841274097865E+01
 0.2905619234419E+01
 0.2959043197143E+01
 0.2999865924112E+01
 0.3027362301971E+01
 0.3041525547244E+01
 0.3042792898892E+01
 0.3031813389726E+01
 0.3009291171786E+01
 0.2975906235814E+01
 0.2932300217494E+01
 0.2879113544235E+01
 0.2817051650628E+01
 0.2746969354320E+01
 0.2669956535008E+01
 0.2587401600087E+01
 0.2501047671926E+01
 0.2413107184385E+01
 0.2326256786519E+01
 0.2243449997731E+01
 0.2167852436119E+01
 0.2102942053171E+01
 0.2052715606293E+01
 0.2021955582420E+01
 0.2016487911775E+01
 0.2043305459612E+01
 0.2110372672228E+01
 0.2225958575773E+01
 0.2397573144387E+01
 0.2630687282991E+01
 0.2927404475437E+01
 0.3285373756285E+01
 0.3697080231476E+01
 0.4149601917871E+01
 0.4625006583523E+01
 0.5101553832995E+01
 0.5555768173663E+01
 0.5965018366207E+01
 0.2595385050631E+01
 0.2670639482159E+01
 0.2745114786090E+01
 0.2815179321657E+01
 0.2877485434514E+01
 0.2929397917388E+01
 0.2969186335022E+01
 0.2995986878036E+01
 0.3009619327994E+01
 0.3010357741395E+01
 0.2998726093893E+01
 0.2975353683734E+01
 0.2940897206132E+01
 0.2896021913742E+01
 0.2841431063584E+01
 0.2777922555223E+01
 0.2706462818855E+01
 0.2628262372039E+01
 0.2544831249724E+01
 0.2458028513339E+01
 0.2370162955062E+01
 0.2283992611430E+01
 0.2202566889267E+01
 0.2129179830952E+01
 0.2067472684637E+01
 0.2021633522255E+01
 0.1996644800257E+01
 0.1998496221789E+01
 0.2034222957596E+01
 0.2111588014409E+01
 0.2238301455007E+01
 0.2420924840293E+01
 0.2663686110359E+01
 0.2967361814486E+01
 0.3328456239857E+01
 0.3738749463004E+01
 0.4185267768524E+01
 0.4650810368605E+01
 0.5115134222246E+01
 0.5556793542886E+01
 0.5955290871496E+01
 0.2577619873402E+01
 0.2650381869297E+01
 0.2722340191810E+01
 0.2790086161452E+01
 0.2850450541698E+01
 0.2900876065457E+01
 0.2939601957680E+01
 0.2965655028245E+01
 0.2978710163544E+01
 0.2978900161743E+01
 0.2966637580377E+01
 0.2942483032700E+01
 0.2907070251182E+01
 0.2861084103910E+01
 0.2805283456067E+01
 0.2740549145811E+01
 0.2667948319023E+01
 0.2588800859808E+01
 0.2504727621815E+01
 0.2417693745556E+01
 0.2330096342964E+01
 0.2244768188021E+01
 0.2164846811113E+01
 0.2093743935587E+01
 0.2035249772682E+01
 0.1993725178435E+01
 0.1974327956938E+01
 0.1983177909367E+01
 0.2027309683082E+01
 0.2114243482891E+01
 0.2251116574718E+01
 0.2443588257270E+01
 0.2694767570170E+01
 0.3004293082249E+01
 0.3367738202276E+01
 0.3776365964845E+01
 0.4217261584596E+01
 0.4673943688477E+01
 0.5127507484661E+01
 0.5558259229839E+01
 0.5947541788620E+01
 0.2560215489455E+01
 0.2630702106455E+01
 0.2700354164315E+01
 0.2765952394767E+01
 0.2824484513826E+01
 0.2873469336425E+01
 0.2911131047939E+01
 0.2936411370620E+01
 0.2948865197147E+01
 0.2948504139697E+01
 0.2935642490870E+01
 0.2910778576428E+01
 0.2874523934792E+01
 0.2827579442886E+01
 0.2770752666921E+01
 0.2704998140639E+01
 0.2631473109098E+01
 0.2551595782683E+01
 0.2467087120175E+01
 0.2380008407872E+01
 0.2292836832701E+01
 0.2208473005592E+01
 0.2130134695931E+01
 0.2061340736251E+01
 0.2006016441662E+01
 0.1968677664870E+01
 0.1954634268505E+01
 0.1970105664397E+01
 0.2022090588689E+01
 0.2117838804228E+01
 0.2263919057754E+01
 0.2465148997865E+01
 0.2723643153499E+01
 0.3038072125143E+01
 0.3403257639094E+01
 0.3810092283193E+01
 0.4245793954913E+01
 0.4694569020754E+01
 0.5138702266858E+01
 0.5560015809974E+01
 0.5941439943304E+01
 0.2543150359814E+01
 0.2611570598414E+01
 0.2679120357629E+01
 0.2742741797114E+01
 0.2799560734387E+01
 0.2847169041666E+01
 0.2883787483635E+01
 0.2908292779785E+01
 0.2920141437944E+01
 0.2919242065070E+01
 0.2905823134760E+01
 0.2880327082621E+01
 0.2843344310085E+01
 0.2795588437164E+01
 0.2737909145230E+01
 0.2671325728354E+01
 0.2597075208380E+01
 0.2516663317689E+01
 0.2431900523124E+01
 0.2344934309891E+01
 0.2258313581166E+01
 0.2174999730925E+01
 0.2098282826321E+01
 0.2031778408613E+01
 0.1979533463014E+01
 0.1946201790435E+01
 0.1937223553791E+01
 0.1958890945604E+01
 0.2018139208487E+01
 0.2121932919423E+01
 0.2276291560978E+01
 0.2485261299586E+01
 0.2750082949535E+01
 0.3068610135469E+01
 0.3435061865177E+01
 0.3840073118101E+01
 0.4271040032629E+01
 0.4712812273254E+01
 0.5148726140940E+01
 0.5561914730203E+01
 0.5936674750208E+01
 0.2526405926305E+01
 0.2592962099543E+01
 0.2658607709958E+01
 0.2720422986441E+01
 0.2775655367359E+01
 0.2821966089144E+01
 0.2857581261833E+01
 0.2881329182783E+01
 0.2892586651420E+01
 0.2891175601116E+01
 0.2877250292582E+01
 0.2851203500295E+01
 0.2813605711178E+01
 0.2765180305707E+01
 0.2706812804536E+01
 0.2639578639654E+01
 0.2564784583622E+01
 0.2484013324299E+01
 0.2399154375793E+01
 0.2312431512851E+01
 0.2226456956187E+01
 0.2144245748854E+01
 0.2069152299290E+01
 0.2004878614396E+01
 0.1955580292647E+01
 0.1926032777253E+01
 0.1921786476596E+01
 0.1949183514129E+01
 0.2015075889456E+01
 0.2126139958303E+01
 0.2287877169683E+01
 0.2503638057321E+01
 0.2773904518722E+01
 0.3095846091623E+01
 0.3463202093908E+01
 0.3866435413286E+01
 0.4293144559972E+01
 0.4728769881480E+01
 0.5157570891743E+01
 0.5563811009353E+01
 0.5932958419647E+01
 0.2509965936904E+01
 0.2574854757796E+01
 0.2638789326727E+01
 0.2698968427025E+01
 0.2752746754079E+01
 0.2797850890373E+01
 0.2832518855695E+01
 0.2855544205053E+01
 0.2866240129363E+01
 0.2864356469069E+01
 0.2849983974605E+01
 0.2823471703329E+01
 0.2785371516765E+01
 0.2736413799581E+01
 0.2677513922858E+01
 0.2609795138318E+01
 0.2534624232832E+01
 0.2453650519175E+01
 0.2368832250124E+01
 0.2282459658992E+01
 0.2197199901951E+01
 0.2116114510037E+01
 0.2042614285178E+01
 0.1980477592126E+01
 0.1933955917242E+01
 0.1907930787014E+01
 0.1908044630683E+01
 0.1940670793056E+01
 0.2012565850796E+01
 0.2130125218208E+01
 0.2298372811633E+01
 0.2520042150769E+01
 0.2794963755474E+01
 0.3119739363124E+01
 0.3487729682623E+01
 0.3889289056701E+01
 0.4312226256283E+01
 0.4742514545216E+01
 0.5165216951745E+01
 0.5565565730611E+01
 0.5930027241723E+01
 0.2493815884728E+01
 0.2557229322293E+01
 0.2619641546819E+01
 0.2678353574698E+01
 0.2730814861650E+01
 0.2774813224337E+01
 0.2808603466460E+01
 0.2830955693829E+01
 0.2841133352565E+01
 0.2838827154098E+01
 0.2824074126398E+01
 0.2797185194688E+01
 0.2758694874620E+01
 0.2709337972482E+01
 0.2650053978115E+01
 0.2582005930967E+01
 0.2506611172029E+01
 0.2425575538566E+01
 0.2340915876342E+01
 0.2254979154640E+01
 0.2170479140322E+01
 0.2090516700251E+01
 0.2018551102053E+01
 0.1958427070002E+01
 0.1914479542440E+01
 0.1891681313755E+01
 0.1895750504432E+01
 0.1933077106495E+01
 0.2010317167757E+01
 0.2133601286559E+01
 0.2307523295867E+01
 0.2534279018713E+01
 0.2813147451761E+01
 0.3140264025514E+01
 0.3508693578219E+01
 0.3908727896322E+01
 0.4328381606375E+01
 0.4754099945731E+01
 0.5171637172377E+01
 0.5567048269418E+01
 0.5927642426719E+01
 0.2477942540549E+01
 0.2540068485131E+01
 0.2601143161348E+01
 0.2658556145298E+01
 0.2709840785106E+01
 0.2752842077039E+01
 0.2785835194379E+01
 0.2807576137355E+01
 0.2817290553737E+01
 0.2814621529205E+01
 0.2799561269992E+01
 0.2772387755957E+01
 0.2733619371058E+01
 0.2683992887582E+01
 0.2624466406531E+01
 0.2556234984967E+01
 0.2480757315414E+01
 0.2399785879423E+01
 0.2315386137656E+01
 0.2229952200531E+01
 0.2146236204760E+01
 0.2067371232545E+01
 0.1996857112373E+01
 0.1938595012865E+01
 0.1896991138461E+01
 0.1877095460916E+01
 0.1884687349474E+01
 0.1926162844412E+01
 0.2008078765503E+01
 0.2136324417148E+01
 0.2315116036397E+01
 0.2546190397704E+01
 0.2828367307909E+01
 0.3157404528183E+01
 0.3526138629560E+01
 0.3924830896141E+01
 0.4341688117324E+01
 0.4763564667569E+01
 0.5176800038827E+01
 0.5568138239698E+01
 0.5925590729483E+01
 0.2462333563315E+01
 0.2523356335180E+01
 0.2583274761734E+01
 0.2639555492678E+01
 0.2689806305854E+01
 0.2731925473402E+01
 0.2764211151591E+01
 0.2785413000710E+01
 0.2794729194458E+01
 0.2791765403171E+01
 0.2776477081207E+01
 0.2749114040228E+01
 0.2710179643559E+01
 0.2660410260935E+01
 0.2600777287029E+01
 0.2532500260181E+01
 0.2457070256863E+01
 0.2376276729005E+01
 0.2292223940172E+01
 0.2207343684190E+01
 0.2124418325399E+01
 0.2046606085107E+01
 0.1977439468936E+01
 0.1920866233141E+01
 0.1881351873815E+01
 0.1864010133422E+01
 0.1874668989396E+01
 0.1919723607321E+01
 0.2005638502644E+01
 0.2138091240522E+01
 0.2320976476780E+01
 0.2555649113723E+01
 0.2840555148248E+01
 0.3171152408338E+01
 0.3540104498727E+01
 0.3937663300708E+01
 0.4352207086480E+01
 0.4770935458421E+01
 0.5180672388770E+01
 0.5568727176139E+01
 0.5923684961784E+01
 0.2446977176841E+01
 0.2507077905848E+01
 0.2566018197247E+01
 0.2621332082373E+01
 0.2670693503845E+01
 0.2712050309533E+01
 0.2743725529751E+01
 0.2764468989384E+01
 0.2773460361334E+01
 0.2770276990820E+01
 0.2754844895696E+01
 0.2727390097537E+01
 0.2688401924627E+01
 0.2638614029857E+01
 0.2579005941090E+01
 0.2510814345111E+01
 0.2435553944250E+01
 0.2355041675504E+01
 0.2271410951979E+01
 0.2187121930717E+01
 0.2104979164913E+01
 0.2028158988350E+01
 0.1960218717278E+01
 0.1905142875652E+01
 0.1867444448746E+01
 0.1852288159741E+01
 0.1865539593804E+01
 0.1913589377477E+01
 0.2002821413935E+01
 0.2138735873337E+01
 0.2324964222512E+01
 0.2562554835180E+01
 0.2849659160045E+01
 0.3181503837056E+01
 0.3550625002127E+01
 0.3947277747468E+01
 0.4359985938498E+01
 0.4776229932233E+01
 0.5183221695784E+01
 0.5568719967313E+01
 0.5921764500798E+01
 0.2431861902622E+01
 0.2491218802642E+01
 0.2549356126359E+01
 0.2603867049889E+01
 0.2652484421467E+01
 0.2693202192257E+01
 0.2724369634282E+01
 0.2744742252377E+01
 0.2753489089610E+01
 0.2750167309076E+01
 0.2734680143291E+01
 0.2707233830131E+01
 0.2668304513577E+01
 0.2618620843656E+01
 0.2559165446710E+01
 0.2491184997521E+01
 0.2416209248022E+01
 0.2336073302563E+01
 0.2252930216137E+01
 0.2169259319076E+01
 0.2087879415120E+01
 0.2011977973907E+01
 0.1945129269213E+01
 0.1891344791532E+01
 0.1855173343290E+01
 0.1841818360210E+01
 0.1857173441893E+01
 0.1907623756188E+01
 0.1999488163189E+01
 0.2138127461482E+01
 0.2326969858140E+01
 0.2566830682157E+01
 0.2855640984514E+01
 0.3188457809443E+01
 0.3557727736016E+01
 0.3953715266632E+01
 0.4365060155679E+01
 0.4779458773952E+01
 0.5184417948562E+01
 0.5568036068488E+01
 0.5919695736557E+01
 0.2416976341833E+01
 0.2475764900204E+01
 0.2533271650612E+01
 0.2587141835738E+01
 0.2635160778347E+01
 0.2675365292465E+01
 0.2706131896388E+01
 0.2726226536805E+01
 0.2734814624074E+01
 0.2731440505438E+01
 0.2715990714343E+01
 0.2688655379646E+01
 0.2649898178015E+01
 0.2600440479184E+01
 0.2541263070230E+01
 0.2473615594749E+01
 0.2399034430817E+01
 0.2319363676174E+01
 0.2236766648176E+01
 0.2153732777091E+01
 0.2073087270317E+01
 0.1998021804137E+01
 0.1932119767694E+01
 0.1879409821697E+01
 0.1844465000089E+01
 0.1832515583716E+01
 0.1849474705404E+01
 0.1901723309796E+01
 0.1995533754891E+01
 0.2136168186384E+01
 0.2326912428206E+01
 0.2568420607500E+01
 0.2858473529448E+01
 0.3192014842161E+01
 0.3561433886917E+01
 0.3957006133555E+01
 0.4367454826416E+01
 0.4780627493346E+01
 0.5184235163290E+01
 0.5566610504010E+01
 0.5917372509660E+01
 0.2402309000483E+01
 0.2460702099786E+01
 0.2517748020388E+01
 0.2571137888411E+01
 0.2618703732790E+01
 0.2658522212983E+01
 0.2688997866619E+01
 0.2708911297982E+01
 0.2717430619152E+01
 0.2714094117555E+01
 0.2698777253733E+01
 0.2671657439566E+01
 0.2633186477129E+01
 0.2584076172841E+01
 0.2525300607643E+01
 0.2458105485559E+01
 0.2384025510319E+01
 0.2304904716870E+01
 0.2222907412110E+01
 0.2140524150761E+01
 0.2060578774933E+01
 0.1986260281453E+01
 0.1921153343399E+01
 0.1869293990455E+01
 0.1835267942902E+01
 0.1824320716910E+01
 0.1842377264009E+01
 0.1895817049930E+01
 0.1990886535699E+01
 0.2132791750813E+01
 0.2324737561137E+01
 0.2567287485072E+01
 0.2858139410422E+01
 0.3192176086396E+01
 0.3561758165608E+01
 0.3957170558791E+01
 0.4367185836268E+01
 0.4779737765935E+01
 0.5182652554563E+01
 0.5564394674500E+01
 0.5914716522414E+01
 0.2387848153308E+01
 0.2446016140744E+01
 0.2502768405266E+01
 0.2555836429499E+01
 0.2603093687796E+01
 0.2642653873141E+01
 0.2672950195154E+01
 0.2692781771125E+01
 0.2701325283459E+01
 0.2698119267430E+01
 0.2683033384210E+01
 0.2656235493382E+01
 0.2618166006592E+01
 0.2569524868848E+01
 0.2511274635588E+01
 0.2444650244349E+01
 0.2371176517024E+01
 0.2292688459896E+01
 0.2211342179092E+01
 0.2129620453737E+01
 0.2050338053083E+01
 0.1976674446482E+01
 0.1912207772528E+01
 0.1860971618277E+01
 0.1827552839323E+01
 0.1817200676151E+01
 0.1835844569146E+01
 0.1889866071737E+01
 0.1985507510466E+01
 0.2127962353669E+01
 0.2320416215005E+01
 0.2563411850880E+01
 0.2854629946173E+01
 0.3188942783761E+01
 0.3558708814860E+01
 0.3954219199135E+01
 0.4364260713015E+01
 0.4776788383303E+01
 0.5179655382886E+01
 0.5561356976420E+01
 0.5911677715567E+01
 0.2373581743134E+01
 0.2431692461162E+01
 0.2488315723230E+01
 0.2541218276136E+01
 0.2588310139335E+01
 0.2627739410742E+01
 0.2657968601784E+01
 0.2677819008449E+01
 0.2686481472073E+01
 0.2683500792160E+01
 0.2668745859563E+01
 0.2642377977763E+01
 0.2604826563731E+01
 0.2556777382186E+01
 0.2499176670491E+01
 0.2433241826444E+01
 0.2360479646038E+01
 0.2282707203204E+01
 0.2202063269490E+01
 0.2121013998987E+01
 0.2042357423357E+01
 0.1969256669370E+01
 0.1905275540446E+01
 0.1854435357835E+01
 0.1821312511276E+01
 0.1811148386936E+01
 0.1829869565414E+01
 0.1883863364925E+01
 0.1979389988413E+01
 0.2121674159205E+01
 0.2313944030537E+01
 0.2556791261510E+01
 0.2847944660783E+01
 0.3182316020149E+01
 0.3552287661127E+01
 0.3948153480886E+01
 0.4358679134165E+01
 0.4771775827860E+01
 0.5175235490596E+01
 0.5557483237202E+01
 0.5908234604263E+01
 0.2359497313336E+01
 0.2417716104158E+01
 0.2474372524640E+01
 0.2527263717228E+01
 0.2574331565026E+01
 0.2613756101662E+01
 0.2644029837486E+01
 0.2663999884365E+01
 0.2672876729095E+01
 0.2670217313109E+01
 0.2655894648569E+01
 0.2630066370894E+01
 0.2593151232520E+01
 0.2545818475423E+01
 0.2488993234960E+01
 0.2423868623619E+01
 0.2351925302298E+01
 0.2274953543043E+01
 0.2195065678842E+01
 0.2114702413938E+01
 0.2036637401051E+01
 0.1964010637084E+01
 0.1900363814061E+01
 0.1849696155595E+01
 0.1816561894700E+01
 0.1806182752303E+01
 0.1824474673095E+01
 0.1877833804402E+01
 0.1972559567049E+01
 0.2113951263034E+01
 0.2305341283180E+01
 0.2547440250692E+01
 0.2838091267382E+01
 0.3172296753574E+01
 0.3542490193932E+01
 0.3938965729554E+01
 0.4350433099765E+01
 0.4764694478407E+01
 0.5169391530796E+01
 0.5552776965951E+01
 0.5904394564821E+01
 0.2345581971979E+01
 0.2404071667785E+01
 0.2460920928544E+01
 0.2513952441313E+01
 0.2561135352015E+01
 0.2600679297214E+01
 0.2631107638940E+01
 0.2651297070874E+01
 0.2660483282835E+01
 0.2658241245607E+01
 0.2644452951393E+01
 0.2619275207127E+01
 0.2583116389091E+01
 0.2536626849776E+01
 0.2480705831489E+01
 0.2416515419743E+01
 0.2345502039057E+01
 0.2269420297115E+01
 0.2190346987912E+01
 0.2110688539758E+01
 0.2033186588937E+01
 0.1960951238176E+01
 0.1897494324437E+01
 0.1846783139888E+01
 0.1813337948256E+01
 0.1802348608930E+01
 0.1819711830264E+01
 0.1871834319978E+01
 0.1965074454765E+01
 0.2104848156489E+01
 0.2294653434958E+01
 0.2535390883274E+01
 0.2825086131608E+01
 0.3158886113907E+01
 0.3529305671118E+01
 0.3926639104693E+01
 0.4339506769778E+01
 0.4755536446189E+01
 0.5162128888574E+01
 0.5547259417226E+01
 0.5900194067024E+01
 0.2331822387021E+01
 0.2390743297628E+01
 0.2447942610180E+01
 0.2501263514886E+01
 0.2548697763122E+01
 0.2588482378793E+01
 0.2619172676150E+01
 0.2639678983935E+01
 0.2649267994850E+01
 0.2647538750633E+01
 0.2634387149804E+01
 0.2609972019039E+01
 0.2574691628429E+01
 0.2529175050564E+01
 0.2474290823187E+01
 0.2411163245855E+01
 0.2341196388611E+01
 0.2266100314034E+01
 0.2187907155469E+01
 0.2108980213372E+01
 0.2032021455278E+01
 0.1960104343839E+01
 0.1896703158468E+01
 0.1845743433881E+01
 0.1811699508257E+01
 0.1799716665865E+01
 0.1815662586725E+01
 0.1865954236048E+01
 0.1957026125347E+01
 0.2094450689199E+01
 0.2281952295113E+01
 0.2520693923694E+01
 0.2808955235802E+01
 0.3142085993629E+01
 0.3512717261915E+01
 0.3911147342287E+01
 0.4325875960936E+01
 0.4744291033663E+01
 0.5153459287816E+01
 0.5540969462223E+01
 0.5895698849258E+01
 0.2318204812758E+01
 0.2377714722345E+01
 0.2435418839906E+01
 0.2489175411095E+01
 0.2536993940698E+01
 0.2577136728990E+01
 0.2608192492474E+01
 0.2629109700706E+01
 0.2639192263478E+01
 0.2638069629754E+01
 0.2625656692879E+01
 0.2602117208574E+01
 0.2567839613614E+01
 0.2523429287914E+01
 0.2469719221743E+01
 0.2407789134254E+01
 0.2338992584267E+01
 0.2264986167557E+01
 0.2187748191739E+01
 0.2109589929686E+01
 0.2033165996215E+01
 0.1961506482224E+01
 0.1898040456577E+01
 0.1846641890142E+01
 0.1811727085106E+01
 0.1798383417665E+01
 0.1812438236146E+01
 0.1860315763396E+01
 0.1948540288807E+01
 0.2082877526395E+01
 0.2267337805041E+01
 0.2503420652560E+01
 0.2789735687049E+01
 0.3121899969556E+01
 0.3492702253012E+01
 0.3892454309685E+01
 0.4309507291833E+01
 0.4730943799196E+01
 0.5143400069947E+01
 0.5533963258858E+01
 0.5891004031491E+01
 0.2304715148520E+01
 0.2364969333760E+01
 0.2423330575368E+01
 0.2477666090091E+01
 0.2525997948364E+01
 0.2566611718352E+01
 0.2598131436008E+01
 0.2619548847140E+01
 0.2630211882486E+01
 0.2629787165140E+01
 0.2618213920793E+01
 0.2595663850109E+01
 0.2562515850186E+01
 0.2519349174610E+01
 0.2466956383668E+01
 0.2406365771702E+01
 0.2338872172720E+01
 0.2266069733754E+01
 0.2189873709668E+01
 0.2112534380148E+01
 0.2036651277742E+01
 0.1965204400721E+01
 0.1901570011084E+01
 0.1849560741491E+01
 0.1813522594774E+01
 0.1798471021273E+01
 0.1810179968023E+01
 0.1855074617569E+01
 0.1939778154948E+01
 0.2070282094974E+01
 0.2250940471608E+01
 0.2483665385659E+01
 0.2767477840682E+01
 0.3098334624233E+01
 0.3469232363979E+01
 0.3870513386824E+01
 0.4290356962574E+01
 0.4715475204517E+01
 0.5131973126276E+01
 0.5526313710474E+01
 0.5886234163815E+01
 0.2291339031687E+01
 0.2352490314131E+01
 0.2411658609726E+01
 0.2466713132681E+01
 0.2515682850144E+01
 0.2556874705280E+01
 0.2588950578908E+01
 0.2610951453101E+01
 0.2622276853464E+01
 0.2622637904958E+01
 0.2612003828336E+01
 0.2590557427765E+01
 0.2558668387923E+01
 0.2516887382926E+01
 0.2465961615937E+01
 0.2406861052127E+01
 0.2340813516463E+01
 0.2269341650004E+01
 0.2194288351969E+01
 0.2117833864539E+01
 0.2042514853190E+01
 0.1971254511484E+01
 0.1907368760468E+01
 0.1854599163448E+01
 0.1817209019329E+01
 0.1800127125131E+01
 0.1809059016676E+01
 0.1850420728242E+01
 0.1930937951443E+01
 0.2056854998837E+01
 0.2232924467592E+01
 0.2461548755625E+01
 0.2742248124990E+01
 0.3071401350602E+01
 0.3442274225385E+01
 0.3845266680790E+01
 0.4268369136516E+01
 0.4697858800023E+01
 0.5119203454392E+01
 0.5518109689779E+01
 0.5881543214368E+01
 0.2278061967577E+01
 0.2340260815086E+01
 0.2400383781028E+01
 0.2456293931050E+01
 0.2506020827935E+01
 0.2547891047380E+01
 0.2580607621975E+01
 0.2603267773188E+01
 0.2615331152339E+01
 0.2616561396944E+01
 0.2606963772746E+01
 0.2586735512302E+01
 0.2556237455157E+01
 0.2515989224514E+01
 0.2466687693659E+01
 0.2409237529804E+01
 0.2344791185516E+01
 0.2274790653216E+01
 0.2200997089308E+01
 0.2125511569134E+01
 0.2050800047186E+01
 0.1979722209549E+01
 0.1915526168306E+01
 0.1861872737469E+01
 0.1822929985360E+01
 0.1803524634834E+01
 0.1809276779921E+01
 0.1846578996933E+01
 0.1922256649365E+01
 0.2042826879587E+01
 0.2213491427425E+01
 0.2437221845316E+01
 0.2714132698242E+01
 0.3041118775486E+01
 0.3411790118312E+01
 0.3816644107649E+01
 0.4243473896628E+01
 0.4678058898813E+01
 0.5105117304091E+01
 0.5509455023468E+01
 0.5877114431564E+01
 0.2264869501026E+01
 0.2328264194693E+01
 0.2389487249940E+01
 0.2446385941542E+01
 0.2496983338040E+01
 0.2539624121056E+01
 0.2573056779630E+01
 0.2596443069477E+01
 0.2609312448966E+01
 0.2611489872161E+01
 0.2603023130155E+01
 0.2584127382935E+01
 0.2555155030722E+01
 0.2516592157369E+01
 0.2469080292194E+01
 0.2413451773730E+01
 0.2350775237495E+01
 0.2282402794584E+01
 0.2210004384935E+01
 0.2135592704269E+01
 0.2061555096825E+01
 0.1990681052596E+01
 0.1926143475487E+01
 0.1871512804513E+01
 0.1830849250688E+01
 0.1808861402347E+01
 0.1811064881941E+01
 0.1843810057789E+01
 0.1914011839625E+01
 0.2028471687363E+01
 0.2192884964906E+01
 0.2410871279963E+01
 0.2683242106714E+01
 0.3007515985165E+01
 0.3377739116814E+01
 0.3784562397562E+01
 0.4215584743693E+01
 0.4656027670769E+01
 0.5089739879944E+01
 0.5500467210458E+01
 0.5873160132296E+01
 0.2251747434861E+01
 0.2316484320374E+01
 0.2378950853895E+01
 0.2436967004068E+01
 0.2488541305260E+01
 0.2532035342533E+01
 0.2566248636458E+01
 0.2590417348897E+01
 0.2604151776238E+01
 0.2607347879425E+01
 0.2600102904145E+01
 0.2582653599033E+01
 0.2555344358529E+01
 0.2518625223810E+01
 0.2473077336171E+01
 0.2419453624068E+01
 0.2358730385404E+01
 0.2292160528687E+01
 0.2221313221688E+01
 0.2148103494803E+01
 0.2074832140754E+01
 0.2004211790384E+01
 0.1939332812101E+01
 0.1883665695199E+01
 0.1841150085846E+01
 0.1816359821378E+01
 0.1814685148114E+01
 0.1842410981498E+01
 0.1906523675728E+01
 0.2014110287600E+01
 0.2171395903645E+01
 0.2382725367893E+01
 0.2649717118679E+01
 0.2970636758027E+01
 0.3340078795629E+01
 0.3748924077920E+01
 0.4184595564317E+01
 0.4631701528835E+01
 0.5073092528155E+01
 0.5491275862565E+01
 0.5869921284962E+01
 0.2238682102984E+01
 0.2304905949013E+01
 0.2368757549834E+01
 0.2428015735777E+01
 0.2480665354290E+01
 0.2525084183460E+01
 0.2560129966435E+01
 0.2585125048927E+01
 0.2599773147455E+01
 0.2604051874268E+01
 0.2598115293893E+01
 0.2582225530663E+01
 0.2556719413239E+01
 0.2522008426122E+01
 0.2478608269461E+01
 0.2427185352039E+01
 0.2368615051977E+01
 0.2304041673279E+01
 0.2234923984919E+01
 0.2163070013689E+01
 0.2090686042588E+01
 0.2020401226713E+01
 0.1955216149555E+01
 0.1898491817235E+01
 0.1854034533199E+01
 0.1826266312051E+01
 0.1820429464578E+01
 0.1842715867760E+01
 0.1900156796420E+01
 0.2000114320293E+01
 0.2149368210045E+01
 0.2353061409047E+01
 0.2613735978346E+01
 0.2930545108232E+01
 0.3298767772309E+01
 0.3709616571846E+01
 0.4150377019003E+01
 0.4604996644322E+01
 0.5055189328553E+01
 0.5482020869105E+01
 0.5867666770476E+01
 0.2225660708201E+01
 0.2293515198403E+01
 0.2358891959981E+01
 0.2419512006459E+01
 0.2473326074945E+01
 0.2518728169084E+01
 0.2554643500647E+01
 0.2580494661210E+01
 0.2596093118276E+01
 0.2601509765342E+01
 0.2596963229392E+01
 0.2582744857554E+01
 0.2559184326531E+01
 0.2526652047782E+01
 0.2485593251887E+01
 0.2436580726932E+01
 0.2380380312581E+01
 0.2318018240330E+01
 0.2250833200176E+01
 0.2180516854965E+01
 0.2109173041535E+01
 0.2039340902894E+01
 0.1973924078598E+01
 0.1916164584477E+01
 0.1869722529405E+01
 0.1838850681426E+01
 0.1828619499520E+01
 0.1845096270802E+01
 0.1895322122930E+01
 0.1986910183636E+01
 0.2127205562383E+01
 0.2322214253989E+01
 0.2575523327860E+01
 0.2887332485319E+01
 0.3253769412007E+01
 0.3666511595860E+01
 0.4112772277086E+01
 0.4575803309630E+01
 0.5036032922160E+01
 0.5472850317709E+01
 0.5866692072960E+01
 0.2212671737509E+01
 0.2282300128690E+01
 0.2349341039255E+01
 0.2411437504595E+01
 0.2466494315609E+01
 0.2512922842929E+01
 0.2549727625760E+01
 0.2576448281111E+01
 0.2593020290172E+01
 0.2599620423262E+01
 0.2596539884009E+01
 0.2584103048788E+01
 0.2562632785612E+01
 0.2532455929439E+01
 0.2493942288508E+01
 0.2447563992836E+01
 0.2393968726611E+01
 0.2334055136072E+01
 0.2269032121104E+01
 0.2200465638532E+01
 0.2130349218348E+01
 0.2061125585705E+01
 0.1995594391302E+01
 0.1936869162857E+01
 0.1888450867655E+01
 0.1854405340315E+01
 0.1839606263686E+01
 0.1849961407210E+01
 0.1892478420469E+01
 0.1974982983949E+01
 0.2105378444956E+01
 0.2290586176992E+01
 0.2535361086178E+01
 0.2841127073610E+01
 0.3205057156579E+01
 0.3619465180184E+01
 0.4071592090244E+01
 0.4543978733691E+01
 0.5015609246199E+01
 0.5463918240203E+01
 0.5867316906909E+01
 0.2199705472447E+01
 0.2271251458910E+01
 0.2340094888820E+01
 0.2403776404653E+01
 0.2460141496059E+01
 0.2507621676264E+01
 0.2545315990753E+01
 0.2572901069133E+01
 0.2590454752736E+01
 0.2598273158892E+01
 0.2596728177076E+01
 0.2586180837538E+01
 0.2566947416596E+01
 0.2539308708331E+01
 0.2503554295095E+01
 0.2460048753728E+01
 0.2409313051826E+01
 0.2352108721177E+01
 0.2289505155518E+01
 0.2222933330784E+01
 0.2154268755543E+01
 0.2085851532485E+01
 0.2020370433084E+01
 0.1960800994582E+01
 0.1910471961554E+01
 0.1873244345448E+01
 0.1853769485608E+01
 0.1857758104233E+01
 0.1892133519529E+01
 0.1964880271962E+01
 0.2084431606814E+01
 0.2258658098138E+01
 0.2493601621605E+01
 0.2792105767648E+01
 0.3152622123259E+01
 0.3568318858029E+01
 0.4026609395186E+01
 0.4509337742713E+01
 0.4993880454984E+01
 0.5455382360030E+01
 0.5869880464364E+01
 0.2186754617549E+01
 0.2260363450558E+01
 0.2331147745193E+01
 0.2396516144792E+01
 0.2454239922556E+01
 0.2502775889914E+01
 0.2541336990655E+01
 0.2569760605331E+01
 0.2588287461059E+01
 0.2597347179287E+01
 0.2597400281769E+01
 0.2588847708555E+01
 0.2571999169421E+01
 0.2547087034449E+01
 0.2514316108787E+01
 0.2473936771829E+01
 0.2426334843828E+01
 0.2372125231937E+01
 0.2312228129742E+01
 0.2247930379637E+01
 0.2180981987038E+01
 0.2113614522767E+01
 0.2048399206366E+01
 0.1988164074078E+01
 0.1936052379730E+01
 0.1895702239871E+01
 0.1871516782806E+01
 0.1868970457997E+01
 0.1894845094702E+01
 0.1957215340375E+01
 0.2064991611380E+01
 0.2227002057615E+01
 0.2450683493969E+01
 0.2740509441324E+01
 0.3096483722113E+01
 0.3512902724050E+01
 0.3977553945910E+01
 0.4471640851946E+01
 0.4970774467198E+01
 0.5447401741725E+01
 0.5874731598344E+01
 0.2173815076967E+01
 0.2249635000605E+01
 0.2322499182659E+01
 0.2389648323830E+01
 0.2448763079204E+01
 0.2498334144870E+01
 0.2537713088566E+01
 0.2566926115820E+01
 0.2586399546594E+01
 0.2596711033716E+01
 0.2598417157988E+01
 0.2591961419871E+01
 0.2577646723429E+01
 0.2555654777370E+01
 0.2526101451044E+01
 0.2489116679736E+01
 0.2444942936118E+01
 0.2394039054835E+01
 0.2337166381698E+01
 0.2275458652121E+01
 0.2210533221235E+01
 0.2144507633599E+01
 0.2079829193063E+01
 0.2019168931218E+01
 0.1965471097875E+01
 0.1922132640068E+01
 0.1893282593104E+01
 0.1884119174024E+01
 0.1901220918254E+01
 0.1952669850941E+01
 0.2047774124173E+01
 0.2196294730763E+01
 0.2407150017403E+01
 0.2686662266421E+01
 0.3036704259912E+01
 0.3453041314563E+01
 0.3924107967587E+01
 0.4430580096748E+01
 0.4946168177397E+01
 0.5440133348938E+01
 0.5882205390287E+01
 0.2160886921399E+01
 0.2239070999768E+01
 0.2314155576589E+01
 0.2383169722766E+01
 0.2443685854089E+01
 0.2494242041337E+01
 0.2534359926168E+01
 0.2564287546943E+01
 0.2584661561665E+01
 0.2596222066568E+01
 0.2599628135578E+01
 0.2595367586821E+01
 0.2583735940702E+01
 0.2564862247236E+01
 0.2538769861443E+01
 0.2505462620431E+01
 0.2465031812893E+01
 0.2417770867991E+01
 0.2364272699762E+01
 0.2305509195227E+01
 0.2242958359927E+01
 0.2178618778853E+01
 0.2114807908975E+01
 0.2054030322252E+01
 0.1999017454392E+01
 0.1952906550003E+01
 0.1919526859221E+01
 0.1903760603069E+01
 0.1911918561839E+01
 0.1951995584295E+01
 0.2033590490035E+01
 0.2167331564511E+01
 0.2363670707346E+01
 0.2630995886293E+01
 0.2973408610792E+01
 0.3388563349181E+01
 0.3865904110535E+01
 0.4385764663276E+01
 0.4919862939365E+01
 0.5433720850728E+01
 0.5892557524460E+01
 0.2147975600201E+01
 0.2228684028335E+01
 0.2306131891245E+01
 0.2377083450065E+01
 0.2438984638416E+01
 0.2490441346875E+01
 0.2531185162609E+01
 0.2561724462504E+01
 0.2582932663021E+01
 0.2595725899926E+01
 0.2600870577327E+01
 0.2598899357461E+01
 0.2590099391074E+01
 0.2574545444614E+01
 0.2552165604779E+01
 0.2522832804542E+01
 0.2486479852928E+01
 0.2443225620650E+01
 0.2393485074732E+01
 0.2338059784690E+01
 0.2278282273925E+01
 0.2216027966488E+01
 0.2153479131772E+01
 0.2092964551401E+01
 0.2036988710458E+01
 0.1988410289165E+01
 0.1950733368378E+01
 0.1928485423016E+01
 0.1927644518843E+01
 0.1956015144242E+01
 0.2023353123824E+01
 0.2141040944021E+01
 0.2321065605878E+01
 0.2574079282729E+01
 0.2906810991985E+01
 0.3319315627038E+01
 0.3802528827539E+01
 0.4336707534669E+01
 0.4891560229351E+01
 0.5428282210821E+01
 0.5905701116923E+01
 0.2135093486450E+01
 0.2218496467353E+01
 0.2298453897420E+01
 0.2371400183126E+01
 0.2434637212787E+01
 0.2486868845543E+01
 0.2528086968963E+01
 0.2559104739632E+01
 0.2581059746183E+01
 0.2595055976183E+01
 0.2601969658156E+01
 0.2602377215342E+01
 0.2596555980337E+01
 0.2584525362360E+01
 0.2566116562672E+01
 0.2541067982894E+01
 0.2509147432057E+01
 0.2470290333321E+01
 0.2424724247773E+01
 0.2373072247488E+01
 0.2316515923549E+01
 0.2256804260854E+01
 0.2195979781633E+01
 0.2136186383636E+01
 0.2079687146245E+01
 0.2029042938057E+01
 0.1987407648210E+01
 0.1958916919478E+01
 0.1949152765997E+01
 0.1965621539161E+01
 0.2018079238408E+01
 0.2118497563965E+01
 0.2280332033272E+01
 0.2516655458243E+01
 0.2837249953072E+01
 0.3245186675499E+01
 0.3733518494419E+01
 0.4282852268839E+01
 0.4860759225178E+01
 0.5424215007902E+01
 0.5919651620230E+01
 0.2122263580875E+01
 0.2208539726710E+01
 0.2291156021988E+01
 0.2366133999437E+01
 0.2430616487932E+01
 0.2483448350470E+01
 0.2524945098123E+01
 0.2556275616580E+01
 0.2578869602926E+01
 0.2594028359280E+01
 0.2602737900796E+01
 0.2605615934592E+01
 0.2602928547700E+01
 0.2594639867866E+01
 0.2580484290767E+01
 0.2560063577773E+01
 0.2532974727504E+01
 0.2498960535610E+01
 0.2458050814753E+01
 0.2410681177925E+01
 0.2357876527338E+01
 0.2301256146042E+01
 0.2242717962053E+01
 0.2184210564554E+01
 0.2127738599820E+01
 0.2075542516243E+01
 0.2030397724872E+01
 0.1996008699780E+01
 0.1977496521626E+01
 0.1981956179209E+01
 0.2018965386889E+01
 0.2100867225857E+01
 0.2242440651759E+01
 0.2459280159823E+01
 0.2764680873940E+01
 0.3165494138712E+01
 0.3657742844362E+01
 0.4223000661676E+01
 0.4826810828931E+01
 0.5420719001583E+01
 0.5941727112393E+01
 0.2109511646110E+01
 0.2198861774790E+01
 0.2284290127120E+01
 0.2361311407609E+01
 0.2426898113580E+01
 0.2480098060760E+01
 0.2521629305173E+01
 0.2553073351505E+01
 0.2576178220388E+01
 0.2592447380330E+01
 0.2602972446149E+01
 0.2608407599553E+01
 0.2609005875324E+01
 0.2604677390466E+01
 0.2595061946915E+01
 0.2579624808218E+01
 0.2557787918149E+01
 0.2529092789808E+01
 0.2493361048183E+01
 0.2450832008362E+01
 0.2402368982102E+01
 0.2349459643451E+01
 0.2293853645042E+01
 0.2237294225780E+01
 0.2181510130451E+01
 0.2128398077979E+01
 0.2080326741406E+01
 0.2040531992652E+01
 0.2013613213087E+01
 0.2006143367369E+01
 0.2027330563342E+01
 0.2089618471610E+01
 0.2208858716699E+01
 0.2403152450222E+01
 0.2689737512514E+01
 0.3080135188907E+01
 0.3574451382378E+01
 0.4156145028080E+01
 0.4789047430291E+01
 0.5417985291255E+01
 0.5979114473576E+01
 0.2096889442970E+01
 0.2189541271029E+01
 0.2277942025379E+01
 0.2356983201856E+01
 0.2423467958533E+01
 0.2476734936067E+01
 0.2518002509498E+01
 0.2549326165073E+01
 0.2572793594767E+01
 0.2590107885808E+01
 0.2602456101958E+01
 0.2610520750324E+01
 0.2614539172995E+01
 0.2614369936290E+01
 0.2609563040388E+01
 0.2599450493281E+01
 0.2583277571558E+01
 0.2560377431948E+01
 0.2530353947885E+01
 0.2493242471896E+01
 0.2449741815143E+01
 0.2401208875176E+01
 0.2349244300700E+01
 0.2295378553265E+01
 0.2241049370752E+01
 0.2187789221708E+01
 0.2137536010458E+01
 0.2093026522165E+01
 0.2058288403906E+01
 0.2039274581447E+01
 0.2044634199639E+01
 0.2086599825647E+01
 0.2181724149411E+01
 0.2350414783746E+01
 0.2614147605465E+01
 0.2990058717616E+01
 0.3483720747066E+01
 0.4081815686063E+01
 0.4746954226410E+01
 0.5418106801477E+01
 0.6023789243313E+01
 0.2084463732150E+01
 0.2180676622716E+01
 0.2272214205000E+01
 0.2353203072014E+01
 0.2420297479230E+01
 0.2473249903919E+01
 0.2513898215382E+01
 0.2544835464218E+01
 0.2568502336009E+01
 0.2586789712143E+01
 0.2600963489530E+01
 0.2611723278070E+01
 0.2619287804628E+01
 0.2623468381143E+01
 0.2623733271626E+01
 0.2619288202618E+01
 0.2609203095041E+01
 0.2592596894877E+01
 0.2568845994808E+01
 0.2537773951207E+01
 0.2499912998649E+01
 0.2456491795478E+01
 0.2408962997672E+01
 0.2358637851088E+01
 0.2306648272313E+01
 0.2254142283325E+01
 0.2202604324571E+01
 0.2154245179707E+01
 0.2112478167615E+01
 0.2082550218460E+01
 0.2072372072360E+01
 0.2093633205628E+01
 0.2163113041003E+01
 0.2303119039351E+01
 0.2539459933555E+01
 0.2895846617285E+01
 0.3385041698069E+01
 0.3998797063013E+01
 0.4699749703881E+01
 0.5420555581424E+01
 0.6076302765976E+01
 0.2072326359166E+01
 0.2172401210797E+01
 0.2267240717418E+01
 0.2350036958053E+01
 0.2417347961670E+01
 0.2469510419075E+01
 0.2509124127532E+01
 0.2539380912575E+01
 0.2563074850393E+01
 0.2582260756086E+01
 0.2598259328456E+01
 0.2611772891246E+01
 0.2622998559833E+01
 0.2631706927212E+01
 0.2637296556500E+01
 0.2638858601271E+01
 0.2635292888603E+01
 0.2625500097757E+01
 0.2608619177925E+01
 0.2584253508021E+01
 0.2552767263268E+01
 0.2515265127072E+01
 0.2473054601444E+01
 0.2427222335657E+01
 0.2378580109268E+01
 0.2327872152532E+01
 0.2276108922273E+01
 0.2224952807606E+01
 0.2177168628956E+01
 0.2137225715901E+01
 0.2112135251223E+01
 0.2112712064916E+01
 0.2155408645838E+01
 0.2263795341287E+01
 0.2467792005707E+01
 0.2798529930898E+01
 0.3278017654936E+01
 0.3905658433176E+01
 0.4645978123490E+01
 0.5424334686795E+01
 0.6137838127620E+01
 0.2060602638767E+01
 0.2164894021186E+01
 0.2263194328578E+01
 0.2347561416093E+01
 0.2414562657664E+01
 0.2465352016760E+01
 0.2503456587967E+01
 0.2532718160443E+01
 0.2556265348326E+01
 0.2576278188119E+01
 0.2594100140019E+01
 0.2610418857222E+01
 0.2625407060124E+01
 0.2638803769594E+01
 0.2649954548377E+01
 0.2657853585538E+01
 0.2661241185587E+01
 0.2658798396415E+01
 0.2649416537648E+01
 0.2632469353362E+01
 0.2608151629592E+01
 0.2577449902814E+01
 0.2541531093282E+01
 0.2501252836456E+01
 0.2457093118170E+01
 0.2409374552176E+01
 0.2358616465545E+01
 0.2305916482995E+01
 0.2253366625485E+01
 0.2204603136018E+01
 0.2165600846771E+01
 0.2145989337696E+01
 0.2161299521903E+01
 0.2235505809247E+01
 0.2401982495547E+01
 0.2699794877496E+01
 0.3162514279479E+01
 0.3800679558112E+01
 0.4583461123787E+01
 0.5428374550427E+01
 0.6209920197163E+01
 0.2049463049319E+01
 0.2158394317969E+01
 0.2260294697163E+01
 0.2345859165274E+01
 0.2411854887251E+01
 0.2460567290645E+01
 0.2496634305792E+01
 0.2524576916019E+01
 0.2547812492998E+01
 0.2568590289635E+01
 0.2588236513961E+01
 0.2607404289899E+01
 0.2626239723539E+01
 0.2644462295275E+01
 0.2661386542118E+01
 0.2675934494264E+01
 0.2686704593667E+01
 0.2692160955328E+01
 0.2690937060305E+01
 0.2682165800004E+01
 0.2665870669257E+01
 0.2642926997548E+01
 0.2614367029370E+01
 0.2580815573622E+01
 0.2542403892492E+01
 0.2499017482365E+01
 0.2450672315699E+01
 0.2397893023943E+01
 0.2342086683618E+01
 0.2286019115452E+01
 0.2234520303169E+01
 0.2195761666516E+01
 0.2183763916553E+01
 0.2221876904859E+01
 0.2345753978587E+01
 0.2602268451403E+01
 0.3038896633222E+01
 0.3681874868934E+01
 0.4509317868004E+01
 0.5431371956607E+01
 0.6294424519110E+01
 0.2039140006688E+01
 0.2153221907354E+01
 0.2258817295583E+01
 0.2345009688736E+01
 0.2409090427371E+01
 0.2454891912894E+01
 0.2488351740274E+01
 0.2514659780377E+01
 0.2537440941183E+01
 0.2558939029190E+01
 0.2580415994029E+01
 0.2602469034573E+01
 0.2625216375092E+01
 0.2648372956476E+01
 0.2671249928304E+01
 0.2692730509941E+01
 0.2711298315208E+01
 0.2725209376939E+01
 0.2732829694575E+01
 0.2733037511986E+01
 0.2725681442481E+01
 0.2711532755811E+01
 0.2691495365810E+01
 0.2665957280802E+01
 0.2634690779838E+01
 0.2597132025451E+01
 0.2552788191454E+01
 0.2501613480997E+01
 0.2444333348174E+01
 0.2382827222131E+01
 0.2320703156695E+01
 0.2264450355043E+01
 0.2226042297251E+01
 0.2227099762803E+01
 0.2303864361929E+01
 0.2509890402336E+01
 0.2908422981493E+01
 0.3547149011591E+01
 0.4419835282863E+01
 0.5431530571312E+01
 0.6393658554902E+01
 0.2029952532196E+01
 0.2149805391775E+01
 0.2259101966462E+01
 0.2345071428642E+01
 0.2406061986505E+01
 0.2447987604272E+01
 0.2478252873078E+01
 0.2502642433503E+01
 0.2524864052083E+01
 0.2547063477109E+01
 0.2570386615802E+01
 0.2595353181520E+01
 0.2622053583779E+01
 0.2650215984837E+01
 0.2679181429810E+01
 0.2707837439692E+01
 0.2734592057320E+01
 0.2757511375952E+01
 0.2774686155092E+01
 0.2784722763295E+01
 0.2787288012521E+01
 0.2783054851072E+01
 0.2772803954716E+01
 0.2756681025715E+01
 0.2734087596628E+01
 0.2704002786845E+01
 0.2665428454138E+01
 0.2617764669221E+01
 0.2561078214558E+01
 0.2496372581508E+01
 0.2425992637245E+01
 0.2354577045798E+01
 0.2291601483938E+01
 0.2255893723432E+01
 0.2282211155588E+01
 0.2428362163213E+01
 0.2773876630433E+01
 0.3394617722399E+01
 0.4310251049424E+01
 0.5426196211184E+01
 0.6510518654758E+01
 0.2022343513148E+01
 0.2148721925685E+01
 0.2261558379983E+01
 0.2346049910237E+01
 0.2402453132028E+01
 0.2439422649306E+01
 0.2465926657860E+01
 0.2488175913546E+01
 0.2509788031387E+01
 0.2532704128255E+01
 0.2557901102659E+01
 0.2585801212702E+01
 0.2616468789837E+01
 0.2649665132910E+01
 0.2684799434362E+01
 0.2720817182600E+01
 0.2756105705571E+01
 0.2788573225146E+01
 0.2816032011832E+01
 0.2836795239206E+01
 0.2850335339948E+01
 0.2857228525971E+01
 0.2858133094725E+01
 0.2852943145281E+01
 0.2840677984330E+01
 0.2819858235850E+01
 0.2788995344471E+01
 0.2746968094421E+01
 0.2693231538199E+01
 0.2627956965963E+01
 0.2552228328291E+01
 0.2468728094134E+01
 0.2384091502371E+01
 0.2313437740529E+01
 0.2287847622591E+01
 0.2365619822235E+01
 0.2640521415904E+01
 0.3223249123610E+01
 0.4174511128142E+01
 0.5411312423743E+01
 0.6648737427671E+01
 0.2016937683998E+01
 0.2150753488671E+01
 0.2266662228075E+01
 0.2347842662346E+01
 0.2397789055602E+01
 0.2428651933474E+01
 0.2450906133910E+01
 0.2470891787295E+01
 0.2491917697512E+01
 0.2515608139482E+01
 0.2542721671356E+01
 0.2573566731128E+01
 0.2608185237033E+01
 0.2646392625021E+01
 0.2687707834418E+01
 0.2731198382926E+01
 0.2775304998365E+01
 0.2817830695697E+01
 0.2856315402333E+01
 0.2888753747027E+01
 0.2914402354453E+01
 0.2933733573413E+01
 0.2947274864050E+01
 0.2954652065438E+01
 0.2954491023069E+01
 0.2944861476297E+01
 0.2923813883500E+01
 0.2889757352554E+01
 0.2841609517168E+01
 0.2778794071470E+01
 0.2701191623392E+01
 0.2609497949470E+01
 0.2507288470284E+01
 0.2405281070944E+01
 0.2328886243301E+01
 0.2332207179327E+01
 0.2517447937728E+01
 0.3034124465824E+01
 0.4005124782263E+01
 0.5380557933555E+01
 0.6813257115675E+01
 0.2014634913149E+01
 0.2156966477250E+01
 0.2274928762713E+01
 0.2350146605161E+01
 0.2391372971150E+01
 0.2415000976027E+01
 0.2432673900664E+01
 0.2450410891263E+01
 0.2470963954035E+01
 0.2495535452520E+01
 0.2524625374449E+01
 0.2558417692314E+01
 0.2596937677510E+01
 0.2640075471841E+01
 0.2687501876458E+01
 0.2738479013067E+01
 0.2791597654382E+01
 0.2844638129336E+01
 0.2894892267298E+01
 0.2940008654251E+01
 0.2978993630608E+01
 0.3012192305670E+01
 0.3039974953562E+01
 0.3061669658368E+01
 0.3075498385161E+01
 0.3079101457058E+01
 0.3070116633727E+01
 0.3046554890690E+01
 0.3006898821240E+01
 0.2949956024669E+01
 0.2874531104596E+01
 0.2779399510726E+01
 0.2665004132898E+01
 0.2537235568917E+01
 0.2414304425696E+01
 0.2341367843570E+01
 0.2419238379702E+01
 0.2832839611396E+01
 0.3793436482032E+01
 0.5323944332654E+01
 0.7010784242322E+01
 0.2016766126012E+01
 0.2168822632296E+01
 0.2286835028322E+01
 0.2352306628075E+01
 0.2382211838609E+01
 0.2397662343306E+01
 0.2410676846400E+01
 0.2426355866708E+01
 0.2446652904930E+01
 0.2472265698449E+01
 0.2503409844085E+01
 0.2540141995308E+01
 0.2582478721300E+01
 0.2630403201567E+01
 0.2683776582072E+01
 0.2742132011687E+01
 0.2804330899962E+01
 0.2868255389465E+01
 0.2931006556665E+01
 0.2989863255589E+01
 0.3043528859778E+01
 0.3092169046570E+01
 0.3135938234934E+01
 0.3173816209658E+01
 0.3203613493580E+01
 0.3222584589358E+01
 0.3228028449189E+01
 0.3217649359338E+01
 0.3189621187338E+01
 0.3142314787260E+01
 0.3073669036517E+01
 0.2980732110075E+01
 0.2860932969788E+01
 0.2715221196403E+01
 0.2553696374798E+01
 0.2408724139035E+01
 0.2367503090465E+01
 0.2633826771774E+01
 0.3531155302474E+01
 0.5225555597406E+01
 0.7250587213570E+01
 0.2025365603561E+01
 0.2188326391694E+01
 0.2302629650767E+01
 0.2353077565274E+01
 0.2368947794855E+01
 0.2375717580226E+01
 0.2384351691253E+01
 0.2398367010208E+01
 0.2418736457737E+01
 0.2445605671797E+01
 0.2478899235663E+01
 0.2518553234143E+01
 0.2564585590691E+01
 0.2617086869998E+01
 0.2676138254349E+01
 0.2741615600807E+01
 0.2812792240338E+01
 0.2887832824447E+01
 0.2963763201700E+01
 0.3037487244133E+01
 0.3107328959150E+01
 0.3173172227725E+01
 0.3234840154653E+01
 0.3290880720683E+01
 0.3338693475006E+01
 0.3375226722569E+01
 0.3397551139558E+01
 0.3403174976881E+01
 0.3390102214090E+01
 0.3356485145233E+01
 0.3299695858383E+01
 0.3215405714679E+01
 0.3098408592355E+01
 0.2944998202423E+01
 0.2756966312813E+01
 0.2551620131039E+01
 0.2391325546434E+01
 0.2467235300961E+01
 0.3215308794091E+01
 0.5060115587376E+01
 0.7545547227192E+01
 0.2043671737246E+01
 0.2218193643428E+01
 0.2321899611215E+01
 0.2350276462571E+01
 0.2349839684327E+01
 0.2348199526835E+01
 0.2353158824451E+01
 0.2366120719439E+01
 0.2387004221131E+01
 0.2415397018504E+01
 0.2450950154714E+01
 0.2493496381583E+01
 0.2543066947340E+01
 0.2599868907315E+01
 0.2664219233286E+01
 0.2736390347292E+01
 0.2816216760053E+01
 0.2902395202795E+01
 0.2992090442595E+01
 0.3081877321943E+01
 0.3169596696705E+01
 0.3254660706426E+01
 0.3336346842614E+01
 0.3412638532054E+01
 0.3480544459729E+01
 0.3536844678187E+01
 0.3578546648772E+01
 0.3603093191413E+01
 0.3608448824349E+01
 0.3592778252368E+01
 0.3553264842784E+01
 0.3484731651573E+01
 0.3380055587371E+01
 0.3231706921778E+01
 0.3033823185399E+01
 0.2788329550923E+01
 0.2525812154045E+01
 0.2386922187157E+01
 0.2861994899375E+01
 0.4788742999330E+01
 0.7913194935129E+01
 0.2077107499376E+01
 0.2261941018423E+01
 0.2342616685804E+01
 0.2340358065955E+01
 0.2322889155950E+01
 0.2314195803146E+01
 0.2316616485719E+01
 0.2329351219289E+01
 0.2351295886523E+01
 0.2381523678400E+01
 0.2419457326560E+01
 0.2464853110486E+01
 0.2517769406427E+01
 0.2578533001671E+01
 0.2647695225064E+01
 0.2725945146097E+01
 0.2813806760911E+01
 0.2910827896248E+01
 0.3014686531109E+01
 0.3121796358655E+01
 0.3229388560508E+01
 0.3336057617445E+01
 0.3440148687886E+01
 0.3538879106855E+01
 0.3628931186948E+01
 0.3707146588982E+01
 0.3770716318110E+01
 0.3817175647488E+01
 0.3844540748184E+01
 0.3851178526526E+01
 0.3834503975132E+01
 0.3789204175438E+01
 0.3707352656050E+01
 0.3579164260716E+01
 0.3392863132077E+01
 0.3136897356730E+01
 0.2809515119234E+01
 0.2472741107943E+01
 0.2540059365073E+01
 0.4358045368312E+01
 0.8375560904748E+01
 0.2135359086604E+01
 0.2323450102890E+01
 0.2359100721884E+01
 0.2318188912743E+01
 0.2286248511580E+01
 0.2272939921292E+01
 0.2274334569923E+01
 0.2287877032623E+01
 0.2311511770440E+01
 0.2343919191726E+01
 0.2384358636371E+01
 0.2432546530862E+01
 0.2488583425540E+01
 0.2552913134333E+01
 0.2626303098197E+01
 0.2709833045595E+01
 0.2804773384843E+01
 0.2911874202789E+01
 0.3029943458460E+01
 0.3155675023431E+01
 0.3285572458541E+01
 0.3416778074114E+01
 0.3546014325681E+01
 0.3669446757777E+01
 0.3783591264304E+01
 0.3885719792864E+01
 0.3973571167464E+01
 0.4044982764137E+01
 0.4098040022194E+01
 0.4131360340718E+01
 0.4142965224812E+01
 0.4128297998647E+01
 0.4080172879990E+01
 0.3988910594060E+01
 0.3840134088850E+01
 0.3612854572725E+01
 0.3281245912361E+01
 0.2821795384929E+01
 0.2428935826952E+01
 0.3725054325194E+01
 0.8953830572624E+01
 0.2237281351939E+01
 0.2404082960754E+01
 0.2358014599405E+01
 0.2278108470604E+01
 0.2238836588782E+01
 0.2223775032447E+01
 0.2226092163043E+01
 0.2241616096103E+01
 0.2267623675905E+01
 0.2302572977287E+01
 0.2345639272249E+01
 0.2396545110546E+01
 0.2455448172567E+01
 0.2522901279833E+01
 0.2599855594166E+01
 0.2687712758166E+01
 0.2788414060319E+01
 0.2904166955419E+01
 0.3035837702001E+01
 0.3181443908164E+01
 0.3336763639706E+01
 0.3496284435759E+01
 0.3653875714927E+01
 0.3804297210964E+01
 0.3944254054304E+01
 0.4072016648873E+01
 0.4186387694085E+01
 0.4285824063778E+01
 0.4368421210956E+01
 0.4432770166402E+01
 0.4477639401900E+01
 0.4500295317577E+01
 0.4496385303801E+01
 0.4459214615096E+01
 0.4376921138577E+01
 0.4226232741520E+01
 0.3971301348262E+01
 0.3540831862160E+01
 0.2828162910980E+01
 0.3019264438870E+01
 0.9650907163027E+01
 0.2424425305535E+01
 0.2488020833065E+01
 0.2313573204196E+01
 0.2218981503000E+01
 0.2179711997812E+01
 0.2166352812302E+01
 0.2171886286321E+01
 0.2190591784607E+01
 0.2219687644365E+01
 0.2257533458052E+01
 0.2303335233687E+01
 0.2356865288929E+01
 0.2418354864112E+01
 0.2488453339245E+01
 0.2568251333648E+01
 0.2659379833801E+01
 0.2764235065561E+01
 0.2886355245859E+01
 0.3029777736360E+01
 0.3196223976087E+01
 0.3381232974716E+01
 0.3574198853235E+01
 0.3763958529847E+01
 0.3943572923876E+01
 0.4110662734621E+01
 0.4265341390657E+01
 0.4408150436737E+01
 0.4538670977913E+01
 0.4655011599030E+01
 0.4754838340591E+01
 0.4837051661633E+01
 0.4902186648682E+01
 0.4951458117232E+01
 0.4984634232301E+01
 0.4996732014589E+01
 0.4977459262691E+01
 0.4890878965099E+01
 0.4708574707226E+01
 0.4115852416304E+01
 0.3156300834173E+01
 0.1042509438818E+02
 0.2808601780686E+01
 0.2459082091388E+01
 0.2216628094908E+01
 0.2143349255999E+01
 0.2107462381541E+01
 0.2101155817903E+01
 0.2111805233456E+01
 0.2134989407297E+01
 0.2167836947029E+01
 0.2208914024280E+01
 0.2257534286364E+01
 0.2313573188637E+01
 0.2377348417089E+01
 0.2449592034857E+01
 0.2531482817363E+01
 0.2624773348004E+01
 0.2732062052717E+01
 0.2857494280290E+01
 0.3008423914430E+01
 0.3195672535827E+01
 0.3416823145565E+01
 0.3650523966615E+01
 0.3876971597388E+01
 0.4087697757835E+01
 0.4282593228761E+01
 0.4464834730929E+01
 0.4637502827254E+01
 0.4801975208940E+01
 0.4956948819753E+01
 0.5097481961574E+01
 0.5219499509876E+01
 0.5329412170395E+01
 0.5438596719797E+01
 0.5554932760955E+01
 0.5686743807981E+01
 0.5842035316188E+01
 0.6044144269590E+01
 0.6261565456159E+01
 0.6737769945276E+01
 0.6014875635928E+01
 0.1218265713630E+02
 0.9108640479943E+00
 0.1116032809838E+01
 0.1318255085611E+01
 0.1505473911735E+01
 0.1672187901303E+01
 0.1816224957256E+01
 0.1937242163613E+01
 0.2035845287547E+01
 0.2113026386884E+01
 0.2169946118286E+01
 0.2207972752652E+01
 0.2227692432702E+01
 0.2230219779114E+01
 0.2217948452529E+01
 0.2191991720653E+01
 0.2151792742981E+01
 0.2095892290208E+01
 0.2022613070108E+01
 0.1931146217681E+01
 0.1817400238317E+01
 0.8845237366270E+00
 0.1106161969833E+01
 0.1321300743376E+01
 0.1520130147508E+01
 0.1697445490874E+01
 0.1851309026143E+01
 0.1981591373922E+01
 0.2089045189170E+01
 0.2174756574955E+01
 0.2239987289953E+01
 0.2286092864540E+01
 0.2313758664463E+01
 0.2324292333728E+01
 0.2319806967441E+01
 0.2301180969164E+01
 0.2268098752564E+01
 0.2219181211852E+01
 0.2152670156207E+01
 0.2063213093299E+01
 0.1946793702518E+01
 0.8585570085626E+00
 0.1097877321459E+01
 0.1326448782018E+01
 0.1536660264059E+01
 0.1724225685363E+01
 0.1887573447103E+01
 0.2026807416809E+01
 0.2142843854249E+01
 0.2236903710572E+01
 0.2310335419102E+01
 0.2364505241014E+01
 0.2400332042196E+01
 0.2419176948572E+01
 0.2422887430171E+01
 0.2412276145464E+01
 0.2386997078097E+01
 0.2345611076410E+01
 0.2285289679640E+01
 0.2201210701133E+01
 0.2094993371494E+01
 0.8333995659081E+00
 0.1090790447108E+01
 0.1333176482811E+01
 0.1554708982917E+01
 0.1752227029087E+01
 0.1924718185700E+01
 0.2072583837421E+01
 0.2196937256826E+01
 0.2299149912708E+01
 0.2380673187191E+01
 0.2442945114700E+01
 0.2487080745633E+01
 0.2514480632361E+01
 0.2526790977222E+01
 0.2524727479556E+01
 0.2507880339362E+01
 0.2474605328163E+01
 0.2422110928526E+01
 0.2347445776913E+01
 0.2252712952320E+01
 0.8091800289435E+00
 0.1084821436695E+01
 0.1341137879929E+01
 0.1573912134491E+01
 0.1781120406853E+01
 0.1962423992815E+01
 0.2118600899420E+01
 0.2250999712587E+01
 0.2361163519402E+01
 0.2450671395916E+01
 0.2521060199770E+01
 0.2573614717157E+01
 0.2609769759073E+01
 0.2631014998812E+01
 0.2637978283501E+01
 0.2630190718294E+01
 0.2606067167469E+01
 0.2563322984859E+01
 0.2499933525914E+01
 0.2417465839404E+01
 0.7859837436302E+00
 0.1079872611660E+01
 0.1350078596707E+01
 0.1593937397936E+01
 0.1810567688239E+01
 0.2000358357156E+01
 0.2164525079930E+01
 0.2304691623049E+01
 0.2422596704348E+01
 0.2519966548666E+01
 0.2598454234834E+01
 0.2659493600849E+01
 0.2704553641961E+01
 0.2735012831009E+01
 0.2751441527885E+01
 0.2753400535586E+01
 0.2739520526935E+01
 0.2707937148522E+01
 0.2657062709317E+01
 0.2587598296995E+01
 0.7638794965707E+00
 0.1075847514297E+01
 0.1359769792641E+01
 0.1614480190366E+01
 0.1840235608579E+01
 0.2038182107586E+01
 0.2210013167014E+01
 0.2357661343497E+01
 0.2483083068553E+01
 0.2588167589273E+01
 0.2674695563877E+01
 0.2744235871524E+01
 0.2798297667363E+01
 0.2838193316619E+01
 0.2864484632613E+01
 0.2876830056789E+01
 0.2874094606525E+01
 0.2854718826832E+01
 0.2817259736805E+01
 0.2761548756956E+01
 0.7429307305728E+00
 0.1072649973995E+01
 0.1369997152998E+01
 0.1635252390301E+01
 0.1869799802447E+01
 0.2075555699505E+01
 0.2254716370955E+01
 0.2409547488802E+01
 0.2542240962224E+01
 0.2654861404180E+01
 0.2749325054114E+01
 0.2827327770690E+01
 0.2890429141542E+01
 0.2939918531903E+01
 0.2976391380927E+01
 0.2999632179964E+01
 0.3008718546312E+01
 0.3002296434535E+01
 0.2978920891611E+01
 0.2937638274603E+01
 0.7231985345431E+00
 0.1070186109227E+01
 0.1380556181695E+01
 0.1655978610562E+01
 0.1898945232766E+01
 0.2112143242952E+01
 0.2298284324605E+01
 0.2459982611770E+01
 0.2599677842872E+01
 0.2719618860132E+01
 0.2821863300085E+01
 0.2908230268321E+01
 0.2980341852991E+01
 0.3039499967382E+01
 0.3086361075337E+01
 0.3120841535220E+01
 0.3142197333561E+01
 0.3149209151796E+01
 0.3140361658631E+01
 0.3114026784279E+01
 0.7047423614263E+00
 0.1068365257112E+01
 0.1391251115214E+01
 0.1676394847815E+01
 0.1927367000143E+01
 0.2147615309399E+01
 0.2340368897540E+01
 0.2508597402033E+01
 0.2654995243212E+01
 0.2782000879778E+01
 0.2891817267606E+01
 0.2986385441183E+01
 0.3067401005660E+01
 0.3136204382022E+01
 0.3193528010875E+01
 0.3239413369989E+01
 0.3273259677822E+01
 0.3293929761839E+01
 0.3299803176888E+01
 0.3288680287778E+01
 0.6876197491464E+00
 0.1067100643339E+01
 0.1401894970519E+01
 0.1696248597499E+01
 0.1954771537822E+01
 0.2181651539001E+01
 0.2380627852189E+01
 0.2555025126604E+01
 0.2707794030959E+01
 0.2841564577217E+01
 0.2958686931685E+01
 0.3061223356461E+01
 0.3150951266212E+01
 0.3229266759660E+01
 0.3296984023178E+01
 0.3354256472521E+01
 0.3400592603262E+01
 0.3434893343312E+01
 0.3455404548599E+01
 0.3459439210738E+01
 0.6718857060446E+00
 0.1066309903272E+01
 0.1412310172049E+01
 0.1715299711456E+01
 0.1980878219064E+01
 0.2213943268171E+01
 0.2418728455774E+01
 0.2598906109081E+01
 0.2757679735219E+01
 0.2897869411294E+01
 0.3021972118759E+01
 0.3132169991998E+01
 0.3230327285110E+01
 0.3317905742772E+01
 0.3395800772612E+01
 0.3464261264671E+01
 0.3522872589507E+01
 0.3570533750360E+01
 0.3605329960275E+01
 0.3624149184746E+01
 0.6575920025629E+00
 0.1065915555362E+01
 0.1422329458691E+01
 0.1733321671178E+01
 0.2005421243501E+01
 0.2244196244653E+01
 0.2454351086733E+01
 0.2639892214525E+01
 0.2804267911178E+01
 0.2950483459928E+01
 0.3081179795678E+01
 0.3198656199685E+01
 0.3304865616123E+01
 0.3401339872835E+01
 0.3489050951638E+01
 0.3568325473925E+01
 0.3638795563379E+01
 0.3699322906420E+01
 0.3747808823402E+01
 0.3780756711088E+01
 0.6447864985803E+00
 0.1065845468297E+01
 0.1431796937881E+01
 0.1750103074563E+01
 0.2028151670124E+01
 0.2272133364499E+01
 0.2487192771783E+01
 0.2677651231064E+01
 0.2847189417488E+01
 0.2998989701001E+01
 0.3135831599355E+01
 0.3260127134855E+01
 0.3373916994149E+01
 0.3478803470763E+01
 0.3575828040077E+01
 0.3665377619334E+01
 0.3747104652115E+01
 0.3819804648515E+01
 0.3881177487493E+01
 0.3927365665927E+01
 0.6335125636481E+00
 0.1066033334858E+01
 0.1440569216028E+01
 0.1765449232334E+01
 0.2048839520810E+01
 0.2297497400072E+01
 0.2516970642426E+01
 0.2711871136618E+01
 0.2886095592077E+01
 0.3042992263706E+01
 0.3185471454644E+01
 0.3316051793554E+01
 0.3436858450876E+01
 0.3549561757774E+01
 0.3655264524019E+01
 0.3754398198793E+01
 0.3846614169416E+01
 0.3930620858693E+01
 0.4003906333149E+01
 0.4062266688618E+01
 0.6238086264910E+00
 0.1066419154781E+01
 0.1448516551105E+01
 0.1779183788187E+01
 0.2067275872464E+01
 0.2320053655229E+01
 0.2543425258445E+01
 0.2742264196217E+01
 0.2920663255513E+01
 0.3082122532222E+01
 0.3229673063859E+01
 0.3365932325399E+01
 0.3493104898344E+01
 0.3612924929358E+01
 0.3726548394571E+01
 0.3834438221020E+01
 0.3936229324883E+01
 0.4030530812763E+01
 0.4114616992775E+01
 0.4183950781919E+01
 0.6157078404927E+00
 0.1066949711655E+01
 0.1455523979294E+01
 0.1791150297153E+01
 0.2083274871393E+01
 0.2339592488773E+01
 0.2566323742857E+01
 0.2768570825664E+01
 0.2950599450794E+01
 0.3116044958800E+01
 0.3268047048165E+01
 0.3409312835946E+01
 0.3542119881798E+01
 0.3668260925423E+01
 0.3788937702889E+01
 0.3904634905964E+01
 0.4014961898848E+01
 0.4118425107917E+01
 0.4212092560723E+01
 0.4291112338045E+01
 0.6092378760686E+00
 0.1067579035995E+01
 0.1461492383442E+01
 0.1801213711549E+01
 0.2096675612425E+01
 0.2355931647289E+01
 0.2585462665506E+01
 0.2790563145077E+01
 0.2975645815125E+01
 0.3144462438298E+01
 0.3300247540830E+01
 0.3445787443278E+01
 0.3583425270366E+01
 0.3715006705015E+01
 0.3841773061552E+01
 0.3964224647071E+01
 0.4081942425179E+01
 0.4193335378687E+01
 0.4295282585647E+01
 0.4382644917940E+01
 0.6044208150795E+00
 0.1068268836536E+01
 0.1466339462541E+01
 0.1809261721080E+01
 0.2107343823991E+01
 0.2368918347060E+01
 0.2600670611442E+01
 0.2808048147792E+01
 0.2995582488878E+01
 0.3167121121514E+01
 0.3325978082164E+01
 0.3475007429393E+01
 0.3616609750346E+01
 0.3752677956273E+01
 0.3884488155723E+01
 0.4012553541928E+01
 0.4136429556971E+01
 0.4254440896468E+01
 0.4363304664451E+01
 0.4457633410534E+01
 0.6012731192549E+00
 0.1068988887079E+01
 0.1470000578373E+01
 0.1815205916336E+01
 0.2115173324684E+01
 0.2378431067183E+01
 0.2611810389729E+01
 0.2820870427570E+01
 0.3010231485159E+01
 0.3183814567184E+01
 0.3344996695314E+01
 0.3496687361486E+01
 0.3641336021807E+01
 0.3780877209762E+01
 0.3916618359694E+01
 0.4049085789554E+01
 0.4177817179250E+01
 0.4301072929433E+01
 0.4415443954518E+01
 0.4515344763288E+01
 0.5998056454861E+00
 0.1069717356064E+01
 0.1472429453857E+01
 0.1818982741971E+01
 0.2120087212090E+01
 0.2384381009586E+01
 0.2618780830991E+01
 0.2828914400988E+01
 0.3019459441349E+01
 0.3194387137406E+01
 0.3357120036019E+01
 0.3510610080250E+01
 0.3657346627300E+01
 0.3799300353771E+01
 0.3937807575523E+01
 0.4073410236639E+01
 0.4205639768350E+01
 0.4332717650274E+01
 0.4451151693988E+01
 0.4555219000418E+01
 0.6000236813784E+00
 0.1070441068573E+01
 0.1473598703851E+01
 0.1820554214831E+01
 0.2122038754991E+01
 0.2386713192517E+01
 0.2621518133833E+01
 0.2832105975699E+01
 0.3023179691517E+01
 0.3198736563673E+01
 0.3362226536694E+01
 0.3516630482240E+01
 0.3664468369444E+01
 0.3807741569415E+01
 0.3947813408389E+01
 0.4085245319231E+01
 0.4219576398562E+01
 0.4349018247231E+01
 0.4470043843023E+01
 0.4576861571388E+01
 0.6019269814761E+00
 0.1071155693296E+01
 0.1473500184461E+01
 0.1819908388837E+01
 0.2121011967240E+01
 0.2385407151768E+01
 0.2619996728823E+01
 0.2830413625841E+01
 0.3021353612109E+01
 0.3196815627474E+01
 0.3360258484218E+01
 0.3514678040934E+01
 0.3662615284362E+01
 0.3806096698436E+01
 0.3946510766055E+01
 0.4084442586149E+01
 0.4219453707722E+01
 0.4349776645618E+01
 0.4471900810995E+01
 0.4580039142181E+01
 0.6055097938217E+00
 0.1071865849897E+01
 0.1472145152336E+01
 0.1817059555469E+01
 0.2117021849602E+01
 0.2380477232770E+01
 0.2614229639019E+01
 0.2823848848267E+01
 0.3013991208555E+01
 0.3188632917160E+01
 0.3351222989149E+01
 0.3504758025297E+01
 0.3651790140680E+01
 0.3794365040405E+01
 0.3933893927505E+01
 0.4070988924695E+01
 0.4205248025233E+01
 0.4334955125095E+01
 0.4456667969600E+01
 0.4564678784686E+01
 0.6107608773122E+00
 0.1072585135483E+01
 0.1469564231655E+01
 0.1812048176790E+01
 0.2110114295306E+01
 0.2371972467320E+01
 0.2604268328205E+01
 0.2812465987897E+01
 0.3001150927937E+01
 0.3174252642752E+01
 0.3335191824066E+01
 0.3486951388961E+01
 0.3632084434265E+01
 0.3772649553811E+01
 0.3910077075588E+01
 0.4045007526603E+01
 0.4177086779180E+01
 0.4304677997406E+01
 0.4424457183560E+01
 0.4530869174507E+01
 0.6176635222090E+00
 0.1073336072120E+01
 0.1465807192499E+01
 0.1804940555557E+01
 0.2100365663597E+01
 0.2359976038112E+01
 0.2590202038716E+01
 0.2796361433280E+01
 0.2982938698535E+01
 0.3153793508455E+01
 0.3312300126861E+01
 0.3461413315294E+01
 0.3603676845413E+01
 0.3741155405907E+01
 0.3875293223719E+01
 0.4006757533993E+01
 0.4135249168417E+01
 0.4259233476764E+01
 0.4375550023491E+01
 0.4478865963866E+01
 0.6261955940136E+00
 0.1074149980432E+01
 0.1460942550954E+01
 0.1795828256215E+01
 0.2087882036410E+01
 0.2344604345943E+01
 0.2572156633586E+01
 0.2775672198510E+01
 0.2959506215307E+01
 0.3127426664399E+01
 0.3282743988219E+01
 0.3428370422495E+01
 0.3566830129129E+01
 0.3700186791563E+01
 0.3829891400501E+01
 0.3956632192035E+01
 0.4080165941195E+01
 0.4199075681642E+01
 0.4310402645276E+01
 0.4409101322651E+01
 0.6363296284646E+00
 0.1075066785440E+01
 0.1455057002916E+01
 0.1784827292908E+01
 0.2072798175404E+01
 0.2326005696302E+01
 0.2550292959815E+01
 0.2750573911507E+01
 0.2931048498251E+01
 0.3095372772711E+01
 0.3246776961513E+01
 0.3388116652291E+01
 0.3521886418495E+01
 0.3650141925169E+01
 0.3774331893642E+01
 0.3895155210349E+01
 0.4012417946398E+01
 0.4124826452764E+01
 0.4229651985406E+01
 0.4322197075078E+01
 0.6480330120470E+00
 0.1076134766345E+01
 0.1448254719383E+01
 0.1772077120829E+01
 0.2055276218350E+01
 0.2304358642500E+01
 0.2524804768131E+01
 0.2721278246288E+01
 0.2897800769323E+01
 0.3057898245443E+01
 0.3204705560828E+01
 0.3341007893332E+01
 0.3469260937329E+01
 0.3591506097826E+01
 0.3709179285077E+01
 0.3822974866134E+01
 0.3932732821417E+01
 0.4037276316116E+01
 0.4134122474715E+01
 0.4218979975527E+01
 0.6612682501859E+00
 0.1077410252858E+01
 0.1440656524492E+01
 0.1757739467996E+01
 0.2035504157309E+01
 0.2279870026930E+01
 0.2495916230110E+01
 0.2688029845472E+01
 0.2860034708968E+01
 0.3015310740054E+01
 0.3156883860419E+01
 0.3287455456970E+01
 0.3409434192448E+01
 0.3524842760298E+01
 0.3635093052398E+01
 0.3740855332041E+01
 0.3841978943390E+01
 0.3937383503553E+01
 0.4024832366204E+01
 0.4100498049643E+01
 0.6759933529279E+00
 0.1078957280089E+01
 0.1432398998248E+01
 0.1741997066383E+01
 0.2013694159253E+01
 0.2252772773640E+01
 0.2463879100227E+01
 0.2651102783265E+01
 0.2818054157333E+01
 0.2967954009243E+01
 0.3103707341306E+01
 0.3227918583162E+01
 0.3342942790667E+01
 0.3450782654263E+01
 0.3552815561789E+01
 0.3649664739153E+01
 0.3741155535060E+01
 0.3826269198927E+01
 0.3902997586724E+01
 0.3968035207404E+01
 0.6921623207925E+00
 0.1080847196559E+01
 0.1423633550070E+01
 0.1725052359535E+01
 0.1990080804382E+01
 0.2223323491633E+01
 0.2428969571322E+01
 0.2610796617172E+01
 0.2772190317123E+01
 0.2916202191321E+01
 0.3045606139020E+01
 0.3162896208179E+01
 0.3270369113837E+01
 0.3370011083650E+01
 0.3463157273845E+01
 0.3550359561194E+01
 0.3631377971105E+01
 0.3705206255042E+01
 0.3770028301502E+01
 0.3823116253235E+01
 0.7097256897606E+00
 0.1083158210733E+01
 0.1414525528818E+01
 0.1707126287331E+01
 0.1964919320163E+01
 0.2191799926745E+01
 0.2391484844158E+01
 0.2567432049617E+01
 0.2722796478568E+01
 0.2860453568871E+01
 0.2983037797906E+01
 0.3092918248037E+01
 0.3192330222861E+01
 0.3283253564292E+01
 0.3366978985977E+01
 0.3443964742940E+01
 0.3513858015247E+01
 0.3575599789705E+01
 0.3627509388104E+01
 0.3667487195931E+01
 0.7286310223197E+00
 0.1085974832737E+01
 0.1405253494605E+01
 0.1688457342813E+01
 0.1938483943525E+01
 0.2158498333557E+01
 0.2351739482815E+01
 0.2521346314947E+01
 0.2670242398168E+01
 0.2801123912793E+01
 0.2916479704947E+01
 0.3018536842229E+01
 0.3109466809249E+01
 0.3191260811541E+01
 0.3265171404966E+01
 0.3331548984679E+01
 0.3389878545811E+01
 0.3438963240933E+01
 0.3477163514585E+01
 0.3503050322823E+01
 0.7488231221911E+00
 0.1089387113794E+01
 0.1396008940828E+01
 0.1669301224396E+01
 0.1911066551593E+01
 0.2123730723737E+01
 0.2310061545740E+01
 0.2472888354012E+01
 0.2614908394425E+01
 0.2738639362917E+01
 0.2846421030567E+01
 0.2940317514928E+01
 0.3022432967357E+01
 0.3094794440614E+01
 0.3158632926346E+01
 0.3214193365164E+01
 0.3260759879858E+01
 0.3296891498308E+01
 0.3320828338972E+01
 0.3331828444829E+01
 0.7702433323521E+00
 0.1093489562100E+01
 0.1386997013809E+01
 0.1649931783813E+01
 0.1882975557162E+01
 0.2087821800998E+01
 0.2266788424789E+01
 0.2422414017184E+01
 0.2557179411369E+01
 0.2673428947459E+01
 0.2773354098193E+01
 0.2858829896589E+01
 0.2931887156234E+01
 0.2994616941727E+01
 0.3048248926046E+01
 0.3092953470252E+01
 0.3127810279606E+01
 0.3151026604503E+01
 0.3160456416844E+01
 0.3155995929663E+01
 0.7928266828444E+00
 0.1098379004775E+01
 0.1378440589483E+01
 0.1630644224594E+01
 0.1854535042401E+01
 0.2051104628811E+01
 0.2222262415642E+01
 0.2370281629134E+01
 0.2497439397060E+01
 0.2605916700826E+01
 0.2697764812541E+01
 0.2774637308214E+01
 0.2838482102469E+01
 0.2891487029562E+01
 0.2934886082584E+01
 0.2968814855840E+01
 0.2992251022574E+01
 0.3002990809926E+01
 0.2998114986330E+01
 0.2977882142737E+01
 0.8164912617343E+00
 0.1104154872484E+01
 0.1370590657611E+01
 0.1611765317437E+01
 0.1826080497709E+01
 0.2013913902480E+01
 0.2176826134765E+01
 0.2316849009540E+01
 0.2436066382200E+01
 0.2536513821795E+01
 0.2620121921725E+01
 0.2688284598748E+01
 0.2742853091831E+01
 0.2786150818106E+01
 0.2819411215531E+01
 0.2842703689640E+01
 0.2855059587724E+01
 0.2854254804809E+01
 0.2835967750167E+01
 0.2800073701571E+01
 0.8411121345409E+00
 0.1110902365131E+01
 0.1363787793057E+01
 0.1593658256359E+01
 0.1797944423503E+01
 0.1976578736898E+01
 0.2130817904523E+01
 0.2262471097803E+01
 0.2373433914477E+01
 0.2465607865130E+01
 0.2540865090432E+01
 0.2600286413179E+01
 0.2645601129210E+01
 0.2679330732642E+01
 0.2702682452307E+01
 0.2715615915021E+01
 0.2717016892596E+01
 0.2705399971144E+01
 0.2676352922553E+01
 0.2625915121153E+01
 0.8662783175212E+00
 0.1118986302288E+01
 0.1358553669435E+01
 0.1576682953839E+01
 0.1770435215261E+01
 0.1939416539732E+01
 0.2084572358814E+01
 0.2207490570474E+01
 0.2309913854115E+01
 0.2393584519807E+01
 0.2460346396934E+01
 0.2511122187344E+01
 0.2547313927509E+01
 0.2571653126714E+01
 0.2585548834252E+01
 0.2588589582961E+01
 0.2579366515736E+01
 0.2556139141396E+01
 0.2518073960201E+01
 0.2464304258861E+01
 0.2293937210966E+01
 0.8747132299798E+00
 0.1742201314662E+00
 0.1368612314002E-01
 0.1234380087111E+00
 0.1972272760639E+00
 0.2521964540648E+00
 0.2934410524979E+00
 0.3217431113377E+00
 0.3366584664432E+00
 0.3359414819942E+00
 0.3158558611417E+00
 0.2735801053105E+00
 0.2142540844757E+00
 0.1432191569713E+00
 0.6622892233339E-01
 0.1700690107991E-01
 0.8690784146785E-01
 0.1616360312606E+00
 0.2548412819049E+00
 0.2371285208428E+01
 0.1674483541251E+01
 0.6575219053723E+00
 0.2501036363133E+00
 0.6098301458192E-01
 0.5471867829572E-01
 0.1324339560414E+00
 0.1883963703673E+00
 0.2284070639365E+00
 0.2540074166232E+00
 0.2646604873822E+00
 0.2616495838908E+00
 0.2404569724281E+00
 0.1984145806709E+00
 0.1402260391267E+00
 0.7305031839741E-01
 0.1029098422775E-01
 0.6474278529471E-01
 0.1328911571971E+00
 0.2023995631689E+00
 0.2192729224252E+01
 0.1913355110997E+01
 0.1121895452887E+01
 0.5714497757559E+00
 0.2842861990206E+00
 0.1173274705240E+00
 0.8925355634084E-02
 0.6738439698645E-01
 0.1222022364379E+00
 0.1609549961740E+00
 0.1854170408938E+00
 0.1979244010348E+00
 0.1938508124052E+00
 0.1675889130124E+00
 0.1231201895338E+00
 0.6763723405632E-01
 0.1069045780979E-01
 0.5032747838950E-01
 0.1060000002087E+00
 0.1545178791467E+00
 0.2012743467224E+01
 0.1952341757301E+01
 0.1402588275224E+01
 0.8820474987392E+00
 0.5307967188627E+00
 0.3121007806948E+00
 0.1689162478233E+00
 0.6949704916845E-01
 0.2836027993592E-02
 0.5659264254758E-01
 0.9554265465170E-01
 0.1229864652337E+00
 0.1346356984038E+00
 0.1234095628263E+00
 0.9276029242034E-01
 0.4998999128873E-01
 0.3986864428442E-02
 0.4405203236045E-01
 0.8595792209408E-01
 0.1168330918087E+00
 0.1854240773063E+01
 0.1911172415927E+01
 0.1554394392797E+01
 0.1120961836656E+01
 0.7673504473135E+00
 0.5164813618540E+00
 0.3429746425966E+00
 0.2199274266479E+00
 0.1290607459266E+00
 0.5952730104727E-01
 0.6450139117023E-02
 0.3620449111766E-01
 0.6278519716659E-01
 0.6624810419952E-01
 0.4947152462650E-01
 0.1997784239763E-01
 0.1454647895089E-01
 0.4837538342400E-01
 0.7658483671382E-01
 0.9272666120370E-01
 0.1720037382389E+01
 0.1837860379659E+01
 0.1624560915397E+01
 0.1289097419096E+01
 0.9690418909203E+00
 0.7133691531463E+00
 0.5216778888150E+00
 0.3794108908025E+00
 0.2714126834631E+00
 0.1865980928845E+00
 0.1187766437286E+00
 0.6310926675924E-01
 0.2250113775178E-01
 0.6178332729217E-02
 0.8330567215945E-02
 0.2350206247041E-01
 0.4478924434760E-01
 0.6563784215730E-01
 0.8093242048093E-01
 0.8497636405793E-01
 0.1607254822583E+01
 0.1754246709833E+01
 0.1644813357994E+01
 0.1400262035475E+01
 0.1130275941789E+01
 0.8904602493153E+00
 0.6954308640465E+00
 0.5420093413694E+00
 0.4209044366970E+00
 0.3229734160459E+00
 0.2423145774218E+00
 0.1738950815983E+00
 0.1196779412431E+00
 0.8810628513352E-01
 0.7765531476997E-01
 0.8051650984033E-01
 0.8924116892480E-01
 0.9774370419730E-01
 0.1013389844454E+00
 0.9560240863023E-01
 0.1512192359291E+01
 0.1670704121424E+01
 0.1635517993827E+01
 0.1469206820720E+01
 0.1254125902675E+01
 0.1042914639295E+01
 0.8572313284777E+00
 0.7019368227038E+00
 0.5735922702268E+00
 0.4661981773193E+00
 0.3751344715226E+00
 0.2958052450148E+00
 0.2296507796052E+00
 0.1852630095563E+00
 0.1621000158104E+00
 0.1525087926038E+00
 0.1492728066162E+00
 0.1463306426906E+00
 0.1394925030378E+00
 0.1257479171784E+00
 0.1431400269527E+01
 0.1592110321172E+01
 0.1609687213078E+01
 0.1508308792152E+01
 0.1346814715602E+01
 0.1170713395800E+01
 0.1003548278065E+01
 0.8548400961151E+00
 0.7257506523512E+00
 0.6135363659149E+00
 0.5153897412541E+00
 0.4276609773271E+00
 0.3515786026122E+00
 0.2958918018831E+00
 0.2611834392521E+00
 0.2401735910637E+00
 0.2259874281483E+00
 0.2126680223594E+00
 0.1965323263977E+00
 0.1758955555649E+00
 0.1361952158488E+01
 0.1520547543749E+01
 0.1575628540750E+01
 0.1527166088328E+01
 0.1415047283456E+01
 0.1276363745582E+01
 0.1133549427624E+01
 0.9981779735707E+00
 0.8744671439664E+00
 0.7624139816714E+00
 0.6610799358303E+00
 0.5680407759360E+00
 0.4845763897401E+00
 0.4196090539903E+00
 0.3749601283204E+00
 0.3439237144409E+00
 0.3200410514955E+00
 0.2974836532508E+00
 0.2729819235866E+00
 0.2459184959080E+00
 0.1301450262368E+01
 0.1456631919891E+01
 0.1538611767712E+01
 0.1532951859695E+01
 0.1464928029568E+01
 0.1363389465382E+01
 0.1248115732756E+01
 0.1130963477414E+01
 0.1017834306251E+01
 0.9107148271790E+00
 0.8102808570299E+00
 0.7153800310375E+00
 0.6275023497527E+00
 0.5557128111101E+00
 0.5031037575231E+00
 0.4637051144320E+00
 0.4315295748084E+00
 0.4008696567159E+00
 0.3686949804543E+00
 0.3350613370616E+00
 0.1247960590522E+01
 0.1400205382229E+01
 0.1501915693772E+01
 0.1530903838065E+01
 0.1501601199147E+01
 0.1435482035415E+01
 0.1349035528101E+01
 0.1253314747357E+01
 0.1154853748817E+01
 0.1056882642038E+01
 0.9612932696066E+00
 0.8680832363202E+00
 0.7789996719720E+00
 0.7031505536992E+00
 0.6448273796535E+00
 0.5989062707798E+00
 0.5599148111227E+00
 0.5222491999228E+00
 0.4828862019035E+00
 0.4420349574649E+00
 0.1199936098162E+01
 0.1350711101876E+01
 0.1467494789716E+01
 0.1524763773335E+01
 0.1529206375914E+01
 0.1496065776933E+01
 0.1438451031772E+01
 0.1366022182021E+01
 0.1285217451260E+01
 0.1199881039510E+01
 0.1112697489753E+01
 0.1024599722320E+01
 0.9375498454516E+00
 0.8605319040973E+00
 0.7988589671138E+00
 0.7483134983502E+00
 0.7039855785233E+00
 0.6603764368979E+00
 0.6142068225445E+00
 0.5651723466681E+00
 0.1156146353510E+01
 0.1307403175694E+01
 0.1436412208959E+01
 0.1517129752367E+01
 0.1550957778143E+01
 0.1548101440961E+01
 0.1518511809572E+01
 0.1470206217521E+01
 0.1409069645231E+01
 0.1339081702808E+01
 0.1263338170076E+01
 0.1183459937360E+01
 0.1101523748180E+01
 0.1026170283874E+01
 0.9634639093045E+00
 0.9101132065082E+00
 0.8618495237801E+00
 0.8133452436130E+00
 0.7608206245947E+00
 0.7025917921795E+00
 0.1115617948352E+01
 0.1269465697577E+01
 0.1409127111024E+01
 0.1509727660111E+01
 0.1569262661774E+01
 0.1594019021381E+01
 0.1591173762598E+01
 0.1567073069914E+01
 0.1526798650828E+01
 0.1474132235377E+01
 0.1412270775346E+01
 0.1343282457989E+01
 0.1269229716021E+01
 0.1198154836943E+01
 0.1136523971803E+01
 0.1081955159133E+01
 0.1030957945777E+01
 0.9785833079171E+00
 0.9204344348114E+00
 0.8523404370896E+00
 0.1077585239910E+01
 0.1236080149774E+01
 0.1385689422499E+01
 0.1503618680434E+01
 0.1585844140431E+01
 0.1635718131212E+01
 0.1658093288144E+01
 0.1657752654245E+01
 0.1638874472222E+01
 0.1604832769752E+01
 0.1558693919554E+01
 0.1502762083879E+01
 0.1438955712568E+01
 0.1374451411286E+01
 0.1315690878170E+01
 0.1261113190571E+01
 0.1208198684264E+01
 0.1152819075467E+01
 0.1090227201543E+01
 0.1012484916233E+01
 0.1041449286466E+01
 0.1206461838161E+01
 0.1365874040686E+01
 0.1499359088530E+01
 0.1601856349048E+01
 0.1674603090604E+01
 0.1720581674035E+01
 0.1743198590742E+01
 0.1745731869928E+01
 0.1731034939936E+01
 0.1701883453811E+01
 0.1660644624703E+01
 0.1608993349410E+01
 0.1553001122859E+01
 0.1498612792348E+01
 0.1444820008339E+01
 0.1390156144916E+01
 0.1332083900373E+01
 0.1266582923585E+01
 0.1181093613438E+01
 0.1006743176710E+01
 0.1179876273634E+01
 0.1349274275764E+01
 0.1497125539194E+01
 0.1617990669613E+01
 0.1711636954438E+01
 0.1779597347431E+01
 0.1824131175089E+01
 0.1847691809640E+01
 0.1852567379680E+01
 0.1841139991184E+01
 0.1815695901331E+01
 0.1777623190751E+01
 0.1731752708970E+01
 0.1683088628543E+01
 0.1630790252105E+01
 0.1573887772209E+01
 0.1511921651358E+01
 0.1444618723942E+01
 0.1355861717207E+01
 0.9731016265166E+00
 0.1155644275863E+01
 0.1335361276715E+01
 0.1496817866436E+01
 0.1634580003538E+01
 0.1747408093444E+01
 0.1835762188056E+01
 0.1901008498983E+01
 0.1944904970491E+01
 0.1969189609605E+01
 0.1975763307227E+01
 0.1966685882449E+01
 0.1943077205225E+01
 0.1908561024675E+01
 0.1866953141626E+01
 0.1817240410064E+01
 0.1758328700567E+01
 0.1689570142764E+01
 0.1617022052326E+01
 0.1533038612943E+01
 0.9402682480535E+00
 0.1133093439275E+01
 0.1323499939602E+01
 0.1498171698327E+01
 0.1651717926694E+01
 0.1782202630841E+01
 0.1889388065899E+01
 0.1974021373188E+01
 0.2037304862200E+01
 0.2080521884694E+01
 0.2105098742980E+01
 0.2112454731734E+01
 0.2103516047980E+01
 0.2081090824061E+01
 0.2047649989148E+01
 0.2002069236524E+01
 0.1942816668013E+01
 0.1868380253674E+01
 0.1781372120289E+01
 0.1699972342133E+01
 0.8951793246944E+00
 0.1134666070512E+01
 0.1361863982011E+01
 0.1567108588294E+01
 0.1747661645007E+01
 0.1903296713324E+01
 0.2034955982140E+01
 0.2144272777365E+01
 0.2233126123422E+01
 0.2303300508871E+01
 0.2356620349286E+01
 0.2394821150206E+01
 0.2418937744765E+01
 0.2432117026209E+01
 0.2437156687771E+01
 0.2432940660543E+01
 0.2417890594675E+01
 0.2390386779768E+01
 0.2352913631160E+01
 0.2324862047170E+01
 0.9274666536036E+00
 0.1155938467100E+01
 0.1371656791914E+01
 0.1563183590006E+01
 0.1727819277280E+01
 0.1865998338971E+01
 0.1979245850374E+01
 0.2069691373760E+01
 0.2139654665961E+01
 0.2191256647418E+01
 0.2226691120507E+01
 0.2248246968950E+01
 0.2257002945834E+01
 0.2257029680471E+01
 0.2252677425911E+01
 0.2242941307882E+01
 0.2226738869412E+01
 0.2203549320524E+01
 0.2179695355447E+01
 0.2148384620007E+01
 0.9604261482710E+00
 0.1178308382462E+01
 0.1382508877060E+01
 0.1559566783072E+01
 0.1706868683784E+01
 0.1825774642302E+01
 0.1918741110148E+01
 0.1988642084754E+01
 0.2038351126293E+01
 0.2070407321476E+01
 0.2087374412446E+01
 0.2091676278845E+01
 0.2084596422655E+01
 0.2071589452274E+01
 0.2058445118087E+01
 0.2044397301817E+01
 0.2028602204819E+01
 0.2010864445014E+01
 0.1991421178827E+01
 0.1955053111660E+01
 0.9943398414012E+00
 0.1202374561129E+01
 0.1394983851978E+01
 0.1556504309943E+01
 0.1684759465468E+01
 0.1782452014742E+01
 0.1853303455756E+01
 0.1901157199850E+01
 0.1929549233466E+01
 0.1941440774194E+01
 0.1939680135874E+01
 0.1926690413616E+01
 0.1904012250768E+01
 0.1878573690048E+01
 0.1857414585394E+01
 0.1839711678184E+01
 0.1824238363579E+01
 0.1808824233294E+01
 0.1790128166546E+01
 0.1756508053897E+01
 0.1029532694911E+01
 0.1228773628968E+01
 0.1409575632003E+01
 0.1554120034089E+01
 0.1661259356773E+01
 0.1735617610081E+01
 0.1782553553568E+01
 0.1807079032343E+01
 0.1813451214562E+01
 0.1805004537118E+01
 0.1784776816353E+01
 0.1755048109784E+01
 0.1717604659452E+01
 0.1680747085977E+01
 0.1652346085607E+01
 0.1631164551683E+01
 0.1615041613188E+01
 0.1600293823907E+01
 0.1583007311793E+01
 0.1556407557603E+01
 0.1066413288847E+01
 0.1258179956127E+01
 0.1426678882995E+01
 0.1552304097218E+01
 0.1635833040427E+01
 0.1684546363840E+01
 0.1705840378114E+01
 0.1706053934988E+01
 0.1690158249214E+01
 0.1661751745340E+01
 0.1623912863309E+01
 0.1578610023198E+01
 0.1527805732135E+01
 0.1480944996702E+01
 0.1446244486164E+01
 0.1421798472179E+01
 0.1404597167442E+01
 0.1390212651591E+01
 0.1375286863821E+01
 0.1357270071021E+01
 0.1105506184320E+01
 0.1291309182286E+01
 0.1446523652620E+01
 0.1550610471854E+01
 0.1607539357536E+01
 0.1628132320159E+01
 0.1622217905233E+01
 0.1597548119782E+01
 0.1559707576247E+01
 0.1512362500169E+01
 0.1458418497223E+01
 0.1399331543002E+01
 0.1337140806987E+01
 0.1282157836635E+01
 0.1242472160432E+01
 0.1215414864617E+01
 0.1197316425740E+01
 0.1183457147450E+01
 0.1171353219607E+01
 0.1161553707028E+01
 0.1147486898892E+01
 0.1328904458265E+01
 0.1469088072233E+01
 0.1548136728256E+01
 0.1574928212437E+01
 0.1564832605845E+01
 0.1530444077908E+01
 0.1480889055990E+01
 0.1422129435780E+01
 0.1357592975446E+01
 0.1289730246794E+01
 0.1219263457577E+01
 0.1148209542004E+01
 0.1087463234312E+01
 0.1044560761662E+01
 0.1016023618748E+01
 0.9976390613735E+00
 0.9846024886330E+00
 0.9752087080415E+00
 0.9720720034738E+00
 0.1193220571672E+01
 0.1371703793474E+01
 0.1493974080376E+01
 0.1543374806073E+01
 0.1535930923418E+01
 0.1492630020917E+01
 0.1429015428481E+01
 0.1355346865727E+01
 0.1277539859295E+01
 0.1198348435755E+01
 0.1119425429898E+01
 0.1040540640872E+01
 0.9636176144122E+00
 0.8998732476677E+00
 0.8559214296922E+00
 0.8274397097633E+00
 0.8097048064336E+00
 0.7978659984377E+00
 0.7907211899324E+00
 0.7920629507523E+00
 0.1243807427523E+01
 0.1420377949350E+01
 0.1520227793615E+01
 0.1534018974000E+01
 0.1487745064180E+01
 0.1409028931077E+01
 0.1316258275455E+01
 0.1220273798210E+01
 0.1126275857638E+01
 0.1035776697639E+01
 0.9492565829102E+00
 0.8653541540793E+00
 0.7858834847566E+00
 0.7221663577605E+00
 0.6796063489137E+00
 0.6530236941660E+00
 0.6371597501341E+00
 0.6270573664526E+00
 0.6216594474225E+00
 0.6251376418156E+00
 0.1300637213461E+01
 0.1475420162766E+01
 0.1546074650039E+01
 0.1516715710704E+01
 0.1426724667973E+01
 0.1311114813899E+01
 0.1190508828318E+01
 0.1075320359207E+01
 0.9690734807435E+00
 0.8713701466385E+00
 0.7811730326299E+00
 0.6959054981998E+00
 0.6173386304695E+00
 0.5567442923041E+00
 0.5181344026904E+00
 0.4955009141595E+00
 0.4830033934499E+00
 0.4754683021258E+00
 0.4715911864285E+00
 0.4751461625312E+00
 0.1365453066531E+01
 0.1536951819166E+01
 0.1568520311365E+01
 0.1486739914026E+01
 0.1348307942365E+01
 0.1195734477836E+01
 0.1050428671258E+01
 0.9207426171643E+00
 0.8072743508688E+00
 0.7070503775633E+00
 0.6173095752529E+00
 0.5343378350206E+00
 0.4600310540079E+00
 0.4055245300498E+00
 0.3733751021475E+00
 0.3568352188269E+00
 0.3494485326008E+00
 0.3457102842828E+00
 0.3436834521059E+00
 0.3459721602516E+00
 0.1440420820467E+01
 0.1604374661031E+01
 0.1582736178359E+01
 0.1437591996137E+01
 0.1247061082486E+01
 0.1059897953073E+01
 0.8955120853402E+00
 0.7577935070692E+00
 0.6430149823358E+00
 0.5451887528620E+00
 0.4599151947073E+00
 0.3826385211238E+00
 0.3156386266408E+00
 0.2698756290806E+00
 0.2464937483597E+00
 0.2381587288988E+00
 0.2378051737412E+00
 0.2395271207930E+00
 0.2404371197113E+00
 0.2412495237597E+00
 0.1528186427310E+01
 0.1675729958902E+01
 0.1581094285007E+01
 0.1360550711045E+01
 0.1117015772118E+01
 0.9015641761893E+00
 0.7268263190994E+00
 0.5891283933762E+00
 0.4793030829473E+00
 0.3884982750312E+00
 0.3112006314554E+00
 0.2425173348999E+00
 0.1854052685613E+00
 0.1506083367874E+00
 0.1379698547629E+00
 0.1397737935270E+00
 0.1484155046819E+00
 0.1576207616558E+00
 0.1633887484605E+00
 0.1639970409122E+00
 0.1631867156326E+01
 0.1746467169635E+01
 0.1551629628778E+01
 0.1244355150177E+01
 0.9526783705550E+00
 0.7210380748530E+00
 0.5479155508445E+00
 0.4190316141012E+00
 0.3198279031360E+00
 0.2397496687459E+00
 0.1731152559473E+00
 0.1152880768426E+00
 0.7014280516404E-01
 0.4808818438564E-01
 0.4773800845794E-01
 0.6125166886533E-01
 0.8067392649999E-01
 0.9954504842642E-01
 0.1128423679887E+00
 0.1162128255697E+00
 0.1754793052981E+01
 0.1806942331520E+01
 0.1475596131498E+01
 0.1075595830622E+01
 0.7515107698933E+00
 0.5230910259162E+00
 0.3655015914572E+00
 0.2530496380684E+00
 0.1683992263854E+00
 0.1013514560482E+00
 0.4712894528612E-01
 0.3671522547914E-02
 0.3031158438333E-01
 0.3842667160884E-01
 0.2534171355217E-01
 0.2701907208813E-02
 0.3317020204791E-01
 0.6375279413502E-01
 0.8773476039951E-01
 0.9855616189856E-01
 0.1899501696841E+01
 0.1836877815613E+01
 0.1323771979834E+01
 0.8418201294963E+00
 0.5190534539955E+00
 0.3193921154645E+00
 0.1886407289229E+00
 0.9678881202768E-01
 0.2816928512454E-01
 0.2511508346767E-01
 0.6618673435576E-01
 0.9803791006468E-01
 0.1150139114181E+00
 0.1082239996668E+00
 0.8084935993134E-01
 0.4059039692136E-01
 0.4480442696999E-02
 0.4785442762008E-01
 0.8556472548252E-01
 0.1099454184069E+00
 0.2063190163825E+01
 0.1791708238513E+01
 0.1052641375775E+01
 0.5426802839271E+00
 0.2787959984151E+00
 0.1259581849493E+00
 0.2589296218116E-01
 0.4556138796392E-01
 0.9898063985415E-01
 0.1389426669954E+00
 0.1666406211016E+00
 0.1840180678406E+00
 0.1849774297882E+00
 0.1623437721257E+00
 0.1201615129373E+00
 0.6608323028700E-01
 0.1028198567368E-01
 0.4871855178124E-01
 0.1021450826415E+00
 0.1468855134075E+00
 0.2224301063649E+01
 0.1560208942631E+01
 0.6119333875722E+00
 0.2355483986888E+00
 0.6166720454801E-01
 0.4502807570492E-01
 0.1177995638308E+00
 0.1718850605958E+00
 0.2125144759950E+00
 0.2407107437017E+00
 0.2553559139143E+00
 0.2572875491539E+00
 0.2403831533697E+00
 0.2007071303811E+00
 0.1433251111447E+00
 0.7583556742424E-01
 0.1147313453150E-01
 0.6262873826412E-01
 0.1315673703606E+00
 0.2036057904553E+00
 0.2144912431289E+01
 0.8065190452818E+00
 0.1569604030600E+00
 0.1562643908973E-01
 0.1178874596139E+00
 0.1873061037835E+00
 0.2405094809211E+00
 0.2822119886307E+00
 0.3128218060643E+00
 0.3314395974092E+00
 0.3351788000258E+00
 0.3197388860929E+00
 0.2806787725341E+00
 0.2221195220709E+00
 0.1500033265226E+00
 0.7048454417761E-01
 0.1667894018587E-01
 0.8852966374680E-01
 0.1663450648988E+00
 0.2705787917958E+00
 0.1687325816976E+01
 0.1516088164810E+01
 0.1352063400600E+01
 0.1192341896524E+01
 0.1035931208947E+01
 0.8843092232165E+00
 0.7396129642718E+00
 0.6042384556182E+00
 0.4806297860949E+00
 0.3711635081489E+00
 0.2780372837030E+00
 0.2031389466844E+00
 0.1478933050907E+00
 0.1131216040225E+00
 0.9897522994729E-01
 0.1048376105396E+00
 0.1290693034130E+00
 0.1691692677822E+00
 0.2223810224097E+00
 0.2888947465223E+00
 0.1831130201814E+01
 0.1674810325407E+01
 0.1505625712793E+01
 0.1335096953513E+01
 0.1166871383945E+01
 0.1002776284047E+01
 0.8447070452411E+00
 0.6948489327897E+00
 0.5556828902640E+00
 0.4298976209548E+00
 0.3202672831142E+00
 0.2294908624452E+00
 0.1599840969259E+00
 0.1136370812688E+00
 0.9164943557807E-01
 0.9447954216682E-01
 0.1213830215507E+00
 0.1701645204268E+00
 0.2382234813687E+00
 0.3234522608411E+00
 0.1980574533514E+01
 0.1829579884574E+01
 0.1665275186979E+01
 0.1493105653818E+01
 0.1318612087666E+01
 0.1145128179649E+01
 0.9752002137994E+00
 0.8113070762520E+00
 0.6561406557323E+00
 0.5126943033771E+00
 0.3842415392915E+00
 0.2742379437056E+00
 0.1861415895372E+00
 0.1231308890203E+00
 0.8777097456634E-01
 0.8195211466741E-01
 0.1065319987500E+00
 0.1600439509757E+00
 0.2390345929418E+00
 0.3386809787253E+00
 0.2140788309032E+01
 0.1992809838137E+01
 0.1832993958433E+01
 0.1663270560269E+01
 0.1487296822803E+01
 0.1308538255369E+01
 0.1129897173082E+01
 0.9541110980105E+00
 0.7840647505419E+00
 0.6229761790831E+00
 0.4744856306234E+00
 0.3426642727977E+00
 0.2319373693965E+00
 0.1468801482853E+00
 0.9180635912316E-01
 0.7036583266853E-01
 0.8579634859220E-01
 0.1388297502018E+00
 0.2260236677553E+00
 0.3410918187014E+00
 0.2310714421556E+01
 0.2166754814248E+01
 0.2011931666510E+01
 0.1846430209357E+01
 0.1672277465750E+01
 0.1492070090441E+01
 0.1308442650881E+01
 0.1124033713807E+01
 0.9416686183072E+00
 0.7645484862883E+00
 0.5964054076210E+00
 0.4416163589574E+00
 0.3052663046025E+00
 0.1931251006893E+00
 0.1114242584301E+00
 0.6618353962979E-01
 0.6311830174944E-01
 0.1078127331480E+00
 0.1995563364492E+00
 0.3316235343621E+00
 0.2488635822493E+01
 0.2350885456041E+01
 0.2202549947641E+01
 0.2043143873748E+01
 0.1873558430732E+01
 0.1695454698852E+01
 0.1510828326467E+01
 0.1321877539150E+01
 0.1131060821425E+01
 0.9412448529012E+00
 0.7558814751376E+00
 0.5791964114269E+00
 0.4163845368237E+00
 0.2737999834854E+00
 0.1590894715097E+00
 0.8101729925517E-01
 0.4827077592811E-01
 0.7156814717857E-01
 0.1596455949925E+00
 0.3088157502526E+00
 0.2672538277932E+01
 0.2543454178483E+01
 0.2403689268328E+01
 0.2252572113646E+01
 0.2090323971248E+01
 0.1917835421934E+01
 0.1736412039084E+01
 0.1547645601956E+01
 0.1353420275720E+01
 0.1156012153830E+01
 0.9582517994730E+00
 0.7637384549323E+00
 0.5771127921740E+00
 0.4044056906449E+00
 0.2534824740769E+00
 0.1345615750337E+00
 0.6031626615071E-01
 0.4455631107006E-01
 0.1101687269768E+00
 0.2696369427380E+00
 0.2860291676637E+01
 0.2742206278481E+01
 0.2613271201338E+01
 0.2472835339853E+01
 0.2320765177878E+01
 0.2157417816558E+01
 0.1983519911899E+01
 0.1800079858554E+01
 0.1608373430346E+01
 0.1410001913991E+01
 0.1207013531979E+01
 0.1002089046774E+01
 0.7988082972934E+00
 0.6020352533351E+00
 0.4184881713377E+00
 0.2576020089640E+00
 0.1327918378109E+00
 0.6258915962569E-01
 0.7547111073411E-01
 0.2181921170786E+00
 0.3049633709999E+01
 0.2944545966574E+01
 0.2828582090733E+01
 0.2701179747387E+01
 0.2562051939813E+01
 0.2411243184206E+01
 0.2249090396322E+01
 0.2076174712493E+01
 0.1893305399182E+01
 0.1701548520348E+01
 0.1502303336817E+01
 0.1297432469293E+01
 0.1089463834878E+01
 0.8819030896966E+00
 0.6797314325810E+00
 0.4902318446248E+00
 0.3244229335121E+00
 0.1996968738947E+00
 0.1459135024786E+00
 0.2267754239807E+00
 0.3238088348907E+01
 0.3147424270298E+01
 0.3046109970267E+01
 0.2933658101288E+01
 0.2809737519456E+01
 0.2674244399975E+01
 0.2527307497491E+01
 0.2369273467481E+01
 0.2200702778878E+01
 0.2022390894762E+01
 0.1835421436761E+01
 0.1641257867018E+01
 0.1441886290745E+01
 0.1240034694101E+01
 0.1039517228394E+01
 0.8457977427877E+00
 0.6669656488738E+00
 0.5155862568664E+00
 0.4127044496802E+00
 0.4004912504665E+00
 0.3423094761895E+01
 0.3347635463053E+01
 0.3261956045759E+01
 0.3165601776934E+01
 0.3058223025221E+01
 0.2939634821985E+01
 0.2809840023072E+01
 0.2669035231942E+01
 0.2517617803553E+01
 0.2356204917776E+01
 0.2185669995779E+01
 0.2007199060077E+01
 0.1822369223738E+01
 0.1633251827422E+01
 0.1442541545258E+01
 0.1253704359479E+01
 0.1071105671641E+01
 0.8999392206937E+00
 0.7453325519146E+00
 0.6045784427668E+00
 0.3602109819633E+01
 0.3542032734878E+01
 0.3472256747003E+01
 0.3392310437131E+01
 0.3301794250785E+01
 0.3200424152001E+01
 0.3088054803684E+01
 0.2964689056735E+01
 0.2830482193092E+01
 0.2685745922535E+01
 0.2530952408934E+01
 0.2366733698306E+01
 0.2193865707007E+01
 0.2013215298625E+01
 0.1825607225750E+01
 0.1631519054253E+01
 0.1430393410125E+01
 0.1219050523720E+01
 0.9876649290799E+00
 0.7090385033630E+00
 0.3772712622042E+01
 0.3727672642162E+01
 0.3673446856180E+01
 0.3609495865442E+01
 0.3535315961702E+01
 0.3450467444818E+01
 0.3354588870598E+01
 0.3247398571613E+01
 0.3128685708699E+01
 0.2998290640683E+01
 0.2856070109939E+01
 0.2701836864831E+01
 0.2535254718395E+01
 0.2355655810821E+01
 0.2161721307892E+01
 0.1950919249368E+01
 0.1718503454210E+01
 0.1455728871954E+01
 0.1146818803233E+01
 0.7674561401786E+00
 0.3932675930784E+01
 0.3901895379939E+01
 0.3862368451400E+01
 0.3813438611098E+01
 0.3754441438909E+01
 0.3684718861780E+01
 0.3603621240322E+01
 0.3510496438320E+01
 0.3404664824901E+01
 0.3285377020851E+01
 0.3151747567363E+01
 0.3002652601025E+01
 0.2836572503379E+01
 0.2651350301431E+01
 0.2443822463602E+01
 0.2209262010375E+01
 0.1940573451107E+01
 0.1627266327144E+01
 0.1254980882759E+01
 0.8087083638743E+00
 0.4080007282536E+01
 0.4062366543616E+01
 0.4036312713720E+01
 0.4001030696654E+01
 0.3955649125032E+01
 0.3899241939603E+01
 0.3830818747481E+01
 0.3749302296803E+01
 0.3653490826491E+01
 0.3542001398351E+01
 0.3413187859838E+01
 0.3265024042609E+01
 0.3094939482965E+01
 0.2899592333786E+01
 0.2674565284165E+01
 0.2413985680840E+01
 0.2110127656986E+01
 0.1753261218058E+01
 0.1332527767271E+01
 0.8410003251919E+00
 0.4212967447573E+01
 0.4207090502989E+01
 0.4193020659705E+01
 0.4169755858084E+01
 0.4136188881523E+01
 0.4091098314240E+01
 0.4033129667877E+01
 0.3960765090796E+01
 0.3872279615820E+01
 0.3765680992753E+01
 0.3638629093510E+01
 0.3488330154316E+01
 0.3311401634220E+01
 0.3103707123648E+01
 0.2860171944869E+01
 0.2574617943414E+01
 0.2239724311909E+01
 0.1847365565200E+01
 0.1390007013661E+01
 0.8669232997338E+00
 0.4330071346630E+01
 0.4334400266654E+01
 0.4330654163364E+01
 0.4317631621527E+01
 0.4293980779613E+01
 0.4258182095772E+01
 0.4208523520587E+01
 0.4143067088358E+01
 0.4059605852230E+01
 0.3955609940568E+01
 0.3828160656874E+01
 0.3673872547928E+01
 0.3488806193218E+01
 0.3268380888124E+01
 0.3007309439475E+01
 0.2699602896728E+01
 0.2338740773116E+01
 0.1918215056218E+01
 0.1433148119381E+01
 0.8874876845799E+00
 0.4430078436672E+01
 0.4442934170788E+01
 0.4447751649533E+01
 0.4443134486646E+01
 0.4427497284692E+01
 0.4399042570000E+01
 0.4355733036137E+01
 0.4295258948900E+01
 0.4215000836944E+01
 0.4111988038422E+01
 0.3982854569676E+01
 0.3823795560845E+01
 0.3630530864514E+01
 0.3398288422791E+01
 0.3121830226656E+01
 0.2795561042659E+01
 0.2413795475501E+01
 0.1971373767513E+01
 0.1465397195164E+01
 0.9033256635576E+00
 0.4511978020986E+01
 0.4531607086985E+01
 0.4543179064469E+01
 0.4545122890602E+01
 0.4535648687140E+01
 0.4512720616162E+01
 0.4474028343998E+01
 0.4416957655473E+01
 0.4338561349394E+01
 0.4235532413632E+01
 0.4104182659437E+01
 0.3940431757259E+01
 0.3739814308198E+01
 0.3497516692420E+01
 0.3208461849925E+01
 0.2867472088922E+01
 0.2469572536566E+01
 0.2010625428144E+01
 0.1489138218058E+01
 0.9150967835915E+00
 0.4574973302586E+01
 0.4599581222084E+01
 0.4616082375416E+01
 0.4622765776467E+01
 0.4617681257855E+01
 0.4598609345035E+01
 0.4563033140406E+01
 0.4508112781435E+01
 0.4430664302564E+01
 0.4327145840522E+01
 0.4193655280753E+01
 0.4025944796496E+01
 0.3819459392997E+01
 0.3569408788793E+01
 0.3270885779917E+01
 0.2919054037770E+01
 0.2509462310794E+01
 0.2038681283666E+01
 0.1506167397216E+01
 0.9235828036443E+00
 0.4618466727165E+01
 0.4646239012148E+01
 0.4665843827602E+01
 0.4675477695516E+01
 0.4673085814304E+01
 0.4656330628131E+01
 0.4622564513088E+01
 0.4568807154284E+01
 0.4491729920869E+01
 0.4387650687839E+01
 0.4252543588835E+01
 0.4082069132883E+01
 0.3871630989111E+01
 0.3616466787359E+01
 0.3311782857438E+01
 0.2952952234322E+01
 0.2535831333103E+01
 0.2057398669734E+01
 0.1517657324297E+01
 0.9292917789024E+00
 0.4642044308677E+01
 0.4671154445335E+01
 0.4692037925575E+01
 0.4702853487323E+01
 0.4701503753678E+01
 0.4685604584492E+01
 0.4652458237406E+01
 0.4599031717834E+01
 0.4521942846495E+01
 0.4417457682177E+01
 0.4281503895023E+01
 0.4109705493555E+01
 0.3897444940297E+01
 0.3639959418534E+01
 0.3332480312257E+01
 0.2970434394968E+01
 0.2549762150472E+01
 0.2067559444345E+01
 0.1523997681037E+01
 0.9321090373742E+00
 0.4645463840856E+01
 0.4674073209750E+01
 0.4694403668899E+01
 0.4704630568998E+01
 0.4702677384461E+01
 0.4686186252713E+01
 0.4652490956279E+01
 0.4598593930006E+01
 0.4521149801270E+01
 0.4416458974274E+01
 0.4280475783695E+01
 0.4108836749053E+01
 0.3896915479152E+01
 0.3639912051960E+01
 0.3332987515065E+01
 0.2971463623707E+01
 0.2551143667497E+01
 0.2068956637512E+01
 0.1524861646897E+01
 0.9314593348958E+00
 0.4628658084388E+01
 0.4654918170638E+01
 0.4672850748187E+01
 0.4680698397597E+01
 0.4676466134510E+01
 0.4657893120438E+01
 0.4622424804476E+01
 0.4567186608466E+01
 0.4488961200364E+01
 0.4384172364720E+01
 0.4248879605601E+01
 0.4078789045116E+01
 0.3869288081053E+01
 0.3615513937996E+01
 0.3312470631492E+01
 0.2955218979206E+01
 0.2539197371467E+01
 0.2060866456828E+01
 0.1519561045578E+01
 0.9267049831601E+00
 0.4591736529538E+01
 0.4613794205877E+01
 0.4627466924511E+01
 0.4631108967282E+01
 0.4622861434100E+01
 0.4600625765824E+01
 0.4562035058280E+01
 0.4504423436502E+01
 0.4424794656347E+01
 0.4319791972777E+01
 0.4185672430811E+01
 0.4018290492220E+01
 0.3813098795670E+01
 0.3565178493078E+01
 0.3269319002272E+01
 0.2920179938864E+01
 0.2512599849781E+01
 0.2042236699269E+01
 0.1507352633345E+01
 0.9174817690798E+00
 0.4534991902968E+01
 0.4550998863172E+01
 0.4558534154029E+01
 0.4556099188018E+01
 0.4542016073808E+01
 0.4514404494145E+01
 0.4471153391494E+01
 0.4409886585954E+01
 0.4327922391116E+01
 0.4222227884011E+01
 0.4089369208984E+01
 0.3925460830920E+01
 0.3726119911577E+01
 0.3486438259752E+01
 0.3200995591903E+01
 0.2863957425876E+01
 0.2469338066510E+01
 0.2011618679845E+01
 0.1487461376157E+01
 0.9037029228460E+00
 0.4458913019672E+01
 0.4467042257968E+01
 0.4466557936562E+01
 0.4456132072122E+01
 0.4434299253998E+01
 0.4399439621002E+01
 0.4349753469394E+01
 0.4283225403557E+01
 0.4197577167624E+01
 0.4090208366720E+01
 0.3958123993287E+01
 0.3797847999497E+01
 0.3605324309511E+01
 0.3375812604723E+01
 0.3103799487430E+01
 0.2782973215490E+01
 0.2406364786904E+01
 0.1966876794193E+01
 0.1458895954206E+01
 0.8855078766948E+00
 0.4364202251111E+01
 0.4362674420900E+01
 0.4352308529960E+01
 0.4331955873164E+01
 0.4300377468104E+01
 0.4256237434578E+01
 0.4198084203795E+01
 0.4124316731763E+01
 0.4033134986063E+01
 0.3922473146250E+01
 0.3789911892804E+01
 0.3632564125256E+01
 0.3446927565524E+01
 0.3228699749449E+01
 0.2972560180323E+01
 0.2671951094932E+01
 0.2318959650571E+01
 0.1904575763291E+01
 0.1420057799094E+01
 0.8632470610369E+00
 0.4251795555695E+01
 0.4238917996443E+01
 0.4216872215721E+01
 0.4184679809903E+01
 0.4141320648621E+01
 0.4085743209599E+01
 0.4016856107115E+01
 0.3933499581814E+01
 0.3834398940422E+01
 0.3718099394786E+01
 0.3582877034378E+01
 0.3426615548908E+01
 0.3246633105335E+01
 0.3039438702211E+01
 0.2800394263127E+01
 0.2523266275487E+01
 0.2199696428986E+01
 0.1818821328339E+01
 0.1367907251005E+01
 0.8374242763565E+00
 0.4122881246088E+01
 0.4097101521819E+01
 0.4061708073968E+01
 0.4015861658137E+01
 0.3958728871256E+01
 0.3889518013126E+01
 0.3807481845962E+01
 0.3711894137852E+01
 0.3602009693596E+01
 0.3477010775214E+01
 0.3335934670558E+01
 0.3177569316941E+01
 0.3000295159825E+01
 0.2801839293072E+01
 0.2578889190275E+01
 0.2326485253620E+01
 0.2037081381637E+01
 0.1699181836713E+01
 0.1296085889113E+01
 0.8082859313501E+00
 0.3978914634788E+01
 0.3938893534188E+01
 0.3888711100560E+01
 0.3827605863796E+01
 0.3754875337381E+01
 0.3669943784399E+01
 0.3572367511195E+01
 0.3461808814108E+01
 0.3338001675027E+01
 0.3200717111583E+01
 0.3049724080624E+01
 0.2884733288971E+01
 0.2705302608305E+01
 0.2510669165899E+01
 0.2299446846112E+01
 0.2069073715591E+01
 0.1814780688315E+01
 0.1527612191055E+01
 0.1190530788726E+01
 0.7737836947801E+00
 0.3821623054505E+01
 0.3766335617430E+01
 0.3700274116044E+01
 0.3622652612752E+01
 0.3532834791066E+01
 0.3430416905761E+01
 0.3315209129497E+01
 0.3187189237030E+01
 0.3046467434937E+01
 0.2893272598121E+01
 0.2727955619531E+01
 0.2550999641777E+01
 0.2363024239904E+01
 0.2164764790728E+01
 0.1956992293281E+01
 0.1740298673876E+01
 0.1514562636724E+01
 0.1277615518259E+01
 0.1021495708080E+01
 0.7199368178867E+00
 0.3653005383443E+01
 0.3581881633090E+01
 0.3499329729734E+01
 0.3404415189069E+01
 0.3296533921045E+01
 0.3175447158123E+01
 0.3041190911726E+01
 0.2893985211272E+01
 0.2734189775717E+01
 0.2562309539407E+01
 0.2379038060065E+01
 0.2185330307930E+01
 0.1982504112636E+01
 0.1772378869360E+01
 0.1557470261302E+01
 0.1341271679068E+01
 0.1128673408726E+01
 0.9265516352843E+00
 0.7446272950318E+00
 0.5931331997813E+00
 0.3475344673918E+01
 0.3388411181177E+01
 0.3289305103345E+01
 0.3176879179013E+01
 0.3050626349713E+01
 0.2910558009117E+01
 0.2756979636178E+01
 0.2590338889783E+01
 0.2411181926175E+01
 0.2220186873455E+01
 0.2018247844595E+01
 0.1806598824080E+01
 0.1586989206482E+01
 0.1361945617356E+01
 0.1135188570797E+01
 0.9123392384736E+00
 0.7021972887337E+00
 0.5192971108124E+00
 0.3896183828305E+00
 0.3702339704732E+00
 0.3291128410957E+01
 0.3189006896047E+01
 0.3073789708110E+01
 0.2944203653427E+01
 0.2800087645117E+01
 0.2641938874724E+01
 0.2470485702934E+01
 0.2286514445952E+01
 0.2090875687753E+01
 0.1884591509229E+01
 0.1669008106516E+01
 0.1445990682072E+01
 0.1218185754923E+01
 0.9894022182080E+00
 0.7652005835171E+00
 0.5538488571805E+00
 0.3679514194521E+00
 0.2274117417478E+00
 0.1660333909770E+00
 0.2473088493764E+00
 0.3103099797418E+01
 0.2986982830978E+01
 0.2856521219857E+01
 0.2710676680066E+01
 0.2550154436351E+01
 0.2376255529119E+01
 0.2190303774070E+01
 0.1993544754551E+01
 0.1787314948731E+01
 0.1573257293297E+01
 0.1353551010548E+01
 0.1131171050960E+01
 0.9102112185058E+00
 0.6963178594187E+00
 0.4972944037969E+00
 0.3239485323930E+00
 0.1912350660965E+00
 0.1198404395957E+00
 0.1391956823473E+00
 0.2802593470175E+00
 0.2914276922353E+01
 0.2785730132273E+01
 0.2640978925350E+01
 0.2480217276694E+01
 0.2305699291633E+01
 0.2119769343212E+01
 0.1924239863635E+01
 0.1720766105220E+01
 0.1511205902693E+01
 0.1297903479513E+01
 0.1083934455086E+01
 0.8733488078422E+00
 0.6714412319022E+00
 0.4850648000304E+00
 0.3229797139531E+00
 0.1961631079453E+00
 0.1178959125023E+00
 0.1038156662450E+00
 0.1690432934026E+00
 0.3159483887120E+00
 0.2727753302572E+01
 0.2587954757877E+01
 0.2429432916974E+01
 0.2255420923792E+01
 0.2070656624054E+01
 0.1877754144992E+01
 0.1678558816343E+01
 0.1474950523431E+01
 0.1269227303802E+01
 0.1064335555529E+01
 0.8640332288907E+00
 0.6730303184836E+00
 0.4971121270459E+00
 0.3432213742373E+00
 0.2194293301320E+00
 0.1346565269964E+00
 0.9812195199977E-01
 0.1184094476739E+00
 0.1985609738381E+00
 0.3314800199605E+00
 0.2546767247665E+01
 0.2394336046487E+01
 0.2220906691971E+01
 0.2037918002919E+01
 0.1848864328294E+01
 0.1655169369885E+01
 0.1458427141027E+01
 0.1260728476163E+01
 0.1064789906829E+01
 0.8739988332633E+00
 0.6924455825597E+00
 0.5249338479508E+00
 0.3769419050225E+00
 0.2544820236397E+00
 0.1637762668290E+00
 0.1106972917565E+00
 0.1001503802060E+00
 0.1345704765909E+00
 0.2117722118272E+00
 0.3256230750845E+00
 0.2369203186438E+01
 0.2192210973481E+01
 0.2013629779173E+01
 0.1832190578090E+01
 0.1646503475633E+01
 0.1457875616814E+01
 0.1268495380362E+01
 0.1081129822688E+01
 0.8989849247548E+00
 0.7256726040235E+00
 0.5651827280686E+00
 0.4218211025768E+00
 0.3000740158925E+00
 0.2043540599547E+00
 0.1385891875359E+00
 0.1057126811447E+00
 0.1070761249927E+00
 0.1413068824456E+00
 0.2038411638811E+00
 0.2918417983219E+00
</DataArray>
<DataArray type="Float64" Name="S_Hyd" NumberOfComponents="1" ComponentName0="S_Hyd" format="ascii">
 0.2748446035880E+01
 0.1874902826738E+01
 0.1767563370109E+01
 0.1677881790211E+01
 0.1632965946258E+01
 0.1603744478187E+01
 0.1586118221404E+01
 0.1575836409830E+01
 0.1571092671591E+01
 0.1570749853772E+01
 0.1574240606047E+01
 0.1581336770556E+01
 0.1592079937924E+01
 0.1606745793524E+01
 0.1625852291239E+01
 0.1650217933999E+01
 0.1681103905662E+01
 0.1720570740670E+01
 0.1772983694179E+01
 0.1845698531429E+01
 0.1936563552993E+01
 0.2031857686103E+01
 0.2121703671040E+01
 0.2203947175864E+01
 0.2280738191300E+01
 0.2355450191144E+01
 0.2431128788473E+01
 0.2510003670498E+01
 0.2593209286535E+01
 0.2679557209355E+01
 0.2766680623490E+01
 0.2857941083923E+01
 0.2961207736193E+01
 0.3084157623211E+01
 0.3236211105400E+01
 0.3434261727497E+01
 0.3696757830134E+01
 0.4105246343124E+01
 0.4588473526868E+01
 0.6307528640658E+01
 0.1292273965716E+01
 0.2449699042203E+01
 0.2026331408129E+01
 0.1793263565396E+01
 0.1711349276778E+01
 0.1654758729966E+01
 0.1621438002263E+01
 0.1600035437567E+01
 0.1587178113878E+01
 0.1580443904496E+01
 0.1578590661159E+01
 0.1580914607147E+01
 0.1587110483980E+01
 0.1597160204588E+01
 0.1611295990636E+01
 0.1630002779140E+01
 0.1654073711556E+01
 0.1684743954498E+01
 0.1724088080594E+01
 0.1775918677083E+01
 0.1843592070394E+01
 0.1924015547146E+01
 0.2008264590988E+01
 0.2089072959577E+01
 0.2164150398727E+01
 0.2234566309774E+01
 0.2302583698239E+01
 0.2370374432451E+01
 0.2439455214877E+01
 0.2510225896429E+01
 0.2581645875553E+01
 0.2652879572419E+01
 0.2725787942083E+01
 0.2804498155441E+01
 0.2893321075062E+01
 0.2997028831113E+01
 0.3119263013527E+01
 0.3270898820305E+01
 0.3423292127574E+01
 0.3652783543464E+01
 0.3177970994805E+01
-0.1613966967715E+01
 0.2302662199099E+01
 0.2041306178143E+01
 0.1835824732788E+01
 0.1733578589176E+01
 0.1675051622595E+01
 0.1636930414566E+01
 0.1612715527459E+01
 0.1597510700270E+01
 0.1588996731158E+01
 0.1585733007003E+01
 0.1586939952741E+01
 0.1592240005924E+01
 0.1601562605113E+01
 0.1615095153140E+01
 0.1633281841501E+01
 0.1656870164856E+01
 0.1687034804590E+01
 0.1725704109428E+01
 0.1775562052300E+01
 0.1837897138140E+01
 0.1909628937782E+01
 0.1984389750718E+01
 0.2056807549220E+01
 0.2124723352093E+01
 0.2188486453237E+01
 0.2249498309308E+01
 0.2309181850584E+01
 0.2368406410022E+01
 0.2427110164787E+01
 0.2484407137451E+01
 0.2539676667074E+01
 0.2593533195727E+01
 0.2647408534321E+01
 0.2702379648511E+01
 0.2757566931814E+01
 0.2809607703427E+01
 0.2841781171955E+01
 0.2822749378125E+01
 0.2596645793792E+01
 0.1398114257895E+01
-0.2246712274012E+01
 0.2209289944488E+01
 0.2027028394238E+01
 0.1858770892376E+01
 0.1753892398686E+01
 0.1691322014076E+01
 0.1650684525548E+01
 0.1623945262346E+01
 0.1606811408731E+01
 0.1596701219415E+01
 0.1592146370436E+01
 0.1592290448098E+01
 0.1596704555857E+01
 0.1605269657643E+01
 0.1618128093690E+01
 0.1635675222686E+01
 0.1658594381527E+01
 0.1687959455625E+01
 0.1725360007589E+01
 0.1772499084755E+01
 0.1829552849110E+01
 0.1893683667213E+01
 0.1960101640008E+01
 0.2024715237308E+01
 0.2085572916577E+01
 0.2142547500563E+01
 0.2196374935310E+01
 0.2247846853329E+01
 0.2297295282045E+01
 0.2344328991038E+01
 0.2388014566589E+01
 0.2427500595907E+01
 0.2462267107399E+01
 0.2491644534987E+01
 0.2513626436315E+01
 0.2523159274682E+01
 0.2508108934971E+01
 0.2441752434128E+01
 0.2258822294103E+01
 0.1752507519397E+01
 0.4274392898990E+00
-0.2294842105073E+01
 0.2142211743996E+01
 0.2005564200087E+01
 0.1867861512910E+01
 0.1768904508021E+01
 0.1704734868203E+01
 0.1662304563577E+01
 0.1633773567067E+01
 0.1615019507487E+01
 0.1603533683131E+01
 0.1597805461228E+01
 0.1596947622758E+01
 0.1600489329761E+01
 0.1608270294382E+01
 0.1620387120632E+01
 0.1637179002829E+01
 0.1659249414188E+01
 0.1687518275671E+01
 0.1723182427468E+01
 0.1767203978306E+01
 0.1819144169150E+01
 0.1876447903490E+01
 0.1935370365921E+01
 0.1992692134320E+01
 0.2046655141846E+01
 0.2096812340830E+01
 0.2143385898209E+01
 0.2186648185239E+01
 0.2226493420420E+01
 0.2262243622216E+01
 0.2292785407028E+01
 0.2316867798949E+01
 0.2332969369000E+01
 0.2338680507721E+01
 0.2329554773148E+01
 0.2296833230662E+01
 0.2223159527704E+01
 0.2073516912206E+01
 0.1768955306789E+01
 0.1134270326746E+01
-0.1170074910291E+00
-0.2194260763638E+01
 0.2090557029116E+01
 0.1982934358825E+01
 0.1868754092892E+01
 0.1778472425940E+01
 0.1715231797330E+01
 0.1671900979879E+01
 0.1642148999366E+01
 0.1622128827836E+01
 0.1609472926103E+01
 0.1602696001346E+01
 0.1600899178264E+01
 0.1603585811451E+01
 0.1610559751307E+01
 0.1621872044155E+01
 0.1637799940296E+01
 0.1658850834663E+01
 0.1685759538337E+01
 0.1719352034515E+01
 0.1760054005823E+01
 0.1807083232171E+01
 0.1858147961779E+01
 0.1910224853379E+01
 0.1960698039932E+01
 0.2007964994694E+01
 0.2051356172263E+01
 0.2090697053718E+01
 0.2125839643621E+01
 0.2156316842275E+01
 0.2181183127840E+01
 0.2199080380892E+01
 0.2208317549112E+01
 0.2206509626513E+01
 0.2189880436783E+01
 0.2152074516531E+01
 0.2081804363734E+01
 0.1958601399290E+01
 0.1743947453261E+01
 0.1363647165037E+01
 0.6901552008809E+00
-0.4333705252594E+00
-0.2063172881808E+01
 0.2048926662872E+01
 0.1961017227783E+01
 0.1864871888354E+01
 0.1783564365540E+01
 0.1722863341820E+01
 0.1679554699228E+01
 0.1649089962920E+01
 0.1628135876745E+01
 0.1614513843887E+01
 0.1606810619239E+01
 0.1604139786357E+01
 0.1605991363943E+01
 0.1612139465001E+01
 0.1622590137619E+01
 0.1637554142813E+01
 0.1657431260673E+01
 0.1682763856658E+01
 0.1714057158946E+01
 0.1751353908139E+01
 0.1793681445769E+01
 0.1838975570797E+01
 0.1884724757696E+01
 0.1928736990709E+01
 0.1969526838380E+01
 0.2006263878161E+01
 0.2038466667379E+01
 0.2065649204774E+01
 0.2087043219045E+01
 0.2101454701821E+01
 0.2107264764510E+01
 0.2102364720359E+01
 0.2083667374049E+01
 0.2046370181190E+01
 0.1982803023743E+01
 0.1880230337399E+01
 0.1717038619850E+01
 0.1456065709004E+01
 0.1035904808058E+01
 0.3702882810714E+00
-0.6220659391488E+00
-0.1936113574820E+01
 0.2014239720775E+01
 0.1940373269761E+01
 0.1858194564877E+01
 0.1785232919816E+01
 0.1727893183869E+01
 0.1685357072174E+01
 0.1654642506673E+01
 0.1633054821909E+01
 0.1618660817875E+01
 0.1610150167634E+01
 0.1606670245162E+01
 0.1607709108190E+01
 0.1613016797741E+01
 0.1622555586569E+01
 0.1636466969418E+01
 0.1655038501451E+01
 0.1678628727177E+01
 0.1707477322046E+01
 0.1741354677914E+01
 0.1779185768997E+01
 0.1819096557707E+01
 0.1858945715372E+01
 0.1896842459531E+01
 0.1931386376447E+01
 0.1961626896498E+01
 0.1986844384740E+01
 0.2006282047944E+01
 0.2018920749362E+01
 0.2023343328858E+01
 0.2017685408893E+01
 0.1999479752768E+01
 0.1965105698020E+01
 0.1909061908438E+01
 0.1822926173111E+01
 0.1693459901070E+01
 0.1499638248413E+01
 0.1208640432312E+01
 0.7732198341131E+00
 0.1378036405581E+00
-0.7360864688967E+00
-0.1821245234081E+01
 0.1984574058471E+01
 0.1921092895078E+01
 0.1849878397468E+01
 0.1784347220237E+01
 0.1730677044760E+01
 0.1689438614697E+01
 0.1658868828904E+01
 0.1636914879363E+01
 0.1621927612102E+01
 0.1612722626115E+01
 0.1608497243053E+01
 0.1608747521525E+01
 0.1613204651998E+01
 0.1621788953127E+01
 0.1634572209466E+01
 0.1651731404123E+01
 0.1673458346616E+01
 0.1699777982741E+01
 0.1730266996779E+01
 0.1763799291454E+01
 0.1798657250563E+01
 0.1832971294115E+01
 0.1865066836967E+01
 0.1893603854508E+01
 0.1917540055159E+01
 0.1935970697855E+01
 0.1947923223532E+01
 0.1952172084897E+01
 0.1947108565328E+01
 0.1930657832331E+01
 0.1900072058416E+01
 0.1851365489333E+01
 0.1778640539832E+01
 0.1673214152223E+01
 0.1522126949232E+01
 0.1306157155711E+01
 0.9980137559860E+00
 0.5630695762340E+00
-0.3287603097152E-01
-0.8045239211379E+00
-0.1718961508393E+01
 0.1958655447974E+01
 0.1903094579564E+01
 0.1840610371262E+01
 0.1781567708355E+01
 0.1731575061398E+01
 0.1691959171196E+01
 0.1661845784760E+01
 0.1639756413811E+01
 0.1624336462964E+01
 0.1614542347041E+01
 0.1609632843140E+01
 0.1609120023216E+01
 0.1612720978724E+01
 0.1620316515841E+01
 0.1631910584415E+01
 0.1647575774801E+01
 0.1667357592283E+01
 0.1691109662821E+01
 0.1718270774181E+01
 0.1747693773476E+01
 0.1777788840513E+01
 0.1806888297053E+01
 0.1833474071133E+01
 0.1856248557716E+01
 0.1874098762603E+01
 0.1885976545582E+01
 0.1890739313784E+01
 0.1886995705626E+01
 0.1872981508197E+01
 0.1846457668324E+01
 0.1804481420094E+01
 0.1742861453184E+01
 0.1655568946066E+01
 0.1534063206329E+01
 0.1366239583255E+01
 0.1135335652558E+01
 0.8196294406859E+00
 0.3947094848991E+00
-0.1592495872966E+00
-0.8440473214521E+00
-0.1627665609052E+01
 0.1935601371368E+01
 0.1886240281101E+01
 0.1830804309195E+01
 0.1777381464953E+01
 0.1730911521010E+01
 0.1693089420639E+01
 0.1663661481409E+01
 0.1641628306507E+01
 0.1625916600529E+01
 0.1615629297174E+01
 0.1610093903853E+01
 0.1608844482640E+01
 0.1611588220804E+01
 0.1618169435770E+01
 0.1628528023709E+01
 0.1642641115143E+01
 0.1660428673975E+01
 0.1681608748329E+01
 0.1705521978631E+01
 0.1731017689174E+01
 0.1756610345658E+01
 0.1780783892447E+01
 0.1802134552753E+01
 0.1819394590771E+01
 0.1831396753580E+01
 0.1836983001682E+01
 0.1834879417003E+01
 0.1823566423356E+01
 0.1801162633125E+01
 0.1765316012563E+01
 0.1712974416975E+01
 0.1639884457848E+01
 0.1540106245474E+01
 0.1405547426143E+01
 0.1225319874027E+01
 0.9853379384180E+00
 0.6689060820025E+00
 0.2594657737041E+00
-0.2533517060336E+00
-0.8646152174758E+00
-0.1545544825786E+01
 0.1914779956917E+01
 0.1870382092837E+01
 0.1820711415487E+01
 0.1772144201388E+01
 0.1728962339231E+01
 0.1692996407724E+01
 0.1664410144576E+01
 0.1642585651498E+01
 0.1626702774747E+01
 0.1616008203853E+01
 0.1609901471181E+01
 0.1607942677526E+01
 0.1609832697147E+01
 0.1615382826916E+01
 0.1624474027034E+01
 0.1636998236679E+01
 0.1652769390525E+01
 0.1671398841109E+01
 0.1692157580865E+01
 0.1713901571610E+01
 0.1735230629414E+01
 0.1754743761844E+01
 0.1771121513101E+01
 0.1783117686864E+01
 0.1789524297322E+01
 0.1789100946107E+01
 0.1780475689495E+01
 0.1762035590272E+01
 0.1731820630709E+01
 0.1687417551049E+01
 0.1625744807402E+01
 0.1542609593035E+01
 0.1432333156635E+01
 0.1287481012969E+01
 0.1098559435494E+01
 0.8540908068803E+00
 0.5416446857214E+00
 0.1505123548478E+00
-0.3235682491149E+00
-0.8724161157029E+00
-0.1471035680214E+01
 0.1895726787886E+01
 0.1855380813603E+01
 0.1810484238014E+01
 0.1766115407050E+01
 0.1725955521241E+01
 0.1691835058496E+01
 0.1664187151935E+01
 0.1642687451272E+01
 0.1626733879167E+01
 0.1615707673838E+01
 0.1609080145948E+01
 0.1606439725229E+01
 0.1607483951422E+01
 0.1611994822861E+01
 0.1619800257603E+01
 0.1630717606782E+01
 0.1644472325805E+01
 0.1660592198771E+01
 0.1678299183118E+01
 0.1696461682721E+01
 0.1713749813000E+01
 0.1728850887956E+01
 0.1740508500504E+01
 0.1747492868276E+01
 0.1748566853137E+01
 0.1742430816966E+01
 0.1727643762069E+01
 0.1702531451124E+01
 0.1665092321150E+01
 0.1612900956111E+01
 0.1542917214854E+01
 0.1451108340448E+01
 0.1332181750847E+01
 0.1179484460732E+01
 0.9849570193167E+00
 0.7395024984243E+00
 0.4341730933580E+00
 0.6252585027602E-01
-0.3758378119952E+00
-0.8714342475435E+00
-0.1402886839202E+01
 0.1878093206985E+01
 0.1841112497141E+01
 0.1800214617413E+01
 0.1759484958283E+01
 0.1722076680595E+01
 0.1689744334745E+01
 0.1663085216815E+01
 0.1641994456893E+01
 0.1626051666642E+01
 0.1614759334868E+01
 0.1607657443381E+01
 0.1604363502508E+01
 0.1604574095012E+01
 0.1608045701803E+01
 0.1614559397768E+01
 0.1623868238684E+01
 0.1635624571503E+01
 0.1649291065036E+01
 0.1664055704221E+01
 0.1678802580947E+01
 0.1692260263942E+01
 0.1703184722414E+01
 0.1710367574722E+01
 0.1712592711171E+01
 0.1708604039580E+01
 0.1697062404920E+01
 0.1676483096386E+01
 0.1645159684289E+01
 0.1601083400815E+01
 0.1541860904432E+01
 0.1464553044833E+01
 0.1365363073448E+01
 0.1239466595565E+01
 0.1081046153051E+01
 0.8834241107927E+00
 0.6395870302989E+00
 0.3433588742355E+00
-0.8642566704877E-02
-0.4144379282012E+00
-0.8643138935448E+00
-0.1340111986191E+01
 0.1861612850328E+01
 0.1827469796908E+01
 0.1789956699211E+01
 0.1752392522016E+01
 0.1717475875821E+01
 0.1686846313984E+01
 0.1661191892704E+01
 0.1640567342217E+01
 0.1624699578361E+01
 0.1613197024405E+01
 0.1605663164446E+01
 0.1601744069750E+01
 0.1601137171226E+01
 0.1603577104373E+01
 0.1608804249129E+01
 0.1616516968098E+01
 0.1626307736235E+01
 0.1637588827524E+01
 0.1649525386212E+01
 0.1661018953341E+01
 0.1670847301296E+01
 0.1677820609005E+01
 0.1680768015207E+01
 0.1678486076812E+01
 0.1669708878002E+01
 0.1653074743221E+01
 0.1627077401055E+01
 0.1590004213594E+01
 0.1539869906639E+01
 0.1474351306842E+01
 0.1390657844832E+01
 0.1285282554121E+01
 0.1153914641878E+01
 0.9915743211149E+00
 0.7928585455709E+00
 0.5525251747499E+00
 0.2665643916001E+00
-0.6623958591021E-01
-0.4425022538895E+00
-0.8528538703953E+00
-0.1281923615206E+01
 0.1846079241877E+01
 0.1814361124293E+01
 0.1779741136867E+01
 0.1744941503715E+01
 0.1712274168480E+01
 0.1683246888630E+01
 0.1658588194397E+01
 0.1638465301556E+01
 0.1622721722031E+01
 0.1611056042954E+01
 0.1603128796364E+01
 0.1598613116951E+01
 0.1597208563017E+01
 0.1598631360282E+01
 0.1602587045457E+01
 0.1608728004333E+01
 0.1616598112138E+01
 0.1625571011226E+01
 0.1634797330546E+01
 0.1643196975358E+01
 0.1649589747452E+01
 0.1652829431653E+01
 0.1651775458355E+01
 0.1645237269570E+01
 0.1631947352885E+01
 0.1610536215635E+01
 0.1579495276379E+01
 0.1537128426697E+01
 0.1481500396411E+01
 0.1410389526490E+01
 0.1321189596596E+01
 0.1210717476677E+01
 0.1075192144942E+01
 0.9104379682247E+00
 0.7121920970430E+00
 0.4766870240245E+00
 0.2015822257445E+00
-0.1128238438604E+00
-0.4623663275607E+00
-0.8383013650565E+00
-0.1227670615268E+01
 0.1831330366914E+01
 0.1801708989478E+01
 0.1769583978826E+01
 0.1737209030711E+01
 0.1706569324814E+01
 0.1679037239879E+01
 0.1655348033850E+01
 0.1635745064443E+01
 0.1620162022978E+01
 0.1608372485264E+01
 0.1600086954503E+01
 0.1595003443799E+01
 0.1592824455190E+01
 0.1593250920440E+01
 0.1595958934836E+01
 0.1600562664078E+01
 0.1606566910515E+01
 0.1613316110621E+01
 0.1619952678915E+01
 0.1625415328746E+01
 0.1628560357154E+01
 0.1628277397340E+01
 0.1623451314492E+01
 0.1612905477565E+01
 0.1595378177859E+01
 0.1569504798509E+01
 0.1533790996667E+01
 0.1486576637001E+01
 0.1425998531410E+01
 0.1349961055862E+01
 0.1256067143233E+01
 0.1141474926909E+01
 0.1002927325798E+01
 0.8369970490931E+00
 0.6404184717820E+00
 0.4106325086170E+00
 0.1465691103758E+00
-0.1504302120139E+00
-0.4758056059394E+00
-0.8215364097073E+00
-0.1176780182709E+01
 0.1817237791336E+01
 0.1789448144732E+01
 0.1759492284045E+01
 0.1729253101519E+01
 0.1700440540599E+01
 0.1674295589325E+01
 0.1651538194990E+01
 0.1632460268246E+01
 0.1617063552166E+01
 0.1605182658079E+01
 0.1596570874479E+01
 0.1590948482997E+01
 0.1588021356923E+01
 0.1587477886435E+01
 0.1588969595286E+01
 0.1592079228475E+01
 0.1596280523202E+01
 0.1600896285486E+01
 0.1605065537023E+01
 0.1607745986200E+01
 0.1607826172672E+01
 0.1604225930469E+01
 0.1595852407328E+01
 0.1581544449456E+01
 0.1560052753849E+01
 0.1530028452588E+01
 0.1490005447700E+01
 0.1438375762112E+01
 0.1373365936807E+01
 0.1293024390212E+01
 0.1195178333309E+01
 0.1077331239029E+01
 0.9367286041701E+00
 0.7706235791680E+00
 0.5766078584983E+00
 0.3531001286968E+00
 0.9998655886237E-01
-0.1806920301422E+00
-0.4842068963491E+00
-0.8032040688860E+00
-0.1128699737584E+01
 0.1803698824020E+01
 0.1777523799935E+01
 0.1749467689338E+01
 0.1721117719939E+01
 0.1693952255547E+01
 0.1669088956669E+01
 0.1647218634480E+01
 0.1628661111383E+01
 0.1613468018994E+01
 0.1601522587403E+01
 0.1592613960031E+01
 0.1586481872212E+01
 0.1582835685463E+01
 0.1581353625769E+01
 0.1581666953364E+01
 0.1583332881800E+01
 0.1585800785144E+01
 0.1588377943275E+01
 0.1590203709017E+01
 0.1590254832671E+01
 0.1587448832301E+01
 0.1580731654601E+01
 0.1569030784772E+01
 0.1551202358763E+01
 0.1526015288596E+01
 0.1492145647496E+01
 0.1448167193895E+01
 0.1392537150591E+01
 0.1323585192745E+01
 0.1239515849969E+01
 0.1138387553320E+01
 0.1018042971995E+01
 0.8761986813070E+00
 0.7107155670183E+00
 0.5199125626193E+00
 0.3029907484645E+00
 0.6054774932476E-01
-0.2049235918312E+00
-0.4886912699176E+00
-0.7838535332805E+00
-0.1082832379771E+01
 0.1790630763939E+01
 0.1765890018677E+01
 0.1739508670313E+01
 0.1712836601312E+01
 0.1687157183527E+01
 0.1663474789959E+01
 0.1642442957593E+01
 0.1624394212474E+01
 0.1609415407060E+01
 0.1597427612858E+01
 0.1588249388945E+01
 0.1581637076857E+01
 0.1577303408729E+01
 0.1574918460706E+01
 0.1574096981424E+01
 0.1574375703470E+01
 0.1575185225730E+01
 0.1575822228960E+01
 0.1575429291469E+01
 0.1573002171697E+01
 0.1567484849870E+01
 0.1557846443745E+01
 0.1543033662916E+01
 0.1521921817169E+01
 0.1493303048895E+01
 0.1455885996358E+01
 0.1408293641993E+01
 0.1349058488712E+01
 0.1276622832107E+01
 0.1189354166437E+01
 0.1085542449574E+01
 0.9633559706355E+00
 0.8209449843913E+00
 0.6567056256133E+00
 0.4695668307363E+00
 0.2593502252423E+00
 0.2717290224978E-01
-0.2241905456580E+00
-0.4901292626974E+00
-0.7641811246228E+00
-0.1038568048528E+01
 0.1777971369781E+01
 0.1754514844269E+01
 0.1729621137234E+01
 0.1704446135695E+01
 0.1680109576328E+01
 0.1657513363349E+01
 0.1637269869207E+01
 0.1619713543473E+01
 0.1604954974867E+01
 0.1592944050534E+01
 0.1583523054154E+01
 0.1576462301264E+01
 0.1571477748554E+01
 0.1568233163917E+01
 0.1566330202362E+01
 0.1565289628512E+01
 0.1564528140814E+01
 0.1563336021319E+01
 0.1560861506513E+01
 0.1556119405879E+01
 0.1548078291833E+01
 0.1535728322709E+01
 0.1518034831350E+01
 0.1493894032802E+01
 0.1462125367362E+01
 0.1421475931067E+01
 0.1370624790624E+01
 0.1308186428781E+01
 0.1232720782443E+01
 0.1142759370688E+01
 0.1036816903833E+01
 0.9133662507985E+00
 0.7709479911791E+00
 0.6084203945392E+00
 0.4252151826034E+00
 0.2216362206566E+00
-0.8275830301479E-03
-0.2392600551698E+00
-0.4891888742362E+00
-0.7448297518227E+00
-0.9978844347018E+00
 0.1765658643946E+01
 0.1743361548386E+01
 0.1719795916288E+01
 0.1695962349497E+01
 0.1672842003701E+01
 0.1651244984617E+01
 0.1631741013559E+01
 0.1614658789572E+01
 0.1600123624840E+01
 0.1588106706997E+01
 0.1578469067788E+01
 0.1570992575301E+01
 0.1565396180117E+01
 0.1561338888791E+01
 0.1558412178493E+01
 0.1556124643088E+01
 0.1553883081489E+01
 0.1550974713700E+01
 0.1546555264220E+01
 0.1539658467235E+01
 0.1529275933820E+01
 0.1514417348133E+01
 0.1494066429952E+01
 0.1467141832981E+01
 0.1432493522083E+01
 0.1388911485682E+01
 0.1335135708270E+01
 0.1269866767863E+01
 0.1191784107207E+01
 0.1099580675076E+01
 0.9919853574486E+00
 0.8677516643461E+00
 0.7257673657707E+00
 0.5652862022565E+00
 0.3861510629112E+00
 0.1890384949222E+00
-0.2430645686356E-01
-0.2509019226734E+00
-0.4865214255718E+00
-0.7256986042011E+00
-0.9626271296087E+00
 0.1753650313723E+01
 0.1732400417949E+01
 0.1710024471702E+01
 0.1687395327081E+01
 0.1665377248731E+01
 0.1644698328480E+01
 0.1625885778322E+01
 0.1609257091282E+01
 0.1594945170046E+01
 0.1582936162511E+01
 0.1573105401057E+01
 0.1565243953330E+01
 0.1559073295533E+01
 0.1554248753200E+01
 0.1550353872895E+01
 0.1546888032312E+01
 0.1543251199729E+01
 0.1538730012689E+01
 0.1532488936580E+01
 0.1523580371874E+01
 0.1511017677576E+01
 0.1493828889583E+01
 0.1471016022754E+01
 0.1441521477408E+01
 0.1404228327704E+01
 0.1357972878213E+01
 0.1301559570641E+01
 0.1233777713516E+01
 0.1153426575698E+01
 0.1059356590096E+01
 0.9504996841723E+00
 0.8258673667931E+00
 0.6846564463188E+00
 0.5264599699666E+00
 0.3514586591315E+00
 0.1606164870418E+00
-0.4414463242943E-01
-0.2598508987414E+00
-0.4824795069532E+00
-0.7072060777983E+00
-0.9288496119381E+00
 0.1741909546404E+01
 0.1721608987796E+01
 0.1700302593120E+01
 0.1678757977005E+01
 0.1657740322545E+01
 0.1637904880885E+01
 0.1619737616445E+01
 0.1603541206284E+01
 0.1589450692492E+01
 0.1577462020756E+01
 0.1567461029437E+01
 0.1559245883432E+01
 0.1552540090670E+01
 0.1546996152788E+01
 0.1542191550981E+01
 0.1537618895241E+01
 0.1532673827668E+01
 0.1526644371805E+01
 0.1518704660398E+01
 0.1507925445970E+01
 0.1493340734331E+01
 0.1473995997023E+01
 0.1448911516014E+01
 0.1417054451562E+01
 0.1377342864310E+01
 0.1328661687324E+01
 0.1269881878271E+01
 0.1199882304547E+01
 0.1117580329773E+01
 0.1021977820143E+01
 0.9121968745342E+00
 0.7874839064916E+00
 0.6473086422989E+00
 0.4915534357478E+00
 0.3206745643132E+00
 0.1358561141153E+00
-0.6086745297652E-01
-0.2665610623920E+00
-0.4774531860507E+00
-0.6891598060368E+00
-0.8971265646952E+00
 0.1730405987754E+01
 0.1710968301394E+01
 0.1690626353195E+01
 0.1670060695668E+01
 0.1649952309271E+01
 0.1630891935575E+01
 0.1613326279081E+01
 0.1597540961112E+01
 0.1583669075050E+01
 0.1571712219191E+01
 0.1561563550225E+01
 0.1553026488299E+01
 0.1545826082671E+01
 0.1539612682085E+01
 0.1533959234846E+01
 0.1528353593603E+01
 0.1522189098801E+01
 0.1514756699914E+01
 0.1505240846276E+01
 0.1492730259862E+01
 0.1476278609098E+01
 0.1454948038662E+01
 0.1427777049854E+01
 0.1393758251604E+01
 0.1351845896116E+01
 0.1300974848086E+01
 0.1240083332652E+01
 0.1168139062646E+01
 0.1084174103901E+01
 0.9873341469777E+00
 0.8769175787690E+00
 0.7523829123899E+00
 0.6134392987652E+00
 0.4602143290502E+00
 0.2933878390740E+00
 0.1143096114703E+00
-0.7491797796503E-01
-0.2714293632884E+00
-0.4716820285035E+00
-0.6716763723998E+00
-0.8672982049337E+00
 0.1719114479434E+01
 0.1700462374694E+01
 0.1680992126770E+01
 0.1661311936069E+01
 0.1642031051441E+01
 0.1623683193857E+01
 0.1606678207376E+01
 0.1591283437460E+01
 0.1577627032460E+01
 0.1565712965349E+01
 0.1555439073293E+01
 0.1546612446310E+01
 0.1538959208771E+01
 0.1532128074748E+01
 0.1525688705303E+01
 0.1519125828800E+01
 0.1511832099892E+01
 0.1503102571471E+01
 0.1492132418440E+01
 0.1478027870898E+01
 0.1459861335528E+01
 0.1436710942990E+01
 0.1407633286304E+01
 0.1371646772590E+01
 0.1327742420448E+01
 0.1274905422115E+01
 0.1212140882670E+01
 0.1138503354429E+01
 0.1053134902068E+01
 0.9553163405686E+00
 0.8445080006832E+00
 0.7203585117852E+00
 0.5827858320827E+00
 0.4321244189252E+00
 0.2692342736085E+00
 0.9558837672943E-01
-0.8667714180096E-01
-0.2747796488240E+00
-0.4653884368669E+00
-0.6548248775267E+00
-0.8393338908008E+00
 0.1708014059689E+01
 0.1690077686410E+01
 0.1671396596812E+01
 0.1652518600679E+01
 0.1633991690608E+01
 0.1616299252766E+01
 0.1599816872961E+01
 0.1584793148952E+01
 0.1571349157055E+01
 0.1559488697256E+01
 0.1549112137832E+01
 0.1540028897236E+01
 0.1531965746676E+01
 0.1524570160019E+01
 0.1517409511667E+01
 0.1509966715117E+01
 0.1501635006634E+01
 0.1491714411007E+01
 0.1479411026364E+01
 0.1463848042720E+01
 0.1444115696868E+01
 0.1419307435658E+01
 0.1388497695140E+01
 0.1350730688487E+01
 0.1305034191842E+01
 0.1250443313860E+01
 0.1186028672362E+01
 0.1110928588855E+01
 0.1024389419912E+01
 0.9258176970075E+00
 0.8148213087907E+00
 0.6912181778097E+00
 0.5551074175543E+00
 0.4069971649456E+00
 0.2478917948529E+00
 0.7935404475745E-01
-0.9647016836885E-01
-0.2768872803102E+00
-0.4587584849886E+00
-0.6386786627540E+00
-0.8131954539520E+00
 0.1697087158882E+01
 0.1679802735649E+01
 0.1661836726976E+01
 0.1643686325476E+01
 0.1625847087586E+01
 0.1608758004853E+01
 0.1592763070738E+01
 0.1578092205332E+01
 0.1564857973101E+01
 0.1553062062384E+01
 0.1542605650421E+01
 0.1533299368482E+01
 0.1524870252525E+01
 0.1516964831665E+01
 0.1509148986333E+01
 0.1500904847969E+01
 0.1491627204346E+01
 0.1480621655489E+01
 0.1467105232452E+01
 0.1450217444493E+01
 0.1429065434155E+01
 0.1402757270021E+01
 0.1370384834913E+01
 0.1331017821289E+01
 0.1283720219881E+01
 0.1227575934224E+01
 0.1161718895962E+01
 0.1085367265443E+01
 0.9978652427772E+00
 0.8987352667502E+00
 0.7877186591250E+00
 0.6647831753763E+00
 0.5301843274562E+00
 0.3845754462692E+00
 0.2290758807698E+00
 0.6531223607679E-01
-0.1045763493256E+00
-0.2779863363395E+00
-0.4519516404216E+00
-0.6233027846131E+00
-0.7888474542629E+00
 0.1686318941203E+01
 0.1669627662591E+01
 0.1652309711105E+01
 0.1634819684818E+01
 0.1617608150162E+01
 0.1601074965570E+01
 0.1585535170742E+01
 0.1571200464157E+01
 0.1558173997914E+01
 0.1546453913594E+01
 0.1535940844173E+01
 0.1526445722891E+01
 0.1517695518659E+01
 0.1509336032991E+01
 0.1500932269849E+01
 0.1491966375785E+01
 0.1481835405849E+01
 0.1469850910030E+01
 0.1455240693746E+01
 0.1437159849355E+01
 0.1414731461330E+01
 0.1387077471505E+01
 0.1353306650674E+01
 0.1312513523358E+01
 0.1263797268727E+01
 0.1206288844799E+01
 0.1139182601041E+01
 0.1061771925080E+01
 0.9734918891432E+00
 0.8739708666982E+00
 0.7630699589337E+00
 0.6408887484981E+00
 0.5078171375134E+00
 0.3646293297912E+00
 0.2125356608828E+00
 0.5320677488416E-01
-0.1112359725240E+00
-0.2782767791414E+00
-0.4451042912824E+00
-0.6087533945399E+00
-0.7662562936482E+00
 0.1675696762214E+01
 0.1659543923561E+01
 0.1642812909325E+01
 0.1625922337174E+01
 0.1609284088089E+01
 0.1593263539976E+01
 0.1578149332500E+01
 0.1564135667536E+01
 0.1551315804367E+01
 0.1539683315846E+01
 0.1529137252593E+01
 0.1519488121663E+01
 0.1510462544458E+01
 0.1501705750895E+01
 0.1492782339242E+01
 0.1483175068322E+01
 0.1472283759216E+01
 0.1459426088969E+01
 0.1443840327690E+01
 0.1424696318757E+01
 0.1401132069509E+01
 0.1372282573193E+01
 0.1337272761215E+01
 0.1295221041784E+01
 0.1245260324065E+01
 0.1186566346564E+01
 0.1118390403891E+01
 0.1040095971573E+01
 0.9512016768064E+00
 0.8514318701001E+00
 0.7407543832668E+00
 0.6193840890790E+00
 0.4878258155862E+00
 0.3469539683761E+00
 0.1980504158424E+00
 0.4281485083399E-01
-0.1166560205329E+00
-0.2779297610993E+00
-0.4383329790619E+00
-0.5950781307265E+00
-0.7453912449700E+00
 0.1665209718437E+01
 0.1649544012265E+01
 0.1633343777549E+01
 0.1616997127101E+01
 0.1600882611349E+01
 0.1585335239822E+01
 0.1570619686892E+01
 0.1556913564395E+01
 0.1544300082900E+01
 0.1532767561034E+01
 0.1522212695655E+01
 0.1512445000275E+01
 0.1503190518622E+01
 0.1494094017939E+01
 0.1484720039517E+01
 0.1474552382545E+01
 0.1462993947876E+01
 0.1449368545732E+01
 0.1432924465679E+01
 0.1412845375871E+01
 0.1388283122522E+01
 0.1358384843679E+01
 0.1322290736252E+01
 0.1279141865459E+01
 0.1228103029411E+01
 0.1168392017733E+01
 0.1099313126686E+01
 0.1020294381362E+01
 0.9309304412868E+00
 0.8310318192294E+00
 0.7206607078629E+00
 0.6001321592631E+00
 0.4700487738889E+00
 0.3313676516024E+00
 0.1854265098187E+00
 0.3394294233801E-01
-0.1210147749204E+00
-0.2770918446503E+00
-0.4317371575926E+00
-0.5823172191616E+00
-0.7262249006307E+00
 0.1654848271493E+01
 0.1639621220190E+01
 0.1623899794746E+01
 0.1608046154475E+01
 0.1592410083410E+01
 0.1577299859234E+01
 0.1562958488964E+01
 0.1549548017830E+01
 0.1537141700205E+01
 0.1525722187058E+01
 0.1515183273842E+01
 0.1505333053121E+01
 0.1495896808652E+01
 0.1486518918365E+01
 0.1476764114531E+01
 0.1466117522679E+01
 0.1453985279976E+01
 0.1439697188361E+01
 0.1422510990496E+01
 0.1401623162738E+01
 0.1376198236463E+01
 0.1345394497903E+01
 0.1308366352625E+01
 0.1264276042922E+01
 0.1212318079853E+01
 0.1151749190199E+01
 0.1081922349140E+01
 0.1002324300091E+01
 0.9126181142635E+00
 0.8126908806070E+00
 0.7026874897601E+00
 0.5830094070909E+00
 0.4543419170472E+00
 0.3177100208629E+00
 0.1744947154734E+00
 0.2642339126090E-01
-0.1244655756534E+00
-0.2758884175293E+00
-0.4254015809710E+00
-0.5705046224212E+00
-0.7087333088809E+00
 0.1644603933531E+01
 0.1629769430938E+01
 0.1614478391777E+01
 0.1599070820482E+01
 0.1583871640143E+01
 0.1569165617551E+01
 0.1555176246899E+01
 0.1542051099774E+01
 0.1529853754939E+01
 0.1518561000635E+01
 0.1508063369529E+01
 0.1498167226465E+01
 0.1488596957589E+01
 0.1478996598755E+01
 0.1468931238835E+01
 0.1457887497114E+01
 0.1445274770832E+01
 0.1430428585426E+01
 0.1412615462957E+01
 0.1391043586630E+01
 0.1364888948697E+01
 0.1333319896576E+01
 0.1295503835719E+01
 0.1250622478559E+01
 0.1197897583136E+01
 0.1136621378040E+01
 0.1066190893399E+01
 0.9861455520818E+00
 0.8962091973783E+00
 0.7963361884439E+00
 0.6867431503412E+00
 0.5679054331930E+00
 0.4405777353789E+00
 0.3058404732611E+00
 0.1651079110522E+00
 0.2011153749884E-01
-0.1271399038562E+00
-0.2744264905511E+00
-0.4193983345982E+00
-0.5596690684192E+00
-0.6928959661462E+00
 0.1634469002907E+01
 0.1619982943677E+01
 0.1605076883665E+01
 0.1590071856729E+01
 0.1575271281952E+01
 0.1560939275446E+01
 0.1547281830784E+01
 0.1534433174259E+01
 0.1522447630116E+01
 0.1511296102661E+01
 0.1500865654248E+01
 0.1490960718329E+01
 0.1481304686882E+01
 0.1471541282610E+01
 0.1461236050276E+01
 0.1449877172499E+01
 0.1436877219247E+01
 0.1421577063356E+01
 0.1403251238588E+01
 0.1381118455910E+01
 0.1354364875831E+01
 0.1322167732928E+01
 0.1283706084431E+01
 0.1238179205605E+01
 0.1184833387492E+01
 0.1122992659583E+01
 0.1052093247111E+01
 0.9717210726578E+00
 0.8816531479012E+00
 0.7819020998453E+00
 0.6727459897829E+00
 0.5547226378645E+00
 0.4286444640130E+00
 0.2956367535779E+00
 0.1571391121569E+00
 0.1488332641416E-01
-0.1291499182775E+00
-0.2727969980884E+00
-0.4137885346981E+00
-0.5498349228231E+00
-0.6786957098985E+00
 0.1624436342033E+01
 0.1610256321697E+01
 0.1595692406348E+01
 0.1581049341959E+01
 0.1566611944531E+01
 0.1552626228713E+01
 0.1539282563495E+01
 0.1526702969557E+01
 0.1514933040916E+01
 0.1503937913915E+01
 0.1493601099126E+01
 0.1483724982389E+01
 0.1474031902434E+01
 0.1464165285940E+01
 0.1453691180552E+01
 0.1442099322362E+01
 0.1428805275055E+01
 0.1413154792264E+01
 0.1394429570833E+01
 0.1371857600928E+01
 0.1344633855083E+01
 0.1311943200164E+01
 0.1272974872260E+01
 0.1226943628264E+01
 0.1173117368986E+01
 0.1110848007208E+01
 0.1039605921508E+01
 0.9590172642058E+00
 0.8689046821871E+00
 0.7693303729471E+00
 0.6606241476885E+00
 0.5433758626058E+00
 0.4184453139655E+00
 0.2869937226630E+00
 0.1504797982549E+00
 0.1063331523600E-01
-0.1305905425253E+00
-0.2710766850095E+00
-0.4086237305598E+00
-0.5410228945076E+00
-0.6661185744118E+00
 0.1614499191024E+01
 0.1600584263275E+01
 0.1586321859226E+01
 0.1572002710667E+01
 0.1557895553683E+01
 0.1544230584626E+01
 0.1531184297303E+01
 0.1518867641332E+01
 0.1507318078904E+01
 0.1496495201414E+01
 0.1486278988566E+01
 0.1476469736014E+01
 0.1466788704168E+01
 0.1456879034622E+01
 0.1446307284986E+01
 0.1434564672031E+01
 0.1421069500171E+01
 0.1405171862925E+01
 0.1386159703617E+01
 0.1363268982824E+01
 0.1335702071881E+01
 0.1302650142559E+01
 0.1263311027895E+01
 0.1216912737252E+01
 0.1162741684333E+01
 0.1100173573321E+01
 0.1028707756337E+01
 0.9480042920613E+00
 0.8579240178177E+00
 0.7585702932096E+00
 0.6503155373731E+00
 0.5337920515781E+00
 0.4098977920323E+00
 0.2798223022863E+00
 0.1450385093641E+00
 0.7273026719129E-02
-0.1315411724317E+00
-0.2693296457913E+00
-0.4039470487029E+00
-0.5332506056624E+00
-0.6551536276071E+00
 0.1604651011458E+01
 0.1590961491732E+01
 0.1576961853241E+01
 0.1562930755512E+01
 0.1549123066870E+01
 0.1535755223137E+01
 0.1522991477310E+01
 0.1510932826652E+01
 0.1499609251460E+01
 0.1488975103534E+01
 0.1478906934863E+01
 0.1469202969931E+01
 0.1459583396603E+01
 0.1449691081041E+01
 0.1439093069123E+01
 0.1427281937541E+01
 0.1413678420769E+01
 0.1397636352301E+01
 0.1378448950206E+01
 0.1355358786498E+01
 0.1327574169184E+01
 0.1294291184970E+01
 0.1254714589590E+01
 0.1208083292961E+01
 0.1153698983785E+01
 0.1090956928235E+01
 0.1019380169314E+01
 0.9386563205756E+00
 0.8486770578402E+00
 0.7495787539767E+00
 0.6417677610036E+00
 0.5259099380662E+00
 0.4029331077107E+00
 0.2740485822048E+00
 0.1407396817794E+00
 0.4729602282949E-02
-0.1320670600411E+00
-0.2676085655898E+00
-0.3997941122494E+00
-0.5265330349877E+00
-0.6457928292304E+00
 0.1594885356900E+01
 0.1581382663001E+01
 0.1567608665277E+01
 0.1553831626110E+01
 0.1540294504832E+01
 0.1527201845982E+01
 0.1514707193971E+01
 0.1502902690105E+01
 0.1491811516793E+01
 0.1481383153602E+01
 0.1471490893133E+01
 0.1461930958779E+01
 0.1452422499710E+01
 0.1442608119428E+01
 0.1432055311758E+01
 0.1420257858366E+01
 0.1406638570632E+01
 0.1390554377765E+01
 0.1371302758516E+01
 0.1348131497843E+01
 0.1320253338597E+01
 0.1286867840940E+01
 0.1247184933862E+01
 0.1200451977521E+01
 0.1145982586685E+01
 0.1083187254435E+01
 0.1011607357062E+01
 0.9309516993052E+00
 0.8411355301083E+00
 0.7423203067258E+00
 0.6349380217106E+00
 0.5196797697425E+00
 0.3974956744542E+00
 0.2696130856888E+00
 0.1375227047367E+00
 0.2944722452152E-02
-0.1322204148231E+00
-0.2659557035298E+00
-0.3961937652432E+00
-0.5208828636836E+00
-0.6380308891432E+00
 0.1585195766447E+01
 0.1571842288966E+01
 0.1558258199055E+01
 0.1544702826011E+01
 0.1531408975922E+01
 0.1518571016453E+01
 0.1506333227035E+01
 0.1494779963797E+01
 0.1483928315788E+01
 0.1473723302964E+01
 0.1464035177420E+01
 0.1454658273498E+01
 0.1445310761181E+01
 0.1435635001349E+01
 0.1425198886197E+01
 0.1413497226118E+01
 0.1399954528142E+01
 0.1383930142722E+01
 0.1364724765709E+01
 0.1341589968142E+01
 0.1313741396212E+01
 0.1280380602445E+01
 0.1240720881884E+01
 0.1194015519781E+01
 0.1139586624662E+01
 0.1076855503609E+01
 0.1005376455752E+01
 0.9248731096191E+00
 0.8352770940355E+00
 0.7367671946589E+00
 0.6297930461531E+00
 0.5150630835812E+00
 0.3935427102471E+00
 0.2664701893362E+00
 0.1353411825764E+00
 0.1873768525061E-02
-0.1320412548675E+00
-0.2644036507799E+00
-0.3931686309607E+00
-0.5163107384437E+00
-0.6318651646930E+00
 0.1575575679004E+01
 0.1562334675090E+01
 0.1548905952334E+01
 0.1535541208619E+01
 0.1522464694330E+01
 0.1509862190834E+01
 0.1497870081404E+01
 0.1486565981034E+01
 0.1475961599898E+01
 0.1465997942171E+01
 0.1456542476311E+01
 0.1447387793620E+01
 0.1438251168088E+01
 0.1428774749186E+01
 0.1418526777539E+01
 0.1407002906921E+01
 0.1393628944444E+01
 0.1377765970930E+01
 0.1358716839037E+01
 0.1335735462160E+01
 0.1308038839275E+01
 0.1274829007039E+01
 0.1235320779110E+01
 0.1188770788726E+01
 0.1134506148354E+01
 0.1071954513049E+01
 0.1000677659126E+01
 0.9204076707733E+00
 0.8310854151895E+00
 0.7328993710312E+00
 0.6263090188892E+00
 0.5120325300783E+00
 0.3910439333559E+00
 0.2645876872363E+00
 0.1341623856904E+00
 0.1485202914401E-02
-0.1315580331113E+00
-0.2629758866074E+00
-0.3907355198060E+00
-0.5128254628345E+00
-0.6272955803430E+00
 0.1566018366303E+01
 0.1552853871312E+01
 0.1539546990469E+01
 0.1526342973065E+01
 0.1513458993684E+01
 0.1501073743065E+01
 0.1489317016184E+01
 0.1478260704605E+01
 0.1467911855588E+01
 0.1458207920549E+01
 0.1449013868141E+01
 0.1440120719558E+01
 0.1431244958012E+01
 0.1422028567849E+01
 0.1412040096337E+01
 0.1400775857954E+01
 0.1387662563411E+01
 0.1372062330196E+01
 0.1353279103624E+01
 0.1330567690623E+01
 0.1303144884384E+01
 0.1270211683135E+01
 0.1230982549087E+01
 0.1184714856708E+01
 0.1130737199638E+01
 0.1068479084289E+01
 0.9975042978844E+00
 0.9175470106548E+00
 0.8285502140565E+00
 0.7307045092097E+00
 0.6244715352887E+00
 0.5105717518660E+00
 0.3899813550055E+00
 0.2639464963094E+00
 0.1339668813118E+00
 0.1760153967412E-02
-0.1307880560891E+00
-0.2616871500102E+00
-0.3889057024114E+00
-0.5104341262655E+00
-0.6243245767999E+00
 0.1556516883205E+01
 0.1543393635358E+01
 0.1530175926256E+01
 0.1517103660534E+01
 0.1504388336898E+01
 0.1492202983522E+01
 0.1480672067658E+01
 0.1469862750081E+01
 0.1459778125470E+01
 0.1450352564071E+01
 0.1441448835564E+01
 0.1432856584530E+01
 0.1424291629328E+01
 0.1415395854398E+01
 0.1405738088377E+01
 0.1394815137951E+01
 0.1382054233208E+01
 0.1366817845257E+01
 0.1348409956934E+01
 0.1326084826758E+01
 0.1299057486806E+01
 0.1266526373040E+01
 0.1227703721117E+01
 0.1181845032329E+01
 0.1128276849577E+01
 0.1066426024708E+01
 0.9958528818455E+00
 0.9162873033748E+00
 0.8276672918386E+00
 0.7301780077075E+00
 0.6242755760242E+00
 0.5106753186658E+00
 0.3903491687837E+00
 0.2645404995486E+00
 0.1347483373658E+00
 0.2692195362300E-02
-0.1297377068682E+00
-0.2605436384863E+00
-0.3876850572261E+00
-0.5091421764752E+00
-0.6229570903389E+00
 0.1547064034287E+01
 0.1533947407881E+01
 0.1520786905971E+01
 0.1507818151441E+01
 0.1495248322896E+01
 0.1483246172589E+01
 0.1471932066734E+01
 0.1461369404503E+01
 0.1451558026303E+01
 0.1442429691494E+01
 0.1433845279344E+01
 0.1425593265984E+01
 0.1417388950463E+01
 0.1408874205428E+01
 0.1399618140448E+01
 0.1389117911561E+01
 0.1376800909386E+01
 0.1362029299743E+01
 0.1344106069841E+01
 0.1322283506758E+01
 0.1295773340778E+01
 0.1263769933573E+01
 0.1225481431681E+01
 0.1180158863062E+01
 0.1127123202397E+01
 0.1065794152745E+01
 0.9957231059323E+00
 0.9166292751886E+00
 0.8284385351485E+00
 0.7313229922689E+00
 0.6257255050972E+00
 0.5123487199470E+00
 0.3921537370020E+00
 0.2663765257702E+00
 0.1365134961161E+00
 0.4287315131891E-02
-0.1284024781710E+00
-0.2595430399997E+00
-0.3870740976894E+00
-0.5089534387596E+00
-0.6232005624575E+00
 0.1537652356082E+01
 0.1524508299068E+01
 0.1511373601588E+01
 0.1498480663726E+01
 0.1486033690665E+01
 0.1474198529572E+01
 0.1463092651389E+01
 0.1452776640911E+01
 0.1443247764203E+01
 0.1434435629072E+01
 0.1426199531623E+01
 0.1418326996703E+01
 0.1410532968309E+01
 0.1402459422404E+01
 0.1393675782328E+01
 0.1383679447796E+01
 0.1371897649736E+01
 0.1357691627483E+01
 0.1340362374481E+01
 0.1319158814363E+01
 0.1293287860951E+01
 0.1261938314445E+01
 0.1224312399812E+01
 0.1179654107782E+01
 0.1127275365714E+01
 0.1066584267005E+01
 0.9971178203158E+00
 0.9185781791307E+00
 0.8308719000218E+00
 0.7341503154239E+00
 0.6288350917722E+00
 0.5156084155697E+00
 0.3954136741444E+00
 0.2694744657983E+00
 0.1392823172889E+00
 0.6564073716618E-02
-0.1267668165362E+00
-0.2586743991337E+00
-0.3870678798899E+00
-0.5098700824985E+00
-0.6250649796521E+00
 0.1528274114660E+01
 0.1515069086518E+01
 0.1501929209063E+01
 0.1489084752236E+01
 0.1476738320738E+01
 0.1465054237083E+01
 0.1454148274287E+01
 0.1444079128866E+01
 0.1434842147224E+01
 0.1426365223955E+01
 0.1418506368750E+01
 0.1411052375672E+01
 0.1403718015871E+01
 0.1396145515015E+01
 0.1387904685005E+01
 0.1378493112586E+01
 0.1367337600884E+01
 0.1353797893072E+01
 0.1337172038842E+01
 0.1316704249471E+01
 0.1291595144861E+01
 0.1261026514253E+01
 0.1224192876212E+01
 0.1180328678946E+01
 0.1128733386603E+01
 0.1068799078625E+01
 0.1000042963830E+01
 0.9221437371799E+00
 0.8349813737840E+00
 0.7386785518932E+00
 0.6336275548904E+00
 0.5204819433429E+00
 0.4001600272420E+00
 0.2738675262210E+00
 0.1430882932613E+00
 0.9553954858240E-02
-0.1248037730770E+00
-0.2579178131439E+00
-0.3876557871000E+00
-0.5118925323122E+00
-0.6285629424939E+00
 0.1518921318643E+01
 0.1505622224361E+01
 0.1492446452587E+01
 0.1479623309052E+01
 0.1467355233903E+01
 0.1455806440779E+01
 0.1445092205522E+01
 0.1435270241035E+01
 0.1426334595395E+01
 0.1418211856390E+01
 0.1410759023782E+01
 0.1403762378818E+01
 0.1396936719216E+01
 0.1389924702566E+01
 0.1382296655149E+01
 0.1373550355385E+01
 0.1363111976563E+01
 0.1350339261646E+01
 0.1334526428007E+01
 0.1314911680722E+01
 0.1290687916436E+01
 0.1261028514087E+01
 0.1225118566063E+01
 0.1182180554219E+01
 0.1131498153055E+01
 0.1072443106077E+01
 0.1004507459298E+01
 0.9273400479866E+00
 0.8407869122466E+00
 0.7449339869995E+00
 0.6401356269110E+00
 0.5270080818242E+00
 0.4064365534211E+00
 0.2796026237310E+00
 0.1479789424388E+00
 0.1330191810061E-01
-0.1224744507964E+00
-0.2572439482220E+00
-0.3888211836111E+00
-0.5150193184164E+00
-0.6337097626306E+00
 0.1509585748171E+01
 0.1496159863953E+01
 0.1482917594835E+01
 0.1470088564603E+01
 0.1457876587001E+01
 0.1446447244405E+01
 0.1435916530632E+01
 0.1426342056152E+01
 0.1417717148749E+01
 0.1409967451386E+01
 0.1402949199401E+01
 0.1396448370354E+01
 0.1390180004450E+01
 0.1383787414106E+01
 0.1376841626420E+01
 0.1368840690364E+01
 0.1359210027976E+01
 0.1347304958188E+01
 0.1332415052334E+01
 0.1313771282301E+01
 0.1290557450676E+01
 0.1261937188805E+01
 0.1227084525386E+01
 0.1185207657047E+01
 0.1135571259759E+01
 0.1077522530540E+01
 0.1010523067907E+01
 0.9341854561739E+00
 0.8483143471758E+00
 0.7529505923578E+00
 0.6484016320944E+00
 0.5352370641839E+00
 0.4143000934295E+00
 0.2867409233019E+00
 0.1540164892595E+00
 0.1786716587852E-01
-0.1197272329737E+00
-0.2566133611301E+00
-0.3905409249760E+00
-0.5192468594601E+00
-0.6405235790325E+00
 0.1500259000323E+01
 0.1486673886174E+01
 0.1473334452598E+01
 0.1460472088398E+01
 0.1448293664337E+01
 0.1436967698665E+01
 0.1426612142558E+01
 0.1417285357254E+01
 0.1408980472360E+01
 0.1401622488960E+01
 0.1395067080405E+01
 0.1389100113936E+01
 0.1383437103926E+01
 0.1377722286468E+01
 0.1371527646825E+01
 0.1364351671387E+01
 0.1355619005567E+01
 0.1344682215851E+01
 0.1330825502316E+01
 0.1313271455045E+01
 0.1291193480024E+01
 0.1263744196829E+01
 0.1230085032073E+01
 0.1189407707411E+01
 0.1140954839299E+01
 0.1084045012474E+01
 0.1018104202485E+01
 0.9427023820367E+00
 0.8575952618307E+00
 0.7627699859911E+00
 0.6584775762729E+00
 0.5452308424410E+00
 0.4238210443332E+00
 0.2953585292346E+00
 0.1612787466425E+00
 0.2332414676163E-01
-0.1164967688462E+00
-0.2559756044904E+00
-0.3927847104140E+00
-0.5245691647306E+00
-0.6490255096013E+00
 0.1490932552977E+01
 0.1477155946543E+01
 0.1463688418360E+01
 0.1450764789464E+01
 0.1438596864675E+01
 0.1427357784087E+01
 0.1417168728110E+01
 0.1408089626184E+01
 0.1400113859797E+01
 0.1393166014639E+01
 0.1387101347579E+01
 0.1381705785440E+01
 0.1376695563419E+01
 0.1371716161832E+01
 0.1366340863515E+01
 0.1360068861983E+01
 0.1352324113149E+01
 0.1342456214055E+01
 0.1329743370705E+01
 0.1313398732305E+01
 0.1292584082714E+01
 0.1266439848575E+01
 0.1234113431318E+01
 0.1194778041825E+01
 0.1147651356851E+01
 0.1092019466109E+01
 0.1027267694588E+01
 0.9529171044865E+00
 0.8686668253563E+00
 0.7744413661739E+00
 0.6704252373880E+00
 0.5570633934046E+00
 0.4350839279108E+00
 0.3055473339642E+00
 0.1698602161612E+00
 0.2976381967018E-01
-0.1127026866389E+00
-0.2552680880191E+00
-0.3955142544087E+00
-0.5309774480622E+00
-0.6592397964180E+00
 0.1481597848185E+01
 0.1467597533737E+01
 0.1453970487286E+01
 0.1440956915184E+01
 0.1428775682270E+01
 0.1417606386634E+01
 0.1407574748278E+01
 0.1398743034328E+01
 0.1391105235483E+01
 0.1384585651074E+01
 0.1379039194052E+01
 0.1374251988596E+01
 0.1369941251535E+01
 0.1365754086023E+01
 0.1361265506131E+01
 0.1355975801212E+01
 0.1349308455137E+01
 0.1340610006945E+01
 0.1329152162446E+01
 0.1314137671090E+01
 0.1294715553599E+01
 0.1270012953814E+01
 0.1239161955369E+01
 0.1201315401800E+01
 0.1155663366392E+01
 0.1101455788091E+01
 0.1038032509334E+01
 0.9648594883685E+00
 0.8815715742695E+00
 0.7880214049288E+00
 0.6843162419997E+00
 0.5708210536303E+00
 0.4481880481338E+00
 0.3174160285729E+00
 0.1798734237789E+00
 0.3729521040897E-01
-0.1082479954645E+00
-0.2544146598742E+00
-0.3986822545115E+00
-0.5384596285385E+00
-0.6711939674399E+00
 0.1472246397987E+01
 0.1457990042706E+01
 0.1444171289136E+01
 0.1431038046690E+01
 0.1418818679515E+01
 0.1407701263652E+01
 0.1397817410382E+01
 0.1389232428095E+01
 0.1381941154841E+01
 0.1375867609890E+01
 0.1370866343320E+01
 0.1366723772614E+01
 0.1363158370409E+01
 0.1359819306468E+01
 0.1356283867486E+01
 0.1352053964159E+01
 0.1346552975612E+01
 0.1339124441122E+01
 0.1329033191645E+01
 0.1315470728259E+01
 0.1297572257863E+01
 0.1274450649074E+01
 0.1245221519235E+01
 0.1209015692618E+01
 0.1164993230065E+01
 0.1112364541119E+01
 0.1050419407271E+01
 0.9785626532577E+00
 0.8963571355842E+00
 0.8035740935103E+00
 0.7002321194066E+00
 0.5866028773656E+00
 0.4632482386039E+00
 0.3310912882899E+00
 0.1914505215439E+00
 0.4604730803784E-01
-0.1030171202713E+00
-0.2533238616704E+00
-0.4022311289290E+00
-0.5469997149624E+00
-0.6849189678410E+00
 0.1462869915855E+01
 0.1448324864148E+01
 0.1434281124981E+01
 0.1420997089398E+01
 0.1408713449430E+01
 0.1397628998972E+01
 0.1387882631870E+01
 0.1379543309937E+01
 0.1372606803846E+01
 0.1366996705894E+01
 0.1362567071343E+01
 0.1359104654340E+01
 0.1356329470176E+01
 0.1353893272153E+01
 0.1351376283655E+01
 0.1348282718729E+01
 0.1344036390496E+01
 0.1337978063562E+01
 0.1329365466281E+01
 0.1317378122322E+01
 0.1301136468087E+01
 0.1279738205296E+01
 0.1252281492022E+01
 0.1217873711106E+01
 0.1175642797769E+01
 0.1124756587249E+01
 0.1064450544660E+01
 0.9940625709338E+00
 0.9130758741000E+00
 0.8211705181025E+00
 0.7182643092087E+00
 0.6045209948821E+00
 0.4803956850721E+00
 0.3467191337549E+00
 0.2047451797789E+00
 0.5617135277932E-01
-0.9687350135562E-01
-0.2518867977455E+00
-0.4060915005370E+00
-0.5565770615965E+00
-0.7004492421950E+00
 0.1453460477737E+01
 0.1438593491995E+01
 0.1424290007454E+01
 0.1410822255372E+01
 0.1398446564040E+01
 0.1387374943629E+01
 0.1377754993209E+01
 0.1369659813364E+01
 0.1363085997184E+01
 0.1357956373275E+01
 0.1354124232567E+01
 0.1351376644819E+01
 0.1349435467100E+01
 0.1347955635393E+01
 0.1346521113174E+01
 0.1344639278375E+01
 0.1341735112457E+01
 0.1337147019524E+01
 0.1330125560915E+01
 0.1319837681872E+01
 0.1305388186613E+01
 0.1285858818635E+01
 0.1260329447574E+01
 0.1227882846487E+01
 0.1187613050802E+01
 0.1138642673548E+01
 0.1080149012601E+01
 0.1011397588491E+01
 0.9317844563219E+00
 0.8408885535489E+00
 0.7385141070042E+00
 0.6247009567965E+00
 0.4997788163964E+00
 0.3644664784375E+00
 0.2199348080752E+00
 0.6784358968132E-01
-0.8965665829113E-01
-0.2499745369861E+00
-0.4101804120142E+00
-0.5671655349623E+00
-0.7178227030402E+00
 0.1444010718763E+01
 0.1428787651712E+01
 0.1414187703830E+01
 0.1400501034365E+01
 0.1388003504876E+01
 0.1376923139287E+01
 0.1367417678417E+01
 0.1359564671877E+01
 0.1353361175850E+01
 0.1348728685167E+01
 0.1345519291402E+01
 0.1343520281861E+01
 0.1342455666843E+01
 0.1341984256687E+01
 0.1341694716316E+01
 0.1341098651299E+01
 0.1339623168694E+01
 0.1336604940398E+01
 0.1331287477398E+01
 0.1322824681004E+01
 0.1310304954129E+01
 0.1292793385903E+01
 0.1269350896232E+01
 0.1239034755931E+01
 0.1200903710315E+01
 0.1154032969007E+01
 0.1097538310768E+01
 0.1030607868146E+01
 0.9525433159797E+00
 0.8628124534625E+00
 0.7610925214280E+00
 0.6472820371115E+00
 0.5215642447388E+00
 0.3845228628021E+00
 0.2372231401420E+00
 0.8126857444412E-01
-0.8117858065680E-01
-0.2474349224926E+00
-0.4143992770055E+00
-0.5787326906467E+00
-0.7370805595837E+00
 0.1434514072718E+01
 0.1418899452777E+01
 0.1403963780724E+01
 0.1390020149495E+01
 0.1377368571238E+01
 0.1366256221537E+01
 0.1356852402588E+01
 0.1349239183112E+01
 0.1343413406844E+01
 0.1339294379894E+01
 0.1336732362828E+01
 0.1335514672290E+01
 0.1335367796461E+01
 0.1335955215947E+01
 0.1336871437172E+01
 0.1337633588091E+01
 0.1337672112667E+01
 0.1336322821662E+01
 0.1332822493126E+01
 0.1326311660882E+01
 0.1315861643375E+01
 0.1300520263170E+01
 0.1279328995444E+01
 0.1251319011147E+01
 0.1215512804602E+01
 0.1170936543223E+01
 0.1116641741135E+01
 0.1051734722093E+01
 0.9754159905224E+00
 0.8870322960822E+00
 0.7861199930825E+00
 0.6724174422392E+00
 0.5459377094847E+00
 0.4071023527430E+00
 0.2568432002390E+00
 0.9668311771379E-01
-0.7121926382369E-01
-0.2440885765060E+00
-0.4186315859518E+00
-0.5912392710527E+00
-0.7582668785628E+00
 0.1424965063421E+01
 0.1408921568832E+01
 0.1393607647344E+01
 0.1379365490400E+01
 0.1366524758389E+01
 0.1355355296984E+01
 0.1346039322799E+01
 0.1338663166570E+01
 0.1333222384481E+01
 0.1329632893959E+01
 0.1327742262256E+01
 0.1327337544059E+01
 0.1328148045271E+01
 0.1329842830173E+01
 0.1332023588424E+01
 0.1334214527382E+01
 0.1335850929082E+01
 0.1336268890317E+01
 0.1334698996723E+01
 0.1330268238485E+01
 0.1322030240605E+01
 0.1309015011894E+01
 0.1290244245159E+01
 0.1264722722981E+01
 0.1231436202443E+01
 0.1189360793112E+01
 0.1137481725226E+01
 0.1074819840696E+01
 0.1000468318669E+01
 0.9136432651363E+00
 0.8137259439067E+00
 0.7002743873813E+00
 0.5731049927872E+00
 0.4324455902607E+00
 0.2790606879543E+00
 0.1143609606626E+00
-0.5952113364460E-01
-0.2397237276306E+00
-0.4227402760672E+00
-0.6046399414001E+00
-0.7814278771418E+00
 0.1415359661187E+01
 0.1398847450791E+01
 0.1383108594390E+01
 0.1368522015995E+01
 0.1355453597624E+01
 0.1344199788952E+01
 0.1334956930715E+01
 0.1327814915948E+01
 0.1322766435795E+01
 0.1319722404734E+01
 0.1318526567725E+01
 0.1318965311199E+01
 0.1320771117436E+01
 0.1323619680120E+01
 0.1327121440785E+01
 0.1330809540617E+01
 0.1334125932169E+01
 0.1336408460890E+01
 0.1336882309857E+01
 0.1334660901424E+01
 0.1328779614337E+01
 0.1318250132837E+01
 0.1302074168631E+01
 0.1279230144401E+01
 0.1248667111678E+01
 0.1209310814289E+01
 0.1160079037008E+01
 0.1099904398695E+01
 0.1027767472399E+01
 0.9427447243746E+00
 0.8440480986618E+00
 0.7310339723173E+00
 0.6032927334964E+00
 0.4608219681324E+00
 0.3041777615775E+00
 0.1346183287252E+00
-0.4578226669673E-01
-0.2340889233058E+00
-0.4265646852905E+00
-0.6188863480026E+00
-0.8066137960070E+00
 0.1405695719467E+01
 0.1388671577484E+01
 0.1372455821680E+01
 0.1357473613028E+01
 0.1344134944225E+01
 0.1332767241791E+01
 0.1323581921076E+01
 0.1316671143126E+01
 0.1312022528386E+01
 0.1309539881467E+01
 0.1309061692912E+01
 0.1310373150117E+01
 0.1313210294997E+01
 0.1317256644997E+01
 0.1322133216359E+01
 0.1327384275246E+01
 0.1332460656685E+01
 0.1336703780119E+01
 0.1339334496883E+01
 0.1339452793381E+01
 0.1336075279802E+01
 0.1328194800547E+01
 0.1314792995821E+01
 0.1294822273076E+01
 0.1267195567639E+01
 0.1230788744097E+01
 0.1184451978771E+01
 0.1127028063732E+01
 0.1057380839619E+01
 0.9744390874005E+00
 0.8772315628714E+00
 0.7648908187555E+00
 0.6367491153599E+00
 0.4925318677629E+00
 0.3325374090463E+00
 0.1578201088819E+00
-0.2964733136998E-01
-0.2268848752397E+00
-0.4299106839854E+00
-0.6339435985366E+00
-0.8338750968197E+00
 0.1395973517649E+01
 0.1378389751629E+01
 0.1361638451255E+01
 0.1346202897075E+01
 0.1332546702447E+01
 0.1321033079705E+01
 0.1311889037967E+01
 0.1305206920091E+01
 0.1300966288602E+01
 0.1299061152744E+01
 0.1299322978843E+01
 0.1301535094792E+01
 0.1305437518540E+01
 0.1310722951719E+01
 0.1317025091130E+01
 0.1323901899385E+01
 0.1330815741848E+01
 0.1337113857461E+01
 0.1342014156968E+01
 0.1344603483103E+01
 0.1343879150918E+01
 0.1338814589116E+01
 0.1328371338313E+01
 0.1311476439691E+01
 0.1287007893642E+01
 0.1253793053152E+01
 0.1210615469372E+01
 0.1156227865636E+01
 0.1089374698905E+01
 0.1008830400384E+01
 0.9134275425512E+00
 0.8020523335306E+00
 0.6737442484254E+00
 0.5279089285700E+00
 0.3645280010937E+00
 0.1843879748688E+00
-0.1069993725228E-01
-0.2177449656495E+00
-0.4325553364218E+00
-0.6497592552851E+00
-0.8634009000756E+00
 0.1386196444980E+01
 0.1367999434850E+01
 0.1350645527342E+01
 0.1334690922236E+01
 0.1320664473316E+01
 0.1308970307670E+01
 0.1299850897752E+01
 0.1293395621539E+01
 0.1289572034780E+01
 0.1288260995125E+01
 0.1289284808759E+01
 0.1292424155339E+01
 0.1297423490278E+01
 0.1303986243703E+01
 0.1311761211203E+01
 0.1320323051423E+01
 0.1329148809711E+01
 0.1337594281105E+01
 0.1344876197318E+01
 0.1350068715953E+01
 0.1352149280206E+01
 0.1350071191263E+01
 0.1342775858835E+01
 0.1329165885082E+01
 0.1308086135488E+01
 0.1278317785031E+01
 0.1238580040005E+01
 0.1187536912800E+01
 0.1123812657913E+01
 0.1046022579711E+01
 0.9527916147248E+00
 0.8427374498914E+00
 0.7145701134394E+00
 0.5673220428283E+00
 0.4005885825002E+00
 0.2148080993902E+00
 0.1155341519647E-01
-0.2062386201901E+00
-0.4341580326732E+00
-0.6664690952131E+00
-0.8950100657033E+00
 0.1376367046086E+01
 0.1357494831169E+01
 0.1339457297744E+01
 0.1322905407111E+01
 0.1308446584367E+01
 0.1296531589741E+01
 0.1287417320716E+01
 0.1281185815399E+01
 0.1277787635036E+01
 0.1277086498330E+01
 0.1278893161476E+01
 0.1282984892070E+01
 0.1289111270931E+01
 0.1296988401245E+01
 0.1306283169531E+01
 0.1316590672640E+01
 0.1327406641163E+01
 0.1338099003495E+01
 0.1347885727964E+01
 0.1355829051978E+01
 0.1360885922351E+01
 0.1361988628069E+01
 0.1358058362707E+01
 0.1347974434339E+01
 0.1330550907855E+01
 0.1304525936221E+01
 0.1268557712390E+01
 0.1221224102697E+01
 0.1161029600413E+01
 0.1086426684479E+01
 0.9958215412346E+00
 0.8875397541997E+00
 0.7599204111748E+00
 0.6115592575565E+00
 0.4415787000044E+00
 0.2499649355387E+00
 0.3794483059696E-01
-0.1916801568588E+00
-0.4343530200719E+00
-0.6838050328600E+00
-0.9321759568738E+00
 0.1366505673903E+01
 0.1346882079731E+01
 0.1328066609451E+01
 0.1310826420592E+01
 0.1295864990700E+01
 0.1283685379254E+01
 0.1274556523968E+01
 0.1268546963688E+01
 0.1265583861618E+01
 0.1265508941193E+01
 0.1268118605513E+01
 0.1273185825205E+01
 0.1280466056419E+01
 0.1289690232457E+01
 0.1300546709782E+01
 0.1312655348588E+01
 0.1325535321084E+01
 0.1338571065252E+01
 0.1350984844290E+01
 0.1361828064709E+01
 0.1370036481201E+01
 0.1374520115188E+01
 0.1374179635824E+01
 0.1367872406328E+01
 0.1354384747582E+01
 0.1332416192454E+01
 0.1300569006282E+01
 0.1257339747262E+01
 0.1201116403056E+01
 0.1130188219030E+01
 0.1042734950929E+01
 0.9367690807074E+00
 0.8102169049807E+00
 0.6611678648800E+00
 0.4881698156188E+00
 0.2906266585009E+00
 0.6927785357833E-01
-0.1733351672918E+00
-0.4325664915082E+00
-0.7016892903168E+00
-0.9738503034829E+00
 0.1356628092565E+01
 0.1336168403613E+01
 0.1316465294993E+01
 0.1298434596378E+01
 0.1282895546120E+01
 0.1270408847774E+01
 0.1261250610583E+01
 0.1255467167432E+01
 0.1252954030738E+01
 0.1253525037554E+01
 0.1256958963793E+01
 0.1263023422054E+01
 0.1271480453487E+01
 0.1282078034878E+01
 0.1294529558764E+01
 0.1308484344639E+01
 0.1323490314220E+01
 0.1338953408061E+01
 0.1354103707040E+01
 0.1367982953225E+01
 0.1379504622951E+01
 0.1387554653112E+01
 0.1391012514625E+01
 0.1388715128155E+01
 0.1379424948409E+01
 0.1361808812142E+01
 0.1334420396561E+01
 0.1295682885810E+01
 0.1243875157911E+01
 0.1177128218244E+01
 0.1093394324803E+01
 0.9903588302199E+00
 0.8654989416560E+00
 0.7163286758209E+00
 0.5407105013733E+00
 0.3373129539883E+00
 0.1062089259275E+00
-0.1504882350165E+00
-0.4281292596578E+00
-0.7196811486198E+00
-0.1016762897469E+01
 0.1346761581262E+01
 0.1325363073504E+01
 0.1304640269487E+01
 0.1285698951434E+01
 0.1269498184843E+01
 0.1256660477652E+01
 0.1247461046402E+01
 0.1241912212046E+01
 0.1239867591992E+01
 0.1241106307485E+01
 0.1245385944377E+01
 0.1252467699967E+01
 0.1262121031354E+01
 0.1274113389954E+01
 0.1288187156121E+01
 0.1304026447175E+01
 0.1321214157388E+01
 0.1339183762509E+01
 0.1357177524994E+01
 0.1374228981374E+01
 0.1389227855741E+01
 0.1401033397604E+01
 0.1408502593291E+01
 0.1410453375531E+01
 0.1405628856147E+01
 0.1392670408348E+01
 0.1370092390034E+01
 0.1336255163390E+01
 0.1289339430565E+01
 0.1227327720223E+01
 0.1147949833079E+01
 0.1048556816889E+01
 0.9261458909063E+00
 0.7775862506902E+00
 0.5999318380549E+00
 0.3909320397986E+00
 0.1497616831155E+00
-0.1221203942292E+00
-0.4202388699338E+00
-0.7369213666894E+00
-0.1061915533538E+01
 0.1336944074490E+01
 0.1314480238621E+01
 0.1292576581885E+01
 0.1272582775056E+01
 0.1255626342096E+01
 0.1242393528210E+01
 0.1233145929830E+01
 0.1227846098406E+01
 0.1226293251317E+01
 0.1228224086158E+01
 0.1233371278450E+01
 0.1241488645804E+01
 0.1252354039659E+01
 0.1265757018647E+01
 0.1281473270043E+01
 0.1299227725712E+01
 0.1318645528026E+01
 0.1339194993359E+01
 0.1360136005779E+01
 0.1380495737767E+01
 0.1399138152941E+01
 0.1414892121829E+01
 0.1426589946279E+01
 0.1433031803666E+01
 0.1432946601855E+01
 0.1424958857781E+01
 0.1407554916268E+01
 0.1379045637562E+01
 0.1337528312242E+01
 0.1280852198087E+01
 0.1206537232458E+01
 0.1111602435772E+01
 0.9925435202999E+00
 0.8455198093246E+00
 0.6666444082964E+00
 0.4525301428544E+00
 0.2011595195380E+00
-0.8698809321780E-01
-0.4078050914536E+00
-0.7529085010883E+00
-0.1109970408652E+01
 0.1327227482929E+01
 0.1303539833478E+01
 0.1280256263422E+01
 0.1259041571776E+01
 0.1241225299889E+01
 0.1227555168484E+01
 0.1218259786670E+01
 0.1213231190710E+01
 0.1212199248875E+01
 0.1214849829569E+01
 0.1220887026710E+01
 0.1230056522713E+01
 0.1242145713997E+01
 0.1256969064113E+01
 0.1274340204892E+01
 0.1294031589614E+01
 0.1315719084982E+01
 0.1338914722434E+01
 0.1362902850940E+01
 0.1386706648764E+01
 0.1409161602633E+01
 0.1429061020364E+01
 0.1445209006876E+01
 0.1456388767692E+01
 0.1461320726333E+01
 0.1458622603011E+01
 0.1446766169771E+01
 0.1424028957311E+01
 0.1388443607842E+01
 0.1337747292205E+01
 0.1269271629482E+01
 0.1179718274597E+01
 0.1065074324454E+01
 0.9207353956274E+00
 0.7417383697076E+00
 0.5233090688249E+00
 0.2618629752248E+00
-0.4353937740484E-01
-0.3895119976494E+00
-0.7670525530919E+00
-0.1161512656446E+01
 0.1317682173015E+01
 0.1292568683563E+01
 0.1267656408794E+01
 0.1245020222228E+01
 0.1226230080748E+01
 0.1212085543090E+01
 0.1202753467898E+01
 0.1198028485821E+01
 0.1197553721748E+01
 0.1200955473258E+01
 0.1207905923402E+01
 0.1218142213566E+01
 0.1231462628101E+01
 0.1247709436502E+01
 0.1266739079685E+01
 0.1288378900583E+01
 0.1312365317051E+01
 0.1338264893096E+01
 0.1365395146657E+01
 0.1392778396070E+01
 0.1419218020537E+01
 0.1443464551631E+01
 0.1464288537604E+01
 0.1480456253539E+01
 0.1490685908282E+01
 0.1493600045265E+01
 0.1487671535361E+01
 0.1471163612537E+01
 0.1442067027772E+01
 0.1398034319850E+01
 0.1336240488282E+01
 0.1253099929018E+01
 0.1144104483431E+01
 0.1003852951989E+01
 0.8261785582482E+00
 0.6046408823528E+00
 0.3336221878493E+00
 0.1015422274843E-01
-0.3636831514866E+00
-0.7785401208114E+00
-0.1217118642950E+01
 0.1308403201109E+01
 0.1281601713650E+01
 0.1254746114305E+01
 0.1230449002111E+01
 0.1210562824868E+01
 0.1195916843427E+01
 0.1186574237933E+01
 0.1182198046642E+01
 0.1182325163732E+01
 0.1186513844772E+01
 0.1194401755869E+01
 0.1205717599015E+01
 0.1220272094126E+01
 0.1237938229296E+01
 0.1258620197228E+01
 0.1282208165633E+01
 0.1308510413506E+01
 0.1337161265014E+01
 0.1367522615005E+01
 0.1398620200470E+01
 0.1429220508925E+01
 0.1458021328488E+01
 0.1483751719824E+01
 0.1505159949334E+01
 0.1520968820325E+01
 0.1529819048599E+01
 0.1530202628283E+01
 0.1520390318294E+01
 0.1498357499300E+01
 0.1461705736478E+01
 0.1407496065869E+01
 0.1331904066519E+01
 0.1229966922623E+01
 0.1095486759182E+01
 0.9209909767319E+00
 0.6980790126169E+00
 0.4185317601231E+00
 0.7651378915716E-01
-0.3281154077121E+00
-0.7862053128809E+00
-0.1277422408520E+01
 0.1299519188373E+01
 0.1270683120708E+01
 0.1241481585052E+01
 0.1215237987472E+01
 0.1194129608162E+01
 0.1178972539466E+01
 0.1169666175418E+01
 0.1165699644147E+01
 0.1166482988814E+01
 0.1171499127348E+01
 0.1180349775273E+01
 0.1192755965818E+01
 0.1208542609893E+01
 0.1227616215720E+01
 0.1249933528158E+01
 0.1275455845795E+01
 0.1304076181388E+01
 0.1335512828250E+01
 0.1369186677412E+01
 0.1404132916427E+01
 0.1439074935166E+01
 0.1472644069849E+01
 0.1503516399049E+01
 0.1530419495236E+01
 0.1552088139016E+01
 0.1567196571917E+01
 0.1574276474043E+01
 0.1571630598142E+01
 0.1557248734935E+01
 0.1528720779237E+01
 0.1483047584706E+01
 0.1416234991110E+01
 0.1322940244463E+01
 0.1196217355706E+01
 0.1027236845215E+01
 0.8053579514592E+00
 0.5190929457443E+00
 0.1586085638533E+00
-0.2798524897007E+00
-0.7883552885364E+00
-0.1343172739546E+01
 0.1291205264593E+01
 0.1259867192642E+01
 0.1227798249683E+01
 0.1199269193530E+01
 0.1176816765633E+01
 0.1161167057925E+01
 0.1151971047832E+01
 0.1148493644953E+01
 0.1149998198295E+01
 0.1155887371827E+01
 0.1165727135154E+01
 0.1179232441552E+01
 0.1196244351377E+01
 0.1216705434168E+01
 0.1240629341118E+01
 0.1268056833101E+01
 0.1298980053995E+01
 0.1333221130411E+01
 0.1370279263981E+01
 0.1409207855441E+01
 0.1448679287478E+01
 0.1487239625883E+01
 0.1523495528158E+01
 0.1556148949644E+01
 0.1583954722797E+01
 0.1605638419187E+01
 0.1619794816582E+01
 0.1624785595056E+01
 0.1618647175743E+01
 0.1599001539557E+01
 0.1562853533761E+01
 0.1506130200340E+01
 0.1423223675641E+01
 0.1306553424542E+01
 0.1145968293914E+01
 0.9283724044127E+00
 0.6382746829052E+00
 0.2603578038447E+00
-0.2148590642361E+00
-0.7824931487604E+00
-0.1415290364653E+01
 0.1283702474651E+01
 0.1249218041896E+01
 0.1213597883123E+01
 0.1182385573015E+01
 0.1158487036004E+01
 0.1142406383265E+01
 0.1133429826606E+01
 0.1130542139141E+01
 0.1132844126837E+01
 0.1139657036732E+01
 0.1150513337244E+01
 0.1165124433666E+01
 0.1183349687979E+01
 0.1205169849979E+01
 0.1230658997635E+01
 0.1259945155040E+01
 0.1293135253618E+01
 0.1330179513927E+01
 0.1370681275976E+01
 0.1413725223488E+01
 0.1457922862114E+01
 0.1501709124905E+01
 0.1543597910988E+01
 0.1582257580033E+01
 0.1616472046635E+01
 0.1645039177418E+01
 0.1666643632654E+01
 0.1679735254072E+01
 0.1682430594143E+01
 0.1672429952960E+01
 0.1646814840977E+01
 0.1601545988881E+01
 0.1530909243382E+01
 0.1426883358634E+01
 0.1278159713456E+01
 0.1069120560714E+01
 0.7795562151963E+00
 0.3867867428030E+00
-0.1275349844167E+00
-0.7648522353104E+00
-0.1494925120516E+01
 0.1277347857147E+01
 0.1238806613580E+01
 0.1198727227196E+01
 0.1164375848704E+01
 0.1138976437713E+01
 0.1122590341817E+01
 0.1113984973684E+01
 0.1111810268405E+01
 0.1114997257598E+01
 0.1122789557906E+01
 0.1134690686193E+01
 0.1150412073980E+01
 0.1169833717301E+01
 0.1192976094145E+01
 0.1219975948806E+01
 0.1251055009516E+01
 0.1286451233903E+01
 0.1326272291255E+01
 0.1370260570519E+01
 0.1417551981514E+01
 0.1466685177659E+01
 0.1515948258442E+01
 0.1563729312027E+01
 0.1608651016915E+01
 0.1649536868982E+01
 0.1685282248481E+01
 0.1714692712249E+01
 0.1736337761384E+01
 0.1748447364511E+01
 0.1748845920189E+01
 0.1734769401435E+01
 0.1702343996553E+01
 0.1645952784070E+01
 0.1557417807587E+01
 0.1424609201820E+01
 0.1229588120511E+01
 0.9469154639988E+00
 0.5443341628463E+00
-0.9978390556200E-02
-0.7295833980952E+00
-0.1583491193940E+01
 0.1272622968455E+01
 0.1228701192004E+01
 0.1182941734216E+01
 0.1144954362546E+01
 0.1118094006056E+01
 0.1101617561571E+01
 0.1093583408824E+01
 0.1092267646192E+01
 0.1096438093767E+01
 0.1105269933556E+01
 0.1118244741596E+01
 0.1135078658037E+01
 0.1155674799404E+01
 0.1180094251180E+01
 0.1208536944031E+01
 0.1241322251159E+01
 0.1278834600417E+01
 0.1321373935674E+01
 0.1368869289426E+01
 0.1420538848224E+01
 0.1474834486377E+01
 0.1529847777196E+01
 0.1583794081604E+01
 0.1635232884847E+01
 0.1683040173963E+01
 0.1726239938333E+01
 0.1763795203165E+01
 0.1794429165774E+01
 0.1816516504512E+01
 0.1828046939727E+01
 0.1826488699691E+01
 0.1808279952291E+01
 0.1768146263260E+01
 0.1698127924597E+01
 0.1585810071588E+01
 0.1411543922719E+01
 0.1144694223330E+01
 0.7411750194761E+00
 0.1491386652654E+00
-0.6672854064466E+00
-0.1682593536350E+01
 0.1270236281287E+01
 0.1218942400783E+01
 0.1165842561634E+01
 0.1123736811654E+01
 0.1095628919969E+01
 0.1079393897198E+01
 0.1072179592483E+01
 0.1071889773695E+01
 0.1077152077277E+01
 0.1087087283210E+01
 0.1101164743224E+01
 0.1119111054678E+01
 0.1140855053518E+01
 0.1166498630893E+01
 0.1196303404831E+01
 0.1230686449764E+01
 0.1270190821563E+01
 0.1315348463933E+01
 0.1366340273833E+01
 0.1422515992254E+01
 0.1482225693213E+01
 0.1543294349138E+01
 0.1603697553372E+01
 0.1661907106682E+01
 0.1716868509403E+01
 0.1767773644089E+01
 0.1813787059765E+01
 0.1853823131521E+01
 0.1886428701287E+01
 0.1909789842348E+01
 0.1921677527587E+01
 0.1918996289419E+01
 0.1897094231032E+01
 0.1848687255861E+01
 0.1761805484074E+01
 0.1616223507940E+01
 0.1377217267918E+01
 0.9874282127475E+00
 0.3662664129809E+00
-0.5622502935536E+00
-0.1793568817992E+01
 0.1271272837942E+01
 0.1209479701168E+01
 0.1146764260130E+01
 0.1100219442470E+01
 0.1071373506643E+01
 0.1055843255366E+01
 0.1049737641665E+01
 0.1050659638259E+01
 0.1057130507133E+01
 0.1068235346542E+01
 0.1083444012477E+01
 0.1102500077443E+01
 0.1125360806103E+01
 0.1152168459319E+01
 0.1183242850378E+01
 0.1219093622272E+01
 0.1260427251062E+01
 0.1308049428396E+01
 0.1362482200659E+01
 0.1423286641819E+01
 0.1488697368217E+01
 0.1556172018058E+01
 0.1623349537181E+01
 0.1688581038536E+01
 0.1750905764084E+01
 0.1809734082061E+01
 0.1864486125221E+01
 0.1914310420232E+01
 0.1957948236935E+01
 0.1993795097340E+01
 0.2019977417544E+01
 0.2034020143976E+01
 0.2032196913735E+01
 0.2008423417649E+01
 0.1952057720896E+01
 0.1843917495639E+01
 0.1647976486890E+01
 0.1294881568357E+01
 0.6654161733249E+00
-0.3871213705117E+00
-0.1915787477055E+01
 0.1277492108228E+01
 0.1200004632423E+01
 0.1124571164958E+01
 0.1073792278461E+01
 0.1045173508910E+01
 0.1030913634469E+01
 0.1026232330437E+01
 0.1028570019260E+01
 0.1036371121564E+01
 0.1048712961509E+01
 0.1065080298053E+01
 0.1085240787943E+01
 0.1109182973466E+01
 0.1137088417261E+01
 0.1169330113430E+01
 0.1206499543323E+01
 0.1249458246487E+01
 0.1299321443956E+01
 0.1357072923314E+01
 0.1422617236930E+01
 0.1494067391143E+01
 0.1568364780673E+01
 0.1642669447152E+01
 0.1715169653793E+01
 0.1785035495471E+01
 0.1851961680045E+01
 0.1915690646401E+01
 0.1975657559170E+01
 0.2030815660416E+01
 0.2079754703781E+01
 0.2120974801051E+01
 0.2152767358592E+01
 0.2172645604649E+01
 0.2176279212843E+01
 0.2155364660301E+01
 0.2093603274689E+01
 0.1958203613767E+01
 0.1675315940972E+01
 0.1081148730790E+01
-0.9217630765977E-01
-0.2041191783335E+01
 0.1292001418679E+01
 0.1189471652349E+01
 0.1097299220535E+01
 0.1043890186108E+01
 0.1016998254170E+01
 0.1004561272182E+01
 0.1001655707866E+01
 0.1005625086962E+01
 0.1014878216006E+01
 0.1028524736948E+01
 0.1046075962968E+01
 0.1067332785348E+01
 0.1092317373706E+01
 0.1121249085412E+01
 0.1154548025005E+01
 0.1192873041517E+01
 0.1237213473406E+01
 0.1289005432586E+01
 0.1349850363102E+01
 0.1420221479636E+01
 0.1498126570780E+01
 0.1579761329208E+01
 0.1661593779778E+01
 0.1741600843905E+01
 0.1819143706205E+01
 0.1894287243605E+01
 0.1967176969244E+01
 0.2037603158106E+01
 0.2104750530481E+01
 0.2167344048142E+01
 0.2224216677516E+01
 0.2274548336743E+01
 0.2317435610167E+01
 0.2350798061448E+01
 0.2369771765267E+01
 0.2362918017302E+01
 0.2305164839787E+01
 0.2135369879499E+01
 0.1660160739669E+01
 0.4166032453988E+00
-0.2136824091344E+01
 0.1321077329100E+01
 0.1174493061746E+01
 0.1061693572112E+01
 0.1010576940515E+01
 0.9868843972493E+00
 0.9767278182794E+00
 0.9760412173116E+00
 0.9818320334726E+00
 0.9926664231910E+00
 0.1007680363555E+01
 0.1026438509365E+01
 0.1048780334584E+01
 0.1074764947348E+01
 0.1104647403282E+01
 0.1138887549730E+01
 0.1178197434227E+01
 0.1223650040809E+01
 0.1276952867946E+01
 0.1340500325051E+01
 0.1415732539916E+01
 0.1500629678187E+01
 0.1590264306559E+01
 0.1680086851121E+01
 0.1767821895610E+01
 0.1853121800661E+01
 0.1936533285293E+01
 0.2018697069967E+01
 0.2099849691628E+01
 0.2179451279684E+01
 0.2256242918836E+01
 0.2329229636229E+01
 0.2398593191616E+01
 0.2465344075337E+01
 0.2530253278916E+01
 0.2592340899173E+01
 0.2648341395062E+01
 0.2682530103858E+01
 0.2665373837574E+01
 0.2450897697582E+01
 0.1324374687373E+01
-0.2091219332899E+01
 0.1380496289777E+01
 0.1142563270681E+01
 0.1014389828450E+01
 0.9757696184588E+00
 0.9541818605623E+00
 0.9476427337288E+00
 0.9493681304357E+00
 0.9572302322347E+00
 0.9697531145746E+00
 0.9861969194222E+00
 0.1006180141527E+01
 0.1029592600777E+01
 0.1056531832427E+01
 0.1087286679492E+01
 0.1122348817425E+01
 0.1162467043799E+01
 0.1208764077110E+01
 0.1263062931552E+01
 0.1328642089001E+01
 0.1408648290947E+01
 0.1501285778317E+01
 0.1599808857437E+01
 0.1698155191039E+01
 0.1793807403998E+01
 0.1886869392174E+01
 0.1978515646142E+01
 0.2069979851566E+01
 0.2162047728961E+01
 0.2254584837738E+01
 0.2346170778777E+01
 0.2435564523682E+01
 0.2524034573163E+01
 0.2615049185818E+01
 0.2712378254093E+01
 0.2820308008906E+01
 0.2942119298531E+01
 0.3087813685198E+01
 0.3230570234906E+01
 0.3440523326338E+01
 0.2988337548709E+01
-0.1495913146271E+01
 0.1526460494583E+01
 0.1032756628998E+01
 0.9758817468340E+00
 0.9342550811293E+00
 0.9203118856287E+00
 0.9170589092915E+00
 0.9217644235561E+00
 0.9318395619237E+00
 0.9461716795966E+00
 0.9640956469716E+00
 0.9853186325273E+00
 0.1009783497700E+01
 0.1037629381674E+01
 0.1069176642964E+01
 0.1104940745818E+01
 0.1145690059478E+01
 0.1192566617923E+01
 0.1247382470406E+01
 0.1313827070847E+01
 0.1398194513168E+01
 0.1499772649369E+01
 0.1608391947145E+01
 0.1715866157345E+01
 0.1819568271680E+01
 0.1920296824566E+01
 0.2020042493469E+01
 0.2120738886573E+01
 0.2223786741428E+01
 0.2329717454678E+01
 0.2436976834472E+01
 0.2542859086788E+01
 0.2649909372278E+01
 0.2765017799044E+01
 0.2895094993924E+01
 0.3048767347970E+01
 0.3241673927428E+01
 0.3490974715190E+01
 0.3872499893660E+01
 0.4320091090307E+01
 0.5910714605442E+01
 0.1226730115861E+01
 0.1778411734037E+01
 0.1712453506062E+01
 0.1643182372676E+01
 0.1575028485757E+01
 0.1510118687383E+01
 0.1449685703498E+01
 0.1394245084857E+01
 0.1344077835148E+01
 0.1299419879018E+01
 0.1260434086857E+01
 0.1226976392077E+01
 0.1199963063171E+01
 0.1178995741657E+01
 0.1163010287314E+01
 0.1151912221460E+01
 0.1144368736171E+01
 0.1139659646613E+01
 0.1138211838836E+01
 0.1135036240410E+01
 0.1171908810611E+01
 0.1822947362839E+01
 0.1749373834202E+01
 0.1677378464373E+01
 0.1607395297221E+01
 0.1541263397071E+01
 0.1479993784151E+01
 0.1424142054711E+01
 0.1373989779628E+01
 0.1329719578630E+01
 0.1291423339485E+01
 0.1259298916050E+01
 0.1233530997222E+01
 0.1214004842061E+01
 0.1200172272230E+01
 0.1191349038403E+01
 0.1186921259428E+01
 0.1186581104475E+01
 0.1189360699170E+01
 0.1202748199012E+01
 0.1210007445792E+01
 0.1865179287828E+01
 0.1786901529607E+01
 0.1711191838437E+01
 0.1639114418357E+01
 0.1571572914816E+01
 0.1509421103574E+01
 0.1453135535154E+01
 0.1402976876462E+01
 0.1359090923540E+01
 0.1321603547897E+01
 0.1290614822176E+01
 0.1266262435730E+01
 0.1248453661905E+01
 0.1236741612173E+01
 0.1230629110701E+01
 0.1229714818565E+01
 0.1233611927952E+01
 0.1243359738293E+01
 0.1256326949848E+01
 0.1268510839718E+01
 0.1906749439627E+01
 0.1823732792486E+01
 0.1744561051194E+01
 0.1670073125490E+01
 0.1600997460822E+01
 0.1537895632564E+01
 0.1481151963568E+01
 0.1430976192203E+01
 0.1387494921527E+01
 0.1350801279041E+01
 0.1320975562026E+01
 0.1298113911252E+01
 0.1282145430931E+01
 0.1272746186266E+01
 0.1269573519372E+01
 0.1272324459796E+01
 0.1280991827568E+01
 0.1294910740338E+01
 0.1312793472459E+01
 0.1331822090553E+01
 0.1947528263569E+01
 0.1859787151134E+01
 0.1777123524203E+01
 0.1700173799898E+01
 0.1629451738611E+01
 0.1565348443890E+01
 0.1508122108279E+01
 0.1457925231529E+01
 0.1414847632993E+01
 0.1378957861084E+01
 0.1350319288385E+01
 0.1329010777619E+01
 0.1314993202797E+01
 0.1308054508352E+01
 0.1307967102715E+01
 0.1314578620979E+01
 0.1327644727934E+01
 0.1346650794876E+01
 0.1370636405770E+01
 0.1397954917361E+01
 0.1987350815943E+01
 0.1894871063751E+01
 0.1808708548396E+01
 0.1729260227320E+01
 0.1656847641846E+01
 0.1591703958858E+01
 0.1533978086332E+01
 0.1483753613484E+01
 0.1441080722252E+01
 0.1406003417535E+01
 0.1378574953464E+01
 0.1358869918249E+01
 0.1346888082993E+01
 0.1342512379565E+01
 0.1345627465369E+01
 0.1356123786269E+01
 0.1373836153506E+01
 0.1398427296865E+01
 0.1429388604254E+01
 0.1465736562757E+01
 0.2026005600211E+01
 0.1928806837385E+01
 0.1839154816333E+01
 0.1757203871703E+01
 0.1683084762353E+01
 0.1616885148207E+01
 0.1558649432510E+01
 0.1508393233920E+01
 0.1466124976136E+01
 0.1431866155820E+01
 0.1405663835930E+01
 0.1387597654601E+01
 0.1377708229854E+01
 0.1375966415542E+01
 0.1382346675412E+01
 0.1396838991206E+01
 0.1419416343600E+01
 0.1450003623104E+01
 0.1488466903470E+01
 0.1534395069984E+01
 0.2063276008780E+01
 0.1961416996925E+01
 0.1868315064421E+01
 0.1783883459259E+01
 0.1708066589470E+01
 0.1640812369656E+01
 0.1582065742817E+01
 0.1531776021033E+01
 0.1489911032966E+01
 0.1456471663563E+01
 0.1431502030496E+01
 0.1415092693592E+01
 0.1407327310796E+01
 0.1408257430244E+01
 0.1417956996157E+01
 0.1436540463114E+01
 0.1464162157074E+01
 0.1501014611879E+01
 0.1547330750975E+01
 0.1603233770877E+01
 0.2098947533967E+01
 0.1992529582554E+01
 0.1896049465694E+01
 0.1809185160805E+01
 0.1731699962460E+01
 0.1663407339798E+01
 0.1604156908042E+01
 0.1553834453096E+01
 0.1512369267706E+01
 0.1479743939503E+01
 0.1456002207795E+01
 0.1441250061147E+01
 0.1435615753485E+01
 0.1439231892130E+01
 0.1452279583544E+01
 0.1475015493127E+01
 0.1507789155235E+01
 0.1551062147614E+01
 0.1605429558584E+01
 0.1671560815725E+01
 0.2132812059062E+01
 0.2021979190694E+01
 0.1922225195810E+01
 0.1833001110520E+01
 0.1753895869285E+01
 0.1684594027274E+01
 0.1624854198587E+01
 0.1574501836504E+01
 0.1533430307577E+01
 0.1501606292175E+01
 0.1479075530749E+01
 0.1465962973437E+01
 0.1462443913409E+01
 0.1468733328304E+01
 0.1485125212231E+01
 0.1512026140535E+01
 0.1549985254918E+01
 0.1599729685573E+01
 0.1662211295540E+01
 0.1738651300887E+01
 0.2164670276761E+01
 0.2049608275246E+01
 0.1946716482072E+01
 0.1855229391364E+01
 0.1774569750431E+01
 0.1704299503962E+01
 0.1644091018688E+01
 0.1593713001352E+01
 0.1553025750316E+01
 0.1521982473253E+01
 0.1500633128910E+01
 0.1489124677875E+01
 0.1487681596430E+01
 0.1496602152790E+01
 0.1516295478019E+01
 0.1547320096706E+01
 0.1590423518575E+01
 0.1646591829733E+01
 0.1717123079361E+01
 0.1803736318487E+01
 0.2194333293506E+01
 0.2075268090425E+01
 0.1969404981491E+01
 0.1875774188444E+01
 0.1793641835931E+01
 0.1722454470921E+01
 0.1661803541637E+01
 0.1611404950969E+01
 0.1571088950651E+01
 0.1540797681455E+01
 0.1520587380735E+01
 0.1510629427294E+01
 0.1511198846260E+01
 0.1522676821353E+01
 0.1545586991739E+01
 0.1580637889061E+01
 0.1628770279330E+01
 0.1691218872069E+01
 0.1769603474733E+01
 0.1866070790910E+01
 0.2221623993953E+01
 0.2098819573572E+01
 0.1990180293246E+01
 0.1894546141044E+01
 0.1811037525867E+01
 0.1738993753758E+01
 0.1677931295546E+01
 0.1627517539346E+01
 0.1587555823315E+01
 0.1557979547504E+01
 0.1538853010619E+01
 0.1530373651245E+01
 0.1532867323444E+01
 0.1546796286965E+01
 0.1572795619216E+01
 0.1611718836818E+01
 0.1664691463967E+01
 0.1733181284962E+01
 0.1819099022638E+01
 0.1924951025485E+01
 0.2246378240131E+01
 0.2120134158682E+01
 0.2008940495112E+01
 0.1911462740978E+01
 0.1826687777263E+01
 0.1753856748586E+01
 0.1692417694077E+01
 0.1641994100563E+01
 0.1602365600553E+01
 0.1573459035481E+01
 0.1555348162057E+01
 0.1548257263762E+01
 0.1552562130114E+01
 0.1568802794341E+01
 0.1597720591668E+01
 0.1640306376423E+01
 0.1697858689856E+01
 0.1772059259609E+01
 0.1865077080811E+01
 0.1979719926388E+01
 0.2268445984763E+01
 0.2139094535959E+01
 0.2025592678559E+01
 0.1926448745363E+01
 0.1840529488278E+01
 0.1766987841170E+01
 0.1705210526837E+01
 0.1654782037059E+01
 0.1615461543882E+01
 0.1587171312823E+01
 0.1569995491440E+01
 0.1564185112420E+01
 0.1570163842145E+01
 0.1588544791524E+01
 0.1620168505766E+01
 0.1666153219079E+01
 0.1727956182850E+01
 0.1807451881663E+01
 0.1907035783793E+01
 0.2029768401530E+01
 0.2287692248671E+01
 0.2155595341135E+01
 0.2040053436848E+01
 0.1939436560453E+01
 0.1852505850775E+01
 0.1778336783690E+01
 0.1716262399200E+01
 0.1665833353569E+01
 0.1626791605666E+01
 0.1599056588995E+01
 0.1582723273648E+01
 0.1578068486834E+01
 0.1585560608430E+01
 0.1605879836898E+01
 0.1639957227888E+01
 0.1689026512020E+01
 0.1754687467577E+01
 0.1838985176997E+01
 0.1944511427553E+01
 0.2074538452340E+01
 0.2303998115031E+01
 0.2169543831104E+01
 0.2052249361741E+01
 0.1950366636579E+01
 0.1862566708786E+01
 0.1787859065830E+01
 0.1725531154706E+01
 0.1675105165675E+01
 0.1636309064379E+01
 0.1609060937615E+01
 0.1593466506214E+01
 0.1589826632874E+01
 0.1598650233077E+01
 0.1620677429585E+01
 0.1656919666598E+01
 0.1708712739799E+01
 0.1777781451852E+01
 0.1866318929830E+01
 0.1977084749490E+01
 0.2113528017732E+01
 0.2317261562127E+01
 0.2180860467326E+01
 0.2062117463104E+01
 0.1959187801300E+01
 0.1870668859318E+01
 0.1795516226486E+01
 0.1732980233684E+01
 0.1682560140893E+01
 0.1643973091830E+01
 0.1617137052527E+01
 0.1602167945481E+01
 0.1599388183882E+01
 0.1609342137392E+01
 0.1632821657961E+01
 0.1670907262783E+01
 0.1725022161077E+01
 0.1796997744599E+01
 0.1889152502334E+01
 0.2004386744592E+01
 0.2146295954754E+01
 0.2327398217605E+01
 0.2189479434182E+01
 0.2069605546105E+01
 0.1965857558094E+01
 0.1876776320843E+01
 0.1801276129458E+01
 0.1738578989216E+01
 0.1688166889497E+01
 0.1649749262289E+01
 0.1623244935675E+01
 0.1608779056352E+01
 0.1606692473631E+01
 0.1617559152892E+01
 0.1642213600670E+01
 0.1681793111126E+01
 0.1737792701603E+01
 0.1812131230856E+01
 0.1907229847663E+01
 0.2026103730364E+01
 0.2172467286403E+01
 0.2334341998247E+01
 0.2195349079795E+01
 0.2074672530298E+01
 0.1970342338744E+01
 0.1880860558803E+01
 0.1805113194025E+01
 0.1742302951722E+01
 0.1691900294598E+01
 0.1653609987953E+01
 0.1627352492131E+01
 0.1613260838967E+01
 0.1611690681093E+01
 0.1623239081534E+01
 0.1648773402593E+01
 0.1689474631332E+01
 0.1746893239966E+01
 0.1823015919019E+01
 0.1920343723252E+01
 0.2041981701506E+01
 0.2191738019636E+01
 0.2338045625231E+01
 0.2198432270814E+01
 0.2077288705934E+01
 0.1972617705019E+01
 0.1882900664689E+01
 0.1807008577074E+01
 0.1744134038081E+01
 0.1693741774804E+01
 0.1655534868858E+01
 0.1629436012427E+01
 0.1615584502455E+01
 0.1614346765974E+01
 0.1626335970872E+01
 0.1652441966936E+01
 0.1693875732354E+01
 0.1752226259232E+01
 0.1829528017654E+01
 0.1928339178342E+01
 0.2051829962860E+01
 0.2203878763161E+01
 0.2338481007637E+01
 0.2198706656276E+01
 0.2077435924344E+01
 0.1972668497573E+01
 0.1882883486908E+01
 0.1806950304917E+01
 0.1744060702381E+01
 0.1693679474130E+01
 0.1655510947658E+01
 0.1629480526290E+01
 0.1615731961876E+01
 0.1614638162123E+01
 0.1626821063263E+01
 0.1653182218295E+01
 0.1694948433531E+01
 0.1753729831981E+01
 0.1831588267579E+01
 0.1931116096081E+01
 0.2055524370443E+01
 0.2208737407305E+01
 0.2335639484738E+01
 0.2196164834876E+01
 0.2075107718389E+01
 0.1970488929062E+01
 0.1880803710864E+01
 0.1804933352139E+01
 0.1742078024883E+01
 0.1691708373979E+01
 0.1653532860969E+01
 0.1627480014931E+01
 0.1613696139633E+01
 0.1612556203395E+01
 0.1624683387372E+01
 0.1650979903100E+01
 0.1692673909515E+01
 0.1751378931186E+01
 0.1829163481062E+01
 0.1928630970213E+01
 0.2053008837523E+01
 0.2206243670285E+01
 0.2329531921979E+01
 0.2190814422503E+01
 0.2070309350944E+01
 0.1966082620044E+01
 0.1876663887094E+01
 0.1800959666125E+01
 0.1738187737254E+01
 0.1687830324102E+01
 0.1649602882383E+01
 0.1623437474301E+01
 0.1609481060009E+01
 0.1608106265919E+01
 0.1619929971140E+01
 0.1645843902124E+01
 0.1687062936864E+01
 0.1745186037839E+01
 0.1822267337138E+01
 0.1920897788268E+01
 0.2044296487477E+01
 0.2196408983742E+01
 0.2320188661368E+01
 0.2182678020053E+01
 0.2063057791889E+01
 0.1959462578449E+01
 0.1870474408143E+01
 0.1795038137751E+01
 0.1732398184132E+01
 0.1682053992151E+01
 0.1643730856291E+01
 0.1617364827750E+01
 0.1603101733975E+01
 0.1601307621471E+01
 0.1612585666740E+01
 0.1637806040742E+01
 0.1678155720268E+01
 0.1735201033947E+01
 0.1810960384727E+01
 0.1907988217809E+01
 0.2029469908943E+01
 0.2179325968366E+01
 0.2307659325383E+01
 0.2171793080779E+01
 0.2053381623573E+01
 0.1950651122505E+01
 0.1862253434331E+01
 0.1787184518200E+01
 0.1724724220984E+01
 0.1674394732189E+01
 0.1635934023909E+01
 0.1609282691077E+01
 0.1594583838589E+01
 0.1592193006451E+01
 0.1602692589464E+01
 0.1626920391031E+01
 0.1666021082860E+01
 0.1721510347924E+01
 0.1795349245008E+01
 0.1890030940431E+01
 0.2008680445411E+01
 0.2155167363143E+01
 0.2292012473035E+01
 0.2158211679878E+01
 0.2041320874855E+01
 0.1939679748685E+01
 0.1852026769592E+01
 0.1777421282990E+01
 0.1715187049352E+01
 0.1664874374159E+01
 0.1626236745893E+01
 0.1599219998184E+01
 0.1583963203606E+01
 0.1580807922564E+01
 0.1590309186503E+01
 0.1613262074206E+01
 0.1650755009237E+01
 0.1704235319016E+01
 0.1775584957571E+01
 0.1867210106154E+01
 0.1982146812094E+01
 0.2124184174726E+01
 0.2273335144823E+01
 0.2142000195855E+01
 0.2026926799416E+01
 0.1926588956884E+01
 0.1839827698780E+01
 0.1765777452918E+01
 0.1703813998226E+01
 0.1653520943490E+01
 0.1614670133524E+01
 0.1587213505035E+01
 0.1571285130617E+01
 0.1567209701907E+01
 0.1575508972832E+01
 0.1596925595845E+01
 0.1632478552223E+01
 0.1683529746673E+01
 0.1751860392942E+01
 0.1839762959408E+01
 0.1950153023948E+01
 0.2086703785030E+01
 0.2251732192971E+01
 0.2123238866857E+01
 0.2010261555640E+01
 0.1911427999965E+01
 0.1825696756936E+01
 0.1752288345163E+01
 0.1690638227145E+01
 0.1640368289741E+01
 0.1601271572942E+01
 0.1573307165667E+01
 0.1556603551162E+01
 0.1551466356245E+01
 0.1558378961846E+01
 0.1578022743691E+01
 0.1611335114862E+01
 0.1659576576544E+01
 0.1724406591216E+01
 0.1807976425953E+01
 0.1913046011630E+01
 0.2043127913598E+01
 0.2227325575915E+01
 0.2102021298575E+01
 0.1991397873475E+01
 0.1894254630912E+01
 0.1809681495047E+01
 0.1736995309719E+01
 0.1675698399314E+01
 0.1625455668458E+01
 0.1586084185688E+01
 0.1557551429171E+01
 0.1539980086833E+01
 0.1533655293718E+01
 0.1539017889443E+01
 0.1556680144835E+01
 0.1587487219180E+01
 0.1632583792673E+01
 0.1693487932290E+01
 0.1772182322149E+01
 0.1871232544620E+01
 0.1993932279384E+01
 0.2200253458064E+01
 0.2078453861920E+01
 0.1970418649639E+01
 0.1875134805793E+01
 0.1791836203906E+01
 0.1719945414293E+01
 0.1659038291798E+01
 0.1608827248149E+01
 0.1569156202649E+01
 0.1540002442366E+01
 0.1521483018847E+01
 0.1513861947649E+01
 0.1517534310814E+01
 0.1533036564147E+01
 0.1561112805857E+01
 0.1602779708043E+01
 0.1659396144146E+01
 0.1732750665004E+01
 0.1825174410110E+01
 0.1939669137237E+01
 0.2170669153210E+01
 0.2052654990702E+01
 0.1947416512258E+01
 0.1854142383036E+01
 0.1772221624170E+01
 0.1701191093633E+01
 0.1640706354742E+01
 0.1590531558536E+01
 0.1550540262381E+01
 0.1520721165454E+01
 0.1501186180289E+01
 0.1492178390529E+01
 0.1494044707834E+01
 0.1507240094113E+01
 0.1532401135518E+01
 0.1570407567108E+01
 0.1622444076604E+01
 0.1690080680530E+01
 0.1775380064173E+01
 0.1880971558323E+01
 0.2138739830346E+01
 0.2024754362667E+01
 0.1922493378394E+01
 0.1831358851528E+01
 0.1750904653115E+01
 0.1680789744598E+01
 0.1620755208665E+01
 0.1570620878406E+01
 0.1530292641525E+01
 0.1499772368311E+01
 0.1479167738513E+01
 0.1468701929615E+01
 0.1468671803260E+01
 0.1479445481000E+01
 0.1501548394222E+01
 0.1535719256056E+01
 0.1582958477441E+01
 0.1644594808482E+01
 0.1722387838758E+01
 0.1818551925951E+01
 0.2104644914725E+01
 0.1994891966932E+01
 0.1895760115318E+01
 0.1806873234717E+01
 0.1727958088130E+01
 0.1658803287398E+01
 0.1599241090530E+01
 0.1549150639600E+01
 0.1508472484938E+01
 0.1477223582670E+01
 0.1455508766550E+01
 0.1443533726810E+01
 0.1441543202773E+01
 0.1449812376251E+01
 0.1468753387305E+01
 0.1498967880756E+01
 0.1541270761939E+01
 0.1596731824329E+01
 0.1666770279188E+01
 0.1753141447618E+01
 0.2068573559285E+01
 0.1963216759308E+01
 0.1867336463299E+01
 0.1780782140026E+01
 0.1703460376551E+01
 0.1635297405761E+01
 0.1576223173742E+01
 0.1526178772354E+01
 0.1485141071426E+01
 0.1453143908565E+01
 0.1430291604256E+01
 0.1416776614367E+01
 0.1412790730945E+01
 0.1418504529931E+01
 0.1434215642338E+01
 0.1460398057956E+01
 0.1497703605589E+01
 0.1546934145415E+01
 0.1609131771493E+01
 0.1685490878221E+01
 0.2030720281044E+01
 0.1929885459811E+01
 0.1837351473800E+01
 0.1753191175386E+01
 0.1677494932313E+01
 0.1610340726157E+01
 0.1551762601362E+01
 0.1501765476560E+01
 0.1460361255607E+01
 0.1427603016257E+01
 0.1403597868150E+01
 0.1388532917143E+01
 0.1382546733106E+01
 0.1385694759079E+01
 0.1398134664478E+01
 0.1420242355623E+01
 0.1452543419176E+01
 0.1495627870294E+01
 0.1550089697549E+01
 0.1616410554712E+01
 0.1991277292610E+01
 0.1895057459479E+01
 0.1805949497638E+01
 0.1724215066635E+01
 0.1650150489507E+01
 0.1584001099785E+01
 0.1525922308483E+01
 0.1475972770113E+01
 0.1434197561734E+01
 0.1400669803147E+01
 0.1375506533809E+01
 0.1358900758030E+01
 0.1350942006748E+01
 0.1351553368393E+01
 0.1360746509374E+01
 0.1378700827347E+01
 0.1406028058155E+01
 0.1443146424664E+01
 0.1490289704040E+01
 0.1546819057830E+01
 0.1950395392585E+01
 0.1858907717002E+01
 0.1773287505554E+01
 0.1693995919225E+01
 0.1621506618195E+01
 0.1556346117337E+01
 0.1498764502782E+01
 0.1448867370445E+01
 0.1406715032465E+01
 0.1372412969044E+01
 0.1346090667489E+01
 0.1327971434017E+01
 0.1318099347460E+01
 0.1316250990631E+01
 0.1322264885838E+01
 0.1336164393968E+01
 0.1358122029038E+01
 0.1389725902143E+01
 0.1430291217469E+01
 0.1477894056969E+01
 0.1908183526617E+01
 0.1821513954310E+01
 0.1739699026790E+01
 0.1662629256832E+01
 0.1591638032962E+01
 0.1527439461711E+01
 0.1470354578789E+01
 0.1420509303369E+01
 0.1377999720437E+01
 0.1342887136915E+01
 0.1315416228822E+01
 0.1295831572901E+01
 0.1284125398883E+01
 0.1279943693485E+01
 0.1282919325191E+01
 0.1292861827486E+01
 0.1309876132403E+01
 0.1333629384555E+01
 0.1371103027189E+01
 0.1411587815510E+01
 0.1863133798465E+01
 0.1784040746868E+01
 0.1705290537812E+01
 0.1630205848046E+01
 0.1560589130895E+01
 0.1497348516253E+01
 0.1440766444770E+01
 0.1390960078810E+01
 0.1348089427634E+01
 0.1312286569894E+01
 0.1283399503051E+01
 0.1262552986210E+01
 0.1249264343373E+01
 0.1242608285713E+01
 0.1242930598883E+01
 0.1249208535744E+01
 0.1261173800714E+01
 0.1279545871806E+01
 0.1300150183516E+01
 0.1357173834871E+01
 0.4735148624645E+01
 0.3271184807201E+00
 0.2172306656823E-01
-0.1274788444870E+00
-0.1716221044492E+00
-0.1891190231623E+00
-0.1976456824357E+00
-0.2025356680789E+00
-0.2029200226663E+00
-0.1996054237418E+00
-0.1961843692143E+00
-0.1806546856833E+00
-0.1625382371688E+00
-0.1571200241412E+00
-0.1672080733942E+00
-0.1854097833568E+00
-0.2063439194929E+00
-0.2242944374740E+00
-0.2380251258142E+00
-0.2267708667035E+00
 0.2717044281377E+01
 0.1387768753303E+01
 0.2663243439186E+00
 0.3348378705006E-01
-0.6338978121480E-01
-0.1008580200717E+00
-0.1206995084116E+00
-0.1318807389032E+00
-0.1376608998499E+00
-0.1399757204090E+00
-0.1373054945714E+00
-0.1314194165576E+00
-0.1256582470057E+00
-0.1234085233810E+00
-0.1290609962480E+00
-0.1416654277850E+00
-0.1560513189377E+00
-0.1691243262680E+00
-0.1759743182416E+00
-0.1805005179865E+00
 0.2106155013052E+01
 0.1372056054900E+01
 0.6574219890873E+00
 0.2176643918921E+00
 0.6478369688623E-01
-0.3923102458066E-02
-0.3787812737597E-01
-0.5754355758516E-01
-0.6941901427583E-01
-0.7621995778285E-01
-0.7865494136196E-01
-0.7931440601919E-01
-0.8072779460190E-01
-0.8213063149279E-01
-0.8602917788241E-01
-0.9385724009259E-01
-0.1031256487018E+00
-0.1110871214627E+00
-0.1174393081596E+00
-0.1204740574863E+00
 0.1796035719323E+01
 0.1330028839219E+01
 0.8220985189741E+00
 0.4265740640434E+00
 0.2055905019953E+00
 0.1038850096187E+00
 0.5114556453573E-01
 0.2112862830243E-01
 0.2343217655650E-02
-0.9860599335663E-02
-0.1742439282187E-01
-0.2373403648492E-01
-0.3023568277655E-01
-0.3453482400804E-01
-0.3773535208199E-01
-0.4221477911451E-01
-0.4713772214667E-01
-0.5166963459978E-01
-0.5514220962776E-01
-0.5506159423240E-01
 0.1623425317175E+01
 0.1294246304306E+01
 0.9147891188971E+00
 0.5791225526040E+00
 0.3507454526641E+00
 0.2187034979464E+00
 0.1465530488392E+00
 0.1043485197461E+00
 0.7762230548943E-01
 0.5949234045460E-01
 0.4677719373226E-01
 0.3556441798674E-01
 0.2503688953103E-01
 0.1843580735972E-01
 0.1545261290785E-01
 0.1335399598485E-01
 0.1173060187824E-01
 0.1053924509751E-01
 0.1053234251892E-01
 0.1469372493577E-01
 0.1522168466890E+01
 0.1274038158313E+01
 0.9757968667843E+00
 0.6941964849398E+00
 0.4786912213004E+00
 0.3348602559381E+00
 0.2461352904695E+00
 0.1917350138901E+00
 0.1564035422529E+00
 0.1319658436053E+00
 0.1141486891362E+00
 0.9851155373920E-01
 0.8466341506114E-01
 0.7616119203949E-01
 0.7314028820233E-01
 0.7270917426297E-01
 0.7376552938240E-01
 0.7571416509202E-01
 0.7939180372652E-01
 0.8786967989385E-01
 0.1463587070181E+01
 0.1267048748050E+01
 0.1023780148110E+01
 0.7851884457591E+00
 0.5891742050673E+00
 0.4449051144065E+00
 0.3466813586618E+00
 0.2819259306572E+00
 0.2382828662590E+00
 0.2074780018000E+00
 0.1846632636066E+00
 0.1649672068617E+00
 0.1482872858764E+00
 0.1381782148649E+00
 0.1349494707324E+00
 0.1357112932898E+00
 0.1389668613168E+00
 0.1437989044753E+00
 0.1510420805531E+00
 0.1637147068436E+00
 0.1432543642484E+01
 0.1270606334329E+01
 0.1066443502839E+01
 0.8615380809178E+00
 0.6853318787175E+00
 0.5467318638329E+00
 0.4449085640137E+00
 0.3731011759251E+00
 0.3223856717733E+00
 0.2856578459267E+00
 0.2581116601102E+00
 0.2347000629967E+00
 0.2155664739574E+00
 0.2040735637797E+00
 0.2005241466098E+00
 0.2021223028687E+00
 0.2071627547068E+00
 0.2145294251065E+00
 0.2250034992275E+00
 0.2414534553993E+00
 0.1420345337015E+01
 0.1282454410311E+01
 0.1107294497221E+01
 0.9289403965381E+00
 0.7707906234510E+00
 0.6404997234462E+00
 0.5391610588172E+00
 0.4635234911934E+00
 0.4076039629079E+00
 0.3658709575895E+00
 0.3340994767422E+00
 0.3073779021675E+00
 0.2861264515611E+00
 0.2734361242907E+00
 0.2694805461220E+00
 0.2716143964362E+00
 0.2780335016437E+00
 0.2875020762949E+00
 0.3007067080404E+00
 0.3202932563750E+00
 0.1421624555104E+01
 0.1300904555336E+01
 0.1147946557081E+01
 0.9908378371144E+00
 0.8484912265139E+00
 0.7272948822448E+00
 0.6289117815927E+00
 0.5520461351048E+00
 0.4928679673053E+00
 0.4473478451970E+00
 0.4120814940980E+00
 0.3825616795790E+00
 0.3595354002461E+00
 0.3458197026606E+00
 0.3413855209844E+00
 0.3437714923407E+00
 0.3511443596178E+00
 0.3622049079250E+00
 0.3775172140233E+00
 0.3994483911613E+00
 0.1432886346439E+01
 0.1324703998363E+01
 0.1189153502230E+01
 0.1049314628984E+01
 0.9206114365017E+00
 0.8083721721014E+00
 0.7142839544839E+00
 0.6380652151597E+00
 0.5773463313895E+00
 0.5293230147610E+00
 0.4914313869545E+00
 0.4597228615882E+00
 0.4352949611650E+00
 0.4207252823987E+00
 0.4157457363965E+00
 0.4180981215153E+00
 0.4259697339330E+00
 0.4380475285116E+00
 0.4547617914366E+00
 0.4781709696595E+00
 0.1451748077754E+01
 0.1352908971635E+01
 0.1231255859843E+01
 0.1105651231027E+01
 0.9886970101417E+00
 0.8848658195978E+00
 0.7956852500127E+00
 0.7213618041805E+00
 0.6604726096730E+00
 0.6111321381173E+00
 0.5715142196842E+00
 0.5382792417279E+00
 0.5128492562326E+00
 0.4975991561584E+00
 0.4920092406706E+00
 0.4940322956594E+00
 0.5019167106238E+00
 0.5143873559741E+00
 0.5317521612971E+00
 0.5557704761614E+00
 0.1476517071096E+01
 0.1384784918643E+01
 0.1274384665292E+01
 0.1160643017951E+01
 0.1053824722274E+01
 0.9576996213574E+00
 0.8735995524576E+00
 0.8019404870836E+00
 0.7418983784534E+00
 0.6922426748021E+00
 0.6517384889452E+00
 0.6176345935581E+00
 0.5916066498362E+00
 0.5758454488655E+00
 0.5695781726559E+00
 0.5709649345184E+00
 0.5783491889518E+00
 0.5905524742884E+00
 0.6077986873445E+00
 0.6316158429646E+00
 0.1505942872079E+01
 0.1419736134543E+01
 0.1318554652551E+01
 0.1214783541433E+01
 0.1116734635769E+01
 0.1027583668490E+01
 0.9484807365299E+00
 0.8799109130142E+00
 0.8214245801634E+00
 0.7722439411339E+00
 0.7315793972692E+00
 0.6972098956443E+00
 0.6709661387446E+00
 0.6548481787998E+00
 0.6478333114414E+00
 0.6482673374767E+00
 0.6546169397476E+00
 0.6658606228577E+00
 0.6822115338277E+00
 0.7051139202350E+00
 0.1539065453994E+01
 0.1457257480464E+01
 0.1363707345047E+01
 0.1268369461763E+01
 0.1177925920431E+01
 0.1095040388244E+01
 0.1020706529395E+01
 0.9554114499039E+00
 0.8989391273201E+00
 0.8508188479616E+00
 0.8105801994937E+00
 0.7764610061083E+00
 0.7503381990019E+00
 0.7339985397902E+00
 0.7261648015210E+00
 0.7253355265662E+00
 0.7300912985118E+00
 0.7396432355845E+00
 0.7542839333486E+00
 0.7756554225166E+00
 0.1575118608240E+01
 0.1496901284019E+01
 0.1409730998699E+01
 0.1321560984459E+01
 0.1237722645465E+01
 0.1160436275322E+01
 0.1090563725878E+01
 0.1028564382927E+01
 0.9743691616290E+00
 0.9277122382249E+00
 0.8883414190604E+00
 0.8548826524057E+00
 0.8291575355907E+00
 0.8127056148756E+00
 0.8040183782130E+00
 0.8016348806740E+00
 0.8042504680890E+00
 0.8112648561033E+00
 0.8232739410799E+00
 0.8424928491610E+00
 0.1613465834728E+01
 0.1538254788423E+01
 0.1456469552532E+01
 0.1374417866907E+01
 0.1296318257502E+01
 0.1224011317771E+01
 0.1158248000213E+01
 0.1099452120937E+01
 0.1047647500408E+01
 0.1002703899407E+01
 0.9645063364622E+00
 0.9320059854183E+00
 0.9068807825857E+00
 0.8904025380354E+00
 0.8808567656488E+00
 0.8768512142578E+00
 0.8767297955570E+00
 0.8803136129592E+00
 0.8882870487993E+00
 0.9045328348441E+00
 0.1653559168556E+01
 0.1580921866832E+01
 0.1503728059868E+01
 0.1426920422580E+01
 0.1353808132840E+01
 0.1285903628045E+01
 0.1223871385478E+01
 0.1168102614724E+01
 0.1118692188431E+01
 0.1075586433808E+01
 0.1038750035825E+01
 0.1007397323977E+01
 0.9829868383297E+00
 0.9665121321478E+00
 0.9561619363333E+00
 0.9505489858021E+00
 0.9481335206172E+00
 0.9464653178128E+00
 0.9486277637780E+00
 0.9595202783879E+00
 0.1694907144815E+01
 0.1624522878721E+01
 0.1551255944581E+01
 0.1478992432236E+01
 0.1410217855547E+01
 0.1346169867699E+01
 0.1287468871924E+01
 0.1234491072684E+01
 0.1187373767678E+01
 0.1146159657810E+01
 0.1110772804409E+01
 0.1080659590232E+01
 0.1056999817113E+01
 0.1040451767676E+01
 0.1029276015934E+01
 0.1022311282554E+01
 0.1017759194044E+01
 0.1014598175171E+01
 0.1001508506311E+01
 0.1003265539931E+01
 0.1737271229979E+01
 0.1668537519230E+01
 0.1598750290776E+01
 0.1530548320708E+01
 0.1465537159855E+01
 0.1404792139619E+01
 0.1349001769022E+01
 0.1298539259998E+01
 0.1253550072638E+01
 0.1214091192356E+01
 0.1180366391243E+01
 0.1151519050033E+01
 0.1128402604954E+01
 0.1111747329049E+01
 0.1099541183035E+01
 0.1091100489483E+01
 0.1085321363089E+01
 0.1079947881570E+01
 0.1075464434079E+01
 0.1004743659968E+01
 0.1818226340414E+01
 0.1737323597265E+01
 0.1658404675450E+01
 0.1583797328814E+01
 0.1514515145226E+01
 0.1451321767730E+01
 0.1394690063928E+01
 0.1344856144223E+01
 0.1301883577804E+01
 0.1265817129293E+01
 0.1236917698409E+01
 0.1214361820673E+01
 0.1199312396144E+01
 0.1192645615614E+01
 0.1192404766220E+01
 0.1198264884491E+01
 0.1209540606466E+01
 0.1224515614145E+01
 0.1243601388694E+01
 0.1201318717251E+01
 0.1774184118512E+01
 0.1691073144674E+01
 0.1608834267320E+01
 0.1530366498550E+01
 0.1457662389907E+01
 0.1391563480961E+01
 0.1332444604779E+01
 0.1280526614300E+01
 0.1235864702873E+01
 0.1198488901062E+01
 0.1168361398859E+01
 0.1145032260614E+01
 0.1129909712917E+01
 0.1123790926057E+01
 0.1125035629153E+01
 0.1132775875123E+01
 0.1145647776174E+01
 0.1163013707499E+01
 0.1174373696013E+01
 0.1204719256471E+01
 0.1730073749494E+01
 0.1644629032247E+01
 0.1558515421604E+01
 0.1475803121420E+01
 0.1399144502082E+01
 0.1329621116509E+01
 0.1267611447674E+01
 0.1213333596812E+01
 0.1166786941112E+01
 0.1127898073495E+01
 0.1096682515734E+01
 0.1072424748874E+01
 0.1056856793711E+01
 0.1051132924920E+01
 0.1053511142198E+01
 0.1062918383894E+01
 0.1078227686566E+01
 0.1097580490621E+01
 0.1124708084215E+01
 0.1165470317222E+01
 0.1686438666301E+01
 0.1598351831533E+01
 0.1507817737051E+01
 0.1420209234222E+01
 0.1339016222044E+01
 0.1265565807074E+01
 0.1200287325052E+01
 0.1143407276558E+01
 0.1094836335831E+01
 0.1054419072865E+01
 0.1022088058862E+01
 0.9968500207233E+00
 0.9807003939989E+00
 0.9751133057117E+00
 0.9784536395827E+00
 0.9896621813285E+00
 0.1007555267485E+01
 0.1032595387764E+01
 0.1066336721074E+01
 0.1113848141037E+01
 0.1643782619662E+01
 0.1552664744375E+01
 0.1456991363718E+01
 0.1363707949522E+01
 0.1277303135994E+01
 0.1199403528457E+01
 0.1130502162616E+01
 0.1070834604458E+01
 0.1020199125421E+01
 0.9782963034477E+00
 0.9449216916231E+00
 0.9187423045268E+00
 0.9019427282192E+00
 0.8963259273326E+00
 0.9005031441490E+00
 0.9133898948094E+00
 0.9342023453115E+00
 0.9630917327621E+00
 0.1001674451983E+01
 0.1053588749650E+01
 0.1602660952990E+01
 0.1507976800107E+01
 0.1406264959314E+01
 0.1306364238897E+01
 0.1213973851368E+01
 0.1131067334273E+01
 0.1058217784492E+01
 0.9956583827004E+00
 0.9430212345746E+00
 0.8997956550134E+00
 0.8655612832084E+00
 0.8385853589363E+00
 0.8211492101164E+00
 0.8153803217685E+00
 0.8201913175229E+00
 0.8345070723923E+00
 0.8574957579125E+00
 0.8892180153373E+00
 0.9311508160420E+00
 0.9866009406482E+00
 0.1563699515079E+01
 0.1464711881899E+01
 0.1355828993988E+01
 0.1248175787762E+01
 0.1148907338036E+01
 0.1060398852926E+01
 0.9833210273204E+00
 0.9178738211734E+00
 0.8634403835766E+00
 0.8192014029626E+00
 0.7844242357693E+00
 0.7569088120325E+00
 0.7389246301574E+00
 0.7329018342165E+00
 0.7380979404233E+00
 0.7533406202555E+00
 0.7777539521597E+00
 0.8112641917944E+00
 0.8554439149649E+00
 0.9136811778645E+00
 0.1527639677904E+01
 0.1423322250792E+01
 0.1305833057863E+01
 0.1189047948188E+01
 0.1081863626848E+01
 0.9871240342862E+00
 0.9056161801250E+00
 0.8374414988140E+00
 0.7816024694218E+00
 0.7368346957488E+00
 0.7019742584535E+00
 0.6742869531094E+00
 0.6559122222917E+00
 0.6495661561685E+00
 0.6548582755176E+00
 0.6704831303380E+00
 0.6955103693267E+00
 0.7298041583077E+00
 0.7751396405899E+00
 0.8353205845055E+00
 0.1495398199376E+01
 0.1384310366938E+01
 0.1256376037263E+01
 0.1128759917658E+01
 0.1012441358197E+01
 0.9108256845888E+00
 0.8248246125426E+00
 0.7543083649618E+00
 0.6976911317320E+00
 0.6530761409982E+00
 0.6187322213409E+00
 0.5913382606794E+00
 0.5727938060125E+00
 0.5660933403003E+00
 0.5712028190062E+00
 0.5866513953912E+00
 0.6114725365800E+00
 0.6455201476858E+00
 0.6908581645684E+00
 0.7519140962435E+00
 0.1468156805985E+01
 0.1348259291712E+01
 0.1207487315938E+01
 0.1066908094292E+01
 0.9400166516803E+00
 0.8309139345258E+00
 0.7405982207563E+00
 0.6684484489058E+00
 0.6119704752369E+00
 0.5683930328902E+00
 0.5352834836290E+00
 0.5087184949744E+00
 0.4902740855463E+00
 0.4832337301088E+00
 0.4879093665707E+00
 0.5026421431057E+00
 0.5264426662156E+00
 0.5591940234403E+00
 0.6032874787421E+00
 0.6638985507949E+00
 0.1447502180806E+01
 0.1315876994115E+01
 0.1159086432658E+01
 0.1002808719585E+01
 0.8636545494433E+00
 0.7466024872297E+00
 0.6525621508948E+00
 0.5799328604806E+00
 0.5248413830273E+00
 0.4833633863408E+00
 0.4522739074217E+00
 0.4271005999657E+00
 0.4090558973770E+00
 0.4017348043755E+00
 0.4057650829817E+00
 0.4192817185639E+00
 0.4412808303255E+00
 0.4716915573557E+00
 0.5132197126668E+00
 0.5718344739600E+00
 0.1435654359377E+01
 0.1288060772989E+01
 0.1110896315194E+01
 0.9353282599523E+00
 0.7819873088572E+00
 0.6569125357341E+00
 0.5604134002780E+00
 0.4890386903115E+00
 0.4369034088779E+00
 0.3986828389470E+00
 0.3703854817304E+00
 0.3471419208995E+00
 0.3298095557347E+00
 0.3223110500350E+00
 0.3255303758022E+00
 0.3373855335336E+00
 0.3568665058420E+00
 0.3839454908990E+00
 0.4215708136373E+00
 0.4764668926765E+00
 0.1435856429514E+01
 0.1265988579321E+01
 0.1062253916045E+01
 0.8625887795443E+00
 0.6930650394822E+00
 0.5607575188766E+00
 0.4641139673912E+00
 0.3963973498151E+00
 0.3489960325842E+00
 0.3151337633310E+00
 0.2902853398643E+00
 0.2694438933577E+00
 0.2531468413470E+00
 0.2456224821078E+00
 0.2479118049831E+00
 0.2577193884112E+00
 0.2740548147452E+00
 0.2969230858374E+00
 0.3293822839223E+00
 0.3787717157193E+00
 0.1453076835009E+01
 0.1251234575399E+01
 0.1011695861080E+01
 0.7814554870042E+00
 0.5942373150135E+00
 0.4572133284076E+00
 0.3642296778234E+00
 0.3031385944446E+00
 0.2621712849549E+00
 0.2334925622123E+00
 0.2125560323241E+00
 0.1945158685472E+00
 0.1796079398443E+00
 0.1722682514064E+00
 0.1735460512005E+00
 0.1809639298201E+00
 0.1936230790097E+00
 0.2115726673453E+00
 0.2377958510754E+00
 0.2799855566455E+00
 0.1495352826583E+01
 0.1245889156116E+01
 0.9559980450673E+00
 0.6867108740617E+00
 0.4822301098264E+00
 0.3462242577003E+00
 0.2623716424161E+00
 0.2109309355041E+00
 0.1775047304253E+00
 0.1543985490750E+00
 0.1376287869980E+00
 0.1227565197533E+00
 0.1096670247133E+00
 0.1027981409726E+00
 0.1029998418058E+00
 0.1076844054958E+00
 0.1162107101924E+00
 0.1287461112187E+00
 0.1479931505583E+00
 0.1816049572320E+00
 0.1576680559246E+01
 0.1252411595131E+01
 0.8880384762546E+00
 0.5696765232009E+00
 0.3542463013753E+00
 0.2298445706948E+00
 0.1616531139298E+00
 0.1215038674834E+00
 0.9584178610549E-01
 0.7823373946892E-01
 0.6574955408906E-01
 0.5445742011253E-01
 0.4375303982363E-01
 0.3774701863682E-01
 0.3678627913426E-01
 0.3831685522437E-01
 0.4225148638497E-01
 0.4910652312279E-01
 0.6109363473454E-01
 0.8533706537048E-01
 0.1723598068643E+01
 0.1272945048896E+01
 0.7905153408074E+00
 0.4180453212097E+00
 0.2106684493392E+00
 0.1150966331610E+00
 0.6509112762916E-01
 0.3614524290561E-01
 0.1757917555292E-01
 0.5097901709408E-02
-0.3020063164047E-02
-0.1019114167477E-01
-0.1770567057840E-01
-0.2232197708672E-01
-0.2457842679285E-01
-0.2684390212303E-01
-0.2806577496033E-01
-0.2700818706088E-01
-0.2194544153816E-01
-0.7024745101127E-02
 0.1997458686931E+01
 0.1298695288133E+01
 0.6260451953481E+00
 0.2144589769649E+00
 0.7177058191158E-01
 0.7268153357782E-02
-0.2525261895944E-01
-0.4477837189977E-01
-0.5725832878049E-01
-0.6511336991412E-01
-0.6885280807321E-01
-0.7107958685403E-01
-0.7423135237027E-01
-0.7670837956671E-01
-0.8059240081866E-01
-0.8749290313138E-01
-0.9493904141539E-01
-0.9963175964958E-01
-0.1005849349588E+00
-0.9355661381312E-01
 0.2549883988397E+01
 0.1299265810656E+01
 0.2508448041345E+00
 0.3515979763117E-01
-0.5482270538819E-01
-0.9006657782321E-01
-0.1095498794566E+00
-0.1214638536539E+00
-0.1286418637853E+00
-0.1327816331813E+00
-0.1321106541181E+00
-0.1284370786305E+00
-0.1249993776813E+00
-0.1244221291437E+00
-0.1307948795764E+00
-0.1436168770530E+00
-0.1578995254084E+00
-0.1704996008319E+00
-0.1742178769066E+00
-0.1724910593309E+00
 0.4413273528009E+01
 0.2930173509476E+00
 0.1568987296971E-01
-0.1218181796370E+00
-0.1624269104663E+00
-0.1789611335547E+00
-0.1880896879477E+00
-0.1945439173109E+00
-0.1970799556257E+00
-0.1963489167703E+00
-0.1956846306597E+00
-0.1827419236706E+00
-0.1675784868157E+00
-0.1641834935212E+00
-0.1754699866986E+00
-0.1948972641057E+00
-0.2173507428598E+00
-0.2371077714079E+00
-0.2529537249462E+00
-0.2326162794950E+00
 0.1136675202947E+01
 0.1042599933589E+01
 0.9806103512947E+00
 0.9207516870239E+00
 0.8603213456197E+00
 0.7973978890662E+00
 0.7313879063217E+00
 0.6621449378280E+00
 0.5898086515109E+00
 0.5146875873747E+00
 0.4372148028431E+00
 0.3579291952161E+00
 0.2774688848930E+00
 0.1965622234234E+00
 0.1160067977802E+00
 0.3662442920994E-01
-0.4076240164201E-01
-0.1155039115167E+00
-0.1862146422527E+00
-0.2569414141335E+00
 0.1192532867876E+01
 0.1133835603345E+01
 0.1068927266539E+01
 0.1008381251809E+01
 0.9468472879926E+00
 0.8830224704274E+00
 0.8159083148896E+00
 0.7450664894831E+00
 0.6703571232395E+00
 0.5918713651571E+00
 0.5098867544098E+00
 0.4248561868298E+00
 0.3374098985516E+00
 0.2483560045458E+00
 0.1586572006275E+00
 0.6936632890002E-01
-0.1852798126772E-01
-0.1041812029245E+00
-0.1878788557143E+00
-0.2704908740818E+00
 0.1259116318913E+01
 0.1210224644505E+01
 0.1156102767102E+01
 0.1098599328498E+01
 0.1039144788495E+01
 0.9764733069912E+00
 0.9098871827057E+00
 0.8388334423765E+00
 0.7629992580704E+00
 0.6822686594471E+00
 0.5967193919373E+00
 0.5066324751390E+00
 0.4125182952067E+00
 0.3151482010094E+00
 0.2155734931371E+00
 0.1150865037799E+00
 0.1509096530280E-01
-0.8324998653651E-01
-0.1791212655629E+00
-0.2716246910706E+00
 0.1329441980810E+01
 0.1288840884913E+01
 0.1242317145066E+01
 0.1191330146828E+01
 0.1136216206061E+01
 0.1076902566725E+01
 0.1012775879188E+01
 0.9433016974577E+00
 0.8680269825574E+00
 0.7866319069456E+00
 0.6989491137142E+00
 0.6049975892485E+00
 0.5050331908402E+00
 0.3996205639041E+00
 0.2897194812948E+00
 0.1767641963549E+00
 0.6263147675069E-01
-0.5059290894611E-01
-0.1610213114389E+00
-0.2674779438367E+00
 0.1402819689752E+01
 0.1369586962212E+01
 0.1330820775196E+01
 0.1286902029992E+01
 0.1238045526317E+01
 0.1184019930857E+01
 0.1124379422861E+01
 0.1058529858723E+01
 0.9858814011927E+00
 0.9058879035489E+00
 0.8180875428586E+00
 0.7221439246139E+00
 0.6179076314993E+00
 0.5055116487727E+00
 0.3855193609999E+00
 0.2591355096162E+00
 0.1284816095491E+00
-0.3334460756282E-02
-0.1329406363726E+00
-0.2578368477456E+00
 0.1478382659720E+01
 0.1452651107512E+01
 0.1421845342680E+01
 0.1385883507477E+01
 0.1344609528765E+01
 0.1297686839801E+01
 0.1244570211101E+01
 0.1184585046837E+01
 0.1116973201025E+01
 0.1040943363023E+01
 0.9556998340732E+00
 0.8604752121951E+00
 0.7545777182028E+00
 0.6374736227881E+00
 0.5089363713848E+00
 0.3693255676666E+00
 0.2200825542223E+00
 0.6465098814926E-01
-0.9112155869502E-01
-0.2416108146154E+00
 0.1555366633936E+01
 0.1537552950642E+01
 0.1515254700911E+01
 0.1488105709371E+01
 0.1455721094703E+01
 0.1417593795017E+01
 0.1373067978830E+01
 0.1321340845593E+01
 0.1261486283758E+01
 0.1192469400454E+01
 0.1113157256014E+01
 0.1022324241621E+01
 0.9186614630741E+00
 0.8008022448538E+00
 0.6673907502745E+00
 0.5172525135493E+00
 0.3498347481885E+00
 0.1662712935085E+00
-0.2707171064770E-01
-0.2164081464865E+00
 0.1633069753338E+01
 0.1623734149636E+01
 0.1610616044123E+01
 0.1593208696740E+01
 0.1570982379211E+01
 0.1543315500914E+01
 0.1509452845033E+01
 0.1468489812142E+01
 0.1419363606291E+01
 0.1360844567396E+01
 0.1291518550719E+01
 0.1209758581058E+01
 0.1113682941718E+01
 0.1001098155667E+01
 0.8694257394072E+00
 0.7156217248850E+00
 0.5361304722335E+00
 0.3271345767012E+00
 0.8602818333060E-01
-0.1729941833986E+00
 0.1710725611898E+01
 0.1710468071195E+01
 0.1707247943523E+01
 0.1700516766011E+01
 0.1689694546192E+01
 0.1674114026063E+01
 0.1652984729821E+01
 0.1625365604368E+01
 0.1590141786239E+01
 0.1545996956039E+01
 0.1491375113719E+01
 0.1424424196243E+01
 0.1342912332164E+01
 0.1244100940179E+01
 0.1124545884827E+01
 0.9797683576022E+00
 0.8036678281658E+00
 0.5873830072951E+00
 0.3165280852032E+00
-0.3449387207696E-01
 0.1787341481268E+01
 0.1796668369739E+01
 0.1803962372674E+01
 0.1808726959458E+01
 0.1810410097274E+01
 0.1808379016690E+01
 0.1801890272540E+01
 0.1790063226246E+01
 0.1771852761735E+01
 0.1746016934828E+01
 0.1711073507331E+01
 0.1665238087084E+01
 0.1606332823443E+01
 0.1531647032458E+01
 0.1437714154713E+01
 0.1319930368747E+01
 0.1171844223539E+01
 0.9835880706280E+00
 0.7382125060733E+00
 0.3905008267341E+00
 0.1861998301681E+01
 0.1881191281323E+01
 0.1899411150212E+01
 0.1916250598262E+01
 0.1931248731077E+01
 0.1943874709542E+01
 0.1953508679147E+01
 0.1959421445488E+01
 0.1960753120640E+01
 0.1956488186123E+01
 0.1945423719411E+01
 0.1926126336991E+01
 0.1896871674307E+01
 0.1855556692382E+01
 0.1799568684452E+01
 0.1725582505954E+01
 0.1629231240713E+01
 0.1504606010915E+01
 0.1343182056155E+01
 0.1139153034568E+01
 0.1933805133433E+01
 0.1962920611476E+01
 0.1992218905829E+01
 0.2021408829553E+01
 0.2050158706492E+01
 0.2078086608426E+01
 0.2104749110284E+01
 0.2129629907462E+01
 0.2152128459480E+01
 0.2171548440674E+01
 0.2187085415422E+01
 0.2197813515349E+01
 0.2202671869270E+01
 0.2200454219687E+01
 0.2189811847770E+01
 0.2169300564667E+01
 0.2137562970527E+01
 0.2093960152476E+01
 0.2040978630850E+01
 0.1995978533630E+01
 0.2001902584860E+01
 0.2040776138219E+01
 0.2081038806740E+01
 0.2122531840887E+01
 0.2165074710007E+01
 0.2208459844902E+01
 0.2252448073637E+01
 0.2296765290101E+01
 0.2341101158203E+01
 0.2385110765831E+01
 0.2428420755994E+01
 0.2470642768666E+01
 0.2511399824688E+01
 0.2550376864151E+01
 0.2587419166163E+01
 0.2622727583390E+01
 0.2657271328314E+01
 0.2693634156250E+01
 0.2738130499690E+01
 0.2798271050829E+01
 0.2065469839155E+01
 0.2113724793102E+01
 0.2164576778523E+01
 0.2218007164009E+01
 0.2273994749940E+01
 0.2332514397594E+01
 0.2393537474314E+01
 0.2457034725593E+01
 0.2522982568937E+01
 0.2591374329032E+01
 0.2662238764452E+01
 0.2735669736721E+01
 0.2811873440048E+01
 0.2891244192432E+01
 0.2974486605710E+01
 0.3062815139651E+01
 0.3158254089090E+01
 0.3264084990160E+01
 0.3384419107724E+01
 0.3523585171502E+01
 0.2123736275686E+01
 0.2180793648320E+01
 0.2241612290581E+01
 0.2306312849985E+01
 0.2375030713835E+01
 0.2447917640679E+01
 0.2525145552627E+01
 0.2606913185930E+01
 0.2693456601150E+01
 0.2785065012289E+01
 0.2882104038288E+01
 0.2985049366414E+01
 0.3094534996999E+01
 0.3211421199593E+01
 0.3336887525741E+01
 0.3472546373062E+01
 0.3620557602927E+01
 0.3783544709667E+01
 0.3964373984348E+01
 0.4165665017607E+01
 0.2175992681691E+01
 0.2241084154039E+01
 0.2311017443896E+01
 0.2386044111460E+01
 0.2466444866053E+01
 0.2552533016988E+01
 0.2644659959310E+01
 0.2743223253627E+01
 0.2848678066163E+01
 0.2961552964203E+01
 0.3082471283221E+01
 0.3212179384777E+01
 0.3351582755883E+01
 0.3501789485228E+01
 0.3664155601696E+01
 0.3840318428956E+01
 0.4032170426695E+01
 0.4241767011878E+01
 0.4471142259491E+01
 0.4722160631757E+01
 0.2221600139875E+01
 0.2293784550170E+01
 0.2371773075056E+01
 0.2455934060263E+01
 0.2546676070270E+01
 0.2644452138556E+01
 0.2749765525529E+01
 0.2863177342722E+01
 0.2985316428441E+01
 0.3116891858469E+01
 0.3258708348538E+01
 0.3411684359282E+01
 0.3576871681584E+01
 0.3755472997246E+01
 0.3948850444633E+01
 0.4158510910224E+01
 0.4386060155620E+01
 0.4633117424815E+01
 0.4901227726732E+01
 0.5191802046501E+01
 0.2259998129781E+01
 0.2338180225317E+01
 0.2422981566702E+01
 0.2514868895059E+01
 0.2614357062195E+01
 0.2722013238110E+01
 0.2838461969928E+01
 0.2964391180159E+01
 0.3100559071721E+01
 0.3247801807623E+01
 0.3407041544120E+01
 0.3579293838761E+01
 0.3765672476887E+01
 0.3967388426475E+01
 0.4185737829216E+01
 0.4422075106974E+01
 0.4677768747793E+01
 0.4954149141294E+01
 0.5252445029129E+01
 0.5573748866969E+01
 0.2290711129057E+01
 0.2373662222974E+01
 0.2463876836412E+01
 0.2561898957133E+01
 0.2668325709793E+01
 0.2783810991591E+01
 0.2909069484912E+01
 0.3044880602297E+01
 0.3192092075367E+01
 0.3351622748319E+01
 0.3524463856518E+01
 0.3711677684137E+01
 0.3914392041361E+01
 0.4133788592305E+01
 0.4371083493367E+01
 0.4627499944743E+01
 0.4904236099176E+01
 0.5202431641948E+01
 0.5523149249904E+01
 0.5867275169137E+01
 0.2313354198488E+01
 0.2399733702339E+01
 0.2493831418120E+01
 0.2596246069153E+01
 0.2707631458115E+01
 0.2828700158713E+01
 0.2960226554038E+01
 0.3103048900008E+01
 0.3258070090494E+01
 0.3426256538138E+01
 0.3608634427939E+01
 0.3806282477424E+01
 0.4020320344281E+01
 0.4251892170348E+01
 0.4502145510678E+01
 0.4772207437174E+01
 0.5063160760799E+01
 0.5376026965908E+01
 0.5711756244869E+01
 0.6071320818044E+01
 0.2327638024847E+01
 0.2416016565960E+01
 0.2512366713073E+01
 0.2617317034624E+01
 0.2731551379543E+01
 0.2855812985119E+01
 0.2990906649046E+01
 0.3137699553204E+01
 0.3297120225979E+01
 0.3470155052456E+01
 0.3657841652039E+01
 0.3861258514806E+01
 0.4081510580908E+01
 0.4319711018612E+01
 0.4576960334544E+01
 0.4854324804202E+01
 0.5152817171127E+01
 0.5473382012003E+01
 0.5816894170894E+01
 0.6184183968397E+01
 0.2333376400314E+01
 0.2422274948320E+01
 0.2519192510408E+01
 0.2624760139368E+01
 0.2739665210554E+01
 0.2864654010548E+01
 0.3000533661642E+01
 0.3148172530354E+01
 0.3308498712380E+01
 0.3482495965670E+01
 0.3671196448793E+01
 0.3875669733866E+01
 0.4097007900453E+01
 0.4336307117497E+01
 0.4594646888344E+01
 0.4873068854713E+01
 0.5172557158252E+01
 0.5494021471884E+01
 0.5838281033810E+01
 0.6205979827907E+01
 0.2330489996380E+01
 0.2418427413584E+01
 0.2514222241188E+01
 0.2618484053797E+01
 0.2731877477012E+01
 0.2855124860867E+01
 0.2989008316219E+01
 0.3134370707619E+01
 0.3292115049699E+01
 0.3463201721186E+01
 0.3648642815973E+01
 0.3849492959025E+01
 0.4066836091066E+01
 0.4301768165404E+01
 0.4555376430262E+01
 0.4828716838549E+01
 0.5122791550035E+01
 0.5438528212940E+01
 0.5776753689391E+01
 0.6138186905944E+01
 0.2319002805989E+01
 0.2404522696221E+01
 0.2497533896910E+01
 0.2598600968804E+01
 0.2708340501558E+01
 0.2827424242189E+01
 0.2956581965855E+01
 0.3096603878337E+01
 0.3248342184444E+01
 0.3412711307575E+01
 0.3590686066143E+01
 0.3783296888519E+01
 0.3991620954223E+01
 0.4216768164378E+01
 0.4459861373859E+01
 0.4722011525936E+01
 0.5004290300034E+01
 0.5307703606180E+01
 0.5633175662024E+01
 0.5981553924110E+01
 0.2299040561445E+01
 0.2380735976185E+01
 0.2469361581183E+01
 0.2565414098703E+01
 0.2669437429096E+01
 0.2782026241624E+01
 0.2903829967386E+01
 0.3035557145856E+01
 0.3177980013554E+01
 0.3331939065619E+01
 0.3498347043994E+01
 0.3678191342599E+01
 0.3872533136479E+01
 0.4082500716302E+01
 0.4309274101680E+01
 0.4554059152718E+01
 0.4818052462752E+01
 0.5102404654546E+01
 0.5408192529272E+01
 0.5736407757583E+01
 0.2270829509190E+01
 0.2347368363361E+01
 0.2430095316390E+01
 0.2519417955983E+01
 0.2615783815906E+01
 0.2719684295697E+01
 0.2831659609722E+01
 0.2952305024808E+01
 0.3082278625881E+01
 0.3222310777028E+01
 0.3373215205688E+01
 0.3535901099786E+01
 0.3711384567364E+01
 0.3900796060069E+01
 0.4105377744486E+01
 0.4326463160036E+01
 0.4565435084390E+01
 0.4823665386519E+01
 0.5102455072455E+01
 0.5402991990829E+01
 0.2234694900182E+01
 0.2304845136147E+01
 0.2380279839736E+01
 0.2461298307759E+01
 0.2548229821138E+01
 0.2641437343602E+01
 0.2741322768769E+01
 0.2848334245449E+01
 0.2962976278931E+01
 0.3085823399393E+01
 0.3217538139510E+01
 0.3358893807930E+01
 0.3510801752384E+01
 0.3674340772119E+01
 0.3850782154866E+01
 0.4041594931337E+01
 0.4248409272466E+01
 0.4472929836311E+01
 0.4716810063816E+01
 0.4981546631627E+01
 0.2191058012665E+01
 0.2253712910362E+01
 0.2320612311238E+01
 0.2391931346403E+01
 0.2467862137435E+01
 0.2548616600735E+01
 0.2634430751073E+01
 0.2725571424868E+01
 0.2822346717004E+01
 0.2925121525341E+01
 0.3034339897019E+01
 0.3150556227880E+01
 0.3274477684893E+01
 0.3407019832910E+01
 0.3549374193960E+01
 0.3703077367396E+01
 0.3870036697885E+01
 0.4052438116571E+01
 0.4252537576850E+01
 0.4472373867205E+01
 0.2140432698766E+01
 0.2194635702652E+01
 0.2251938840241E+01
 0.2312381278637E+01
 0.2376003728690E+01
 0.2442849510668E+01
 0.2512965825537E+01
 0.2586407382478E+01
 0.2663244050674E+01
 0.2743574387061E+01
 0.2827547146975E+01
 0.2915394097136E+01
 0.3007479382075E+01
 0.3104373525216E+01
 0.3206963568268E+01
 0.3316609656244E+01
 0.3435348596522E+01
 0.3565990586274E+01
 0.3711804653982E+01
 0.3875963225371E+01
 0.2083420537550E+01
 0.2128390449737E+01
 0.2175250584820E+01
 0.2223896659777E+01
 0.2274210960087E+01
 0.2326059226652E+01
 0.2379286103528E+01
 0.2433712158728E+01
 0.2489135355179E+01
 0.2545337800993E+01
 0.2602099367939E+01
 0.2659221182340E+01
 0.2716565188461E+01
 0.2774121579147E+01
 0.2832126518379E+01
 0.2891273403759E+01
 0.2953088015562E+01
 0.3020626024616E+01
 0.3098879800972E+01
 0.3193366311961E+01
 0.2020705801211E+01
 0.2055864858418E+01
 0.2091681606217E+01
 0.2127906423254E+01
 0.2164266604893E+01
 0.2200455674809E+01
 0.2236116264852E+01
 0.2270828258565E+01
 0.2304101231954E+01
 0.2335370675815E+01
 0.2363996873035E+01
 0.2389267274303E+01
 0.2410405492399E+01
 0.2426595365771E+01
 0.2437039404193E+01
 0.2441099515605E+01
 0.2438643152641E+01
 0.2430910078184E+01
 0.2423340567839E+01
 0.2427656640572E+01
 0.1953053601197E+01
 0.1978060473483E+01
 0.2002509916486E+01
 0.2026009878964E+01
 0.2048159198498E+01
 0.2068502932943E+01
 0.2086501909617E+01
 0.2101510188682E+01
 0.2112759422563E+01
 0.2119343294839E+01
 0.2120198732569E+01
 0.2114079657405E+01
 0.2099520753381E+01
 0.2074788176673E+01
 0.2037815989840E+01
 0.1986130243363E+01
 0.1916804939963E+01
 0.1826595417441E+01
 0.1713235967793E+01
 0.1588674367095E+01
 0.1881316450797E+01
 0.1896114601565E+01
 0.1909149123504E+01
 0.1919946494511E+01
 0.1928026558259E+01
 0.1932833642619E+01
 0.1933686988018E+01
 0.1929755547556E+01
 0.1920037182741E+01
 0.1903337837294E+01
 0.1878237893521E+01
 0.1843040879399E+01
 0.1795694624521E+01
 0.1733670733550E+01
 0.1653772930327E+01
 0.1551820268036E+01
 0.1422052785120E+01
 0.1256037887254E+01
 0.1039459002415E+01
 0.7463997388159E+00
 0.1806512363602E+01
 0.1811262967049E+01
 0.1813072471339E+01
 0.1811471265571E+01
 0.1805986127943E+01
 0.1796022410695E+01
 0.1780818940333E+01
 0.1759418937393E+01
 0.1730667409572E+01
 0.1693191129019E+01
 0.1645364992268E+01
 0.1585251041723E+01
 0.1510503972829E+01
 0.1418224093361E+01
 0.1304722330259E+01
 0.1165111474430E+01
 0.9925634596887E+00
 0.7765393109311E+00
 0.4992296385282E+00
 0.1102405426650E+00
 0.1729547482732E+01
 0.1724495045536E+01
 0.1715372282315E+01
 0.1701856037415E+01
 0.1683571246113E+01
 0.1659980085967E+01
 0.1630285972122E+01
 0.1593486262076E+01
 0.1548374663949E+01
 0.1493554872976E+01
 0.1427414770707E+01
 0.1348081255246E+01
 0.1253349226668E+01
 0.1140577997079E+01
 0.1006536152128E+01
 0.8471713685224E+00
 0.6572197367311E+00
 0.4297599522503E+00
 0.1547502705135E+00
-0.1700172482331E+00
 0.1651337773592E+01
 0.1636714101692E+01
 0.1616988230001E+01
 0.1592114300807E+01
 0.1562061709284E+01
 0.1526319512411E+01
 0.1484133520970E+01
 0.1434479890771E+01
 0.1376211715319E+01
 0.1308061923498E+01
 0.1228641881322E+01
 0.1136422543459E+01
 0.1029713296604E+01
 0.9066443073664E+00
 0.7651704923364E+00
 0.6031348955280E+00
 0.4185663273335E+00
 0.2105536008088E+00
-0.1680540864155E-01
-0.2400298901271E+00
 0.1572929042099E+01
 0.1548966380254E+01
 0.1518677459157E+01
 0.1483220500316E+01
 0.1442589744563E+01
 0.1396578605572E+01
 0.1344218893476E+01
 0.1284531761078E+01
 0.1216493139647E+01
 0.1139074953468E+01
 0.1051240127471E+01
 0.9519496937830E+00
 0.8401876715963E+00
 0.7150245151346E+00
 0.5757524433679E+00
 0.4221781278913E+00
 0.2552205453757E+00
 0.7833038958405E-01
-0.9952347141297E-01
-0.2678116297348E+00
 0.1495839204965E+01
 0.1461644157084E+01
 0.1421181119390E+01
 0.1375295458599E+01
 0.1326092300668E+01
 0.1271999078695E+01
 0.1212022064775E+01
 0.1145186180968E+01
 0.1070667539859E+01
 0.9877424555416E+00
 0.8957840790994E+00
 0.7942778785311E+00
 0.6828759014445E+00
 0.5615047084718E+00
 0.4305575488980E+00
 0.2912053383854E+00
 0.1458954371850E+00
-0.1171460320933E-02
-0.1447667019682E+00
-0.2799955513417E+00
 0.1420868714921E+01
 0.1377358654642E+01
 0.1321323331872E+01
 0.1268665573449E+01
 0.1213278791017E+01
 0.1153751015361E+01
 0.1088771109945E+01
 0.1017547170054E+01
 0.9395284887969E+00
 0.8543521172393E+00
 0.7618106808907E+00
 0.6618694113645E+00
 0.5547255209472E+00
 0.4409177989990E+00
 0.3214895093367E+00
 0.1981961593580E+00
 0.7362344432786E-01
-0.4901073795951E-01
-0.1678328684318E+00
-0.2828741870370E+00
 0.1367082324977E+01
 0.1275598312919E+01
 0.1219328865008E+01
 0.1163566304961E+01
 0.1105628953630E+01
 0.1043299918571E+01
 0.9757379208404E+00
 0.9025208885129E+00
 0.8235090130630E+00
 0.7387371640670E+00
 0.6483885816354E+00
 0.5528063783953E+00
 0.4525397120325E+00
 0.3484197421110E+00
 0.2416571912046E+00
 0.1339186064118E+00
 0.2732014619258E-01
-0.7599708376065E-01
-0.1730919829794E+00
-0.2685685917541E+00
</DataArray>
<DataArray type="Float64" Name="S_Oct" NumberOfComponents="1" ComponentName0="S_Oct" format="ascii">
 0.2387474261664E+01
 0.2104852944894E+01
 0.1892699384892E+01
 0.1814624588136E+01
 0.1762715991776E+01
 0.1732119680656E+01
 0.1712968120304E+01
 0.1701950679124E+01
 0.1696841014088E+01
 0.1696486719379E+01
 0.1700261870433E+01
 0.1707925553800E+01
 0.1719522131621E+01
 0.1735348906156E+01
 0.1755963777813E+01
 0.1782246758261E+01
 0.1815549895698E+01
 0.1858094812049E+01
 0.1913923107239E+01
 0.1988893633613E+01
 0.2080471215529E+01
 0.2175205801212E+01
 0.2261851479710E+01
 0.2336713880815E+01
 0.2401138349992E+01
 0.2458165094928E+01
 0.2510518464952E+01
 0.2559779428650E+01
 0.2605970881412E+01
 0.2647166168434E+01
 0.2681890232767E+01
 0.2713971247395E+01
 0.2749525750372E+01
 0.2792659872212E+01
 0.2847593800681E+01
 0.2918313480695E+01
 0.3016522957656E+01
 0.3126052704866E+01
 0.3370281141303E+01
 0.3012192981759E+01
 0.6144810317157E+01
 0.2032279450812E+01
 0.2086105008011E+01
 0.1930168825272E+01
 0.1835687942750E+01
 0.1782711256014E+01
 0.1747873116972E+01
 0.1725983263771E+01
 0.1712633655378E+01
 0.1705693852162E+01
 0.1703858363531E+01
 0.1706430952446E+01
 0.1713102659650E+01
 0.1723863589907E+01
 0.1738960801472E+01
 0.1758899970619E+01
 0.1784491509261E+01
 0.1816971266409E+01
 0.1858202589562E+01
 0.1910240840586E+01
 0.1973653732734E+01
 0.2045392595147E+01
 0.2119089616781E+01
 0.2188521966626E+01
 0.2250362954376E+01
 0.2304144075834E+01
 0.2350844559271E+01
 0.2391612294487E+01
 0.2426977584368E+01
 0.2456600261449E+01
 0.2479824936633E+01
 0.2496551530745E+01
 0.2507444377438E+01
 0.2513415650579E+01
 0.2514516565181E+01
 0.2508288594662E+01
 0.2489529397577E+01
 0.2440016259490E+01
 0.2345385612435E+01
 0.2046667262833E+01
 0.1564458183042E+01
 0.5231535921334E+01
 0.1841831879333E+01
 0.1976681062782E+01
 0.1926895978013E+01
 0.1845036557819E+01
 0.1793288945237E+01
 0.1758403221172E+01
 0.1735204456392E+01
 0.1720531846952E+01
 0.1712295659163E+01
 0.1709281123876E+01
 0.1710780660486E+01
 0.1716461860958E+01
 0.1726275300344E+01
 0.1740415194761E+01
 0.1759310142559E+01
 0.1783642673561E+01
 0.1814390456725E+01
 0.1852643228738E+01
 0.1898633776849E+01
 0.1950946127795E+01
 0.2007075160143E+01
 0.2063988359767E+01
 0.2118407289998E+01
 0.2167717181180E+01
 0.2210596565744E+01
 0.2246727899454E+01
 0.2276128918121E+01
 0.2298611999324E+01
 0.2313739747388E+01
 0.2321245742796E+01
 0.2320863950352E+01
 0.2311501820314E+01
 0.2291198561639E+01
 0.2256739515780E+01
 0.2202222395636E+01
 0.2115919152948E+01
 0.1979731175887E+01
 0.1757637520438E+01
 0.1395639838335E+01
 0.1484797497028E+01
 0.4824356904521E+01
 0.1723528885642E+01
 0.1872397961719E+01
 0.1889832497200E+01
 0.1840488025286E+01
 0.1795638228046E+01
 0.1763336451692E+01
 0.1740592368352E+01
 0.1725519978958E+01
 0.1716559233355E+01
 0.1712678608741E+01
 0.1713250609476E+01
 0.1717955603523E+01
 0.1726722101482E+01
 0.1739689748367E+01
 0.1757189086045E+01
 0.1779725709111E+01
 0.1807899102240E+01
 0.1841972548883E+01
 0.1881057964515E+01
 0.1923146104369E+01
 0.1966387447119E+01
 0.2009460764643E+01
 0.2050749599640E+01
 0.2088305655645E+01
 0.2120490762950E+01
 0.2146230285316E+01
 0.2164799961028E+01
 0.2175556338615E+01
 0.2177956098229E+01
 0.2171662314879E+01
 0.2155954676189E+01
 0.2128751898644E+01
 0.2086615252660E+01
 0.2024809777587E+01
 0.1936176826247E+01
 0.1810175377241E+01
 0.1633784697171E+01
 0.1394973369679E+01
 0.1189861720584E+01
 0.1834622180624E+01
 0.4462366477354E+01
 0.1642835187642E+01
 0.1786024158684E+01
 0.1840067345235E+01
 0.1822808772733E+01
 0.1790520287298E+01
 0.1762966932277E+01
 0.1742164902145E+01
 0.1727594613919E+01
 0.1718450626986E+01
 0.1714018504821E+01
 0.1713813274426E+01
 0.1717566273752E+01
 0.1725199692077E+01
 0.1736799288546E+01
 0.1752583249727E+01
 0.1772844863716E+01
 0.1797769375961E+01
 0.1826961417327E+01
 0.1858968401368E+01
 0.1891759014374E+01
 0.1924035495372E+01
 0.1955387870669E+01
 0.1985132694812E+01
 0.2011844917210E+01
 0.2033847665249E+01
 0.2049678142738E+01
 0.2058174734160E+01
 0.2058413342644E+01
 0.2049716615806E+01
 0.2031542098364E+01
 0.2002801479695E+01
 0.1960983174536E+01
 0.1902239239949E+01
 0.1821766732219E+01
 0.1713728215556E+01
 0.1572360337066E+01
 0.1396738779714E+01
 0.1217551634638E+01
 0.1241221489578E+01
 0.2148838942153E+01
 0.4163939121041E+01
 0.1583990453212E+01
 0.1716165148954E+01
 0.1788476131477E+01
 0.1796544863087E+01
 0.1778775850079E+01
 0.1757826964326E+01
 0.1740105352733E+01
 0.1726827677242E+01
 0.1717995534690E+01
 0.1713307847260E+01
 0.1712473457354E+01
 0.1715305070107E+01
 0.1721733630199E+01
 0.1731794184561E+01
 0.1745586057825E+01
 0.1763179608031E+01
 0.1784386642174E+01
 0.1808367681944E+01
 0.1833459068259E+01
 0.1857823510421E+01
 0.1880581824592E+01
 0.1901814752592E+01
 0.1921361601394E+01
 0.1938186147637E+01
 0.1950708973908E+01
 0.1957322376186E+01
 0.1956648937822E+01
 0.1947608278934E+01
 0.1929406821490E+01
 0.1901329708198E+01
 0.1862121345727E+01
 0.1809302609519E+01
 0.1739405257422E+01
 0.1648753085613E+01
 0.1534493776960E+01
 0.1397646535077E+01
 0.1253458354068E+01
 0.1171954873453E+01
 0.1399836033069E+01
 0.2361460673779E+01
 0.3926023733376E+01
 0.1538839068936E+01
 0.1659386681535E+01
 0.1739624613157E+01
 0.1765833967572E+01
 0.1761869059800E+01
 0.1748523495820E+01
 0.1734724761063E+01
 0.1723362521126E+01
 0.1715269302757E+01
 0.1710590866663E+01
 0.1709265785412E+01
 0.1711210346643E+01
 0.1716377333000E+01
 0.1724756929421E+01
 0.1736332253416E+01
 0.1750966348758E+01
 0.1768177407123E+01
 0.1786869157066E+01
 0.1805370011173E+01
 0.1822099499737E+01
 0.1836483625652E+01
 0.1848865709930E+01
 0.1859377672425E+01
 0.1867271045816E+01
 0.1871127181092E+01
 0.1869348291006E+01
 0.1860496376114E+01
 0.1843433697115E+01
 0.1817308676434E+01
 0.1781339961701E+01
 0.1734326186492E+01
 0.1674188844081E+01
 0.1598408220022E+01
 0.1505226656514E+01
 0.1395640393605E+01
 0.1278368557354E+01
 0.1184520626361E+01
 0.1209771207794E+01
 0.1574633695813E+01
 0.2494160301232E+01
 0.3736993502924E+01
 0.1502774359760E+01
 0.1612593524034E+01
 0.1695067549579E+01
 0.1733514502146E+01
 0.1741386942588E+01
 0.1735773338926E+01
 0.1726399474438E+01
 0.1717402777164E+01
 0.1710388698121E+01
 0.1705944410969E+01
 0.1704251904574E+01
 0.1705345147564E+01
 0.1709209233416E+01
 0.1715797781672E+01
 0.1724989567548E+01
 0.1736474438202E+01
 0.1749565821504E+01
 0.1763051887372E+01
 0.1775360731671E+01
 0.1785168278616E+01
 0.1792120814296E+01
 0.1796699661822E+01
 0.1799201748312E+01
 0.1799097314969E+01
 0.1795155620183E+01
 0.1785884496049E+01
 0.1769892947935E+01
 0.1746069948998E+01
 0.1713584912165E+01
 0.1671716747024E+01
 0.1619516935911E+01
 0.1555580253975E+01
 0.1478700941719E+01
 0.1389454519489E+01
 0.1292992850109E+01
 0.1205539657587E+01
 0.1170664479795E+01
 0.1290940058170E+01
 0.1730588665671E+01
 0.2573801138320E+01
 0.3585176104945E+01
 0.1473016021452E+01
 0.1573383290958E+01
 0.1655031052624E+01
 0.1701305151156E+01
 0.1718704086893E+01
 0.1720331803587E+01
 0.1715545167933E+01
 0.1709191676025E+01
 0.1703504056869E+01
 0.1699472603680E+01
 0.1697517047721E+01
 0.1697794232626E+01
 0.1700329328827E+01
 0.1705049648183E+01
 0.1711748639963E+01
 0.1719985982588E+01
 0.1728951776126E+01
 0.1737416754886E+01
 0.1743959811906E+01
 0.1747490001645E+01
 0.1747814408278E+01
 0.1745485655390E+01
 0.1740896963054E+01
 0.1733692797153E+01
 0.1722839966018E+01
 0.1707009648689E+01
 0.1684932550217E+01
 0.1655596353556E+01
 0.1618274190739E+01
 0.1572424786278E+01
 0.1517509539286E+01
 0.1452976461552E+01
 0.1379123162881E+01
 0.1298990434695E+01
 0.1221763791231E+01
 0.1170038068218E+01
 0.1194357294133E+01
 0.1388307160985E+01
 0.1859514080955E+01
 0.2619882250179E+01
 0.3461394360231E+01
 0.1447795238086E+01
 0.1539966693362E+01
 0.1619201596016E+01
 0.1670152834143E+01
 0.1694878439237E+01
 0.1702909484215E+01
 0.1702590413839E+01
 0.1698995255277E+01
 0.1694789929837E+01
 0.1691301458218E+01
 0.1689166167395E+01
 0.1688660737850E+01
 0.1689855359640E+01
 0.1692662484837E+01
 0.1696813310536E+01
 0.1701781673093E+01
 0.1706701724702E+01
 0.1710391012724E+01
 0.1711598647335E+01
 0.1709438390397E+01
 0.1703838395637E+01
 0.1695388906226E+01
 0.1684544647250E+01
 0.1671096968678E+01
 0.1654211690907E+01
 0.1632757242670E+01
 0.1605637901912E+01
 0.1571999984190E+01
 0.1531295404641E+01
 0.1483261286304E+01
 0.1427879273311E+01
 0.1365547889603E+01
 0.1298121521219E+01
 0.1231034362390E+01
 0.1177037455691E+01
 0.1163217401724E+01
 0.1241063062544E+01
 0.1486652851170E+01
 0.1962893114183E+01
 0.2645040397794E+01
 0.3358952079600E+01
 0.1425937111487E+01
 0.1511022979064E+01
 0.1587084725621E+01
 0.1640519314339E+01
 0.1670666434985E+01
 0.1684122105423E+01
 0.1687950203504E+01
 0.1687088240007E+01
 0.1684436147940E+01
 0.1681573352728E+01
 0.1679319942085E+01
 0.1678062635300E+01
 0.1677918829312E+01
 0.1678797761258E+01
 0.1680392511919E+01
 0.1682131903762E+01
 0.1683146333017E+01
 0.1682339944539E+01
 0.1678634682857E+01
 0.1671322616929E+01
 0.1660427616103E+01
 0.1646562789992E+01
 0.1630228978532E+01
 0.1611348376665E+01
 0.1589283613827E+01
 0.1563119377799E+01
 0.1531969036029E+01
 0.1495184968202E+01
 0.1452459027582E+01
 0.1403879328700E+01
 0.1350013887580E+01
 0.1292241930484E+01
 0.1233928779241E+01
 0.1182677032697E+01
 0.1154048143015E+01
 0.1177309151788E+01
 0.1299974365311E+01
 0.1578700384964E+01
 0.2044893485445E+01
 0.2657210370739E+01
 0.3273059344213E+01
 0.1406632767747E+01
 0.1485574008331E+01
 0.1558162333743E+01
 0.1612577954869E+01
 0.1646579726854E+01
 0.1664473258714E+01
 0.1672005995537E+01
 0.1673741969550E+01
 0.1672639940550E+01
 0.1670441699717E+01
 0.1668110802803E+01
 0.1666129167449E+01
 0.1664661077901E+01
 0.1663623435197E+01
 0.1662694086104E+01
 0.1661291742653E+01
 0.1658581490358E+01
 0.1653577062375E+01
 0.1645367639915E+01
 0.1633401596082E+01
 0.1617783178130E+01
 0.1599144303513E+01
 0.1578027363483E+01
 0.1554476452859E+01
 0.1528047202990E+01
 0.1498050081039E+01
 0.1463830810948E+01
 0.1424982837292E+01
 0.1381482856897E+01
 0.1333816776562E+01
 0.1283167540081E+01
 0.1231874228532E+01
 0.1184694230494E+01
 0.1151050471909E+01
 0.1148348660687E+01
 0.1205742590531E+01
 0.1363800853837E+01
 0.1661637575694E+01
 0.2109863432233E+01
 0.2661360559338E+01
 0.3200271861889E+01
 0.1389308353109E+01
 0.1462889299992E+01
 0.1531956555872E+01
 0.1586339115282E+01
 0.1622946803499E+01
 0.1644358010822E+01
 0.1655094463121E+01
 0.1659214957708E+01
 0.1659599255761E+01
 0.1658066090651E+01
 0.1655679137220E+01
 0.1652997408749E+01
 0.1650229613479E+01
 0.1647309689687E+01
 0.1643920387465E+01
 0.1639498488125E+01
 0.1633270813730E+01
 0.1624372553102E+01
 0.1612051069693E+01
 0.1595893692094E+01
 0.1576076426255E+01
 0.1553251726595E+01
 0.1528004699065E+01
 0.1500496585690E+01
 0.1470471437950E+01
 0.1437468725827E+01
 0.1401080262870E+01
 0.1361163864526E+01
 0.1318010003491E+01
 0.1272526412524E+01
 0.1226509739593E+01
 0.1183199888632E+01
 0.1148570370154E+01
 0.1133418249116E+01
 0.1155936183778E+01
 0.1243295819664E+01
 0.1428004919584E+01
 0.1734929433150E+01
 0.2161562667123E+01
 0.2660630940092E+01
 0.3138070188926E+01
 0.1373546333303E+01
 0.1442417693894E+01
 0.1508051012214E+01
 0.1561726904034E+01
 0.1599965856762E+01
 0.1624076628997E+01
 0.1637503712922E+01
 0.1643746471743E+01
 0.1645507379556E+01
 0.1644608053371E+01
 0.1642169792574E+01
 0.1638809061238E+01
 0.1634774823394E+01
 0.1630025480883E+01
 0.1624265321184E+01
 0.1616970824488E+01
 0.1607448622887E+01
 0.1594960069778E+01
 0.1578900701190E+01
 0.1558983518447E+01
 0.1535451980887E+01
 0.1508983642134E+01
 0.1480210173131E+01
 0.1449407455182E+01
 0.1416502850980E+01
 0.1381263652143E+01
 0.1343533916251E+01
 0.1303448744422E+01
 0.1261627146206E+01
 0.1219404073837E+01
 0.1179165826726E+01
 0.1144964539304E+01
 0.1123767342385E+01
 0.1127235460009E+01
 0.1173343417672E+01
 0.1286045277604E+01
 0.1489968589950E+01
 0.1799104578650E+01
 0.2203027011691E+01
 0.2657035727246E+01
 0.3084568478382E+01
 0.1359036371709E+01
 0.1423738859190E+01
 0.1486093227271E+01
 0.1538624802773E+01
 0.1577745774076E+01
 0.1603851538352E+01
 0.1619474638779E+01
 0.1627552961623E+01
 0.1630548900810E+01
 0.1630227494819E+01
 0.1627728969412E+01
 0.1623707573836E+01
 0.1618447139284E+01
 0.1611935855250E+01
 0.1603912473145E+01
 0.1593908928480E+01
 0.1581322907300E+01
 0.1565542149215E+01
 0.1546100606836E+01
 0.1522826895471E+01
 0.1496030226626E+01
 0.1466418870454E+01
 0.1434675801451E+01
 0.1401190002537E+01
 0.1366066523154E+01
 0.1329296065618E+01
 0.1290975061198E+01
 0.1251520070819E+01
 0.1211881701509E+01
 0.1173812938968E+01
 0.1140248056938E+01
 0.1115938733090E+01
 0.1108587650413E+01
 0.1130193184570E+01
 0.1197679849390E+01
 0.1331178894134E+01
 0.1548318825905E+01
 0.1855120024317E+01
 0.2236641756278E+01
 0.2651892606147E+01
 0.3038318754060E+01
 0.1345543626076E+01
 0.1406528902618E+01
 0.1465789395564E+01
 0.1516902014036E+01
 0.1556336220886E+01
 0.1583843837964E+01
 0.1601205226356E+01
 0.1610826807123E+01
 0.1614896966462E+01
 0.1615079859718E+01
 0.1612501568309E+01
 0.1607835650939E+01
 0.1601394689197E+01
 0.1593199955920E+01
 0.1583034051293E+01
 0.1570495129745E+01
 0.1555078101389E+01
 0.1536294575321E+01
 0.1513807911401E+01
 0.1487554671186E+01
 0.1457909531673E+01
 0.1425617097836E+01
 0.1391416234591E+01
 0.1355807654490E+01
 0.1319067907379E+01
 0.1281404266647E+01
 0.1243160968560E+01
 0.1205033227916E+01
 0.1168297136330E+01
 0.1135103302808E+01
 0.1108878183386E+01
 0.1094940598210E+01
 0.1101450199723E+01
 0.1140249145034E+01
 0.1226619171725E+01
 0.1376760894625E+01
 0.1602448871456E+01
 0.1904040184317E+01
 0.2264263582319E+01
 0.2646090212795E+01
 0.2998180934044E+01
 0.1332887670438E+01
 0.1390535825262E+01
 0.1446896633515E+01
 0.1496428099535E+01
 0.1535748949215E+01
 0.1564167733136E+01
 0.1582856171519E+01
 0.1593736719622E+01
 0.1598711655651E+01
 0.1599313974725E+01
 0.1596629000170E+01
 0.1591333163103E+01
 0.1583761409317E+01
 0.1573969591995E+01
 0.1561790385262E+01
 0.1546894841605E+01
 0.1528877565672E+01
 0.1507369898165E+01
 0.1482156459343E+01
 0.1453275760055E+01
 0.1421168262843E+01
 0.1386619925171E+01
 0.1350429366980E+01
 0.1313207347170E+01
 0.1275395146400E+01
 0.1237407953363E+01
 0.1199829704637E+01
 0.1163626153369E+01
 0.1130385798634E+01
 0.1102627710089E+01
 0.1084203085939E+01
 0.1080850950395E+01
 0.1100907743229E+01
 0.1155641768045E+01
 0.1258345530730E+01
 0.1421508548954E+01
 0.1652201908223E+01
 0.1946879234824E+01
 0.2287331355983E+01
 0.2640262649545E+01
 0.2963238832267E+01
 0.1320928106052E+01
 0.1375561842661E+01
 0.1429215000655E+01
 0.1477080623233E+01
 0.1515972509758E+01
 0.1544902395833E+01
 0.1564556761143E+01
 0.1576429196795E+01
 0.1582139256932E+01
 0.1583070520067E+01
 0.1580247453294E+01
 0.1574335458122E+01
 0.1565685579957E+01
 0.1554388265915E+01
 0.1540329813335E+01
 0.1523257611496E+01
 0.1502865775548E+01
 0.1478900316020E+01
 0.1451259762596E+01
 0.1420079670861E+01
 0.1385866684205E+01
 0.1349452214077E+01
 0.1311697500353E+01
 0.1273321104127E+01
 0.1234921716098E+01
 0.1197112479252E+01
 0.1160706395553E+01
 0.1126927773746E+01
 0.1097659210841E+01
 0.1075752061016E+01
 0.1065405421030E+01
 0.1072623876217E+01
 0.1105658556637E+01
 0.1174887000088E+01
 0.1291477973412E+01
 0.1464607085692E+01
 0.1697672508163E+01
 0.1984528290372E+01
 0.2306939576746E+01
 0.2634908267337E+01
 0.2932752256611E+01
 0.1309554503730E+01
 0.1361450508157E+01
 0.1412580215179E+01
 0.1458748686003E+01
 0.1496982189783E+01
 0.1526101332316E+01
 0.1546410413995E+01
 0.1559030550463E+01
 0.1565312221985E+01
 0.1566481044585E+01
 0.1563486587225E+01
 0.1556972049649E+01
 0.1547298736964E+01
 0.1534590563659E+01
 0.1518788831064E+01
 0.1499718201876E+01
 0.1477170243208E+01
 0.1451000074726E+01
 0.1421213440395E+01
 0.1388038687406E+01
 0.1352048776867E+01
 0.1314123625967E+01
 0.1275188865807E+01
 0.1236067960423E+01
 0.1197509222853E+01
 0.1160312924907E+01
 0.1125508806436E+01
 0.1094565028938E+01
 0.1069636006192E+01
 0.1053863511697E+01
 0.1051710941663E+01
 0.1069294260546E+01
 0.1114551903546E+01
 0.1196760670737E+01
 0.1324989949976E+01
 0.1505567287329E+01
 0.1739086707300E+01
 0.2017738924280E+01
 0.2323860549828E+01
 0.2630453997752E+01
 0.2906139704911E+01
 0.1298679223184E+01
 0.1348077226487E+01
 0.1396857353743E+01
 0.1441334106497E+01
 0.1478746577831E+01
 0.1507799577637E+01
 0.1528499587933E+01
 0.1541649162799E+01
 0.1548349590171E+01
 0.1549667429158E+01
 0.1546468608861E+01
 0.1539365648271E+01
 0.1528724906351E+01
 0.1514701828277E+01
 0.1497292413622E+01
 0.1476397653669E+01
 0.1451903209095E+01
 0.1423767501649E+01
 0.1392097295208E+01
 0.1357209806317E+01
 0.1319743996572E+01
 0.1280630274913E+01
 0.1240859360132E+01
 0.1201356072814E+01
 0.1163010214811E+01
 0.1126797872294E+01
 0.1093952164020E+01
 0.1066168530938E+01
 0.1045847852325E+01
 0.1036376002831E+01
 0.1042393621063E+01
 0.1069982693985E+01
 0.1126587146949E+01
 0.1220271335938E+01
 0.1358134226176E+01
 0.1544121942363E+01
 0.1776727440791E+01
 0.2047150388911E+01
 0.2338567602821E+01
 0.2627176473922E+01
 0.2883022082809E+01
 0.1288231535774E+01
 0.1335344966276E+01
 0.1381941837802E+01
 0.1424762064432E+01
 0.1461247473360E+01
 0.1490039691859E+01
 0.1510915187297E+01
 0.1524407398323E+01
 0.1531391778109E+01
 0.1532780482990E+01
 0.1529351806638E+01
 0.1521681898605E+01
 0.1510137945943E+01
 0.1494904599643E+01
 0.1476031008771E+01
 0.1453492054874E+01
 0.1427262999161E+01
 0.1397399284245E+01
 0.1364102396956E+01
 0.1327774106403E+01
 0.1289118035298E+01
 0.1249115554900E+01
 0.1208821544944E+01
 0.1169257205095E+01
 0.1131444358036E+01
 0.1096522002472E+01
 0.1065911069150E+01
 0.1041514541272E+01
 0.1025950048399E+01
 0.1022796359662E+01
 0.1036783688095E+01
 0.1073832244181E+01
 0.1140764553309E+01
 0.1244411616253E+01
 0.1390103642729E+01
 0.1579851231630E+01
 0.1810612090784E+01
 0.2073070501204E+01
 0.2351368938902E+01
 0.2624455277880E+01
 0.2866334026400E+01
 0.1278157647636E+01
 0.1323174592608E+01
 0.1367744189900E+01
 0.1408959872932E+01
 0.1444451866167E+01
 0.1472834951656E+01
 0.1493709730276E+01
 0.1507384535636E+01
 0.1514533426939E+01
 0.1515922462564E+01
 0.1512241752176E+01
 0.1504027529752E+01
 0.1491644334684E+01
 0.1475303375554E+01
 0.1455104478226E+01
 0.1431092995584E+01
 0.1403328740346E+01
 0.1371957923838E+01
 0.1337270755536E+01
 0.1299749265429E+01
 0.1260159864721E+01
 0.1219534440796E+01
 0.1178990297494E+01
 0.1139639687235E+01
 0.1102627094415E+01
 0.1069241815890E+01
 0.1041077114891E+01
 0.1020223295043E+01
 0.1009483855722E+01
 0.1012578730288E+01
 0.1034245649241E+01
 0.1080138309837E+01
 0.1156380158951E+01
 0.1268606926421E+01
 0.1420602323077E+01
 0.1612826981100E+01
 0.1841141303770E+01
 0.2096023970163E+01
 0.2362677571486E+01
 0.2622080561196E+01
 0.2854254546694E+01
 0.1268410071881E+01
 0.1311496654364E+01
 0.1354180746897E+01
 0.1393850834419E+01
 0.1428309110914E+01
 0.1456168673876E+01
 0.1476897241713E+01
 0.1490616366237E+01
 0.1497822588369E+01
 0.1499146144852E+01
 0.1495190698276E+01
 0.1486450536477E+01
 0.1473284595201E+01
 0.1455927728803E+01
 0.1434527324242E+01
 0.1409195226779E+01
 0.1380070637079E+01
 0.1347384681391E+01
 0.1311510903342E+01
 0.1273007682754E+01
 0.1232702295206E+01
 0.1191676393178E+01
 0.1151107855878E+01
 0.1112195171599E+01
 0.1076197345471E+01
 0.1044543065545E+01
 0.1018984282077E+01
 0.1001779999213E+01
 0.9958901095070E+00
 0.1005126813044E+01
 0.1034162619247E+01
 0.1088303370633E+01
 0.1172933249581E+01
 0.1292560805294E+01
 0.1449632158037E+01
 0.1643371258064E+01
 0.1868860913401E+01
 0.2116599385342E+01
 0.2372771915953E+01
 0.2620514671351E+01
 0.2842843025628E+01
 0.1258951562165E+01
 0.1300258489962E+01
 0.1341189915621E+01
 0.1379381354225E+01
 0.1412789846455E+01
 0.1440043482586E+01
 0.1460510921990E+01
 0.1474159939401E+01
 0.1481332335093E+01
 0.1482534145109E+01
 0.1478286283975E+01
 0.1469040584245E+01
 0.1455148163729E+01
 0.1436864662337E+01
 0.1414381567383E+01
 0.1387872844693E+01
 0.1357551739361E+01
 0.1323728506308E+01
 0.1286854734897E+01
 0.1247561099367E+01
 0.1206733339787E+01
 0.1165501467482E+01
 0.1125101531541E+01
 0.1086813226490E+01
 0.1052002091737E+01
 0.1022225617727E+01
 0.9993809509863E+00
 0.9858769114715E+00
 0.9848000183677E+00
 0.1000007847035E+01
 0.1036044693959E+01
 0.1097810561775E+01
 0.1189943582906E+01
 0.1315916707872E+01
 0.1477036947088E+01
 0.1671552446843E+01
 0.1894016840246E+01
 0.2135082550762E+01
 0.2381918792656E+01
 0.2619494905354E+01
 0.2832931647981E+01
 0.1249751735772E+01
 0.1289417087052E+01
 0.1328720900471E+01
 0.1365505962122E+01
 0.1397867543305E+01
 0.1424459340222E+01
 0.1444577415704E+01
 0.1458063878707E+01
 0.1465126938267E+01
 0.1466160611505E+01
 0.1461608112777E+01
 0.1451879506925E+01
 0.1437316543723E+01
 0.1418192928728E+01
 0.1394740617285E+01
 0.1367191107776E+01
 0.1335826274899E+01
 0.1301029797038E+01
 0.1263326081182E+01
 0.1223413883868E+01
 0.1182234597089E+01
 0.1140964644913E+01
 0.1100895405818E+01
 0.1063382630419E+01
 0.1029890620645E+01
 0.1002095446967E+01
 0.9820261984405E+00
 0.9722226218934E+00
 0.9758685741344E+00
 0.9968237044529E+00
 0.1039452477577E+01
 0.1108212999133E+01
 0.1207016116582E+01
 0.1338402382744E+01
 0.1502720438303E+01
 0.1697457967631E+01
 0.1916825471743E+01
 0.2151725382668E+01
 0.2390261461776E+01
 0.2618946590235E+01
 0.2824563818400E+01
 0.1240785677209E+01
 0.1278937234171E+01
 0.1316731710931E+01
 0.1352186176135E+01
 0.1383518564792E+01
 0.1409414535841E+01
 0.1429118149688E+01
 0.1442369590897E+01
 0.1449262730806E+01
 0.1450091744890E+01
 0.1445228043850E+01
 0.1435041513885E+01
 0.1419863558046E+01
 0.1399983419954E+01
 0.1375669845260E+01
 0.1347207190234E+01
 0.1314940549864E+01
 0.1279321410355E+01
 0.1240941806333E+01
 0.1200564216785E+01
 0.1159182529042E+01
 0.1118017202630E+01
 0.1078411778471E+01
 0.1041792867638E+01
 0.1009716012173E+01
 0.9839660224958E+00
 0.9666909782330E+00
 0.9605429453845E+00
 0.9687750936649E+00
 0.9952107515581E+00
 0.1043994995197E+01
 0.1119127301377E+01
 0.1223828193225E+01
 0.1359812008896E+01
 0.1526629314324E+01
 0.1721182241182E+01
 0.1937478442305E+01
 0.2166728081056E+01
 0.2397898112654E+01
 0.2618808024272E+01
 0.2817618576323E+01
 0.1232032852783E+01
 0.1268790003569E+01
 0.1305187555718E+01
 0.1339389454540E+01
 0.1369722042802E+01
 0.1394906340349E+01
 0.1414150358393E+01
 0.1427112275221E+01
 0.1433788893072E+01
 0.1434386328369E+01
 0.1429210538111E+01
 0.1418593462756E+01
 0.1402855653013E+01
 0.1382299578843E+01
 0.1357227140623E+01
 0.1327970883408E+01
 0.1294933772101E+01
 0.1258629580918E+01
 0.1219712811383E+01
 0.1179005179260E+01
 0.1137549635872E+01
 0.1096607965686E+01
 0.1057572471099E+01
 0.1021935438794E+01
 0.9913363908265E+00
 0.9676594167047E+00
 0.9531590023914E+00
 0.9505815177310E+00
 0.9632234310180E+00
 0.9948392182419E+00
 0.1049326935713E+01
 0.1130226819191E+01
 0.1240117877989E+01
 0.1379991703905E+01
 0.1548740041201E+01
 0.1742820334845E+01
 0.1956141103568E+01
 0.2180249012161E+01
 0.2404895539933E+01
 0.2619014233531E+01
 0.2811936624431E+01
 0.1223476246061E+01
 0.1258951525293E+01
 0.1294059520253E+01
 0.1327088259066E+01
 0.1356459642340E+01
 0.1380931421453E+01
 0.1399687861400E+01
 0.1412321758537E+01
 0.1418748157077E+01
 0.1419096248492E+01
 0.1413613037275E+01
 0.1402595177465E+01
 0.1386352238152E+01
 0.1365197822448E+01
 0.1339463448889E+01
 0.1309525250940E+01
 0.1275838808161E+01
 0.1238974764004E+01
 0.1199644955770E+01
 0.1158725753421E+01
 0.1117305532028E+01
 0.1076684442482E+01
 0.1038299988945E+01
 0.1003704997888E+01
 0.9746159701499E+00
 0.9530071817738E+00
 0.9412273852551E+00
 0.9421001537353E+00
 0.9589418985074E+00
 0.9954121360404E+00
 0.1055145424784E+01
 0.1141234914210E+01
 0.1255673674392E+01
 0.1398827774171E+01
 0.1569049318724E+01
 0.1762463398965E+01
 0.1972954146803E+01
 0.2192413033102E+01
 0.2411297396819E+01
 0.2619497597219E+01
 0.2807351039449E+01
 0.1215101661202E+01
 0.1249401995009E+01
 0.1283323473550E+01
 0.1315259229905E+01
 0.1343715271648E+01
 0.1367486091511E+01
 0.1385741652176E+01
 0.1398023187422E+01
 0.1404177437221E+01
 0.1404267003231E+01
 0.1398486366938E+01
 0.1387099803966E+01
 0.1370406058664E+01
 0.1348727980946E+01
 0.1322423303290E+01
 0.1291907256785E+01
 0.1257682898824E+01
 0.1220372428741E+01
 0.1180739924274E+01
 0.1139711761543E+01
 0.1098417949952E+01
 0.1058193871961E+01
 0.1020518573579E+01
 0.9870003566147E+00
 0.9594259437811E+00
 0.9398510623290E+00
 0.9307071244245E+00
 0.9348790320083E+00
 0.9556829496484E+00
 0.9966639358877E+00
 0.1061186530149E+01
 0.1151918551429E+01
 0.1270325615059E+01
 0.1416237340754E+01
 0.1587567013394E+01
 0.1780195987990E+01
 0.1988036176337E+01
 0.2203318184671E+01
 0.2417130208659E+01
 0.2620188528675E+01
 0.2803698086749E+01
 0.1206897155928E+01
 0.1240124865838E+01
 0.1272959160795E+01
 0.1303882463186E+01
 0.1331474768722E+01
 0.1354566435545E+01
 0.1372320336613E+01
 0.1384237595012E+01
 0.1390108385138E+01
 0.1389938181024E+01
 0.1383875141622E+01
 0.1372154179950E+01
 0.1355063577983E+01
 0.1332933732272E+01
 0.1306145333180E+01
 0.1275148352229E+01
 0.1240488319969E+01
 0.1202833787188E+01
 0.1162996021636E+01
 0.1121946722991E+01
 0.1080853648372E+01
 0.1041084158881E+01
 0.1004155125556E+01
 0.9717253419594E+00
 0.9456452193808E+00
 0.9280435512002E+00
 0.9214234306664E+00
 0.9287167166328E+00
 0.9532226449568E+00
 0.9983587866198E+00
 0.1067221678530E+01
 0.1162082382017E+01
 0.1283937695581E+01
 0.1432160934282E+01
 0.1604311036486E+01
 0.1796094726928E+01
 0.2001486464693E+01
 0.2213041059549E+01
 0.2422407479596E+01
 0.2621016588491E+01
 0.2800821649282E+01
 0.1198852576668E+01
 0.1231106186457E+01
 0.1262949448330E+01
 0.1292940882522E+01
 0.1319725586419E+01
 0.1342168357698E+01
 0.1359430456786E+01
 0.1370982364175E+01
 0.1376567875196E+01
 0.1376143906758E+01
 0.1369818162345E+01
 0.1357799208105E+01
 0.1340365361939E+01
 0.1317853027550E+01
 0.1290662748576E+01
 0.1259275024852E+01
 0.1224272994065E+01
 0.1186366465267E+01
 0.1146408900715E+01
 0.1105412634641E+01
 0.1064579231526E+01
 0.1025304705877E+01
 0.9891400102257E+00
 0.9577895270659E+00
 0.9331610235221E+00
 0.9174483223824E+00
 0.9132159410399E+00
 0.9234300474944E+00
 0.9513599464664E+00
 0.1000288771032E+01
 0.1073054132484E+01
 0.1171563411972E+01
 0.1296401534961E+01
 0.1446556690405E+01
 0.1619303692441E+01
 0.1810227828041E+01
 0.2013387579861E+01
 0.2221641011251E+01
 0.2427132779154E+01
 0.2621911748072E+01
 0.2798575315714E+01
 0.1190959175013E+01
 0.1222334055964E+01
 0.1253279693484E+01
 0.1282419694272E+01
 0.1308456488331E+01
 0.1330287571941E+01
 0.1347076725356E+01
 0.1358271602651E+01
 0.1363578424259E+01
 0.1362913248767E+01
 0.1356348795370E+01
 0.1344070219734E+01
 0.1326346451973E+01
 0.1303518496913E+01
 0.1276003792993E+01
 0.1244309303716E+01
 0.1209051047575E+01
 0.1170975110780E+01
 0.1130972218824E+01
 0.1090090669178E+01
 0.1049561874493E+01
 0.1010807139697E+01
 0.9754077480904E+00
 0.9451088424635E+00
 0.9218693907236E+00
 0.9079405583888E+00
 0.9059388330624E+00
 0.9188539204117E+00
 0.9499158840266E+00
 0.1002271988179E+01
 0.1078515640803E+01
 0.1180226298645E+01
 0.1307631130368E+01
 0.1459395843264E+01
 0.1632569123481E+01
 0.1822655133169E+01
 0.2023807753980E+01
 0.2229163499910E+01
 0.2431302234668E+01
 0.2622805662636E+01
 0.2796823420687E+01
 0.1183209289688E+01
 0.1213798173205E+01
 0.1243937218034E+01
 0.1272305917972E+01
 0.1297657264466E+01
 0.1318919558221E+01
 0.1335262193801E+01
 0.1346116447580E+01
 0.1351158554654E+01
 0.1350270588676E+01
 0.1343495329811E+01
 0.1330997325275E+01
 0.1313036725085E+01
 0.1289957835877E+01
 0.1262192167716E+01
 0.1230269226542E+01
 0.1194833321864E+01
 0.1156661947180E+01
 0.1116678231704E+01
 0.1075961801772E+01
 0.1035769966861E+01
 0.9975459465428E+00
 0.9628976082651E+00
 0.9336060902534E+00
 0.9116755623986E+00
 0.8994071983547E+00
 0.8994608647748E+00
 0.9148409852139E+00
 0.9487326404551E+00
 0.1004150657714E+01
 0.1083463333867E+01
 0.1187959262456E+01
 0.1317558549778E+01
 0.1470659239466E+01
 0.1644131539686E+01
 0.1833428443992E+01
 0.2032802951886E+01
 0.2235642796532E+01
 0.2434906621919E+01
 0.2623632846170E+01
 0.2795441650162E+01
 0.1175596082081E+01
 0.1205489463228E+01
 0.1234910868023E+01
 0.1262587983389E+01
 0.1287318471225E+01
 0.1308059498303E+01
 0.1323988371199E+01
 0.1334525312230E+01
 0.1339323106569E+01
 0.1338235954186E+01
 0.1331281310233E+01
 0.1318605746266E+01
 0.1300461235379E+01
 0.1277194168579E+01
 0.1249247425624E+01
 0.1217169268567E+01
 0.1181627838360E+01
 0.1143427274400E+01
 0.1103518326899E+01
 0.1063007367787E+01
 0.1023173679030E+01
 0.9854790232876E+00
 0.9515541149554E+00
 0.9232113744385E+00
 0.9024943112680E+00
 0.8917471232000E+00
 0.8936653580813E+00
 0.9112612870396E+00
 0.9476726011044E+00
 0.1005789292049E+01
 0.1087776913502E+01
 0.1194670586367E+01
 0.1326130426412E+01
 0.1480334658105E+01
 0.1654014014843E+01
 0.1842592000868E+01
 0.2040418656954E+01
 0.2241104206710E+01
 0.2437933142949E+01
 0.2624331721665E+01
 0.2794317437588E+01
 0.1168113315875E+01
 0.1197399767009E+01
 0.1226190645484E+01
 0.1253255385670E+01
 0.1277431196723E+01
 0.1297702200140E+01
 0.1313255304809E+01
 0.1323504083614E+01
 0.1328083503413E+01
 0.1326825313183E+01
 0.1319725838906E+01
 0.1306916121544E+01
 0.1288640529639E+01
 0.1265246380977E+01
 0.1237185328703E+01
 0.1205020728118E+01
 0.1169440213472E+01
 0.1131269912491E+01
 0.1091483492668E+01
 0.1051209548478E+01
 0.1011745449609E+01
 0.9745681451750E+00
 0.9413274701463E+00
 0.9138624530474E+00
 0.8942501985711E+00
 0.8848712862320E+00
 0.8884501368196E+00
 0.9080018726357E+00
 0.9466174081626E+00
 0.1007072988120E+01
 0.1091356165713E+01
 0.1200285664273E+01
 0.1333305135406E+01
 0.1488414768552E+01
 0.1662237690910E+01
 0.1850183027781E+01
 0.2046691406371E+01
 0.2245565919372E+01
 0.2440366941534E+01
 0.2624845538583E+01
 0.2793350258236E+01
 0.1160755173442E+01
 0.1189521583971E+01
 0.1217767401127E+01
 0.1244298392127E+01
 0.1267986852632E+01
 0.1287842018626E+01
 0.1303061633281E+01
 0.1313056280805E+01
 0.1317447976654E+01
 0.1316050832043E+01
 0.1308843847953E+01
 0.1295944786734E+01
 0.1277590936130E+01
 0.1254129424163E+01
 0.1226018170676E+01
 0.1193832071554E+01
 0.1158274026987E+01
 0.1120187592703E+01
 0.1080564728063E+01
 0.1040551791667E+01
 0.1001460402644E+01
 0.9647793607979E+00
 0.9321739052469E+00
 0.9055050261373E+00
 0.8868777785152E+00
 0.8787028036955E+00
 0.8837274365881E+00
 0.9049663871604E+00
 0.9454670572190E+00
 0.1007905876646E+01
 0.1094118803804E+01
 0.1204744545765E+01
 0.1339050538440E+01
 0.1494895581408E+01
 0.1668821264773E+01
 0.1856232281307E+01
 0.2051650095985E+01
 0.2249040543502E+01
 0.2442192384803E+01
 0.2625123165884E+01
 0.2792451870727E+01
 0.1153516103435E+01
 0.1181847858792E+01
 0.1209632578614E+01
 0.1235707794125E+01
 0.1258976991360E+01
 0.1278472776527E+01
 0.1293404618534E+01
 0.1303183179182E+01
 0.1307421752568E+01
 0.1305921097316E+01
 0.1298646337909E+01
 0.1285704021940E+01
 0.1267324820972E+01
 0.1243854582297E+01
 0.1215755059777E+01
 0.1183609233152E+01
 0.1148131139950E+01
 0.1110177292484E+01
 0.1070753391337E+01
 0.1031019165661E+01
 0.9922966945109E+00
 0.9560833159910E+00
 0.9240559650640E+00
 0.8980929643350E+00
 0.8803217554648E+00
 0.8731770123096E+00
 0.8794237982338E+00
 0.9020746834804E+00
 0.9441390688662E+00
 0.1008209759469E+01
 0.1095998645170E+01
 0.1207999934079E+01
 0.1343342210759E+01
 0.1499775291702E+01
 0.1673780677636E+01
 0.1860764574974E+01
 0.2055317081993E+01
 0.2251536382392E+01
 0.2443394139655E+01
 0.2625119767611E+01
 0.2791546556736E+01
 0.1146390694835E+01
 0.1174371805845E+01
 0.1201778003072E+01
 0.1227474698856E+01
 0.1250393147607E+01
 0.1269587688834E+01
 0.1284280161906E+01
 0.1293883906176E+01
 0.1298007204791E+01
 0.1296441302430E+01
 0.1289140582465E+01
 0.1276202266362E+01
 0.1257850810547E+01
 0.1234429703937E+01
 0.1206402161031E+01
 0.1174355869958E+01
 0.1139011962695E+01
 0.1101235515727E+01
 0.1062041488914E+01
 0.1022598649781E+01
 0.9842357951540E+00
 0.9484555126318E+00
 0.9169427310299E+00
 0.8915884851025E+00
 0.8745371008777E+00
 0.8682415014790E+00
 0.8754799564015E+00
 0.8992624626356E+00
 0.9425677593955E+00
 0.1007922951370E+01
 0.1096944110872E+01
 0.1210015587674E+01
 0.1346162069856E+01
 0.1503053425723E+01
 0.1677128938501E+01
 0.1863799250611E+01
 0.2057709090912E+01
 0.2253058472975E+01
 0.2443958058622E+01
 0.2624797374613E+01
 0.2790571331920E+01
 0.1139373574185E+01
 0.1167086766372E+01
 0.1194195708490E+01
 0.1219590357294E+01
 0.1242226703924E+01
 0.1261179293635E+01
 0.1275682809814E+01
 0.1285155514150E+01
 0.1289203977314E+01
 0.1287613402535E+01
 0.1280330301168E+01
 0.1267444300814E+01
 0.1249173980752E+01
 0.1225859397935E+01
 0.1197962899826E+01
 0.1166073574064E+01
 0.1130915676220E+01
 0.1093358522307E+01
 0.1054421909905E+01
 0.1015279367697E+01
 0.9772627112217E+00
 0.9418765111092E+00
 0.9108099932008E+00
 0.8859622863669E+00
 0.8694891394827E+00
 0.8638561305837E+00
 0.8718507372161E+00
 0.8964809655315E+00
 0.9407036334467E+00
 0.1006999340232E+01
 0.1096917038141E+01
 0.1210765085668E+01
 0.1347497344344E+01
 0.1504730227027E+01
 0.1678876034791E+01
 0.1865350580156E+01
 0.2058837949523E+01
 0.2253609412581E+01
 0.2443871892819E+01
 0.2624125357073E+01
 0.2789476152258E+01
 0.1132459323165E+01
 0.1159986094159E+01
 0.1186877799023E+01
 0.1212046024174E+01
 0.1234468778249E+01
 0.1253239389824E+01
 0.1267605750721E+01
 0.1276993032291E+01
 0.1281009078804E+01
 0.1279436236868E+01
 0.1272215798018E+01
 0.1259431395016E+01
 0.1241296009405E+01
 0.1218145189945E+01
 0.1190438122799E+01
 0.1158762038474E+01
 0.1123840403245E+01
 0.1086542503525E+01
 0.1047888603369E+01
 0.1009052761531E+01
 0.9713661499497E+00
 0.9363320761446E+00
 0.9056403712109E+00
 0.8811936377880E+00
 0.8651536051467E+00
 0.8599930333239E+00
 0.8685049712565E+00
 0.8936967279296E+00
 0.9385129133107E+00
 0.1005407673239E+01
 0.1095891795973E+01
 0.1210230926633E+01
 0.1347339839124E+01
 0.1504806238288E+01
 0.1679028901232E+01
 0.1865428090955E+01
 0.2058711146351E+01
 0.2253189991057E+01
 0.2443125843910E+01
 0.2623080805025E+01
 0.2788224107863E+01
 0.1125642414432E+01
 0.1153063066674E+01
 0.1179816340735E+01
 0.1204832847268E+01
 0.1227110132469E+01
 0.1245758982685E+01
 0.1260040805845E+01
 0.1269389500412E+01
 0.1273416950750E+01
 0.1271905620300E+01
 0.1264794066750E+01
 0.1252161419866E+01
 0.1234215291689E+01
 0.1211285639460E+01
 0.1183826216164E+01
 0.1152419176939E+01
 0.1117783329719E+01
 0.1080783704760E+01
 0.1042436700240E+01
 0.1003912709461E+01
 0.9665386273732E+00
 0.9318132702035E+00
 0.9014233886613E+00
 0.8772704339195E+00
 0.8615166704414E+00
 0.8566366139220E+00
 0.8654254293652E+00
 0.8908914099063E+00
 0.9359772164980E+00
 0.1003131073593E+01
 0.1093854693870E+01
 0.1208403935154E+01
 0.1345685461811E+01
 0.1503282044809E+01
 0.1677591423504E+01
 0.1864036806671E+01
 0.2057332230026E+01
 0.2251799638751E+01
 0.2441712963632E+01
 0.2621648820417E+01
 0.2786791600578E+01
 0.1118917164180E+01
 0.1146310819365E+01
 0.1173003281086E+01
 0.1197941783687E+01
 0.1220141100892E+01
 0.1238728237684E+01
 0.1252978415002E+01
 0.1262335986443E+01
 0.1266419510957E+01
 0.1265014404971E+01
 0.1258058863040E+01
 0.1245628924356E+01
 0.1227927018019E+01
 0.1205276416619E+01
 0.1178123180725E+01
 0.1147041197164E+01
 0.1112740776377E+01
 0.1076078495232E+01
 0.1038062580305E+01
 0.9998555877834E+00
 0.9627765224417E+00
 0.9283164965389E+00
 0.8981555031188E+00
 0.8741892111980E+00
 0.8585749515889E+00
 0.8537835374249E+00
 0.8626087855940E+00
 0.8880617067781E+00
 0.9330933889464E+00
 0.1000166790295E+01
 0.1090803676853E+01
 0.1205282959395E+01
 0.1342533988056E+01
 0.1500158158484E+01
 0.1674564462606E+01
 0.1861177399667E+01
 0.2054701048523E+01
 0.2249436697454E+01
 0.2439629406425E+01
 0.2619822722237E+01
 0.2785168502344E+01
 0.1112277700301E+01
 0.1139722301490E+01
 0.1166430394236E+01
 0.1191363541533E+01
 0.1213551537768E+01
 0.1232136442569E+01
 0.1246407618497E+01
 0.1255821588877E+01
 0.1260006173613E+01
 0.1258752512894E+01
 0.1252000744080E+01
 0.1239825177220E+01
 0.1222423214105E+01
 0.1200110338428E+01
 0.1173322663178E+01
 0.1142622626978E+01
 0.1108708220066E+01
 0.1072423384780E+01
 0.1034763884439E+01
 0.9968802780579E+00
 0.9600800780678E+00
 0.9258434932033E+00
 0.8958400930962E+00
 0.8719551298374E+00
 0.8563354894583E+00
 0.8514427148102E+00
 0.8600656089657E+00
 0.8852193446894E+00
 0.9298734974365E+00
 0.9965261821262E+00
 0.1086748302857E+01
 0.1200874850621E+01
 0.1337889053861E+01
 0.1495435030926E+01
 0.1669945892277E+01
 0.1856846252153E+01
 0.2050813830628E+01
 0.2246098517309E+01
 0.2436874537356E+01
 0.2617604164693E+01
 0.2783358290390E+01
 0.1105717945477E+01
 0.1133290252500E+01
 0.1160089251025E+01
 0.1185088545889E+01
 0.1207330783298E+01
 0.1225971977834E+01
 0.1240316035684E+01
 0.1249833425170E+01
 0.1254163847017E+01
 0.1253106940533E+01
 0.1246607076306E+01
 0.1234738173835E+01
 0.1217692743547E+01
 0.1195777364544E+01
 0.1169415943716E+01
 0.1139156293428E+01
 0.1105680264736E+01
 0.1069814987635E+01
 0.1032539472203E+01
 0.9949881196237E+00
 0.9584533496365E+00
 0.9244012787269E+00
 0.8944874027148E+00
 0.8705819210640E+00
 0.8548157065300E+00
 0.8496352822911E+00
 0.8578203833234E+00
 0.8823911606096E+00
 0.9263449816672E+00
 0.9922349365476E+00
 0.1081710002888E+01
 0.1195194724348E+01
 0.1331758374064E+01
 0.1489113194760E+01
 0.1663730648618E+01
 0.1851035425467E+01
 0.2045663109277E+01
 0.2241781379520E+01
 0.2433450894980E+01
 0.2615003167281E+01
 0.2781378156739E+01
 0.1099231614923E+01
 0.1127007198553E+01
 0.1153971213076E+01
 0.1179106928607E+01
 0.1201467647666E+01
 0.1220222295351E+01
 0.1234689840269E+01
 0.1244356606464E+01
 0.1248876909559E+01
 0.1248061736018E+01
 0.1241862011932E+01
 0.1230352608913E+01
 0.1213721273284E+01
 0.1192264552708E+01
 0.1166391879802E+01
 0.1136633254461E+01
 0.1103650561651E+01
 0.1068249932602E+01
 0.1031389324159E+01
 0.9941828068422E+00
 0.9579041003626E+00
 0.9240020489080E+00
 0.8941144435005E+00
 0.8700917989517E+00
 0.8540433385075E+00
 0.8483945724317E+00
 0.8559115516133E+00
 0.8796192624624E+00
 0.9225509627945E+00
 0.9873335234622E+00
 0.1075722628146E+01
 0.1188266511160E+01
 0.1324154196857E+01
 0.1481193542111E+01
 0.1655910797527E+01
 0.1843732538634E+01
 0.2039237484366E+01
 0.2236480241217E+01
 0.2429364005989E+01
 0.2612038054057E+01
 0.2779259090763E+01
 0.1092812228854E+01
 0.1120865469265E+01
 0.1148067451151E+01
 0.1173408541832E+01
 0.1195950412864E+01
 0.1214873904742E+01
 0.1229513732046E+01
 0.1239374198568E+01
 0.1244127164240E+01
 0.1243597949627E+01
 0.1237746435068E+01
 0.1226649815750E+01
 0.1210491202524E+01
 0.1189555974219E+01
 0.1164236806214E+01
 0.1135042682999E+01
 0.1102611678320E+01
 0.1067724718915E+01
 0.1031314387938E+01
 0.9944702298693E+00
 0.9584436421345E+00
 0.9246630232812E+00
 0.8947448518744E+00
 0.8705153352950E+00
 0.8540563383586E+00
 0.8477660732027E+00
 0.8543915781740E+00
 0.8769612609635E+00
 0.9185507010870E+00
 0.9818778821968E+00
 0.1068833291457E+01
 0.1180123813058E+01
 0.1315094014687E+01
 0.1471677759106E+01
 0.1646475631847E+01
 0.1834920558558E+01
 0.2031521219752E+01
 0.2230188294549E+01
 0.2424622045210E+01
 0.2608735298117E+01
 0.2777045932443E+01
 0.1086453140148E+01
 0.1114857235466E+01
 0.1142368988599E+01
 0.1167982995880E+01
 0.1190766852368E+01
 0.1209912367146E+01
 0.1224770904543E+01
 0.1234867168975E+01
 0.1239893772042E+01
 0.1239693558365E+01
 0.1234237878660E+01
 0.1223607673395E+01
 0.1207981556376E+01
 0.1187632590363E+01
 0.1162934391856E+01
 0.1134371703457E+01
 0.1102554915773E+01
 0.1068235516920E+01
 0.1032316366699E+01
 0.9958582571284E+00
 0.9600866196023E+00
 0.9264062387782E+00
 0.8964086998256E+00
 0.8718912950166E+00
 0.8549027497333E+00
 0.8478073699400E+00
 0.8533270203715E+00
 0.8744905611265E+00
 0.9144201915740E+00
 0.9759403388836E+00
 0.1061103514347E+01
 0.1170811090932E+01
 0.1304601565286E+01
 0.1460568948787E+01
 0.1635411820054E+01
 0.1824577508331E+01
 0.2022493667965E+01
 0.2222896329087E+01
 0.2419235332305E+01
 0.2605129266427E+01
 0.2774797395257E+01
 0.1080147578202E+01
 0.1108974569198E+01
 0.1136866771229E+01
 0.1162819722240E+01
 0.1185904268434E+01
 0.1205322295165E+01
 0.1220443007002E+01
 0.1230814318558E+01
 0.1236153163488E+01
 0.1236323364795E+01
 0.1231310413001E+01
 0.1221200482817E+01
 0.1206167845272E+01
 0.1186472090633E+01
 0.1162465453850E+01
 0.1134605180888E+01
 0.1103470073989E+01
 0.1069777913031E+01
 0.1034397449037E+01
 0.9983564580279E+00
 0.9628507355767E+00
 0.9292582883432E+00
 0.8991422565002E+00
 0.8742664299047E+00
 0.8566405469338E+00
 0.8485880647851E+00
 0.8527985988391E+00
 0.8722966966586E+00
 0.9102528796774E+00
 0.9696107450635E+00
 0.1052610688608E+01
 0.1160385211549E+01
 0.1292708163251E+01
 0.1447872481838E+01
 0.1622703631649E+01
 0.1812676096971E+01
 0.2012128507359E+01
 0.2214591876369E+01
 0.2413215651249E+01
 0.2601261853982E+01
 0.2772586060481E+01
 0.1073888710158E+01
 0.1103209528062E+01
 0.1131551766010E+01
 0.1157908063489E+01
 0.1181349547485E+01
 0.1201087358218E+01
 0.1216510099387E+01
 0.1227192197111E+01
 0.1232878928578E+01
 0.1233458871446E+01
 0.1228934508011E+01
 0.1219398814590E+01
 0.1205021892576E+01
 0.1186048694698E+01
 0.1162807730170E+01
 0.1135725463209E+01
 0.1105345165163E+01
 0.1072346597779E+01
 0.1037559978148E+01
 0.1001975762683E+01
 0.9667564134820E+00
 0.9332499994919E+00
 0.9029876954328E+00
 0.8776952255806E+00
 0.8593374361843E+00
 0.8501896662189E+00
 0.8529012534170E+00
 0.8704856871520E+00
 0.9061604746314E+00
 0.9629978262308E+00
 0.1043449865621E+01
 0.1148917396053E+01
 0.1279454423978E+01
 0.1433597139027E+01
 0.1608333285762E+01
 0.1799183286596E+01
 0.2000392778729E+01
 0.2205258113427E+01
 0.2406575376317E+01
 0.2597182005158E+01
 0.2770498312245E+01
 0.1067669721785E+01
 0.1097554266974E+01
 0.1126415091994E+01
 0.1153237392442E+01
 0.1177089233892E+01
 0.1197190291776E+01
 0.1212950598169E+01
 0.1223975000928E+01
 0.1230041684599E+01
 0.1231068131737E+01
 0.1227076871279E+01
 0.1218169330615E+01
 0.1204511632804E+01
 0.1186332919971E+01
 0.1163935611936E+01
 0.1137712076847E+01
 0.1108166074319E+01
 0.1075934995633E+01
 0.1041806058026E+01
 0.1006728055361E+01
 0.9718263925030E+00
 0.9384160476470E+00
 0.9079927420369E+00
 0.8822395967657E+00
 0.8630706136612E+00
 0.8527054425509E+00
 0.8537441727927E+00
 0.8691803967216E+00
 0.9022738340470E+00
 0.9562307237197E+00
 0.1033735886032E+01
 0.1136495620420E+01
 0.1264892459482E+01
 0.1417756631758E+01
 0.1592281489719E+01
 0.1784059823427E+01
 0.1987245705955E+01
 0.2194872492928E+01
 0.2399326389056E+01
 0.2592945109473E+01
 0.2768634237694E+01
 0.1061483920473E+01
 0.1092001180966E+01
 0.1121448187266E+01
 0.1148797262736E+01
 0.1173109621475E+01
 0.1193612907273E+01
 0.1209741208700E+01
 0.1221134449005E+01
 0.1227608920145E+01
 0.1229115577636E+01
 0.1225700263536E+01
 0.1217474582221E+01
 0.1204600882789E+01
 0.1187291316682E+01
 0.1165819836537E+01
 0.1140541376230E+01
 0.1111916167007E+01
 0.1080534835602E+01
 0.1047137094796E+01
 0.1012625698577E+01
 0.9780852510340E+00
 0.9447944986095E+00
 0.9142102549427E+00
 0.8879685243756E+00
 0.8679264739226E+00
 0.8562402311810E+00
 0.8554507826332E+00
 0.8685208658334E+00
 0.8987438797332E+00
 0.9494606949463E+00
 0.1023605845405E+01
 0.1123227510228E+01
 0.1249088628563E+01
 0.1400371597362E+01
 0.1574528244058E+01
 0.1767259758434E+01
 0.1972637266701E+01
 0.2183405039648E+01
 0.2391478752164E+01
 0.2588612266524E+01
 0.2767107430418E+01
 0.1055324863961E+01
 0.1086543084363E+01
 0.1116643017650E+01
 0.1144577594397E+01
 0.1169396862582E+01
 0.1190336099461E+01
 0.1206856839990E+01
 0.1218639634874E+01
 0.1225544814741E+01
 0.1227561825904E+01
 0.1224763295078E+01
 0.1217272788857E+01
 0.1205249089795E+01
 0.1188886173547E+01
 0.1168427143494E+01
 0.1144186147749E+01
 0.1116575843516E+01
 0.1086135660875E+01
 0.1053553270115E+01
 0.1019680983240E+01
 0.9855588520306E+00
 0.9524262720840E+00
 0.9216977320238E+00
 0.8949576253295E+00
 0.8740002606528E+00
 0.8609101956694E+00
 0.8581586793835E+00
 0.8686645905955E+00
 0.8957425040440E+00
 0.9428629326850E+00
 0.1013221891060E+01
 0.1109243785924E+01
 0.1232126956347E+01
 0.1381472212402E+01
 0.1555054040906E+01
 0.1748730022369E+01
 0.1956506489745E+01
 0.2170816236361E+01
 0.2383039102934E+01
 0.2584249420767E+01
 0.2766044642098E+01
 0.1049186519593E+01
 0.1081173433030E+01
 0.1111992333992E+01
 0.1140568897953E+01
 0.1165937093119E+01
 0.1187339845550E+01
 0.1204270495215E+01
 0.1216456849172E+01
 0.1223810032350E+01
 0.1226363464264E+01
 0.1224220206663E+01
 0.1217517601901E+01
 0.1206411061064E+01
 0.1191075197790E+01
 0.1171719895787E+01
 0.1148615169948E+01
 0.1122122040553E+01
 0.1092724277768E+01
 0.1061052946109E+01
 0.1027905503091E+01
 0.9942737069100E+00
 0.9613545210583E+00
 0.9305167343494E+00
 0.9032886477022E+00
 0.8813956529863E+00
 0.8668425242841E+00
 0.8620194988805E+00
 0.8697867233509E+00
 0.8934634171046E+00
 0.9366384429719E+00
 0.1002774318759E+01
 0.1094702297576E+01
 0.1214113340156E+01
 0.1361101586606E+01
 0.1533841610431E+01
 0.1728410141821E+01
 0.1938779444402E+01
 0.2157054366410E+01
 0.2374008686358E+01
 0.2579926381381E+01
 0.2765585165282E+01
 0.1043063460088E+01
 0.1075886598466E+01
 0.1107489986785E+01
 0.1136762541271E+01
 0.1162716570884E+01
 0.1184603188556E+01
 0.1201953129569E+01
 0.1214549367300E+01
 0.1222361487290E+01
 0.1225472819866E+01
 0.1224020639736E+01
 0.1218157859389E+01
 0.1208036680265E+01
 0.1193811173842E+01
 0.1175655669394E+01
 0.1153792731148E+01
 0.1128527680357E+01
 0.1100284142920E+01
 0.1069631999709E+01
 0.1037309449850E+01
 0.1004256252393E+01
 0.9716239190196E+00
 0.9407322177249E+00
 0.9130488795516E+00
 0.8902242763044E+00
 0.8741750608036E+00
 0.8671987091770E+00
 0.8720801706478E+00
 0.8921228829088E+00
 0.9310159071189E+00
 0.9924849169283E+00
 0.1079792679095E+01
 0.1195180677862E+01
 0.1339320146642E+01
 0.1510878433005E+01
 0.1706232248784E+01
 0.1919366918158E+01
 0.2142052117440E+01
 0.2364380873180E+01
 0.2575715759664E+01
 0.2765879714831E+01
 0.1036951104120E+01
 0.1070678205584E+01
 0.1103131309670E+01
 0.1133151064124E+01
 0.1159721823028E+01
 0.1182104194624E+01
 0.1199873464883E+01
 0.1212877195537E+01
 0.1221152081344E+01
 0.1224837713352E+01
 0.1224109401939E+01
 0.1219137338398E+01
 0.1210070616816E+01
 0.1197041604791E+01
 0.1180186812753E+01
 0.1159678103874E+01
 0.1135761064632E+01
 0.1108794684555E+01
 0.1079283080685E+01
 0.1047900821549E+01
 0.1015532030362E+01
 0.9832798421122E+00
 0.9524117558284E+00
 0.9243304532174E+00
 0.9006051195210E+00
 0.8830558529903E+00
 0.8738753160199E+00
 0.8757555688715E+00
 0.8919602950464E+00
 0.9262534430162E+00
 0.9826104827321E+00
 0.1064741638384E+01
 0.1175495077477E+01
 0.1316211281396E+01
 0.1486160321250E+01
 0.1682121641299E+01
 0.1898161872350E+01
 0.2125722197689E+01
 0.2354137822769E+01
 0.2571691907162E+01
 0.2767088187404E+01
 0.1030846012573E+01
 0.1065545549224E+01
 0.1098913585716E+01
 0.1129728544804E+01
 0.1156939794599E+01
 0.1179819869032E+01
 0.1197997746248E+01
 0.1211396766704E+01
 0.1220130410250E+01
 0.1224401202380E+01
 0.1224426235130E+01
 0.1220394513452E+01
 0.1212452035936E+01
 0.1200708342888E+01
 0.1185259980380E+01
 0.1166224978392E+01
 0.1143785214333E+01
 0.1118230558217E+01
 0.1089994793460E+01
 0.1059684543384E+01
 0.1028124768454E+01
 0.9963674412421E+00
 0.9656246462657E+00
 0.9372295325945E+00
 0.9126638442930E+00
 0.8936426059489E+00
 0.8822414721509E+00
 0.8810411231245E+00
 0.8932385438410E+00
 0.9226401596142E+00
 0.9734463810000E+00
 0.1049818837770E+01
 0.1155263278085E+01
 0.1291888539911E+01
 0.1459696425160E+01
 0.1655998225216E+01
 0.1875036911792E+01
 0.2107951712961E+01
 0.2343245555670E+01
 0.2567929807614E+01
 0.2769375033893E+01
 0.1024746254646E+01
 0.1060488109415E+01
 0.1094836614239E+01
 0.1126491022954E+01
 0.1154357985883E+01
 0.1177726010338E+01
 0.1196289422421E+01
 0.1210060575534E+01
 0.1219240438836E+01
 0.1224101320482E+01
 0.1224905595177E+01
 0.1221862331043E+01
 0.1215114318427E+01
 0.1204747215633E+01
 0.1190815643999E+01
 0.1173380855604E+01
 0.1152557153162E+01
 0.1128560833400E+01
 0.1101750798173E+01
 0.1072661495483E+01
 0.1042055353849E+01
 0.1010930593349E+01
 0.9804408840830E+00
 0.9518453624172E+00
 0.9265319610226E+00
 0.9061020160879E+00
 0.8925019735243E+00
 0.8881822963441E+00
 0.8962441358876E+00
 0.9204973953460E+00
 0.9653299796939E+00
 0.1035343265071E+01
 0.1134741400426E+01
 0.1266504738230E+01
 0.1431516116428E+01
 0.1627779286163E+01
 0.1849842235993E+01
 0.2088595487334E+01
 0.2331646039418E+01
 0.2564503454395E+01
 0.2772898213203E+01
 0.1018651863666E+01
 0.1055508191663E+01
 0.1090903400618E+01
 0.1123436981124E+01
 0.1151964559011E+01
 0.1175796974233E+01
 0.1194708726507E+01
 0.1208816742237E+01
 0.1218421144884E+01
 0.1223870819157E+01
 0.1225476455487E+01
 0.1223468013542E+01
 0.1217984802977E+01
 0.1209087658554E+01
 0.1196787589932E+01
 0.1181086405944E+01
 0.1162027140491E+01
 0.1139748117408E+01
 0.1114528839050E+01
 0.1086827457355E+01
 0.1057340710816E+01
 0.1027010741432E+01
 0.9969300088953E+00
 0.9682791797515E+00
 0.9423458651407E+00
 0.9206089763538E+00
 0.9048736392164E+00
 0.8974413547907E+00
 0.9012870534352E+00
 0.9201795430009E+00
 0.9586437504403E+00
 0.1021689897563E+01
 0.1114245057104E+01
 0.1240263354981E+01
 0.1401678261286E+01
 0.1597384081791E+01
 0.1822404674651E+01
 0.2067469289394E+01
 0.2319245631289E+01
 0.2561480573750E+01
 0.2777778256052E+01
 0.1012565408484E+01
 0.1050611726372E+01
 0.1087120999073E+01
 0.1120567884658E+01
 0.1149748384689E+01
 0.1174005309682E+01
 0.1193212128613E+01
 0.1207608492645E+01
 0.1217606134247E+01
 0.1223636923959E+01
 0.1226062148144E+01
 0.1225132906188E+01
 0.1220984562250E+01
 0.1213652361573E+01
 0.1203102403900E+01
 0.1189274789261E+01
 0.1172137843526E+01
 0.1151747602887E+01
 0.1128299684675E+01
 0.1102171952383E+01
 0.1073992563566E+01
 0.1044645601602E+01
 0.1015159798147E+01
 0.9866329513860E+00
 0.9602456869103E+00
 0.9373455994999E+00
 0.9195845287115E+00
 0.9090967466891E+00
 0.9087003406606E+00
 0.9220743817313E+00
 0.9538178097271E+00
 0.1009296380210E+01
 0.1094160819663E+01
 0.1213432610753E+01
 0.1370283842707E+01
 0.1564740392518E+01
 0.1792529279740E+01
 0.2044343537191E+01
 0.2305903605838E+01
 0.2558916774311E+01
 0.2783974204958E+01
 0.1006492721824E+01
 0.1045809264069E+01
 0.1083501558073E+01
 0.1117888766930E+01
 0.1147698988594E+01
 0.1172321216403E+01
 0.1191751626122E+01
 0.1206373543440E+01
 0.1216723232782E+01
 0.1223321118879E+01
 0.1226580259816E+01
 0.1226772384116E+01
 0.1224028227618E+01
 0.1218356939916E+01
 0.1209678948520E+01
 0.1197870934774E+01
 0.1182823442803E+01
 0.1164506030794E+01
 0.1143025972072E+01
 0.1118676985630E+01
 0.1092016078845E+01
 0.1063867731107E+01
 0.1035194796628E+01
 0.1007007918498E+01
 0.9803739225710E+00
 0.9565000138794E+00
 0.9368729500210E+00
 0.9234422916960E+00
 0.9188394256033E+00
 0.9266028797245E+00
 0.9513316763003E+00
 0.9986693289377E+00
 0.1074958829389E+01
 0.1186362760289E+01
 0.1337492454492E+01
 0.1529795669641E+01
 0.1759997496726E+01
 0.2018955921411E+01
 0.2291383873226E+01
 0.2556999476468E+01
 0.2790550535284E+01
 0.1000444646334E+01
 0.1041115611518E+01
 0.1080061306603E+01
 0.1115406264132E+01
 0.1145803600720E+01
 0.1170708779562E+01
 0.1190270534004E+01
 0.1205039882044E+01
 0.1215690789350E+01
 0.1222836695625E+01
 0.1226942412869E+01
 0.1228299131012E+01
 0.1227032284682E+01
 0.1223124963537E+01
 0.1216451960498E+01
 0.1206825544075E+01
 0.1194055737595E+01
 0.1178021293765E+01
 0.1158736266409E+01
 0.1136406005460E+01
 0.1111513654454E+01
 0.1084822550742E+01
 0.1057227386171E+01
 0.1029646734490E+01
 0.1003025595017E+01
 0.9784201252507E+00
 0.9571386665085E+00
 0.9409275246145E+00
 0.9322008001429E+00
 0.9343031028890E+00
 0.9517494107003E+00
 0.9903583078507E+00
 0.1057096660845E+01
 0.1159315785232E+01
 0.1303283062520E+01
 0.1492228247526E+01
 0.1724276512723E+01
 0.1990741603218E+01
 0.2275380445761E+01
 0.2555351443284E+01
 0.2800957022089E+01
 0.9944333266375E+00
 0.1036553381230E+01
 0.1076824692723E+01
 0.1113132872542E+01
 0.1144050742241E+01
 0.1169129437847E+01
 0.1188707454217E+01
 0.1203530319810E+01
 0.1214422059454E+01
 0.1222091415001E+01
 0.1227052978609E+01
 0.1229615134495E+01
 0.1229897164398E+01
 0.1227856697068E+01
 0.1223323933509E+01
 0.1216046796539E+01
 0.1205752787840E+01
 0.1192225774616E+01
 0.1175381670078E+01
 0.1155333288441E+01
 0.1132487598771E+01
 0.1107545897339E+01
 0.1081332978306E+01
 0.1054670612372E+01
 0.1028373737646E+01
 0.1003336476002E+01
 0.9806754306215E+00
 0.9619160061548E+00
 0.9492263717738E+00
 0.9457050527325E+00
 0.9556927926971E+00
 0.9850555942454E+00
 0.1041265984841E+01
 0.1132856929185E+01
 0.1267954423140E+01
 0.1451989652698E+01
 0.1685012541001E+01
 0.1959225555300E+01
 0.2257578608922E+01
 0.2554062759877E+01
 0.2818581593171E+01
 0.9884831630152E+00
 0.1032159653622E+01
 0.1073832168863E+01
 0.1111092536783E+01
 0.1142433751644E+01
 0.1167544045663E+01
 0.1186997766340E+01
 0.1201763879186E+01
 0.1212826531635E+01
 0.1220988566706E+01
 0.1226809571623E+01
 0.1230611283321E+01
 0.1232505585935E+01
 0.1232425806987E+01
 0.1230159814528E+01
 0.1225392714105E+01
 0.1217768725691E+01
 0.1206973496352E+01
 0.1192820290234E+01
 0.1175325772680E+01
 0.1154819366429E+01
 0.1131940719121E+01
 0.1107444383793E+01
 0.1082051826936E+01
 0.1056440804688E+01
 0.1031333729651E+01
 0.1007644138684E+01
 0.9866621646841E+00
 0.9702864586931E+00
 0.9613232568285E+00
 0.9638498050738E+00
 0.9836325908920E+00
 0.1028474627151E+01
 0.1107996154792E+01
 0.1232320999231E+01
 0.1409527196915E+01
 0.1642241709341E+01
 0.1924186367446E+01
 0.2237735682318E+01
 0.2554120040345E+01
 0.2839641481590E+01
 0.9826256267605E+00
 0.1027980818332E+01
 0.1071132048443E+01
 0.1109310566487E+01
 0.1140939173368E+01
 0.1165901185753E+01
 0.1185062983540E+01
 0.1199646942502E+01
 0.1210803612857E+01
 0.1219424364640E+01
 0.1226105947377E+01
 0.1231178160337E+01
 0.1234744112355E+01
 0.1236714855023E+01
 0.1236839725594E+01
 0.1234744299969E+01
 0.1229990134664E+01
 0.1222161896834E+01
 0.1210965615168E+01
 0.1196318113345E+01
 0.1178470289147E+01
 0.1158001337675E+01
 0.1135596047521E+01
 0.1111872545912E+01
 0.1087364423443E+01
 0.1062612862866E+01
 0.1038317636117E+01
 0.1015520916606E+01
 0.9958317582859E+00
 0.9817235877566E+00
 0.9769255636718E+00
 0.9869481580113E+00
 0.1019701266511E+01
 0.1085700727070E+01
 0.1197112893046E+01
 0.1365115186906E+01
 0.1595723959536E+01
 0.1885051013230E+01
 0.2215483256996E+01
 0.2555274406282E+01
 0.2864396593576E+01
 0.9769040142652E+00
 0.1024079751742E+01
 0.1068787523912E+01
 0.1107818046052E+01
 0.1139548757456E+01
 0.1164138375693E+01
 0.1182812456945E+01
 0.1197075642198E+01
 0.1208245071601E+01
 0.1217289394280E+01
 0.1224831193622E+01
 0.1231201548213E+01
 0.1236493379134E+01
 0.1240598542885E+01
 0.1243233519401E+01
 0.1243969874368E+01
 0.1242288981296E+01
 0.1237672615420E+01
 0.1229714873496E+01
 0.1218228786551E+01
 0.1203386028432E+01
 0.1185707351890E+01
 0.1165809119284E+01
 0.1144203581993E+01
 0.1121273416572E+01
 0.1097369456527E+01
 0.1072968035772E+01
 0.1048852812052E+01
 0.1026327134214E+01
 0.1007497864427E+01
 0.9956701059484E+00
 0.9959420185310E+00
 0.1016069379800E+01
 0.1067163358028E+01
 0.1163328307862E+01
 0.1319239660994E+01
 0.1545272341770E+01
 0.1841145042065E+01
 0.2190135090909E+01
 0.2557055893639E+01
 0.2893404641243E+01
 0.9713773994688E+00
 0.1020540828621E+01
 0.1066880037920E+01
 0.1106651064381E+01
 0.1138235752556E+01
 0.1162178086042E+01
 0.1180140753172E+01
 0.1193934790723E+01
 0.1205035041542E+01
 0.1214469184695E+01
 0.1222870533390E+01
 0.1230563250453E+01
 0.1237628757059E+01
 0.1243944026467E+01
 0.1249200553996E+01
 0.1252924195823E+01
 0.1254521125801E+01
 0.1253369583942E+01
 0.1248946933306E+01
 0.1240957954019E+01
 0.1229494469098E+01
 0.1215021536299E+01
 0.1198089247104E+01
 0.1179101894747E+01
 0.1158284803910E+01
 0.1135790056175E+01
 0.1111862464670E+01
 0.1087019454651E+01
 0.1062247214253E+01
 0.1039259884869E+01
 0.1020874029397E+01
 0.1011629075359E+01
 0.1018846365408E+01
 0.1053827544734E+01
 0.1132305407262E+01
 0.1272695510460E+01
 0.1490823528412E+01
 0.1791657525772E+01
 0.2160664294623E+01
 0.2558960303618E+01
 0.2927384454694E+01
 0.9661261466430E+00
 0.1017476839140E+01
 0.1065513138563E+01
 0.1105848615649E+01
 0.1136959297342E+01
 0.1159922544521E+01
 0.1176924698512E+01
 0.1190096971296E+01
 0.1201050327327E+01
 0.1210845074594E+01
 0.1220106393558E+01
 0.1229142169788E+01
 0.1238021278357E+01
 0.1246611481054E+01
 0.1254589647527E+01
 0.1261447617937E+01
 0.1266524691485E+01
 0.1269096845039E+01
 0.1268519895392E+01
 0.1264385083633E+01
 0.1256703485332E+01
 0.1245887734765E+01
 0.1232424436652E+01
 0.1216608128733E+01
 0.1198500688597E+01
 0.1178048138723E+01
 0.1155258008598E+01
 0.1130377611860E+01
 0.1104070250742E+01
 0.1077639745639E+01
 0.1053362972713E+01
 0.1035091976175E+01
 0.1029436182603E+01
 0.1047402817592E+01
 0.1105799030170E+01
 0.1226721112303E+01
 0.1432549611118E+01
 0.1735652458202E+01
 0.2125712828661E+01
 0.2560373294442E+01
 0.2967220174086E+01
 0.9612598176784E+00
 0.1015038541393E+01
 0.1064816684779E+01
 0.1105448168569E+01
 0.1135656118457E+01
 0.1157247145791E+01
 0.1173020259683E+01
 0.1185421988721E+01
 0.1196161130914E+01
 0.1206295426789E+01
 0.1216419765107E+01
 0.1226815668116E+01
 0.1237538867273E+01
 0.1248454984423E+01
 0.1259239292365E+01
 0.1269365335658E+01
 0.1278118283002E+01
 0.1284676020391E+01
 0.1288268272575E+01
 0.1288366238642E+01
 0.1284898554222E+01
 0.1278228799362E+01
 0.1268783083131E+01
 0.1256744314406E+01
 0.1242005144502E+01
 0.1224299777889E+01
 0.1203395894073E+01
 0.1179271904214E+01
 0.1152269790649E+01
 0.1123275524776E+01
 0.1093989959480E+01
 0.1067472134474E+01
 0.1049366402396E+01
 0.1049864896438E+01
 0.1086052075502E+01
 0.1183173682351E+01
 0.1371043741848E+01
 0.1672142079984E+01
 0.2083530333493E+01
 0.2560448066131E+01
 0.3013999547175E+01
 0.9569288006683E+00
 0.1013427980504E+01
 0.1064950879918E+01
 0.1105477273040E+01
 0.1134228497742E+01
 0.1153992423494E+01
 0.1168259608032E+01
 0.1179756957077E+01
 0.1190232328535E+01
 0.1200697237851E+01
 0.1211691870870E+01
 0.1223461222818E+01
 0.1236047913150E+01
 0.1249323796325E+01
 0.1262978238032E+01
 0.1276486810638E+01
 0.1289099058340E+01
 0.1299903328757E+01
 0.1307999597286E+01
 0.1312730899767E+01
 0.1313940169849E+01
 0.1311944638405E+01
 0.1307112319520E+01
 0.1299511897901E+01
 0.1288861253289E+01
 0.1274679137950E+01
 0.1256495023125E+01
 0.1234026099438E+01
 0.1207303848442E+01
 0.1176801320502E+01
 0.1143623896603E+01
 0.1109958263940E+01
 0.1080271299380E+01
 0.1063438499650E+01
 0.1075844656144E+01
 0.1144740901857E+01
 0.1307617983703E+01
 0.1600238140696E+01
 0.2031871830443E+01
 0.2557933424651E+01
 0.3069087926547E+01
 0.9533418746902E+00
 0.1012917229691E+01
 0.1066108844357E+01
 0.1105938533687E+01
 0.1132527267426E+01
 0.1149954865003E+01
 0.1162448974454E+01
 0.1172937374169E+01
 0.1183125424223E+01
 0.1193928175885E+01
 0.1205806143530E+01
 0.1218958381535E+01
 0.1233415216038E+01
 0.1249064122236E+01
 0.1265626590776E+01
 0.1282605520124E+01
 0.1299240689384E+01
 0.1314546024891E+01
 0.1327490221070E+01
 0.1337278100320E+01
 0.1343660965022E+01
 0.1346910444076E+01
 0.1347336861876E+01
 0.1344890296245E+01
 0.1339108443925E+01
 0.1329293920369E+01
 0.1314745013849E+01
 0.1294933178179E+01
 0.1269601522644E+01
 0.1238830794199E+01
 0.1203131972047E+01
 0.1163769584178E+01
 0.1123871512197E+01
 0.1090565009454E+01
 0.1078501712171E+01
 0.1115163878674E+01
 0.1244753732703E+01
 0.1519454208505E+01
 0.1967883417899E+01
 0.2550917139965E+01
 0.3134244880957E+01
 0.9507935423903E+00
 0.1013874917667E+01
 0.1068514821421E+01
 0.1106783645136E+01
 0.1130328600714E+01
 0.1144877500867E+01
 0.1155368231560E+01
 0.1164789558916E+01
 0.1174701268046E+01
 0.1185869049491E+01
 0.1198650490991E+01
 0.1213190991611E+01
 0.1229510311798E+01
 0.1247521447223E+01
 0.1266997623710E+01
 0.1287499264888E+01
 0.1308291322803E+01
 0.1328338128775E+01
 0.1346479993465E+01
 0.1361771575801E+01
 0.1373862445293E+01
 0.1382975269303E+01
 0.1389358694927E+01
 0.1392836341012E+01
 0.1392760424911E+01
 0.1388221013030E+01
 0.1378299082633E+01
 0.1362244679983E+01
 0.1339547572716E+01
 0.1309936087638E+01
 0.1273353942790E+01
 0.1230129130375E+01
 0.1181947119819E+01
 0.1133860370616E+01
 0.1097847503500E+01
 0.1099413007756E+01
 0.1186736338701E+01
 0.1430299989832E+01
 0.1888033928691E+01
 0.2536419334256E+01
 0.3211800205641E+01
 0.9497080058018E+00
 0.1016803748571E+01
 0.1072411703221E+01
 0.1107869734195E+01
 0.1127304029498E+01
 0.1138442377814E+01
 0.1146773474383E+01
 0.1155134771937E+01
 0.1164823578644E+01
 0.1176406694112E+01
 0.1190119814819E+01
 0.1206049666228E+01
 0.1224208161391E+01
 0.1244543512655E+01
 0.1266900534197E+01
 0.1290931386851E+01
 0.1315971754505E+01
 0.1340975274184E+01
 0.1364665302007E+01
 0.1385933370779E+01
 0.1404311064876E+01
 0.1419961070385E+01
 0.1433057936201E+01
 0.1443284918123E+01
 0.1449803842450E+01
 0.1451502346831E+01
 0.1447266860494E+01
 0.1436159748309E+01
 0.1417465697894E+01
 0.1390622606164E+01
 0.1355066957861E+01
 0.1310221494441E+01
 0.1256294996175E+01
 0.1196064317499E+01
 0.1138114020839E+01
 0.1103731386294E+01
 0.1140439909063E+01
 0.1335413399488E+01
 0.1788243106964E+01
 0.2509731426853E+01
 0.3304915386121E+01
 0.9507126691801E+00
 0.1022392793658E+01
 0.1078024370654E+01
 0.1108887978761E+01
 0.1122985430202E+01
 0.1130268867965E+01
 0.1136403963559E+01
 0.1143795124614E+01
 0.1153363240190E+01
 0.1165437226845E+01
 0.1180118717894E+01
 0.1197434420039E+01
 0.1217392144067E+01
 0.1239983960722E+01
 0.1265144413582E+01
 0.1292653426915E+01
 0.1321974264036E+01
 0.1352108557377E+01
 0.1381689741280E+01
 0.1409435055231E+01
 0.1434733263657E+01
 0.1457662467603E+01
 0.1478295460869E+01
 0.1496151309393E+01
 0.1510197883741E+01
 0.1519140944055E+01
 0.1521707204190E+01
 0.1516814454312E+01
 0.1503601847322E+01
 0.1481301396463E+01
 0.1448941479230E+01
 0.1405130591956E+01
 0.1348656735638E+01
 0.1279967546932E+01
 0.1203824015808E+01
 0.1135483448480E+01
 0.1116051659832E+01
 0.1241597847195E+01
 0.1664602573201E+01
 0.2463350532262E+01
 0.3417959590867E+01
 0.9547665017733E+00
 0.1031586954011E+01
 0.1085470027079E+01
 0.1109251402042E+01
 0.1116732700013E+01
 0.1119924007441E+01
 0.1123994166413E+01
 0.1130601051128E+01
 0.1140203300779E+01
 0.1152869569757E+01
 0.1168564306277E+01
 0.1187257380428E+01
 0.1208957241407E+01
 0.1233706581820E+01
 0.1261543671362E+01
 0.1292409988492E+01
 0.1325962978141E+01
 0.1361337448733E+01
 0.1397131371835E+01
 0.1431885218730E+01
 0.1464808918928E+01
 0.1495847733398E+01
 0.1524918272940E+01
 0.1551336049114E+01
 0.1573875197654E+01
 0.1591097135714E+01
 0.1601620966806E+01
 0.1604272069145E+01
 0.1598109509666E+01
 0.1582262271431E+01
 0.1555491544877E+01
 0.1515756790077E+01
 0.1460603817694E+01
 0.1388285466344E+01
 0.1299646383529E+01
 0.1202845265113E+01
 0.1127281673272E+01
 0.1163065874728E+01
 0.1515711101274E+01
 0.2385361363614E+01
 0.3557005074740E+01
 0.9633960959505E+00
 0.1045666511502E+01
 0.1094553973550E+01
 0.1107930949565E+01
 0.1107725050326E+01
 0.1106951872670E+01
 0.1109289707986E+01
 0.1115400003881E+01
 0.1125244580988E+01
 0.1138629074028E+01
 0.1155388983166E+01
 0.1175445466854E+01
 0.1198813255650E+01
 0.1225589956373E+01
 0.1255924990949E+01
 0.1289946780363E+01
 0.1327577312216E+01
 0.1368202219720E+01
 0.1410484961255E+01
 0.1452810902087E+01
 0.1494162211911E+01
 0.1534261770650E+01
 0.1572768984535E+01
 0.1608733231836E+01
 0.1640744393131E+01
 0.1667284570633E+01
 0.1686943068093E+01
 0.1698514419263E+01
 0.1701039088841E+01
 0.1693651910366E+01
 0.1675025110456E+01
 0.1642718254295E+01
 0.1593373484412E+01
 0.1523441252798E+01
 0.1430157964878E+01
 0.1314431155760E+01
 0.1190679268086E+01
 0.1125205909802E+01
 0.1349157334046E+01
 0.2257435098791E+01
 0.3730315866321E+01
 0.9791578653746E+00
 0.1066289221847E+01
 0.1104320096168E+01
 0.1103255372561E+01
 0.1095020449411E+01
 0.1090922363599E+01
 0.1092063484307E+01
 0.1098066695283E+01
 0.1108411510624E+01
 0.1122661028369E+01
 0.1140543121601E+01
 0.1161942899369E+01
 0.1186887880499E+01
 0.1215532113997E+01
 0.1248135498772E+01
 0.1285022865298E+01
 0.1326441227726E+01
 0.1372177429536E+01
 0.1421136859532E+01
 0.1471628916459E+01
 0.1522348366814E+01
 0.1572632642483E+01
 0.1621701643663E+01
 0.1668243609505E+01
 0.1710694567167E+01
 0.1747565661281E+01
 0.1777532718977E+01
 0.1799433856879E+01
 0.1812333889059E+01
 0.1815462967778E+01
 0.1807602508868E+01
 0.1786247978502E+01
 0.1747662802229E+01
 0.1687234213155E+01
 0.1599411018886E+01
 0.1478747595220E+01
 0.1324418128437E+01
 0.1165661337030E+01
 0.1197395467773E+01
 0.2054402288435E+01
 0.3948277274659E+01
 0.1006617926937E+01
 0.1095284882335E+01
 0.1112090745298E+01
 0.1092804733515E+01
 0.1077747884011E+01
 0.1071474154383E+01
 0.1072131598053E+01
 0.1078515576192E+01
 0.1089657098447E+01
 0.1104934103348E+01
 0.1123997440372E+01
 0.1146713431683E+01
 0.1173129477165E+01
 0.1203454792711E+01
 0.1238051153458E+01
 0.1277427548283E+01
 0.1322182853410E+01
 0.1372670663169E+01
 0.1428329044059E+01
 0.1487599472193E+01
 0.1548833710343E+01
 0.1610684630677E+01
 0.1671607183916E+01
 0.1729793790418E+01
 0.1783602026818E+01
 0.1831745876883E+01
 0.1873159412027E+01
 0.1906823161536E+01
 0.1931834592845E+01
 0.1947541941631E+01
 0.1953012536456E+01
 0.1946098339735E+01
 0.1923411941236E+01
 0.1880390487071E+01
 0.1810256569928E+01
 0.1703115978543E+01
 0.1546794156914E+01
 0.1330207101203E+01
 0.1145011329536E+01
 0.1756007449089E+01
 0.4220876210332E+01
 0.1054664543586E+01
 0.1133295576056E+01
 0.1111578742251E+01
 0.1073910631895E+01
 0.1055397689264E+01
 0.1048297603518E+01
 0.1049389909356E+01
 0.1056707961581E+01
 0.1068968052274E+01
 0.1085443310945E+01
 0.1105744957083E+01
 0.1129742199391E+01
 0.1157509369116E+01
 0.1189307068823E+01
 0.1225583680494E+01
 0.1266999944787E+01
 0.1314470993871E+01
 0.1369037431916E+01
 0.1431107617111E+01
 0.1499747040951E+01
 0.1572965464569E+01
 0.1648164288988E+01
 0.1722453530425E+01
 0.1793362903681E+01
 0.1859339192347E+01
 0.1919567057015E+01
 0.1973482084776E+01
 0.2020356838980E+01
 0.2059293507564E+01
 0.2089627896070E+01
 0.2110779456528E+01
 0.2121459557601E+01
 0.2119616359430E+01
 0.2102093928734E+01
 0.2063300411871E+01
 0.1992265220268E+01
 0.1872089408994E+01
 0.1669164147183E+01
 0.1333208781770E+01
 0.1423294905947E+01
 0.4549481266385E+01
 0.1142885049349E+01
 0.1172864268529E+01
 0.1090628867639E+01
 0.1046037912066E+01
 0.1027526089791E+01
 0.1021228509348E+01
 0.1023837014016E+01
 0.1032654870472E+01
 0.1046370790297E+01
 0.1064211477963E+01
 0.1085802642057E+01
 0.1111036952097E+01
 0.1140023415820E+01
 0.1173068153898E+01
 0.1210685289209E+01
 0.1253643676154E+01
 0.1303072906435E+01
 0.1360640911507E+01
 0.1428250921912E+01
 0.1506714431788E+01
 0.1593928510129E+01
 0.1684893497621E+01
 0.1774347067040E+01
 0.1859018104384E+01
 0.1937784996547E+01
 0.2010701214273E+01
 0.2078022044205E+01
 0.2139550017371E+01
 0.2194393512117E+01
 0.2241452289385E+01
 0.2280208020593E+01
 0.2310912947950E+01
 0.2334139740971E+01
 0.2349779111596E+01
 0.2355482060858E+01
 0.2346396798486E+01
 0.2305582454789E+01
 0.2219643403469E+01
 0.1940231435954E+01
 0.1487894482206E+01
 0.4914436624259E+01
 0.1323987576517E+01
 0.1159222414876E+01
 0.1044928504852E+01
 0.1010384528912E+01
 0.9934672940556E+00
 0.9904943514460E+00
 0.9955145340811E+00
 0.1006443658441E+01
 0.1021928137167E+01
 0.1041292057084E+01
 0.1064211868433E+01
 0.1090628860304E+01
 0.1120692791311E+01
 0.1154748759325E+01
 0.1193352444410E+01
 0.1237330022301E+01
 0.1287906402733E+01
 0.1347035721863E+01
 0.1418184633718E+01
 0.1506454480357E+01
 0.1610705877563E+01
 0.1720873501118E+01
 0.1827621937987E+01
 0.1926959202671E+01
 0.2018833808747E+01
 0.2104743276745E+01
 0.2186139797949E+01
 0.2263672822221E+01
 0.2336728082961E+01
 0.2402976041337E+01
 0.2460495665222E+01
 0.2512308990283E+01
 0.2563779080471E+01
 0.2618620416204E+01
 0.2680756739663E+01
 0.2753961858672E+01
 0.2849236932998E+01
 0.2951730263262E+01
 0.3176215212253E+01
 0.2835439566772E+01
 0.5742959649297E+01
 0.4293854300505E+00
 0.5261029119088E+00
 0.6214314069128E+00
 0.7096872079247E+00
 0.7882769362862E+00
 0.8561766556238E+00
 0.9132247137942E+00
 0.9597066721809E+00
 0.9960901913281E+00
 0.1022922410033E+01
 0.1040848337384E+01
 0.1050144283708E+01
 0.1051335686232E+01
 0.1045550927404E+01
 0.1033314806653E+01
 0.1014364826847E+01
 0.9880131006953E+00
 0.9534689450598E+00
 0.9103510573231E+00
 0.8567306884294E+00
 0.4169684881929E+00
 0.5214497533065E+00
 0.6228671437521E+00
 0.7165962237258E+00
 0.8001834781946E+00
 0.8727154443050E+00
 0.9341311320275E+00
 0.9847853463117E+00
 0.1025190081054E+01
 0.1055940134998E+01
 0.1077674511292E+01
 0.1090716294447E+01
 0.1095681913759E+01
 0.1093567491814E+01
 0.1084787112022E+01
 0.1069192005559E+01
 0.1046132055721E+01
 0.1014778443408E+01
 0.9726079795364E+00
 0.9177273524146E+00
 0.4047276551932E+00
 0.5175443326099E+00
 0.6252939524409E+00
 0.7243885953971E+00
 0.8128077829440E+00
 0.8898106562892E+00
 0.9554461790565E+00
 0.1010146280242E+01
 0.1054486521738E+01
 0.1089102561108E+01
 0.1114638460048E+01
 0.1131527376091E+01
 0.1140410950150E+01
 0.1142160087950E+01
 0.1137157880368E+01
 0.1125241213730E+01
 0.1105731665437E+01
 0.1077295886299E+01
 0.1037660675728E+01
 0.9875893463495E+00
 0.3928683229944E+00
 0.5142035480024E+00
 0.6284654210094E+00
 0.7328968430613E+00
 0.8260077429641E+00
 0.9073208539879E+00
 0.9770253906787E+00
 0.1035646154762E+01
 0.1083829662827E+01
 0.1122260102968E+01
 0.1151615371114E+01
 0.1172421107064E+01
 0.1185337537537E+01
 0.1191140689756E+01
 0.1190167947628E+01
 0.1182226129578E+01
 0.1166540138870E+01
 0.1141794041564E+01
 0.1106596551549E+01
 0.1061939069768E+01
 0.3814511237778E+00
 0.5113897295091E+00
 0.6322184596028E+00
 0.7419492955270E+00
 0.8396282118635E+00
 0.9250955419220E+00
 0.9987180417387E+00
 0.1061131440813E+01
 0.1113063157373E+01
 0.1155257575008E+01
 0.1188439175358E+01
 0.1213213612442E+01
 0.1230257262651E+01
 0.1240272364709E+01
 0.1243554888591E+01
 0.1239883795146E+01
 0.1228511844230E+01
 0.1208362043310E+01
 0.1178479965793E+01
 0.1139604325553E+01
 0.3705162900156E+00
 0.5090568310150E+00
 0.6364331539108E+00
 0.7513892952451E+00
 0.8535097934338E+00
 0.9429779727654E+00
 0.1020366908045E+01
 0.1086442050135E+01
 0.1142023038483E+01
 0.1187923623283E+01
 0.1224923073369E+01
 0.1253697306455E+01
 0.1274938813542E+01
 0.1289297412959E+01
 0.1297041974937E+01
 0.1297965460024E+01
 0.1291422361197E+01
 0.1276533813831E+01
 0.1252551373197E+01
 0.1219805535195E+01
 0.3600962480230E+00
 0.5071593819215E+00
 0.6410016274860E+00
 0.7610732604662E+00
 0.8674953852048E+00
 0.9608082597114E+00
 0.1041810197938E+01
 0.1111412215819E+01
 0.1170536584016E+01
 0.1220073902148E+01
 0.1260863580552E+01
 0.1293645195953E+01
 0.1319130170914E+01
 0.1337937160333E+01
 0.1350331005550E+01
 0.1356150694318E+01
 0.1354861190697E+01
 0.1345727360556E+01
 0.1328068976173E+01
 0.1301806568414E+01
 0.3502209050266E+00
 0.5056520469678E+00
 0.6458228513939E+00
 0.7708653694221E+00
 0.8814320798478E+00
 0.9784263399002E+00
 0.1062883490370E+01
 0.1135871579282E+01
 0.1198423882532E+01
 0.1251513668004E+01
 0.1296044259633E+01
 0.1332815092861E+01
 0.1362561364349E+01
 0.1385890886696E+01
 0.1403084352613E+01
 0.1414040170345E+01
 0.1418323524519E+01
 0.1415296111994E+01
 0.1404276775384E+01
 0.1384815963096E+01
 0.3409190586131E+00
 0.5044905699773E+00
 0.6508004252572E+00
 0.7806358033522E+00
 0.8951713674607E+00
 0.9956738732860E+00
 0.1083421620682E+01
 0.1159646924256E+01
 0.1225499887730E+01
 0.1282040625495E+01
 0.1330239116715E+01
 0.1370952895988E+01
 0.1404946623003E+01
 0.1432834025568E+01
 0.1454924563707E+01
 0.1471178808375E+01
 0.1481246028258E+01
 0.1484551431073E+01
 0.1480380682797E+01
 0.1467966303973E+01
 0.3322187351693E+00
 0.5036322120587E+00
 0.6558420652674E+00
 0.7902601098909E+00
 0.9085695170907E+00
 0.1012395565771E+01
 0.1103260478619E+01
 0.1182564156163E+01
 0.1251576760329E+01
 0.1311447791572E+01
 0.1363215733251E+01
 0.1407795597798E+01
 0.1445986701147E+01
 0.1478420923810E+01
 0.1505443541599E+01
 0.1527074107324E+01
 0.1543029409848E+01
 0.1552773380899E+01
 0.1555542135306E+01
 0.1550298755095E+01
 0.3241470583328E+00
 0.5030360674091E+00
 0.6608596267770E+00
 0.7996192572463E+00
 0.9214881400431E+00
 0.1028440398276E+01
 0.1122238731843E+01
 0.1204450395416E+01
 0.1276466347565E+01
 0.1339526387820E+01
 0.1394738395202E+01
 0.1443074529387E+01
 0.1485372671685E+01
 0.1522290949344E+01
 0.1554213173502E+01
 0.1581211665039E+01
 0.1603054726546E+01
 0.1619224250472E+01
 0.1628893325371E+01
 0.1630795283344E+01
 0.3167299592843E+00
 0.5026633089666E+00
 0.6657693998631E+00
 0.8086000384921E+00
 0.9337949476033E+00
 0.1043662865391E+01
 0.1140199528618E+01
 0.1225136088932E+01
 0.1299982694076E+01
 0.1366068741146E+01
 0.1424571318487E+01
 0.1476519094114E+01
 0.1522790885835E+01
 0.1564075766701E+01
 0.1600795835915E+01
 0.1633068421367E+01
 0.1660698064864E+01
 0.1683165751557E+01
 0.1699568842217E+01
 0.1708440309711E+01
 0.3099918428442E+00
 0.5024774115791E+00
 0.6704925368810E+00
 0.8170956717785E+00
 0.9453646402766E+00
 0.1057924255272E+01
 0.1156992197894E+01
 0.1244457124328E+01
 0.1321944570838E+01
 0.1390871241529E+01
 0.1452482085053E+01
 0.1507860992988E+01
 0.1557928592047E+01
 0.1603406992801E+01
 0.1644754391872E+01
 0.1682124760062E+01
 0.1715344678811E+01
 0.1743877541952E+01
 0.1766734022412E+01
 0.1782265805618E+01
 0.3039552703758E+00
 0.5024443722197E+00
 0.6749555493721E+00
 0.8250065011994E+00
 0.9560798661461E+00
 0.1071093939865E+01
 0.1172473916697E+01
 0.1262256895425E+01
 0.1342177962952E+01
 0.1413737302857E+01
 0.1478245192375E+01
 0.1536838669724E+01
 0.1590479723816E+01
 0.1639923683061E+01
 0.1685661503664E+01
 0.1727875580160E+01
 0.1766402072884E+01
 0.1800673179848E+01
 0.1829604613596E+01
 0.1851377929717E+01
 0.2986406864816E+00
 0.5025329333661E+00
 0.6790908409480E+00
 0.8322407493494E+00
 0.9658322124854E+00
 0.1083050660900E+01
 0.1186511339538E+01
 0.1278388313604E+01
 0.1360518509540E+01
 0.1434480309843E+01
 0.1501645644570E+01
 0.1563201806658E+01
 0.1620150611062E+01
 0.1673279459442E+01
 0.1723108221309E+01
 0.1769840283761E+01
 0.1813311309201E+01
 0.1852912442303E+01
 0.1887459546270E+01
 0.1914970881673E+01
 0.2940662066363E+00
 0.5027148106219E+00
 0.6828372506317E+00
 0.8387152810695E+00
 0.9745231920020E+00
 0.1093683781553E+01
 0.1198982165125E+01
 0.1292715739300E+01
 0.1376813862357E+01
 0.1452926495321E+01
 0.1522482482980E+01
 0.1586715714870E+01
 0.1646665440677E+01
 0.1703149144978E+01
 0.1756711760147E+01
 0.1807571512083E+01
 0.1855556298620E+01
 0.1900010446324E+01
 0.1939649051718E+01
 0.1972333313364E+01
 0.2902474594947E+00
 0.5029649175309E+00
 0.6861405839589E+00
 0.8443563474941E+00
 0.9820651924251E+00
 0.1102894476016E+01
 0.1209776614196E+01
 0.1305116803348E+01
 0.1390925920148E+01
 0.1468917680567E+01
 0.1540572152663E+01
 0.1607165483656E+01
 0.1669771325464E+01
 0.1729234783686E+01
 0.1786122362137E+01
 0.1840662546710E+01
 0.1892671189921E+01
 0.1941444214412E+01
 0.1985599475115E+01
 0.2022849755377E+01
 0.2871974890159E+00
 0.5032615838698E+00
 0.6889541166561E+00
 0.8491002865350E+00
 0.9883823623296E+00
 0.1110596829207E+01
 0.1218798788856E+01
 0.1315484082142E+01
 0.1402732889523E+01
 0.1482313808871E+01
 0.1555751610477E+01
 0.1624359778446E+01
 0.1689242872367E+01
 0.1751270955513E+01
 0.1811029189069E+01
 0.1868753420061E+01
 0.1924246112838E+01
 0.1976757254706E+01
 0.2024815628949E+01
 0.2065998627339E+01
 0.2849267046887E+00
 0.5035867589632E+00
 0.6912390516561E+00
 0.8528941546111E+00
 0.9934114054906E+00
 0.1116718818189E+01
 0.1225967883322E+01
 0.1323726591468E+01
 0.1412131127659E+01
 0.1492995214574E+01
 0.1567881103984E+01
 0.1638134211998E+01
 0.1704886186250E+01
 0.1769029353660E+01
 0.1831165277567E+01
 0.1891535879581E+01
 0.1949931593090E+01
 0.2005562672033E+01
 0.2056881544411E+01
 0.2101348541755E+01
 0.2834428666469E+00
 0.5039261940445E+00
 0.6929649182106E+00
 0.8556962751272E+00
 0.9971022675126E+00
 0.1121203157460E+01
 0.1231219225167E+01
 0.1329771072122E+01
 0.1419036730731E+01
 0.1500864580331E+01
 0.1576846564202E+01
 0.1648354229997E+01
 0.1716542262399E+01
 0.1782322609238E+01
 0.1846311600973E+01
 0.1908757346266E+01
 0.1969441905337E+01
 0.2027545223187E+01
 0.2081460241459E+01
 0.2128553934344E+01
 0.2827510928781E+00
 0.5042695976170E+00
 0.6941099010939E+00
 0.8574766878059E+00
 0.9994186962503E+00
 0.1124007987207E+01
 0.1234505122690E+01
 0.1333563037557E+01
 0.1423386830997E+01
 0.1505848537730E+01
 0.1582561561817E+01
 0.1654917462565E+01
 0.1724089734209E+01
 0.1791007362611E+01
 0.1856300293107E+01
 0.1920224000588E+01
 0.1982557599619E+01
 0.2042462687650E+01
 0.2098293031273E+01
 0.2147350829990E+01
 0.2828538759834E+00
 0.5046107589655E+00
 0.6946610908272E+00
 0.8582174872164E+00
 0.1000338662397E+01
 0.1125107388784E+01
 0.1235795499624E+01
 0.1335067560304E+01
 0.1425140573745E+01
 0.1507898876935E+01
 0.1584968789321E+01
 0.1657755507279E+01
 0.1727446955652E+01
 0.1794986589826E+01
 0.1861017087954E+01
 0.1925803112026E+01
 0.1989127390105E+01
 0.2050146862748E+01
 0.2107198875735E+01
 0.2157553235787E+01
 0.2837511002539E+00
 0.5049476362910E+00
 0.6946146483412E+00
 0.8579130419232E+00
 0.9998546300086E+00
 0.1124491715270E+01
 0.1235078302425E+01
 0.1334269778930E+01
 0.1424279751657E+01
 0.1506993338927E+01
 0.1584041040487E+01
 0.1656835117621E+01
 0.1726573402967E+01
 0.1794211190210E+01
 0.1860403016469E+01
 0.1925424700022E+01
 0.1989069553088E+01
 0.2050504375176E+01
 0.2108074258832E+01
 0.2159051157024E+01
 0.2854400541908E+00
 0.5052824073230E+00
 0.6939758800718E+00
 0.8565700889945E+00
 0.9979736705156E+00
 0.1122167729168E+01
 0.1232359670219E+01
 0.1331175113104E+01
 0.1420809081337E+01
 0.1503135972293E+01
 0.1579781667264E+01
 0.1652158777404E+01
 0.1721470381297E+01
 0.1788680833578E+01
 0.1854455381738E+01
 0.1919082583192E+01
 0.1982372930142E+01
 0.2043517443396E+01
 0.2100893428534E+01
 0.2151810215060E+01
 0.2879154386873E+00
 0.5056214817997E+00
 0.6927592223947E+00
 0.8542077024298E+00
 0.9947174181929E+00
 0.1118158544287E+01
 0.1227663863269E+01
 0.1325809181266E+01
 0.1414756115006E+01
 0.1496357045926E+01
 0.1572224503570E+01
 0.1643764648535E+01
 0.1712181022207E+01
 0.1778444055027E+01
 0.1843228010073E+01
 0.1906834834674E+01
 0.1969097591442E+01
 0.2029244668527E+01
 0.2085709118377E+01
 0.2135872211975E+01
 0.2911693766970E+00
 0.5059754767253E+00
 0.6909881371521E+00
 0.8508571376485E+00
 0.9901218691340E+00
 0.1112503373324E+01
 0.1221032950813E+01
 0.1318217421414E+01
 0.1406170787732E+01
 0.1486712517527E+01
 0.1561433254019E+01
 0.1631725885156E+01
 0.1698789556398E+01
 0.1763597571326E+01
 0.1826830745052E+01
 0.1888803615238E+01
 0.1949375152589E+01
 0.2007821916051E+01
 0.2062654062021E+01
 0.2111357663384E+01
 0.2951914339175E+00
 0.5063591567833E+00
 0.6886949231356E+00
 0.8465615585442E+00
 0.9842370308422E+00
 0.1105257088144E+01
 0.1212526265255E+01
 0.1308464422612E+01
 0.1395124609205E+01
 0.1474283068040E+01
 0.1547500356646E+01
 0.1616149316110E+01
 0.1681419847765E+01
 0.1744284781314E+01
 0.1805428120335E+01
 0.1865174302433E+01
 0.1923408670257E+01
 0.1979463259470E+01
 0.2031943293413E+01
 0.2078470296124E+01
 0.2999686635715E+00
 0.5067913428088E+00
 0.6859204491830E+00
 0.8413756547079E+00
 0.9771264305729E+00
 0.1096489600622E+01
 0.1202219630598E+01
 0.1296632976654E+01
 0.1381709512733E+01
 0.1459172718590E+01
 0.1530545337657E+01
 0.1597173506857E+01
 0.1660233179391E+01
 0.1720693405053E+01
 0.1779237117629E+01
 0.1836193775341E+01
 0.1891471959235E+01
 0.1944461837312E+01
 0.1993877067293E+01
 0.2037503240942E+01
 0.3054856915008E+00
 0.5072947938353E+00
 0.6827138219739E+00
 0.8353651659493E+00
 0.9688665008045E+00
 0.1086285081599E+01
 0.1190204381812E+01
 0.1282822867630E+01
 0.1366036383011E+01
 0.1441507057021E+01
 0.1510712689178E+01
 0.1574966224915E+01
 0.1635425289660E+01
 0.1693052210964E+01
 0.1748523883410E+01
 0.1802167634766E+01
 0.1853908031079E+01
 0.1903190307100E+01
 0.1948844024084E+01
 0.1988846233590E+01
 0.3117248425932E+00
 0.5078960639440E+00
 0.6791319985526E+00
 0.8286063315862E+00
 0.9595458618442E+00
 0.1074741037511E+01
 0.1176586194390E+01
 0.1267149421177E+01
 0.1348233291427E+01
 0.1421431114451E+01
 0.1488169323414E+01
 0.1549721364315E+01
 0.1607222691659E+01
 0.1661626812282E+01
 0.1713599298397E+01
 0.1763456115149E+01
 0.1811126242698E+01
 0.1856100383663E+01
 0.1897324172855E+01
 0.1932993318097E+01
 0.3186663225949E+00
 0.5086253395745E+00
 0.6752393633505E+00
 0.8211852922978E+00
 0.9492645301621E+00
 0.1061967269809E+01
 0.1161483746530E+01
 0.1249741837113E+01
 0.1328443469601E+01
 0.1399106937457E+01
 0.1463101671904E+01
 0.1521655412848E+01
 0.1575878344266E+01
 0.1626714543487E+01
 0.1674813317364E+01
 0.1720468457408E+01
 0.1763597632210E+01
 0.1803720598138E+01
 0.1839890707018E+01
 0.1870549735428E+01
 0.3262884471428E+00
 0.5095162547424E+00
 0.6711072914526E+00
 0.8131974808861E+00
 0.9381330879249E+00
 0.1048084745136E+01
 0.1145027236785E+01
 0.1230741328201E+01
 0.1306823047985E+01
 0.1374710896530E+01
 0.1435712502483E+01
 0.1491003571329E+01
 0.1541666784918E+01
 0.1588638459949E+01
 0.1632547995101E+01
 0.1673655547581E+01
 0.1711847992280E+01
 0.1746650979090E+01
 0.1777208384838E+01
 0.1802234285285E+01
 0.3345678986747E+00
 0.5106056772714E+00
 0.6668137290589E+00
 0.8047470494092E+00
 0.9262718505146E+00
 0.1033224394137E+01
 0.1127356766939E+01
 0.1210299075013E+01
 0.1283538569191E+01
 0.1348430743879E+01
 0.1406217503623E+01
 0.1458015644562E+01
 0.1504878898914E+01
 0.1547740573110E+01
 0.1587209115398E+01
 0.1623500549267E+01
 0.1656448553805E+01
 0.1685553905406E+01
 0.1710024324764E+01
 0.1728870044105E+01
 0.3434799579101E+00
 0.5119334456177E+00
 0.6624428502141E+00
 0.7959464245651E+00
 0.9138100944583E+00
 0.1017525872559E+01
 0.1108620623922E+01
 0.1188574051346E+01
 0.1258764338104E+01
 0.1320462475787E+01
 0.1374841717707E+01
 0.1422951913601E+01
 0.1465816711130E+01
 0.1504374773584E+01
 0.1539216561459E+01
 0.1570507252614E+01
 0.1598004071428E+01
 0.1621142818610E+01
 0.1639150600305E+01
 0.1651353758737E+01
 0.3529986050737E+00
 0.5135420103341E+00
 0.6580849257711E+00
 0.7869161437423E+00
 0.9008854119535E+00
 0.1001136264112E+01
 0.1088973455967E+01
 0.1165730749493E+01
 0.1232679638586E+01
 0.1291006976496E+01
 0.1341815741884E+01
 0.1386078969098E+01
 0.1424788564600E+01
 0.1458900090224E+01
 0.1488993840999E+01
 0.1515185283035E+01
 0.1537136948579E+01
 0.1554169556860E+01
 0.1565453491762E+01
 0.1570638991393E+01
 0.3630961889799E+00
 0.5154759230119E+00
 0.6538366626333E+00
 0.7777853018863E+00
 0.8876431901852E+00
 0.9842086355965E+00
 0.1068574311122E+01
 0.1141936918928E+01
 0.1205465934993E+01
 0.1260266491846E+01
 0.1307371659642E+01
 0.1347665337424E+01
 0.1382104859898E+01
 0.1411675964368E+01
 0.1436958324234E+01
 0.1458032248473E+01
 0.1474463905983E+01
 0.1485408186496E+01
 0.1489853442663E+01
 0.1487750748841E+01
 0.3737420824966E+00
 0.5177808283927E+00
 0.6498031255242E+00
 0.7686930592753E+00
 0.8742362029531E+00
 0.9668999946369E+00
 0.1047584549118E+01
 0.1117361475522E+01
 0.1177304222176E+01
 0.1228440913574E+01
 0.1271738528663E+01
 0.1307976570648E+01
 0.1338073295288E+01
 0.1363060057544E+01
 0.1383518567337E+01
 0.1399512744434E+01
 0.1410560659383E+01
 0.1415623443693E+01
 0.1413324958407E+01
 0.1403787104469E+01
 0.3848976719679E+00
 0.5205035985425E+00
 0.6461026321518E+00
 0.7597934570941E+00
 0.8608226019484E+00
 0.9493681181132E+00
 0.1026165680904E+01
 0.1092173097088E+01
 0.1148372705516E+01
 0.1195724082643E+01
 0.1235137318925E+01
 0.1267269513023E+01
 0.1292993347355E+01
 0.1313404091261E+01
 0.1329083192970E+01
 0.1340063370566E+01
 0.1345887996781E+01
 0.1345508618477E+01
 0.1336888018246E+01
 0.1319967401469E+01
 0.3965040627148E+00
 0.5236843970800E+00
 0.6428957310466E+00
 0.7512577066435E+00
 0.8475591293704E+00
 0.9317681522732E+00
 0.1004477193175E+01
 0.1066539103663E+01
 0.1118847477083E+01
 0.1162298694120E+01
 0.1197775290350E+01
 0.1225786770524E+01
 0.1247148332520E+01
 0.1263048620062E+01
 0.1274056726280E+01
 0.1280153619073E+01
 0.1280814046236E+01
 0.1275337776945E+01
 0.1261644866924E+01
 0.1237868259325E+01
 0.4083675151427E+00
 0.5274952016020E+00
 0.6404283415090E+00
 0.7432554722937E+00
 0.8345911642419E+00
 0.9142497245266E+00
 0.9826768338608E+00
 0.1040621034525E+01
 0.1088903833468E+01
 0.1128346563532E+01
 0.1159818414227E+01
 0.1183754351372E+01
 0.1200815301302E+01
 0.1212288909840E+01
 0.1218839409192E+01
 0.1220272831880E+01
 0.1215925036295E+01
 0.1204975547025E+01
 0.1187031448525E+01
 0.1161684168232E+01
 0.1081372371660E+01
 0.4123437710082E+00
 0.8212815758598E-01
 0.6451700320309E-02
 0.5818923534383E-01
 0.9297382955982E-01
 0.1188865485736E+00
 0.1383294387332E+00
 0.1516711572179E+00
 0.1587023230439E+00
 0.1583643333333E+00
 0.1488958808606E+00
 0.1289668984419E+00
 0.1010003440198E+00
 0.6751415806015E-01
 0.3122061339508E-01
 0.8017130053715E-02
 0.4096874936013E-01
 0.7619595585896E-01
 0.1201333323741E+00
 0.1117834567338E+01
 0.7893591113358E+00
 0.3099587987116E+00
 0.1178999848243E+00
 0.2874766876538E-01
 0.2579463232031E-01
 0.6242996558416E-01
 0.8881090069175E-01
 0.1076721225203E+00
 0.1197402445106E+00
 0.1247621502267E+00
 0.1233427967092E+00
 0.1133525038583E+00
 0.9353353031910E-01
 0.6610318877693E-01
 0.3443625033776E-01
 0.4851216488349E-02
 0.3052004167653E-01
 0.6264549227585E-01
 0.9541206908393E-01
 0.1033662469183E+01
 0.9019642492025E+00
 0.5288665883460E+00
 0.2693840076963E+00
 0.1340137994168E+00
 0.5530870001800E-01
 0.4207452995575E-02
 0.3176530937019E-01
 0.5760668670761E-01
 0.7587491284032E-01
 0.8740643130906E-01
 0.9330245742267E-01
 0.9138214932681E-01
 0.7900217122848E-01
 0.5803941394688E-01
 0.3188449790795E-01
 0.5039530140861E-02
 0.2372460083282E-01
 0.4996887930223E-01
 0.7284042677278E-01
 0.9488163696419E+00
 0.9203427305209E+00
 0.6611864537491E+00
 0.4158011784581E+00
 0.2502199728929E+00
 0.1471257189619E+00
 0.7962788285896E-01
 0.3276122315964E-01
 0.1336916417269E-02
 0.2667802754044E-01
 0.4503923933119E-01
 0.5797637570726E-01
 0.6346787688742E-01
 0.5817582582517E-01
 0.4372762119685E-01
 0.2356550788781E-01
 0.1879425915348E-02
 0.2076632720475E-01
 0.4052095307295E-01
 0.5507564765663E-01
 0.8740974830570E+00
 0.9009353168790E+00
 0.7327485438567E+00
 0.5284264774340E+00
 0.3617324698946E+00
 0.2434716488823E+00
 0.1616797970367E+00
 0.1036747831678E+00
 0.6083981908644E-01
 0.2806143882417E-01
 0.3040624739496E-02
 0.1706696078580E-01
 0.2959722578309E-01
 0.3122965581349E-01
 0.2332110035936E-01
 0.9417645221894E-02
 0.6857275939040E-02
 0.2280437444107E-01
 0.3610243825094E-01
 0.4371176728928E-01
 0.8108333979878E+00
 0.8663756915542E+00
 0.7658253598187E+00
 0.6076863511017E+00
 0.4568107282157E+00
 0.3362854437861E+00
 0.2459213151841E+00
 0.1788560091617E+00
 0.1279451659845E+00
 0.8796318455675E-01
 0.5599184681803E-01
 0.2974999365411E-01
 0.1060713805913E-01
 0.2912493979504E-02
 0.3927067046350E-02
 0.1107897849646E-01
 0.2111385226827E-01
 0.3094197552792E-01
 0.3815190889327E-01
 0.4005824217729E-01
 0.7576671894289E+00
 0.8269598295981E+00
 0.7753724528161E+00
 0.6600898538148E+00
 0.5328171887008E+00
 0.4197669871120E+00
 0.3278292532092E+00
 0.2555056538325E+00
 0.1984162542800E+00
 0.1522511284193E+00
 0.1142281872502E+00
 0.8197492760878E-01
 0.5641672254096E-01
 0.4153370112205E-01
 0.3660706644601E-01
 0.3795584673705E-01
 0.4206869047183E-01
 0.4607682403747E-01
 0.4777165539993E-01
 0.4506740762680E-01
 0.7128543144753E+00
 0.7875774757435E+00
 0.7709905761252E+00
 0.6925907372643E+00
 0.5912006201623E+00
 0.4916346757630E+00
 0.4041027236081E+00
 0.3308961915322E+00
 0.2703939892757E+00
 0.2197679283729E+00
 0.1768400857803E+00
 0.1394439297737E+00
 0.1082584157091E+00
 0.8733382024021E-01
 0.7641468027332E-01
 0.7189333429380E-01
 0.7036787587005E-01
 0.6898092649461E-01
 0.6575739654846E-01
 0.5927813663794E-01
 0.6747685581164E+00
 0.7505280029986E+00
 0.7588138293044E+00
 0.7110235833691E+00
 0.6348945456024E+00
 0.5518795873310E+00
 0.4730771951117E+00
 0.4029754858621E+00
 0.3421221384854E+00
 0.2892238165620E+00
 0.2429570539965E+00
 0.2016013180779E+00
 0.1657357426848E+00
 0.1394847330727E+00
 0.1231230540192E+00
 0.1132189166020E+00
 0.1065314952710E+00
 0.1002526671679E+00
 0.9264622714547E-01
 0.8291796008035E-01
 0.6420304046125E+00
 0.7167929862011E+00
 0.7427584171969E+00
 0.7199129980368E+00
 0.6670596865544E+00
 0.6016836398409E+00
 0.5343603247218E+00
 0.4705456092952E+00
 0.4122277649490E+00
 0.3594053976742E+00
 0.3116360703547E+00
 0.2677769897699E+00
 0.2284315007921E+00
 0.1978056050159E+00
 0.1767578996066E+00
 0.1621271937947E+00
 0.1508687985137E+00
 0.1402351390039E+00
 0.1286849128730E+00
 0.1159270907172E+00
 0.6135095372648E+00
 0.6866628721653E+00
 0.7253085430419E+00
 0.7226404368152E+00
 0.6905736957717E+00
 0.6427079575800E+00
 0.5883673988918E+00
 0.5331412961026E+00
 0.4798116933830E+00
 0.4293150866836E+00
 0.3819700591143E+00
 0.3372333807147E+00
 0.2958074444804E+00
 0.2619655314188E+00
 0.2371653857234E+00
 0.2185926872572E+00
 0.2034249924197E+00
 0.1889717684238E+00
 0.1738044805791E+00
 0.1579494290331E+00
 0.5882942641412E+00
 0.6600631472186E+00
 0.7080098478913E+00
 0.7216749901604E+00
 0.7078615937031E+00
 0.6766927210090E+00
 0.6359414466545E+00
 0.5908182378784E+00
 0.5444032780447E+00
 0.4982192554023E+00
 0.4531579930986E+00
 0.4092183620243E+00
 0.3672239670623E+00
 0.3314683498105E+00
 0.3039745418985E+00
 0.2823271235757E+00
 0.2639463732211E+00
 0.2461906338231E+00
 0.2276347386049E+00
 0.2083772772966E+00
 0.5656553013340E+00
 0.6367313197071E+00
 0.6917836781094E+00
 0.7187805358885E+00
 0.7208747988282E+00
 0.7052521706469E+00
 0.6780923193136E+00
 0.6439490321055E+00
 0.6058573167234E+00
 0.5656293464366E+00
 0.5245306269425E+00
 0.4830009411030E+00
 0.4419652356128E+00
 0.4056586298764E+00
 0.3765857285719E+00
 0.3527583660912E+00
 0.3318619842876E+00
 0.3113044377776E+00
 0.2895398728482E+00
 0.2664247992454E+00
 0.5450126177406E+00
 0.6163157675189E+00
 0.6771312090226E+00
 0.7151818238925E+00
 0.7311285081725E+00
 0.7297820179123E+00
 0.7158333319067E+00
 0.6930618574347E+00
 0.6642418008712E+00
 0.6312491684121E+00
 0.5955433246615E+00
 0.5578883646464E+00
 0.5192632746507E+00
 0.4837413109195E+00
 0.4541812424651E+00
 0.4290314799796E+00
 0.4062797617515E+00
 0.3834146248031E+00
 0.3586542819450E+00
 0.3312049471041E+00
 0.5259073443288E+00
 0.5984318688271E+00
 0.6642688905057E+00
 0.7116924441395E+00
 0.7397575130686E+00
 0.7514277729060E+00
 0.7500865050526E+00
 0.7387253295672E+00
 0.7197397863381E+00
 0.6949126000006E+00
 0.6657508280793E+00
 0.6332294233952E+00
 0.5983206260546E+00
 0.5648156067426E+00
 0.5357625382954E+00
 0.5100385533083E+00
 0.4859982363849E+00
 0.4613085953228E+00
 0.4338969536618E+00
 0.4017971352970E+00
 0.5079785536311E+00
 0.5826937706633E+00
 0.6532202581784E+00
 0.7088126435024E+00
 0.7475740970689E+00
 0.7710849217932E+00
 0.7816326719243E+00
 0.7814720955645E+00
 0.7725728352143E+00
 0.7565254227749E+00
 0.7347753602071E+00
 0.7084088400138E+00
 0.6783302281226E+00
 0.6479226088880E+00
 0.6202226279330E+00
 0.5944944592642E+00
 0.5695503217760E+00
 0.5434441238293E+00
 0.5139380314967E+00
 0.4772899667448E+00
 0.4909439018149E+00
 0.5687315646709E+00
 0.6438791976105E+00
 0.7068046526222E+00
 0.7551223245993E+00
 0.7894154674414E+00
 0.8110899795303E+00
 0.8217516963126E+00
 0.8229458955732E+00
 0.8160176963330E+00
 0.8022755539861E+00
 0.7828353835124E+00
 0.7584867388343E+00
 0.7320917501095E+00
 0.7064528452280E+00
 0.6810946836601E+00
 0.6553258913188E+00
 0.6279503727086E+00
 0.5970729161347E+00
 0.5567728688523E+00
 0.4745832847764E+00
 0.5561990093651E+00
 0.6360539933823E+00
 0.7057517473676E+00
 0.7627281162531E+00
 0.8068733982751E+00
 0.8389102347669E+00
 0.8599036824528E+00
 0.8710102720929E+00
 0.8733086378513E+00
 0.8679217152534E+00
 0.8559272562694E+00
 0.8379796083828E+00
 0.8163560559007E+00
 0.7934155883872E+00
 0.7687618973042E+00
 0.7419378110371E+00
 0.7127267015321E+00
 0.6809997972856E+00
 0.6391593430588E+00
 0.4587245059290E+00
 0.5447759360679E+00
 0.6294953427327E+00
 0.7056067090387E+00
 0.7705484032627E+00
 0.8237360749163E+00
 0.8653865945468E+00
 0.8961440004827E+00
 0.9168369955986E+00
 0.9282848842627E+00
 0.9313837550397E+00
 0.9271046159624E+00
 0.9159753787890E+00
 0.8997042952372E+00
 0.8800901510677E+00
 0.8566553446682E+00
 0.8288840984839E+00
 0.7964710034923E+00
 0.7622715056852E+00
 0.7226813326884E+00
 0.4432467028887E+00
 0.5341453697529E+00
 0.6239038547950E+00
 0.7062449115127E+00
 0.7786272977153E+00
 0.8401383771441E+00
 0.8906660757935E+00
 0.9305625994590E+00
 0.9603947222707E+00
 0.9807674220493E+00
 0.9923530641523E+00
 0.9958207105056E+00
 0.9916069745744E+00
 0.9810356226389E+00
 0.9652714618823E+00
 0.9437844890341E+00
 0.9158525603693E+00
 0.8807628981386E+00
 0.8397468707155E+00
 0.8013746473012E+00
 0.4219915805796E+00
 0.5348867152275E+00
 0.6419888378226E+00
 0.7387420730924E+00
 0.8238556002694E+00
 0.8972226750678E+00
 0.9592874495914E+00
 0.1010819881059E+01
 0.1052705750078E+01
 0.1085786272622E+01
 0.1110921486441E+01
 0.1128929516693E+01
 0.1140298188394E+01
 0.1146510961248E+01
 0.1148886680491E+01
 0.1146899226196E+01
 0.1139804557108E+01
 0.1126839134422E+01
 0.1109174122760E+01
 0.1095950479251E+01
 0.4372119733916E+00
 0.5449146191473E+00
 0.6466052126819E+00
 0.7368918111550E+00
 0.8145018184196E+00
 0.8796400527797E+00
 0.9330254416232E+00
 0.9756618702327E+00
 0.1008642882466E+01
 0.1032968289806E+01
 0.1049672260612E+01
 0.1059833785018E+01
 0.1063961392105E+01
 0.1063973994934E+01
 0.1061922322458E+01
 0.1057332672405E+01
 0.1049694769662E+01
 0.1038763111481E+01
 0.1027518244505E+01
 0.1012758222269E+01
 0.4527492281809E+00
 0.5554598983784E+00
 0.6517209346800E+00
 0.7351868320155E+00
 0.8046256139322E+00
 0.8606784203266E+00
 0.9045032335513E+00
 0.9374548689885E+00
 0.9608879358940E+00
 0.9759993712225E+00
 0.9839977346106E+00
 0.9860256538791E+00
 0.9826881776644E+00
 0.9765566330249E+00
 0.9703603344666E+00
 0.9637381303697E+00
 0.9562922502385E+00
 0.9479305900776E+00
 0.9387649464983E+00
 0.9216208752229E+00
 0.4687362964392E+00
 0.5668048038002E+00
 0.6576016942529E+00
 0.7337431683379E+00
 0.7942032284669E+00
 0.8402559378427E+00
 0.8736556274410E+00
 0.8962140987439E+00
 0.9095982317448E+00
 0.9152039578033E+00
 0.9143739849397E+00
 0.9082505711434E+00
 0.8975599826538E+00
 0.8855681301277E+00
 0.8755936325381E+00
 0.8672484020481E+00
 0.8599542115915E+00
 0.8526879208913E+00
 0.8438745105049E+00
 0.8280258374127E+00
 0.4853263666831E+00
 0.5792494437244E+00
 0.6644803253233E+00
 0.7326192099216E+00
 0.7831251709892E+00
 0.8181779877565E+00
 0.8403038037040E+00
 0.8518652252732E+00
 0.8548691007783E+00
 0.8508872988456E+00
 0.8413518598317E+00
 0.8273376131580E+00
 0.8096866013973E+00
 0.7923117746360E+00
 0.7789234146663E+00
 0.7689383438173E+00
 0.7613379177224E+00
 0.7543857431839E+00
 0.7462368032244E+00
 0.7336975588474E+00
 0.5027120453939E+00
 0.5931117192870E+00
 0.6725428751608E+00
 0.7317631690712E+00
 0.7711390905165E+00
 0.7941027713964E+00
 0.8041408659910E+00
 0.8042415376666E+00
 0.7967482395316E+00
 0.7833572851855E+00
 0.7655198651345E+00
 0.7441639015017E+00
 0.7202145290190E+00
 0.6981241664880E+00
 0.6817661889468E+00
 0.6702422274389E+00
 0.6621334546223E+00
 0.6553525288208E+00
 0.6483164449896E+00
 0.6398232474136E+00
 0.5211406130509E+00
 0.6087289862687E+00
 0.6818977892762E+00
 0.7309647864177E+00
 0.7578013204920E+00
 0.7675089361689E+00
 0.7647208542350E+00
 0.7530914058466E+00
 0.7352532025549E+00
 0.7129345196546E+00
 0.6875050727961E+00
 0.6596512154564E+00
 0.6303342213480E+00
 0.6044150005574E+00
 0.5857069933845E+00
 0.5729520618172E+00
 0.5644203759110E+00
 0.5578870494703E+00
 0.5521812031660E+00
 0.5475616686344E+00
 0.5409305116864E+00
 0.6264515693255E+00
 0.6925347586907E+00
 0.7297986525024E+00
 0.7424282792640E+00
 0.7376691646765E+00
 0.7214582571438E+00
 0.6980977957835E+00
 0.6703982451766E+00
 0.6399754660192E+00
 0.6079846689395E+00
 0.5747663059371E+00
 0.5412711689161E+00
 0.5126350848489E+00
 0.4924106652886E+00
 0.4789581271084E+00
 0.4702915636492E+00
 0.4641460643237E+00
 0.4597177936855E+00
 0.4582391369719E+00
 0.5624895717873E+00
 0.6466273694301E+00
 0.7042661354341E+00
 0.7275538608580E+00
 0.7240447809220E+00
 0.7036325397289E+00
 0.6736443332659E+00
 0.6389166397439E+00
 0.6022380651623E+00
 0.5649068700979E+00
 0.5277022083422E+00
 0.4905155621740E+00
 0.4542536997478E+00
 0.4242043170895E+00
 0.4034852313988E+00
 0.3900588198644E+00
 0.3816985062590E+00
 0.3761176386490E+00
 0.3727495436194E+00
 0.3733820557357E+00
 0.5863364443280E+00
 0.6695725865557E+00
 0.7166422545425E+00
 0.7231434793229E+00
 0.7013297490388E+00
 0.6642226080350E+00
 0.6204901015781E+00
 0.5752425850789E+00
 0.5309315309484E+00
 0.4882698177970E+00
 0.4474838445745E+00
 0.4079318603183E+00
 0.3704690275293E+00
 0.3404324858115E+00
 0.3203695052362E+00
 0.3078383216135E+00
 0.3003599866793E+00
 0.2955976773411E+00
 0.2930530739074E+00
 0.2946927104685E+00
 0.6131262623344E+00
 0.6955197347943E+00
 0.7288265795086E+00
 0.7149866427807E+00
 0.6725644584064E+00
 0.6180654505481E+00
 0.5612112437106E+00
 0.5069108786290E+00
 0.4568256198012E+00
 0.4107678264077E+00
 0.3682484991018E+00
 0.3280529978947E+00
 0.2910162212623E+00
 0.2624517763167E+00
 0.2442508998056E+00
 0.2335813709909E+00
 0.2276899832297E+00
 0.2241379071150E+00
 0.2223102172476E+00
 0.2239860490537E+00
 0.6436807484905E+00
 0.7245260357930E+00
 0.7394075657300E+00
 0.7008559167123E+00
 0.6355984594491E+00
 0.5636746385177E+00
 0.4951768243996E+00
 0.4340422322162E+00
 0.3805527785182E+00
 0.3333067444104E+00
 0.2910025245018E+00
 0.2518892710584E+00
 0.2168607185636E+00
 0.1911660967571E+00
 0.1760107111032E+00
 0.1682137353325E+00
 0.1647316180518E+00
 0.1629693908949E+00
 0.1620139330438E+00
 0.1630928404104E+00
 0.6790208866097E+00
 0.7563094682528E+00
 0.7461089896980E+00
 0.6776873660318E+00
 0.5878702319863E+00
 0.4996406866557E+00
 0.4221484454524E+00
 0.3572272850585E+00
 0.3031201696095E+00
 0.2570044427836E+00
 0.2168061019655E+00
 0.1803775286866E+00
 0.1487934755347E+00
 0.1272205915999E+00
 0.1161982673235E+00
 0.1122691014687E+00
 0.1121024339691E+00
 0.1129141675939E+00
 0.1133431451979E+00
 0.1137261161390E+00
 0.7203939904455E+00
 0.7899466782515E+00
 0.7453349937491E+00
 0.6413697559521E+00
 0.5265662847712E+00
 0.4250014284389E+00
 0.3426292126534E+00
 0.2777177879639E+00
 0.2259456401304E+00
 0.1831398431692E+00
 0.1467013845411E+00
 0.1143237680420E+00
 0.8740088177828E-01
 0.7099745083038E-01
 0.6503961326812E-01
 0.6588999815675E-01
 0.6996373986254E-01
 0.7430313961508E-01
 0.7702219467068E-01
 0.7730894648235E-01
 0.7692695548224E+00
 0.8232925191791E+00
 0.7314452215994E+00
 0.5865946432629E+00
 0.4490968907394E+00
 0.3399006081482E+00
 0.2582898676798E+00
 0.1975333972417E+00
 0.1507683194134E+00
 0.1130190777050E+00
 0.8160731427146E-01
 0.5434732061693E-01
 0.3306563545529E-01
 0.2266898751602E-01
 0.2250391300064E-01
 0.2887431360911E-01
 0.3803005366206E-01
 0.4692598585058E-01
 0.5319440240663E-01
 0.5478325134746E-01
 0.8272173782278E+00
 0.8518007838871E+00
 0.6956026872501E+00
 0.5070407370992E+00
 0.3542655743508E+00
 0.2465874744021E+00
 0.1722991025693E+00
 0.1192887433700E+00
 0.7938415661578E-01
 0.4777753456985E-01
 0.2221679786799E-01
 0.1730772327273E-02
 0.1428901791064E-01
 0.1811450671536E-01
 0.1194619833308E-01
 0.1273691272992E-02
 0.1563658320094E-01
 0.3005335536831E-01
 0.4135856268285E-01
 0.4645982027079E-01
 0.8954336871413E+00
 0.8659125064209E+00
 0.6240320957900E+00
 0.3968378147374E+00
 0.2446841447457E+00
 0.1505628871350E+00
 0.8892609241958E-01
 0.4562668355184E-01
 0.1327912835516E-01
 0.1183936388670E-01
 0.3120072579170E-01
 0.4621551401340E-01
 0.5421807779636E-01
 0.5101728270099E-01
 0.3811275377470E-01
 0.1913449660943E-01
 0.2112100942510E-02
 0.2255879351997E-01
 0.4033559841270E-01
 0.5182876727729E-01
 0.9725971704785E+00
 0.8446193635737E+00
 0.4962199033121E+00
 0.2558219391874E+00
 0.1314256940313E+00
 0.5937725781573E-01
 0.1220605942887E-01
 0.2147784425971E-01
 0.4665992109803E-01
 0.6549820135238E-01
 0.7855514213470E-01
 0.8674694908730E-01
 0.8719919664645E-01
 0.7652958810234E-01
 0.5664468042373E-01
 0.3115193350577E-01
 0.4846974529282E-02
 0.2296614555607E-01
 0.4815165373380E-01
 0.6924249505902E-01
 0.1048545577004E+01
 0.7354895489350E+00
 0.2884681653245E+00
 0.1110385800070E+00
 0.2907019900848E-01
 0.2122643844982E-01
 0.5553124693705E-01
 0.8102739462128E-01
 0.1001802847176E+00
 0.1134721327839E+00
 0.1203759322299E+00
 0.1212865138144E+00
 0.1133177052205E+00
 0.9461424861664E-01
 0.6756410533649E-01
 0.3574922932054E-01
 0.5408487485795E-02
 0.2952347034914E-01
 0.6202145317658E-01
 0.9598069007987E-01
 0.1011121416810E+01
 0.3801967240499E+00
 0.7399184358769E-01
 0.7366374030763E-02
 0.5557268140657E-01
 0.8829694409530E-01
 0.1133772565993E+00
 0.1330360072619E+00
 0.1474656135807E+00
 0.1562421245879E+00
 0.1580048016055E+00
 0.1507263563769E+00
 0.1323132422627E+00
 0.1047081468602E+00
 0.7071224625645E-01
 0.3322673277122E-01
 0.7862527805623E-02
 0.4173328371435E-01
 0.7841581560456E-01
 0.1275520656827E+00
 0.7954130181699E+00
 0.7146908148090E+00
 0.6373687994391E+00
 0.5620753603500E+00
 0.4883426551264E+00
 0.4168673656015E+00
 0.3486568949934E+00
 0.2848407396142E+00
 0.2265710539920E+00
 0.1749681556941E+00
 0.1310680324861E+00
 0.9576061781577E-01
 0.6971757261449E-01
 0.5332603553536E-01
 0.4665737084349E-01
 0.4942092355729E-01
 0.6084385312423E-01
 0.7974715761144E-01
 0.1048314193020E+00
 0.1361862895434E+00
 0.8632030552921E+00
 0.7895131588645E+00
 0.7097587676300E+00
 0.6293707395803E+00
 0.5500684455735E+00
 0.4727132736417E+00
 0.3981987198707E+00
 0.3275549281839E+00
 0.2619514265967E+00
 0.2026556819954E+00
 0.1509754451215E+00
 0.1081830300369E+00
 0.7541722654554E-01
 0.5356903383961E-01
 0.4320395825945E-01
 0.4453808329971E-01
 0.5722050510629E-01
 0.8021632420745E-01
 0.1122996260758E+00
 0.1524768580206E+00
 0.9336517888619E+00
 0.8624722287365E+00
 0.7850182515031E+00
 0.7038567552283E+00
 0.6215996992957E+00
 0.5398186007717E+00
 0.4597137894614E+00
 0.3824538234949E+00
 0.3093076713870E+00
 0.2416864123958E+00
 0.1811331986977E+00
 0.1292770064353E+00
 0.8774798681508E-01
 0.5804445773317E-01
 0.4137563420481E-01
 0.3863259734260E-01
 0.5021966581964E-01
 0.7544544201522E-01
 0.1126819877382E+00
 0.1596557444771E+00
 0.1009177286934E+01
 0.9394195667745E+00
 0.8640816385878E+00
 0.7840732614095E+00
 0.7011184460275E+00
 0.6168508492091E+00
 0.5326386354201E+00
 0.4497722849390E+00
 0.3696116679984E+00
 0.2936737871649E+00
 0.2236746713263E+00
 0.1615334873104E+00
 0.1093363244739E+00
 0.6923996591616E-01
 0.4327793272802E-01
 0.3317077162917E-01
 0.4044478659373E-01
 0.6544497186540E-01
 0.1065485787856E+00
 0.1607922253407E+00
 0.1089281224579E+01
 0.1021418014882E+01
 0.9484336831154E+00
 0.8704155480159E+00
 0.7883191573715E+00
 0.7033685859708E+00
 0.6168057808211E+00
 0.5298745742101E+00
 0.4439068437571E+00
 0.3604116128002E+00
 0.2811482053767E+00
 0.2081799480678E+00
 0.1439039160348E+00
 0.9104004554315E-01
 0.5252589914972E-01
 0.3119921978343E-01
 0.2975425278934E-01
 0.5082340980479E-01
 0.9407175915464E-01
 0.1563288332990E+00
 0.1173154177326E+01
 0.1108218031840E+01
 0.1038292002586E+01
 0.9631472587113E+00
 0.8832039142130E+00
 0.7992450098350E+00
 0.7122113032359E+00
 0.6231390478875E+00
 0.5331871845092E+00
 0.4437070788289E+00
 0.3563259445620E+00
 0.2730358067726E+00
 0.1962855530462E+00
 0.1290705500075E+00
 0.7499549607993E-01
 0.3819192113117E-01
 0.2275506199460E-01
 0.3373754812461E-01
 0.7525765520382E-01
 0.1455771407606E+00
 0.1259846626204E+01
 0.1198995798162E+01
 0.1133109987666E+01
 0.1061872677781E+01
 0.9853881699643E+00
 0.9040762880330E+00
 0.8185524851803E+00
 0.7295671333444E+00
 0.6380084365044E+00
 0.5449493554050E+00
 0.4517242303277E+00
 0.3600297603570E+00
 0.2720535792372E+00
 0.1906386708036E+00
 0.1194927842211E+00
 0.6343293479563E-01
 0.2843336054068E-01
 0.2100404646820E-01
 0.5193403594665E-01
 0.1271080737790E+00
 0.1348354427148E+01
 0.1292688436618E+01
 0.1231907858364E+01
 0.1165705758378E+01
 0.1094019196546E+01
 0.1017016511961E+01
 0.9350402535483E+00
 0.8485657831073E+00
 0.7581945061851E+00
 0.6646812765792E+00
 0.5689916356309E+00
 0.4723893068843E+00
 0.3765618425895E+00
 0.2838021400977E+00
 0.1972772158661E+00
 0.1214347515905E+00
 0.6259867266822E-01
 0.2950481280006E-01
 0.3557742278918E-01
 0.1028567503918E+00
 0.1437611117650E+01
 0.1388072280320E+01
 0.1333406385000E+01
 0.1273348344387E+01
 0.1207762866929E+01
 0.1136670937761E+01
 0.1060231380494E+01
 0.9787181454214E+00
 0.8925127244124E+00
 0.8021176648376E+00
 0.7081925845750E+00
 0.6116155314456E+00
 0.5135781769997E+00
 0.4157331033825E+00
 0.3204284702424E+00
 0.2310975077918E+00
 0.1529344375059E+00
 0.9413800914178E-01
 0.6878428471287E-01
 0.1069029600688E+00
 0.1526449486396E+01
 0.1483710029866E+01
 0.1435950010810E+01
 0.1382939691402E+01
 0.1324522968908E+01
 0.1260650899848E+01
 0.1191384179746E+01
 0.1116886223561E+01
 0.1037421238881E+01
 0.9533642105972E+00
 0.8652259628461E+00
 0.7736963782962E+00
 0.6797117159238E+00
 0.5845579607368E+00
 0.4900331209050E+00
 0.3987128796250E+00
 0.3144106220914E+00
 0.2430496923445E+00
 0.1945507433298E+00
 0.1887933860072E+00
 0.1613662345854E+01
 0.1578090491243E+01
 0.1537700826592E+01
 0.1492278988671E+01
 0.1441660159676E+01
 0.1385757144558E+01
 0.1324571289576E+01
 0.1258195274488E+01
 0.1186816414219E+01
 0.1110725650149E+01
 0.1030334716968E+01
 0.9462027110476E+00
 0.8590730906204E+00
 0.7699222950370E+00
 0.6800206058635E+00
 0.5910019027937E+00
 0.5049240558564E+00
 0.4242354170722E+00
 0.3513531344653E+00
 0.2850010110931E+00
 0.1698050853361E+01
 0.1669730244011E+01
 0.1636837527884E+01
 0.1599150475990E+01
 0.1556480736542E+01
 0.1508694413702E+01
 0.1455722994907E+01
 0.1397567824085E+01
 0.1334302101842E+01
 0.1266072769579E+01
 0.1193102407479E+01
 0.1115688964890E+01
 0.1034198212292E+01
 0.9490387930977E+00
 0.8605994994074E+00
 0.7691054579318E+00
 0.6742939200427E+00
 0.5746659279541E+00
 0.4655897125950E+00
 0.3342439559002E+00
 0.1778473785676E+01
 0.1757241735544E+01
 0.1731679454889E+01
 0.1701532668746E+01
 0.1666563926771E+01
 0.1626565952329E+01
 0.1581368358995E+01
 0.1530838367469E+01
 0.1474876587215E+01
 0.1413407762664E+01
 0.1346364361522E+01
 0.1273658112521E+01
 0.1195130535608E+01
 0.1110466798649E+01
 0.1019045197231E+01
 0.9196721538506E+00
 0.8101102973098E+00
 0.6862371712849E+00
 0.5406155683724E+00
 0.3617822939890E+00
 0.1853881212578E+01
 0.1839371121757E+01
 0.1820737948951E+01
 0.1797672201031E+01
 0.1769860667347E+01
 0.1736993129287E+01
 0.1698763343906E+01
 0.1654863891245E+01
 0.1604974390237E+01
 0.1548741580132E+01
 0.1485748051647E+01
 0.1415464010488E+01
 0.1337173101644E+01
 0.1249858518295E+01
 0.1152028957353E+01
 0.1041456099303E+01
 0.9147950977791E+00
 0.7671007031467E+00
 0.5916036616389E+00
 0.3812287787319E+00
 0.1923333877848E+01
 0.1915017953771E+01
 0.1902736060574E+01
 0.1886103958226E+01
 0.1864710880203E+01
 0.1838120277987E+01
 0.1805865275894E+01
 0.1767438052525E+01
 0.1722272092277E+01
 0.1669715471831E+01
 0.1608992187437E+01
 0.1539147094177E+01
 0.1458968463844E+01
 0.1366880934598E+01
 0.1260802166106E+01
 0.1137963763073E+01
 0.9947237169496E+00
 0.8264952643200E+00
 0.6281596135713E+00
 0.3964513552822E+00
 0.1986011900731E+01
 0.1983241482486E+01
 0.1976608894755E+01
 0.1965641762095E+01
 0.1949818137596E+01
 0.1928562240333E+01
 0.1901235558374E+01
 0.1867122569593E+01
 0.1825410116664E+01
 0.1775159043841E+01
 0.1715266204163E+01
 0.1644414604756E+01
 0.1561009700526E+01
 0.1463101569299E+01
 0.1348297985051E+01
 0.1213686537835E+01
 0.1055816165959E+01
 0.8708564789887E+00
 0.6552555901709E+00
 0.4086715626736E+00
 0.2041215208149E+01
 0.2043255880619E+01
 0.2041489950592E+01
 0.2035351065498E+01
 0.2024201951699E+01
 0.2007326290298E+01
 0.1983917013460E+01
 0.1953060555392E+01
 0.1913716551371E+01
 0.1864692408470E+01
 0.1804612239965E+01
 0.1731880127903E+01
 0.1644639011647E+01
 0.1540729526328E+01
 0.1417659265186E+01
 0.1272605009858E+01
 0.1102492973405E+01
 0.9042552493507E+00
 0.6755925024395E+00
 0.4183657066574E+00
 0.2088359002506E+01
 0.2094419253686E+01
 0.2096690234946E+01
 0.2094513683488E+01
 0.2087142235794E+01
 0.2073728554650E+01
 0.2053312244594E+01
 0.2024804486480E+01
 0.1986970449673E+01
 0.1938409750751E+01
 0.1877535649798E+01
 0.1802554513963E+01
 0.1711448662403E+01
 0.1601968525455E+01
 0.1471644881988E+01
 0.1317840113657E+01
 0.1137874099416E+01
 0.9293145061746E+00
 0.6907948625547E+00
 0.4258318015476E+00
 0.2126966836803E+01
 0.2136220067253E+01
 0.2141675149754E+01
 0.2142591478180E+01
 0.2138125295838E+01
 0.2127316899526E+01
 0.2109077187508E+01
 0.2082173806933E+01
 0.2045217433834E+01
 0.1996649127743E+01
 0.1934730259811E+01
 0.1857537344241E+01
 0.1762965371803E+01
 0.1648745180349E+01
 0.1512483420840E+01
 0.1351739305960E+01
 0.1164167658159E+01
 0.9478179164443E+00
 0.7019864880754E+00
 0.4313807607464E+00
 0.2156663097337E+01
 0.2168263381836E+01
 0.2176042100115E+01
 0.2179192685585E+01
 0.2176795820525E+01
 0.2167805234602E+01
 0.2151034450907E+01
 0.2125144745404E+01
 0.2088635182336E+01
 0.2039836111344E+01
 0.1976908057986E+01
 0.1897848577523E+01
 0.1800510424836E+01
 0.1682635439588E+01
 0.1541910343644E+01
 0.1376055269838E+01
 0.1182971878063E+01
 0.9610435735724E+00
 0.7100141201155E+00
 0.4353811089628E+00
 0.2177166094309E+01
 0.2190258075002E+01
 0.2199499873637E+01
 0.2204041322524E+01
 0.2202913778908E+01
 0.2195015308399E+01
 0.2179097809118E+01
 0.2153756347152E+01
 0.2117421790870E+01
 0.2068358369899E+01
 0.2004668272638E+01
 0.1924305843422E+01
 0.1825104351102E+01
 0.1704818792852E+01
 0.1561189410874E+01
 0.1392035032939E+01
 0.1195402354388E+01
 0.9698670339822E+00
 0.7154305236850E+00
 0.4380723457085E+00
 0.2188280672823E+01
 0.2202003322844E+01
 0.2211847889839E+01
 0.2216946394542E+01
 0.2216310124000E+01
 0.2208815183768E+01
 0.2193189845905E+01
 0.2168004343048E+01
 0.2131664300597E+01
 0.2082409521781E+01
 0.2018320291898E+01
 0.1937333748781E+01
 0.1837273164390E+01
 0.1715893325393E+01
 0.1570946284645E+01
 0.1400276202501E+01
 0.1201969404674E+01
 0.9746568690687E+00
 0.7184193965157E+00
 0.4394004140884E+00
 0.2189892655751E+01
 0.2203379241584E+01
 0.2212963111937E+01
 0.2217784118877E+01
 0.2216863378857E+01
 0.2209089384798E+01
 0.2193205269729E+01
 0.2167797967887E+01
 0.2131290455492E+01
 0.2081938726361E+01
 0.2017835635570E+01
 0.1936924218696E+01
 0.1837023574013E+01
 0.1715870996576E+01
 0.1571185382342E+01
 0.1400761385582E+01
 0.1202620658045E+01
 0.9753155122438E+00
 0.7188266739282E+00
 0.4390941414029E+00
 0.2181970346177E+01
 0.2194349469551E+01
 0.2202802967677E+01
 0.2206502385086E+01
 0.2204507277134E+01
 0.2195751874336E+01
 0.2179031949847E+01
 0.2152992414527E+01
 0.2116116603507E+01
 0.2066718672656E+01
 0.2002941054377E+01
 0.1922759595221E+01
 0.1823999893651E+01
 0.1704369615354E+01
 0.1561513630673E+01
 0.1393103586725E+01
 0.1196989120090E+01
 0.9715017644955E+00
 0.7163279465035E+00
 0.4368529185012E+00
 0.2164565358306E+01
 0.2174963446650E+01
 0.2181408828025E+01
 0.2183125703452E+01
 0.2179237779025E+01
 0.2168755784477E+01
 0.2150563950480E+01
 0.2123405571524E+01
 0.2085868204574E+01
 0.2036369464844E+01
 0.1973144906435E+01
 0.1894240303884E+01
 0.1797512010502E+01
 0.1680641259064E+01
 0.1541171757579E+01
 0.1376586024704E+01
 0.1184450928126E+01
 0.9627196125606E+00
 0.7105728457853E+00
 0.4325050536876E+00
 0.2137815684810E+01
 0.2145361438214E+01
 0.2148913608390E+01
 0.2147765754404E+01
 0.2141126910699E+01
 0.2128110687219E+01
 0.2107721921901E+01
 0.2078840472795E+01
 0.2040202180805E+01
 0.1990377312333E+01
 0.1927747132299E+01
 0.1850479981884E+01
 0.1756509771327E+01
 0.1643522757106E+01
 0.1508963793055E+01
 0.1350082477911E+01
 0.1164057127914E+01
 0.9482861397865E+00
 0.7011960172223E+00
 0.4260096432817E+00
 0.2101951755287E+01
 0.2105783914971E+01
 0.2105555603670E+01
 0.2100640804040E+01
 0.2090348714875E+01
 0.2073915726287E+01
 0.2050493449799E+01
 0.2019131818804E+01
 0.1978756853187E+01
 0.1928142715049E+01
 0.1865877544287E+01
 0.1790322716240E+01
 0.1699566178422E+01
 0.1591373323210E+01
 0.1463145110003E+01
 0.1311906155022E+01
 0.1134371239219E+01
 0.9271946126217E+00
 0.6877301481764E+00
 0.4174324162700E+00
 0.2057304670820E+01
 0.2056584444752E+01
 0.2051697916900E+01
 0.2042103582477E+01
 0.2027217379572E+01
 0.2006409568220E+01
 0.1978995872331E+01
 0.1944221552527E+01
 0.1901238065390E+01
 0.1849071573824E+01
 0.1786581599667E+01
 0.1712407150709E+01
 0.1624897237227E+01
 0.1522023658167E+01
 0.1401278307328E+01
 0.1259569825484E+01
 0.1093168062811E+01
 0.8978256250043E+00
 0.6694216662776E+00
 0.4069385671324E+00
 0.2004315646434E+01
 0.1998245106786E+01
 0.1987852626089E+01
 0.1972676980451E+01
 0.1952237275805E+01
 0.1926037819796E+01
 0.1893564128261E+01
 0.1854269485397E+01
 0.1807552995031E+01
 0.1752728863453E+01
 0.1688984431444E+01
 0.1615322060768E+01
 0.1530477523205E+01
 0.1432805144889E+01
 0.1320118515635E+01
 0.1189479129424E+01
 0.1036946840992E+01
 0.8574005966901E+00
 0.6448376621468E+00
 0.3947655896946E+00
 0.1943544858090E+01
 0.1931392179525E+01
 0.1914707548202E+01
 0.1893095340517E+01
 0.1866162686496E+01
 0.1833536375086E+01
 0.1794864155016E+01
 0.1749803677281E+01
 0.1698003653494E+01
 0.1639078598275E+01
 0.1572574684765E+01
 0.1497920541133E+01
 0.1414352702049E+01
 0.1320799709284E+01
 0.1215700022915E+01
 0.1096715666110E+01
 0.9602893725229E+00
 0.8010019994723E+00
 0.6109807474614E+00
 0.3810296421302E+00
 0.1875678346681E+01
 0.1856812218931E+01
 0.1833155992854E+01
 0.1804350708000E+01
 0.1770065209048E+01
 0.1730028091015E+01
 0.1684030194704E+01
 0.1631912325085E+01
 0.1573549080016E+01
 0.1508832516173E+01
 0.1437653718772E+01
 0.1359876313697E+01
 0.1275291879663E+01
 0.1183540795015E+01
 0.1083969638576E+01
 0.9753707033795E+00
 0.8554958207158E+00
 0.7201232928788E+00
 0.5612215959465E+00
 0.3647651318337E+00
 0.1801530384653E+01
 0.1775467636873E+01
 0.1744325946469E+01
 0.1707734818907E+01
 0.1665394291716E+01
 0.1617114037574E+01
 0.1562804571013E+01
 0.1502455414952E+01
 0.1436118521272E+01
 0.1363901782635E+01
 0.1285970611564E+01
 0.1202552763670E+01
 0.1113940309429E+01
 0.1020479908798E+01
 0.9225350142060E+00
 0.8203846623916E+00
 0.7139716739728E+00
 0.6022737311402E+00
 0.4815376947578E+00
 0.3393814706357E+00
 0.1722043252229E+01
 0.1688515194777E+01
 0.1649599854335E+01
 0.1604856710777E+01
 0.1554000993321E+01
 0.1496920145872E+01
 0.1433631144376E+01
 0.1364237711696E+01
 0.1288909420973E+01
 0.1207884300543E+01
 0.1121489296648E+01
 0.1030174586580E+01
 0.9345614011836E+00
 0.8355074115709E+00
 0.7341985221754E+00
 0.6322815331218E+00
 0.5320617473703E+00
 0.4367806296193E+00
 0.3510206731824E+00
 0.2796056718082E+00
 0.1638293190592E+01
 0.1597312349106E+01
 0.1550593295978E+01
 0.1497595206994E+01
 0.1438079052499E+01
 0.1372050203522E+01
 0.1299652664223E+01
 0.1221097463024E+01
 0.1136642060448E+01
 0.1046606129147E+01
 0.9514111580187E+00
 0.8516388529270E+00
 0.7481138863820E+00
 0.6420273210932E+00
 0.5351330242241E+00
 0.4300808415115E+00
 0.3310189763963E+00
 0.2447990056707E+00
 0.1836678670496E+00
 0.1745299674315E+00
 0.1551452811429E+01
 0.1503312267630E+01
 0.1448998364364E+01
 0.1387910912355E+01
 0.1319973974519E+01
 0.1245421929198E+01
 0.1164598128913E+01
 0.1077873246676E+01
 0.9856482516187E+00
 0.8884049572951E+00
 0.7867779666483E+00
 0.6816465445504E+00
 0.5742582720338E+00
 0.4664086785439E+00
 0.3607190143819E+00
 0.2610868551098E+00
 0.1734539625612E+00
 0.1072029231409E+00
 0.7826889110882E-01
 0.1165825096276E+00
 0.1462815272968E+01
 0.1408077210048E+01
 0.1346577016776E+01
 0.1277825241386E+01
 0.1202154330011E+01
 0.1120177598981E+01
 0.1032519101002E+01
 0.9397660096948E+00
 0.8425483469093E+00
 0.7416406004276E+00
 0.6380700654935E+00
 0.5332391472104E+00
 0.4290776832783E+00
 0.3282473868375E+00
 0.2344268301140E+00
 0.1527108026737E+00
 0.9014907469166E-01
 0.5649332499902E-01
 0.6561747393312E-01
 0.1321155231780E+00
 0.1373803316034E+01
 0.1313205778057E+01
 0.1244969404724E+01
 0.1169185636778E+01
 0.1086917069660E+01
 0.9992688514246E+00
 0.9070953708037E+00
 0.8111769212246E+00
 0.7123892943754E+00
 0.6118375677927E+00
 0.5109716023686E+00
 0.4117005762443E+00
 0.3165204321642E+00
 0.2286617396109E+00
 0.1522540972813E+00
 0.9247217589783E-01
 0.5557666613638E-01
 0.4893917439682E-01
 0.7968777271938E-01
 0.1489394987755E+00
 0.1285875238435E+01
 0.1219973572466E+01
 0.1145245660020E+01
 0.1063215619762E+01
 0.9761168935849E+00
 0.8851817928833E+00
 0.7912802144378E+00
 0.6952983446883E+00
 0.5983194889238E+00
 0.5017325925150E+00
 0.4073091702128E+00
 0.3172695347626E+00
 0.2343409040295E+00
 0.1617961074476E+00
 0.1034399782184E+00
 0.6347769558014E-01
 0.4625513176153E-01
 0.5581874893785E-01
 0.9360254071995E-01
 0.1562611799613E+00
 0.1200557593952E+01
 0.1128700836607E+01
 0.1046945454850E+01
 0.9606837595777E+00
 0.8715630026869E+00
 0.7802543236388E+00
 0.6875091475244E+00
 0.5943131031532E+00
 0.5019467757717E+00
 0.4120070011664E+00
 0.3264219780204E+00
 0.2474561890403E+00
 0.1776921181032E+00
 0.1199639764038E+00
 0.7720487258146E-01
 0.5218320377335E-01
 0.4721134198806E-01
 0.6343713102993E-01
 0.9983037803324E-01
 0.1535001896687E+00
 0.1116853092759E+01
 0.1033418163427E+01
 0.9492341811017E+00
 0.8637029214626E+00
 0.7761691819115E+00
 0.6872491565171E+00
 0.5979744569053E+00
 0.5096494859771E+00
 0.4237855576524E+00
 0.3420853461509E+00
 0.2664296930845E+00
 0.1988483747198E+00
 0.1414562476636E+00
 0.9633342770465E-01
 0.6533156953720E-01
 0.4983343579655E-01
 0.5047616939036E-01
 0.6661270320374E-01
 0.9609164617684E-01
 0.1375755430847E+00
</DataArray>
<DataArray type="Float64" Name="OI" NumberOfComponents="1" ComponentName0="OI" format="ascii">
 0.2387474261664E+01
 0.2104852944894E+01
 0.1892699384892E+01
 0.1814624588136E+01
 0.1762715991776E+01
 0.1732119680656E+01
 0.1712968120304E+01
 0.1701950679124E+01
 0.1696841014088E+01
 0.1696486719379E+01
 0.1700261870433E+01
 0.1707925553800E+01
 0.1719522131621E+01
 0.1735348906156E+01
 0.1755963777813E+01
 0.1782246758261E+01
 0.1815549895698E+01
 0.1858094812049E+01
 0.1913923107239E+01
 0.1988893633613E+01
 0.2080471215529E+01
 0.2175205801212E+01
 0.2261851479710E+01
 0.2336713880815E+01
 0.2401138349992E+01
 0.2458165094928E+01
 0.2510518464952E+01
 0.2559779428650E+01
 0.2605970881412E+01
 0.2647166168434E+01
 0.2681890232767E+01
 0.2713971247395E+01
 0.2749525750372E+01
 0.2792659872212E+01
 0.2847593800681E+01
 0.2918313480695E+01
 0.3016522957656E+01
 0.3126052704866E+01
 0.3370281141303E+01
 0.3012192981759E+01
 0.6144810317157E+01
 0.2032279450812E+01
 0.2086105008011E+01
 0.1930168825272E+01
 0.1835687942750E+01
 0.1782711256014E+01
 0.1747873116972E+01
 0.1725983263771E+01
 0.1712633655378E+01
 0.1705693852162E+01
 0.1703858363531E+01
 0.1706430952446E+01
 0.1713102659650E+01
 0.1723863589907E+01
 0.1738960801472E+01
 0.1758899970619E+01
 0.1784491509261E+01
 0.1816971266409E+01
 0.1858202589562E+01
 0.1910240840586E+01
 0.1973653732734E+01
 0.2045392595147E+01
 0.2119089616781E+01
 0.2188521966626E+01
 0.2250362954376E+01
 0.2304144075834E+01
 0.2350844559271E+01
 0.2391612294487E+01
 0.2426977584368E+01
 0.2456600261449E+01
 0.2479824936633E+01
 0.2496551530745E+01
 0.2507444377438E+01
 0.2513415650579E+01
 0.2514516565181E+01
 0.2508288594662E+01
 0.2489529397577E+01
 0.2440016259490E+01
 0.2345385612435E+01
 0.2046667262833E+01
 0.1564458183042E+01
 0.5231535921334E+01
 0.1841831879333E+01
 0.1976681062782E+01
 0.1926895978013E+01
 0.1845036557819E+01
 0.1793288945237E+01
 0.1758403221172E+01
 0.1735204456392E+01
 0.1720531846952E+01
 0.1712295659163E+01
 0.1709281123876E+01
 0.1710780660486E+01
 0.1716461860958E+01
 0.1726275300344E+01
 0.1740415194761E+01
 0.1759310142559E+01
 0.1783642673561E+01
 0.1814390456725E+01
 0.1852643228738E+01
 0.1898633776849E+01
 0.1950946127795E+01
 0.2007075160143E+01
 0.2063988359767E+01
 0.2118407289998E+01
 0.2167717181180E+01
 0.2210596565744E+01
 0.2246727899454E+01
 0.2276128918121E+01
 0.2298611999324E+01
 0.2313739747388E+01
 0.2321245742796E+01
 0.2320863950352E+01
 0.2311501820314E+01
 0.2291198561639E+01
 0.2256739515780E+01
 0.2202222395636E+01
 0.2115919152948E+01
 0.1979731175887E+01
 0.1757637520438E+01
 0.1395639838335E+01
 0.1484797497028E+01
 0.4824356904521E+01
 0.1723528885642E+01
 0.1872397961719E+01
 0.1889832497200E+01
 0.1840488025286E+01
 0.1795638228046E+01
 0.1763336451692E+01
 0.1740592368352E+01
 0.1725519978958E+01
 0.1716559233355E+01
 0.1712678608741E+01
 0.1713250609476E+01
 0.1717955603523E+01
 0.1726722101482E+01
 0.1739689748367E+01
 0.1757189086045E+01
 0.1779725709111E+01
 0.1807899102240E+01
 0.1841972548883E+01
 0.1881057964515E+01
 0.1923146104369E+01
 0.1966387447119E+01
 0.2009460764643E+01
 0.2050749599640E+01
 0.2088305655645E+01
 0.2120490762950E+01
 0.2146230285316E+01
 0.2164799961028E+01
 0.2175556338615E+01
 0.2177956098229E+01
 0.2171662314879E+01
 0.2155954676189E+01
 0.2128751898644E+01
 0.2086615252660E+01
 0.2024809777587E+01
 0.1936176826247E+01
 0.1810175377241E+01
 0.1633784697171E+01
 0.1394973369679E+01
 0.1189861720584E+01
 0.1834622180624E+01
 0.4462366477354E+01
 0.1642835187642E+01
 0.1786024158684E+01
 0.1840067345235E+01
 0.1822808772733E+01
 0.1790520287298E+01
 0.1762966932277E+01
 0.1742164902145E+01
 0.1727594613919E+01
 0.1718450626986E+01
 0.1714018504821E+01
 0.1713813274426E+01
 0.1717566273752E+01
 0.1725199692077E+01
 0.1736799288546E+01
 0.1752583249727E+01
 0.1772844863716E+01
 0.1797769375961E+01
 0.1826961417327E+01
 0.1858968401368E+01
 0.1891759014374E+01
 0.1924035495372E+01
 0.1955387870669E+01
 0.1985132694812E+01
 0.2011844917210E+01
 0.2033847665249E+01
 0.2049678142738E+01
 0.2058174734160E+01
 0.2058413342644E+01
 0.2049716615806E+01
 0.2031542098364E+01
 0.2002801479695E+01
 0.1960983174536E+01
 0.1902239239949E+01
 0.1821766732219E+01
 0.1713728215556E+01
 0.1572360337066E+01
 0.1396738779714E+01
 0.1217551634638E+01
 0.1241221489578E+01
 0.2148838942153E+01
 0.4163939121041E+01
 0.1583990453212E+01
 0.1716165148954E+01
 0.1788476131477E+01
 0.1796544863087E+01
 0.1778775850079E+01
 0.1757826964326E+01
 0.1740105352733E+01
 0.1726827677242E+01
 0.1717995534690E+01
 0.1713307847260E+01
 0.1712473457354E+01
 0.1715305070107E+01
 0.1721733630199E+01
 0.1731794184561E+01
 0.1745586057825E+01
 0.1763179608031E+01
 0.1784386642174E+01
 0.1808367681944E+01
 0.1833459068259E+01
 0.1857823510421E+01
 0.1880581824592E+01
 0.1901814752592E+01
 0.1921361601394E+01
 0.1938186147637E+01
 0.1950708973908E+01
 0.1957322376186E+01
 0.1956648937822E+01
 0.1947608278934E+01
 0.1929406821490E+01
 0.1901329708198E+01
 0.1862121345727E+01
 0.1809302609519E+01
 0.1739405257422E+01
 0.1648753085613E+01
 0.1534493776960E+01
 0.1397646535077E+01
 0.1253458354068E+01
 0.1171954873453E+01
 0.1399836033069E+01
 0.2361460673779E+01
 0.3926023733376E+01
 0.1538839068936E+01
 0.1659386681535E+01
 0.1739624613157E+01
 0.1765833967572E+01
 0.1761869059800E+01
 0.1748523495820E+01
 0.1734724761063E+01
 0.1723362521126E+01
 0.1715269302757E+01
 0.1710590866663E+01
 0.1709265785412E+01
 0.1711210346643E+01
 0.1716377333000E+01
 0.1724756929421E+01
 0.1736332253416E+01
 0.1750966348758E+01
 0.1768177407123E+01
 0.1786869157066E+01
 0.1805370011173E+01
 0.1822099499737E+01
 0.1836483625652E+01
 0.1848865709930E+01
 0.1859377672425E+01
 0.1867271045816E+01
 0.1871127181092E+01
 0.1869348291006E+01
 0.1860496376114E+01
 0.1843433697115E+01
 0.1817308676434E+01
 0.1781339961701E+01
 0.1734326186492E+01
 0.1674188844081E+01
 0.1598408220022E+01
 0.1505226656514E+01
 0.1395640393605E+01
 0.1278368557354E+01
 0.1184520626361E+01
 0.1209771207794E+01
 0.1574633695813E+01
 0.2494160301232E+01
 0.3736993502924E+01
 0.1502774359760E+01
 0.1612593524034E+01
 0.1695067549579E+01
 0.1733514502146E+01
 0.1741386942588E+01
 0.1735773338926E+01
 0.1726399474438E+01
 0.1717402777164E+01
 0.1710388698121E+01
 0.1705944410969E+01
 0.1704251904574E+01
 0.1705345147564E+01
 0.1709209233416E+01
 0.1715797781672E+01
 0.1724989567548E+01
 0.1736474438202E+01
 0.1749565821504E+01
 0.1763051887372E+01
 0.1775360731671E+01
 0.1785168278616E+01
 0.1792120814296E+01
 0.1796699661822E+01
 0.1799201748312E+01
 0.1799097314969E+01
 0.1795155620183E+01
 0.1785884496049E+01
 0.1769892947935E+01
 0.1746069948998E+01
 0.1713584912165E+01
 0.1671716747024E+01
 0.1619516935911E+01
 0.1555580253975E+01
 0.1478700941719E+01
 0.1389454519489E+01
 0.1292992850109E+01
 0.1205539657587E+01
 0.1170664479795E+01
 0.1290940058170E+01
 0.1730588665671E+01
 0.2573801138320E+01
 0.3585176104945E+01
 0.1473016021452E+01
 0.1573383290958E+01
 0.1655031052624E+01
 0.1701305151156E+01
 0.1718704086893E+01
 0.1720331803587E+01
 0.1715545167933E+01
 0.1709191676025E+01
 0.1703504056869E+01
 0.1699472603680E+01
 0.1697517047721E+01
 0.1697794232626E+01
 0.1700329328827E+01
 0.1705049648183E+01
 0.1711748639963E+01
 0.1719985982588E+01
 0.1728951776126E+01
 0.1737416754886E+01
 0.1743959811906E+01
 0.1747490001645E+01
 0.1747814408278E+01
 0.1745485655390E+01
 0.1740896963054E+01
 0.1733692797153E+01
 0.1722839966018E+01
 0.1707009648689E+01
 0.1684932550217E+01
 0.1655596353556E+01
 0.1618274190739E+01
 0.1572424786278E+01
 0.1517509539286E+01
 0.1452976461552E+01
 0.1379123162881E+01
 0.1298990434695E+01
 0.1221763791231E+01
 0.1170038068218E+01
 0.1194357294133E+01
 0.1388307160985E+01
 0.1859514080955E+01
 0.2619882250179E+01
 0.3461394360231E+01
 0.1447795238086E+01
 0.1539966693362E+01
 0.1619201596016E+01
 0.1670152834143E+01
 0.1694878439237E+01
 0.1702909484215E+01
 0.1702590413839E+01
 0.1698995255277E+01
 0.1694789929837E+01
 0.1691301458218E+01
 0.1689166167395E+01
 0.1688660737850E+01
 0.1689855359640E+01
 0.1692662484837E+01
 0.1696813310536E+01
 0.1701781673093E+01
 0.1706701724702E+01
 0.1710391012724E+01
 0.1711598647335E+01
 0.1709438390397E+01
 0.1703838395637E+01
 0.1695388906226E+01
 0.1684544647250E+01
 0.1671096968678E+01
 0.1654211690907E+01
 0.1632757242670E+01
 0.1605637901912E+01
 0.1571999984190E+01
 0.1531295404641E+01
 0.1483261286304E+01
 0.1427879273311E+01
 0.1365547889603E+01
 0.1298121521219E+01
 0.1231034362390E+01
 0.1177037455691E+01
 0.1163217401724E+01
 0.1241063062544E+01
 0.1486652851170E+01
 0.1962893114183E+01
 0.2645040397794E+01
 0.3358952079600E+01
 0.1425937111487E+01
 0.1511022979064E+01
 0.1587084725621E+01
 0.1640519314339E+01
 0.1670666434985E+01
 0.1684122105423E+01
 0.1687950203504E+01
 0.1687088240007E+01
 0.1684436147940E+01
 0.1681573352728E+01
 0.1679319942085E+01
 0.1678062635300E+01
 0.1677918829312E+01
 0.1678797761258E+01
 0.1680392511919E+01
 0.1682131903762E+01
 0.1683146333017E+01
 0.1682339944539E+01
 0.1678634682857E+01
 0.1671322616929E+01
 0.1660427616103E+01
 0.1646562789992E+01
 0.1630228978532E+01
 0.1611348376665E+01
 0.1589283613827E+01
 0.1563119377799E+01
 0.1531969036029E+01
 0.1495184968202E+01
 0.1452459027582E+01
 0.1403879328700E+01
 0.1350013887580E+01
 0.1292241930484E+01
 0.1233928779241E+01
 0.1182677032697E+01
 0.1154048143015E+01
 0.1177309151788E+01
 0.1299974365311E+01
 0.1578700384964E+01
 0.2044893485445E+01
 0.2657210370739E+01
 0.3273059344213E+01
 0.1406632767747E+01
 0.1485574008331E+01
 0.1558162333743E+01
 0.1612577954869E+01
 0.1646579726854E+01
 0.1664473258714E+01
 0.1672005995537E+01
 0.1673741969550E+01
 0.1672639940550E+01
 0.1670441699717E+01
 0.1668110802803E+01
 0.1666129167449E+01
 0.1664661077901E+01
 0.1663623435197E+01
 0.1662694086104E+01
 0.1661291742653E+01
 0.1658581490358E+01
 0.1653577062375E+01
 0.1645367639915E+01
 0.1633401596082E+01
 0.1617783178130E+01
 0.1599144303513E+01
 0.1578027363483E+01
 0.1554476452859E+01
 0.1528047202990E+01
 0.1498050081039E+01
 0.1463830810948E+01
 0.1424982837292E+01
 0.1381482856897E+01
 0.1333816776562E+01
 0.1283167540081E+01
 0.1231874228532E+01
 0.1184694230494E+01
 0.1151050471909E+01
 0.1148348660687E+01
 0.1205742590531E+01
 0.1363800853837E+01
 0.1661637575694E+01
 0.2109863432233E+01
 0.2661360559338E+01
 0.3200271861889E+01
 0.1389308353109E+01
 0.1462889299992E+01
 0.1531956555872E+01
 0.1586339115282E+01
 0.1622946803499E+01
 0.1644358010822E+01
 0.1655094463121E+01
 0.1659214957708E+01
 0.1659599255761E+01
 0.1658066090651E+01
 0.1655679137220E+01
 0.1652997408749E+01
 0.1650229613479E+01
 0.1647309689687E+01
 0.1643920387465E+01
 0.1639498488125E+01
 0.1633270813730E+01
 0.1624372553102E+01
 0.1612051069693E+01
 0.1595893692094E+01
 0.1576076426255E+01
 0.1553251726595E+01
 0.1528004699065E+01
 0.1500496585690E+01
 0.1470471437950E+01
 0.1437468725827E+01
 0.1401080262870E+01
 0.1361163864526E+01
 0.1318010003491E+01
 0.1272526412524E+01
 0.1226509739593E+01
 0.1183199888632E+01
 0.1148570370154E+01
 0.1133418249116E+01
 0.1155936183778E+01
 0.1243295819664E+01
 0.1428004919584E+01
 0.1734929433150E+01
 0.2161562667123E+01
 0.2660630940092E+01
 0.3138070188926E+01
 0.1373546333303E+01
 0.1442417693894E+01
 0.1508051012214E+01
 0.1561726904034E+01
 0.1599965856762E+01
 0.1624076628997E+01
 0.1637503712922E+01
 0.1643746471743E+01
 0.1645507379556E+01
 0.1644608053371E+01
 0.1642169792574E+01
 0.1638809061238E+01
 0.1634774823394E+01
 0.1630025480883E+01
 0.1624265321184E+01
 0.1616970824488E+01
 0.1607448622887E+01
 0.1594960069778E+01
 0.1578900701190E+01
 0.1558983518447E+01
 0.1535451980887E+01
 0.1508983642134E+01
 0.1480210173131E+01
 0.1449407455182E+01
 0.1416502850980E+01
 0.1381263652143E+01
 0.1343533916251E+01
 0.1303448744422E+01
 0.1261627146206E+01
 0.1219404073837E+01
 0.1179165826726E+01
 0.1144964539304E+01
 0.1123767342385E+01
 0.1127235460009E+01
 0.1173343417672E+01
 0.1286045277604E+01
 0.1489968589950E+01
 0.1799104578650E+01
 0.2203027011691E+01
 0.2657035727246E+01
 0.3084568478382E+01
 0.1359036371709E+01
 0.1423738859190E+01
 0.1486093227271E+01
 0.1538624802773E+01
 0.1577745774076E+01
 0.1603851538352E+01
 0.1619474638779E+01
 0.1627552961623E+01
 0.1630548900810E+01
 0.1630227494819E+01
 0.1627728969412E+01
 0.1623707573836E+01
 0.1618447139284E+01
 0.1611935855250E+01
 0.1603912473145E+01
 0.1593908928480E+01
 0.1581322907300E+01
 0.1565542149215E+01
 0.1546100606836E+01
 0.1522826895471E+01
 0.1496030226626E+01
 0.1466418870454E+01
 0.1434675801451E+01
 0.1401190002537E+01
 0.1366066523154E+01
 0.1329296065618E+01
 0.1290975061198E+01
 0.1251520070819E+01
 0.1211881701509E+01
 0.1173812938968E+01
 0.1140248056938E+01
 0.1115938733090E+01
 0.1108587650413E+01
 0.1130193184570E+01
 0.1197679849390E+01
 0.1331178894134E+01
 0.1548318825905E+01
 0.1855120024317E+01
 0.2236641756278E+01
 0.2651892606147E+01
 0.3038318754060E+01
 0.1345543626076E+01
 0.1406528902618E+01
 0.1465789395564E+01
 0.1516902014036E+01
 0.1556336220886E+01
 0.1583843837964E+01
 0.1601205226356E+01
 0.1610826807123E+01
 0.1614896966462E+01
 0.1615079859718E+01
 0.1612501568309E+01
 0.1607835650939E+01
 0.1601394689197E+01
 0.1593199955920E+01
 0.1583034051293E+01
 0.1570495129745E+01
 0.1555078101389E+01
 0.1536294575321E+01
 0.1513807911401E+01
 0.1487554671186E+01
 0.1457909531673E+01
 0.1425617097836E+01
 0.1391416234591E+01
 0.1355807654490E+01
 0.1319067907379E+01
 0.1281404266647E+01
 0.1243160968560E+01
 0.1205033227916E+01
 0.1168297136330E+01
 0.1135103302808E+01
 0.1108878183386E+01
 0.1094940598210E+01
 0.1101450199723E+01
 0.1140249145034E+01
 0.1226619171725E+01
 0.1376760894625E+01
 0.1602448871456E+01
 0.1904040184317E+01
 0.2264263582319E+01
 0.2646090212795E+01
 0.2998180934044E+01
 0.1332887670438E+01
 0.1390535825262E+01
 0.1446896633515E+01
 0.1496428099535E+01
 0.1535748949215E+01
 0.1564167733136E+01
 0.1582856171519E+01
 0.1593736719622E+01
 0.1598711655651E+01
 0.1599313974725E+01
 0.1596629000170E+01
 0.1591333163103E+01
 0.1583761409317E+01
 0.1573969591995E+01
 0.1561790385262E+01
 0.1546894841605E+01
 0.1528877565672E+01
 0.1507369898165E+01
 0.1482156459343E+01
 0.1453275760055E+01
 0.1421168262843E+01
 0.1386619925171E+01
 0.1350429366980E+01
 0.1313207347170E+01
 0.1275395146400E+01
 0.1237407953363E+01
 0.1199829704637E+01
 0.1163626153369E+01
 0.1130385798634E+01
 0.1102627710089E+01
 0.1084203085939E+01
 0.1080850950395E+01
 0.1100907743229E+01
 0.1155641768045E+01
 0.1258345530730E+01
 0.1421508548954E+01
 0.1652201908223E+01
 0.1946879234824E+01
 0.2287331355983E+01
 0.2640262649545E+01
 0.2963238832267E+01
 0.1320928106052E+01
 0.1375561842661E+01
 0.1429215000655E+01
 0.1477080623233E+01
 0.1515972509758E+01
 0.1544902395833E+01
 0.1564556761143E+01
 0.1576429196795E+01
 0.1582139256932E+01
 0.1583070520067E+01
 0.1580247453294E+01
 0.1574335458122E+01
 0.1565685579957E+01
 0.1554388265915E+01
 0.1540329813335E+01
 0.1523257611496E+01
 0.1502865775548E+01
 0.1478900316020E+01
 0.1451259762596E+01
 0.1420079670861E+01
 0.1385866684205E+01
 0.1349452214077E+01
 0.1311697500353E+01
 0.1273321104127E+01
 0.1234921716098E+01
 0.1197112479252E+01
 0.1160706395553E+01
 0.1126927773746E+01
 0.1097659210841E+01
 0.1075752061016E+01
 0.1065405421030E+01
 0.1072623876217E+01
 0.1105658556637E+01
 0.1174887000088E+01
 0.1291477973412E+01
 0.1464607085692E+01
 0.1697672508163E+01
 0.1984528290372E+01
 0.2306939576746E+01
 0.2634908267337E+01
 0.2932752256611E+01
 0.1309554503730E+01
 0.1361450508157E+01
 0.1412580215179E+01
 0.1458748686003E+01
 0.1496982189783E+01
 0.1526101332316E+01
 0.1546410413995E+01
 0.1559030550463E+01
 0.1565312221985E+01
 0.1566481044585E+01
 0.1563486587225E+01
 0.1556972049649E+01
 0.1547298736964E+01
 0.1534590563659E+01
 0.1518788831064E+01
 0.1499718201876E+01
 0.1477170243208E+01
 0.1451000074726E+01
 0.1421213440395E+01
 0.1388038687406E+01
 0.1352048776867E+01
 0.1314123625967E+01
 0.1275188865807E+01
 0.1236067960423E+01
 0.1197509222853E+01
 0.1160312924907E+01
 0.1125508806436E+01
 0.1094565028938E+01
 0.1069636006192E+01
 0.1053863511697E+01
 0.1051710941663E+01
 0.1069294260546E+01
 0.1114551903546E+01
 0.1196760670737E+01
 0.1324989949976E+01
 0.1505567287329E+01
 0.1739086707300E+01
 0.2017738924280E+01
 0.2323860549828E+01
 0.2630453997752E+01
 0.2906139704911E+01
 0.1298679223184E+01
 0.1348077226487E+01
 0.1396857353743E+01
 0.1441334106497E+01
 0.1478746577831E+01
 0.1507799577637E+01
 0.1528499587933E+01
 0.1541649162799E+01
 0.1548349590171E+01
 0.1549667429158E+01
 0.1546468608861E+01
 0.1539365648271E+01
 0.1528724906351E+01
 0.1514701828277E+01
 0.1497292413622E+01
 0.1476397653669E+01
 0.1451903209095E+01
 0.1423767501649E+01
 0.1392097295208E+01
 0.1357209806317E+01
 0.1319743996572E+01
 0.1280630274913E+01
 0.1240859360132E+01
 0.1201356072814E+01
 0.1163010214811E+01
 0.1126797872294E+01
 0.1093952164020E+01
 0.1066168530938E+01
 0.1045847852325E+01
 0.1036376002831E+01
 0.1042393621063E+01
 0.1069982693985E+01
 0.1126587146949E+01
 0.1220271335938E+01
 0.1358134226176E+01
 0.1544121942363E+01
 0.1776727440791E+01
 0.2047150388911E+01
 0.2338567602821E+01
 0.2627176473922E+01
 0.2883022082809E+01
 0.1288231535774E+01
 0.1335344966276E+01
 0.1381941837802E+01
 0.1424762064432E+01
 0.1461247473360E+01
 0.1490039691859E+01
 0.1510915187297E+01
 0.1524407398323E+01
 0.1531391778109E+01
 0.1532780482990E+01
 0.1529351806638E+01
 0.1521681898605E+01
 0.1510137945943E+01
 0.1494904599643E+01
 0.1476031008771E+01
 0.1453492054874E+01
 0.1427262999161E+01
 0.1397399284245E+01
 0.1364102396956E+01
 0.1327774106403E+01
 0.1289118035298E+01
 0.1249115554900E+01
 0.1208821544944E+01
 0.1169257205095E+01
 0.1131444358036E+01
 0.1096522002472E+01
 0.1065911069150E+01
 0.1041514541272E+01
 0.1025950048399E+01
 0.1022796359662E+01
 0.1036783688095E+01
 0.1073832244181E+01
 0.1140764553309E+01
 0.1244411616253E+01
 0.1390103642729E+01
 0.1579851231630E+01
 0.1810612090784E+01
 0.2073070501204E+01
 0.2351368938902E+01
 0.2624455277880E+01
 0.2866334026400E+01
 0.1278157647636E+01
 0.1323174592608E+01
 0.1367744189900E+01
 0.1408959872932E+01
 0.1444451866167E+01
 0.1472834951656E+01
 0.1493709730276E+01
 0.1507384535636E+01
 0.1514533426939E+01
 0.1515922462564E+01
 0.1512241752176E+01
 0.1504027529752E+01
 0.1491644334684E+01
 0.1475303375554E+01
 0.1455104478226E+01
 0.1431092995584E+01
 0.1403328740346E+01
 0.1371957923838E+01
 0.1337270755536E+01
 0.1299749265429E+01
 0.1260159864721E+01
 0.1219534440796E+01
 0.1178990297494E+01
 0.1139639687235E+01
 0.1102627094415E+01
 0.1069241815890E+01
 0.1041077114891E+01
 0.1020223295043E+01
 0.1009483855722E+01
 0.1012578730288E+01
 0.1034245649241E+01
 0.1080138309837E+01
 0.1156380158951E+01
 0.1268606926421E+01
 0.1420602323077E+01
 0.1612826981100E+01
 0.1841141303770E+01
 0.2096023970163E+01
 0.2362677571486E+01
 0.2622080561196E+01
 0.2854254546694E+01
 0.1268410071881E+01
 0.1311496654364E+01
 0.1354180746897E+01
 0.1393850834419E+01
 0.1428309110914E+01
 0.1456168673876E+01
 0.1476897241713E+01
 0.1490616366237E+01
 0.1497822588369E+01
 0.1499146144852E+01
 0.1495190698276E+01
 0.1486450536477E+01
 0.1473284595201E+01
 0.1455927728803E+01
 0.1434527324242E+01
 0.1409195226779E+01
 0.1380070637079E+01
 0.1347384681391E+01
 0.1311510903342E+01
 0.1273007682754E+01
 0.1232702295206E+01
 0.1191676393178E+01
 0.1151107855878E+01
 0.1112195171599E+01
 0.1076197345471E+01
 0.1044543065545E+01
 0.1018984282077E+01
 0.1001779999213E+01
 0.9958901095070E+00
 0.1005126813044E+01
 0.1034162619247E+01
 0.1088303370633E+01
 0.1172933249581E+01
 0.1292560805294E+01
 0.1449632158037E+01
 0.1643371258064E+01
 0.1868860913401E+01
 0.2116599385342E+01
 0.2372771915953E+01
 0.2620514671351E+01
 0.2842843025628E+01
 0.1258951562165E+01
 0.1300258489962E+01
 0.1341189915621E+01
 0.1379381354225E+01
 0.1412789846455E+01
 0.1440043482586E+01
 0.1460510921990E+01
 0.1474159939401E+01
 0.1481332335093E+01
 0.1482534145109E+01
 0.1478286283975E+01
 0.1469040584245E+01
 0.1455148163729E+01
 0.1436864662337E+01
 0.1414381567383E+01
 0.1387872844693E+01
 0.1357551739361E+01
 0.1323728506308E+01
 0.1286854734897E+01
 0.1247561099367E+01
 0.1206733339787E+01
 0.1165501467482E+01
 0.1125101531541E+01
 0.1086813226490E+01
 0.1052002091737E+01
 0.1022225617727E+01
 0.9993809509863E+00
 0.9858769114715E+00
 0.9848000183677E+00
 0.1000007847035E+01
 0.1036044693959E+01
 0.1097810561775E+01
 0.1189943582906E+01
 0.1315916707872E+01
 0.1477036947088E+01
 0.1671552446843E+01
 0.1894016840246E+01
 0.2135082550762E+01
 0.2381918792656E+01
 0.2619494905354E+01
 0.2832931647981E+01
 0.1249751735772E+01
 0.1289417087052E+01
 0.1328720900471E+01
 0.1365505962122E+01
 0.1397867543305E+01
 0.1424459340222E+01
 0.1444577415704E+01
 0.1458063878707E+01
 0.1465126938267E+01
 0.1466160611505E+01
 0.1461608112777E+01
 0.1451879506925E+01
 0.1437316543723E+01
 0.1418192928728E+01
 0.1394740617285E+01
 0.1367191107776E+01
 0.1335826274899E+01
 0.1301029797038E+01
 0.1263326081182E+01
 0.1223413883868E+01
 0.1182234597089E+01
 0.1140964644913E+01
 0.1100895405818E+01
 0.1063382630419E+01
 0.1029890620645E+01
 0.1002095446967E+01
 0.9820261984405E+00
 0.9722226218934E+00
 0.9758685741344E+00
 0.9968237044529E+00
 0.1039452477577E+01
 0.1108212999133E+01
 0.1207016116582E+01
 0.1338402382744E+01
 0.1502720438303E+01
 0.1697457967631E+01
 0.1916825471743E+01
 0.2151725382668E+01
 0.2390261461776E+01
 0.2618946590235E+01
 0.2824563818400E+01
 0.1240785677209E+01
 0.1278937234171E+01
 0.1316731710931E+01
 0.1352186176135E+01
 0.1383518564792E+01
 0.1409414535841E+01
 0.1429118149688E+01
 0.1442369590897E+01
 0.1449262730806E+01
 0.1450091744890E+01
 0.1445228043850E+01
 0.1435041513885E+01
 0.1419863558046E+01
 0.1399983419954E+01
 0.1375669845260E+01
 0.1347207190234E+01
 0.1314940549864E+01
 0.1279321410355E+01
 0.1240941806333E+01
 0.1200564216785E+01
 0.1159182529042E+01
 0.1118017202630E+01
 0.1078411778471E+01
 0.1041792867638E+01
 0.1009716012173E+01
 0.9839660224958E+00
 0.9666909782330E+00
 0.9605429453845E+00
 0.9687750936649E+00
 0.9952107515581E+00
 0.1043994995197E+01
 0.1119127301377E+01
 0.1223828193225E+01
 0.1359812008896E+01
 0.1526629314324E+01
 0.1721182241182E+01
 0.1937478442305E+01
 0.2166728081056E+01
 0.2397898112654E+01
 0.2618808024272E+01
 0.2817618576323E+01
 0.1232032852783E+01
 0.1268790003569E+01
 0.1305187555718E+01
 0.1339389454540E+01
 0.1369722042802E+01
 0.1394906340349E+01
 0.1414150358393E+01
 0.1427112275221E+01
 0.1433788893072E+01
 0.1434386328369E+01
 0.1429210538111E+01
 0.1418593462756E+01
 0.1402855653013E+01
 0.1382299578843E+01
 0.1357227140623E+01
 0.1327970883408E+01
 0.1294933772101E+01
 0.1258629580918E+01
 0.1219712811383E+01
 0.1179005179260E+01
 0.1137549635872E+01
 0.1096607965686E+01
 0.1057572471099E+01
 0.1021935438794E+01
 0.9913363908265E+00
 0.9676594167047E+00
 0.9531590023914E+00
 0.9505815177310E+00
 0.9632234310180E+00
 0.9948392182419E+00
 0.1049326935713E+01
 0.1130226819191E+01
 0.1240117877989E+01
 0.1379991703905E+01
 0.1548740041201E+01
 0.1742820334845E+01
 0.1956141103568E+01
 0.2180249012161E+01
 0.2404895539933E+01
 0.2619014233531E+01
 0.2811936624431E+01
 0.1223476246061E+01
 0.1258951525293E+01
 0.1294059520253E+01
 0.1327088259066E+01
 0.1356459642340E+01
 0.1380931421453E+01
 0.1399687861400E+01
 0.1412321758537E+01
 0.1418748157077E+01
 0.1419096248492E+01
 0.1413613037275E+01
 0.1402595177465E+01
 0.1386352238152E+01
 0.1365197822448E+01
 0.1339463448889E+01
 0.1309525250940E+01
 0.1275838808161E+01
 0.1238974764004E+01
 0.1199644955770E+01
 0.1158725753421E+01
 0.1117305532028E+01
 0.1076684442482E+01
 0.1038299988945E+01
 0.1003704997888E+01
 0.9746159701499E+00
 0.9530071817738E+00
 0.9412273852551E+00
 0.9421001537353E+00
 0.9589418985074E+00
 0.9954121360404E+00
 0.1055145424784E+01
 0.1141234914210E+01
 0.1255673674392E+01
 0.1398827774171E+01
 0.1569049318724E+01
 0.1762463398965E+01
 0.1972954146803E+01
 0.2192413033102E+01
 0.2411297396819E+01
 0.2619497597219E+01
 0.2807351039449E+01
 0.1215101661202E+01
 0.1249401995009E+01
 0.1283323473550E+01
 0.1315259229905E+01
 0.1343715271648E+01
 0.1367486091511E+01
 0.1385741652176E+01
 0.1398023187422E+01
 0.1404177437221E+01
 0.1404267003231E+01
 0.1398486366938E+01
 0.1387099803966E+01
 0.1370406058664E+01
 0.1348727980946E+01
 0.1322423303290E+01
 0.1291907256785E+01
 0.1257682898824E+01
 0.1220372428741E+01
 0.1180739924274E+01
 0.1139711761543E+01
 0.1098417949952E+01
 0.1058193871961E+01
 0.1020518573579E+01
 0.9870003566147E+00
 0.9594259437811E+00
 0.9398510623290E+00
 0.9307071244245E+00
 0.9348790320083E+00
 0.9556829496484E+00
 0.9966639358877E+00
 0.1061186530149E+01
 0.1151918551429E+01
 0.1270325615059E+01
 0.1416237340754E+01
 0.1587567013394E+01
 0.1780195987990E+01
 0.1988036176337E+01
 0.2203318184671E+01
 0.2417130208659E+01
 0.2620188528675E+01
 0.2803698086749E+01
 0.1206897155928E+01
 0.1240124865838E+01
 0.1272959160795E+01
 0.1303882463186E+01
 0.1331474768722E+01
 0.1354566435545E+01
 0.1372320336613E+01
 0.1384237595012E+01
 0.1390108385138E+01
 0.1389938181024E+01
 0.1383875141622E+01
 0.1372154179950E+01
 0.1355063577983E+01
 0.1332933732272E+01
 0.1306145333180E+01
 0.1275148352229E+01
 0.1240488319969E+01
 0.1202833787188E+01
 0.1162996021636E+01
 0.1121946722991E+01
 0.1080853648372E+01
 0.1041084158881E+01
 0.1004155125556E+01
 0.9717253419594E+00
 0.9456452193808E+00
 0.9280435512002E+00
 0.9214234306664E+00
 0.9287167166328E+00
 0.9532226449568E+00
 0.9983587866198E+00
 0.1067221678530E+01
 0.1162082382017E+01
 0.1283937695581E+01
 0.1432160934282E+01
 0.1604311036486E+01
 0.1796094726928E+01
 0.2001486464693E+01
 0.2213041059549E+01
 0.2422407479596E+01
 0.2621016588491E+01
 0.2800821649282E+01
 0.1198852576668E+01
 0.1231106186457E+01
 0.1262949448330E+01
 0.1292940882522E+01
 0.1319725586419E+01
 0.1342168357698E+01
 0.1359430456786E+01
 0.1370982364175E+01
 0.1376567875196E+01
 0.1376143906758E+01
 0.1369818162345E+01
 0.1357799208105E+01
 0.1340365361939E+01
 0.1317853027550E+01
 0.1290662748576E+01
 0.1259275024852E+01
 0.1224272994065E+01
 0.1186366465267E+01
 0.1146408900715E+01
 0.1105412634641E+01
 0.1064579231526E+01
 0.1025304705877E+01
 0.9891400102257E+00
 0.9577895270659E+00
 0.9331610235221E+00
 0.9174483223824E+00
 0.9132159410399E+00
 0.9234300474944E+00
 0.9513599464664E+00
 0.1000288771032E+01
 0.1073054132484E+01
 0.1171563411972E+01
 0.1296401534961E+01
 0.1446556690405E+01
 0.1619303692441E+01
 0.1810227828041E+01
 0.2013387579861E+01
 0.2221641011251E+01
 0.2427132779154E+01
 0.2621911748072E+01
 0.2798575315714E+01
 0.1190959175013E+01
 0.1222334055964E+01
 0.1253279693484E+01
 0.1282419694272E+01
 0.1308456488331E+01
 0.1330287571941E+01
 0.1347076725356E+01
 0.1358271602651E+01
 0.1363578424259E+01
 0.1362913248767E+01
 0.1356348795370E+01
 0.1344070219734E+01
 0.1326346451973E+01
 0.1303518496913E+01
 0.1276003792993E+01
 0.1244309303716E+01
 0.1209051047575E+01
 0.1170975110780E+01
 0.1130972218824E+01
 0.1090090669178E+01
 0.1049561874493E+01
 0.1010807139697E+01
 0.9754077480904E+00
 0.9451088424635E+00
 0.9218693907236E+00
 0.9079405583888E+00
 0.9059388330624E+00
 0.9188539204117E+00
 0.9499158840266E+00
 0.1002271988179E+01
 0.1078515640803E+01
 0.1180226298645E+01
 0.1307631130368E+01
 0.1459395843264E+01
 0.1632569123481E+01
 0.1822655133169E+01
 0.2023807753980E+01
 0.2229163499910E+01
 0.2431302234668E+01
 0.2622805662636E+01
 0.2796823420687E+01
 0.1183209289688E+01
 0.1213798173205E+01
 0.1243937218034E+01
 0.1272305917972E+01
 0.1297657264466E+01
 0.1318919558221E+01
 0.1335262193801E+01
 0.1346116447580E+01
 0.1351158554654E+01
 0.1350270588676E+01
 0.1343495329811E+01
 0.1330997325275E+01
 0.1313036725085E+01
 0.1289957835877E+01
 0.1262192167716E+01
 0.1230269226542E+01
 0.1194833321864E+01
 0.1156661947180E+01
 0.1116678231704E+01
 0.1075961801772E+01
 0.1035769966861E+01
 0.9975459465428E+00
 0.9628976082651E+00
 0.9336060902534E+00
 0.9116755623986E+00
 0.8994071983547E+00
 0.8994608647748E+00
 0.9148409852139E+00
 0.9487326404551E+00
 0.1004150657714E+01
 0.1083463333867E+01
 0.1187959262456E+01
 0.1317558549778E+01
 0.1470659239466E+01
 0.1644131539686E+01
 0.1833428443992E+01
 0.2032802951886E+01
 0.2235642796532E+01
 0.2434906621919E+01
 0.2623632846170E+01
 0.2795441650162E+01
 0.1175596082081E+01
 0.1205489463228E+01
 0.1234910868023E+01
 0.1262587983389E+01
 0.1287318471225E+01
 0.1308059498303E+01
 0.1323988371199E+01
 0.1334525312230E+01
 0.1339323106569E+01
 0.1338235954186E+01
 0.1331281310233E+01
 0.1318605746266E+01
 0.1300461235379E+01
 0.1277194168579E+01
 0.1249247425624E+01
 0.1217169268567E+01
 0.1181627838360E+01
 0.1143427274400E+01
 0.1103518326899E+01
 0.1063007367787E+01
 0.1023173679030E+01
 0.9854790232876E+00
 0.9515541149554E+00
 0.9232113744385E+00
 0.9024943112680E+00
 0.8917471232000E+00
 0.8936653580813E+00
 0.9112612870396E+00
 0.9476726011044E+00
 0.1005789292049E+01
 0.1087776913502E+01
 0.1194670586367E+01
 0.1326130426412E+01
 0.1480334658105E+01
 0.1654014014843E+01
 0.1842592000868E+01
 0.2040418656954E+01
 0.2241104206710E+01
 0.2437933142949E+01
 0.2624331721665E+01
 0.2794317437588E+01
 0.1168113315875E+01
 0.1197399767009E+01
 0.1226190645484E+01
 0.1253255385670E+01
 0.1277431196723E+01
 0.1297702200140E+01
 0.1313255304809E+01
 0.1323504083614E+01
 0.1328083503413E+01
 0.1326825313183E+01
 0.1319725838906E+01
 0.1306916121544E+01
 0.1288640529639E+01
 0.1265246380977E+01
 0.1237185328703E+01
 0.1205020728118E+01
 0.1169440213472E+01
 0.1131269912491E+01
 0.1091483492668E+01
 0.1051209548478E+01
 0.1011745449609E+01
 0.9745681451750E+00
 0.9413274701463E+00
 0.9138624530474E+00
 0.8942501985711E+00
 0.8848712862320E+00
 0.8884501368196E+00
 0.9080018726357E+00
 0.9466174081626E+00
 0.1007072988120E+01
 0.1091356165713E+01
 0.1200285664273E+01
 0.1333305135406E+01
 0.1488414768552E+01
 0.1662237690910E+01
 0.1850183027781E+01
 0.2046691406371E+01
 0.2245565919372E+01
 0.2440366941534E+01
 0.2624845538583E+01
 0.2793350258236E+01
 0.1160755173442E+01
 0.1189521583971E+01
 0.1217767401127E+01
 0.1244298392127E+01
 0.1267986852632E+01
 0.1287842018626E+01
 0.1303061633281E+01
 0.1313056280805E+01
 0.1317447976654E+01
 0.1316050832043E+01
 0.1308843847953E+01
 0.1295944786734E+01
 0.1277590936130E+01
 0.1254129424163E+01
 0.1226018170676E+01
 0.1193832071554E+01
 0.1158274026987E+01
 0.1120187592703E+01
 0.1080564728063E+01
 0.1040551791667E+01
 0.1001460402644E+01
 0.9647793607979E+00
 0.9321739052469E+00
 0.9055050261373E+00
 0.8868777785152E+00
 0.8787028036955E+00
 0.8837274365881E+00
 0.9049663871604E+00
 0.9454670572190E+00
 0.1007905876646E+01
 0.1094118803804E+01
 0.1204744545765E+01
 0.1339050538440E+01
 0.1494895581408E+01
 0.1668821264773E+01
 0.1856232281307E+01
 0.2051650095985E+01
 0.2249040543502E+01
 0.2442192384803E+01
 0.2625123165884E+01
 0.2792451870727E+01
 0.1153516103435E+01
 0.1181847858792E+01
 0.1209632578614E+01
 0.1235707794125E+01
 0.1258976991360E+01
 0.1278472776527E+01
 0.1293404618534E+01
 0.1303183179182E+01
 0.1307421752568E+01
 0.1305921097316E+01
 0.1298646337909E+01
 0.1285704021940E+01
 0.1267324820972E+01
 0.1243854582297E+01
 0.1215755059777E+01
 0.1183609233152E+01
 0.1148131139950E+01
 0.1110177292484E+01
 0.1070753391337E+01
 0.1031019165661E+01
 0.9922966945109E+00
 0.9560833159910E+00
 0.9240559650640E+00
 0.8980929643350E+00
 0.8803217554648E+00
 0.8731770123096E+00
 0.8794237982338E+00
 0.9020746834804E+00
 0.9441390688662E+00
 0.1008209759469E+01
 0.1095998645170E+01
 0.1207999934079E+01
 0.1343342210759E+01
 0.1499775291702E+01
 0.1673780677636E+01
 0.1860764574974E+01
 0.2055317081993E+01
 0.2251536382392E+01
 0.2443394139655E+01
 0.2625119767611E+01
 0.2791546556736E+01
 0.1146390694835E+01
 0.1174371805845E+01
 0.1201778003072E+01
 0.1227474698856E+01
 0.1250393147607E+01
 0.1269587688834E+01
 0.1284280161906E+01
 0.1293883906176E+01
 0.1298007204791E+01
 0.1296441302430E+01
 0.1289140582465E+01
 0.1276202266362E+01
 0.1257850810547E+01
 0.1234429703937E+01
 0.1206402161031E+01
 0.1174355869958E+01
 0.1139011962695E+01
 0.1101235515727E+01
 0.1062041488914E+01
 0.1022598649781E+01
 0.9842357951540E+00
 0.9484555126318E+00
 0.9169427310299E+00
 0.8915884851025E+00
 0.8745371008777E+00
 0.8682415014790E+00
 0.8754799564015E+00
 0.8992624626356E+00
 0.9425677593955E+00
 0.1007922951370E+01
 0.1096944110872E+01
 0.1210015587674E+01
 0.1346162069856E+01
 0.1503053425723E+01
 0.1677128938501E+01
 0.1863799250611E+01
 0.2057709090912E+01
 0.2253058472975E+01
 0.2443958058622E+01
 0.2624797374613E+01
 0.2790571331920E+01
 0.1139373574185E+01
 0.1167086766372E+01
 0.1194195708490E+01
 0.1219590357294E+01
 0.1242226703924E+01
 0.1261179293635E+01
 0.1275682809814E+01
 0.1285155514150E+01
 0.1289203977314E+01
 0.1287613402535E+01
 0.1280330301168E+01
 0.1267444300814E+01
 0.1249173980752E+01
 0.1225859397935E+01
 0.1197962899826E+01
 0.1166073574064E+01
 0.1130915676220E+01
 0.1093358522307E+01
 0.1054421909905E+01
 0.1015279367697E+01
 0.9772627112217E+00
 0.9418765111092E+00
 0.9108099932008E+00
 0.8859622863669E+00
 0.8694891394827E+00
 0.8638561305837E+00
 0.8718507372161E+00
 0.8964809655315E+00
 0.9407036334467E+00
 0.1006999340232E+01
 0.1096917038141E+01
 0.1210765085668E+01
 0.1347497344344E+01
 0.1504730227027E+01
 0.1678876034791E+01
 0.1865350580156E+01
 0.2058837949523E+01
 0.2253609412581E+01
 0.2443871892819E+01
 0.2624125357073E+01
 0.2789476152258E+01
 0.1132459323165E+01
 0.1159986094159E+01
 0.1186877799023E+01
 0.1212046024174E+01
 0.1234468778249E+01
 0.1253239389824E+01
 0.1267605750721E+01
 0.1276993032291E+01
 0.1281009078804E+01
 0.1279436236868E+01
 0.1272215798018E+01
 0.1259431395016E+01
 0.1241296009405E+01
 0.1218145189945E+01
 0.1190438122799E+01
 0.1158762038474E+01
 0.1123840403245E+01
 0.1086542503525E+01
 0.1047888603369E+01
 0.1009052761531E+01
 0.9713661499497E+00
 0.9363320761446E+00
 0.9056403712109E+00
 0.8811936377880E+00
 0.8651536051467E+00
 0.8599930333239E+00
 0.8685049712565E+00
 0.8936967279296E+00
 0.9385129133107E+00
 0.1005407673239E+01
 0.1095891795973E+01
 0.1210230926633E+01
 0.1347339839124E+01
 0.1504806238288E+01
 0.1679028901232E+01
 0.1865428090955E+01
 0.2058711146351E+01
 0.2253189991057E+01
 0.2443125843910E+01
 0.2623080805025E+01
 0.2788224107863E+01
 0.1125642414432E+01
 0.1153063066674E+01
 0.1179816340735E+01
 0.1204832847268E+01
 0.1227110132469E+01
 0.1245758982685E+01
 0.1260040805845E+01
 0.1269389500412E+01
 0.1273416950750E+01
 0.1271905620300E+01
 0.1264794066750E+01
 0.1252161419866E+01
 0.1234215291689E+01
 0.1211285639460E+01
 0.1183826216164E+01
 0.1152419176939E+01
 0.1117783329719E+01
 0.1080783704760E+01
 0.1042436700240E+01
 0.1003912709461E+01
 0.9665386273732E+00
 0.9318132702035E+00
 0.9014233886613E+00
 0.8772704339195E+00
 0.8615166704414E+00
 0.8566366139220E+00
 0.8654254293652E+00
 0.8908914099063E+00
 0.9359772164980E+00
 0.1003131073593E+01
 0.1093854693870E+01
 0.1208403935154E+01
 0.1345685461811E+01
 0.1503282044809E+01
 0.1677591423504E+01
 0.1864036806671E+01
 0.2057332230026E+01
 0.2251799638751E+01
 0.2441712963632E+01
 0.2621648820417E+01
 0.2786791600578E+01
 0.1118917164180E+01
 0.1146310819365E+01
 0.1173003281086E+01
 0.1197941783687E+01
 0.1220141100892E+01
 0.1238728237684E+01
 0.1252978415002E+01
 0.1262335986443E+01
 0.1266419510957E+01
 0.1265014404971E+01
 0.1258058863040E+01
 0.1245628924356E+01
 0.1227927018019E+01
 0.1205276416619E+01
 0.1178123180725E+01
 0.1147041197164E+01
 0.1112740776377E+01
 0.1076078495232E+01
 0.1038062580305E+01
 0.9998555877834E+00
 0.9627765224417E+00
 0.9283164965389E+00
 0.8981555031188E+00
 0.8741892111980E+00
 0.8585749515889E+00
 0.8537835374249E+00
 0.8626087855940E+00
 0.8880617067781E+00
 0.9330933889464E+00
 0.1000166790295E+01
 0.1090803676853E+01
 0.1205282959395E+01
 0.1342533988056E+01
 0.1500158158484E+01
 0.1674564462606E+01
 0.1861177399667E+01
 0.2054701048523E+01
 0.2249436697454E+01
 0.2439629406425E+01
 0.2619822722237E+01
 0.2785168502344E+01
 0.1112277700301E+01
 0.1139722301490E+01
 0.1166430394236E+01
 0.1191363541533E+01
 0.1213551537768E+01
 0.1232136442569E+01
 0.1246407618497E+01
 0.1255821588877E+01
 0.1260006173613E+01
 0.1258752512894E+01
 0.1252000744080E+01
 0.1239825177220E+01
 0.1222423214105E+01
 0.1200110338428E+01
 0.1173322663178E+01
 0.1142622626978E+01
 0.1108708220066E+01
 0.1072423384780E+01
 0.1034763884439E+01
 0.9968802780579E+00
 0.9600800780678E+00
 0.9258434932033E+00
 0.8958400930962E+00
 0.8719551298374E+00
 0.8563354894583E+00
 0.8514427148102E+00
 0.8600656089657E+00
 0.8852193446894E+00
 0.9298734974365E+00
 0.9965261821262E+00
 0.1086748302857E+01
 0.1200874850621E+01
 0.1337889053861E+01
 0.1495435030926E+01
 0.1669945892277E+01
 0.1856846252153E+01
 0.2050813830628E+01
 0.2246098517309E+01
 0.2436874537356E+01
 0.2617604164693E+01
 0.2783358290390E+01
 0.1105717945477E+01
 0.1133290252500E+01
 0.1160089251025E+01
 0.1185088545889E+01
 0.1207330783298E+01
 0.1225971977834E+01
 0.1240316035684E+01
 0.1249833425170E+01
 0.1254163847017E+01
 0.1253106940533E+01
 0.1246607076306E+01
 0.1234738173835E+01
 0.1217692743547E+01
 0.1195777364544E+01
 0.1169415943716E+01
 0.1139156293428E+01
 0.1105680264736E+01
 0.1069814987635E+01
 0.1032539472203E+01
 0.9949881196237E+00
 0.9584533496365E+00
 0.9244012787269E+00
 0.8944874027148E+00
 0.8705819210640E+00
 0.8548157065300E+00
 0.8496352822911E+00
 0.8578203833234E+00
 0.8823911606096E+00
 0.9263449816672E+00
 0.9922349365476E+00
 0.1081710002888E+01
 0.1195194724348E+01
 0.1331758374064E+01
 0.1489113194760E+01
 0.1663730648618E+01
 0.1851035425467E+01
 0.2045663109277E+01
 0.2241781379520E+01
 0.2433450894980E+01
 0.2615003167281E+01
 0.2781378156739E+01
 0.1099231614923E+01
 0.1127007198553E+01
 0.1153971213076E+01
 0.1179106928607E+01
 0.1201467647666E+01
 0.1220222295351E+01
 0.1234689840269E+01
 0.1244356606464E+01
 0.1248876909559E+01
 0.1248061736018E+01
 0.1241862011932E+01
 0.1230352608913E+01
 0.1213721273284E+01
 0.1192264552708E+01
 0.1166391879802E+01
 0.1136633254461E+01
 0.1103650561651E+01
 0.1068249932602E+01
 0.1031389324159E+01
 0.9941828068422E+00
 0.9579041003626E+00
 0.9240020489080E+00
 0.8941144435005E+00
 0.8700917989517E+00
 0.8540433385075E+00
 0.8483945724317E+00
 0.8559115516133E+00
 0.8796192624624E+00
 0.9225509627945E+00
 0.9873335234622E+00
 0.1075722628146E+01
 0.1188266511160E+01
 0.1324154196857E+01
 0.1481193542111E+01
 0.1655910797527E+01
 0.1843732538634E+01
 0.2039237484366E+01
 0.2236480241217E+01
 0.2429364005989E+01
 0.2612038054057E+01
 0.2779259090763E+01
 0.1092812228854E+01
 0.1120865469265E+01
 0.1148067451151E+01
 0.1173408541832E+01
 0.1195950412864E+01
 0.1214873904742E+01
 0.1229513732046E+01
 0.1239374198568E+01
 0.1244127164240E+01
 0.1243597949627E+01
 0.1237746435068E+01
 0.1226649815750E+01
 0.1210491202524E+01
 0.1189555974219E+01
 0.1164236806214E+01
 0.1135042682999E+01
 0.1102611678320E+01
 0.1067724718915E+01
 0.1031314387938E+01
 0.9944702298693E+00
 0.9584436421345E+00
 0.9246630232812E+00
 0.8947448518744E+00
 0.8705153352950E+00
 0.8540563383586E+00
 0.8477660732027E+00
 0.8543915781740E+00
 0.8769612609635E+00
 0.9185507010870E+00
 0.9818778821968E+00
 0.1068833291457E+01
 0.1180123813058E+01
 0.1315094014687E+01
 0.1471677759106E+01
 0.1646475631847E+01
 0.1834920558558E+01
 0.2031521219752E+01
 0.2230188294549E+01
 0.2424622045210E+01
 0.2608735298117E+01
 0.2777045932443E+01
 0.1086453140148E+01
 0.1114857235466E+01
 0.1142368988599E+01
 0.1167982995880E+01
 0.1190766852368E+01
 0.1209912367146E+01
 0.1224770904543E+01
 0.1234867168975E+01
 0.1239893772042E+01
 0.1239693558365E+01
 0.1234237878660E+01
 0.1223607673395E+01
 0.1207981556376E+01
 0.1187632590363E+01
 0.1162934391856E+01
 0.1134371703457E+01
 0.1102554915773E+01
 0.1068235516920E+01
 0.1032316366699E+01
 0.9958582571284E+00
 0.9600866196023E+00
 0.9264062387782E+00
 0.8964086998256E+00
 0.8718912950166E+00
 0.8549027497333E+00
 0.8478073699400E+00
 0.8533270203715E+00
 0.8744905611265E+00
 0.9144201915740E+00
 0.9759403388836E+00
 0.1061103514347E+01
 0.1170811090932E+01
 0.1304601565286E+01
 0.1460568948787E+01
 0.1635411820054E+01
 0.1824577508331E+01
 0.2022493667965E+01
 0.2222896329087E+01
 0.2419235332305E+01
 0.2605129266427E+01
 0.2774797395257E+01
 0.1080147578202E+01
 0.1108974569198E+01
 0.1136866771229E+01
 0.1162819722240E+01
 0.1185904268434E+01
 0.1205322295165E+01
 0.1220443007002E+01
 0.1230814318558E+01
 0.1236153163488E+01
 0.1236323364795E+01
 0.1231310413001E+01
 0.1221200482817E+01
 0.1206167845272E+01
 0.1186472090633E+01
 0.1162465453850E+01
 0.1134605180888E+01
 0.1103470073989E+01
 0.1069777913031E+01
 0.1034397449037E+01
 0.9983564580279E+00
 0.9628507355767E+00
 0.9292582883432E+00
 0.8991422565002E+00
 0.8742664299047E+00
 0.8566405469338E+00
 0.8485880647851E+00
 0.8527985988391E+00
 0.8722966966586E+00
 0.9102528796774E+00
 0.9696107450635E+00
 0.1052610688608E+01
 0.1160385211549E+01
 0.1292708163251E+01
 0.1447872481838E+01
 0.1622703631649E+01
 0.1812676096971E+01
 0.2012128507359E+01
 0.2214591876369E+01
 0.2413215651249E+01
 0.2601261853982E+01
 0.2772586060481E+01
 0.1073888710158E+01
 0.1103209528062E+01
 0.1131551766010E+01
 0.1157908063489E+01
 0.1181349547485E+01
 0.1201087358218E+01
 0.1216510099387E+01
 0.1227192197111E+01
 0.1232878928578E+01
 0.1233458871446E+01
 0.1228934508011E+01
 0.1219398814590E+01
 0.1205021892576E+01
 0.1186048694698E+01
 0.1162807730170E+01
 0.1135725463209E+01
 0.1105345165163E+01
 0.1072346597779E+01
 0.1037559978148E+01
 0.1001975762683E+01
 0.9667564134820E+00
 0.9332499994919E+00
 0.9029876954328E+00
 0.8776952255806E+00
 0.8593374361843E+00
 0.8501896662189E+00
 0.8529012534170E+00
 0.8704856871520E+00
 0.9061604746314E+00
 0.9629978262308E+00
 0.1043449865621E+01
 0.1148917396053E+01
 0.1279454423978E+01
 0.1433597139027E+01
 0.1608333285762E+01
 0.1799183286596E+01
 0.2000392778729E+01
 0.2205258113427E+01
 0.2406575376317E+01
 0.2597182005158E+01
 0.2770498312245E+01
 0.1067669721785E+01
 0.1097554266974E+01
 0.1126415091994E+01
 0.1153237392442E+01
 0.1177089233892E+01
 0.1197190291776E+01
 0.1212950598169E+01
 0.1223975000928E+01
 0.1230041684599E+01
 0.1231068131737E+01
 0.1227076871279E+01
 0.1218169330615E+01
 0.1204511632804E+01
 0.1186332919971E+01
 0.1163935611936E+01
 0.1137712076847E+01
 0.1108166074319E+01
 0.1075934995633E+01
 0.1041806058026E+01
 0.1006728055361E+01
 0.9718263925030E+00
 0.9384160476470E+00
 0.9079927420369E+00
 0.8822395967657E+00
 0.8630706136612E+00
 0.8527054425509E+00
 0.8537441727927E+00
 0.8691803967216E+00
 0.9022738340470E+00
 0.9562307237197E+00
 0.1033735886032E+01
 0.1136495620420E+01
 0.1264892459482E+01
 0.1417756631758E+01
 0.1592281489719E+01
 0.1784059823427E+01
 0.1987245705955E+01
 0.2194872492928E+01
 0.2399326389056E+01
 0.2592945109473E+01
 0.2768634237694E+01
 0.1061483920473E+01
 0.1092001180966E+01
 0.1121448187266E+01
 0.1148797262736E+01
 0.1173109621475E+01
 0.1193612907273E+01
 0.1209741208700E+01
 0.1221134449005E+01
 0.1227608920145E+01
 0.1229115577636E+01
 0.1225700263536E+01
 0.1217474582221E+01
 0.1204600882789E+01
 0.1187291316682E+01
 0.1165819836537E+01
 0.1140541376230E+01
 0.1111916167007E+01
 0.1080534835602E+01
 0.1047137094796E+01
 0.1012625698577E+01
 0.9780852510340E+00
 0.9447944986095E+00
 0.9142102549427E+00
 0.8879685243756E+00
 0.8679264739226E+00
 0.8562402311810E+00
 0.8554507826332E+00
 0.8685208658334E+00
 0.8987438797332E+00
 0.9494606949463E+00
 0.1023605845405E+01
 0.1123227510228E+01
 0.1249088628563E+01
 0.1400371597362E+01
 0.1574528244058E+01
 0.1767259758434E+01
 0.1972637266701E+01
 0.2183405039648E+01
 0.2391478752164E+01
 0.2588612266524E+01
 0.2767107430418E+01
 0.1055324863961E+01
 0.1086543084363E+01
 0.1116643017650E+01
 0.1144577594397E+01
 0.1169396862582E+01
 0.1190336099461E+01
 0.1206856839990E+01
 0.1218639634874E+01
 0.1225544814741E+01
 0.1227561825904E+01
 0.1224763295078E+01
 0.1217272788857E+01
 0.1205249089795E+01
 0.1188886173547E+01
 0.1168427143494E+01
 0.1144186147749E+01
 0.1116575843516E+01
 0.1086135660875E+01
 0.1053553270115E+01
 0.1019680983240E+01
 0.9855588520306E+00
 0.9524262720840E+00
 0.9216977320238E+00
 0.8949576253295E+00
 0.8740002606528E+00
 0.8609101956694E+00
 0.8581586793835E+00
 0.8686645905955E+00
 0.8957425040440E+00
 0.9428629326850E+00
 0.1013221891060E+01
 0.1109243785924E+01
 0.1232126956347E+01
 0.1381472212402E+01
 0.1555054040906E+01
 0.1748730022369E+01
 0.1956506489745E+01
 0.2170816236361E+01
 0.2383039102934E+01
 0.2584249420767E+01
 0.2766044642098E+01
 0.1049186519593E+01
 0.1081173433030E+01
 0.1111992333992E+01
 0.1140568897953E+01
 0.1165937093119E+01
 0.1187339845550E+01
 0.1204270495215E+01
 0.1216456849172E+01
 0.1223810032350E+01
 0.1226363464264E+01
 0.1224220206663E+01
 0.1217517601901E+01
 0.1206411061064E+01
 0.1191075197790E+01
 0.1171719895787E+01
 0.1148615169948E+01
 0.1122122040553E+01
 0.1092724277768E+01
 0.1061052946109E+01
 0.1027905503091E+01
 0.9942737069100E+00
 0.9613545210583E+00
 0.9305167343494E+00
 0.9032886477022E+00
 0.8813956529863E+00
 0.8668425242841E+00
 0.8620194988805E+00
 0.8697867233509E+00
 0.8934634171046E+00
 0.9366384429719E+00
 0.1002774318759E+01
 0.1094702297576E+01
 0.1214113340156E+01
 0.1361101586606E+01
 0.1533841610431E+01
 0.1728410141821E+01
 0.1938779444402E+01
 0.2157054366410E+01
 0.2374008686358E+01
 0.2579926381381E+01
 0.2765585165282E+01
 0.1043063460088E+01
 0.1075886598466E+01
 0.1107489986785E+01
 0.1136762541271E+01
 0.1162716570884E+01
 0.1184603188556E+01
 0.1201953129569E+01
 0.1214549367300E+01
 0.1222361487290E+01
 0.1225472819866E+01
 0.1224020639736E+01
 0.1218157859389E+01
 0.1208036680265E+01
 0.1193811173842E+01
 0.1175655669394E+01
 0.1153792731148E+01
 0.1128527680357E+01
 0.1100284142920E+01
 0.1069631999709E+01
 0.1037309449850E+01
 0.1004256252393E+01
 0.9716239190196E+00
 0.9407322177249E+00
 0.9130488795516E+00
 0.8902242763044E+00
 0.8741750608036E+00
 0.8671987091770E+00
 0.8720801706478E+00
 0.8921228829088E+00
 0.9310159071189E+00
 0.9924849169283E+00
 0.1079792679095E+01
 0.1195180677862E+01
 0.1339320146642E+01
 0.1510878433005E+01
 0.1706232248784E+01
 0.1919366918158E+01
 0.2142052117440E+01
 0.2364380873180E+01
 0.2575715759664E+01
 0.2765879714831E+01
 0.1036951104120E+01
 0.1070678205584E+01
 0.1103131309670E+01
 0.1133151064124E+01
 0.1159721823028E+01
 0.1182104194624E+01
 0.1199873464883E+01
 0.1212877195537E+01
 0.1221152081344E+01
 0.1224837713352E+01
 0.1224109401939E+01
 0.1219137338398E+01
 0.1210070616816E+01
 0.1197041604791E+01
 0.1180186812753E+01
 0.1159678103874E+01
 0.1135761064632E+01
 0.1108794684555E+01
 0.1079283080685E+01
 0.1047900821549E+01
 0.1015532030362E+01
 0.9832798421122E+00
 0.9524117558284E+00
 0.9243304532174E+00
 0.9006051195210E+00
 0.8830558529903E+00
 0.8738753160199E+00
 0.8757555688715E+00
 0.8919602950464E+00
 0.9262534430162E+00
 0.9826104827321E+00
 0.1064741638384E+01
 0.1175495077477E+01
 0.1316211281396E+01
 0.1486160321250E+01
 0.1682121641299E+01
 0.1898161872350E+01
 0.2125722197689E+01
 0.2354137822769E+01
 0.2571691907162E+01
 0.2767088187404E+01
 0.1030846012573E+01
 0.1065545549224E+01
 0.1098913585716E+01
 0.1129728544804E+01
 0.1156939794599E+01
 0.1179819869032E+01
 0.1197997746248E+01
 0.1211396766704E+01
 0.1220130410250E+01
 0.1224401202380E+01
 0.1224426235130E+01
 0.1220394513452E+01
 0.1212452035936E+01
 0.1200708342888E+01
 0.1185259980380E+01
 0.1166224978392E+01
 0.1143785214333E+01
 0.1118230558217E+01
 0.1089994793460E+01
 0.1059684543384E+01
 0.1028124768454E+01
 0.9963674412421E+00
 0.9656246462657E+00
 0.9372295325945E+00
 0.9126638442930E+00
 0.8936426059489E+00
 0.8822414721509E+00
 0.8810411231245E+00
 0.8932385438410E+00
 0.9226401596142E+00
 0.9734463810000E+00
 0.1049818837770E+01
 0.1155263278085E+01
 0.1291888539911E+01
 0.1459696425160E+01
 0.1655998225216E+01
 0.1875036911792E+01
 0.2107951712961E+01
 0.2343245555670E+01
 0.2567929807614E+01
 0.2769375033893E+01
 0.1024746254646E+01
 0.1060488109415E+01
 0.1094836614239E+01
 0.1126491022954E+01
 0.1154357985883E+01
 0.1177726010338E+01
 0.1196289422421E+01
 0.1210060575534E+01
 0.1219240438836E+01
 0.1224101320482E+01
 0.1224905595177E+01
 0.1221862331043E+01
 0.1215114318427E+01
 0.1204747215633E+01
 0.1190815643999E+01
 0.1173380855604E+01
 0.1152557153162E+01
 0.1128560833400E+01
 0.1101750798173E+01
 0.1072661495483E+01
 0.1042055353849E+01
 0.1010930593349E+01
 0.9804408840830E+00
 0.9518453624172E+00
 0.9265319610226E+00
 0.9061020160879E+00
 0.8925019735243E+00
 0.8881822963441E+00
 0.8962441358876E+00
 0.9204973953460E+00
 0.9653299796939E+00
 0.1035343265071E+01
 0.1134741400426E+01
 0.1266504738230E+01
 0.1431516116428E+01
 0.1627779286163E+01
 0.1849842235993E+01
 0.2088595487334E+01
 0.2331646039418E+01
 0.2564503454395E+01
 0.2772898213203E+01
 0.1018651863666E+01
 0.1055508191663E+01
 0.1090903400618E+01
 0.1123436981124E+01
 0.1151964559011E+01
 0.1175796974233E+01
 0.1194708726507E+01
 0.1208816742237E+01
 0.1218421144884E+01
 0.1223870819157E+01
 0.1225476455487E+01
 0.1223468013542E+01
 0.1217984802977E+01
 0.1209087658554E+01
 0.1196787589932E+01
 0.1181086405944E+01
 0.1162027140491E+01
 0.1139748117408E+01
 0.1114528839050E+01
 0.1086827457355E+01
 0.1057340710816E+01
 0.1027010741432E+01
 0.9969300088953E+00
 0.9682791797515E+00
 0.9423458651407E+00
 0.9206089763538E+00
 0.9048736392164E+00
 0.8974413547907E+00
 0.9012870534352E+00
 0.9201795430009E+00
 0.9586437504403E+00
 0.1021689897563E+01
 0.1114245057104E+01
 0.1240263354981E+01
 0.1401678261286E+01
 0.1597384081791E+01
 0.1822404674651E+01
 0.2067469289394E+01
 0.2319245631289E+01
 0.2561480573750E+01
 0.2777778256052E+01
 0.1012565408484E+01
 0.1050611726372E+01
 0.1087120999073E+01
 0.1120567884658E+01
 0.1149748384689E+01
 0.1174005309682E+01
 0.1193212128613E+01
 0.1207608492645E+01
 0.1217606134247E+01
 0.1223636923959E+01
 0.1226062148144E+01
 0.1225132906188E+01
 0.1220984562250E+01
 0.1213652361573E+01
 0.1203102403900E+01
 0.1189274789261E+01
 0.1172137843526E+01
 0.1151747602887E+01
 0.1128299684675E+01
 0.1102171952383E+01
 0.1073992563566E+01
 0.1044645601602E+01
 0.1015159798147E+01
 0.9866329513860E+00
 0.9602456869103E+00
 0.9373455994999E+00
 0.9195845287115E+00
 0.9090967466891E+00
 0.9087003406606E+00
 0.9220743817313E+00
 0.9538178097271E+00
 0.1009296380210E+01
 0.1094160819663E+01
 0.1213432610753E+01
 0.1370283842707E+01
 0.1564740392518E+01
 0.1792529279740E+01
 0.2044343537191E+01
 0.2305903605838E+01
 0.2558916774311E+01
 0.2783974204958E+01
 0.1006492721824E+01
 0.1045809264069E+01
 0.1083501558073E+01
 0.1117888766930E+01
 0.1147698988594E+01
 0.1172321216403E+01
 0.1191751626122E+01
 0.1206373543440E+01
 0.1216723232782E+01
 0.1223321118879E+01
 0.1226580259816E+01
 0.1226772384116E+01
 0.1224028227618E+01
 0.1218356939916E+01
 0.1209678948520E+01
 0.1197870934774E+01
 0.1182823442803E+01
 0.1164506030794E+01
 0.1143025972072E+01
 0.1118676985630E+01
 0.1092016078845E+01
 0.1063867731107E+01
 0.1035194796628E+01
 0.1007007918498E+01
 0.9803739225710E+00
 0.9565000138794E+00
 0.9368729500210E+00
 0.9234422916960E+00
 0.9188394256033E+00
 0.9266028797245E+00
 0.9513316763003E+00
 0.9986693289377E+00
 0.1074958829389E+01
 0.1186362760289E+01
 0.1337492454492E+01
 0.1529795669641E+01
 0.1759997496726E+01
 0.2018955921411E+01
 0.2291383873226E+01
 0.2556999476468E+01
 0.2790550535284E+01
 0.1000444646334E+01
 0.1041115611518E+01
 0.1080061306603E+01
 0.1115406264132E+01
 0.1145803600720E+01
 0.1170708779562E+01
 0.1190270534004E+01
 0.1205039882044E+01
 0.1215690789350E+01
 0.1222836695625E+01
 0.1226942412869E+01
 0.1228299131012E+01
 0.1227032284682E+01
 0.1223124963537E+01
 0.1216451960498E+01
 0.1206825544075E+01
 0.1194055737595E+01
 0.1178021293765E+01
 0.1158736266409E+01
 0.1136406005460E+01
 0.1111513654454E+01
 0.1084822550742E+01
 0.1057227386171E+01
 0.1029646734490E+01
 0.1003025595017E+01
 0.9784201252507E+00
 0.9571386665085E+00
 0.9409275246145E+00
 0.9322008001429E+00
 0.9343031028890E+00
 0.9517494107003E+00
 0.9903583078507E+00
 0.1057096660845E+01
 0.1159315785232E+01
 0.1303283062520E+01
 0.1492228247526E+01
 0.1724276512723E+01
 0.1990741603218E+01
 0.2275380445761E+01
 0.2555351443284E+01
 0.2800957022089E+01
 0.9944333266375E+00
 0.1036553381230E+01
 0.1076824692723E+01
 0.1113132872542E+01
 0.1144050742241E+01
 0.1169129437847E+01
 0.1188707454217E+01
 0.1203530319810E+01
 0.1214422059454E+01
 0.1222091415001E+01
 0.1227052978609E+01
 0.1229615134495E+01
 0.1229897164398E+01
 0.1227856697068E+01
 0.1223323933509E+01
 0.1216046796539E+01
 0.1205752787840E+01
 0.1192225774616E+01
 0.1175381670078E+01
 0.1155333288441E+01
 0.1132487598771E+01
 0.1107545897339E+01
 0.1081332978306E+01
 0.1054670612372E+01
 0.1028373737646E+01
 0.1003336476002E+01
 0.9806754306215E+00
 0.9619160061548E+00
 0.9492263717738E+00
 0.9457050527325E+00
 0.9556927926971E+00
 0.9850555942454E+00
 0.1041265984841E+01
 0.1132856929185E+01
 0.1267954423140E+01
 0.1451989652698E+01
 0.1685012541001E+01
 0.1959225555300E+01
 0.2257578608922E+01
 0.2554062759877E+01
 0.2818581593171E+01
 0.9884831630152E+00
 0.1032159653622E+01
 0.1073832168863E+01
 0.1111092536783E+01
 0.1142433751644E+01
 0.1167544045663E+01
 0.1186997766340E+01
 0.1201763879186E+01
 0.1212826531635E+01
 0.1220988566706E+01
 0.1226809571623E+01
 0.1230611283321E+01
 0.1232505585935E+01
 0.1232425806987E+01
 0.1230159814528E+01
 0.1225392714105E+01
 0.1217768725691E+01
 0.1206973496352E+01
 0.1192820290234E+01
 0.1175325772680E+01
 0.1154819366429E+01
 0.1131940719121E+01
 0.1107444383793E+01
 0.1082051826936E+01
 0.1056440804688E+01
 0.1031333729651E+01
 0.1007644138684E+01
 0.9866621646841E+00
 0.9702864586931E+00
 0.9613232568285E+00
 0.9638498050738E+00
 0.9836325908920E+00
 0.1028474627151E+01
 0.1107996154792E+01
 0.1232320999231E+01
 0.1409527196915E+01
 0.1642241709341E+01
 0.1924186367446E+01
 0.2237735682318E+01
 0.2554120040345E+01
 0.2839641481590E+01
 0.9826256267605E+00
 0.1027980818332E+01
 0.1071132048443E+01
 0.1109310566487E+01
 0.1140939173368E+01
 0.1165901185753E+01
 0.1185062983540E+01
 0.1199646942502E+01
 0.1210803612857E+01
 0.1219424364640E+01
 0.1226105947377E+01
 0.1231178160337E+01
 0.1234744112355E+01
 0.1236714855023E+01
 0.1236839725594E+01
 0.1234744299969E+01
 0.1229990134664E+01
 0.1222161896834E+01
 0.1210965615168E+01
 0.1196318113345E+01
 0.1178470289147E+01
 0.1158001337675E+01
 0.1135596047521E+01
 0.1111872545912E+01
 0.1087364423443E+01
 0.1062612862866E+01
 0.1038317636117E+01
 0.1015520916606E+01
 0.9958317582859E+00
 0.9817235877566E+00
 0.9769255636718E+00
 0.9869481580113E+00
 0.1019701266511E+01
 0.1085700727070E+01
 0.1197112893046E+01
 0.1365115186906E+01
 0.1595723959536E+01
 0.1885051013230E+01
 0.2215483256996E+01
 0.2555274406282E+01
 0.2864396593576E+01
 0.9769040142652E+00
 0.1024079751742E+01
 0.1068787523912E+01
 0.1107818046052E+01
 0.1139548757456E+01
 0.1164138375693E+01
 0.1182812456945E+01
 0.1197075642198E+01
 0.1208245071601E+01
 0.1217289394280E+01
 0.1224831193622E+01
 0.1231201548213E+01
 0.1236493379134E+01
 0.1240598542885E+01
 0.1243233519401E+01
 0.1243969874368E+01
 0.1242288981296E+01
 0.1237672615420E+01
 0.1229714873496E+01
 0.1218228786551E+01
 0.1203386028432E+01
 0.1185707351890E+01
 0.1165809119284E+01
 0.1144203581993E+01
 0.1121273416572E+01
 0.1097369456527E+01
 0.1072968035772E+01
 0.1048852812052E+01
 0.1026327134214E+01
 0.1007497864427E+01
 0.9956701059484E+00
 0.9959420185310E+00
 0.1016069379800E+01
 0.1067163358028E+01
 0.1163328307862E+01
 0.1319239660994E+01
 0.1545272341770E+01
 0.1841145042065E+01
 0.2190135090909E+01
 0.2557055893639E+01
 0.2893404641243E+01
 0.9713773994688E+00
 0.1020540828621E+01
 0.1066880037920E+01
 0.1106651064381E+01
 0.1138235752556E+01
 0.1162178086042E+01
 0.1180140753172E+01
 0.1193934790723E+01
 0.1205035041542E+01
 0.1214469184695E+01
 0.1222870533390E+01
 0.1230563250453E+01
 0.1237628757059E+01
 0.1243944026467E+01
 0.1249200553996E+01
 0.1252924195823E+01
 0.1254521125801E+01
 0.1253369583942E+01
 0.1248946933306E+01
 0.1240957954019E+01
 0.1229494469098E+01
 0.1215021536299E+01
 0.1198089247104E+01
 0.1179101894747E+01
 0.1158284803910E+01
 0.1135790056175E+01
 0.1111862464670E+01
 0.1087019454651E+01
 0.1062247214253E+01
 0.1039259884869E+01
 0.1020874029397E+01
 0.1011629075359E+01
 0.1018846365408E+01
 0.1053827544734E+01
 0.1132305407262E+01
 0.1272695510460E+01
 0.1490823528412E+01
 0.1791657525772E+01
 0.2160664294623E+01
 0.2558960303618E+01
 0.2927384454694E+01
 0.9661261466430E+00
 0.1017476839140E+01
 0.1065513138563E+01
 0.1105848615649E+01
 0.1136959297342E+01
 0.1159922544521E+01
 0.1176924698512E+01
 0.1190096971296E+01
 0.1201050327327E+01
 0.1210845074594E+01
 0.1220106393558E+01
 0.1229142169788E+01
 0.1238021278357E+01
 0.1246611481054E+01
 0.1254589647527E+01
 0.1261447617937E+01
 0.1266524691485E+01
 0.1269096845039E+01
 0.1268519895392E+01
 0.1264385083633E+01
 0.1256703485332E+01
 0.1245887734765E+01
 0.1232424436652E+01
 0.1216608128733E+01
 0.1198500688597E+01
 0.1178048138723E+01
 0.1155258008598E+01
 0.1130377611860E+01
 0.1104070250742E+01
 0.1077639745639E+01
 0.1053362972713E+01
 0.1035091976175E+01
 0.1029436182603E+01
 0.1047402817592E+01
 0.1105799030170E+01
 0.1226721112303E+01
 0.1432549611118E+01
 0.1735652458202E+01
 0.2125712828661E+01
 0.2560373294442E+01
 0.2967220174086E+01
 0.9612598176784E+00
 0.1015038541393E+01
 0.1064816684779E+01
 0.1105448168569E+01
 0.1135656118457E+01
 0.1157247145791E+01
 0.1173020259683E+01
 0.1185421988721E+01
 0.1196161130914E+01
 0.1206295426789E+01
 0.1216419765107E+01
 0.1226815668116E+01
 0.1237538867273E+01
 0.1248454984423E+01
 0.1259239292365E+01
 0.1269365335658E+01
 0.1278118283002E+01
 0.1284676020391E+01
 0.1288268272575E+01
 0.1288366238642E+01
 0.1284898554222E+01
 0.1278228799362E+01
 0.1268783083131E+01
 0.1256744314406E+01
 0.1242005144502E+01
 0.1224299777889E+01
 0.1203395894073E+01
 0.1179271904214E+01
 0.1152269790649E+01
 0.1123275524776E+01
 0.1093989959480E+01
 0.1067472134474E+01
 0.1049366402396E+01
 0.1049864896438E+01
 0.1086052075502E+01
 0.1183173682351E+01
 0.1371043741848E+01
 0.1672142079984E+01
 0.2083530333493E+01
 0.2560448066131E+01
 0.3013999547175E+01
 0.9569288006683E+00
 0.1013427980504E+01
 0.1064950879918E+01
 0.1105477273040E+01
 0.1134228497742E+01
 0.1153992423494E+01
 0.1168259608032E+01
 0.1179756957077E+01
 0.1190232328535E+01
 0.1200697237851E+01
 0.1211691870870E+01
 0.1223461222818E+01
 0.1236047913150E+01
 0.1249323796325E+01
 0.1262978238032E+01
 0.1276486810638E+01
 0.1289099058340E+01
 0.1299903328757E+01
 0.1307999597286E+01
 0.1312730899767E+01
 0.1313940169849E+01
 0.1311944638405E+01
 0.1307112319520E+01
 0.1299511897901E+01
 0.1288861253289E+01
 0.1274679137950E+01
 0.1256495023125E+01
 0.1234026099438E+01
 0.1207303848442E+01
 0.1176801320502E+01
 0.1143623896603E+01
 0.1109958263940E+01
 0.1080271299380E+01
 0.1063438499650E+01
 0.1075844656144E+01
 0.1144740901857E+01
 0.1307617983703E+01
 0.1600238140696E+01
 0.2031871830443E+01
 0.2557933424651E+01
 0.3069087926547E+01
 0.9533418746902E+00
 0.1012917229691E+01
 0.1066108844357E+01
 0.1105938533687E+01
 0.1132527267426E+01
 0.1149954865003E+01
 0.1162448974454E+01
 0.1172937374169E+01
 0.1183125424223E+01
 0.1193928175885E+01
 0.1205806143530E+01
 0.1218958381535E+01
 0.1233415216038E+01
 0.1249064122236E+01
 0.1265626590776E+01
 0.1282605520124E+01
 0.1299240689384E+01
 0.1314546024891E+01
 0.1327490221070E+01
 0.1337278100320E+01
 0.1343660965022E+01
 0.1346910444076E+01
 0.1347336861876E+01
 0.1344890296245E+01
 0.1339108443925E+01
 0.1329293920369E+01
 0.1314745013849E+01
 0.1294933178179E+01
 0.1269601522644E+01
 0.1238830794199E+01
 0.1203131972047E+01
 0.1163769584178E+01
 0.1123871512197E+01
 0.1090565009454E+01
 0.1078501712171E+01
 0.1115163878674E+01
 0.1244753732703E+01
 0.1519454208505E+01
 0.1967883417899E+01
 0.2550917139965E+01
 0.3134244880957E+01
 0.9507935423903E+00
 0.1013874917667E+01
 0.1068514821421E+01
 0.1106783645136E+01
 0.1130328600714E+01
 0.1144877500867E+01
 0.1155368231560E+01
 0.1164789558916E+01
 0.1174701268046E+01
 0.1185869049491E+01
 0.1198650490991E+01
 0.1213190991611E+01
 0.1229510311798E+01
 0.1247521447223E+01
 0.1266997623710E+01
 0.1287499264888E+01
 0.1308291322803E+01
 0.1328338128775E+01
 0.1346479993465E+01
 0.1361771575801E+01
 0.1373862445293E+01
 0.1382975269303E+01
 0.1389358694927E+01
 0.1392836341012E+01
 0.1392760424911E+01
 0.1388221013030E+01
 0.1378299082633E+01
 0.1362244679983E+01
 0.1339547572716E+01
 0.1309936087638E+01
 0.1273353942790E+01
 0.1230129130375E+01
 0.1181947119819E+01
 0.1133860370616E+01
 0.1097847503500E+01
 0.1099413007756E+01
 0.1186736338701E+01
 0.1430299989832E+01
 0.1888033928691E+01
 0.2536419334256E+01
 0.3211800205641E+01
 0.9497080058018E+00
 0.1016803748571E+01
 0.1072411703221E+01
 0.1107869734195E+01
 0.1127304029498E+01
 0.1138442377814E+01
 0.1146773474383E+01
 0.1155134771937E+01
 0.1164823578644E+01
 0.1176406694112E+01
 0.1190119814819E+01
 0.1206049666228E+01
 0.1224208161391E+01
 0.1244543512655E+01
 0.1266900534197E+01
 0.1290931386851E+01
 0.1315971754505E+01
 0.1340975274184E+01
 0.1364665302007E+01
 0.1385933370779E+01
 0.1404311064876E+01
 0.1419961070385E+01
 0.1433057936201E+01
 0.1443284918123E+01
 0.1449803842450E+01
 0.1451502346831E+01
 0.1447266860494E+01
 0.1436159748309E+01
 0.1417465697894E+01
 0.1390622606164E+01
 0.1355066957861E+01
 0.1310221494441E+01
 0.1256294996175E+01
 0.1196064317499E+01
 0.1138114020839E+01
 0.1103731386294E+01
 0.1140439909063E+01
 0.1335413399488E+01
 0.1788243106964E+01
 0.2509731426853E+01
 0.3304915386121E+01
 0.9507126691801E+00
 0.1022392793658E+01
 0.1078024370654E+01
 0.1108887978761E+01
 0.1122985430202E+01
 0.1130268867965E+01
 0.1136403963559E+01
 0.1143795124614E+01
 0.1153363240190E+01
 0.1165437226845E+01
 0.1180118717894E+01
 0.1197434420039E+01
 0.1217392144067E+01
 0.1239983960722E+01
 0.1265144413582E+01
 0.1292653426915E+01
 0.1321974264036E+01
 0.1352108557377E+01
 0.1381689741280E+01
 0.1409435055231E+01
 0.1434733263657E+01
 0.1457662467603E+01
 0.1478295460869E+01
 0.1496151309393E+01
 0.1510197883741E+01
 0.1519140944055E+01
 0.1521707204190E+01
 0.1516814454312E+01
 0.1503601847322E+01
 0.1481301396463E+01
 0.1448941479230E+01
 0.1405130591956E+01
 0.1348656735638E+01
 0.1279967546932E+01
 0.1203824015808E+01
 0.1135483448480E+01
 0.1116051659832E+01
 0.1241597847195E+01
 0.1664602573201E+01
 0.2463350532262E+01
 0.3417959590867E+01
 0.9547665017733E+00
 0.1031586954011E+01
 0.1085470027079E+01
 0.1109251402042E+01
 0.1116732700013E+01
 0.1119924007441E+01
 0.1123994166413E+01
 0.1130601051128E+01
 0.1140203300779E+01
 0.1152869569757E+01
 0.1168564306277E+01
 0.1187257380428E+01
 0.1208957241407E+01
 0.1233706581820E+01
 0.1261543671362E+01
 0.1292409988492E+01
 0.1325962978141E+01
 0.1361337448733E+01
 0.1397131371835E+01
 0.1431885218730E+01
 0.1464808918928E+01
 0.1495847733398E+01
 0.1524918272940E+01
 0.1551336049114E+01
 0.1573875197654E+01
 0.1591097135714E+01
 0.1601620966806E+01
 0.1604272069145E+01
 0.1598109509666E+01
 0.1582262271431E+01
 0.1555491544877E+01
 0.1515756790077E+01
 0.1460603817694E+01
 0.1388285466344E+01
 0.1299646383529E+01
 0.1202845265113E+01
 0.1127281673272E+01
 0.1163065874728E+01
 0.1515711101274E+01
 0.2385361363614E+01
 0.3557005074740E+01
 0.9633960959505E+00
 0.1045666511502E+01
 0.1094553973550E+01
 0.1107930949565E+01
 0.1107725050326E+01
 0.1106951872670E+01
 0.1109289707986E+01
 0.1115400003881E+01
 0.1125244580988E+01
 0.1138629074028E+01
 0.1155388983166E+01
 0.1175445466854E+01
 0.1198813255650E+01
 0.1225589956373E+01
 0.1255924990949E+01
 0.1289946780363E+01
 0.1327577312216E+01
 0.1368202219720E+01
 0.1410484961255E+01
 0.1452810902087E+01
 0.1494162211911E+01
 0.1534261770650E+01
 0.1572768984535E+01
 0.1608733231836E+01
 0.1640744393131E+01
 0.1667284570633E+01
 0.1686943068093E+01
 0.1698514419263E+01
 0.1701039088841E+01
 0.1693651910366E+01
 0.1675025110456E+01
 0.1642718254295E+01
 0.1593373484412E+01
 0.1523441252798E+01
 0.1430157964878E+01
 0.1314431155760E+01
 0.1190679268086E+01
 0.1125205909802E+01
 0.1349157334046E+01
 0.2257435098791E+01
 0.3730315866321E+01
 0.9791578653746E+00
 0.1066289221847E+01
 0.1104320096168E+01
 0.1103255372561E+01
 0.1095020449411E+01
 0.1090922363599E+01
 0.1092063484307E+01
 0.1098066695283E+01
 0.1108411510624E+01
 0.1122661028369E+01
 0.1140543121601E+01
 0.1161942899369E+01
 0.1186887880499E+01
 0.1215532113997E+01
 0.1248135498772E+01
 0.1285022865298E+01
 0.1326441227726E+01
 0.1372177429536E+01
 0.1421136859532E+01
 0.1471628916459E+01
 0.1522348366814E+01
 0.1572632642483E+01
 0.1621701643663E+01
 0.1668243609505E+01
 0.1710694567167E+01
 0.1747565661281E+01
 0.1777532718977E+01
 0.1799433856879E+01
 0.1812333889059E+01
 0.1815462967778E+01
 0.1807602508868E+01
 0.1786247978502E+01
 0.1747662802229E+01
 0.1687234213155E+01
 0.1599411018886E+01
 0.1478747595220E+01
 0.1324418128437E+01
 0.1165661337030E+01
 0.1197395467773E+01
 0.2054402288435E+01
 0.3948277274659E+01
 0.1006617926937E+01
 0.1095284882335E+01
 0.1112090745298E+01
 0.1092804733515E+01
 0.1077747884011E+01
 0.1071474154383E+01
 0.1072131598053E+01
 0.1078515576192E+01
 0.1089657098447E+01
 0.1104934103348E+01
 0.1123997440372E+01
 0.1146713431683E+01
 0.1173129477165E+01
 0.1203454792711E+01
 0.1238051153458E+01
 0.1277427548283E+01
 0.1322182853410E+01
 0.1372670663169E+01
 0.1428329044059E+01
 0.1487599472193E+01
 0.1548833710343E+01
 0.1610684630677E+01
 0.1671607183916E+01
 0.1729793790418E+01
 0.1783602026818E+01
 0.1831745876883E+01
 0.1873159412027E+01
 0.1906823161536E+01
 0.1931834592845E+01
 0.1947541941631E+01
 0.1953012536456E+01
 0.1946098339735E+01
 0.1923411941236E+01
 0.1880390487071E+01
 0.1810256569928E+01
 0.1703115978543E+01
 0.1546794156914E+01
 0.1330207101203E+01
 0.1145011329536E+01
 0.1756007449089E+01
 0.4220876210332E+01
 0.1054664543586E+01
 0.1133295576056E+01
 0.1111578742251E+01
 0.1073910631895E+01
 0.1055397689264E+01
 0.1048297603518E+01
 0.1049389909356E+01
 0.1056707961581E+01
 0.1068968052274E+01
 0.1085443310945E+01
 0.1105744957083E+01
 0.1129742199391E+01
 0.1157509369116E+01
 0.1189307068823E+01
 0.1225583680494E+01
 0.1266999944787E+01
 0.1314470993871E+01
 0.1369037431916E+01
 0.1431107617111E+01
 0.1499747040951E+01
 0.1572965464569E+01
 0.1648164288988E+01
 0.1722453530425E+01
 0.1793362903681E+01
 0.1859339192347E+01
 0.1919567057015E+01
 0.1973482084776E+01
 0.2020356838980E+01
 0.2059293507564E+01
 0.2089627896070E+01
 0.2110779456528E+01
 0.2121459557601E+01
 0.2119616359430E+01
 0.2102093928734E+01
 0.2063300411871E+01
 0.1992265220268E+01
 0.1872089408994E+01
 0.1669164147183E+01
 0.1333208781770E+01
 0.1423294905947E+01
 0.4549481266385E+01
 0.1142885049349E+01
 0.1172864268529E+01
 0.1090628867639E+01
 0.1046037912066E+01
 0.1027526089791E+01
 0.1021228509348E+01
 0.1023837014016E+01
 0.1032654870472E+01
 0.1046370790297E+01
 0.1064211477963E+01
 0.1085802642057E+01
 0.1111036952097E+01
 0.1140023415820E+01
 0.1173068153898E+01
 0.1210685289209E+01
 0.1253643676154E+01
 0.1303072906435E+01
 0.1360640911507E+01
 0.1428250921912E+01
 0.1506714431788E+01
 0.1593928510129E+01
 0.1684893497621E+01
 0.1774347067040E+01
 0.1859018104384E+01
 0.1937784996547E+01
 0.2010701214273E+01
 0.2078022044205E+01
 0.2139550017371E+01
 0.2194393512117E+01
 0.2241452289385E+01
 0.2280208020593E+01
 0.2310912947950E+01
 0.2334139740971E+01
 0.2349779111596E+01
 0.2355482060858E+01
 0.2346396798486E+01
 0.2305582454789E+01
 0.2219643403469E+01
 0.1940231435954E+01
 0.1487894482206E+01
 0.4914436624259E+01
 0.1323987576517E+01
 0.1159222414876E+01
 0.1044928504852E+01
 0.1010384528912E+01
 0.9934672940556E+00
 0.9904943514460E+00
 0.9955145340811E+00
 0.1006443658441E+01
 0.1021928137167E+01
 0.1041292057084E+01
 0.1064211868433E+01
 0.1090628860304E+01
 0.1120692791311E+01
 0.1154748759325E+01
 0.1193352444410E+01
 0.1237330022301E+01
 0.1287906402733E+01
 0.1347035721863E+01
 0.1418184633718E+01
 0.1506454480357E+01
 0.1610705877563E+01
 0.1720873501118E+01
 0.1827621937987E+01
 0.1926959202671E+01
 0.2018833808747E+01
 0.2104743276745E+01
 0.2186139797949E+01
 0.2263672822221E+01
 0.2336728082961E+01
 0.2402976041337E+01
 0.2460495665222E+01
 0.2512308990283E+01
 0.2563779080471E+01
 0.2618620416204E+01
 0.2680756739663E+01
 0.2753961858672E+01
 0.2849236932998E+01
 0.2951730263262E+01
 0.3176215212253E+01
 0.2835439566772E+01
 0.5742959649297E+01
 0.4293854300505E+00
 0.5261029119088E+00
 0.6214314069128E+00
 0.7096872079247E+00
 0.7882769362862E+00
 0.8561766556238E+00
 0.9132247137942E+00
 0.9597066721809E+00
 0.9960901913281E+00
 0.1022922410033E+01
 0.1040848337384E+01
 0.1050144283708E+01
 0.1051335686232E+01
 0.1045550927404E+01
 0.1033314806653E+01
 0.1014364826847E+01
 0.9880131006953E+00
 0.9534689450598E+00
 0.9103510573231E+00
 0.8567306884294E+00
 0.4169684881929E+00
 0.5214497533065E+00
 0.6228671437521E+00
 0.7165962237258E+00
 0.8001834781946E+00
 0.8727154443050E+00
 0.9341311320275E+00
 0.9847853463117E+00
 0.1025190081054E+01
 0.1055940134998E+01
 0.1077674511292E+01
 0.1090716294447E+01
 0.1095681913759E+01
 0.1093567491814E+01
 0.1084787112022E+01
 0.1069192005559E+01
 0.1046132055721E+01
 0.1014778443408E+01
 0.9726079795364E+00
 0.9177273524146E+00
 0.4047276551932E+00
 0.5175443326099E+00
 0.6252939524409E+00
 0.7243885953971E+00
 0.8128077829440E+00
 0.8898106562892E+00
 0.9554461790565E+00
 0.1010146280242E+01
 0.1054486521738E+01
 0.1089102561108E+01
 0.1114638460048E+01
 0.1131527376091E+01
 0.1140410950150E+01
 0.1142160087950E+01
 0.1137157880368E+01
 0.1125241213730E+01
 0.1105731665437E+01
 0.1077295886299E+01
 0.1037660675728E+01
 0.9875893463495E+00
 0.3928683229944E+00
 0.5142035480024E+00
 0.6284654210094E+00
 0.7328968430613E+00
 0.8260077429641E+00
 0.9073208539879E+00
 0.9770253906787E+00
 0.1035646154762E+01
 0.1083829662827E+01
 0.1122260102968E+01
 0.1151615371114E+01
 0.1172421107064E+01
 0.1185337537537E+01
 0.1191140689756E+01
 0.1190167947628E+01
 0.1182226129578E+01
 0.1166540138870E+01
 0.1141794041564E+01
 0.1106596551549E+01
 0.1061939069768E+01
 0.3814511237778E+00
 0.5113897295091E+00
 0.6322184596028E+00
 0.7419492955270E+00
 0.8396282118635E+00
 0.9250955419220E+00
 0.9987180417387E+00
 0.1061131440813E+01
 0.1113063157373E+01
 0.1155257575008E+01
 0.1188439175358E+01
 0.1213213612442E+01
 0.1230257262651E+01
 0.1240272364709E+01
 0.1243554888591E+01
 0.1239883795146E+01
 0.1228511844230E+01
 0.1208362043310E+01
 0.1178479965793E+01
 0.1139604325553E+01
 0.3705162900156E+00
 0.5090568310150E+00
 0.6364331539108E+00
 0.7513892952451E+00
 0.8535097934338E+00
 0.9429779727654E+00
 0.1020366908045E+01
 0.1086442050135E+01
 0.1142023038483E+01
 0.1187923623283E+01
 0.1224923073369E+01
 0.1253697306455E+01
 0.1274938813542E+01
 0.1289297412959E+01
 0.1297041974937E+01
 0.1297965460024E+01
 0.1291422361197E+01
 0.1276533813831E+01
 0.1252551373197E+01
 0.1219805535195E+01
 0.3600962480230E+00
 0.5071593819215E+00
 0.6410016274860E+00
 0.7610732604662E+00
 0.8674953852048E+00
 0.9608082597114E+00
 0.1041810197938E+01
 0.1111412215819E+01
 0.1170536584016E+01
 0.1220073902148E+01
 0.1260863580552E+01
 0.1293645195953E+01
 0.1319130170914E+01
 0.1337937160333E+01
 0.1350331005550E+01
 0.1356150694318E+01
 0.1354861190697E+01
 0.1345727360556E+01
 0.1328068976173E+01
 0.1301806568414E+01
 0.3502209050266E+00
 0.5056520469678E+00
 0.6458228513939E+00
 0.7708653694221E+00
 0.8814320798478E+00
 0.9784263399002E+00
 0.1062883490370E+01
 0.1135871579282E+01
 0.1198423882532E+01
 0.1251513668004E+01
 0.1296044259633E+01
 0.1332815092861E+01
 0.1362561364349E+01
 0.1385890886696E+01
 0.1403084352613E+01
 0.1414040170345E+01
 0.1418323524519E+01
 0.1415296111994E+01
 0.1404276775384E+01
 0.1384815963096E+01
 0.3409190586131E+00
 0.5044905699773E+00
 0.6508004252572E+00
 0.7806358033522E+00
 0.8951713674607E+00
 0.9956738732860E+00
 0.1083421620682E+01
 0.1159646924256E+01
 0.1225499887730E+01
 0.1282040625495E+01
 0.1330239116715E+01
 0.1370952895988E+01
 0.1404946623003E+01
 0.1432834025568E+01
 0.1454924563707E+01
 0.1471178808375E+01
 0.1481246028258E+01
 0.1484551431073E+01
 0.1480380682797E+01
 0.1467966303973E+01
 0.3322187351693E+00
 0.5036322120587E+00
 0.6558420652674E+00
 0.7902601098909E+00
 0.9085695170907E+00
 0.1012395565771E+01
 0.1103260478619E+01
 0.1182564156163E+01
 0.1251576760329E+01
 0.1311447791572E+01
 0.1363215733251E+01
 0.1407795597798E+01
 0.1445986701147E+01
 0.1478420923810E+01
 0.1505443541599E+01
 0.1527074107324E+01
 0.1543029409848E+01
 0.1552773380899E+01
 0.1555542135306E+01
 0.1550298755095E+01
 0.3241470583328E+00
 0.5030360674091E+00
 0.6608596267770E+00
 0.7996192572463E+00
 0.9214881400431E+00
 0.1028440398276E+01
 0.1122238731843E+01
 0.1204450395416E+01
 0.1276466347565E+01
 0.1339526387820E+01
 0.1394738395202E+01
 0.1443074529387E+01
 0.1485372671685E+01
 0.1522290949344E+01
 0.1554213173502E+01
 0.1581211665039E+01
 0.1603054726546E+01
 0.1619224250472E+01
 0.1628893325371E+01
 0.1630795283344E+01
 0.3167299592843E+00
 0.5026633089666E+00
 0.6657693998631E+00
 0.8086000384921E+00
 0.9337949476033E+00
 0.1043662865391E+01
 0.1140199528618E+01
 0.1225136088932E+01
 0.1299982694076E+01
 0.1366068741146E+01
 0.1424571318487E+01
 0.1476519094114E+01
 0.1522790885835E+01
 0.1564075766701E+01
 0.1600795835915E+01
 0.1633068421367E+01
 0.1660698064864E+01
 0.1683165751557E+01
 0.1699568842217E+01
 0.1708440309711E+01
 0.3099918428442E+00
 0.5024774115791E+00
 0.6704925368810E+00
 0.8170956717785E+00
 0.9453646402766E+00
 0.1057924255272E+01
 0.1156992197894E+01
 0.1244457124328E+01
 0.1321944570838E+01
 0.1390871241529E+01
 0.1452482085053E+01
 0.1507860992988E+01
 0.1557928592047E+01
 0.1603406992801E+01
 0.1644754391872E+01
 0.1682124760062E+01
 0.1715344678811E+01
 0.1743877541952E+01
 0.1766734022412E+01
 0.1782265805618E+01
 0.3039552703758E+00
 0.5024443722197E+00
 0.6749555493721E+00
 0.8250065011994E+00
 0.9560798661461E+00
 0.1071093939865E+01
 0.1172473916697E+01
 0.1262256895425E+01
 0.1342177962952E+01
 0.1413737302857E+01
 0.1478245192375E+01
 0.1536838669724E+01
 0.1590479723816E+01
 0.1639923683061E+01
 0.1685661503664E+01
 0.1727875580160E+01
 0.1766402072884E+01
 0.1800673179848E+01
 0.1829604613596E+01
 0.1851377929717E+01
 0.2986406864816E+00
 0.5025329333661E+00
 0.6790908409480E+00
 0.8322407493494E+00
 0.9658322124854E+00
 0.1083050660900E+01
 0.1186511339538E+01
 0.1278388313604E+01
 0.1360518509540E+01
 0.1434480309843E+01
 0.1501645644570E+01
 0.1563201806658E+01
 0.1620150611062E+01
 0.1673279459442E+01
 0.1723108221309E+01
 0.1769840283761E+01
 0.1813311309201E+01
 0.1852912442303E+01
 0.1887459546270E+01
 0.1914970881673E+01
 0.2940662066363E+00
 0.5027148106219E+00
 0.6828372506317E+00
 0.8387152810695E+00
 0.9745231920020E+00
 0.1093683781553E+01
 0.1198982165125E+01
 0.1292715739300E+01
 0.1376813862357E+01
 0.1452926495321E+01
 0.1522482482980E+01
 0.1586715714870E+01
 0.1646665440677E+01
 0.1703149144978E+01
 0.1756711760147E+01
 0.1807571512083E+01
 0.1855556298620E+01
 0.1900010446324E+01
 0.1939649051718E+01
 0.1972333313364E+01
 0.2902474594947E+00
 0.5029649175309E+00
 0.6861405839589E+00
 0.8443563474941E+00
 0.9820651924251E+00
 0.1102894476016E+01
 0.1209776614196E+01
 0.1305116803348E+01
 0.1390925920148E+01
 0.1468917680567E+01
 0.1540572152663E+01
 0.1607165483656E+01
 0.1669771325464E+01
 0.1729234783686E+01
 0.1786122362137E+01
 0.1840662546710E+01
 0.1892671189921E+01
 0.1941444214412E+01
 0.1985599475115E+01
 0.2022849755377E+01
 0.2871974890159E+00
 0.5032615838698E+00
 0.6889541166561E+00
 0.8491002865350E+00
 0.9883823623296E+00
 0.1110596829207E+01
 0.1218798788856E+01
 0.1315484082142E+01
 0.1402732889523E+01
 0.1482313808871E+01
 0.1555751610477E+01
 0.1624359778446E+01
 0.1689242872367E+01
 0.1751270955513E+01
 0.1811029189069E+01
 0.1868753420061E+01
 0.1924246112838E+01
 0.1976757254706E+01
 0.2024815628949E+01
 0.2065998627339E+01
 0.2849267046887E+00
 0.5035867589632E+00
 0.6912390516561E+00
 0.8528941546111E+00
 0.9934114054906E+00
 0.1116718818189E+01
 0.1225967883322E+01
 0.1323726591468E+01
 0.1412131127659E+01
 0.1492995214574E+01
 0.1567881103984E+01
 0.1638134211998E+01
 0.1704886186250E+01
 0.1769029353660E+01
 0.1831165277567E+01
 0.1891535879581E+01
 0.1949931593090E+01
 0.2005562672033E+01
 0.2056881544411E+01
 0.2101348541755E+01
 0.2834428666469E+00
 0.5039261940445E+00
 0.6929649182106E+00
 0.8556962751272E+00
 0.9971022675126E+00
 0.1121203157460E+01
 0.1231219225167E+01
 0.1329771072122E+01
 0.1419036730731E+01
 0.1500864580331E+01
 0.1576846564202E+01
 0.1648354229997E+01
 0.1716542262399E+01
 0.1782322609238E+01
 0.1846311600973E+01
 0.1908757346266E+01
 0.1969441905337E+01
 0.2027545223187E+01
 0.2081460241459E+01
 0.2128553934344E+01
 0.2827510928781E+00
 0.5042695976170E+00
 0.6941099010939E+00
 0.8574766878059E+00
 0.9994186962503E+00
 0.1124007987207E+01
 0.1234505122690E+01
 0.1333563037557E+01
 0.1423386830997E+01
 0.1505848537730E+01
 0.1582561561817E+01
 0.1654917462565E+01
 0.1724089734209E+01
 0.1791007362611E+01
 0.1856300293107E+01
 0.1920224000588E+01
 0.1982557599619E+01
 0.2042462687650E+01
 0.2098293031273E+01
 0.2147350829990E+01
 0.2828538759834E+00
 0.5046107589655E+00
 0.6946610908272E+00
 0.8582174872164E+00
 0.1000338662397E+01
 0.1125107388784E+01
 0.1235795499624E+01
 0.1335067560304E+01
 0.1425140573745E+01
 0.1507898876935E+01
 0.1584968789321E+01
 0.1657755507279E+01
 0.1727446955652E+01
 0.1794986589826E+01
 0.1861017087954E+01
 0.1925803112026E+01
 0.1989127390105E+01
 0.2050146862748E+01
 0.2107198875735E+01
 0.2157553235787E+01
 0.2837511002539E+00
 0.5049476362910E+00
 0.6946146483412E+00
 0.8579130419232E+00
 0.9998546300086E+00
 0.1124491715270E+01
 0.1235078302425E+01
 0.1334269778930E+01
 0.1424279751657E+01
 0.1506993338927E+01
 0.1584041040487E+01
 0.1656835117621E+01
 0.1726573402967E+01
 0.1794211190210E+01
 0.1860403016469E+01
 0.1925424700022E+01
 0.1989069553088E+01
 0.2050504375176E+01
 0.2108074258832E+01
 0.2159051157024E+01
 0.2854400541908E+00
 0.5052824073230E+00
 0.6939758800718E+00
 0.8565700889945E+00
 0.9979736705156E+00
 0.1122167729168E+01
 0.1232359670219E+01
 0.1331175113104E+01
 0.1420809081337E+01
 0.1503135972293E+01
 0.1579781667264E+01
 0.1652158777404E+01
 0.1721470381297E+01
 0.1788680833578E+01
 0.1854455381738E+01
 0.1919082583192E+01
 0.1982372930142E+01
 0.2043517443396E+01
 0.2100893428534E+01
 0.2151810215060E+01
 0.2879154386873E+00
 0.5056214817997E+00
 0.6927592223947E+00
 0.8542077024298E+00
 0.9947174181929E+00
 0.1118158544287E+01
 0.1227663863269E+01
 0.1325809181266E+01
 0.1414756115006E+01
 0.1496357045926E+01
 0.1572224503570E+01
 0.1643764648535E+01
 0.1712181022207E+01
 0.1778444055027E+01
 0.1843228010073E+01
 0.1906834834674E+01
 0.1969097591442E+01
 0.2029244668527E+01
 0.2085709118377E+01
 0.2135872211975E+01
 0.2911693766970E+00
 0.5059754767253E+00
 0.6909881371521E+00
 0.8508571376485E+00
 0.9901218691340E+00
 0.1112503373324E+01
 0.1221032950813E+01
 0.1318217421414E+01
 0.1406170787732E+01
 0.1486712517527E+01
 0.1561433254019E+01
 0.1631725885156E+01
 0.1698789556398E+01
 0.1763597571326E+01
 0.1826830745052E+01
 0.1888803615238E+01
 0.1949375152589E+01
 0.2007821916051E+01
 0.2062654062021E+01
 0.2111357663384E+01
 0.2951914339175E+00
 0.5063591567833E+00
 0.6886949231356E+00
 0.8465615585442E+00
 0.9842370308422E+00
 0.1105257088144E+01
 0.1212526265255E+01
 0.1308464422612E+01
 0.1395124609205E+01
 0.1474283068040E+01
 0.1547500356646E+01
 0.1616149316110E+01
 0.1681419847765E+01
 0.1744284781314E+01
 0.1805428120335E+01
 0.1865174302433E+01
 0.1923408670257E+01
 0.1979463259470E+01
 0.2031943293413E+01
 0.2078470296124E+01
 0.2999686635715E+00
 0.5067913428088E+00
 0.6859204491830E+00
 0.8413756547079E+00
 0.9771264305729E+00
 0.1096489600622E+01
 0.1202219630598E+01
 0.1296632976654E+01
 0.1381709512733E+01
 0.1459172718590E+01
 0.1530545337657E+01
 0.1597173506857E+01
 0.1660233179391E+01
 0.1720693405053E+01
 0.1779237117629E+01
 0.1836193775341E+01
 0.1891471959235E+01
 0.1944461837312E+01
 0.1993877067293E+01
 0.2037503240942E+01
 0.3054856915008E+00
 0.5072947938353E+00
 0.6827138219739E+00
 0.8353651659493E+00
 0.9688665008045E+00
 0.1086285081599E+01
 0.1190204381812E+01
 0.1282822867630E+01
 0.1366036383011E+01
 0.1441507057021E+01
 0.1510712689178E+01
 0.1574966224915E+01
 0.1635425289660E+01
 0.1693052210964E+01
 0.1748523883410E+01
 0.1802167634766E+01
 0.1853908031079E+01
 0.1903190307100E+01
 0.1948844024084E+01
 0.1988846233590E+01
 0.3117248425932E+00
 0.5078960639440E+00
 0.6791319985526E+00
 0.8286063315862E+00
 0.9595458618442E+00
 0.1074741037511E+01
 0.1176586194390E+01
 0.1267149421177E+01
 0.1348233291427E+01
 0.1421431114451E+01
 0.1488169323414E+01
 0.1549721364315E+01
 0.1607222691659E+01
 0.1661626812282E+01
 0.1713599298397E+01
 0.1763456115149E+01
 0.1811126242698E+01
 0.1856100383663E+01
 0.1897324172855E+01
 0.1932993318097E+01
 0.3186663225949E+00
 0.5086253395745E+00
 0.6752393633505E+00
 0.8211852922978E+00
 0.9492645301621E+00
 0.1061967269809E+01
 0.1161483746530E+01
 0.1249741837113E+01
 0.1328443469601E+01
 0.1399106937457E+01
 0.1463101671904E+01
 0.1521655412848E+01
 0.1575878344266E+01
 0.1626714543487E+01
 0.1674813317364E+01
 0.1720468457408E+01
 0.1763597632210E+01
 0.1803720598138E+01
 0.1839890707018E+01
 0.1870549735428E+01
 0.3262884471428E+00
 0.5095162547424E+00
 0.6711072914526E+00
 0.8131974808861E+00
 0.9381330879249E+00
 0.1048084745136E+01
 0.1145027236785E+01
 0.1230741328201E+01
 0.1306823047985E+01
 0.1374710896530E+01
 0.1435712502483E+01
 0.1491003571329E+01
 0.1541666784918E+01
 0.1588638459949E+01
 0.1632547995101E+01
 0.1673655547581E+01
 0.1711847992280E+01
 0.1746650979090E+01
 0.1777208384838E+01
 0.1802234285285E+01
 0.3345678986747E+00
 0.5106056772714E+00
 0.6668137290589E+00
 0.8047470494092E+00
 0.9262718505146E+00
 0.1033224394137E+01
 0.1127356766939E+01
 0.1210299075013E+01
 0.1283538569191E+01
 0.1348430743879E+01
 0.1406217503623E+01
 0.1458015644562E+01
 0.1504878898914E+01
 0.1547740573110E+01
 0.1587209115398E+01
 0.1623500549267E+01
 0.1656448553805E+01
 0.1685553905406E+01
 0.1710024324764E+01
 0.1728870044105E+01
 0.3434799579101E+00
 0.5119334456177E+00
 0.6624428502141E+00
 0.7959464245651E+00
 0.9138100944583E+00
 0.1017525872559E+01
 0.1108620623922E+01
 0.1188574051346E+01
 0.1258764338104E+01
 0.1320462475787E+01
 0.1374841717707E+01
 0.1422951913601E+01
 0.1465816711130E+01
 0.1504374773584E+01
 0.1539216561459E+01
 0.1570507252614E+01
 0.1598004071428E+01
 0.1621142818610E+01
 0.1639150600305E+01
 0.1651353758737E+01
 0.3529986050737E+00
 0.5135420103341E+00
 0.6580849257711E+00
 0.7869161437423E+00
 0.9008854119535E+00
 0.1001136264112E+01
 0.1088973455967E+01
 0.1165730749493E+01
 0.1232679638586E+01
 0.1291006976496E+01
 0.1341815741884E+01
 0.1386078969098E+01
 0.1424788564600E+01
 0.1458900090224E+01
 0.1488993840999E+01
 0.1515185283035E+01
 0.1537136948579E+01
 0.1554169556860E+01
 0.1565453491762E+01
 0.1570638991393E+01
 0.3630961889799E+00
 0.5154759230119E+00
 0.6538366626333E+00
 0.7777853018863E+00
 0.8876431901852E+00
 0.9842086355965E+00
 0.1068574311122E+01
 0.1141936918928E+01
 0.1205465934993E+01
 0.1260266491846E+01
 0.1307371659642E+01
 0.1347665337424E+01
 0.1382104859898E+01
 0.1411675964368E+01
 0.1436958324234E+01
 0.1458032248473E+01
 0.1474463905983E+01
 0.1485408186496E+01
 0.1489853442663E+01
 0.1487750748841E+01
 0.3737420824966E+00
 0.5177808283927E+00
 0.6498031255242E+00
 0.7686930592753E+00
 0.8742362029531E+00
 0.9668999946369E+00
 0.1047584549118E+01
 0.1117361475522E+01
 0.1177304222176E+01
 0.1228440913574E+01
 0.1271738528663E+01
 0.1307976570648E+01
 0.1338073295288E+01
 0.1363060057544E+01
 0.1383518567337E+01
 0.1399512744434E+01
 0.1410560659383E+01
 0.1415623443693E+01
 0.1413324958407E+01
 0.1403787104469E+01
 0.3848976719679E+00
 0.5205035985425E+00
 0.6461026321518E+00
 0.7597934570941E+00
 0.8608226019484E+00
 0.9493681181132E+00
 0.1026165680904E+01
 0.1092173097088E+01
 0.1148372705516E+01
 0.1195724082643E+01
 0.1235137318925E+01
 0.1267269513023E+01
 0.1292993347355E+01
 0.1313404091261E+01
 0.1329083192970E+01
 0.1340063370566E+01
 0.1345887996781E+01
 0.1345508618477E+01
 0.1336888018246E+01
 0.1319967401469E+01
 0.3965040627148E+00
 0.5236843970800E+00
 0.6428957310466E+00
 0.7512577066435E+00
 0.8475591293704E+00
 0.9317681522732E+00
 0.1004477193175E+01
 0.1066539103663E+01
 0.1118847477083E+01
 0.1162298694120E+01
 0.1197775290350E+01
 0.1225786770524E+01
 0.1247148332520E+01
 0.1263048620062E+01
 0.1274056726280E+01
 0.1280153619073E+01
 0.1280814046236E+01
 0.1275337776945E+01
 0.1261644866924E+01
 0.1237868259325E+01
 0.4083675151427E+00
 0.5274952016020E+00
 0.6404283415090E+00
 0.7432554722937E+00
 0.8345911642419E+00
 0.9142497245266E+00
 0.9826768338608E+00
 0.1040621034525E+01
 0.1088903833468E+01
 0.1128346563532E+01
 0.1159818414227E+01
 0.1183754351372E+01
 0.1200815301302E+01
 0.1212288909840E+01
 0.1218839409192E+01
 0.1220272831880E+01
 0.1215925036295E+01
 0.1204975547025E+01
 0.1187031448525E+01
 0.1161684168232E+01
 0.1081372371660E+01
 0.4123437710082E+00
 0.8212815758598E-01
 0.6451700320309E-02
 0.5818923534383E-01
 0.9297382955982E-01
 0.1188865485736E+00
 0.1383294387332E+00
 0.1516711572179E+00
 0.1587023230439E+00
 0.1583643333333E+00
 0.1488958808606E+00
 0.1289668984419E+00
 0.1010003440198E+00
 0.6751415806015E-01
 0.3122061339508E-01
 0.8017130053715E-02
 0.4096874936013E-01
 0.7619595585896E-01
 0.1201333323741E+00
 0.1117834567338E+01
 0.7893591113358E+00
 0.3099587987116E+00
 0.1178999848243E+00
 0.2874766876538E-01
 0.2579463232031E-01
 0.6242996558416E-01
 0.8881090069175E-01
 0.1076721225203E+00
 0.1197402445106E+00
 0.1247621502267E+00
 0.1233427967092E+00
 0.1133525038583E+00
 0.9353353031910E-01
 0.6610318877693E-01
 0.3443625033776E-01
 0.4851216488349E-02
 0.3052004167653E-01
 0.6264549227585E-01
 0.9541206908393E-01
 0.1033662469183E+01
 0.9019642492025E+00
 0.5288665883460E+00
 0.2693840076963E+00
 0.1340137994168E+00
 0.5530870001800E-01
 0.4207452995575E-02
 0.3176530937019E-01
 0.5760668670761E-01
 0.7587491284032E-01
 0.8740643130906E-01
 0.9330245742267E-01
 0.9138214932681E-01
 0.7900217122848E-01
 0.5803941394688E-01
 0.3188449790795E-01
 0.5039530140861E-02
 0.2372460083282E-01
 0.4996887930223E-01
 0.7284042677278E-01
 0.9488163696419E+00
 0.9203427305209E+00
 0.6611864537491E+00
 0.4158011784581E+00
 0.2502199728929E+00
 0.1471257189619E+00
 0.7962788285896E-01
 0.3276122315964E-01
 0.1336916417269E-02
 0.2667802754044E-01
 0.4503923933119E-01
 0.5797637570726E-01
 0.6346787688742E-01
 0.5817582582517E-01
 0.4372762119685E-01
 0.2356550788781E-01
 0.1879425915348E-02
 0.2076632720475E-01
 0.4052095307295E-01
 0.5507564765663E-01
 0.8740974830570E+00
 0.9009353168790E+00
 0.7327485438567E+00
 0.5284264774340E+00
 0.3617324698946E+00
 0.2434716488823E+00
 0.1616797970367E+00
 0.1036747831678E+00
 0.6083981908644E-01
 0.2806143882417E-01
 0.3040624739496E-02
 0.1706696078580E-01
 0.2959722578309E-01
 0.3122965581349E-01
 0.2332110035936E-01
 0.9417645221894E-02
 0.6857275939040E-02
 0.2280437444107E-01
 0.3610243825094E-01
 0.4371176728928E-01
 0.8108333979878E+00
 0.8663756915542E+00
 0.7658253598187E+00
 0.6076863511017E+00
 0.4568107282157E+00
 0.3362854437861E+00
 0.2459213151841E+00
 0.1788560091617E+00
 0.1279451659845E+00
 0.8796318455675E-01
 0.5599184681803E-01
 0.2974999365411E-01
 0.1060713805913E-01
 0.2912493979504E-02
 0.3927067046350E-02
 0.1107897849646E-01
 0.2111385226827E-01
 0.3094197552792E-01
 0.3815190889327E-01
 0.4005824217729E-01
 0.7576671894289E+00
 0.8269598295981E+00
 0.7753724528161E+00
 0.6600898538148E+00
 0.5328171887008E+00
 0.4197669871120E+00
 0.3278292532092E+00
 0.2555056538325E+00
 0.1984162542800E+00
 0.1522511284193E+00
 0.1142281872502E+00
 0.8197492760878E-01
 0.5641672254096E-01
 0.4153370112205E-01
 0.3660706644601E-01
 0.3795584673705E-01
 0.4206869047183E-01
 0.4607682403747E-01
 0.4777165539993E-01
 0.4506740762680E-01
 0.7128543144753E+00
 0.7875774757435E+00
 0.7709905761252E+00
 0.6925907372643E+00
 0.5912006201623E+00
 0.4916346757630E+00
 0.4041027236081E+00
 0.3308961915322E+00
 0.2703939892757E+00
 0.2197679283729E+00
 0.1768400857803E+00
 0.1394439297737E+00
 0.1082584157091E+00
 0.8733382024021E-01
 0.7641468027332E-01
 0.7189333429380E-01
 0.7036787587005E-01
 0.6898092649461E-01
 0.6575739654846E-01
 0.5927813663794E-01
 0.6747685581164E+00
 0.7505280029986E+00
 0.7588138293044E+00
 0.7110235833691E+00
 0.6348945456024E+00
 0.5518795873310E+00
 0.4730771951117E+00
 0.4029754858621E+00
 0.3421221384854E+00
 0.2892238165620E+00
 0.2429570539965E+00
 0.2016013180779E+00
 0.1657357426848E+00
 0.1394847330727E+00
 0.1231230540192E+00
 0.1132189166020E+00
 0.1065314952710E+00
 0.1002526671679E+00
 0.9264622714547E-01
 0.8291796008035E-01
 0.6420304046125E+00
 0.7167929862011E+00
 0.7427584171969E+00
 0.7199129980368E+00
 0.6670596865544E+00
 0.6016836398409E+00
 0.5343603247218E+00
 0.4705456092952E+00
 0.4122277649490E+00
 0.3594053976742E+00
 0.3116360703547E+00
 0.2677769897699E+00
 0.2284315007921E+00
 0.1978056050159E+00
 0.1767578996066E+00
 0.1621271937947E+00
 0.1508687985137E+00
 0.1402351390039E+00
 0.1286849128730E+00
 0.1159270907172E+00
 0.6135095372648E+00
 0.6866628721653E+00
 0.7253085430419E+00
 0.7226404368152E+00
 0.6905736957717E+00
 0.6427079575800E+00
 0.5883673988918E+00
 0.5331412961026E+00
 0.4798116933830E+00
 0.4293150866836E+00
 0.3819700591143E+00
 0.3372333807147E+00
 0.2958074444804E+00
 0.2619655314188E+00
 0.2371653857234E+00
 0.2185926872572E+00
 0.2034249924197E+00
 0.1889717684238E+00
 0.1738044805791E+00
 0.1579494290331E+00
 0.5882942641412E+00
 0.6600631472186E+00
 0.7080098478913E+00
 0.7216749901604E+00
 0.7078615937031E+00
 0.6766927210090E+00
 0.6359414466545E+00
 0.5908182378784E+00
 0.5444032780447E+00
 0.4982192554023E+00
 0.4531579930986E+00
 0.4092183620243E+00
 0.3672239670623E+00
 0.3314683498105E+00
 0.3039745418985E+00
 0.2823271235757E+00
 0.2639463732211E+00
 0.2461906338231E+00
 0.2276347386049E+00
 0.2083772772966E+00
 0.5656553013340E+00
 0.6367313197071E+00
 0.6917836781094E+00
 0.7187805358885E+00
 0.7208747988282E+00
 0.7052521706469E+00
 0.6780923193136E+00
 0.6439490321055E+00
 0.6058573167234E+00
 0.5656293464366E+00
 0.5245306269425E+00
 0.4830009411030E+00
 0.4419652356128E+00
 0.4056586298764E+00
 0.3765857285719E+00
 0.3527583660912E+00
 0.3318619842876E+00
 0.3113044377776E+00
 0.2895398728482E+00
 0.2664247992454E+00
 0.5450126177406E+00
 0.6163157675189E+00
 0.6771312090226E+00
 0.7151818238925E+00
 0.7311285081725E+00
 0.7297820179123E+00
 0.7158333319067E+00
 0.6930618574347E+00
 0.6642418008712E+00
 0.6312491684121E+00
 0.5955433246615E+00
 0.5578883646464E+00
 0.5192632746507E+00
 0.4837413109195E+00
 0.4541812424651E+00
 0.4290314799796E+00
 0.4062797617515E+00
 0.3834146248031E+00
 0.3586542819450E+00
 0.3312049471041E+00
 0.5259073443288E+00
 0.5984318688271E+00
 0.6642688905057E+00
 0.7116924441395E+00
 0.7397575130686E+00
 0.7514277729060E+00
 0.7500865050526E+00
 0.7387253295672E+00
 0.7197397863381E+00
 0.6949126000006E+00
 0.6657508280793E+00
 0.6332294233952E+00
 0.5983206260546E+00
 0.5648156067426E+00
 0.5357625382954E+00
 0.5100385533083E+00
 0.4859982363849E+00
 0.4613085953228E+00
 0.4338969536618E+00
 0.4017971352970E+00
 0.5079785536311E+00
 0.5826937706633E+00
 0.6532202581784E+00
 0.7088126435024E+00
 0.7475740970689E+00
 0.7710849217932E+00
 0.7816326719243E+00
 0.7814720955645E+00
 0.7725728352143E+00
 0.7565254227749E+00
 0.7347753602071E+00
 0.7084088400138E+00
 0.6783302281226E+00
 0.6479226088880E+00
 0.6202226279330E+00
 0.5944944592642E+00
 0.5695503217760E+00
 0.5434441238293E+00
 0.5139380314967E+00
 0.4772899667448E+00
 0.4909439018149E+00
 0.5687315646709E+00
 0.6438791976105E+00
 0.7068046526222E+00
 0.7551223245993E+00
 0.7894154674414E+00
 0.8110899795303E+00
 0.8217516963126E+00
 0.8229458955732E+00
 0.8160176963330E+00
 0.8022755539861E+00
 0.7828353835124E+00
 0.7584867388343E+00
 0.7320917501095E+00
 0.7064528452280E+00
 0.6810946836601E+00
 0.6553258913188E+00
 0.6279503727086E+00
 0.5970729161347E+00
 0.5567728688523E+00
 0.4745832847764E+00
 0.5561990093651E+00
 0.6360539933823E+00
 0.7057517473676E+00
 0.7627281162531E+00
 0.8068733982751E+00
 0.8389102347669E+00
 0.8599036824528E+00
 0.8710102720929E+00
 0.8733086378513E+00
 0.8679217152534E+00
 0.8559272562694E+00
 0.8379796083828E+00
 0.8163560559007E+00
 0.7934155883872E+00
 0.7687618973042E+00
 0.7419378110371E+00
 0.7127267015321E+00
 0.6809997972856E+00
 0.6391593430588E+00
 0.4587245059290E+00
 0.5447759360679E+00
 0.6294953427327E+00
 0.7056067090387E+00
 0.7705484032627E+00
 0.8237360749163E+00
 0.8653865945468E+00
 0.8961440004827E+00
 0.9168369955986E+00
 0.9282848842627E+00
 0.9313837550397E+00
 0.9271046159624E+00
 0.9159753787890E+00
 0.8997042952372E+00
 0.8800901510677E+00
 0.8566553446682E+00
 0.8288840984839E+00
 0.7964710034923E+00
 0.7622715056852E+00
 0.7226813326884E+00
 0.4432467028887E+00
 0.5341453697529E+00
 0.6239038547950E+00
 0.7062449115127E+00
 0.7786272977153E+00
 0.8401383771441E+00
 0.8906660757935E+00
 0.9305625994590E+00
 0.9603947222707E+00
 0.9807674220493E+00
 0.9923530641523E+00
 0.9958207105056E+00
 0.9916069745744E+00
 0.9810356226389E+00
 0.9652714618823E+00
 0.9437844890341E+00
 0.9158525603693E+00
 0.8807628981386E+00
 0.8397468707155E+00
 0.8013746473012E+00
 0.4219915805796E+00
 0.5348867152275E+00
 0.6419888378226E+00
 0.7387420730924E+00
 0.8238556002694E+00
 0.8972226750678E+00
 0.9592874495914E+00
 0.1010819881059E+01
 0.1052705750078E+01
 0.1085786272622E+01
 0.1110921486441E+01
 0.1128929516693E+01
 0.1140298188394E+01
 0.1146510961248E+01
 0.1148886680491E+01
 0.1146899226196E+01
 0.1139804557108E+01
 0.1126839134422E+01
 0.1109174122760E+01
 0.1095950479251E+01
 0.4372119733916E+00
 0.5449146191473E+00
 0.6466052126819E+00
 0.7368918111550E+00
 0.8145018184196E+00
 0.8796400527797E+00
 0.9330254416232E+00
 0.9756618702327E+00
 0.1008642882466E+01
 0.1032968289806E+01
 0.1049672260612E+01
 0.1059833785018E+01
 0.1063961392105E+01
 0.1063973994934E+01
 0.1061922322458E+01
 0.1057332672405E+01
 0.1049694769662E+01
 0.1038763111481E+01
 0.1027518244505E+01
 0.1012758222269E+01
 0.4527492281809E+00
 0.5554598983784E+00
 0.6517209346800E+00
 0.7351868320155E+00
 0.8046256139322E+00
 0.8606784203266E+00
 0.9045032335513E+00
 0.9374548689885E+00
 0.9608879358940E+00
 0.9759993712225E+00
 0.9839977346106E+00
 0.9860256538791E+00
 0.9826881776644E+00
 0.9765566330249E+00
 0.9703603344666E+00
 0.9637381303697E+00
 0.9562922502385E+00
 0.9479305900776E+00
 0.9387649464983E+00
 0.9216208752229E+00
 0.4687362964392E+00
 0.5668048038002E+00
 0.6576016942529E+00
 0.7337431683379E+00
 0.7942032284669E+00
 0.8402559378427E+00
 0.8736556274410E+00
 0.8962140987439E+00
 0.9095982317448E+00
 0.9152039578033E+00
 0.9143739849397E+00
 0.9082505711434E+00
 0.8975599826538E+00
 0.8855681301277E+00
 0.8755936325381E+00
 0.8672484020481E+00
 0.8599542115915E+00
 0.8526879208913E+00
 0.8438745105049E+00
 0.8280258374127E+00
 0.4853263666831E+00
 0.5792494437244E+00
 0.6644803253233E+00
 0.7326192099216E+00
 0.7831251709892E+00
 0.8181779877565E+00
 0.8403038037040E+00
 0.8518652252732E+00
 0.8548691007783E+00
 0.8508872988456E+00
 0.8413518598317E+00
 0.8273376131580E+00
 0.8096866013973E+00
 0.7923117746360E+00
 0.7789234146663E+00
 0.7689383438173E+00
 0.7613379177224E+00
 0.7543857431839E+00
 0.7462368032244E+00
 0.7336975588474E+00
 0.5027120453939E+00
 0.5931117192870E+00
 0.6725428751608E+00
 0.7317631690712E+00
 0.7711390905165E+00
 0.7941027713964E+00
 0.8041408659910E+00
 0.8042415376666E+00
 0.7967482395316E+00
 0.7833572851855E+00
 0.7655198651345E+00
 0.7441639015017E+00
 0.7202145290190E+00
 0.6981241664880E+00
 0.6817661889468E+00
 0.6702422274389E+00
 0.6621334546223E+00
 0.6553525288208E+00
 0.6483164449896E+00
 0.6398232474136E+00
 0.5211406130509E+00
 0.6087289862687E+00
 0.6818977892762E+00
 0.7309647864177E+00
 0.7578013204920E+00
 0.7675089361689E+00
 0.7647208542350E+00
 0.7530914058466E+00
 0.7352532025549E+00
 0.7129345196546E+00
 0.6875050727961E+00
 0.6596512154564E+00
 0.6303342213480E+00
 0.6044150005574E+00
 0.5857069933845E+00
 0.5729520618172E+00
 0.5644203759110E+00
 0.5578870494703E+00
 0.5521812031660E+00
 0.5475616686344E+00
 0.5409305116864E+00
 0.6264515693255E+00
 0.6925347586907E+00
 0.7297986525024E+00
 0.7424282792640E+00
 0.7376691646765E+00
 0.7214582571438E+00
 0.6980977957835E+00
 0.6703982451766E+00
 0.6399754660192E+00
 0.6079846689395E+00
 0.5747663059371E+00
 0.5412711689161E+00
 0.5126350848489E+00
 0.4924106652886E+00
 0.4789581271084E+00
 0.4702915636492E+00
 0.4641460643237E+00
 0.4597177936855E+00
 0.4582391369719E+00
 0.5624895717873E+00
 0.6466273694301E+00
 0.7042661354341E+00
 0.7275538608580E+00
 0.7240447809220E+00
 0.7036325397289E+00
 0.6736443332659E+00
 0.6389166397439E+00
 0.6022380651623E+00
 0.5649068700979E+00
 0.5277022083422E+00
 0.4905155621740E+00
 0.4542536997478E+00
 0.4242043170895E+00
 0.4034852313988E+00
 0.3900588198644E+00
 0.3816985062590E+00
 0.3761176386490E+00
 0.3727495436194E+00
 0.3733820557357E+00
 0.5863364443280E+00
 0.6695725865557E+00
 0.7166422545425E+00
 0.7231434793229E+00
 0.7013297490388E+00
 0.6642226080350E+00
 0.6204901015781E+00
 0.5752425850789E+00
 0.5309315309484E+00
 0.4882698177970E+00
 0.4474838445745E+00
 0.4079318603183E+00
 0.3704690275293E+00
 0.3404324858115E+00
 0.3203695052362E+00
 0.3078383216135E+00
 0.3003599866793E+00
 0.2955976773411E+00
 0.2930530739074E+00
 0.2946927104685E+00
 0.6131262623344E+00
 0.6955197347943E+00
 0.7288265795086E+00
 0.7149866427807E+00
 0.6725644584064E+00
 0.6180654505481E+00
 0.5612112437106E+00
 0.5069108786290E+00
 0.4568256198012E+00
 0.4107678264077E+00
 0.3682484991018E+00
 0.3280529978947E+00
 0.2910162212623E+00
 0.2624517763167E+00
 0.2442508998056E+00
 0.2335813709909E+00
 0.2276899832297E+00
 0.2241379071150E+00
 0.2223102172476E+00
 0.2239860490537E+00
 0.6436807484905E+00
 0.7245260357930E+00
 0.7394075657300E+00
 0.7008559167123E+00
 0.6355984594491E+00
 0.5636746385177E+00
 0.4951768243996E+00
 0.4340422322162E+00
 0.3805527785182E+00
 0.3333067444104E+00
 0.2910025245018E+00
 0.2518892710584E+00
 0.2168607185636E+00
 0.1911660967571E+00
 0.1760107111032E+00
 0.1682137353325E+00
 0.1647316180518E+00
 0.1629693908949E+00
 0.1620139330438E+00
 0.1630928404104E+00
 0.6790208866097E+00
 0.7563094682528E+00
 0.7461089896980E+00
 0.6776873660318E+00
 0.5878702319863E+00
 0.4996406866557E+00
 0.4221484454524E+00
 0.3572272850585E+00
 0.3031201696095E+00
 0.2570044427836E+00
 0.2168061019655E+00
 0.1803775286866E+00
 0.1487934755347E+00
 0.1272205915999E+00
 0.1161982673235E+00
 0.1122691014687E+00
 0.1121024339691E+00
 0.1129141675939E+00
 0.1133431451979E+00
 0.1137261161390E+00
 0.7203939904455E+00
 0.7899466782515E+00
 0.7453349937491E+00
 0.6413697559521E+00
 0.5265662847712E+00
 0.4250014284389E+00
 0.3426292126534E+00
 0.2777177879639E+00
 0.2259456401304E+00
 0.1831398431692E+00
 0.1467013845411E+00
 0.1143237680420E+00
 0.8740088177828E-01
 0.7099745083038E-01
 0.6503961326812E-01
 0.6588999815675E-01
 0.6996373986254E-01
 0.7430313961508E-01
 0.7702219467068E-01
 0.7730894648235E-01
 0.7692695548224E+00
 0.8232925191791E+00
 0.7314452215994E+00
 0.5865946432629E+00
 0.4490968907394E+00
 0.3399006081482E+00
 0.2582898676798E+00
 0.1975333972417E+00
 0.1507683194134E+00
 0.1130190777050E+00
 0.8160731427146E-01
 0.5434732061693E-01
 0.3306563545529E-01
 0.2266898751602E-01
 0.2250391300064E-01
 0.2887431360911E-01
 0.3803005366206E-01
 0.4692598585058E-01
 0.5319440240663E-01
 0.5478325134746E-01
 0.8272173782278E+00
 0.8518007838871E+00
 0.6956026872501E+00
 0.5070407370992E+00
 0.3542655743508E+00
 0.2465874744021E+00
 0.1722991025693E+00
 0.1192887433700E+00
 0.7938415661578E-01
 0.4777753456985E-01
 0.2221679786799E-01
 0.1730772327273E-02
 0.1428901791064E-01
 0.1811450671536E-01
 0.1194619833308E-01
 0.1273691272992E-02
 0.1563658320094E-01
 0.3005335536831E-01
 0.4135856268285E-01
 0.4645982027079E-01
 0.8954336871413E+00
 0.8659125064209E+00
 0.6240320957900E+00
 0.3968378147374E+00
 0.2446841447457E+00
 0.1505628871350E+00
 0.8892609241958E-01
 0.4562668355184E-01
 0.1327912835516E-01
 0.1183936388670E-01
 0.3120072579170E-01
 0.4621551401340E-01
 0.5421807779636E-01
 0.5101728270099E-01
 0.3811275377470E-01
 0.1913449660943E-01
 0.2112100942510E-02
 0.2255879351997E-01
 0.4033559841270E-01
 0.5182876727729E-01
 0.9725971704785E+00
 0.8446193635737E+00
 0.4962199033121E+00
 0.2558219391874E+00
 0.1314256940313E+00
 0.5937725781573E-01
 0.1220605942887E-01
 0.2147784425971E-01
 0.4665992109803E-01
 0.6549820135238E-01
 0.7855514213470E-01
 0.8674694908730E-01
 0.8719919664645E-01
 0.7652958810234E-01
 0.5664468042373E-01
 0.3115193350577E-01
 0.4846974529282E-02
 0.2296614555607E-01
 0.4815165373380E-01
 0.6924249505902E-01
 0.1048545577004E+01
 0.7354895489350E+00
 0.2884681653245E+00
 0.1110385800070E+00
 0.2907019900848E-01
 0.2122643844982E-01
 0.5553124693705E-01
 0.8102739462128E-01
 0.1001802847176E+00
 0.1134721327839E+00
 0.1203759322299E+00
 0.1212865138144E+00
 0.1133177052205E+00
 0.9461424861664E-01
 0.6756410533649E-01
 0.3574922932054E-01
 0.5408487485795E-02
 0.2952347034914E-01
 0.6202145317658E-01
 0.9598069007987E-01
 0.1011121416810E+01
 0.3801967240499E+00
 0.7399184358769E-01
 0.7366374030763E-02
 0.5557268140657E-01
 0.8829694409530E-01
 0.1133772565993E+00
 0.1330360072619E+00
 0.1474656135807E+00
 0.1562421245879E+00
 0.1580048016055E+00
 0.1507263563769E+00
 0.1323132422627E+00
 0.1047081468602E+00
 0.7071224625645E-01
 0.3322673277122E-01
 0.7862527805623E-02
 0.4173328371435E-01
 0.7841581560456E-01
 0.1275520656827E+00
 0.7954130181699E+00
 0.7146908148090E+00
 0.6373687994391E+00
 0.5620753603500E+00
 0.4883426551264E+00
 0.4168673656015E+00
 0.3486568949934E+00
 0.2848407396142E+00
 0.2265710539920E+00
 0.1749681556941E+00
 0.1310680324861E+00
 0.9576061781577E-01
 0.6971757261449E-01
 0.5332603553536E-01
 0.4665737084349E-01
 0.4942092355729E-01
 0.6084385312423E-01
 0.7974715761144E-01
 0.1048314193020E+00
 0.1361862895434E+00
 0.8632030552921E+00
 0.7895131588645E+00
 0.7097587676300E+00
 0.6293707395803E+00
 0.5500684455735E+00
 0.4727132736417E+00
 0.3981987198707E+00
 0.3275549281839E+00
 0.2619514265967E+00
 0.2026556819954E+00
 0.1509754451215E+00
 0.1081830300369E+00
 0.7541722654554E-01
 0.5356903383961E-01
 0.4320395825945E-01
 0.4453808329971E-01
 0.5722050510629E-01
 0.8021632420745E-01
 0.1122996260758E+00
 0.1524768580206E+00
 0.9336517888619E+00
 0.8624722287365E+00
 0.7850182515031E+00
 0.7038567552283E+00
 0.6215996992957E+00
 0.5398186007717E+00
 0.4597137894614E+00
 0.3824538234949E+00
 0.3093076713870E+00
 0.2416864123958E+00
 0.1811331986977E+00
 0.1292770064353E+00
 0.8774798681508E-01
 0.5804445773317E-01
 0.4137563420481E-01
 0.3863259734260E-01
 0.5021966581964E-01
 0.7544544201522E-01
 0.1126819877382E+00
 0.1596557444771E+00
 0.1009177286934E+01
 0.9394195667745E+00
 0.8640816385878E+00
 0.7840732614095E+00
 0.7011184460275E+00
 0.6168508492091E+00
 0.5326386354201E+00
 0.4497722849390E+00
 0.3696116679984E+00
 0.2936737871649E+00
 0.2236746713263E+00
 0.1615334873104E+00
 0.1093363244739E+00
 0.6923996591616E-01
 0.4327793272802E-01
 0.3317077162917E-01
 0.4044478659373E-01
 0.6544497186540E-01
 0.1065485787856E+00
 0.1607922253407E+00
 0.1089281224579E+01
 0.1021418014882E+01
 0.9484336831154E+00
 0.8704155480159E+00
 0.7883191573715E+00
 0.7033685859708E+00
 0.6168057808211E+00
 0.5298745742101E+00
 0.4439068437571E+00
 0.3604116128002E+00
 0.2811482053767E+00
 0.2081799480678E+00
 0.1439039160348E+00
 0.9104004554315E-01
 0.5252589914972E-01
 0.3119921978343E-01
 0.2975425278934E-01
 0.5082340980479E-01
 0.9407175915464E-01
 0.1563288332990E+00
 0.1173154177326E+01
 0.1108218031840E+01
 0.1038292002586E+01
 0.9631472587113E+00
 0.8832039142130E+00
 0.7992450098350E+00
 0.7122113032359E+00
 0.6231390478875E+00
 0.5331871845092E+00
 0.4437070788289E+00
 0.3563259445620E+00
 0.2730358067726E+00
 0.1962855530462E+00
 0.1290705500075E+00
 0.7499549607993E-01
 0.3819192113117E-01
 0.2275506199460E-01
 0.3373754812461E-01
 0.7525765520382E-01
 0.1455771407606E+00
 0.1259846626204E+01
 0.1198995798162E+01
 0.1133109987666E+01
 0.1061872677781E+01
 0.9853881699643E+00
 0.9040762880330E+00
 0.8185524851803E+00
 0.7295671333444E+00
 0.6380084365044E+00
 0.5449493554050E+00
 0.4517242303277E+00
 0.3600297603570E+00
 0.2720535792372E+00
 0.1906386708036E+00
 0.1194927842211E+00
 0.6343293479563E-01
 0.2843336054068E-01
 0.2100404646820E-01
 0.5193403594665E-01
 0.1271080737790E+00
 0.1348354427148E+01
 0.1292688436618E+01
 0.1231907858364E+01
 0.1165705758378E+01
 0.1094019196546E+01
 0.1017016511961E+01
 0.9350402535483E+00
 0.8485657831073E+00
 0.7581945061851E+00
 0.6646812765792E+00
 0.5689916356309E+00
 0.4723893068843E+00
 0.3765618425895E+00
 0.2838021400977E+00
 0.1972772158661E+00
 0.1214347515905E+00
 0.6259867266822E-01
 0.2950481280006E-01
 0.3557742278918E-01
 0.1028567503918E+00
 0.1437611117650E+01
 0.1388072280320E+01
 0.1333406385000E+01
 0.1273348344387E+01
 0.1207762866929E+01
 0.1136670937761E+01
 0.1060231380494E+01
 0.9787181454214E+00
 0.8925127244124E+00
 0.8021176648376E+00
 0.7081925845750E+00
 0.6116155314456E+00
 0.5135781769997E+00
 0.4157331033825E+00
 0.3204284702424E+00
 0.2310975077918E+00
 0.1529344375059E+00
 0.9413800914178E-01
 0.6878428471287E-01
 0.1069029600688E+00
 0.1526449486396E+01
 0.1483710029866E+01
 0.1435950010810E+01
 0.1382939691402E+01
 0.1324522968908E+01
 0.1260650899848E+01
 0.1191384179746E+01
 0.1116886223561E+01
 0.1037421238881E+01
 0.9533642105972E+00
 0.8652259628461E+00
 0.7736963782962E+00
 0.6797117159238E+00
 0.5845579607368E+00
 0.4900331209050E+00
 0.3987128796250E+00
 0.3144106220914E+00
 0.2430496923445E+00
 0.1945507433298E+00
 0.1887933860072E+00
 0.1613662345854E+01
 0.1578090491243E+01
 0.1537700826592E+01
 0.1492278988671E+01
 0.1441660159676E+01
 0.1385757144558E+01
 0.1324571289576E+01
 0.1258195274488E+01
 0.1186816414219E+01
 0.1110725650149E+01
 0.1030334716968E+01
 0.9462027110476E+00
 0.8590730906204E+00
 0.7699222950370E+00
 0.6800206058635E+00
 0.5910019027937E+00
 0.5049240558564E+00
 0.4242354170722E+00
 0.3513531344653E+00
 0.2850010110931E+00
 0.1698050853361E+01
 0.1669730244011E+01
 0.1636837527884E+01
 0.1599150475990E+01
 0.1556480736542E+01
 0.1508694413702E+01
 0.1455722994907E+01
 0.1397567824085E+01
 0.1334302101842E+01
 0.1266072769579E+01
 0.1193102407479E+01
 0.1115688964890E+01
 0.1034198212292E+01
 0.9490387930977E+00
 0.8605994994074E+00
 0.7691054579318E+00
 0.6742939200427E+00
 0.5746659279541E+00
 0.4655897125950E+00
 0.3342439559002E+00
 0.1778473785676E+01
 0.1757241735544E+01
 0.1731679454889E+01
 0.1701532668746E+01
 0.1666563926771E+01
 0.1626565952329E+01
 0.1581368358995E+01
 0.1530838367469E+01
 0.1474876587215E+01
 0.1413407762664E+01
 0.1346364361522E+01
 0.1273658112521E+01
 0.1195130535608E+01
 0.1110466798649E+01
 0.1019045197231E+01
 0.9196721538506E+00
 0.8101102973098E+00
 0.6862371712849E+00
 0.5406155683724E+00
 0.3617822939890E+00
 0.1853881212578E+01
 0.1839371121757E+01
 0.1820737948951E+01
 0.1797672201031E+01
 0.1769860667347E+01
 0.1736993129287E+01
 0.1698763343906E+01
 0.1654863891245E+01
 0.1604974390237E+01
 0.1548741580132E+01
 0.1485748051647E+01
 0.1415464010488E+01
 0.1337173101644E+01
 0.1249858518295E+01
 0.1152028957353E+01
 0.1041456099303E+01
 0.9147950977791E+00
 0.7671007031467E+00
 0.5916036616389E+00
 0.3812287787319E+00
 0.1923333877848E+01
 0.1915017953771E+01
 0.1902736060574E+01
 0.1886103958226E+01
 0.1864710880203E+01
 0.1838120277987E+01
 0.1805865275894E+01
 0.1767438052525E+01
 0.1722272092277E+01
 0.1669715471831E+01
 0.1608992187437E+01
 0.1539147094177E+01
 0.1458968463844E+01
 0.1366880934598E+01
 0.1260802166106E+01
 0.1137963763073E+01
 0.9947237169496E+00
 0.8264952643200E+00
 0.6281596135713E+00
 0.3964513552822E+00
 0.1986011900731E+01
 0.1983241482486E+01
 0.1976608894755E+01
 0.1965641762095E+01
 0.1949818137596E+01
 0.1928562240333E+01
 0.1901235558374E+01
 0.1867122569593E+01
 0.1825410116664E+01
 0.1775159043841E+01
 0.1715266204163E+01
 0.1644414604756E+01
 0.1561009700526E+01
 0.1463101569299E+01
 0.1348297985051E+01
 0.1213686537835E+01
 0.1055816165959E+01
 0.8708564789887E+00
 0.6552555901709E+00
 0.4086715626736E+00
 0.2041215208149E+01
 0.2043255880619E+01
 0.2041489950592E+01
 0.2035351065498E+01
 0.2024201951699E+01
 0.2007326290298E+01
 0.1983917013460E+01
 0.1953060555392E+01
 0.1913716551371E+01
 0.1864692408470E+01
 0.1804612239965E+01
 0.1731880127903E+01
 0.1644639011647E+01
 0.1540729526328E+01
 0.1417659265186E+01
 0.1272605009858E+01
 0.1102492973405E+01
 0.9042552493507E+00
 0.6755925024395E+00
 0.4183657066574E+00
 0.2088359002506E+01
 0.2094419253686E+01
 0.2096690234946E+01
 0.2094513683488E+01
 0.2087142235794E+01
 0.2073728554650E+01
 0.2053312244594E+01
 0.2024804486480E+01
 0.1986970449673E+01
 0.1938409750751E+01
 0.1877535649798E+01
 0.1802554513963E+01
 0.1711448662403E+01
 0.1601968525455E+01
 0.1471644881988E+01
 0.1317840113657E+01
 0.1137874099416E+01
 0.9293145061746E+00
 0.6907948625547E+00
 0.4258318015476E+00
 0.2126966836803E+01
 0.2136220067253E+01
 0.2141675149754E+01
 0.2142591478180E+01
 0.2138125295838E+01
 0.2127316899526E+01
 0.2109077187508E+01
 0.2082173806933E+01
 0.2045217433834E+01
 0.1996649127743E+01
 0.1934730259811E+01
 0.1857537344241E+01
 0.1762965371803E+01
 0.1648745180349E+01
 0.1512483420840E+01
 0.1351739305960E+01
 0.1164167658159E+01
 0.9478179164443E+00
 0.7019864880754E+00
 0.4313807607464E+00
 0.2156663097337E+01
 0.2168263381836E+01
 0.2176042100115E+01
 0.2179192685585E+01
 0.2176795820525E+01
 0.2167805234602E+01
 0.2151034450907E+01
 0.2125144745404E+01
 0.2088635182336E+01
 0.2039836111344E+01
 0.1976908057986E+01
 0.1897848577523E+01
 0.1800510424836E+01
 0.1682635439588E+01
 0.1541910343644E+01
 0.1376055269838E+01
 0.1182971878063E+01
 0.9610435735724E+00
 0.7100141201155E+00
 0.4353811089628E+00
 0.2177166094309E+01
 0.2190258075002E+01
 0.2199499873637E+01
 0.2204041322524E+01
 0.2202913778908E+01
 0.2195015308399E+01
 0.2179097809118E+01
 0.2153756347152E+01
 0.2117421790870E+01
 0.2068358369899E+01
 0.2004668272638E+01
 0.1924305843422E+01
 0.1825104351102E+01
 0.1704818792852E+01
 0.1561189410874E+01
 0.1392035032939E+01
 0.1195402354388E+01
 0.9698670339822E+00
 0.7154305236850E+00
 0.4380723457085E+00
 0.2188280672823E+01
 0.2202003322844E+01
 0.2211847889839E+01
 0.2216946394542E+01
 0.2216310124000E+01
 0.2208815183768E+01
 0.2193189845905E+01
 0.2168004343048E+01
 0.2131664300597E+01
 0.2082409521781E+01
 0.2018320291898E+01
 0.1937333748781E+01
 0.1837273164390E+01
 0.1715893325393E+01
 0.1570946284645E+01
 0.1400276202501E+01
 0.1201969404674E+01
 0.9746568690687E+00
 0.7184193965157E+00
 0.4394004140884E+00
 0.2189892655751E+01
 0.2203379241584E+01
 0.2212963111937E+01
 0.2217784118877E+01
 0.2216863378857E+01
 0.2209089384798E+01
 0.2193205269729E+01
 0.2167797967887E+01
 0.2131290455492E+01
 0.2081938726361E+01
 0.2017835635570E+01
 0.1936924218696E+01
 0.1837023574013E+01
 0.1715870996576E+01
 0.1571185382342E+01
 0.1400761385582E+01
 0.1202620658045E+01
 0.9753155122438E+00
 0.7188266739282E+00
 0.4390941414029E+00
 0.2181970346177E+01
 0.2194349469551E+01
 0.2202802967677E+01
 0.2206502385086E+01
 0.2204507277134E+01
 0.2195751874336E+01
 0.2179031949847E+01
 0.2152992414527E+01
 0.2116116603507E+01
 0.2066718672656E+01
 0.2002941054377E+01
 0.1922759595221E+01
 0.1823999893651E+01
 0.1704369615354E+01
 0.1561513630673E+01
 0.1393103586725E+01
 0.1196989120090E+01
 0.9715017644955E+00
 0.7163279465035E+00
 0.4368529185012E+00
 0.2164565358306E+01
 0.2174963446650E+01
 0.2181408828025E+01
 0.2183125703452E+01
 0.2179237779025E+01
 0.2168755784477E+01
 0.2150563950480E+01
 0.2123405571524E+01
 0.2085868204574E+01
 0.2036369464844E+01
 0.1973144906435E+01
 0.1894240303884E+01
 0.1797512010502E+01
 0.1680641259064E+01
 0.1541171757579E+01
 0.1376586024704E+01
 0.1184450928126E+01
 0.9627196125606E+00
 0.7105728457853E+00
 0.4325050536876E+00
 0.2137815684810E+01
 0.2145361438214E+01
 0.2148913608390E+01
 0.2147765754404E+01
 0.2141126910699E+01
 0.2128110687219E+01
 0.2107721921901E+01
 0.2078840472795E+01
 0.2040202180805E+01
 0.1990377312333E+01
 0.1927747132299E+01
 0.1850479981884E+01
 0.1756509771327E+01
 0.1643522757106E+01
 0.1508963793055E+01
 0.1350082477911E+01
 0.1164057127914E+01
 0.9482861397865E+00
 0.7011960172223E+00
 0.4260096432817E+00
 0.2101951755287E+01
 0.2105783914971E+01
 0.2105555603670E+01
 0.2100640804040E+01
 0.2090348714875E+01
 0.2073915726287E+01
 0.2050493449799E+01
 0.2019131818804E+01
 0.1978756853187E+01
 0.1928142715049E+01
 0.1865877544287E+01
 0.1790322716240E+01
 0.1699566178422E+01
 0.1591373323210E+01
 0.1463145110003E+01
 0.1311906155022E+01
 0.1134371239219E+01
 0.9271946126217E+00
 0.6877301481764E+00
 0.4174324162700E+00
 0.2057304670820E+01
 0.2056584444752E+01
 0.2051697916900E+01
 0.2042103582477E+01
 0.2027217379572E+01
 0.2006409568220E+01
 0.1978995872331E+01
 0.1944221552527E+01
 0.1901238065390E+01
 0.1849071573824E+01
 0.1786581599667E+01
 0.1712407150709E+01
 0.1624897237227E+01
 0.1522023658167E+01
 0.1401278307328E+01
 0.1259569825484E+01
 0.1093168062811E+01
 0.8978256250043E+00
 0.6694216662776E+00
 0.4069385671324E+00
 0.2004315646434E+01
 0.1998245106786E+01
 0.1987852626089E+01
 0.1972676980451E+01
 0.1952237275805E+01
 0.1926037819796E+01
 0.1893564128261E+01
 0.1854269485397E+01
 0.1807552995031E+01
 0.1752728863453E+01
 0.1688984431444E+01
 0.1615322060768E+01
 0.1530477523205E+01
 0.1432805144889E+01
 0.1320118515635E+01
 0.1189479129424E+01
 0.1036946840992E+01
 0.8574005966901E+00
 0.6448376621468E+00
 0.3947655896946E+00
 0.1943544858090E+01
 0.1931392179525E+01
 0.1914707548202E+01
 0.1893095340517E+01
 0.1866162686496E+01
 0.1833536375086E+01
 0.1794864155016E+01
 0.1749803677281E+01
 0.1698003653494E+01
 0.1639078598275E+01
 0.1572574684765E+01
 0.1497920541133E+01
 0.1414352702049E+01
 0.1320799709284E+01
 0.1215700022915E+01
 0.1096715666110E+01
 0.9602893725229E+00
 0.8010019994723E+00
 0.6109807474614E+00
 0.3810296421302E+00
 0.1875678346681E+01
 0.1856812218931E+01
 0.1833155992854E+01
 0.1804350708000E+01
 0.1770065209048E+01
 0.1730028091015E+01
 0.1684030194704E+01
 0.1631912325085E+01
 0.1573549080016E+01
 0.1508832516173E+01
 0.1437653718772E+01
 0.1359876313697E+01
 0.1275291879663E+01
 0.1183540795015E+01
 0.1083969638576E+01
 0.9753707033795E+00
 0.8554958207158E+00
 0.7201232928788E+00
 0.5612215959465E+00
 0.3647651318337E+00
 0.1801530384653E+01
 0.1775467636873E+01
 0.1744325946469E+01
 0.1707734818907E+01
 0.1665394291716E+01
 0.1617114037574E+01
 0.1562804571013E+01
 0.1502455414952E+01
 0.1436118521272E+01
 0.1363901782635E+01
 0.1285970611564E+01
 0.1202552763670E+01
 0.1113940309429E+01
 0.1020479908798E+01
 0.9225350142060E+00
 0.8203846623916E+00
 0.7139716739728E+00
 0.6022737311402E+00
 0.4815376947578E+00
 0.3393814706357E+00
 0.1722043252229E+01
 0.1688515194777E+01
 0.1649599854335E+01
 0.1604856710777E+01
 0.1554000993321E+01
 0.1496920145872E+01
 0.1433631144376E+01
 0.1364237711696E+01
 0.1288909420973E+01
 0.1207884300543E+01
 0.1121489296648E+01
 0.1030174586580E+01
 0.9345614011836E+00
 0.8355074115709E+00
 0.7341985221754E+00
 0.6322815331218E+00
 0.5320617473703E+00
 0.4367806296193E+00
 0.3510206731824E+00
 0.2796056718082E+00
 0.1638293190592E+01
 0.1597312349106E+01
 0.1550593295978E+01
 0.1497595206994E+01
 0.1438079052499E+01
 0.1372050203522E+01
 0.1299652664223E+01
 0.1221097463024E+01
 0.1136642060448E+01
 0.1046606129147E+01
 0.9514111580187E+00
 0.8516388529270E+00
 0.7481138863820E+00
 0.6420273210932E+00
 0.5351330242241E+00
 0.4300808415115E+00
 0.3310189763963E+00
 0.2447990056707E+00
 0.1836678670496E+00
 0.1745299674315E+00
 0.1551452811429E+01
 0.1503312267630E+01
 0.1448998364364E+01
 0.1387910912355E+01
 0.1319973974519E+01
 0.1245421929198E+01
 0.1164598128913E+01
 0.1077873246676E+01
 0.9856482516187E+00
 0.8884049572951E+00
 0.7867779666483E+00
 0.6816465445504E+00
 0.5742582720338E+00
 0.4664086785439E+00
 0.3607190143819E+00
 0.2610868551098E+00
 0.1734539625612E+00
 0.1072029231409E+00
 0.7826889110882E-01
 0.1165825096276E+00
 0.1462815272968E+01
 0.1408077210048E+01
 0.1346577016776E+01
 0.1277825241386E+01
 0.1202154330011E+01
 0.1120177598981E+01
 0.1032519101002E+01
 0.9397660096948E+00
 0.8425483469093E+00
 0.7416406004276E+00
 0.6380700654935E+00
 0.5332391472104E+00
 0.4290776832783E+00
 0.3282473868375E+00
 0.2344268301140E+00
 0.1527108026737E+00
 0.9014907469166E-01
 0.5649332499902E-01
 0.6561747393312E-01
 0.1321155231780E+00
 0.1373803316034E+01
 0.1313205778057E+01
 0.1244969404724E+01
 0.1169185636778E+01
 0.1086917069660E+01
 0.9992688514246E+00
 0.9070953708037E+00
 0.8111769212246E+00
 0.7123892943754E+00
 0.6118375677927E+00
 0.5109716023686E+00
 0.4117005762443E+00
 0.3165204321642E+00
 0.2286617396109E+00
 0.1522540972813E+00
 0.9247217589783E-01
 0.5557666613638E-01
 0.4893917439682E-01
 0.7968777271938E-01
 0.1489394987755E+00
 0.1285875238435E+01
 0.1219973572466E+01
 0.1145245660020E+01
 0.1063215619762E+01
 0.9761168935849E+00
 0.8851817928833E+00
 0.7912802144378E+00
 0.6952983446883E+00
 0.5983194889238E+00
 0.5017325925150E+00
 0.4073091702128E+00
 0.3172695347626E+00
 0.2343409040295E+00
 0.1617961074476E+00
 0.1034399782184E+00
 0.6347769558014E-01
 0.4625513176153E-01
 0.5581874893785E-01
 0.9360254071995E-01
 0.1562611799613E+00
 0.1200557593952E+01
 0.1128700836607E+01
 0.1046945454850E+01
 0.9606837595777E+00
 0.8715630026869E+00
 0.7802543236388E+00
 0.6875091475244E+00
 0.5943131031532E+00
 0.5019467757717E+00
 0.4120070011664E+00
 0.3264219780204E+00
 0.2474561890403E+00
 0.1776921181032E+00
 0.1199639764038E+00
 0.7720487258146E-01
 0.5218320377335E-01
 0.4721134198806E-01
 0.6343713102993E-01
 0.9983037803324E-01
 0.1535001896687E+00
 0.1116853092759E+01
 0.1033418163427E+01
 0.9492341811017E+00
 0.8637029214626E+00
 0.7761691819115E+00
 0.6872491565171E+00
 0.5979744569053E+00
 0.5096494859771E+00
 0.4237855576524E+00
 0.3420853461509E+00
 0.2664296930845E+00
 0.1988483747198E+00
 0.1414562476636E+00
 0.9633342770465E-01
 0.6533156953720E-01
 0.4983343579655E-01
 0.5047616939036E-01
 0.6661270320374E-01
 0.9609164617684E-01
 0.1375755430847E+00
</DataArray>
<DataArray type="Float64" Name="CK" NumberOfComponents="1" ComponentName0="CK" format="ascii">
 0.0000000000000E+00
 0.0000000000000E+00
 0.0000000000000E+00
 0.0000000000000E+00
 0.0000000000000E+00
 0.0000000000000E+00
 0.0000000000000E+00
 0.0000000000000E+00
 0.0000000000000E+00
 0.0000000000000E+00
 0.0000000000000E+00
 0.0000000000000E+00
 0.0000000000000E+00
 0.0000000000000E+00
 0.0000000000000E+00
 0.0000000000000E+00
 0.0000000000000E+00
 0.0000000000000E+00
 0.0000000000000E+00
 0.0000000000000E+00
 0.0000000000000E+00
 0.0000000000000E+00
 0.0000000000000E+00
 0.0000000000000E+00
 0.0000000000000E+00
 0.0000000000000E+00
 0.0000000000000E+00
 0.0000000000000E+00
 0.0000000000000E+00
 0.0000000000000E+00
 0.0000000000000E+00
 0.0000000000000E+00
 0.0000000000000E+00
 0.0000000000000E+00
 0.0000000000000E+00
 0.0000000000000E+00
 0.0000000000000E+00
 0.0000000000000E+00
 0.0000000000000E+00
 0.0000000000000E+00
 0.0000000000000E+00
 0.0000000000000E+00
 0.0000000000000E+00
 0.0000000000000E+00
 0.0000000000000E+00
 0.0000000000000E+00
 0.0000000000000E+00
 0.0000000000000E+00
 0.0000000000000E+00
 0.0000000000000E+00
 0.0000000000000E+00
 0.0000000000000E+00
 0.0000000000000E+00
 0.0000000000000E+00
 0.0000000000000E+00
 0.0000000000000E+00
 0.0000000000000E+00
 0.0000000000000E+00
 0.0000000000000E+00
 0.0000000000000E+00
 0.0000000000000E+00
 0.0000000000000E+00
 0.0000000000000E+00
 0.0000000000000E+00
 0.0000000000000E+00
 0.0000000000000E+00
 0.0000000000000E+00
 0.0000000000000E+00
 0.0000000000000E+00
 0.0000000000000E+00
 0.0000000000000E+00
 0.0000000000000E+00
 0.0000000000000E+00
 0.0000000000000E+00
 0.0000000000000E+00
 0.0000000000000E+00
 0.0000000000000E+00
 0.0000000000000E+00
 0.0000000000000E+00
 0.0000000000000E+00
 0.0000000000000E+00
 0.0000000000000E+00
 0.0000000000000E+00
 0.0000000000000E+00
 0.0000000000000E+00
 0.0000000000000E+00
 0.0000000000000E+00
 0.0000000000000E+00
 0.0000000000000E+00
 0.0000000000000E+00
 0.0000000000000E+00
 0.0000000000000E+00
 0.0000000000000E+00
 0.0000000000000E+00
 0.0000000000000E+00
 0.0000000000000E+00
 0.0000000000000E+00
 0.0000000000000E+00
 0.0000000000000E+00
 0.0000000000000E+00
 0.0000000000000E+00
 0.0000000000000E+00
 0.0000000000000E+00
 0.0000000000000E+00
 0.0000000000000E+00
 0.0000000000000E+00
 0.0000000000000E+00
 0.0000000000000E+00
 0.0000000000000E+00
 0.0000000000000E+00
 0.0000000000000E+00
 0.0000000000000E+00
 0.0000000000000E+00
 0.0000000000000E+00
 0.0000000000000E+00
 0.0000000000000E+00
 0.0000000000000E+00
 0.0000000000000E+00
 0.0000000000000E+00
 0.0000000000000E+00
 0.0000000000000E+00
 0.0000000000000E+00
 0.0000000000000E+00
 0.0000000000000E+00
 0.0000000000000E+00
 0.0000000000000E+00
 0.0000000000000E+00
 0.0000000000000E+00
 0.0000000000000E+00
 0.0000000000000E+00
 0.0000000000000E+00
 0.0000000000000E+00
 0.0000000000000E+00
 0.0000000000000E+00
 0.0000000000000E+00
 0.0000000000000E+00
 0.0000000000000E+00
 0.0000000000000E+00
 0.0000000000000E+00
 0.0000000000000E+00
 0.0000000000000E+00
 0.0000000000000E+00
 0.0000000000000E+00
 0.0000000000000E+00
 0.0000000000000E+00
 0.0000000000000E+00
 0.0000000000000E+00
 0.0000000000000E+00
 0.0000000000000E+00
 0.0000000000000E+00
 0.0000000000000E+00
 0.0000000000000E+00
 0.0000000000000E+00
 0.0000000000000E+00
 0.0000000000000E+00
 0.0000000000000E+00
 0.0000000000000E+00
 0.0000000000000E+00
 0.0000000000000E+00
 0.0000000000000E+00
 0.0000000000000E+00
 0.0000000000000E+00
 0.0000000000000E+00
 0.0000000000000E+00
 0.0000000000000E+00
 0.0000000000000E+00
 0.0000000000000E+00
 0.0000000000000E+00
 0.0000000000000E+00
 0.0000000000000E+00
 0.0000000000000E+00
 0.0000000000000E+00
 0.0000000000000E+00
 0.0000000000000E+00
 0.0000000000000E+00
 0.0000000000000E+00
 0.0000000000000E+00
 0.0000000000000E+00
 0.0000000000000E+00
 0.0000000000000E+00
 0.0000000000000E+00
 0.0000000000000E+00
 0.0000000000000E+00
 0.0000000000000E+00
 0.0000000000000E+00
 0.0000000000000E+00
 0.0000000000000E+00
 0.0000000000000E+00
 0.0000000000000E+00
 0.0000000000000E+00
 0.0000000000000E+00
 0.0000000000000E+00
 0.0000000000000E+00
 0.0000000000000E+00
 0.0000000000000E+00
 0.0000000000000E+00
 0.0000000000000E+00
 0.0000000000000E+00
 0.0000000000000E+00
 0.0000000000000E+00
 0.0000000000000E+00
 0.0000000000000E+00
 0.0000000000000E+00
 0.0000000000000E+00
 0.0000000000000E+00
 0.0000000000000E+00
 0.0000000000000E+00
 0.0000000000000E+00
 0.0000000000000E+00
 0.0000000000000E+00
 0.0000000000000E+00
 0.0000000000000E+00
 0.0000000000000E+00
 0.0000000000000E+00
 0.0000000000000E+00
 0.0000000000000E+00
 0.0000000000000E+00
 0.0000000000000E+00
 0.0000000000000E+00
 0.0000000000000E+00
 0.0000000000000E+00
 0.0000000000000E+00
 0.0000000000000E+00
 0.0000000000000E+00
 0.0000000000000E+00
 0.0000000000000E+00
 0.0000000000000E+00
 0.0000000000000E+00
 0.0000000000000E+00
 0.0000000000000E+00
 0.0000000000000E+00
 0.0000000000000E+00
 0.0000000000000E+00
 0.0000000000000E+00
 0.0000000000000E+00
 0.0000000000000E+00
 0.0000000000000E+00
 0.0000000000000E+00
 0.0000000000000E+00
 0.0000000000000E+00
 0.0000000000000E+00
 0.0000000000000E+00
 0.0000000000000E+00
 0.0000000000000E+00
 0.0000000000000E+00
 0.0000000000000E+00
 0.0000000000000E+00
 0.0000000000000E+00
 0.0000000000000E+00
 0.0000000000000E+00
 0.0000000000000E+00
 0.0000000000000E+00
 0.0000000000000E+00
 0.0000000000000E+00
 0.0000000000000E+00
 0.0000000000000E+00
 0.0000000000000E+00
 0.0000000000000E+00
 0.0000000000000E+00
 0.0000000000000E+00
 0.0000000000000E+00
 0.0000000000000E+00
 0.0000000000000E+00
 0.0000000000000E+00
 0.0000000000000E+00
 0.0000000000000E+00
 0.0000000000000E+00
 0.0000000000000E+00
 0.0000000000000E+00
 0.0000000000000E+00
 0.0000000000000E+00
 0.0000000000000E+00
 0.0000000000000E+00
 0.0000000000000E+00
 0.0000000000000E+00
 0.0000000000000E+00
 0.0000000000000E+00
 0.0000000000000E+00
 0.0000000000000E+00
 0.0000000000000E+00
 0.0000000000000E+00
 0.0000000000000E+00
 0.0000000000000E+00
 0.0000000000000E+00
 0.0000000000000E+00
 0.0000000000000E+00
 0.0000000000000E+00
 0.0000000000000E+00
 0.0000000000000E+00
 0.0000000000000E+00
 0.0000000000000E+00
 0.0000000000000E+00
 0.0000000000000E+00
 0.0000000000000E+00
 0.0000000000000E+00
 0.0000000000000E+00
 0.0000000000000E+00
 0.0000000000000E+00
 0.0000000000000E+00
 0.0000000000000E+00
 0.0000000000000E+00
 0.0000000000000E+00
 0.0000000000000E+00
 0.0000000000000E+00
 0.0000000000000E+00
 0.0000000000000E+00
 0.0000000000000E+00
 0.0000000000000E+00
 0.0000000000000E+00
 0.0000000000000E+00
 0.0000000000000E+00
 0.0000000000000E+00
 0.0000000000000E+00
 0.0000000000000E+00
 0.0000000000000E+00
 0.0000000000000E+00
 0.0000000000000E+00
 0.0000000000000E+00
 0.0000000000000E+00
 0.0000000000000E+00
 0.0000000000000E+00
 0.0000000000000E+00
 0.0000000000000E+00
 0.0000000000000E+00
 0.0000000000000E+00
 0.0000000000000E+00
 0.0000000000000E+00
 0.0000000000000E+00
 0.0000000000000E+00
 0.0000000000000E+00
 0.0000000000000E+00
 0.0000000000000E+00
 0.0000000000000E+00
 0.0000000000000E+00
 0.0000000000000E+00
 0.0000000000000E+00
 0.0000000000000E+00
 0.0000000000000E+00
 0.0000000000000E+00
 0.0000000000000E+00
 0.0000000000000E+00
 0.0000000000000E+00
 0.0000000000000E+00
 0.0000000000000E+00
 0.0000000000000E+00
 0.0000000000000E+00
 0.0000000000000E+00
 0.0000000000000E+00
 0.0000000000000E+00
 0.0000000000000E+00
 0.0000000000000E+00
 0.0000000000000E+00
 0.0000000000000E+00
 0.0000000000000E+00
 0.0000000000000E+00
 0.0000000000000E+00
 0.0000000000000E+00
 0.0000000000000E+00
 0.0000000000000E+00
 0.0000000000000E+00
 0.0000000000000E+00
 0.0000000000000E+00
 0.0000000000000E+00
 0.0000000000000E+00
 0.0000000000000E+00
 0.0000000000000E+00
 0.0000000000000E+00
 0.0000000000000E+00
 0.0000000000000E+00
 0.0000000000000E+00
 0.0000000000000E+00
 0.0000000000000E+00
 0.0000000000000E+00
 0.0000000000000E+00
 0.0000000000000E+00
 0.0000000000000E+00
 0.0000000000000E+00
 0.0000000000000E+00
 0.0000000000000E+00
 0.0000000000000E+00
 0.0000000000000E+00
 0.0000000000000E+00
 0.0000000000000E+00
 0.0000000000000E+00
 0.0000000000000E+00
 0.0000000000000E+00
 0.0000000000000E+00
 0.0000000000000E+00
 0.0000000000000E+00
 0.0000000000000E+00
 0.0000000000000E+00
 0.0000000000000E+00
 0.0000000000000E+00
 0.0000000000000E+00
 0.0000000000000E+00
 0.0000000000000E+00
 0.0000000000000E+00
 0.0000000000000E+00
 0.0000000000000E+00
 0.0000000000000E+00
 0.0000000000000E+00
 0.0000000000000E+00
 0.0000000000000E+00
 0.0000000000000E+00
 0.0000000000000E+00
 0.0000000000000E+00
 0.0000000000000E+00
 0.0000000000000E+00
 0.0000000000000E+00
 0.0000000000000E+00
 0.0000000000000E+00
 0.0000000000000E+00
 0.0000000000000E+00
 0.0000000000000E+00
 0.0000000000000E+00
 0.0000000000000E+00
 0.0000000000000E+00
 0.0000000000000E+00
 0.0000000000000E+00
 0.0000000000000E+00
 0.0000000000000E+00
 0.0000000000000E+00
 0.0000000000000E+00
 0.0000000000000E+00
 0.0000000000000E+00
 0.0000000000000E+00
 0.0000000000000E+00
 0.0000000000000E+00
 0.0000000000000E+00
 0.0000000000000E+00
 0.0000000000000E+00
 0.0000000000000E+00
 0.0000000000000E+00
 0.0000000000000E+00
 0.0000000000000E+00
 0.0000000000000E+00
 0.0000000000000E+00
 0.0000000000000E+00
 0.0000000000000E+00
 0.0000000000000E+00
 0.0000000000000E+00
 0.0000000000000E+00
 0.0000000000000E+00
 0.0000000000000E+00
 0.0000000000000E+00
 0.0000000000000E+00
 0.0000000000000E+00
 0.0000000000000E+00
 0.0000000000000E+00
 0.0000000000000E+00
 0.0000000000000E+00
 0.0000000000000E+00
 0.0000000000000E+00
 0.0000000000000E+00
 0.0000000000000E+00
 0.0000000000000E+00
 0.0000000000000E+00
 0.0000000000000E+00
 0.0000000000000E+00
 0.0000000000000E+00
 0.0000000000000E+00
 0.0000000000000E+00
 0.0000000000000E+00
 0.0000000000000E+00
 0.0000000000000E+00
 0.0000000000000E+00
 0.0000000000000E+00
 0.0000000000000E+00
 0.0000000000000E+00
 0.0000000000000E+00
 0.0000000000000E+00
 0.0000000000000E+00
 0.0000000000000E+00
 0.0000000000000E+00
 0.0000000000000E+00
 0.0000000000000E+00
 0.0000000000000E+00
 0.0000000000000E+00
 0.0000000000000E+00
 0.0000000000000E+00
 0.0000000000000E+00
 0.0000000000000E+00
 0.0000000000000E+00
 0.0000000000000E+00
 0.0000000000000E+00
 0.0000000000000E+00
 0.0000000000000E+00
 0.0000000000000E+00
 0.0000000000000E+00
 0.0000000000000E+00
 0.0000000000000E+00
 0.0000000000000E+00
 0.0000000000000E+00
 0.0000000000000E+00
 0.0000000000000E+00
 0.0000000000000E+00
 0.0000000000000E+00
 0.0000000000000E+00
 0.0000000000000E+00
 0.0000000000000E+00
 0.0000000000000E+00
 0.0000000000000E+00
 0.0000000000000E+00
 0.0000000000000E+00
 0.0000000000000E+00
 0.0000000000000E+00
 0.0000000000000E+00
 0.0000000000000E+00
 0.0000000000000E+00
 0.0000000000000E+00
 0.0000000000000E+00
 0.0000000000000E+00
 0.0000000000000E+00
 0.0000000000000E+00
 0.0000000000000E+00
 0.0000000000000E+00
 0.0000000000000E+00
 0.0000000000000E+00
 0.0000000000000E+00
 0.0000000000000E+00
 0.0000000000000E+00
 0.0000000000000E+00
 0.0000000000000E+00
 0.0000000000000E+00
 0.0000000000000E+00
 0.0000000000000E+00
 0.0000000000000E+00
 0.0000000000000E+00
 0.0000000000000E+00
 0.0000000000000E+00
 0.0000000000000E+00
 0.0000000000000E+00
 0.0000000000000E+00
 0.0000000000000E+00
 0.0000000000000E+00
 0.0000000000000E+00
 0.0000000000000E+00
 0.0000000000000E+00
 0.0000000000000E+00
 0.0000000000000E+00
 0.0000000000000E+00
 0.0000000000000E+00
 0.0000000000000E+00
 0.0000000000000E+00
 0.0000000000000E+00
 0.0000000000000E+00
 0.0000000000000E+00
 0.0000000000000E+00
 0.0000000000000E+00
 0.0000000000000E+00
 0.0000000000000E+00
 0.0000000000000E+00
 0.0000000000000E+00
 0.0000000000000E+00
 0.0000000000000E+00
 0.0000000000000E+00
 0.0000000000000E+00
 0.0000000000000E+00
 0.0000000000000E+00
 0.0000000000000E+00
 0.0000000000000E+00
 0.0000000000000E+00
 0.0000000000000E+00
 0.0000000000000E+00
 0.0000000000000E+00
 0.0000000000000E+00
 0.0000000000000E+00
 0.0000000000000E+00
 0.0000000000000E+00
 0.0000000000000E+00
 0.0000000000000E+00
 0.0000000000000E+00
 0.0000000000000E+00
 0.0000000000000E+00
 0.0000000000000E+00
 0.0000000000000E+00
 0.0000000000000E+00
 0.0000000000000E+00
 0.0000000000000E+00
 0.0000000000000E+00
 0.0000000000000E+00
 0.0000000000000E+00
 0.0000000000000E+00
 0.0000000000000E+00
 0.0000000000000E+00
 0.0000000000000E+00
 0.0000000000000E+00
 0.0000000000000E+00
 0.0000000000000E+00
 0.0000000000000E+00
 0.0000000000000E+00
 0.0000000000000E+00
 0.0000000000000E+00
 0.0000000000000E+00
 0.0000000000000E+00
 0.0000000000000E+00
 0.0000000000000E+00
 0.0000000000000E+00
 0.0000000000000E+00
 0.0000000000000E+00
 0.0000000000000E+00
 0.0000000000000E+00
 0.0000000000000E+00
 0.0000000000000E+00
 0.0000000000000E+00
 0.0000000000000E+00
 0.0000000000000E+00
 0.0000000000000E+00
 0.0000000000000E+00
 0.0000000000000E+00
 0.0000000000000E+00
 0.0000000000000E+00
 0.0000000000000E+00
 0.0000000000000E+00
 0.0000000000000E+00
 0.0000000000000E+00
 0.0000000000000E+00
 0.0000000000000E+00
 0.0000000000000E+00
 0.0000000000000E+00
 0.0000000000000E+00
 0.0000000000000E+00
 0.0000000000000E+00
 0.0000000000000E+00
 0.0000000000000E+00
 0.0000000000000E+00
 0.0000000000000E+00
 0.0000000000000E+00
 0.0000000000000E+00
 0.0000000000000E+00
 0.0000000000000E+00
 0.0000000000000E+00
 0.0000000000000E+00
 0.0000000000000E+00
 0.0000000000000E+00
 0.0000000000000E+00
 0.0000000000000E+00
 0.0000000000000E+00
 0.0000000000000E+00
 0.0000000000000E+00
 0.0000000000000E+00
 0.0000000000000E+00
 0.0000000000000E+00
 0.0000000000000E+00
 0.0000000000000E+00
 0.0000000000000E+00
 0.0000000000000E+00
 0.0000000000000E+00
 0.0000000000000E+00
 0.0000000000000E+00
 0.0000000000000E+00
 0.0000000000000E+00
 0.0000000000000E+00
 0.0000000000000E+00
 0.0000000000000E+00
 0.0000000000000E+00
 0.0000000000000E+00
 0.0000000000000E+00
 0.0000000000000E+00
 0.0000000000000E+00
 0.0000000000000E+00
 0.0000000000000E+00
 0.0000000000000E+00
 0.0000000000000E+00
 0.0000000000000E+00
 0.0000000000000E+00
 0.0000000000000E+00
 0.0000000000000E+00
 0.0000000000000E+00
 0.0000000000000E+00
 0.0000000000000E+00
 0.0000000000000E+00
 0.0000000000000E+00
 0.0000000000000E+00
 0.0000000000000E+00
 0.0000000000000E+00
 0.0000000000000E+00
 0.0000000000000E+00
 0.0000000000000E+00
 0.0000000000000E+00
 0.0000000000000E+00
 0.0000000000000E+00
 0.0000000000000E+00
 0.0000000000000E+00
 0.0000000000000E+00
 0.0000000000000E+00
 0.0000000000000E+00
 0.0000000000000E+00
 0.0000000000000E+00
 0.0000000000000E+00
 0.0000000000000E+00
 0.0000000000000E+00
 0.0000000000000E+00
 0.0000000000000E+00
 0.0000000000000E+00
 0.0000000000000E+00
 0.0000000000000E+00
 0.0000000000000E+00
 0.0000000000000E+00
 0.0000000000000E+00
 0.0000000000000E+00
 0.0000000000000E+00
 0.0000000000000E+00
 0.0000000000000E+00
 0.0000000000000E+00
 0.0000000000000E+00
 0.0000000000000E+00
 0.0000000000000E+00
 0.0000000000000E+00
 0.0000000000000E+00
 0.0000000000000E+00
 0.0000000000000E+00
 0.0000000000000E+00
 0.0000000000000E+00
 0.0000000000000E+00
 0.0000000000000E+00
 0.0000000000000E+00
 0.0000000000000E+00
 0.0000000000000E+00
 0.0000000000000E+00
 0.0000000000000E+00
 0.0000000000000E+00
 0.0000000000000E+00
 0.0000000000000E+00
 0.0000000000000E+00
 0.0000000000000E+00
 0.0000000000000E+00
 0.0000000000000E+00
 0.0000000000000E+00
 0.0000000000000E+00
 0.0000000000000E+00
 0.0000000000000E+00
 0.0000000000000E+00
 0.0000000000000E+00
 0.0000000000000E+00
 0.0000000000000E+00
 0.0000000000000E+00
 0.0000000000000E+00
 0.0000000000000E+00
 0.0000000000000E+00
 0.0000000000000E+00
 0.0000000000000E+00
 0.0000000000000E+00
 0.0000000000000E+00
 0.0000000000000E+00
 0.0000000000000E+00
 0.0000000000000E+00
 0.0000000000000E+00
 0.0000000000000E+00
 0.0000000000000E+00
 0.0000000000000E+00
 0.0000000000000E+00
 0.0000000000000E+00
 0.0000000000000E+00
 0.0000000000000E+00
 0.0000000000000E+00
 0.0000000000000E+00
 0.0000000000000E+00
 0.0000000000000E+00
 0.0000000000000E+00
 0.0000000000000E+00
 0.0000000000000E+00
 0.0000000000000E+00
 0.0000000000000E+00
 0.0000000000000E+00
 0.0000000000000E+00
 0.0000000000000E+00
 0.0000000000000E+00
 0.0000000000000E+00
 0.0000000000000E+00
 0.0000000000000E+00
 0.0000000000000E+00
 0.0000000000000E+00
 0.0000000000000E+00
 0.0000000000000E+00
 0.0000000000000E+00
 0.0000000000000E+00
 0.0000000000000E+00
 0.0000000000000E+00
 0.0000000000000E+00
 0.0000000000000E+00
 0.0000000000000E+00
 0.0000000000000E+00
 0.0000000000000E+00
 0.0000000000000E+00
 0.0000000000000E+00
 0.0000000000000E+00
 0.0000000000000E+00
 0.0000000000000E+00
 0.0000000000000E+00
 0.0000000000000E+00
 0.0000000000000E+00
 0.0000000000000E+00
 0.0000000000000E+00
 0.0000000000000E+00
 0.0000000000000E+00
 0.0000000000000E+00
 0.0000000000000E+00
 0.0000000000000E+00
 0.0000000000000E+00
 0.0000000000000E+00
 0.0000000000000E+00
 0.0000000000000E+00
 0.0000000000000E+00
 0.0000000000000E+00
 0.0000000000000E+00
 0.0000000000000E+00
 0.0000000000000E+00
 0.0000000000000E+00
 0.0000000000000E+00
 0.0000000000000E+00
 0.0000000000000E+00
 0.0000000000000E+00
 0.0000000000000E+00
 0.0000000000000E+00
 0.0000000000000E+00
 0.0000000000000E+00
 0.0000000000000E+00
 0.0000000000000E+00
 0.0000000000000E+00
 0.0000000000000E+00
 0.0000000000000E+00
 0.0000000000000E+00
 0.0000000000000E+00
 0.0000000000000E+00
 0.0000000000000E+00
 0.0000000000000E+00
 0.0000000000000E+00
 0.0000000000000E+00
 0.0000000000000E+00
 0.0000000000000E+00
 0.0000000000000E+00
 0.0000000000000E+00
 0.0000000000000E+00
 0.0000000000000E+00
 0.0000000000000E+00
 0.0000000000000E+00
 0.0000000000000E+00
 0.0000000000000E+00
 0.0000000000000E+00
 0.0000000000000E+00
 0.0000000000000E+00
 0.0000000000000E+00
 0.0000000000000E+00
 0.0000000000000E+00
 0.0000000000000E+00
 0.0000000000000E+00
 0.0000000000000E+00
 0.0000000000000E+00
 0.0000000000000E+00
 0.0000000000000E+00
 0.0000000000000E+00
 0.0000000000000E+00
 0.0000000000000E+00
 0.0000000000000E+00
 0.0000000000000E+00
 0.0000000000000E+00
 0.0000000000000E+00
 0.0000000000000E+00
 0.0000000000000E+00
 0.0000000000000E+00
 0.0000000000000E+00
 0.0000000000000E+00
 0.0000000000000E+00
 0.0000000000000E+00
 0.0000000000000E+00
 0.0000000000000E+00
 0.0000000000000E+00
 0.0000000000000E+00
 0.0000000000000E+00
 0.0000000000000E+00
 0.0000000000000E+00
 0.0000000000000E+00
 0.0000000000000E+00
 0.0000000000000E+00
 0.0000000000000E+00
 0.0000000000000E+00
 0.0000000000000E+00
 0.0000000000000E+00
 0.0000000000000E+00
 0.0000000000000E+00
 0.0000000000000E+00
 0.0000000000000E+00
 0.0000000000000E+00
 0.0000000000000E+00
 0.0000000000000E+00
 0.0000000000000E+00
 0.0000000000000E+00
 0.0000000000000E+00
 0.0000000000000E+00
 0.0000000000000E+00
 0.0000000000000E+00
 0.0000000000000E+00
 0.0000000000000E+00
 0.0000000000000E+00
 0.0000000000000E+00
 0.0000000000000E+00
 0.0000000000000E+00
 0.0000000000000E+00
 0.0000000000000E+00
 0.0000000000000E+00
 0.0000000000000E+00
 0.0000000000000E+00
 0.0000000000000E+00
 0.0000000000000E+00
 0.0000000000000E+00
 0.0000000000000E+00
 0.0000000000000E+00
 0.0000000000000E+00
 0.0000000000000E+00
 0.0000000000000E+00
 0.0000000000000E+00
 0.0000000000000E+00
 0.0000000000000E+00
 0.0000000000000E+00
 0.0000000000000E+00
 0.0000000000000E+00
 0.0000000000000E+00
 0.0000000000000E+00
 0.0000000000000E+00
 0.0000000000000E+00
 0.0000000000000E+00
 0.0000000000000E+00
 0.0000000000000E+00
 0.0000000000000E+00
 0.0000000000000E+00
 0.0000000000000E+00
 0.0000000000000E+00
 0.0000000000000E+00
 0.0000000000000E+00
 0.0000000000000E+00
 0.0000000000000E+00
 0.0000000000000E+00
 0.0000000000000E+00
 0.0000000000000E+00
 0.0000000000000E+00
 0.0000000000000E+00
 0.0000000000000E+00
 0.0000000000000E+00
 0.0000000000000E+00
 0.0000000000000E+00
 0.0000000000000E+00
 0.0000000000000E+00
 0.0000000000000E+00
 0.0000000000000E+00
 0.0000000000000E+00
 0.0000000000000E+00
 0.0000000000000E+00
 0.0000000000000E+00
 0.0000000000000E+00
 0.0000000000000E+00
 0.0000000000000E+00
 0.0000000000000E+00
 0.0000000000000E+00
 0.0000000000000E+00
 0.0000000000000E+00
 0.0000000000000E+00
 0.0000000000000E+00
 0.0000000000000E+00
 0.0000000000000E+00
 0.0000000000000E+00
 0.0000000000000E+00
 0.0000000000000E+00
 0.0000000000000E+00
 0.0000000000000E+00
 0.0000000000000E+00
 0.0000000000000E+00
 0.0000000000000E+00
 0.0000000000000E+00
 0.0000000000000E+00
 0.0000000000000E+00
 0.0000000000000E+00
 0.0000000000000E+00
 0.0000000000000E+00
 0.0000000000000E+00
 0.0000000000000E+00
 0.0000000000000E+00
 0.0000000000000E+00
 0.0000000000000E+00
 0.0000000000000E+00
 0.0000000000000E+00
 0.0000000000000E+00
 0.0000000000000E+00
 0.0000000000000E+00
 0.0000000000000E+00
 0.0000000000000E+00
 0.0000000000000E+00
 0.0000000000000E+00
 0.0000000000000E+00
 0.0000000000000E+00
 0.0000000000000E+00
 0.0000000000000E+00
 0.0000000000000E+00
 0.0000000000000E+00
 0.0000000000000E+00
 0.0000000000000E+00
 0.0000000000000E+00
 0.0000000000000E+00
 0.0000000000000E+00
 0.0000000000000E+00
 0.0000000000000E+00
 0.0000000000000E+00
 0.0000000000000E+00
 0.0000000000000E+00
 0.0000000000000E+00
 0.0000000000000E+00
 0.0000000000000E+00
 0.0000000000000E+00
 0.0000000000000E+00
 0.0000000000000E+00
 0.0000000000000E+00
 0.0000000000000E+00
 0.0000000000000E+00
 0.0000000000000E+00
 0.0000000000000E+00
 0.0000000000000E+00
 0.0000000000000E+00
 0.0000000000000E+00
 0.0000000000000E+00
 0.0000000000000E+00
 0.0000000000000E+00
 0.0000000000000E+00
 0.0000000000000E+00
 0.0000000000000E+00
 0.0000000000000E+00
 0.0000000000000E+00
 0.0000000000000E+00
 0.0000000000000E+00
 0.0000000000000E+00
 0.0000000000000E+00
 0.0000000000000E+00
 0.0000000000000E+00
 0.0000000000000E+00
 0.0000000000000E+00
 0.0000000000000E+00
 0.0000000000000E+00
 0.0000000000000E+00
 0.0000000000000E+00
 0.0000000000000E+00
 0.0000000000000E+00
 0.0000000000000E+00
 0.0000000000000E+00
 0.0000000000000E+00
 0.0000000000000E+00
 0.0000000000000E+00
 0.0000000000000E+00
 0.0000000000000E+00
 0.0000000000000E+00
 0.0000000000000E+00
 0.0000000000000E+00
 0.0000000000000E+00
 0.0000000000000E+00
 0.0000000000000E+00
 0.0000000000000E+00
 0.0000000000000E+00
 0.0000000000000E+00
 0.0000000000000E+00
 0.0000000000000E+00
 0.0000000000000E+00
 0.0000000000000E+00
 0.0000000000000E+00
 0.0000000000000E+00
 0.0000000000000E+00
 0.0000000000000E+00
 0.0000000000000E+00
 0.0000000000000E+00
 0.0000000000000E+00
 0.0000000000000E+00
 0.0000000000000E+00
 0.0000000000000E+00
 0.0000000000000E+00
 0.0000000000000E+00
 0.0000000000000E+00
 0.0000000000000E+00
 0.0000000000000E+00
 0.0000000000000E+00
 0.0000000000000E+00
 0.0000000000000E+00
 0.0000000000000E+00
 0.0000000000000E+00
 0.0000000000000E+00
 0.0000000000000E+00
 0.0000000000000E+00
 0.0000000000000E+00
 0.0000000000000E+00
 0.0000000000000E+00
 0.0000000000000E+00
 0.0000000000000E+00
 0.0000000000000E+00
 0.0000000000000E+00
 0.0000000000000E+00
 0.0000000000000E+00
 0.0000000000000E+00
 0.0000000000000E+00
 0.0000000000000E+00
 0.0000000000000E+00
 0.0000000000000E+00
 0.0000000000000E+00
 0.0000000000000E+00
 0.0000000000000E+00
 0.0000000000000E+00
 0.0000000000000E+00
 0.0000000000000E+00
 0.0000000000000E+00
 0.0000000000000E+00
 0.0000000000000E+00
 0.0000000000000E+00
 0.0000000000000E+00
 0.0000000000000E+00
 0.0000000000000E+00
 0.0000000000000E+00
 0.0000000000000E+00
 0.0000000000000E+00
 0.0000000000000E+00
 0.0000000000000E+00
 0.0000000000000E+00
 0.0000000000000E+00
 0.0000000000000E+00
 0.0000000000000E+00
 0.0000000000000E+00
 0.0000000000000E+00
 0.0000000000000E+00
 0.0000000000000E+00
 0.0000000000000E+00
 0.0000000000000E+00
 0.0000000000000E+00
 0.0000000000000E+00
 0.0000000000000E+00
 0.0000000000000E+00
 0.0000000000000E+00
 0.0000000000000E+00
 0.0000000000000E+00
 0.0000000000000E+00
 0.0000000000000E+00
 0.0000000000000E+00
 0.0000000000000E+00
 0.0000000000000E+00
 0.0000000000000E+00
 0.0000000000000E+00
 0.0000000000000E+00
 0.0000000000000E+00
 0.0000000000000E+00
 0.0000000000000E+00
 0.0000000000000E+00
 0.0000000000000E+00
 0.0000000000000E+00
 0.0000000000000E+00
 0.0000000000000E+00
 0.0000000000000E+00
 0.0000000000000E+00
 0.0000000000000E+00
 0.0000000000000E+00
 0.0000000000000E+00
 0.0000000000000E+00
 0.0000000000000E+00
 0.0000000000000E+00
 0.0000000000000E+00
 0.0000000000000E+00
 0.0000000000000E+00
 0.0000000000000E+00
 0.0000000000000E+00
 0.0000000000000E+00
 0.0000000000000E+00
 0.0000000000000E+00
 0.0000000000000E+00
 0.0000000000000E+00
 0.0000000000000E+00
 0.0000000000000E+00
 0.0000000000000E+00
 0.0000000000000E+00
 0.0000000000000E+00
 0.0000000000000E+00
 0.0000000000000E+00
 0.0000000000000E+00
 0.0000000000000E+00
 0.0000000000000E+00
 0.0000000000000E+00
 0.0000000000000E+00
 0.0000000000000E+00
 0.0000000000000E+00
 0.0000000000000E+00
 0.0000000000000E+00
 0.0000000000000E+00
 0.0000000000000E+00
 0.0000000000000E+00
 0.0000000000000E+00
 0.0000000000000E+00
 0.0000000000000E+00
 0.0000000000000E+00
 0.0000000000000E+00
 0.0000000000000E+00
 0.0000000000000E+00
 0.0000000000000E+00
 0.0000000000000E+00
 0.0000000000000E+00
 0.0000000000000E+00
 0.0000000000000E+00
 0.0000000000000E+00
 0.0000000000000E+00
 0.0000000000000E+00
 0.0000000000000E+00
 0.0000000000000E+00
 0.0000000000000E+00
 0.0000000000000E+00
 0.0000000000000E+00
 0.0000000000000E+00
 0.0000000000000E+00
 0.0000000000000E+00
 0.0000000000000E+00
 0.0000000000000E+00
 0.0000000000000E+00
 0.0000000000000E+00
 0.0000000000000E+00
 0.0000000000000E+00
 0.0000000000000E+00
 0.0000000000000E+00
 0.0000000000000E+00
 0.0000000000000E+00
 0.0000000000000E+00
 0.0000000000000E+00
 0.0000000000000E+00
 0.0000000000000E+00
 0.0000000000000E+00
 0.0000000000000E+00
 0.0000000000000E+00
 0.0000000000000E+00
 0.0000000000000E+00
 0.0000000000000E+00
 0.0000000000000E+00
 0.0000000000000E+00
 0.0000000000000E+00
 0.0000000000000E+00
 0.0000000000000E+00
 0.0000000000000E+00
 0.0000000000000E+00
 0.0000000000000E+00
 0.0000000000000E+00
 0.0000000000000E+00
 0.0000000000000E+00
 0.0000000000000E+00
 0.0000000000000E+00
 0.0000000000000E+00
 0.0000000000000E+00
 0.0000000000000E+00
 0.0000000000000E+00
 0.0000000000000E+00
 0.0000000000000E+00
 0.0000000000000E+00
 0.0000000000000E+00
 0.0000000000000E+00
 0.0000000000000E+00
 0.0000000000000E+00
 0.0000000000000E+00
 0.0000000000000E+00
 0.0000000000000E+00
 0.0000000000000E+00
 0.0000000000000E+00
 0.0000000000000E+00
 0.0000000000000E+00
 0.0000000000000E+00
 0.0000000000000E+00
 0.0000000000000E+00
 0.0000000000000E+00
 0.0000000000000E+00
 0.0000000000000E+00
 0.0000000000000E+00
 0.0000000000000E+00
 0.0000000000000E+00
 0.0000000000000E+00
 0.0000000000000E+00
 0.0000000000000E+00
 0.0000000000000E+00
 0.0000000000000E+00
 0.0000000000000E+00
 0.0000000000000E+00
 0.0000000000000E+00
 0.0000000000000E+00
 0.0000000000000E+00
 0.0000000000000E+00
 0.0000000000000E+00
 0.0000000000000E+00
 0.0000000000000E+00
 0.0000000000000E+00
 0.0000000000000E+00
 0.0000000000000E+00
 0.0000000000000E+00
 0.0000000000000E+00
 0.0000000000000E+00
 0.0000000000000E+00
 0.0000000000000E+00
 0.0000000000000E+00
 0.0000000000000E+00
 0.0000000000000E+00
 0.0000000000000E+00
 0.0000000000000E+00
 0.0000000000000E+00
 0.0000000000000E+00
 0.0000000000000E+00
 0.0000000000000E+00
 0.0000000000000E+00
 0.0000000000000E+00
 0.0000000000000E+00
 0.0000000000000E+00
 0.0000000000000E+00
 0.0000000000000E+00
 0.0000000000000E+00
 0.0000000000000E+00
 0.0000000000000E+00
 0.0000000000000E+00
 0.0000000000000E+00
 0.0000000000000E+00
 0.0000000000000E+00
 0.0000000000000E+00
 0.0000000000000E+00
 0.0000000000000E+00
 0.0000000000000E+00
 0.0000000000000E+00
 0.0000000000000E+00
 0.0000000000000E+00
 0.0000000000000E+00
 0.0000000000000E+00
 0.0000000000000E+00
 0.0000000000000E+00
 0.0000000000000E+00
 0.0000000000000E+00
 0.0000000000000E+00
 0.0000000000000E+00
 0.0000000000000E+00
 0.0000000000000E+00
 0.0000000000000E+00
 0.0000000000000E+00
 0.0000000000000E+00
 0.0000000000000E+00
 0.0000000000000E+00
 0.0000000000000E+00
 0.0000000000000E+00
 0.0000000000000E+00
 0.0000000000000E+00
 0.0000000000000E+00
 0.0000000000000E+00
 0.0000000000000E+00
 0.0000000000000E+00
 0.0000000000000E+00
 0.0000000000000E+00
 0.0000000000000E+00
 0.0000000000000E+00
 0.0000000000000E+00
 0.0000000000000E+00
 0.0000000000000E+00
 0.0000000000000E+00
 0.0000000000000E+00
 0.0000000000000E+00
 0.0000000000000E+00
 0.0000000000000E+00
 0.0000000000000E+00
 0.0000000000000E+00
 0.0000000000000E+00
 0.0000000000000E+00
 0.0000000000000E+00
 0.0000000000000E+00
 0.0000000000000E+00
 0.0000000000000E+00
 0.0000000000000E+00
 0.0000000000000E+00
 0.0000000000000E+00
 0.0000000000000E+00
 0.0000000000000E+00
 0.0000000000000E+00
 0.0000000000000E+00
 0.0000000000000E+00
 0.0000000000000E+00
 0.0000000000000E+00
 0.0000000000000E+00
 0.0000000000000E+00
 0.0000000000000E+00
 0.0000000000000E+00
 0.0000000000000E+00
 0.0000000000000E+00
 0.0000000000000E+00
 0.0000000000000E+00
 0.0000000000000E+00
 0.0000000000000E+00
 0.0000000000000E+00
 0.0000000000000E+00
 0.0000000000000E+00
 0.0000000000000E+00
 0.0000000000000E+00
 0.0000000000000E+00
 0.0000000000000E+00
 0.0000000000000E+00
 0.0000000000000E+00
 0.0000000000000E+00
 0.0000000000000E+00
 0.0000000000000E+00
 0.0000000000000E+00
 0.0000000000000E+00
 0.0000000000000E+00
 0.0000000000000E+00
 0.0000000000000E+00
 0.0000000000000E+00
 0.0000000000000E+00
 0.0000000000000E+00
 0.0000000000000E+00
 0.0000000000000E+00
 0.0000000000000E+00
 0.0000000000000E+00
 0.0000000000000E+00
 0.0000000000000E+00
 0.0000000000000E+00
 0.0000000000000E+00
 0.0000000000000E+00
 0.0000000000000E+00
 0.0000000000000E+00
 0.0000000000000E+00
 0.0000000000000E+00
 0.0000000000000E+00
 0.0000000000000E+00
 0.0000000000000E+00
 0.0000000000000E+00
 0.0000000000000E+00
 0.0000000000000E+00
 0.0000000000000E+00
 0.0000000000000E+00
 0.0000000000000E+00
 0.0000000000000E+00
 0.0000000000000E+00
 0.0000000000000E+00
 0.0000000000000E+00
 0.0000000000000E+00
 0.0000000000000E+00
 0.0000000000000E+00
 0.0000000000000E+00
 0.0000000000000E+00
 0.0000000000000E+00
 0.0000000000000E+00
 0.0000000000000E+00
 0.0000000000000E+00
 0.0000000000000E+00
 0.0000000000000E+00
 0.0000000000000E+00
 0.0000000000000E+00
 0.0000000000000E+00
 0.0000000000000E+00
 0.0000000000000E+00
 0.0000000000000E+00
 0.0000000000000E+00
 0.0000000000000E+00
 0.0000000000000E+00
 0.0000000000000E+00
 0.0000000000000E+00
 0.0000000000000E+00
 0.0000000000000E+00
 0.0000000000000E+00
 0.0000000000000E+00
 0.0000000000000E+00
 0.0000000000000E+00
 0.0000000000000E+00
 0.0000000000000E+00
 0.0000000000000E+00
 0.0000000000000E+00
 0.0000000000000E+00
 0.0000000000000E+00
 0.0000000000000E+00
 0.0000000000000E+00
 0.0000000000000E+00
 0.0000000000000E+00
 0.0000000000000E+00
 0.0000000000000E+00
 0.0000000000000E+00
 0.0000000000000E+00
 0.0000000000000E+00
 0.0000000000000E+00
 0.0000000000000E+00
 0.0000000000000E+00
 0.0000000000000E+00
 0.0000000000000E+00
 0.0000000000000E+00
 0.0000000000000E+00
 0.0000000000000E+00
 0.0000000000000E+00
 0.0000000000000E+00
 0.0000000000000E+00
 0.0000000000000E+00
 0.0000000000000E+00
 0.0000000000000E+00
 0.0000000000000E+00
 0.0000000000000E+00
 0.0000000000000E+00
 0.0000000000000E+00
 0.0000000000000E+00
 0.0000000000000E+00
 0.0000000000000E+00
 0.0000000000000E+00
 0.0000000000000E+00
 0.0000000000000E+00
 0.0000000000000E+00
 0.0000000000000E+00
 0.0000000000000E+00
 0.0000000000000E+00
 0.0000000000000E+00
 0.0000000000000E+00
 0.0000000000000E+00
 0.0000000000000E+00
 0.0000000000000E+00
 0.0000000000000E+00
 0.0000000000000E+00
 0.0000000000000E+00
 0.0000000000000E+00
 0.0000000000000E+00
 0.0000000000000E+00
 0.0000000000000E+00
 0.0000000000000E+00
 0.0000000000000E+00
 0.0000000000000E+00
 0.0000000000000E+00
 0.0000000000000E+00
 0.0000000000000E+00
 0.0000000000000E+00
 0.0000000000000E+00
 0.0000000000000E+00
 0.0000000000000E+00
 0.0000000000000E+00
 0.0000000000000E+00
 0.0000000000000E+00
 0.0000000000000E+00
 0.0000000000000E+00
 0.0000000000000E+00
 0.0000000000000E+00
 0.0000000000000E+00
 0.0000000000000E+00
 0.0000000000000E+00
 0.0000000000000E+00
 0.0000000000000E+00
 0.0000000000000E+00
 0.0000000000000E+00
 0.0000000000000E+00
 0.0000000000000E+00
 0.0000000000000E+00
 0.0000000000000E+00
 0.0000000000000E+00
 0.0000000000000E+00
 0.0000000000000E+00
 0.0000000000000E+00
 0.0000000000000E+00
 0.0000000000000E+00
 0.0000000000000E+00
 0.0000000000000E+00
 0.0000000000000E+00
 0.0000000000000E+00
 0.0000000000000E+00
 0.0000000000000E+00
 0.0000000000000E+00
 0.0000000000000E+00
 0.0000000000000E+00
 0.0000000000000E+00
 0.0000000000000E+00
 0.0000000000000E+00
 0.0000000000000E+00
 0.0000000000000E+00
 0.0000000000000E+00
 0.0000000000000E+00
 0.0000000000000E+00
 0.0000000000000E+00
 0.0000000000000E+00
 0.0000000000000E+00
 0.0000000000000E+00
 0.0000000000000E+00
 0.0000000000000E+00
 0.0000000000000E+00
 0.0000000000000E+00
 0.0000000000000E+00
 0.0000000000000E+00
 0.0000000000000E+00
 0.0000000000000E+00
 0.0000000000000E+00
 0.0000000000000E+00
 0.0000000000000E+00
 0.0000000000000E+00
 0.0000000000000E+00
 0.0000000000000E+00
 0.0000000000000E+00
 0.0000000000000E+00
 0.0000000000000E+00
 0.0000000000000E+00
 0.0000000000000E+00
 0.0000000000000E+00
 0.0000000000000E+00
 0.0000000000000E+00
 0.0000000000000E+00
 0.0000000000000E+00
 0.0000000000000E+00
 0.0000000000000E+00
 0.0000000000000E+00
 0.0000000000000E+00
 0.0000000000000E+00
 0.0000000000000E+00
 0.0000000000000E+00
 0.0000000000000E+00
 0.0000000000000E+00
 0.0000000000000E+00
 0.0000000000000E+00
 0.0000000000000E+00
 0.0000000000000E+00
 0.0000000000000E+00
 0.0000000000000E+00
 0.0000000000000E+00
 0.0000000000000E+00
 0.0000000000000E+00
 0.0000000000000E+00
 0.0000000000000E+00
 0.0000000000000E+00
 0.0000000000000E+00
 0.0000000000000E+00
 0.0000000000000E+00
 0.0000000000000E+00
 0.0000000000000E+00
 0.0000000000000E+00
 0.0000000000000E+00
 0.0000000000000E+00
 0.0000000000000E+00
 0.0000000000000E+00
 0.0000000000000E+00
 0.0000000000000E+00
 0.0000000000000E+00
 0.0000000000000E+00
 0.0000000000000E+00
 0.0000000000000E+00
 0.0000000000000E+00
 0.0000000000000E+00
 0.0000000000000E+00
 0.0000000000000E+00
 0.0000000000000E+00
 0.0000000000000E+00
 0.0000000000000E+00
 0.0000000000000E+00
 0.0000000000000E+00
 0.0000000000000E+00
 0.0000000000000E+00
 0.0000000000000E+00
 0.0000000000000E+00
 0.0000000000000E+00
 0.0000000000000E+00
 0.0000000000000E+00
 0.0000000000000E+00
 0.0000000000000E+00
 0.0000000000000E+00
 0.0000000000000E+00
 0.0000000000000E+00
 0.0000000000000E+00
 0.0000000000000E+00
 0.0000000000000E+00
 0.0000000000000E+00
 0.0000000000000E+00
 0.0000000000000E+00
 0.0000000000000E+00
 0.0000000000000E+00
 0.0000000000000E+00
 0.0000000000000E+00
 0.0000000000000E+00
 0.0000000000000E+00
 0.0000000000000E+00
 0.0000000000000E+00
 0.0000000000000E+00
 0.0000000000000E+00
 0.0000000000000E+00
 0.0000000000000E+00
 0.0000000000000E+00
 0.0000000000000E+00
 0.0000000000000E+00
 0.0000000000000E+00
 0.0000000000000E+00
 0.0000000000000E+00
 0.0000000000000E+00
 0.0000000000000E+00
 0.0000000000000E+00
 0.0000000000000E+00
 0.0000000000000E+00
 0.0000000000000E+00
 0.0000000000000E+00
 0.0000000000000E+00
 0.0000000000000E+00
 0.0000000000000E+00
 0.0000000000000E+00
 0.0000000000000E+00
 0.0000000000000E+00
 0.0000000000000E+00
 0.0000000000000E+00
 0.0000000000000E+00
 0.0000000000000E+00
 0.0000000000000E+00
 0.0000000000000E+00
 0.0000000000000E+00
 0.0000000000000E+00
 0.0000000000000E+00
 0.0000000000000E+00
 0.0000000000000E+00
 0.0000000000000E+00
 0.0000000000000E+00
 0.0000000000000E+00
 0.0000000000000E+00
 0.0000000000000E+00
 0.0000000000000E+00
 0.0000000000000E+00
 0.0000000000000E+00
 0.0000000000000E+00
 0.0000000000000E+00
 0.0000000000000E+00
 0.0000000000000E+00
 0.0000000000000E+00
 0.0000000000000E+00
 0.0000000000000E+00
 0.0000000000000E+00
 0.0000000000000E+00
 0.0000000000000E+00
 0.0000000000000E+00
 0.0000000000000E+00
 0.0000000000000E+00
 0.0000000000000E+00
 0.0000000000000E+00
 0.0000000000000E+00
 0.0000000000000E+00
 0.0000000000000E+00
 0.0000000000000E+00
 0.0000000000000E+00
 0.0000000000000E+00
 0.0000000000000E+00
 0.0000000000000E+00
 0.0000000000000E+00
 0.0000000000000E+00
 0.0000000000000E+00
 0.0000000000000E+00
 0.0000000000000E+00
 0.0000000000000E+00
 0.0000000000000E+00
 0.0000000000000E+00
 0.0000000000000E+00
 0.0000000000000E+00
 0.0000000000000E+00
 0.0000000000000E+00
 0.0000000000000E+00
 0.0000000000000E+00
 0.0000000000000E+00
 0.0000000000000E+00
 0.0000000000000E+00
 0.0000000000000E+00
 0.0000000000000E+00
 0.0000000000000E+00
 0.0000000000000E+00
 0.0000000000000E+00
 0.0000000000000E+00
 0.0000000000000E+00
 0.0000000000000E+00
 0.0000000000000E+00
 0.0000000000000E+00
 0.0000000000000E+00
 0.0000000000000E+00
 0.0000000000000E+00
 0.0000000000000E+00
 0.0000000000000E+00
 0.0000000000000E+00
 0.0000000000000E+00
 0.0000000000000E+00
 0.0000000000000E+00
 0.0000000000000E+00
 0.0000000000000E+00
 0.0000000000000E+00
 0.0000000000000E+00
 0.0000000000000E+00
 0.0000000000000E+00
 0.0000000000000E+00
 0.0000000000000E+00
 0.0000000000000E+00
 0.0000000000000E+00
 0.0000000000000E+00
 0.0000000000000E+00
 0.0000000000000E+00
 0.0000000000000E+00
 0.0000000000000E+00
 0.0000000000000E+00
 0.0000000000000E+00
 0.0000000000000E+00
 0.0000000000000E+00
 0.0000000000000E+00
 0.0000000000000E+00
 0.0000000000000E+00
 0.0000000000000E+00
 0.0000000000000E+00
 0.0000000000000E+00
 0.0000000000000E+00
 0.0000000000000E+00
 0.0000000000000E+00
 0.0000000000000E+00
 0.0000000000000E+00
 0.0000000000000E+00
 0.0000000000000E+00
 0.0000000000000E+00
 0.0000000000000E+00
 0.0000000000000E+00
 0.0000000000000E+00
 0.0000000000000E+00
 0.0000000000000E+00
 0.0000000000000E+00
 0.0000000000000E+00
 0.0000000000000E+00
 0.0000000000000E+00
 0.0000000000000E+00
 0.0000000000000E+00
 0.0000000000000E+00
 0.0000000000000E+00
 0.0000000000000E+00
 0.0000000000000E+00
 0.0000000000000E+00
 0.0000000000000E+00
 0.0000000000000E+00
 0.0000000000000E+00
 0.0000000000000E+00
 0.0000000000000E+00
 0.0000000000000E+00
 0.0000000000000E+00
 0.0000000000000E+00
 0.0000000000000E+00
 0.0000000000000E+00
 0.0000000000000E+00
 0.0000000000000E+00
 0.0000000000000E+00
 0.0000000000000E+00
 0.0000000000000E+00
 0.0000000000000E+00
 0.0000000000000E+00
 0.0000000000000E+00
 0.0000000000000E+00
 0.0000000000000E+00
 0.0000000000000E+00
 0.0000000000000E+00
 0.0000000000000E+00
 0.0000000000000E+00
 0.0000000000000E+00
 0.0000000000000E+00
 0.0000000000000E+00
 0.0000000000000E+00
 0.0000000000000E+00
 0.0000000000000E+00
 0.0000000000000E+00
 0.0000000000000E+00
 0.0000000000000E+00
 0.0000000000000E+00
 0.0000000000000E+00
 0.0000000000000E+00
 0.0000000000000E+00
 0.0000000000000E+00
 0.0000000000000E+00
 0.0000000000000E+00
 0.0000000000000E+00
 0.0000000000000E+00
 0.0000000000000E+00
 0.0000000000000E+00
 0.0000000000000E+00
 0.0000000000000E+00
 0.0000000000000E+00
 0.0000000000000E+00
 0.0000000000000E+00
 0.0000000000000E+00
 0.0000000000000E+00
 0.0000000000000E+00
 0.0000000000000E+00
 0.0000000000000E+00
 0.0000000000000E+00
 0.0000000000000E+00
 0.0000000000000E+00
 0.0000000000000E+00
 0.0000000000000E+00
 0.0000000000000E+00
 0.0000000000000E+00
 0.0000000000000E+00
 0.0000000000000E+00
 0.0000000000000E+00
 0.0000000000000E+00
 0.0000000000000E+00
 0.0000000000000E+00
 0.0000000000000E+00
 0.0000000000000E+00
 0.0000000000000E+00
 0.0000000000000E+00
 0.0000000000000E+00
 0.0000000000000E+00
 0.0000000000000E+00
 0.0000000000000E+00
 0.0000000000000E+00
 0.0000000000000E+00
 0.0000000000000E+00
 0.0000000000000E+00
 0.0000000000000E+00
 0.0000000000000E+00
 0.0000000000000E+00
 0.0000000000000E+00
 0.0000000000000E+00
 0.0000000000000E+00
 0.0000000000000E+00
 0.0000000000000E+00
 0.0000000000000E+00
 0.0000000000000E+00
 0.0000000000000E+00
 0.0000000000000E+00
 0.0000000000000E+00
 0.0000000000000E+00
 0.0000000000000E+00
 0.0000000000000E+00
 0.0000000000000E+00
 0.0000000000000E+00
 0.0000000000000E+00
 0.0000000000000E+00
 0.0000000000000E+00
 0.0000000000000E+00
 0.0000000000000E+00
 0.0000000000000E+00
 0.0000000000000E+00
 0.0000000000000E+00
 0.0000000000000E+00
 0.0000000000000E+00
 0.0000000000000E+00
 0.0000000000000E+00
 0.0000000000000E+00
 0.0000000000000E+00
 0.0000000000000E+00
 0.0000000000000E+00
 0.0000000000000E+00
 0.0000000000000E+00
 0.0000000000000E+00
 0.0000000000000E+00
 0.0000000000000E+00
 0.0000000000000E+00
 0.0000000000000E+00
 0.0000000000000E+00
 0.0000000000000E+00
 0.0000000000000E+00
 0.0000000000000E+00
 0.0000000000000E+00
 0.0000000000000E+00
 0.0000000000000E+00
 0.0000000000000E+00
 0.0000000000000E+00
 0.0000000000000E+00
 0.0000000000000E+00
 0.0000000000000E+00
 0.0000000000000E+00
 0.0000000000000E+00
 0.0000000000000E+00
 0.0000000000000E+00
 0.0000000000000E+00
 0.0000000000000E+00
 0.0000000000000E+00
 0.0000000000000E+00
 0.0000000000000E+00
 0.0000000000000E+00
 0.0000000000000E+00
 0.0000000000000E+00
 0.0000000000000E+00
 0.0000000000000E+00
 0.0000000000000E+00
 0.0000000000000E+00
 0.0000000000000E+00
 0.0000000000000E+00
 0.0000000000000E+00
 0.0000000000000E+00
 0.0000000000000E+00
 0.0000000000000E+00
 0.0000000000000E+00
 0.0000000000000E+00
 0.0000000000000E+00
 0.0000000000000E+00
 0.0000000000000E+00
 0.0000000000000E+00
 0.0000000000000E+00
 0.0000000000000E+00
 0.0000000000000E+00
 0.0000000000000E+00
 0.0000000000000E+00
 0.0000000000000E+00
 0.0000000000000E+00
 0.0000000000000E+00
 0.0000000000000E+00
 0.0000000000000E+00
 0.0000000000000E+00
 0.0000000000000E+00
 0.0000000000000E+00
 0.0000000000000E+00
 0.0000000000000E+00
 0.0000000000000E+00
 0.0000000000000E+00
 0.0000000000000E+00
 0.0000000000000E+00
 0.0000000000000E+00
 0.0000000000000E+00
 0.0000000000000E+00
 0.0000000000000E+00
 0.0000000000000E+00
 0.0000000000000E+00
 0.0000000000000E+00
 0.0000000000000E+00
 0.0000000000000E+00
 0.0000000000000E+00
 0.0000000000000E+00
 0.0000000000000E+00
 0.0000000000000E+00
 0.0000000000000E+00
 0.0000000000000E+00
 0.0000000000000E+00
 0.0000000000000E+00
 0.0000000000000E+00
 0.0000000000000E+00
 0.0000000000000E+00
 0.0000000000000E+00
 0.0000000000000E+00
 0.0000000000000E+00
 0.0000000000000E+00
 0.0000000000000E+00
 0.0000000000000E+00
 0.0000000000000E+00
 0.0000000000000E+00
 0.0000000000000E+00
 0.0000000000000E+00
 0.0000000000000E+00
 0.0000000000000E+00
 0.0000000000000E+00
 0.0000000000000E+00
 0.0000000000000E+00
 0.0000000000000E+00
 0.0000000000000E+00
 0.0000000000000E+00
 0.0000000000000E+00
 0.0000000000000E+00
 0.0000000000000E+00
 0.0000000000000E+00
 0.0000000000000E+00
 0.0000000000000E+00
 0.0000000000000E+00
 0.0000000000000E+00
 0.0000000000000E+00
 0.0000000000000E+00
 0.0000000000000E+00
 0.0000000000000E+00
 0.0000000000000E+00
 0.0000000000000E+00
 0.0000000000000E+00
 0.0000000000000E+00
 0.0000000000000E+00
 0.0000000000000E+00
 0.0000000000000E+00
 0.0000000000000E+00
 0.0000000000000E+00
 0.0000000000000E+00
 0.0000000000000E+00
 0.0000000000000E+00
 0.0000000000000E+00
 0.0000000000000E+00
 0.0000000000000E+00
 0.0000000000000E+00
 0.0000000000000E+00
 0.0000000000000E+00
 0.0000000000000E+00
 0.0000000000000E+00
 0.0000000000000E+00
 0.0000000000000E+00
 0.0000000000000E+00
 0.0000000000000E+00
 0.0000000000000E+00
 0.0000000000000E+00
 0.0000000000000E+00
 0.0000000000000E+00
 0.0000000000000E+00
 0.0000000000000E+00
 0.0000000000000E+00
 0.0000000000000E+00
 0.0000000000000E+00
 0.0000000000000E+00
 0.0000000000000E+00
 0.0000000000000E+00
 0.0000000000000E+00
 0.0000000000000E+00
 0.0000000000000E+00
 0.0000000000000E+00
 0.0000000000000E+00
 0.0000000000000E+00
 0.0000000000000E+00
 0.0000000000000E+00
 0.0000000000000E+00
 0.0000000000000E+00
 0.0000000000000E+00
 0.0000000000000E+00
 0.0000000000000E+00
 0.0000000000000E+00
 0.0000000000000E+00
 0.0000000000000E+00
 0.0000000000000E+00
 0.0000000000000E+00
 0.0000000000000E+00
 0.0000000000000E+00
 0.0000000000000E+00
 0.0000000000000E+00
 0.0000000000000E+00
 0.0000000000000E+00
 0.0000000000000E+00
 0.0000000000000E+00
 0.0000000000000E+00
 0.0000000000000E+00
 0.0000000000000E+00
 0.0000000000000E+00
 0.0000000000000E+00
 0.0000000000000E+00
 0.0000000000000E+00
 0.0000000000000E+00
 0.0000000000000E+00
 0.0000000000000E+00
 0.0000000000000E+00
 0.0000000000000E+00
 0.0000000000000E+00
 0.0000000000000E+00
 0.0000000000000E+00
 0.0000000000000E+00
 0.0000000000000E+00
 0.0000000000000E+00
 0.0000000000000E+00
 0.0000000000000E+00
 0.0000000000000E+00
 0.0000000000000E+00
 0.0000000000000E+00
 0.0000000000000E+00
 0.0000000000000E+00
 0.0000000000000E+00
 0.0000000000000E+00
 0.0000000000000E+00
 0.0000000000000E+00
 0.0000000000000E+00
 0.0000000000000E+00
 0.0000000000000E+00
 0.0000000000000E+00
 0.0000000000000E+00
 0.0000000000000E+00
 0.0000000000000E+00
 0.0000000000000E+00
 0.0000000000000E+00
 0.0000000000000E+00
 0.0000000000000E+00
 0.0000000000000E+00
 0.0000000000000E+00
 0.0000000000000E+00
 0.0000000000000E+00
 0.0000000000000E+00
 0.0000000000000E+00
 0.0000000000000E+00
 0.0000000000000E+00
 0.0000000000000E+00
 0.0000000000000E+00
 0.0000000000000E+00
 0.0000000000000E+00
 0.0000000000000E+00
 0.0000000000000E+00
 0.0000000000000E+00
 0.0000000000000E+00
 0.0000000000000E+00
 0.0000000000000E+00
 0.0000000000000E+00
 0.0000000000000E+00
 0.0000000000000E+00
 0.0000000000000E+00
 0.0000000000000E+00
 0.0000000000000E+00
 0.0000000000000E+00
 0.0000000000000E+00
 0.0000000000000E+00
 0.0000000000000E+00
 0.0000000000000E+00
 0.0000000000000E+00
 0.0000000000000E+00
 0.0000000000000E+00
 0.0000000000000E+00
 0.0000000000000E+00
 0.0000000000000E+00
 0.0000000000000E+00
 0.0000000000000E+00
 0.0000000000000E+00
 0.0000000000000E+00
 0.0000000000000E+00
 0.0000000000000E+00
 0.0000000000000E+00
 0.0000000000000E+00
 0.0000000000000E+00
 0.0000000000000E+00
 0.0000000000000E+00
 0.0000000000000E+00
 0.0000000000000E+00
 0.0000000000000E+00
 0.0000000000000E+00
 0.0000000000000E+00
 0.0000000000000E+00
 0.0000000000000E+00
 0.0000000000000E+00
 0.0000000000000E+00
 0.0000000000000E+00
 0.0000000000000E+00
 0.0000000000000E+00
 0.0000000000000E+00
 0.0000000000000E+00
 0.0000000000000E+00
 0.0000000000000E+00
 0.0000000000000E+00
 0.0000000000000E+00
 0.0000000000000E+00
 0.0000000000000E+00
 0.0000000000000E+00
 0.0000000000000E+00
 0.0000000000000E+00
 0.0000000000000E+00
 0.0000000000000E+00
 0.0000000000000E+00
 0.0000000000000E+00
 0.0000000000000E+00
 0.0000000000000E+00
 0.0000000000000E+00
 0.0000000000000E+00
 0.0000000000000E+00
 0.0000000000000E+00
 0.0000000000000E+00
 0.0000000000000E+00
 0.0000000000000E+00
 0.0000000000000E+00
 0.0000000000000E+00
 0.0000000000000E+00
 0.0000000000000E+00
 0.0000000000000E+00
 0.0000000000000E+00
 0.0000000000000E+00
 0.0000000000000E+00
 0.0000000000000E+00
 0.0000000000000E+00
 0.0000000000000E+00
 0.0000000000000E+00
 0.0000000000000E+00
 0.0000000000000E+00
 0.0000000000000E+00
 0.0000000000000E+00
 0.0000000000000E+00
 0.0000000000000E+00
 0.0000000000000E+00
 0.0000000000000E+00
 0.0000000000000E+00
 0.0000000000000E+00
 0.0000000000000E+00
 0.0000000000000E+00
 0.0000000000000E+00
 0.0000000000000E+00
 0.0000000000000E+00
 0.0000000000000E+00
 0.0000000000000E+00
 0.0000000000000E+00
 0.0000000000000E+00
 0.0000000000000E+00
 0.0000000000000E+00
 0.0000000000000E+00
 0.0000000000000E+00
 0.0000000000000E+00
 0.0000000000000E+00
 0.0000000000000E+00
 0.0000000000000E+00
 0.0000000000000E+00
 0.0000000000000E+00
 0.0000000000000E+00
 0.0000000000000E+00
 0.0000000000000E+00
 0.0000000000000E+00
 0.0000000000000E+00
 0.0000000000000E+00
 0.0000000000000E+00
 0.0000000000000E+00
 0.0000000000000E+00
 0.0000000000000E+00
 0.0000000000000E+00
 0.0000000000000E+00
 0.0000000000000E+00
 0.0000000000000E+00
 0.0000000000000E+00
 0.0000000000000E+00
 0.0000000000000E+00
 0.0000000000000E+00
 0.0000000000000E+00
 0.0000000000000E+00
 0.0000000000000E+00
 0.0000000000000E+00
 0.0000000000000E+00
 0.0000000000000E+00
 0.0000000000000E+00
 0.0000000000000E+00
 0.0000000000000E+00
 0.0000000000000E+00
 0.0000000000000E+00
 0.0000000000000E+00
 0.0000000000000E+00
 0.0000000000000E+00
 0.0000000000000E+00
 0.0000000000000E+00
 0.0000000000000E+00
 0.0000000000000E+00
 0.0000000000000E+00
 0.0000000000000E+00
 0.0000000000000E+00
 0.0000000000000E+00
 0.0000000000000E+00
 0.0000000000000E+00
 0.0000000000000E+00
 0.0000000000000E+00
 0.0000000000000E+00
 0.0000000000000E+00
 0.0000000000000E+00
 0.0000000000000E+00
 0.0000000000000E+00
 0.0000000000000E+00
 0.0000000000000E+00
 0.0000000000000E+00
 0.0000000000000E+00
 0.0000000000000E+00
 0.0000000000000E+00
 0.0000000000000E+00
 0.0000000000000E+00
 0.0000000000000E+00
 0.0000000000000E+00
 0.0000000000000E+00
 0.0000000000000E+00
 0.0000000000000E+00
 0.0000000000000E+00
 0.0000000000000E+00
 0.0000000000000E+00
 0.0000000000000E+00
 0.0000000000000E+00
 0.0000000000000E+00
 0.0000000000000E+00
 0.0000000000000E+00
 0.0000000000000E+00
 0.0000000000000E+00
 0.0000000000000E+00
 0.0000000000000E+00
 0.0000000000000E+00
 0.0000000000000E+00
 0.0000000000000E+00
 0.0000000000000E+00
 0.0000000000000E+00
 0.0000000000000E+00
 0.0000000000000E+00
 0.0000000000000E+00
 0.0000000000000E+00
 0.0000000000000E+00
 0.0000000000000E+00
 0.0000000000000E+00
 0.0000000000000E+00
 0.0000000000000E+00
 0.0000000000000E+00
 0.0000000000000E+00
 0.0000000000000E+00
 0.0000000000000E+00
 0.0000000000000E+00
 0.0000000000000E+00
 0.0000000000000E+00
 0.0000000000000E+00
 0.0000000000000E+00
 0.0000000000000E+00
 0.0000000000000E+00
 0.0000000000000E+00
 0.0000000000000E+00
 0.0000000000000E+00
 0.0000000000000E+00
 0.0000000000000E+00
 0.0000000000000E+00
 0.0000000000000E+00
 0.0000000000000E+00
 0.0000000000000E+00
 0.0000000000000E+00
 0.0000000000000E+00
 0.0000000000000E+00
 0.0000000000000E+00
 0.0000000000000E+00
 0.0000000000000E+00
 0.0000000000000E+00
 0.0000000000000E+00
 0.0000000000000E+00
 0.0000000000000E+00
 0.0000000000000E+00
 0.0000000000000E+00
 0.0000000000000E+00
 0.0000000000000E+00
 0.0000000000000E+00
 0.0000000000000E+00
 0.0000000000000E+00
 0.0000000000000E+00
 0.0000000000000E+00
 0.0000000000000E+00
 0.0000000000000E+00
 0.0000000000000E+00
 0.0000000000000E+00
 0.0000000000000E+00
 0.0000000000000E+00
 0.0000000000000E+00
 0.0000000000000E+00
 0.0000000000000E+00
 0.0000000000000E+00
 0.0000000000000E+00
 0.0000000000000E+00
 0.0000000000000E+00
 0.0000000000000E+00
 0.0000000000000E+00
 0.0000000000000E+00
 0.0000000000000E+00
 0.0000000000000E+00
 0.0000000000000E+00
 0.0000000000000E+00
 0.0000000000000E+00
 0.0000000000000E+00
 0.0000000000000E+00
 0.0000000000000E+00
 0.0000000000000E+00
 0.0000000000000E+00
 0.0000000000000E+00
 0.0000000000000E+00
 0.0000000000000E+00
 0.0000000000000E+00
 0.0000000000000E+00
 0.0000000000000E+00
 0.0000000000000E+00
 0.0000000000000E+00
 0.0000000000000E+00
 0.0000000000000E+00
 0.0000000000000E+00
 0.0000000000000E+00
 0.0000000000000E+00
 0.0000000000000E+00
 0.0000000000000E+00
 0.0000000000000E+00
 0.0000000000000E+00
 0.0000000000000E+00
 0.0000000000000E+00
 0.0000000000000E+00
 0.0000000000000E+00
 0.0000000000000E+00
 0.0000000000000E+00
 0.0000000000000E+00
 0.0000000000000E+00
 0.0000000000000E+00
 0.0000000000000E+00
 0.0000000000000E+00
 0.0000000000000E+00
 0.0000000000000E+00
 0.0000000000000E+00
 0.0000000000000E+00
 0.0000000000000E+00
 0.0000000000000E+00
 0.0000000000000E+00
 0.0000000000000E+00
 0.0000000000000E+00
 0.0000000000000E+00
 0.0000000000000E+00
 0.0000000000000E+00
 0.0000000000000E+00
 0.0000000000000E+00
 0.0000000000000E+00
 0.0000000000000E+00
 0.0000000000000E+00
 0.0000000000000E+00
 0.0000000000000E+00
 0.0000000000000E+00
 0.0000000000000E+00
 0.0000000000000E+00
 0.0000000000000E+00
 0.0000000000000E+00
 0.0000000000000E+00
 0.0000000000000E+00
 0.0000000000000E+00
 0.0000000000000E+00
 0.0000000000000E+00
 0.0000000000000E+00
 0.0000000000000E+00
 0.0000000000000E+00
 0.0000000000000E+00
 0.0000000000000E+00
 0.0000000000000E+00
 0.0000000000000E+00
 0.0000000000000E+00
 0.0000000000000E+00
 0.0000000000000E+00
 0.0000000000000E+00
 0.0000000000000E+00
 0.0000000000000E+00
 0.0000000000000E+00
 0.0000000000000E+00
 0.0000000000000E+00
 0.0000000000000E+00
 0.0000000000000E+00
 0.0000000000000E+00
 0.0000000000000E+00
 0.0000000000000E+00
 0.0000000000000E+00
 0.0000000000000E+00
 0.0000000000000E+00
 0.0000000000000E+00
 0.0000000000000E+00
 0.0000000000000E+00
 0.0000000000000E+00
 0.0000000000000E+00
 0.0000000000000E+00
 0.0000000000000E+00
 0.0000000000000E+00
 0.0000000000000E+00
 0.0000000000000E+00
 0.0000000000000E+00
 0.0000000000000E+00
 0.0000000000000E+00
 0.0000000000000E+00
 0.0000000000000E+00
 0.0000000000000E+00
 0.0000000000000E+00
 0.0000000000000E+00
 0.0000000000000E+00
 0.0000000000000E+00
 0.0000000000000E+00
 0.0000000000000E+00
 0.0000000000000E+00
 0.0000000000000E+00
 0.0000000000000E+00
 0.0000000000000E+00
 0.0000000000000E+00
 0.0000000000000E+00
 0.0000000000000E+00
 0.0000000000000E+00
 0.0000000000000E+00
 0.0000000000000E+00
 0.0000000000000E+00
 0.0000000000000E+00
 0.0000000000000E+00
 0.0000000000000E+00
 0.0000000000000E+00
 0.0000000000000E+00
 0.0000000000000E+00
 0.0000000000000E+00
 0.0000000000000E+00
 0.0000000000000E+00
 0.0000000000000E+00
 0.0000000000000E+00
 0.0000000000000E+00
 0.0000000000000E+00
 0.0000000000000E+00
 0.0000000000000E+00
 0.0000000000000E+00
 0.0000000000000E+00
 0.0000000000000E+00
 0.0000000000000E+00
 0.0000000000000E+00
 0.0000000000000E+00
 0.0000000000000E+00
 0.0000000000000E+00
 0.0000000000000E+00
 0.0000000000000E+00
 0.0000000000000E+00
 0.0000000000000E+00
 0.0000000000000E+00
 0.0000000000000E+00
 0.0000000000000E+00
 0.0000000000000E+00
 0.0000000000000E+00
 0.0000000000000E+00
 0.0000000000000E+00
 0.0000000000000E+00
 0.0000000000000E+00
 0.0000000000000E+00
 0.0000000000000E+00
 0.0000000000000E+00
 0.0000000000000E+00
 0.0000000000000E+00
 0.0000000000000E+00
 0.0000000000000E+00
 0.0000000000000E+00
 0.0000000000000E+00
 0.0000000000000E+00
 0.0000000000000E+00
 0.0000000000000E+00
 0.0000000000000E+00
 0.0000000000000E+00
 0.0000000000000E+00
 0.0000000000000E+00
 0.0000000000000E+00
 0.0000000000000E+00
 0.0000000000000E+00
 0.0000000000000E+00
 0.0000000000000E+00
 0.0000000000000E+00
 0.0000000000000E+00
 0.0000000000000E+00
 0.0000000000000E+00
 0.0000000000000E+00
 0.0000000000000E+00
 0.0000000000000E+00
 0.0000000000000E+00
 0.0000000000000E+00
 0.0000000000000E+00
 0.0000000000000E+00
 0.0000000000000E+00
 0.0000000000000E+00
 0.0000000000000E+00
 0.0000000000000E+00
 0.0000000000000E+00
 0.0000000000000E+00
 0.0000000000000E+00
 0.0000000000000E+00
 0.0000000000000E+00
 0.0000000000000E+00
 0.0000000000000E+00
 0.0000000000000E+00
 0.0000000000000E+00
 0.0000000000000E+00
 0.0000000000000E+00
 0.0000000000000E+00
 0.0000000000000E+00
 0.0000000000000E+00
 0.0000000000000E+00
 0.0000000000000E+00
 0.0000000000000E+00
 0.0000000000000E+00
 0.0000000000000E+00
 0.0000000000000E+00
 0.0000000000000E+00
 0.0000000000000E+00
 0.0000000000000E+00
 0.0000000000000E+00
 0.0000000000000E+00
 0.0000000000000E+00
 0.0000000000000E+00
 0.0000000000000E+00
 0.0000000000000E+00
 0.0000000000000E+00
 0.0000000000000E+00
 0.0000000000000E+00
 0.0000000000000E+00
 0.0000000000000E+00
 0.0000000000000E+00
 0.0000000000000E+00
 0.0000000000000E+00
 0.0000000000000E+00
 0.0000000000000E+00
 0.0000000000000E+00
 0.0000000000000E+00
 0.0000000000000E+00
 0.0000000000000E+00
 0.0000000000000E+00
 0.0000000000000E+00
 0.0000000000000E+00
 0.0000000000000E+00
 0.0000000000000E+00
 0.0000000000000E+00
 0.0000000000000E+00
 0.0000000000000E+00
 0.0000000000000E+00
 0.0000000000000E+00
 0.0000000000000E+00
 0.0000000000000E+00
 0.0000000000000E+00
 0.0000000000000E+00
 0.0000000000000E+00
 0.0000000000000E+00
 0.0000000000000E+00
 0.0000000000000E+00
 0.0000000000000E+00
 0.0000000000000E+00
 0.0000000000000E+00
 0.0000000000000E+00
 0.0000000000000E+00
 0.0000000000000E+00
 0.0000000000000E+00
 0.0000000000000E+00
 0.0000000000000E+00
 0.0000000000000E+00
 0.0000000000000E+00
 0.0000000000000E+00
 0.0000000000000E+00
 0.0000000000000E+00
 0.0000000000000E+00
 0.0000000000000E+00
 0.0000000000000E+00
 0.0000000000000E+00
 0.0000000000000E+00
 0.0000000000000E+00
 0.0000000000000E+00
 0.0000000000000E+00
 0.0000000000000E+00
 0.0000000000000E+00
 0.0000000000000E+00
 0.0000000000000E+00
 0.0000000000000E+00
 0.0000000000000E+00
 0.0000000000000E+00
 0.0000000000000E+00
 0.0000000000000E+00
 0.0000000000000E+00
 0.0000000000000E+00
 0.0000000000000E+00
 0.0000000000000E+00
 0.0000000000000E+00
 0.0000000000000E+00
 0.0000000000000E+00
 0.0000000000000E+00
 0.0000000000000E+00
 0.0000000000000E+00
 0.0000000000000E+00
 0.0000000000000E+00
 0.0000000000000E+00
 0.0000000000000E+00
 0.0000000000000E+00
 0.0000000000000E+00
 0.0000000000000E+00
 0.0000000000000E+00
 0.0000000000000E+00
 0.0000000000000E+00
 0.0000000000000E+00
 0.0000000000000E+00
 0.0000000000000E+00
 0.0000000000000E+00
 0.0000000000000E+00
 0.0000000000000E+00
 0.0000000000000E+00
 0.0000000000000E+00
 0.0000000000000E+00
 0.0000000000000E+00
 0.0000000000000E+00
 0.0000000000000E+00
 0.0000000000000E+00
 0.0000000000000E+00
 0.0000000000000E+00
 0.0000000000000E+00
 0.0000000000000E+00
 0.0000000000000E+00
 0.0000000000000E+00
 0.0000000000000E+00
 0.0000000000000E+00
 0.0000000000000E+00
 0.0000000000000E+00
 0.0000000000000E+00
 0.0000000000000E+00
 0.0000000000000E+00
 0.0000000000000E+00
 0.0000000000000E+00
 0.0000000000000E+00
 0.0000000000000E+00
 0.0000000000000E+00
 0.0000000000000E+00
 0.0000000000000E+00
 0.0000000000000E+00
 0.0000000000000E+00
 0.0000000000000E+00
 0.0000000000000E+00
 0.0000000000000E+00
 0.0000000000000E+00
 0.0000000000000E+00
 0.0000000000000E+00
 0.0000000000000E+00
 0.0000000000000E+00
 0.0000000000000E+00
 0.0000000000000E+00
 0.0000000000000E+00
 0.0000000000000E+00
 0.0000000000000E+00
 0.0000000000000E+00
 0.0000000000000E+00
 0.0000000000000E+00
 0.0000000000000E+00
 0.0000000000000E+00
 0.0000000000000E+00
 0.0000000000000E+00
 0.0000000000000E+00
 0.0000000000000E+00
 0.0000000000000E+00
 0.0000000000000E+00
 0.0000000000000E+00
 0.0000000000000E+00
 0.0000000000000E+00
 0.0000000000000E+00
 0.0000000000000E+00
 0.0000000000000E+00
 0.0000000000000E+00
 0.0000000000000E+00
 0.0000000000000E+00
 0.0000000000000E+00
 0.0000000000000E+00
 0.0000000000000E+00
 0.0000000000000E+00
 0.0000000000000E+00
 0.0000000000000E+00
 0.0000000000000E+00
 0.0000000000000E+00
 0.0000000000000E+00
 0.0000000000000E+00
 0.0000000000000E+00
 0.0000000000000E+00
 0.0000000000000E+00
 0.0000000000000E+00
 0.0000000000000E+00
 0.0000000000000E+00
 0.0000000000000E+00
 0.0000000000000E+00
 0.0000000000000E+00
 0.0000000000000E+00
 0.0000000000000E+00
 0.0000000000000E+00
 0.0000000000000E+00
 0.0000000000000E+00
 0.0000000000000E+00
 0.0000000000000E+00
 0.0000000000000E+00
 0.0000000000000E+00
 0.0000000000000E+00
 0.0000000000000E+00
 0.0000000000000E+00
 0.0000000000000E+00
 0.0000000000000E+00
 0.0000000000000E+00
 0.0000000000000E+00
 0.0000000000000E+00
 0.0000000000000E+00
 0.0000000000000E+00
 0.0000000000000E+00
 0.0000000000000E+00
 0.0000000000000E+00
 0.0000000000000E+00
 0.0000000000000E+00
 0.0000000000000E+00
 0.0000000000000E+00
 0.0000000000000E+00
 0.0000000000000E+00
 0.0000000000000E+00
 0.0000000000000E+00
 0.0000000000000E+00
 0.0000000000000E+00
 0.0000000000000E+00
 0.0000000000000E+00
 0.0000000000000E+00
 0.0000000000000E+00
 0.0000000000000E+00
 0.0000000000000E+00
 0.0000000000000E+00
 0.0000000000000E+00
 0.0000000000000E+00
 0.0000000000000E+00
 0.0000000000000E+00
 0.0000000000000E+00
 0.0000000000000E+00
 0.0000000000000E+00
 0.0000000000000E+00
 0.0000000000000E+00
 0.0000000000000E+00
 0.0000000000000E+00
 0.0000000000000E+00
 0.0000000000000E+00
 0.0000000000000E+00
 0.0000000000000E+00
 0.0000000000000E+00
 0.0000000000000E+00
 0.0000000000000E+00
 0.0000000000000E+00
 0.0000000000000E+00
 0.0000000000000E+00
 0.0000000000000E+00
 0.0000000000000E+00
 0.0000000000000E+00
 0.0000000000000E+00
 0.0000000000000E+00
 0.0000000000000E+00
 0.0000000000000E+00
 0.0000000000000E+00
 0.0000000000000E+00
 0.0000000000000E+00
 0.0000000000000E+00
 0.0000000000000E+00
 0.0000000000000E+00
 0.0000000000000E+00
 0.0000000000000E+00
 0.0000000000000E+00
 0.0000000000000E+00
 0.0000000000000E+00
 0.0000000000000E+00
 0.0000000000000E+00
 0.0000000000000E+00
 0.0000000000000E+00
 0.0000000000000E+00
 0.0000000000000E+00
 0.0000000000000E+00
 0.0000000000000E+00
 0.0000000000000E+00
 0.0000000000000E+00
 0.0000000000000E+00
 0.0000000000000E+00
 0.0000000000000E+00
 0.0000000000000E+00
 0.0000000000000E+00
 0.0000000000000E+00
 0.0000000000000E+00
 0.0000000000000E+00
 0.0000000000000E+00
 0.0000000000000E+00
 0.0000000000000E+00
 0.0000000000000E+00
 0.0000000000000E+00
 0.0000000000000E+00
 0.0000000000000E+00
 0.0000000000000E+00
 0.0000000000000E+00
 0.0000000000000E+00
 0.0000000000000E+00
 0.0000000000000E+00
 0.0000000000000E+00
 0.0000000000000E+00
 0.0000000000000E+00
 0.0000000000000E+00
 0.0000000000000E+00
 0.0000000000000E+00
 0.0000000000000E+00
 0.0000000000000E+00
 0.0000000000000E+00
 0.0000000000000E+00
 0.0000000000000E+00
 0.0000000000000E+00
 0.0000000000000E+00
 0.0000000000000E+00
 0.0000000000000E+00
 0.0000000000000E+00
 0.0000000000000E+00
 0.0000000000000E+00
 0.0000000000000E+00
 0.0000000000000E+00
 0.0000000000000E+00
 0.0000000000000E+00
 0.0000000000000E+00
 0.0000000000000E+00
 0.0000000000000E+00
 0.0000000000000E+00
 0.0000000000000E+00
 0.0000000000000E+00
 0.0000000000000E+00
 0.0000000000000E+00
 0.0000000000000E+00
 0.0000000000000E+00
 0.0000000000000E+00
 0.0000000000000E+00
 0.0000000000000E+00
 0.0000000000000E+00
 0.0000000000000E+00
 0.0000000000000E+00
 0.0000000000000E+00
 0.0000000000000E+00
 0.0000000000000E+00
 0.0000000000000E+00
 0.0000000000000E+00
 0.0000000000000E+00
 0.0000000000000E+00
 0.0000000000000E+00
 0.0000000000000E+00
 0.0000000000000E+00
 0.0000000000000E+00
 0.0000000000000E+00
 0.0000000000000E+00
 0.0000000000000E+00
 0.0000000000000E+00
 0.0000000000000E+00
 0.0000000000000E+00
 0.0000000000000E+00
 0.0000000000000E+00
 0.0000000000000E+00
 0.0000000000000E+00
 0.0000000000000E+00
 0.0000000000000E+00
 0.0000000000000E+00
 0.0000000000000E+00
 0.0000000000000E+00
 0.0000000000000E+00
 0.0000000000000E+00
 0.0000000000000E+00
 0.0000000000000E+00
 0.0000000000000E+00
 0.0000000000000E+00
 0.0000000000000E+00
 0.0000000000000E+00
 0.0000000000000E+00
 0.0000000000000E+00
 0.0000000000000E+00
 0.0000000000000E+00
 0.0000000000000E+00
 0.0000000000000E+00
 0.0000000000000E+00
 0.0000000000000E+00
 0.0000000000000E+00
 0.0000000000000E+00
 0.0000000000000E+00
 0.0000000000000E+00
 0.0000000000000E+00
 0.0000000000000E+00
 0.0000000000000E+00
 0.0000000000000E+00
 0.0000000000000E+00
 0.0000000000000E+00
 0.0000000000000E+00
 0.0000000000000E+00
 0.0000000000000E+00
 0.0000000000000E+00
 0.0000000000000E+00
 0.0000000000000E+00
 0.0000000000000E+00
 0.0000000000000E+00
 0.0000000000000E+00
 0.0000000000000E+00
 0.0000000000000E+00
 0.0000000000000E+00
 0.0000000000000E+00
 0.0000000000000E+00
 0.0000000000000E+00
 0.0000000000000E+00
 0.0000000000000E+00
 0.0000000000000E+00
 0.0000000000000E+00
 0.0000000000000E+00
 0.0000000000000E+00
 0.0000000000000E+00
 0.0000000000000E+00
 0.0000000000000E+00
 0.0000000000000E+00
 0.0000000000000E+00
 0.0000000000000E+00
 0.0000000000000E+00
 0.0000000000000E+00
 0.0000000000000E+00
 0.0000000000000E+00
 0.0000000000000E+00
 0.0000000000000E+00
 0.0000000000000E+00
 0.0000000000000E+00
 0.0000000000000E+00
 0.0000000000000E+00
 0.0000000000000E+00
 0.0000000000000E+00
 0.0000000000000E+00
 0.0000000000000E+00
 0.0000000000000E+00
 0.0000000000000E+00
 0.0000000000000E+00
 0.0000000000000E+00
 0.0000000000000E+00
 0.0000000000000E+00
 0.0000000000000E+00
 0.0000000000000E+00
 0.0000000000000E+00
 0.0000000000000E+00
 0.0000000000000E+00
 0.0000000000000E+00
 0.0000000000000E+00
 0.0000000000000E+00
 0.0000000000000E+00
 0.0000000000000E+00
 0.0000000000000E+00
 0.0000000000000E+00
 0.0000000000000E+00
 0.0000000000000E+00
 0.0000000000000E+00
 0.0000000000000E+00
 0.0000000000000E+00
 0.0000000000000E+00
 0.0000000000000E+00
 0.0000000000000E+00
 0.0000000000000E+00
 0.0000000000000E+00
 0.0000000000000E+00
 0.0000000000000E+00
 0.0000000000000E+00
 0.0000000000000E+00
 0.0000000000000E+00
 0.0000000000000E+00
 0.0000000000000E+00
 0.0000000000000E+00
 0.0000000000000E+00
 0.0000000000000E+00
 0.0000000000000E+00
 0.0000000000000E+00
 0.0000000000000E+00
 0.0000000000000E+00
 0.0000000000000E+00
 0.0000000000000E+00
 0.0000000000000E+00
 0.0000000000000E+00
 0.0000000000000E+00
 0.0000000000000E+00
 0.0000000000000E+00
 0.0000000000000E+00
 0.0000000000000E+00
 0.0000000000000E+00
 0.0000000000000E+00
 0.0000000000000E+00
 0.0000000000000E+00
 0.0000000000000E+00
 0.0000000000000E+00
 0.0000000000000E+00
 0.0000000000000E+00
 0.0000000000000E+00
 0.0000000000000E+00
 0.0000000000000E+00
 0.0000000000000E+00
 0.0000000000000E+00
 0.0000000000000E+00
 0.0000000000000E+00
 0.0000000000000E+00
 0.0000000000000E+00
 0.0000000000000E+00
 0.0000000000000E+00
 0.0000000000000E+00
 0.0000000000000E+00
 0.0000000000000E+00
 0.0000000000000E+00
 0.0000000000000E+00
 0.0000000000000E+00
 0.0000000000000E+00
 0.0000000000000E+00
 0.0000000000000E+00
 0.0000000000000E+00
 0.0000000000000E+00
 0.0000000000000E+00
 0.0000000000000E+00
 0.0000000000000E+00
 0.0000000000000E+00
 0.0000000000000E+00
 0.0000000000000E+00
 0.0000000000000E+00
 0.0000000000000E+00
 0.0000000000000E+00
 0.0000000000000E+00
 0.0000000000000E+00
 0.0000000000000E+00
 0.0000000000000E+00
 0.0000000000000E+00
 0.0000000000000E+00
 0.0000000000000E+00
 0.0000000000000E+00
 0.0000000000000E+00
 0.0000000000000E+00
 0.0000000000000E+00
 0.0000000000000E+00
 0.0000000000000E+00
 0.0000000000000E+00
 0.0000000000000E+00
 0.0000000000000E+00
 0.0000000000000E+00
 0.0000000000000E+00
 0.0000000000000E+00
 0.0000000000000E+00
 0.0000000000000E+00
 0.0000000000000E+00
 0.0000000000000E+00
 0.0000000000000E+00
 0.0000000000000E+00
 0.0000000000000E+00
 0.0000000000000E+00
 0.0000000000000E+00
 0.0000000000000E+00
 0.0000000000000E+00
 0.0000000000000E+00
 0.0000000000000E+00
 0.0000000000000E+00
 0.0000000000000E+00
 0.0000000000000E+00
 0.0000000000000E+00
 0.0000000000000E+00
 0.0000000000000E+00
 0.0000000000000E+00
 0.0000000000000E+00
 0.0000000000000E+00
 0.0000000000000E+00
 0.0000000000000E+00
 0.0000000000000E+00
 0.0000000000000E+00
 0.0000000000000E+00
 0.0000000000000E+00
 0.0000000000000E+00
 0.0000000000000E+00
 0.0000000000000E+00
 0.0000000000000E+00
 0.0000000000000E+00
 0.0000000000000E+00
 0.0000000000000E+00
 0.0000000000000E+00
 0.0000000000000E+00
 0.0000000000000E+00
 0.0000000000000E+00
 0.0000000000000E+00
 0.0000000000000E+00
 0.0000000000000E+00
 0.0000000000000E+00
 0.0000000000000E+00
 0.0000000000000E+00
 0.0000000000000E+00
 0.0000000000000E+00
 0.0000000000000E+00
 0.0000000000000E+00
 0.0000000000000E+00
 0.0000000000000E+00
 0.0000000000000E+00
 0.0000000000000E+00
 0.0000000000000E+00
 0.0000000000000E+00
 0.0000000000000E+00
 0.0000000000000E+00
 0.0000000000000E+00
 0.0000000000000E+00
 0.0000000000000E+00
 0.0000000000000E+00
 0.0000000000000E+00
 0.0000000000000E+00
 0.0000000000000E+00
 0.0000000000000E+00
 0.0000000000000E+00
 0.0000000000000E+00
 0.0000000000000E+00
 0.0000000000000E+00
 0.0000000000000E+00
 0.0000000000000E+00
 0.0000000000000E+00
 0.0000000000000E+00
 0.0000000000000E+00
 0.0000000000000E+00
 0.0000000000000E+00
 0.0000000000000E+00
 0.0000000000000E+00
 0.0000000000000E+00
 0.0000000000000E+00
 0.0000000000000E+00
 0.0000000000000E+00
 0.0000000000000E+00
 0.0000000000000E+00
 0.0000000000000E+00
 0.0000000000000E+00
 0.0000000000000E+00
 0.0000000000000E+00
 0.0000000000000E+00
 0.0000000000000E+00
 0.0000000000000E+00
 0.0000000000000E+00
 0.0000000000000E+00
 0.0000000000000E+00
 0.0000000000000E+00
 0.0000000000000E+00
 0.0000000000000E+00
 0.0000000000000E+00
 0.0000000000000E+00
 0.0000000000000E+00
 0.0000000000000E+00
 0.0000000000000E+00
 0.0000000000000E+00
 0.0000000000000E+00
 0.0000000000000E+00
 0.0000000000000E+00
 0.0000000000000E+00
 0.0000000000000E+00
 0.0000000000000E+00
 0.0000000000000E+00
 0.0000000000000E+00
 0.0000000000000E+00
 0.0000000000000E+00
 0.0000000000000E+00
 0.0000000000000E+00
 0.0000000000000E+00
 0.0000000000000E+00
 0.0000000000000E+00
 0.0000000000000E+00
 0.0000000000000E+00
 0.0000000000000E+00
 0.0000000000000E+00
 0.0000000000000E+00
 0.0000000000000E+00
 0.0000000000000E+00
 0.0000000000000E+00
 0.0000000000000E+00
 0.0000000000000E+00
 0.0000000000000E+00
 0.0000000000000E+00
 0.0000000000000E+00
 0.0000000000000E+00
 0.0000000000000E+00
 0.0000000000000E+00
 0.0000000000000E+00
 0.0000000000000E+00
 0.0000000000000E+00
 0.0000000000000E+00
 0.0000000000000E+00
 0.0000000000000E+00
 0.0000000000000E+00
 0.0000000000000E+00
 0.0000000000000E+00
 0.0000000000000E+00
 0.0000000000000E+00
 0.0000000000000E+00
 0.0000000000000E+00
 0.0000000000000E+00
 0.0000000000000E+00
 0.0000000000000E+00
 0.0000000000000E+00
 0.0000000000000E+00
 0.0000000000000E+00
 0.0000000000000E+00
 0.0000000000000E+00
 0.0000000000000E+00
 0.0000000000000E+00
 0.0000000000000E+00
 0.0000000000000E+00
 0.0000000000000E+00
 0.0000000000000E+00
 0.0000000000000E+00
 0.0000000000000E+00
 0.0000000000000E+00
 0.0000000000000E+00
 0.0000000000000E+00
 0.0000000000000E+00
 0.0000000000000E+00
 0.0000000000000E+00
 0.0000000000000E+00
 0.0000000000000E+00
 0.0000000000000E+00
 0.0000000000000E+00
 0.0000000000000E+00
 0.0000000000000E+00
 0.0000000000000E+00
 0.0000000000000E+00
 0.0000000000000E+00
 0.0000000000000E+00
 0.0000000000000E+00
 0.0000000000000E+00
 0.0000000000000E+00
 0.0000000000000E+00
 0.0000000000000E+00
 0.0000000000000E+00
 0.0000000000000E+00
 0.0000000000000E+00
 0.0000000000000E+00
 0.0000000000000E+00
 0.0000000000000E+00
 0.0000000000000E+00
 0.0000000000000E+00
 0.0000000000000E+00
 0.0000000000000E+00
 0.0000000000000E+00
 0.0000000000000E+00
 0.0000000000000E+00
 0.0000000000000E+00
 0.0000000000000E+00
 0.0000000000000E+00
 0.0000000000000E+00
 0.0000000000000E+00
 0.0000000000000E+00
 0.0000000000000E+00
 0.0000000000000E+00
 0.0000000000000E+00
 0.0000000000000E+00
 0.0000000000000E+00
 0.0000000000000E+00
 0.0000000000000E+00
 0.0000000000000E+00
 0.0000000000000E+00
 0.0000000000000E+00
 0.0000000000000E+00
 0.0000000000000E+00
 0.0000000000000E+00
 0.0000000000000E+00
 0.0000000000000E+00
 0.0000000000000E+00
 0.0000000000000E+00
 0.0000000000000E+00
 0.0000000000000E+00
 0.0000000000000E+00
 0.0000000000000E+00
 0.0000000000000E+00
 0.0000000000000E+00
 0.0000000000000E+00
 0.0000000000000E+00
 0.0000000000000E+00
 0.0000000000000E+00
 0.0000000000000E+00
 0.0000000000000E+00
 0.0000000000000E+00
 0.0000000000000E+00
 0.0000000000000E+00
 0.0000000000000E+00
 0.0000000000000E+00
 0.0000000000000E+00
 0.0000000000000E+00
 0.0000000000000E+00
 0.0000000000000E+00
 0.0000000000000E+00
 0.0000000000000E+00
 0.0000000000000E+00
 0.0000000000000E+00
 0.0000000000000E+00
 0.0000000000000E+00
 0.0000000000000E+00
 0.0000000000000E+00
 0.0000000000000E+00
 0.0000000000000E+00
 0.0000000000000E+00
 0.0000000000000E+00
 0.0000000000000E+00
 0.0000000000000E+00
 0.0000000000000E+00
 0.0000000000000E+00
 0.0000000000000E+00
 0.0000000000000E+00
 0.0000000000000E+00
 0.0000000000000E+00
 0.0000000000000E+00
 0.0000000000000E+00
 0.0000000000000E+00
 0.0000000000000E+00
 0.0000000000000E+00
 0.0000000000000E+00
 0.0000000000000E+00
 0.0000000000000E+00
 0.0000000000000E+00
 0.0000000000000E+00
 0.0000000000000E+00
 0.0000000000000E+00
 0.0000000000000E+00
 0.0000000000000E+00
 0.0000000000000E+00
 0.0000000000000E+00
 0.0000000000000E+00
 0.0000000000000E+00
 0.0000000000000E+00
 0.0000000000000E+00
 0.0000000000000E+00
 0.0000000000000E+00
 0.0000000000000E+00
 0.0000000000000E+00
 0.0000000000000E+00
 0.0000000000000E+00
 0.0000000000000E+00
 0.0000000000000E+00
 0.0000000000000E+00
 0.0000000000000E+00
 0.0000000000000E+00
 0.0000000000000E+00
 0.0000000000000E+00
 0.0000000000000E+00
 0.0000000000000E+00
 0.0000000000000E+00
 0.0000000000000E+00
 0.0000000000000E+00
 0.0000000000000E+00
 0.0000000000000E+00
 0.0000000000000E+00
 0.0000000000000E+00
 0.0000000000000E+00
 0.0000000000000E+00
 0.0000000000000E+00
 0.0000000000000E+00
 0.0000000000000E+00
 0.0000000000000E+00
 0.0000000000000E+00
 0.0000000000000E+00
 0.0000000000000E+00
 0.0000000000000E+00
 0.0000000000000E+00
 0.0000000000000E+00
 0.0000000000000E+00
 0.0000000000000E+00
 0.0000000000000E+00
 0.0000000000000E+00
 0.0000000000000E+00
 0.0000000000000E+00
 0.0000000000000E+00
 0.0000000000000E+00
 0.0000000000000E+00
 0.0000000000000E+00
 0.0000000000000E+00
 0.0000000000000E+00
 0.0000000000000E+00
 0.0000000000000E+00
 0.0000000000000E+00
 0.0000000000000E+00
 0.0000000000000E+00
 0.0000000000000E+00
 0.0000000000000E+00
 0.0000000000000E+00
 0.0000000000000E+00
 0.0000000000000E+00
 0.0000000000000E+00
 0.0000000000000E+00
 0.0000000000000E+00
 0.0000000000000E+00
 0.0000000000000E+00
 0.0000000000000E+00
 0.0000000000000E+00
 0.0000000000000E+00
 0.0000000000000E+00
 0.0000000000000E+00
 0.0000000000000E+00
 0.0000000000000E+00
 0.0000000000000E+00
 0.0000000000000E+00
 0.0000000000000E+00
 0.0000000000000E+00
 0.0000000000000E+00
 0.0000000000000E+00
 0.0000000000000E+00
 0.0000000000000E+00
 0.0000000000000E+00
 0.0000000000000E+00
 0.0000000000000E+00
 0.0000000000000E+00
 0.0000000000000E+00
 0.0000000000000E+00
 0.0000000000000E+00
 0.0000000000000E+00
 0.0000000000000E+00
 0.0000000000000E+00
 0.0000000000000E+00
 0.0000000000000E+00
 0.0000000000000E+00
 0.0000000000000E+00
 0.0000000000000E+00
 0.0000000000000E+00
 0.0000000000000E+00
 0.0000000000000E+00
 0.0000000000000E+00
 0.0000000000000E+00
 0.0000000000000E+00
 0.0000000000000E+00
 0.0000000000000E+00
 0.0000000000000E+00
 0.0000000000000E+00
 0.0000000000000E+00
 0.0000000000000E+00
 0.0000000000000E+00
 0.0000000000000E+00
 0.0000000000000E+00
 0.0000000000000E+00
 0.0000000000000E+00
 0.0000000000000E+00
 0.0000000000000E+00
 0.0000000000000E+00
 0.0000000000000E+00
 0.0000000000000E+00
 0.0000000000000E+00
 0.0000000000000E+00
 0.0000000000000E+00
 0.0000000000000E+00
 0.0000000000000E+00
 0.0000000000000E+00
 0.0000000000000E+00
 0.0000000000000E+00
 0.0000000000000E+00
 0.0000000000000E+00
 0.0000000000000E+00
 0.0000000000000E+00
 0.0000000000000E+00
 0.0000000000000E+00
 0.0000000000000E+00
 0.0000000000000E+00
 0.0000000000000E+00
 0.0000000000000E+00
 0.0000000000000E+00
 0.0000000000000E+00
 0.0000000000000E+00
 0.0000000000000E+00
 0.0000000000000E+00
 0.0000000000000E+00
 0.0000000000000E+00
 0.0000000000000E+00
 0.0000000000000E+00
 0.0000000000000E+00
 0.0000000000000E+00
 0.0000000000000E+00
 0.0000000000000E+00
 0.0000000000000E+00
 0.0000000000000E+00
 0.0000000000000E+00
 0.0000000000000E+00
 0.0000000000000E+00
 0.0000000000000E+00
 0.0000000000000E+00
 0.0000000000000E+00
 0.0000000000000E+00
 0.0000000000000E+00
 0.0000000000000E+00
 0.0000000000000E+00
 0.0000000000000E+00
 0.0000000000000E+00
 0.0000000000000E+00
 0.0000000000000E+00
 0.0000000000000E+00
 0.0000000000000E+00
 0.0000000000000E+00
 0.0000000000000E+00
 0.0000000000000E+00
 0.0000000000000E+00
 0.0000000000000E+00
 0.0000000000000E+00
 0.0000000000000E+00
 0.0000000000000E+00
 0.0000000000000E+00
 0.0000000000000E+00
 0.0000000000000E+00
 0.0000000000000E+00
 0.0000000000000E+00
 0.0000000000000E+00
 0.0000000000000E+00
 0.0000000000000E+00
 0.0000000000000E+00
 0.0000000000000E+00
 0.0000000000000E+00
 0.0000000000000E+00
 0.0000000000000E+00
 0.0000000000000E+00
 0.0000000000000E+00
 0.0000000000000E+00
 0.0000000000000E+00
 0.0000000000000E+00
 0.0000000000000E+00
 0.0000000000000E+00
 0.0000000000000E+00
 0.0000000000000E+00
 0.0000000000000E+00
 0.0000000000000E+00
 0.0000000000000E+00
 0.0000000000000E+00
 0.0000000000000E+00
 0.0000000000000E+00
 0.0000000000000E+00
 0.0000000000000E+00
 0.0000000000000E+00
 0.0000000000000E+00
 0.0000000000000E+00
 0.0000000000000E+00
 0.0000000000000E+00
 0.0000000000000E+00
 0.0000000000000E+00
 0.0000000000000E+00
 0.0000000000000E+00
 0.0000000000000E+00
 0.0000000000000E+00
 0.0000000000000E+00
 0.0000000000000E+00
 0.0000000000000E+00
 0.0000000000000E+00
 0.0000000000000E+00
 0.0000000000000E+00
 0.0000000000000E+00
 0.0000000000000E+00
 0.0000000000000E+00
 0.0000000000000E+00
 0.0000000000000E+00
 0.0000000000000E+00
 0.0000000000000E+00
 0.0000000000000E+00
 0.0000000000000E+00
 0.0000000000000E+00
 0.0000000000000E+00
 0.0000000000000E+00
 0.0000000000000E+00
 0.0000000000000E+00
 0.0000000000000E+00
 0.0000000000000E+00
 0.0000000000000E+00
 0.0000000000000E+00
 0.0000000000000E+00
 0.0000000000000E+00
 0.0000000000000E+00
 0.0000000000000E+00
 0.0000000000000E+00
 0.0000000000000E+00
 0.0000000000000E+00
 0.0000000000000E+00
 0.0000000000000E+00
 0.0000000000000E+00
 0.0000000000000E+00
 0.0000000000000E+00
 0.0000000000000E+00
 0.0000000000000E+00
 0.0000000000000E+00
 0.0000000000000E+00
 0.0000000000000E+00
 0.0000000000000E+00
 0.0000000000000E+00
 0.0000000000000E+00
 0.0000000000000E+00
 0.0000000000000E+00
 0.0000000000000E+00
 0.0000000000000E+00
 0.0000000000000E+00
 0.0000000000000E+00
 0.0000000000000E+00
 0.0000000000000E+00
 0.0000000000000E+00
 0.0000000000000E+00
 0.0000000000000E+00
 0.0000000000000E+00
 0.0000000000000E+00
 0.0000000000000E+00
 0.0000000000000E+00
 0.0000000000000E+00
 0.0000000000000E+00
 0.0000000000000E+00
 0.0000000000000E+00
 0.0000000000000E+00
 0.0000000000000E+00
 0.0000000000000E+00
 0.0000000000000E+00
 0.0000000000000E+00
 0.0000000000000E+00
 0.0000000000000E+00
 0.0000000000000E+00
 0.0000000000000E+00
 0.0000000000000E+00
 0.0000000000000E+00
 0.0000000000000E+00
 0.0000000000000E+00
 0.0000000000000E+00
 0.0000000000000E+00
 0.0000000000000E+00
 0.0000000000000E+00
 0.0000000000000E+00
 0.0000000000000E+00
 0.0000000000000E+00
 0.0000000000000E+00
 0.0000000000000E+00
 0.0000000000000E+00
 0.0000000000000E+00
 0.0000000000000E+00
 0.0000000000000E+00
 0.0000000000000E+00
 0.0000000000000E+00
 0.0000000000000E+00
 0.0000000000000E+00
 0.0000000000000E+00
 0.0000000000000E+00
 0.0000000000000E+00
 0.0000000000000E+00
 0.0000000000000E+00
 0.0000000000000E+00
 0.0000000000000E+00
 0.0000000000000E+00
 0.0000000000000E+00
 0.0000000000000E+00
 0.0000000000000E+00
 0.0000000000000E+00
 0.0000000000000E+00
 0.0000000000000E+00
 0.0000000000000E+00
 0.0000000000000E+00
 0.0000000000000E+00
 0.0000000000000E+00
 0.0000000000000E+00
 0.0000000000000E+00
 0.0000000000000E+00
 0.0000000000000E+00
 0.0000000000000E+00
 0.0000000000000E+00
 0.0000000000000E+00
 0.0000000000000E+00
 0.0000000000000E+00
 0.0000000000000E+00
 0.0000000000000E+00
 0.0000000000000E+00
 0.0000000000000E+00
 0.0000000000000E+00
 0.0000000000000E+00
 0.0000000000000E+00
 0.0000000000000E+00
 0.0000000000000E+00
 0.0000000000000E+00
 0.0000000000000E+00
 0.0000000000000E+00
 0.0000000000000E+00
 0.0000000000000E+00
 0.0000000000000E+00
 0.0000000000000E+00
 0.0000000000000E+00
 0.0000000000000E+00
 0.0000000000000E+00
 0.0000000000000E+00
 0.0000000000000E+00
 0.0000000000000E+00
 0.0000000000000E+00
 0.0000000000000E+00
 0.0000000000000E+00
 0.0000000000000E+00
 0.0000000000000E+00
 0.0000000000000E+00
 0.0000000000000E+00
 0.0000000000000E+00
 0.0000000000000E+00
 0.0000000000000E+00
 0.0000000000000E+00
 0.0000000000000E+00
 0.0000000000000E+00
 0.0000000000000E+00
 0.0000000000000E+00
 0.0000000000000E+00
 0.0000000000000E+00
 0.0000000000000E+00
 0.0000000000000E+00
 0.0000000000000E+00
 0.0000000000000E+00
 0.0000000000000E+00
 0.0000000000000E+00
 0.0000000000000E+00
 0.0000000000000E+00
 0.0000000000000E+00
 0.0000000000000E+00
 0.0000000000000E+00
 0.0000000000000E+00
 0.0000000000000E+00
 0.0000000000000E+00
 0.0000000000000E+00
 0.0000000000000E+00
 0.0000000000000E+00
 0.0000000000000E+00
 0.0000000000000E+00
 0.0000000000000E+00
 0.0000000000000E+00
 0.0000000000000E+00
 0.0000000000000E+00
 0.0000000000000E+00
 0.0000000000000E+00
 0.0000000000000E+00
 0.0000000000000E+00
 0.0000000000000E+00
 0.0000000000000E+00
 0.0000000000000E+00
 0.0000000000000E+00
 0.0000000000000E+00
 0.0000000000000E+00
 0.0000000000000E+00
 0.0000000000000E+00
 0.0000000000000E+00
 0.0000000000000E+00
 0.0000000000000E+00
 0.0000000000000E+00
 0.0000000000000E+00
 0.0000000000000E+00
 0.0000000000000E+00
 0.0000000000000E+00
 0.0000000000000E+00
 0.0000000000000E+00
 0.0000000000000E+00
 0.0000000000000E+00
 0.0000000000000E+00
 0.0000000000000E+00
 0.0000000000000E+00
 0.0000000000000E+00
 0.0000000000000E+00
 0.0000000000000E+00
 0.0000000000000E+00
 0.0000000000000E+00
 0.0000000000000E+00
 0.0000000000000E+00
 0.0000000000000E+00
 0.0000000000000E+00
 0.0000000000000E+00
 0.0000000000000E+00
 0.0000000000000E+00
 0.0000000000000E+00
 0.0000000000000E+00
 0.0000000000000E+00
 0.0000000000000E+00
 0.0000000000000E+00
 0.0000000000000E+00
 0.0000000000000E+00
 0.0000000000000E+00
 0.0000000000000E+00
 0.0000000000000E+00
 0.0000000000000E+00
 0.0000000000000E+00
 0.0000000000000E+00
 0.0000000000000E+00
 0.0000000000000E+00
 0.0000000000000E+00
 0.0000000000000E+00
 0.0000000000000E+00
 0.0000000000000E+00
 0.0000000000000E+00
 0.0000000000000E+00
 0.0000000000000E+00
 0.0000000000000E+00
 0.0000000000000E+00
 0.0000000000000E+00
 0.0000000000000E+00
 0.0000000000000E+00
 0.0000000000000E+00
 0.0000000000000E+00
 0.0000000000000E+00
 0.0000000000000E+00
 0.0000000000000E+00
 0.0000000000000E+00
 0.0000000000000E+00
 0.0000000000000E+00
 0.0000000000000E+00
 0.0000000000000E+00
 0.0000000000000E+00
 0.0000000000000E+00
 0.0000000000000E+00
 0.0000000000000E+00
 0.0000000000000E+00
 0.0000000000000E+00
 0.0000000000000E+00
 0.0000000000000E+00
 0.0000000000000E+00
 0.0000000000000E+00
 0.0000000000000E+00
 0.0000000000000E+00
 0.0000000000000E+00
 0.0000000000000E+00
 0.0000000000000E+00
 0.0000000000000E+00
 0.0000000000000E+00
 0.0000000000000E+00
 0.0000000000000E+00
 0.0000000000000E+00
 0.0000000000000E+00
 0.0000000000000E+00
 0.0000000000000E+00
 0.0000000000000E+00
 0.0000000000000E+00
 0.0000000000000E+00
 0.0000000000000E+00
 0.0000000000000E+00
 0.0000000000000E+00
 0.0000000000000E+00
 0.0000000000000E+00
 0.0000000000000E+00
 0.0000000000000E+00
 0.0000000000000E+00
 0.0000000000000E+00
 0.0000000000000E+00
 0.0000000000000E+00
 0.0000000000000E+00
 0.0000000000000E+00
 0.0000000000000E+00
 0.0000000000000E+00
 0.0000000000000E+00
 0.0000000000000E+00
 0.0000000000000E+00
 0.0000000000000E+00
 0.0000000000000E+00
 0.0000000000000E+00
 0.0000000000000E+00
 0.0000000000000E+00
 0.0000000000000E+00
 0.0000000000000E+00
 0.0000000000000E+00
 0.0000000000000E+00
 0.0000000000000E+00
 0.0000000000000E+00
 0.0000000000000E+00
 0.0000000000000E+00
 0.0000000000000E+00
 0.0000000000000E+00
 0.0000000000000E+00
 0.0000000000000E+00
 0.0000000000000E+00
 0.0000000000000E+00
 0.0000000000000E+00
 0.0000000000000E+00
 0.0000000000000E+00
 0.0000000000000E+00
 0.0000000000000E+00
 0.0000000000000E+00
 0.0000000000000E+00
 0.0000000000000E+00
 0.0000000000000E+00
 0.0000000000000E+00
 0.0000000000000E+00
 0.0000000000000E+00
 0.0000000000000E+00
 0.0000000000000E+00
 0.0000000000000E+00
 0.0000000000000E+00
 0.0000000000000E+00
 0.0000000000000E+00
 0.0000000000000E+00
 0.0000000000000E+00
 0.0000000000000E+00
 0.0000000000000E+00
 0.0000000000000E+00
 0.0000000000000E+00
 0.0000000000000E+00
 0.0000000000000E+00
 0.0000000000000E+00
 0.0000000000000E+00
 0.0000000000000E+00
 0.0000000000000E+00
 0.0000000000000E+00
 0.0000000000000E+00
 0.0000000000000E+00
 0.0000000000000E+00
 0.0000000000000E+00
 0.0000000000000E+00
 0.0000000000000E+00
 0.0000000000000E+00
 0.0000000000000E+00
 0.0000000000000E+00
 0.0000000000000E+00
 0.0000000000000E+00
 0.0000000000000E+00
 0.0000000000000E+00
 0.0000000000000E+00
 0.0000000000000E+00
 0.0000000000000E+00
 0.0000000000000E+00
 0.0000000000000E+00
 0.0000000000000E+00
 0.0000000000000E+00
 0.0000000000000E+00
 0.0000000000000E+00
 0.0000000000000E+00
 0.0000000000000E+00
 0.0000000000000E+00
 0.0000000000000E+00
 0.0000000000000E+00
 0.0000000000000E+00
 0.0000000000000E+00
 0.0000000000000E+00
 0.0000000000000E+00
 0.0000000000000E+00
 0.0000000000000E+00
 0.0000000000000E+00
 0.0000000000000E+00
 0.0000000000000E+00
 0.0000000000000E+00
 0.0000000000000E+00
 0.0000000000000E+00
 0.0000000000000E+00
 0.0000000000000E+00
 0.0000000000000E+00
 0.0000000000000E+00
 0.0000000000000E+00
 0.0000000000000E+00
 0.0000000000000E+00
 0.0000000000000E+00
 0.0000000000000E+00
 0.0000000000000E+00
 0.0000000000000E+00
 0.0000000000000E+00
 0.0000000000000E+00
 0.0000000000000E+00
 0.0000000000000E+00
 0.0000000000000E+00
 0.0000000000000E+00
 0.0000000000000E+00
 0.0000000000000E+00
 0.0000000000000E+00
 0.0000000000000E+00
 0.0000000000000E+00
 0.0000000000000E+00
 0.0000000000000E+00
 0.0000000000000E+00
 0.0000000000000E+00
 0.0000000000000E+00
 0.0000000000000E+00
 0.0000000000000E+00
 0.0000000000000E+00
 0.0000000000000E+00
 0.0000000000000E+00
 0.0000000000000E+00
 0.0000000000000E+00
 0.0000000000000E+00
 0.0000000000000E+00
 0.0000000000000E+00
 0.0000000000000E+00
 0.0000000000000E+00
 0.0000000000000E+00
 0.0000000000000E+00
 0.0000000000000E+00
 0.0000000000000E+00
 0.0000000000000E+00
 0.0000000000000E+00
 0.0000000000000E+00
 0.0000000000000E+00
 0.0000000000000E+00
 0.0000000000000E+00
 0.0000000000000E+00
 0.0000000000000E+00
 0.0000000000000E+00
 0.0000000000000E+00
 0.0000000000000E+00
 0.0000000000000E+00
 0.0000000000000E+00
 0.0000000000000E+00
 0.0000000000000E+00
 0.0000000000000E+00
 0.0000000000000E+00
 0.0000000000000E+00
 0.0000000000000E+00
 0.0000000000000E+00
 0.0000000000000E+00
 0.0000000000000E+00
 0.0000000000000E+00
 0.0000000000000E+00
 0.0000000000000E+00
 0.0000000000000E+00
 0.0000000000000E+00
 0.0000000000000E+00
 0.0000000000000E+00
 0.0000000000000E+00
 0.0000000000000E+00
 0.0000000000000E+00
 0.0000000000000E+00
 0.0000000000000E+00
 0.0000000000000E+00
 0.0000000000000E+00
 0.0000000000000E+00
 0.0000000000000E+00
 0.0000000000000E+00
 0.0000000000000E+00
 0.0000000000000E+00
 0.0000000000000E+00
 0.0000000000000E+00
 0.0000000000000E+00
 0.0000000000000E+00
 0.0000000000000E+00
 0.0000000000000E+00
 0.0000000000000E+00
 0.0000000000000E+00
 0.0000000000000E+00
 0.0000000000000E+00
 0.0000000000000E+00
 0.0000000000000E+00
 0.0000000000000E+00
 0.0000000000000E+00
 0.0000000000000E+00
 0.0000000000000E+00
 0.0000000000000E+00
 0.0000000000000E+00
 0.0000000000000E+00
 0.0000000000000E+00
 0.0000000000000E+00
 0.0000000000000E+00
 0.0000000000000E+00
 0.0000000000000E+00
 0.0000000000000E+00
 0.0000000000000E+00
 0.0000000000000E+00
 0.0000000000000E+00
 0.0000000000000E+00
 0.0000000000000E+00
 0.0000000000000E+00
 0.0000000000000E+00
 0.0000000000000E+00
 0.0000000000000E+00
 0.0000000000000E+00
 0.0000000000000E+00
 0.0000000000000E+00
 0.0000000000000E+00
 0.0000000000000E+00
 0.0000000000000E+00
 0.0000000000000E+00
 0.0000000000000E+00
 0.0000000000000E+00
 0.0000000000000E+00
 0.0000000000000E+00
 0.0000000000000E+00
 0.0000000000000E+00
 0.0000000000000E+00
 0.0000000000000E+00
 0.0000000000000E+00
 0.0000000000000E+00
 0.0000000000000E+00
 0.0000000000000E+00
 0.0000000000000E+00
 0.0000000000000E+00
 0.0000000000000E+00
 0.0000000000000E+00
 0.0000000000000E+00
 0.0000000000000E+00
 0.0000000000000E+00
 0.0000000000000E+00
 0.0000000000000E+00
 0.0000000000000E+00
 0.0000000000000E+00
 0.0000000000000E+00
 0.0000000000000E+00
 0.0000000000000E+00
 0.0000000000000E+00
 0.0000000000000E+00
 0.0000000000000E+00
 0.0000000000000E+00
 0.0000000000000E+00
 0.0000000000000E+00
 0.0000000000000E+00
 0.0000000000000E+00
 0.0000000000000E+00
 0.0000000000000E+00
 0.0000000000000E+00
 0.0000000000000E+00
 0.0000000000000E+00
 0.0000000000000E+00
 0.0000000000000E+00
 0.0000000000000E+00
 0.0000000000000E+00
 0.0000000000000E+00
 0.0000000000000E+00
 0.0000000000000E+00
 0.0000000000000E+00
 0.0000000000000E+00
 0.0000000000000E+00
 0.0000000000000E+00
 0.0000000000000E+00
 0.0000000000000E+00
 0.0000000000000E+00
 0.0000000000000E+00
 0.0000000000000E+00
 0.0000000000000E+00
 0.0000000000000E+00
 0.0000000000000E+00
 0.0000000000000E+00
 0.0000000000000E+00
 0.0000000000000E+00
 0.0000000000000E+00
 0.0000000000000E+00
 0.0000000000000E+00
 0.0000000000000E+00
 0.0000000000000E+00
 0.0000000000000E+00
 0.0000000000000E+00
 0.0000000000000E+00
 0.0000000000000E+00
 0.0000000000000E+00
 0.0000000000000E+00
 0.0000000000000E+00
 0.0000000000000E+00
 0.0000000000000E+00
 0.0000000000000E+00
 0.0000000000000E+00
 0.0000000000000E+00
 0.0000000000000E+00
 0.0000000000000E+00
 0.0000000000000E+00
 0.0000000000000E+00
 0.0000000000000E+00
 0.0000000000000E+00
 0.0000000000000E+00
 0.0000000000000E+00
 0.0000000000000E+00
 0.0000000000000E+00
 0.0000000000000E+00
 0.0000000000000E+00
 0.0000000000000E+00
 0.0000000000000E+00
 0.0000000000000E+00
 0.0000000000000E+00
 0.0000000000000E+00
 0.0000000000000E+00
 0.0000000000000E+00
 0.0000000000000E+00
 0.0000000000000E+00
 0.0000000000000E+00
 0.0000000000000E+00
 0.0000000000000E+00
 0.0000000000000E+00
 0.0000000000000E+00
 0.0000000000000E+00
 0.0000000000000E+00
 0.0000000000000E+00
 0.0000000000000E+00
 0.0000000000000E+00
 0.0000000000000E+00
 0.0000000000000E+00
 0.0000000000000E+00
 0.0000000000000E+00
 0.0000000000000E+00
 0.0000000000000E+00
 0.0000000000000E+00
 0.0000000000000E+00
 0.0000000000000E+00
 0.0000000000000E+00
 0.0000000000000E+00
 0.0000000000000E+00
 0.0000000000000E+00
 0.0000000000000E+00
 0.0000000000000E+00
 0.0000000000000E+00
 0.0000000000000E+00
 0.0000000000000E+00
 0.0000000000000E+00
 0.0000000000000E+00
 0.0000000000000E+00
 0.0000000000000E+00
 0.0000000000000E+00
 0.0000000000000E+00
 0.0000000000000E+00
 0.0000000000000E+00
 0.0000000000000E+00
 0.0000000000000E+00
 0.0000000000000E+00
 0.0000000000000E+00
 0.0000000000000E+00
 0.0000000000000E+00
 0.0000000000000E+00
 0.0000000000000E+00
 0.0000000000000E+00
 0.0000000000000E+00
 0.0000000000000E+00
 0.0000000000000E+00
 0.0000000000000E+00
 0.0000000000000E+00
 0.0000000000000E+00
 0.0000000000000E+00
 0.0000000000000E+00
 0.0000000000000E+00
 0.0000000000000E+00
 0.0000000000000E+00
 0.0000000000000E+00
 0.0000000000000E+00
 0.0000000000000E+00
 0.0000000000000E+00
 0.0000000000000E+00
 0.0000000000000E+00
 0.0000000000000E+00
 0.0000000000000E+00
 0.0000000000000E+00
 0.0000000000000E+00
 0.0000000000000E+00
 0.0000000000000E+00
 0.0000000000000E+00
 0.0000000000000E+00
 0.0000000000000E+00
 0.0000000000000E+00
 0.0000000000000E+00
 0.0000000000000E+00
 0.0000000000000E+00
 0.0000000000000E+00
 0.0000000000000E+00
 0.0000000000000E+00
 0.0000000000000E+00
 0.0000000000000E+00
 0.0000000000000E+00
 0.0000000000000E+00
 0.0000000000000E+00
 0.0000000000000E+00
 0.0000000000000E+00
 0.0000000000000E+00
 0.0000000000000E+00
 0.0000000000000E+00
 0.0000000000000E+00
 0.0000000000000E+00
 0.0000000000000E+00
 0.0000000000000E+00
 0.0000000000000E+00
 0.0000000000000E+00
 0.0000000000000E+00
 0.0000000000000E+00
 0.0000000000000E+00
 0.0000000000000E+00
 0.0000000000000E+00
 0.0000000000000E+00
 0.0000000000000E+00
 0.0000000000000E+00
 0.0000000000000E+00
 0.0000000000000E+00
 0.0000000000000E+00
 0.0000000000000E+00
 0.0000000000000E+00
 0.0000000000000E+00
 0.0000000000000E+00
 0.0000000000000E+00
 0.0000000000000E+00
 0.0000000000000E+00
 0.0000000000000E+00
 0.0000000000000E+00
 0.0000000000000E+00
 0.0000000000000E+00
 0.0000000000000E+00
 0.0000000000000E+00
 0.0000000000000E+00
 0.0000000000000E+00
 0.0000000000000E+00
 0.0000000000000E+00
 0.0000000000000E+00
 0.0000000000000E+00
 0.0000000000000E+00
 0.0000000000000E+00
 0.0000000000000E+00
 0.0000000000000E+00
 0.0000000000000E+00
 0.0000000000000E+00
 0.0000000000000E+00
 0.0000000000000E+00
 0.0000000000000E+00
 0.0000000000000E+00
 0.0000000000000E+00
 0.0000000000000E+00
 0.0000000000000E+00
 0.0000000000000E+00
 0.0000000000000E+00
 0.0000000000000E+00
 0.0000000000000E+00
 0.0000000000000E+00
 0.0000000000000E+00
 0.0000000000000E+00
 0.0000000000000E+00
 0.0000000000000E+00
 0.0000000000000E+00
 0.0000000000000E+00
 0.0000000000000E+00
 0.0000000000000E+00
 0.0000000000000E+00
 0.0000000000000E+00
 0.0000000000000E+00
 0.0000000000000E+00
 0.0000000000000E+00
 0.0000000000000E+00
 0.0000000000000E+00
 0.0000000000000E+00
 0.0000000000000E+00
 0.0000000000000E+00
 0.0000000000000E+00
 0.0000000000000E+00
 0.0000000000000E+00
 0.0000000000000E+00
 0.0000000000000E+00
 0.0000000000000E+00
 0.0000000000000E+00
 0.0000000000000E+00
 0.0000000000000E+00
 0.0000000000000E+00
 0.0000000000000E+00
 0.0000000000000E+00
 0.0000000000000E+00
 0.0000000000000E+00
 0.0000000000000E+00
 0.0000000000000E+00
 0.0000000000000E+00
 0.0000000000000E+00
 0.0000000000000E+00
 0.0000000000000E+00
 0.0000000000000E+00
 0.0000000000000E+00
 0.0000000000000E+00
 0.0000000000000E+00
 0.0000000000000E+00
 0.0000000000000E+00
 0.0000000000000E+00
 0.0000000000000E+00
 0.0000000000000E+00
 0.0000000000000E+00
 0.0000000000000E+00
 0.0000000000000E+00
 0.0000000000000E+00
 0.0000000000000E+00
 0.0000000000000E+00
 0.0000000000000E+00
 0.0000000000000E+00
 0.0000000000000E+00
 0.0000000000000E+00
 0.0000000000000E+00
 0.0000000000000E+00
 0.0000000000000E+00
 0.0000000000000E+00
 0.0000000000000E+00
 0.0000000000000E+00
 0.0000000000000E+00
 0.0000000000000E+00
 0.0000000000000E+00
 0.0000000000000E+00
 0.0000000000000E+00
 0.0000000000000E+00
 0.0000000000000E+00
 0.0000000000000E+00
 0.0000000000000E+00
 0.0000000000000E+00
 0.0000000000000E+00
 0.0000000000000E+00
 0.0000000000000E+00
 0.0000000000000E+00
 0.0000000000000E+00
 0.0000000000000E+00
 0.0000000000000E+00
 0.0000000000000E+00
 0.0000000000000E+00
 0.0000000000000E+00
 0.0000000000000E+00
 0.0000000000000E+00
 0.0000000000000E+00
 0.0000000000000E+00
 0.0000000000000E+00
 0.0000000000000E+00
 0.0000000000000E+00
 0.0000000000000E+00
 0.0000000000000E+00
 0.0000000000000E+00
 0.0000000000000E+00
 0.0000000000000E+00
 0.0000000000000E+00
 0.0000000000000E+00
 0.0000000000000E+00
 0.0000000000000E+00
 0.0000000000000E+00
 0.0000000000000E+00
 0.0000000000000E+00
 0.0000000000000E+00
 0.0000000000000E+00
 0.0000000000000E+00
 0.0000000000000E+00
 0.0000000000000E+00
 0.0000000000000E+00
 0.0000000000000E+00
 0.0000000000000E+00
 0.0000000000000E+00
 0.0000000000000E+00
 0.0000000000000E+00
 0.0000000000000E+00
 0.0000000000000E+00
 0.0000000000000E+00
 0.0000000000000E+00
 0.0000000000000E+00
 0.0000000000000E+00
 0.0000000000000E+00
 0.0000000000000E+00
 0.0000000000000E+00
 0.0000000000000E+00
 0.0000000000000E+00
 0.0000000000000E+00
 0.0000000000000E+00
 0.0000000000000E+00
 0.0000000000000E+00
 0.0000000000000E+00
 0.0000000000000E+00
 0.0000000000000E+00
 0.0000000000000E+00
 0.0000000000000E+00
 0.0000000000000E+00
 0.0000000000000E+00
 0.0000000000000E+00
 0.0000000000000E+00
 0.0000000000000E+00
 0.0000000000000E+00
 0.0000000000000E+00
 0.0000000000000E+00
 0.0000000000000E+00
 0.0000000000000E+00
 0.0000000000000E+00
 0.0000000000000E+00
 0.0000000000000E+00
 0.0000000000000E+00
 0.0000000000000E+00
 0.0000000000000E+00
 0.0000000000000E+00
 0.0000000000000E+00
 0.0000000000000E+00
 0.0000000000000E+00
 0.0000000000000E+00
 0.0000000000000E+00
 0.0000000000000E+00
 0.0000000000000E+00
 0.0000000000000E+00
 0.0000000000000E+00
 0.0000000000000E+00
 0.0000000000000E+00
 0.0000000000000E+00
 0.0000000000000E+00
 0.0000000000000E+00
 0.0000000000000E+00
 0.0000000000000E+00
 0.0000000000000E+00
 0.0000000000000E+00
 0.0000000000000E+00
 0.0000000000000E+00
 0.0000000000000E+00
 0.0000000000000E+00
 0.0000000000000E+00
 0.0000000000000E+00
 0.0000000000000E+00
 0.0000000000000E+00
 0.0000000000000E+00
 0.0000000000000E+00
 0.0000000000000E+00
 0.0000000000000E+00
 0.0000000000000E+00
 0.0000000000000E+00
 0.0000000000000E+00
 0.0000000000000E+00
 0.0000000000000E+00
 0.0000000000000E+00
 0.0000000000000E+00
 0.0000000000000E+00
 0.0000000000000E+00
 0.0000000000000E+00
 0.0000000000000E+00
 0.0000000000000E+00
 0.0000000000000E+00
 0.0000000000000E+00
 0.0000000000000E+00
 0.0000000000000E+00
 0.0000000000000E+00
 0.0000000000000E+00
 0.0000000000000E+00
 0.0000000000000E+00
 0.0000000000000E+00
 0.0000000000000E+00
 0.0000000000000E+00
 0.0000000000000E+00
 0.0000000000000E+00
 0.0000000000000E+00
 0.0000000000000E+00
 0.0000000000000E+00
 0.0000000000000E+00
 0.0000000000000E+00
 0.0000000000000E+00
 0.0000000000000E+00
 0.0000000000000E+00
 0.0000000000000E+00
 0.0000000000000E+00
 0.0000000000000E+00
 0.0000000000000E+00
 0.0000000000000E+00
 0.0000000000000E+00
 0.0000000000000E+00
 0.0000000000000E+00
 0.0000000000000E+00
 0.0000000000000E+00
 0.0000000000000E+00
 0.0000000000000E+00
 0.0000000000000E+00
 0.0000000000000E+00
 0.0000000000000E+00
 0.0000000000000E+00
 0.0000000000000E+00
 0.0000000000000E+00
 0.0000000000000E+00
 0.0000000000000E+00
 0.0000000000000E+00
 0.0000000000000E+00
 0.0000000000000E+00
 0.0000000000000E+00
 0.0000000000000E+00
 0.0000000000000E+00
 0.0000000000000E+00
 0.0000000000000E+00
 0.0000000000000E+00
 0.0000000000000E+00
 0.0000000000000E+00
 0.0000000000000E+00
 0.0000000000000E+00
 0.0000000000000E+00
 0.0000000000000E+00
 0.0000000000000E+00
 0.0000000000000E+00
 0.0000000000000E+00
 0.0000000000000E+00
 0.0000000000000E+00
 0.0000000000000E+00
 0.0000000000000E+00
 0.0000000000000E+00
 0.0000000000000E+00
 0.0000000000000E+00
 0.0000000000000E+00
 0.0000000000000E+00
 0.0000000000000E+00
 0.0000000000000E+00
 0.0000000000000E+00
 0.0000000000000E+00
 0.0000000000000E+00
 0.0000000000000E+00
 0.0000000000000E+00
 0.0000000000000E+00
 0.0000000000000E+00
 0.0000000000000E+00
 0.0000000000000E+00
 0.0000000000000E+00
 0.0000000000000E+00
 0.0000000000000E+00
 0.0000000000000E+00
 0.0000000000000E+00
 0.0000000000000E+00
 0.0000000000000E+00
 0.0000000000000E+00
 0.0000000000000E+00
 0.0000000000000E+00
 0.0000000000000E+00
 0.0000000000000E+00
 0.0000000000000E+00
 0.0000000000000E+00
 0.0000000000000E+00
 0.0000000000000E+00
 0.0000000000000E+00
 0.0000000000000E+00
 0.0000000000000E+00
 0.0000000000000E+00
 0.0000000000000E+00
 0.0000000000000E+00
 0.0000000000000E+00
 0.0000000000000E+00
 0.0000000000000E+00
 0.0000000000000E+00
 0.0000000000000E+00
 0.0000000000000E+00
 0.0000000000000E+00
 0.0000000000000E+00
 0.0000000000000E+00
 0.0000000000000E+00
 0.0000000000000E+00
 0.0000000000000E+00
 0.0000000000000E+00
 0.0000000000000E+00
 0.0000000000000E+00
 0.0000000000000E+00
 0.0000000000000E+00
 0.0000000000000E+00
 0.0000000000000E+00
 0.0000000000000E+00
 0.0000000000000E+00
 0.0000000000000E+00
 0.0000000000000E+00
 0.0000000000000E+00
 0.0000000000000E+00
 0.0000000000000E+00
 0.0000000000000E+00
 0.0000000000000E+00
 0.0000000000000E+00
 0.0000000000000E+00
 0.0000000000000E+00
 0.0000000000000E+00
 0.0000000000000E+00
 0.0000000000000E+00
 0.0000000000000E+00
 0.0000000000000E+00
 0.0000000000000E+00
 0.0000000000000E+00
 0.0000000000000E+00
 0.0000000000000E+00
 0.0000000000000E+00
 0.0000000000000E+00
 0.0000000000000E+00
 0.0000000000000E+00
 0.0000000000000E+00
 0.0000000000000E+00
 0.0000000000000E+00
 0.0000000000000E+00
 0.0000000000000E+00
 0.0000000000000E+00
 0.0000000000000E+00
 0.0000000000000E+00
 0.0000000000000E+00
 0.0000000000000E+00
 0.0000000000000E+00
 0.0000000000000E+00
 0.0000000000000E+00
 0.0000000000000E+00
 0.0000000000000E+00
 0.0000000000000E+00
 0.0000000000000E+00
 0.0000000000000E+00
 0.0000000000000E+00
 0.0000000000000E+00
 0.0000000000000E+00
 0.0000000000000E+00
 0.0000000000000E+00
 0.0000000000000E+00
 0.0000000000000E+00
 0.0000000000000E+00
 0.0000000000000E+00
 0.0000000000000E+00
 0.0000000000000E+00
 0.0000000000000E+00
 0.0000000000000E+00
 0.0000000000000E+00
 0.0000000000000E+00
 0.0000000000000E+00
 0.0000000000000E+00
 0.0000000000000E+00
 0.0000000000000E+00
 0.0000000000000E+00
 0.0000000000000E+00
 0.0000000000000E+00
 0.0000000000000E+00
 0.0000000000000E+00
 0.0000000000000E+00
 0.0000000000000E+00
 0.0000000000000E+00
 0.0000000000000E+00
 0.0000000000000E+00
 0.0000000000000E+00
 0.0000000000000E+00
 0.0000000000000E+00
 0.0000000000000E+00
 0.0000000000000E+00
 0.0000000000000E+00
 0.0000000000000E+00
 0.0000000000000E+00
 0.0000000000000E+00
 0.0000000000000E+00
 0.0000000000000E+00
 0.0000000000000E+00
 0.0000000000000E+00
 0.0000000000000E+00
 0.0000000000000E+00
 0.0000000000000E+00
 0.0000000000000E+00
 0.0000000000000E+00
 0.0000000000000E+00
 0.0000000000000E+00
 0.0000000000000E+00
 0.0000000000000E+00
 0.0000000000000E+00
 0.0000000000000E+00
 0.0000000000000E+00
 0.0000000000000E+00
 0.0000000000000E+00
 0.0000000000000E+00
 0.0000000000000E+00
 0.0000000000000E+00
 0.0000000000000E+00
 0.0000000000000E+00
 0.0000000000000E+00
 0.0000000000000E+00
 0.0000000000000E+00
 0.0000000000000E+00
 0.0000000000000E+00
 0.0000000000000E+00
 0.0000000000000E+00
 0.0000000000000E+00
 0.0000000000000E+00
 0.0000000000000E+00
 0.0000000000000E+00
 0.0000000000000E+00
 0.0000000000000E+00
 0.0000000000000E+00
 0.0000000000000E+00
 0.0000000000000E+00
 0.0000000000000E+00
 0.0000000000000E+00
 0.0000000000000E+00
 0.0000000000000E+00
 0.0000000000000E+00
 0.0000000000000E+00
 0.0000000000000E+00
 0.0000000000000E+00
 0.0000000000000E+00
 0.0000000000000E+00
 0.0000000000000E+00
 0.0000000000000E+00
 0.0000000000000E+00
 0.0000000000000E+00
 0.0000000000000E+00
 0.0000000000000E+00
 0.0000000000000E+00
 0.0000000000000E+00
 0.0000000000000E+00
 0.0000000000000E+00
 0.0000000000000E+00
 0.0000000000000E+00
 0.0000000000000E+00
 0.0000000000000E+00
 0.0000000000000E+00
 0.0000000000000E+00
 0.0000000000000E+00
 0.0000000000000E+00
 0.0000000000000E+00
 0.0000000000000E+00
 0.0000000000000E+00
 0.0000000000000E+00
 0.0000000000000E+00
 0.0000000000000E+00
 0.0000000000000E+00
 0.0000000000000E+00
 0.0000000000000E+00
 0.0000000000000E+00
 0.0000000000000E+00
 0.0000000000000E+00
 0.0000000000000E+00
 0.0000000000000E+00
 0.0000000000000E+00
 0.0000000000000E+00
 0.0000000000000E+00
 0.0000000000000E+00
 0.0000000000000E+00
 0.0000000000000E+00
 0.0000000000000E+00
 0.0000000000000E+00
 0.0000000000000E+00
 0.0000000000000E+00
 0.0000000000000E+00
 0.0000000000000E+00
 0.0000000000000E+00
 0.0000000000000E+00
 0.0000000000000E+00
 0.0000000000000E+00
 0.0000000000000E+00
 0.0000000000000E+00
 0.0000000000000E+00
 0.0000000000000E+00
 0.0000000000000E+00
 0.0000000000000E+00
 0.0000000000000E+00
 0.0000000000000E+00
 0.0000000000000E+00
 0.0000000000000E+00
 0.0000000000000E+00
 0.0000000000000E+00
 0.0000000000000E+00
 0.0000000000000E+00
 0.0000000000000E+00
 0.0000000000000E+00
 0.0000000000000E+00
 0.0000000000000E+00
 0.0000000000000E+00
 0.0000000000000E+00
 0.0000000000000E+00
 0.0000000000000E+00
 0.0000000000000E+00
 0.0000000000000E+00
 0.0000000000000E+00
 0.0000000000000E+00
 0.0000000000000E+00
 0.0000000000000E+00
 0.0000000000000E+00
 0.0000000000000E+00
 0.0000000000000E+00
 0.0000000000000E+00
 0.0000000000000E+00
 0.0000000000000E+00
 0.0000000000000E+00
 0.0000000000000E+00
 0.0000000000000E+00
 0.0000000000000E+00
 0.0000000000000E+00
 0.0000000000000E+00
 0.0000000000000E+00
 0.0000000000000E+00
 0.0000000000000E+00
 0.0000000000000E+00
 0.0000000000000E+00
 0.0000000000000E+00
 0.0000000000000E+00
 0.0000000000000E+00
 0.0000000000000E+00
 0.0000000000000E+00
 0.0000000000000E+00
 0.0000000000000E+00
 0.0000000000000E+00
 0.0000000000000E+00
 0.0000000000000E+00
 0.0000000000000E+00
 0.0000000000000E+00
 0.0000000000000E+00
 0.0000000000000E+00
 0.0000000000000E+00
 0.0000000000000E+00
 0.0000000000000E+00
 0.0000000000000E+00
 0.0000000000000E+00
 0.0000000000000E+00
 0.0000000000000E+00
 0.0000000000000E+00
 0.0000000000000E+00
 0.0000000000000E+00
 0.0000000000000E+00
 0.0000000000000E+00
 0.0000000000000E+00
 0.0000000000000E+00
 0.0000000000000E+00
 0.0000000000000E+00
 0.0000000000000E+00
 0.0000000000000E+00
 0.0000000000000E+00
 0.0000000000000E+00
 0.0000000000000E+00
 0.0000000000000E+00
 0.0000000000000E+00
 0.0000000000000E+00
 0.0000000000000E+00
 0.0000000000000E+00
 0.0000000000000E+00
 0.0000000000000E+00
 0.0000000000000E+00
 0.0000000000000E+00
 0.0000000000000E+00
 0.0000000000000E+00
 0.0000000000000E+00
 0.0000000000000E+00
 0.0000000000000E+00
 0.0000000000000E+00
 0.0000000000000E+00
 0.0000000000000E+00
 0.0000000000000E+00
 0.0000000000000E+00
 0.0000000000000E+00
 0.0000000000000E+00
 0.0000000000000E+00
 0.0000000000000E+00
 0.0000000000000E+00
 0.0000000000000E+00
 0.0000000000000E+00
 0.0000000000000E+00
 0.0000000000000E+00
 0.0000000000000E+00
 0.0000000000000E+00
 0.0000000000000E+00
 0.0000000000000E+00
 0.0000000000000E+00
 0.0000000000000E+00
 0.0000000000000E+00
 0.0000000000000E+00
 0.0000000000000E+00
 0.0000000000000E+00
 0.0000000000000E+00
 0.0000000000000E+00
 0.0000000000000E+00
 0.0000000000000E+00
 0.0000000000000E+00
 0.0000000000000E+00
 0.0000000000000E+00
 0.0000000000000E+00
 0.0000000000000E+00
 0.0000000000000E+00
 0.0000000000000E+00
 0.0000000000000E+00
 0.0000000000000E+00
 0.0000000000000E+00
 0.0000000000000E+00
 0.0000000000000E+00
 0.0000000000000E+00
 0.0000000000000E+00
 0.0000000000000E+00
 0.0000000000000E+00
 0.0000000000000E+00
 0.0000000000000E+00
 0.0000000000000E+00
 0.0000000000000E+00
 0.0000000000000E+00
 0.0000000000000E+00
 0.0000000000000E+00
 0.0000000000000E+00
 0.0000000000000E+00
 0.0000000000000E+00
 0.0000000000000E+00
 0.0000000000000E+00
 0.0000000000000E+00
 0.0000000000000E+00
 0.0000000000000E+00
 0.0000000000000E+00
 0.0000000000000E+00
 0.0000000000000E+00
 0.0000000000000E+00
 0.0000000000000E+00
 0.0000000000000E+00
 0.0000000000000E+00
 0.0000000000000E+00
 0.0000000000000E+00
 0.0000000000000E+00
 0.0000000000000E+00
 0.0000000000000E+00
 0.0000000000000E+00
 0.0000000000000E+00
 0.0000000000000E+00
 0.0000000000000E+00
 0.0000000000000E+00
 0.0000000000000E+00
 0.0000000000000E+00
 0.0000000000000E+00
 0.0000000000000E+00
 0.0000000000000E+00
 0.0000000000000E+00
 0.0000000000000E+00
 0.0000000000000E+00
 0.0000000000000E+00
 0.0000000000000E+00
 0.0000000000000E+00
 0.0000000000000E+00
 0.0000000000000E+00
 0.0000000000000E+00
 0.0000000000000E+00
 0.0000000000000E+00
 0.0000000000000E+00
 0.0000000000000E+00
 0.0000000000000E+00
 0.0000000000000E+00
 0.0000000000000E+00
 0.0000000000000E+00
 0.0000000000000E+00
 0.0000000000000E+00
 0.0000000000000E+00
 0.0000000000000E+00
 0.0000000000000E+00
 0.0000000000000E+00
 0.0000000000000E+00
 0.0000000000000E+00
 0.0000000000000E+00
 0.0000000000000E+00
 0.0000000000000E+00
 0.0000000000000E+00
 0.0000000000000E+00
 0.0000000000000E+00
 0.0000000000000E+00
 0.0000000000000E+00
 0.0000000000000E+00
 0.0000000000000E+00
 0.0000000000000E+00
 0.0000000000000E+00
 0.0000000000000E+00
 0.0000000000000E+00
 0.0000000000000E+00
 0.0000000000000E+00
 0.0000000000000E+00
 0.0000000000000E+00
 0.0000000000000E+00
 0.0000000000000E+00
 0.0000000000000E+00
 0.0000000000000E+00
 0.0000000000000E+00
 0.0000000000000E+00
 0.0000000000000E+00
 0.0000000000000E+00
 0.0000000000000E+00
 0.0000000000000E+00
 0.0000000000000E+00
 0.0000000000000E+00
 0.0000000000000E+00
 0.0000000000000E+00
 0.0000000000000E+00
 0.0000000000000E+00
 0.0000000000000E+00
 0.0000000000000E+00
 0.0000000000000E+00
 0.0000000000000E+00
 0.0000000000000E+00
 0.0000000000000E+00
 0.0000000000000E+00
 0.0000000000000E+00
 0.0000000000000E+00
 0.0000000000000E+00
 0.0000000000000E+00
 0.0000000000000E+00
 0.0000000000000E+00
 0.0000000000000E+00
 0.0000000000000E+00
 0.0000000000000E+00
 0.0000000000000E+00
 0.0000000000000E+00
 0.0000000000000E+00
 0.0000000000000E+00
 0.0000000000000E+00
 0.0000000000000E+00
 0.0000000000000E+00
 0.0000000000000E+00
 0.0000000000000E+00
 0.0000000000000E+00
 0.0000000000000E+00
 0.0000000000000E+00
 0.0000000000000E+00
 0.0000000000000E+00
 0.0000000000000E+00
 0.0000000000000E+00
 0.0000000000000E+00
 0.0000000000000E+00
 0.0000000000000E+00
 0.0000000000000E+00
 0.0000000000000E+00
 0.0000000000000E+00
 0.0000000000000E+00
 0.0000000000000E+00
 0.0000000000000E+00
 0.0000000000000E+00
 0.0000000000000E+00
 0.0000000000000E+00
 0.0000000000000E+00
 0.0000000000000E+00
 0.0000000000000E+00
 0.0000000000000E+00
 0.0000000000000E+00
 0.0000000000000E+00
 0.0000000000000E+00
 0.0000000000000E+00
 0.0000000000000E+00
 0.0000000000000E+00
 0.0000000000000E+00
 0.0000000000000E+00
 0.0000000000000E+00
 0.0000000000000E+00
 0.0000000000000E+00
 0.0000000000000E+00
 0.0000000000000E+00
 0.0000000000000E+00
 0.0000000000000E+00
 0.0000000000000E+00
 0.0000000000000E+00
 0.0000000000000E+00
 0.0000000000000E+00
 0.0000000000000E+00
 0.0000000000000E+00
 0.0000000000000E+00
 0.0000000000000E+00
 0.0000000000000E+00
 0.0000000000000E+00
 0.0000000000000E+00
 0.0000000000000E+00
 0.0000000000000E+00
 0.0000000000000E+00
 0.0000000000000E+00
 0.0000000000000E+00
 0.0000000000000E+00
 0.0000000000000E+00
 0.0000000000000E+00
 0.0000000000000E+00
 0.0000000000000E+00
 0.0000000000000E+00
 0.0000000000000E+00
 0.0000000000000E+00
 0.0000000000000E+00
 0.0000000000000E+00
 0.0000000000000E+00
 0.0000000000000E+00
 0.0000000000000E+00
 0.0000000000000E+00
 0.0000000000000E+00
 0.0000000000000E+00
 0.0000000000000E+00
 0.0000000000000E+00
 0.0000000000000E+00
 0.0000000000000E+00
 0.0000000000000E+00
 0.0000000000000E+00
 0.0000000000000E+00
 0.0000000000000E+00
 0.0000000000000E+00
 0.0000000000000E+00
 0.0000000000000E+00
 0.0000000000000E+00
 0.0000000000000E+00
 0.0000000000000E+00
 0.0000000000000E+00
 0.0000000000000E+00
 0.0000000000000E+00
 0.0000000000000E+00
 0.0000000000000E+00
 0.0000000000000E+00
 0.0000000000000E+00
 0.0000000000000E+00
 0.0000000000000E+00
 0.0000000000000E+00
 0.0000000000000E+00
 0.0000000000000E+00
 0.0000000000000E+00
 0.0000000000000E+00
 0.0000000000000E+00
 0.0000000000000E+00
 0.0000000000000E+00
 0.0000000000000E+00
 0.0000000000000E+00
 0.0000000000000E+00
 0.0000000000000E+00
 0.0000000000000E+00
 0.0000000000000E+00
 0.0000000000000E+00
 0.0000000000000E+00
 0.0000000000000E+00
 0.0000000000000E+00
 0.0000000000000E+00
 0.0000000000000E+00
 0.0000000000000E+00
 0.0000000000000E+00
 0.0000000000000E+00
 0.0000000000000E+00
 0.0000000000000E+00
 0.0000000000000E+00
 0.0000000000000E+00
 0.0000000000000E+00
 0.0000000000000E+00
 0.0000000000000E+00
 0.0000000000000E+00
 0.0000000000000E+00
 0.0000000000000E+00
 0.0000000000000E+00
 0.0000000000000E+00
 0.0000000000000E+00
 0.0000000000000E+00
 0.0000000000000E+00
 0.0000000000000E+00
 0.0000000000000E+00
 0.0000000000000E+00
 0.0000000000000E+00
 0.0000000000000E+00
 0.0000000000000E+00
 0.0000000000000E+00
 0.0000000000000E+00
 0.0000000000000E+00
 0.0000000000000E+00
 0.0000000000000E+00
 0.0000000000000E+00
 0.0000000000000E+00
 0.0000000000000E+00
 0.0000000000000E+00
 0.0000000000000E+00
 0.0000000000000E+00
 0.0000000000000E+00
 0.0000000000000E+00
 0.0000000000000E+00
 0.0000000000000E+00
 0.0000000000000E+00
 0.0000000000000E+00
 0.0000000000000E+00
 0.0000000000000E+00
 0.0000000000000E+00
 0.0000000000000E+00
 0.0000000000000E+00
 0.0000000000000E+00
 0.0000000000000E+00
 0.0000000000000E+00
 0.0000000000000E+00
 0.0000000000000E+00
 0.0000000000000E+00
 0.0000000000000E+00
 0.0000000000000E+00
 0.0000000000000E+00
 0.0000000000000E+00
 0.0000000000000E+00
 0.0000000000000E+00
 0.0000000000000E+00
 0.0000000000000E+00
 0.0000000000000E+00
 0.0000000000000E+00
 0.0000000000000E+00
 0.0000000000000E+00
 0.0000000000000E+00
 0.0000000000000E+00
 0.0000000000000E+00
 0.0000000000000E+00
 0.0000000000000E+00
 0.0000000000000E+00
 0.0000000000000E+00
 0.0000000000000E+00
 0.0000000000000E+00
 0.0000000000000E+00
 0.0000000000000E+00
 0.0000000000000E+00
 0.0000000000000E+00
 0.0000000000000E+00
 0.0000000000000E+00
 0.0000000000000E+00
 0.0000000000000E+00
 0.0000000000000E+00
 0.0000000000000E+00
 0.0000000000000E+00
 0.0000000000000E+00
 0.0000000000000E+00
 0.0000000000000E+00
 0.0000000000000E+00
 0.0000000000000E+00
 0.0000000000000E+00
 0.0000000000000E+00
 0.0000000000000E+00
 0.0000000000000E+00
 0.0000000000000E+00
 0.0000000000000E+00
 0.0000000000000E+00
 0.0000000000000E+00
 0.0000000000000E+00
 0.0000000000000E+00
 0.0000000000000E+00
 0.0000000000000E+00
 0.0000000000000E+00
 0.0000000000000E+00
 0.0000000000000E+00
 0.0000000000000E+00
 0.0000000000000E+00
 0.0000000000000E+00
 0.0000000000000E+00
 0.0000000000000E+00
 0.0000000000000E+00
 0.0000000000000E+00
 0.0000000000000E+00
 0.0000000000000E+00
 0.0000000000000E+00
 0.0000000000000E+00
 0.0000000000000E+00
 0.0000000000000E+00
 0.0000000000000E+00
 0.0000000000000E+00
 0.0000000000000E+00
 0.0000000000000E+00
 0.0000000000000E+00
 0.0000000000000E+00
 0.0000000000000E+00
 0.0000000000000E+00
 0.0000000000000E+00
 0.0000000000000E+00
 0.0000000000000E+00
 0.0000000000000E+00
 0.0000000000000E+00
 0.0000000000000E+00
 0.0000000000000E+00
 0.0000000000000E+00
 0.0000000000000E+00
 0.0000000000000E+00
 0.0000000000000E+00
 0.0000000000000E+00
 0.0000000000000E+00
 0.0000000000000E+00
 0.0000000000000E+00
 0.0000000000000E+00
 0.0000000000000E+00
 0.0000000000000E+00
 0.0000000000000E+00
 0.0000000000000E+00
 0.0000000000000E+00
 0.0000000000000E+00
 0.0000000000000E+00
 0.0000000000000E+00
 0.0000000000000E+00
 0.0000000000000E+00
 0.0000000000000E+00
 0.0000000000000E+00
 0.0000000000000E+00
 0.0000000000000E+00
 0.0000000000000E+00
 0.0000000000000E+00
 0.0000000000000E+00
 0.0000000000000E+00
 0.0000000000000E+00
 0.0000000000000E+00
 0.0000000000000E+00
 0.0000000000000E+00
 0.0000000000000E+00
 0.0000000000000E+00
 0.0000000000000E+00
 0.0000000000000E+00
 0.0000000000000E+00
 0.0000000000000E+00
 0.0000000000000E+00
 0.0000000000000E+00
 0.0000000000000E+00
 0.0000000000000E+00
 0.0000000000000E+00
 0.0000000000000E+00
 0.0000000000000E+00
 0.0000000000000E+00
 0.0000000000000E+00
 0.0000000000000E+00
 0.0000000000000E+00
 0.0000000000000E+00
 0.0000000000000E+00
 0.0000000000000E+00
 0.0000000000000E+00
 0.0000000000000E+00
 0.0000000000000E+00
 0.0000000000000E+00
 0.0000000000000E+00
 0.0000000000000E+00
 0.0000000000000E+00
 0.0000000000000E+00
 0.0000000000000E+00
 0.0000000000000E+00
 0.0000000000000E+00
 0.0000000000000E+00
 0.0000000000000E+00
 0.0000000000000E+00
 0.0000000000000E+00
 0.0000000000000E+00
 0.0000000000000E+00
 0.0000000000000E+00
 0.0000000000000E+00
 0.0000000000000E+00
 0.0000000000000E+00
 0.0000000000000E+00
 0.0000000000000E+00
 0.0000000000000E+00
 0.0000000000000E+00
 0.0000000000000E+00
 0.0000000000000E+00
 0.0000000000000E+00
 0.0000000000000E+00
 0.0000000000000E+00
 0.0000000000000E+00
 0.0000000000000E+00
 0.0000000000000E+00
 0.0000000000000E+00
 0.0000000000000E+00
 0.0000000000000E+00
 0.0000000000000E+00
 0.0000000000000E+00
 0.0000000000000E+00
 0.0000000000000E+00
 0.0000000000000E+00
 0.0000000000000E+00
 0.0000000000000E+00
 0.0000000000000E+00
 0.0000000000000E+00
 0.0000000000000E+00
 0.0000000000000E+00
 0.0000000000000E+00
 0.0000000000000E+00
 0.0000000000000E+00
 0.0000000000000E+00
 0.0000000000000E+00
 0.0000000000000E+00
 0.0000000000000E+00
 0.0000000000000E+00
 0.0000000000000E+00
 0.0000000000000E+00
 0.0000000000000E+00
 0.0000000000000E+00
 0.0000000000000E+00
 0.0000000000000E+00
 0.0000000000000E+00
 0.0000000000000E+00
 0.0000000000000E+00
 0.0000000000000E+00
 0.0000000000000E+00
 0.0000000000000E+00
 0.0000000000000E+00
 0.0000000000000E+00
 0.0000000000000E+00
 0.0000000000000E+00
 0.0000000000000E+00
 0.0000000000000E+00
 0.0000000000000E+00
 0.0000000000000E+00
 0.0000000000000E+00
 0.0000000000000E+00
 0.0000000000000E+00
 0.0000000000000E+00
 0.0000000000000E+00
 0.0000000000000E+00
 0.0000000000000E+00
 0.0000000000000E+00
 0.0000000000000E+00
 0.0000000000000E+00
 0.0000000000000E+00
 0.0000000000000E+00
 0.0000000000000E+00
 0.0000000000000E+00
 0.0000000000000E+00
 0.0000000000000E+00
 0.0000000000000E+00
 0.0000000000000E+00
 0.0000000000000E+00
 0.0000000000000E+00
 0.0000000000000E+00
 0.0000000000000E+00
 0.0000000000000E+00
 0.0000000000000E+00
 0.0000000000000E+00
 0.0000000000000E+00
 0.0000000000000E+00
 0.0000000000000E+00
 0.0000000000000E+00
 0.0000000000000E+00
 0.0000000000000E+00
 0.0000000000000E+00
 0.0000000000000E+00
 0.0000000000000E+00
 0.0000000000000E+00
 0.0000000000000E+00
 0.0000000000000E+00
 0.0000000000000E+00
 0.0000000000000E+00
 0.0000000000000E+00
 0.0000000000000E+00
 0.0000000000000E+00
 0.0000000000000E+00
 0.0000000000000E+00
 0.0000000000000E+00
 0.0000000000000E+00
 0.0000000000000E+00
 0.0000000000000E+00
 0.0000000000000E+00
 0.0000000000000E+00
 0.0000000000000E+00
 0.0000000000000E+00
 0.0000000000000E+00
 0.0000000000000E+00
 0.0000000000000E+00
 0.0000000000000E+00
 0.0000000000000E+00
 0.0000000000000E+00
 0.0000000000000E+00
 0.0000000000000E+00
 0.0000000000000E+00
 0.0000000000000E+00
 0.0000000000000E+00
 0.0000000000000E+00
 0.0000000000000E+00
 0.0000000000000E+00
 0.0000000000000E+00
 0.0000000000000E+00
 0.0000000000000E+00
 0.0000000000000E+00
 0.0000000000000E+00
 0.0000000000000E+00
 0.0000000000000E+00
 0.0000000000000E+00
 0.0000000000000E+00
 0.0000000000000E+00
 0.0000000000000E+00
 0.0000000000000E+00
 0.0000000000000E+00
 0.0000000000000E+00
 0.0000000000000E+00
 0.0000000000000E+00
 0.0000000000000E+00
 0.0000000000000E+00
 0.0000000000000E+00
 0.0000000000000E+00
 0.0000000000000E+00
 0.0000000000000E+00
 0.0000000000000E+00
 0.0000000000000E+00
 0.0000000000000E+00
 0.0000000000000E+00
 0.0000000000000E+00
 0.0000000000000E+00
 0.0000000000000E+00
 0.0000000000000E+00
 0.0000000000000E+00
 0.0000000000000E+00
 0.0000000000000E+00
 0.0000000000000E+00
 0.0000000000000E+00
 0.0000000000000E+00
 0.0000000000000E+00
 0.0000000000000E+00
 0.0000000000000E+00
 0.0000000000000E+00
 0.0000000000000E+00
 0.0000000000000E+00
 0.0000000000000E+00
 0.0000000000000E+00
 0.0000000000000E+00
 0.0000000000000E+00
 0.0000000000000E+00
 0.0000000000000E+00
 0.0000000000000E+00
 0.0000000000000E+00
 0.0000000000000E+00
 0.0000000000000E+00
 0.0000000000000E+00
 0.0000000000000E+00
 0.0000000000000E+00
 0.0000000000000E+00
 0.0000000000000E+00
 0.0000000000000E+00
 0.0000000000000E+00
 0.0000000000000E+00
 0.0000000000000E+00
 0.0000000000000E+00
 0.0000000000000E+00
 0.0000000000000E+00
 0.0000000000000E+00
 0.0000000000000E+00
 0.0000000000000E+00
 0.0000000000000E+00
 0.0000000000000E+00
 0.0000000000000E+00
 0.0000000000000E+00
 0.0000000000000E+00
 0.0000000000000E+00
 0.0000000000000E+00
 0.0000000000000E+00
 0.0000000000000E+00
 0.0000000000000E+00
 0.0000000000000E+00
 0.0000000000000E+00
 0.0000000000000E+00
 0.0000000000000E+00
 0.0000000000000E+00
 0.0000000000000E+00
 0.0000000000000E+00
 0.0000000000000E+00
 0.0000000000000E+00
 0.0000000000000E+00
 0.0000000000000E+00
 0.0000000000000E+00
 0.0000000000000E+00
 0.0000000000000E+00
 0.0000000000000E+00
 0.0000000000000E+00
</DataArray>
<DataArray type="Int32" Name="Region" format="ascii">
           1
           1
           1
           1
           1
           1
           1
           1
           1
           1
           1
           1
           1
           1
           1
           1
           1
           1
           1
           1
           1
           1
           1
           1
           1
           1
           1
           1
           1
           1
           1
           1
           1
           1
           1
           1
           1
           1
           1
           1
           1
           1
           1
           1
           1
           1
           1
           1
           1
           1
           1
           1
           1
           1
           1
           1
           1
           1
           1
           1
           1
           1
           1
           1
           1
           1
           1
           1
           1
           1
           1
           1
           1
           1
           1
           1
           1
           1
           1
           1
           1
           1
           1
           1
           1
           1
           1
           1
           1
           1
           1
           1
           1
           1
           1
           1
           1
           1
           1
           1
           1
           1
           1
           1
           1
           1
           1
           1
           1
           1
           1
           1
           1
           1
           1
           1
           1
           1
           1
           1
           1
           1
           1
           1
           1
           1
           1
           1
           1
           1
           1
           1
           1
           1
           1
           1
           1
           1
           1
           1
           1
           1
           1
           1
           1
           1
           1
           1
           1
           1
           1
           1
           1
           1
           1
           1
           1
           1
           1
           1
           1
           1
           1
           1
           1
           1
           1
           1
           1
           1
           1
           1
           1
           1
           1
           1
           1
           1
           1
           1
           1
           1
           1
           1
           1
           1
           1
           1
           1
           1
           1
           1
           1
           1
           1
           1
           1
           1
           1
           1
           1
           1
           1
           1
           1
           1
           1
           1
           1
           1
           1
           1
           1
           1
           1
           1
           1
           1
           1
           1
           1
           1
           1
           1
           1
           1
           1
           1
           1
           1
           1
           1
           1
           1
           1
           1
           1
           1
           1
           1
           1
           1
           1
           1
           1
           1
           1
           1
           1
           1
           1
           1
           1
           1
           1
           1
           1
           1
           1
           1
           1
           1
           1
           1
           1
           1
           1
           1
           1
           1
           1
           1
           1
           1
           1
           1
           1
           1
           1
           1
           1
           1
           1
           1
           1
           1
           1
           1
           1
           1
           1
           1
           1
           1
           1
           1
           1
           1
           1
           1
           1
           1
           1
           1
           1
           1
           1
           1
           1
           1
           1
           1
           1
           1
           1
           1
           1
           1
           1
           1
           1
           1
           1
           1
           1
           1
           1
           1
           1
           1
           1
           1
           1
           1
           1
           1
           1
           1
           1
           1
           1
           1
           1
           1
           1
           1
           1
           1
           1
           1
           1
           1
           1
           1
           1
           1
           1
           1
           1
           1
           1
           1
           1
           1
           1
           1
           1
           1
           1
           1
           1
           1
           1
           1
           1
           1
           1
           1
           1
           1
           1
           1
           1
           1
           1
           1
           1
           1
           1
           1
           1
           1
           1
           1
           1
           1
           1
           1
           1
           1
           1
           1
           1
           1
           1
           1
           1
           1
           1
           1
           1
           1
           1
           1
           1
           1
           1
           1
           1
           1
           1
           1
           1
           1
           1
           1
           1
           1
           1
           1
           1
           1
           1
           1
           1
           1
           1
           1
           1
           1
           1
           1
           1
           1
           1
           1
           1
           1
           1
           1
           1
           1
           1
           1
           1
           1
           1
           1
           1
           1
           1
           1
           1
           1
           1
           1
           1
           1
           1
           1
           1
           1
           1
           1
           1
           1
           1
           1
           1
           1
           1
           1
           1
           1
           1
           1
           1
           1
           1
           1
           1
           1
           1
           1
           1
           1
           1
           1
           1
           1
           1
           1
           1
           1
           1
           1
           1
           1
           1
           1
           1
           1
           1
           1
           1
           1
           1
           1
           1
           1
           1
           1
           1
           1
           1
           1
           1
           1
           1
           1
           1
           1
           1
           1
           1
           1
           1
           1
           1
           1
           1
           1
           1
           1
           1
           1
           1
           1
           1
           1
           1
           1
           1
           1
           1
           1
           1
           1
           1
           1
           1
           1
           1
           1
           1
           1
           1
           1
           1
           1
           1
           1
           1
           1
           1
           1
           1
           1
           1
           1
           1
           1
           1
           1
           1
           1
           1
           1
           1
           1
           1
           1
           1
           1
           1
           1
           1
           1
           1
           1
           1
           1
           1
           1
           1
           1
           1
           1
           1
           1
           1
           1
           1
           1
           1
           1
           1
           1
           1
           1
           1
           1
           1
           1
           1
           1
           1
           1
           1
           1
           1
           1
           1
           1
           1
           1
           1
           1
           1
           1
           1
           1
           1
           1
           1
           1
           1
           1
           1
           1
           1
           1
           1
           1
           1
           1
           1
           1
           1
           1
           1
           1
           1
           1
           1
           1
           1
           1
           1
           1
           1
           1
           1
           1
           1
           1
           1
           1
           1
           1
           1
           1
           1
           1
           1
           1
           1
           1
           1
           1
           1
           1
           1
           1
           1
           1
           1
           1
           1
           1
           1
           1
           1
           1
           1
           1
           1
           1
           1
           1
           1
           1
           1
           1
           1
           1
           1
           1
           1
           1
           1
           1
           1
           1
           1
           1
           1
           1
           1
           1
           1
           1
           1
           1
           1
           1
           1
           1
           1
           1
           1
           1
           1
           1
           1
           1
           1
           1
           1
           1
           1
           1
           1
           1
           1
           1
           1
           1
           1
           1
           1
           1
           1
           1
           1
           1
           1
           1
           1
           1
           1
           1
           1
           1
           1
           1
           1
           1
           1
           1
           1
           1
           1
           1
           1
           1
           1
           1
           1
           1
           1
           1
           1
           1
           1
           1
           1
           1
           1
           1
           1
           1
           1
           1
           1
           1
           1
           1
           1
           1
           1
           1
           1
           1
           1
           1
           1
           1
           1
           1
           1
           1
           1
           1
           1
           1
           1
           1
           1
           1
           1
           1
           1
           1
           1
           1
           1
           1
           1
           1
           1
           1
           1
           1
           1
           1
           1
           1
           1
           1
           1
           1
           1
           1
           1
           1
           1
           1
           1
           1
           1
           1
           1
           1
           1
           1
           1
           1
           1
           1
           1
           1
           1
           1
           1
           1
           1
           1
           1
           1
           1
           1
           1
           1
           1
           1
           1
           1
           1
           1
           1
           1
           1
           1
           1
           1
           1
           1
           1
           1
           1
           1
           1
           1
           1
           1
           1
           1
           1
           1
           1
           1
           1
           1
           1
           1
           1
           1
           1
           1
           1
           1
           1
           1
           1
           1
           1
           1
           1
           1
           1
           1
           1
           1
           1
           1
           1
           1
           1
           1
           1
           1
           1
           1
           1
           1
           1
           1
           1
           1
           1
           1
           1
           1
           1
           1
           1
           1
           1
           1
           1
           1
           1
           1
           1
           1
           1
           1
           1
           1
           1
           1
           1
           1
           1
           1
           1
           1
           1
           1
           1
           1
           1
           1
           1
           1
           1
           1
           1
           1
           1
           1
           1
           1
           1
           1
           1
           1
           1
           1
           1
           1
           1
           1
           1
           1
           1
           1
           1
           1
           1
           1
           1
           1
           1
           1
           1
           1
           1
           1
           1
           1
           1
           1
           1
           1
           1
           1
           1
           1
           1
           1
           1
           1
           1
           1
           1
           1
           1
           1
           1
           1
           1
           1
           1
           1
           1
           1
           1
           1
           1
           1
           1
           1
           1
           1
           1
           1
           1
           1
           1
           1
           1
           1
           1
           1
           1
           1
           1
           1
           1
           1
           1
           1
           1
           1
           1
           1
           1
           1
           1
           1
           1
           1
           1
           1
           1
           1
           1
           1
           1
           1
           1
           1
           1
           1
           1
           1
           1
           1
           1
           1
           1
           1
           1
           1
           1
           1
           1
           1
           1
           1
           1
           1
           1
           1
           1
           1
           1
           1
           1
           1
           1
           1
           1
           1
           1
           1
           1
           1
           1
           1
           1
           1
           1
           1
           1
           1
           1
           1
           1
           1
           1
           1
           1
           1
           1
           1
           1
           1
           1
           1
           1
           1
           1
           1
           1
           1
           1
           1
           1
           1
           1
           1
           1
           1
           1
           1
           1
           1
           1
           1
           1
           1
           1
           1
           1
           1
           1
           1
           1
           1
           1
           1
           1
           1
           1
           1
           1
           1
           1
           1
           1
           1
           1
           1
           1
           1
           1
           1
           1
           1
           1
           1
           1
           1
           1
           1
           1
           1
           1
           1
           1
           1
           1
           1
           1
           1
           1
           1
           1
           1
           1
           1
           1
           1
           1
           1
           1
           1
           1
           1
           1
           1
           1
           1
           1
           1
           1
           1
           1
           1
           1
           1
           1
           1
           1
           1
           1
           1
           1
           1
           1
           1
           1
           1
           1
           1
           1
           1
           1
           1
           1
           1
           1
           1
           1
           1
           1
           1
           1
           1
           1
           1
           1
           1
           1
           1
           1
           1
           1
           1
           1
           1
           1
           1
           1
           1
           1
           1
           1
           1
           1
           1
           1
           1
           1
           1
           1
           1
           1
           1
           1
           1
           1
           1
           1
           1
           1
           1
           1
           1
           1
           1
           1
           1
           1
           1
           1
           1
           1
           1
           1
           1
           1
           1
           1
           1
           1
           1
           1
           1
           1
           1
           1
           1
           1
           1
           1
           1
           1
           1
           1
           1
           1
           1
           1
           1
           1
           1
           1
           1
           1
           1
           1
           1
           1
           1
           1
           1
           1
           1
           1
           1
           1
           1
           1
           1
           1
           1
           1
           1
           1
           1
           1
           1
           1
           1
           1
           1
           1
           1
           1
           1
           1
           1
           1
           1
           1
           1
           1
           1
           1
           1
           1
           1
           1
           1
           1
           1
           1
           1
           1
           1
           1
           1
           1
           1
           1
           1
           1
           1
           1
           1
           1
           1
           1
           1
           1
           1
           1
           1
           1
           1
           1
           1
           1
           1
           1
           1
           1
           1
           1
           1
           1
           1
           1
           1
           1
           1
           1
           1
           1
           1
           1
           1
           1
           1
           1
           1
           1
           1
           1
           1
           1
           1
           1
           1
           1
           1
           1
           1
           1
           1
           1
           1
           1
           1
           1
           1
           1
           1
           1
           1
           1
           1
           1
           1
           1
           1
           1
           1
           1
           1
           1
           1
           1
           1
           1
           1
           1
           1
           1
           1
           1
           1
           1
           1
           1
           1
           1
           1
           1
           1
           1
           1
           1
           1
           1
           1
           1
           1
           1
           1
           1
           1
           1
           1
           1
           1
           1
           1
           1
           1
           1
           1
           1
           1
           1
           1
           1
           1
           1
           1
           1
           1
           1
           1
           1
           1
           1
           1
           1
           1
           1
           1
           1
           1
           1
           1
           1
           1
           1
           1
           1
           1
           1
           1
           1
           1
           1
           1
           1
           1
           1
           1
           1
           1
           1
           1
           1
           1
           1
           1
           1
           1
           1
           1
           1
           1
           1
           1
           1
           1
           1
           1
           1
           1
           1
           1
           1
           1
           1
           1
           1
           1
           1
           1
           1
           1
           1
           1
           1
           1
           1
           1
           1
           1
           1
           1
           1
           1
           1
           1
           1
           1
           1
           1
           1
           1
           1
           1
           1
           1
           1
           1
           1
           1
           1
           1
           1
           1
           1
           1
           1
           1
           1
           1
           1
           1
           1
           1
           1
           1
           1
           1
           1
           1
           1
           1
           1
           1
           1
           1
           1
           1
           1
           1
           1
           1
           1
           1
           1
           1
           1
           1
           1
           1
           1
           1
           1
           1
           1
           1
           1
           1
           1
           1
           1
           1
           1
           1
           1
           1
           1
           1
           1
           1
           1
           1
           1
           1
           1
           1
           1
           1
           1
           1
           1
           1
           1
           1
           1
           1
           1
           1
           1
           1
           1
           1
           1
           1
           1
           1
           1
           1
           1
           1
           1
           1
           1
           1
           1
           1
           1
           1
           1
           1
           1
           1
           1
           1
           1
           1
           1
           1
           1
           1
           1
           1
           1
           1
           1
           1
           1
           1
           1
           1
           1
           1
           1
           1
           1
           1
           1
           1
           1
           1
           1
           1
           1
           1
           1
           1
           1
           1
           1
           1
           1
           1
           1
           1
           1
           1
           1
           1
           1
           1
           1
           1
           1
           1
           1
           1
           1
           1
           1
           1
           1
           1
           1
           1
           1
           1
           1
           1
           1
           1
           1
           1
           1
           1
           1
           1
           1
           1
           1
           1
           1
           1
           1
           1
           1
           1
           1
           1
           1
           1
           1
           1
           1
           1
           1
           1
           1
           1
           1
           1
           1
           1
           1
           1
           1
           1
           1
           1
           1
           1
           1
           1
           1
           1
           1
           1
           1
           1
           1
           1
           1
           1
           1
           1
           1
           1
           1
           1
           1
           1
           1
           1
           1
           1
           1
           1
           1
           1
           1
           1
           1
           1
           1
           1
           1
           1
           1
           1
           1
           1
           1
           1
           1
           1
           1
           1
           1
           1
           1
           1
           1
           1
           1
           1
           1
           1
           1
           1
           1
           1
           1
           1
           1
           1
           1
           1
           1
           1
           1
           1
           1
           1
           1
           1
           1
           1
           1
           1
           1
           1
           1
           1
           1
           1
           1
           1
           1
           1
           1
           1
           1
           1
           1
           1
           1
           1
           1
           1
           1
           1
           1
           1
           1
           1
           1
           1
           1
           1
           1
           1
           1
           1
           1
           1
           1
           1
           1
           1
           1
           1
           1
           1
           1
           1
           1
           1
           1
           1
           1
           1
           1
           1
           1
           1
           1
           1
           1
           1
           1
           1
           1
           1
           1
           1
           1
           1
           1
           1
           1
           1
           1
           1
           1
           1
           1
           1
           1
           1
           1
           1
           1
           1
           1
           1
           1
           1
           1
           1
           1
           1
           1
           1
           1
           1
           1
           1
           1
           1
           1
           1
           1
           1
           1
           1
           1
           1
           1
           1
           1
           1
           1
           1
           1
           1
           1
           1
           1
           1
           1
           1
           1
           1
           1
           1
           1
           1
           1
           1
           1
           1
           1
           1
           1
           1
           1
           1
           1
           1
           1
           1
           1
           1
           1
           1
           1
           1
           1
           1
           1
           1
           1
           1
           1
           1
           1
           1
           1
           1
           1
           1
           1
           1
           1
           1
           1
           1
           1
           1
           1
           1
           1
           1
           1
           1
           1
           1
           1
           1
           1
           1
           1
           1
           1
           1
           1
           1
           1
           1
           1
           1
           1
           1
           1
           1
           1
           1
           1
           1
           1
           1
           1
           1
           1
           1
           1
           1
           1
           1
           1
           1
           1
           1
           1
           1
           1
           1
           1
           1
           1
           1
           1
           1
           1
           1
           1
           1
           1
           1
           1
           1
           1
           1
           1
           1
           1
           1
           1
           1
           1
           1
           1
           1
           1
           1
           1
           1
           1
           1
           1
           1
           1
           1
           1
           1
           1
           1
           1
           1
           1
           1
           1
           1
           1
           1
           1
           1
           1
           1
           1
           1
           1
           1
           1
           1
           1
           1
           1
           1
           1
           1
           1
           1
           1
           1
           1
           1
           1
           1
           1
           1
           1
           1
           1
           1
           1
           1
           1
           1
           1
           1
           1
           1
           1
           1
           1
           1
           1
           1
           1
           1
           1
           1
           1
           1
           1
           1
           1
           1
           1
           1
           1
           1
           1
           1
           1
           1
           1
           1
           1
           1
           1
           1
           1
           1
           1
           1
           1
           1
           1
           1
           1
           1
           1
           1
           1
           1
           1
           1
           1
           1
           1
           1
           1
           1
           1
           1
           1
           1
           1
           1
           1
           1
           1
           1
           1
           1
           1
           1
           1
           1
           1
           1
           1
           1
           1
           1
           1
           1
           1
           1
           1
           1
           1
           1
           1
           1
           1
           1
           1
           1
           1
           1
           1
           1
           1
           1
           1
           1
           1
           1
           1
           1
           1
           1
           1
           1
           1
           1
           1
           1
           1
           1
           1
           1
           1
           1
           1
           1
           1
           1
           1
           1
           1
           1
           1
           1
           1
           1
           1
           1
           1
           1
           1
           1
           1
           1
           1
           1
           1
           1
           1
           1
           1
           1
           1
           1
           1
           1
           1
           1
           1
           1
           1
           1
           1
           1
           1
           1
           1
           1
           1
           1
           1
           1
           1
           1
           1
           1
           1
           1
           1
           1
           1
           1
           1
           1
           1
           1
           1
           1
           1
           1
           1
           1
           1
           1
           1
           1
           1
           1
           1
           1
           1
           1
           1
           1
           1
           1
           1
           1
           1
           1
           1
           1
           1
           1
           1
           1
           1
           1
           1
           1
           1
           1
           1
           1
           1
           1
           1
           1
           1
           1
           1
           1
           1
           1
           1
           1
           1
           1
           1
           1
           1
           1
           1
           1
           1
           1
           1
           1
           1
           1
           1
           1
           1
           1
           1
           1
           1
           1
           1
           1
           1
           1
           1
           1
           1
           1
           1
           1
           1
           1
           1
           1
           1
           1
           1
           1
           1
           1
           1
           1
           1
           1
           1
           1
           1
           1
           1
           1
           1
           1
           1
           1
           1
           1
           1
           1
           1
           1
           1
           1
           1
           1
           1
           1
           1
           1
           1
           1
           1
           1
           1
           1
           1
           1
           1
           1
           1
           1
           1
           1
           1
           1
           1
           1
           1
           1
           1
           1
           1
           1
           1
           1
           1
           1
           1
           1
           1
           1
           1
           1
           1
           1
           1
           1
           1
           1
           1
           1
           1
           1
           1
           1
           1
           1
           1
           1
           1
           1
           1
           1
           1
           1
           1
           1
           1
           1
           1
           1
           1
           1
           1
           1
           1
           1
           1
           1
           1
           1
           1
           1
           1
           1
           1
           1
           1
           1
           1
           1
           1
           1
           1
           1
           1
           1
           1
           1
           1
           1
           1
           1
           1
           1
           1
           1
           1
           1
           1
           1
           1
           1
           1
           1
           1
           1
           1
           1
           1
           1
           1
           1
           1
           1
           1
           1
           1
           1
           1
           1
           1
           1
           1
           1
           1
           1
           1
           1
           1
           1
           1
           1
           1
           1
           1
           1
           1
           1
           1
           1
           1
           1
           1
           1
           1
           1
           1
           1
           1
           1
           1
           1
           1
           1
           1
           1
           1
           1
           1
           1
           1
           1
           1
           1
           1
           1
           1
           1
           1
           1
           1
           1
           1
           1
           1
           1
           1
           1
           1
           1
           1
           1
           1
           1
           1
           1
           1
           1
           1
           1
           1
           1
           1
           1
           1
           1
           1
           1
           1
           1
           1
           1
           1
           1
           1
           1
           1
           1
           1
           1
           1
           1
           1
           1
           1
           1
           1
           1
           1
           1
           1
           1
           1
           1
           1
           1
           1
           1
           1
           1
           1
           1
           1
           1
           1
           1
           1
           1
           1
           1
           1
           1
           1
           1
           1
           1
           1
           1
           1
           1
           1
           1
           1
           1
           1
           1
           1
           1
           1
           1
           1
           1
           1
           1
           1
           1
           1
           1
           1
           1
           1
           1
           1
           1
           1
           1
           1
           1
           1
           1
           1
           1
           1
           1
           1
           1
           1
           1
           1
           1
           1
           1
           1
           1
           1
           1
           1
           1
           1
           1
           1
           1
           1
           1
           1
           1
           1
           1
           1
           1
           1
           1
           1
           1
           1
           1
           1
           1
           1
           1
           1
           1
           1
           1
           1
           1
           1
           1
           1
           1
           1
           1
           1
           1
           1
           1
           1
           1
           1
           1
           1
           1
           1
           1
           1
           1
           1
           1
           1
           1
           1
           1
           1
           1
           1
           1
           1
           1
           1
           1
           1
           1
           1
           1
           1
           1
           1
           1
           1
           1
           1
           1
           1
           1
           1
           1
           1
           1
           1
           1
           1
           1
           1
           1
           1
           1
           1
           1
           1
           1
           1
           1
           1
           1
           1
           1
           1
           1
           1
           1
           1
           1
           1
           1
           1
           1
           1
           1
           1
           1
           1
           1
           1
           1
           1
           1
           1
           1
           1
           1
           1
           1
           1
           1
           1
           1
           1
           1
           1
           1
           1
           1
           1
           1
           1
           1
           1
           1
           1
           1
           1
           1
           1
           1
           1
           1
           1
           1
           1
           1
           1
           1
           1
           1
           1
           1
           1
           1
           1
           1
           1
           1
           1
           1
           1
           1
           1
           1
           1
           1
           1
           1
           1
           1
           1
           1
           1
           1
           1
           1
           1
           1
           1
           1
           1
           1
           1
           1
           1
           1
           1
           1
           1
           1
           1
           1
           1
           1
           1
           1
           1
           1
           1
           1
           1
           1
           1
           1
           1
           1
           1
           1
           1
           1
           1
           1
           1
           1
           1
           1
           1
           1
           1
           1
           1
           1
           1
           1
           1
           1
           1
           1
           1
           1
           1
           1
           1
           1
           1
           1
           1
           1
           1
           1
           1
           1
           1
           1
           1
           1
           1
           1
           1
           1
           1
           1
           1
           1
           1
           1
           1
           1
           1
           1
           1
           1
           1
           1
           1
           1
           1
           1
           1
           1
           1
           1
           1
           1
           1
           1
           1
           1
           1
           1
           1
           1
           1
           1
           1
           1
           1
           1
           1
           1
           1
           1
           1
           1
           1
           1
           1
           1
           1
           1
           1
           1
           1
           1
           1
           1
           1
           1
           1
           1
           1
           1
           1
           1
           1
           1
           1
           1
           1
           1
           1
           1
           1
           1
           1
           1
           1
           1
           1
           1
           1
           1
           1
           1
           1
           1
           1
           1
           1
           1
           1
           1
           1
           1
           1
           1
           1
           1
           1
           1
           1
           1
           1
           1
           1
           1
           1
           1
           1
           1
           1
           1
           1
           1
           1
           1
           1
           1
           1
           1
           1
           1
           1
           1
           1
           1
           1
           1
           1
           1
           1
           1
           1
           1
           1
           1
           1
           1
           1
           1
           1
           1
           1
           1
           1
           1
           1
           1
           1
           1
           1
           1
           1
           1
           1
           1
           1
           1
           1
           1
           1
           1
           1
           1
           1
           1
           1
           1
           1
           1
           1
           1
           1
           1
           1
           1
           1
           1
           1
           1
           1
           1
           1
           1
           1
           1
           1
           1
           1
           1
           1
           1
           1
           1
           1
           1
           1
           1
           1
           1
           1
           1
           1
           1
           1
           1
           1
           1
           2
           2
           2
           2
           2
           2
           2
           2
           2
           2
           2
           2
           2
           2
           2
           2
           2
           2
           2
           2
           2
           2
           2
           2
           2
           2
           2
           2
           2
           2
           2
           2
           2
           2
           2
           2
           2
           2
           2
           2
           2
           2
           2
           2
           2
           2
           2
           2
           2
           2
           2
           2
           2
           2
           2
           2
           2
           2
           2
           2
           2
           2
           2
           2
           2
           2
           2
           2
           2
           2
           2
           2
           2
           2
           2
           2
           2
           2
           2
           2
           2
           2
           2
           2
           2
           2
           2
           2
           2
           2
           2
           2
           2
           2
           2
           2
           2
           2
           2
           2
           2
           2
           2
           2
           2
           2
           2
           2
           2
           2
           2
           2
           2
           2
           2
           2
           2
           2
           2
           2
           2
           2
           2
           2
           2
           2
           2
           2
           2
           2
           2
           2
           2
           2
           2
           2
           2
           2
           2
           2
           2
           2
           2
           2
           2
           2
           2
           2
           2
           2
           2
           2
           2
           2
           2
           2
           2
           2
           2
           2
           2
           2
           2
           2
           2
           2
           2
           2
           2
           2
           2
           2
           2
           2
           2
           2
           2
           2
           2
           2
           2
           2
           2
           2
           2
           2
           2
           2
           2
           2
           2
           2
           2
           2
           2
           2
           2
           2
           2
           2
           2
           2
           2
           2
           2
           2
           2
           2
           2
           2
           2
           2
           2
           2
           2
           2
           2
           2
           2
           2
           2
           2
           2
           2
           2
           2
           2
           2
           2
           2
           2
           2
           2
           2
           2
           2
           2
           2
           2
           2
           2
           2
           2
           2
           2
           2
           2
           2
           2
           2
           2
           2
           2
           2
           2
           2
           2
           2
           2
           2
           2
           2
           2
           2
           2
           2
           2
           2
           2
           2
           2
           2
           2
           2
           2
           2
           2
           2
           2
           2
           2
           2
           2
           2
           2
           2
           2
           2
           2
           2
           2
           2
           2
           2
           2
           2
           2
           2
           2
           2
           2
           2
           2
           2
           2
           2
           2
           2
           2
           2
           2
           2
           2
           2
           2
           2
           2
           2
           2
           2
           2
           2
           2
           2
           2
           2
           2
           2
           2
           2
           2
           2
           2
           2
           2
           2
           2
           2
           2
           2
           2
           2
           2
           2
           2
           2
           2
           2
           2
           2
           2
           2
           2
           2
           2
           2
           2
           2
           2
           2
           2
           2
           2
           2
           2
           2
           2
           2
           2
           2
           2
           2
           2
           2
           2
           2
           2
           2
           2
           2
           2
           2
           2
           2
           2
           2
           2
           2
           2
           2
           2
           2
           2
           2
           2
           2
           2
           2
           2
           2
           2
           2
           2
           2
           2
           2
           2
           2
           2
           2
           2
           2
           2
           2
           2
           2
           2
           2
           2
           2
           2
           2
           2
           2
           2
           2
           2
           2
           2
           2
           2
           2
           2
           2
           2
           2
           2
           2
           2
           2
           2
           2
           2
           2
           2
           2
           2
           2
           2
           2
           2
           2
           2
           2
           2
           2
           2
           2
           2
           2
           2
           2
           2
           2
           2
           2
           2
           2
           2
           2
           2
           2
           2
           2
           2
           2
           2
           2
           2
           2
           2
           2
           2
           2
           2
           2
           2
           2
           2
           2
           2
           2
           2
           2
           2
           2
           2
           2
           2
           2
           2
           2
           2
           2
           2
           2
           2
           2
           2
           2
           2
           2
           2
           2
           2
           2
           2
           2
           2
           2
           2
           2
           2
           2
           2
           2
           2
           2
           2
           2
           2
           2
           2
           2
           2
           2
           2
           2
           2
           2
           2
           2
           2
           2
           2
           2
           2
           2
           2
           2
           2
           2
           2
           2
           2
           2
           2
           2
           2
           2
           2
           2
           2
           2
           2
           2
           2
           2
           2
           2
           2
           2
           2
           2
           2
           2
           2
           2
           2
           2
           2
           2
           2
           2
           2
           2
           2
           2
           2
           2
           2
           2
           2
           2
           2
           2
           2
           2
           2
           2
           2
           2
           2
           2
           2
           2
           2
           2
           2
           2
           2
           2
           2
           2
           2
           2
           2
           2
           2
           2
           2
           2
           2
           2
           2
           2
           2
           2
           2
           2
           2
           2
           2
           2
           2
           2
           2
           2
           2
           2
           2
           2
           2
           2
           2
           2
           2
           2
           2
           2
           2
           2
           2
           2
           2
           2
           2
           2
           2
           2
           2
           2
           2
           2
           2
           2
           2
           2
           2
           2
           2
           2
           2
           2
           2
           2
           2
           2
           2
           2
           2
           2
           2
           2
           2
           2
           2
           2
           2
           2
           2
           2
           2
           2
           2
           2
           2
           2
           2
           2
           2
           2
           2
           2
           2
           2
           2
           2
           2
           2
           2
           2
           2
           2
           2
           2
           2
           2
           2
           2
           2
           2
           2
           2
           2
           2
           2
           2
           2
           2
           2
           2
           2
           2
           2
           2
           2
           2
           2
           2
           2
           2
           2
           2
           2
           2
           2
           2
           2
           2
           2
           2
           2
           2
           2
           2
           2
           2
           2
           2
           2
           2
           2
           2
           2
           2
           2
           2
           2
           2
           2
           2
           2
           2
           2
           2
           2
           2
           2
           2
           2
           2
           2
           2
           2
           2
           2
           2
           2
           2
           2
           2
           2
           2
           2
           2
           2
           2
           2
           2
           2
           2
           2
           2
           2
           2
           2
           2
           2
           2
           2
           2
           2
           2
           2
           2
           2
           2
           2
           2
           2
           2
           2
           2
           2
           2
           2
           2
           2
           2
           2
           2
           2
           2
           2
           2
           2
           2
           2
           2
           2
           2
           2
           2
           2
           2
           2
           2
           2
           2
           2
           2
           2
           2
           2
           2
           2
           2
           2
           2
           2
           2
           2
           2
           2
           2
           2
           2
           2
           2
           2
           2
           2
           2
           2
           2
           2
           2
           2
           2
           2
           2
           2
           2
           2
           2
           2
           2
           2
           2
           2
           2
           2
           2
           2
           2
           2
           2
           2
           2
           2
           2
           2
           2
           2
           2
           2
           2
           2
           2
           2
           2
           2
           2
           2
           2
           2
           2
           2
           2
           2
           2
           2
           2
           2
           2
           2
           2
           2
           2
           2
           2
           2
           2
           2
           2
           2
           2
           2
           2
           2
           2
           2
           2
           2
           2
           2
           2
           2
           2
           2
           2
           2
           2
           2
           2
           2
           2
           2
           2
           2
           2
           2
           2
           2
           2
           2
           2
           2
           2
           2
           2
           2
           2
           2
           2
           2
           2
           2
           2
           2
           2
           2
           2
           2
           2
           2
           2
           2
           2
           2
           2
           2
           2
           2
           2
           2
           2
           2
           2
           2
           2
           2
           2
           2
           2
           2
           2
           2
           2
           2
           2
           2
           2
           2
           2
           2
           2
           2
           2
           2
           2
           2
           2
           2
           2
           2
           2
           2
           2
           2
           2
           2
           2
           2
           2
           2
           2
           2
           2
           2
           2
           2
           2
           2
           2
           2
           2
           2
           2
           2
           2
           2
           2
           2
           2
           2
           2
           2
           2
           2
           2
           2
           2
           2
           2
           2
           2
           2
           2
           2
           2
           2
           2
           2
           2
           2
           2
           2
           2
           2
           2
           2
           2
           2
           2
           2
           2
           2
           2
           2
           2
           2
           2
           2
           2
           2
           2
           2
           2
           2
           2
           2
           2
           2
           2
           2
           2
           2
           2
           2
           2
           2
           2
           2
           2
           2
           2
           2
           2
           2
           2
           2
           2
           2
           2
           2
           2
           2
           2
           2
           2
           2
           2
           2
           2
           2
           2
           2
           2
           2
           2
           2
           2
           2
           2
           2
           2
           2
           2
           2
           2
           2
           2
           2
           2
           2
           2
           2
           2
           2
           2
           2
           2
           2
           2
           2
           2
           2
           2
           2
           2
           2
           2
           2
           2
           2
           2
           2
           2
           2
           2
           2
           2
           2
           2
           2
           2
           2
           2
           2
           2
           2
           2
           2
           2
           2
           2
           2
           2
           2
           2
           2
           2
           2
           2
           2
           2
           2
           2
           2
           2
           2
           2
           2
           2
           2
           2
           2
           2
           2
           2
           2
           2
           2
           2
           2
           2
           2
           2
           2
           2
           2
           2
           2
           2
           2
           2
           2
           2
           2
           2
           2
           2
           2
           2
           2
           2
           2
           2
           2
           2
           2
           2
           2
           2
           2
           2
           2
           2
           2
           2
           2
           2
           2
           2
           2
           2
           2
           2
           2
           2
           2
           2
           2
           2
           2
           2
           2
           2
           2
           2
           2
           2
           2
           2
           2
           2
           2
           2
           2
           2
           2
           2
           2
           2
           2
           2
           2
           2
           2
           2
           2
           2
           2
           2
           2
           2
           2
           2
           2
           2
           2
           2
           2
           2
           2
           2
           2
           2
           2
           2
           2
           2
           2
           2
           2
           2
           2
           2
           2
           2
           2
           2
           2
           2
           2
           2
           2
           2
           2
           2
           2
           2
           2
           2
           2
           2
           2
           2
           2
           2
           2
           2
           2
           2
           2
           2
           2
           2
           2
           2
           2
           2
           2
           2
           2
           2
           2
           2
           2
           2
           2
           2
           2
           2
           2
           2
           2
           2
           2
           2
           2
           2
           2
           2
           2
           2
           2
           2
           2
           2
           2
           2
           2
           2
           2
           2
           2
           2
           2
           2
           2
           2
           2
           2
           2
           2
           2
           2
           2
           2
           2
           2
           2
           2
           2
           2
           2
           2
           2
           2
           2
           2
           2
           2
           2
           2
           2
           2
           2
           2
           2
           2
           2
           2
           2
           2
           2
           2
           2
           2
           2
           2
           2
           2
           2
           2
           2
           2
           2
           2
           2
           2
           2
           2
           2
           2
           2
           2
           2
           2
           2
           2
           2
           2
           2
           2
           2
           2
           2
           2
           2
           2
           2
           2
           2
           2
           2
           2
           2
           2
           2
           2
           2
           2
           2
           2
           2
           2
           2
           2
           2
           2
           2
           2
           2
           2
           2
           2
           2
           2
           2
           2
           2
           2
           2
           2
           2
           2
           2
           2
           2
           2
           2
           2
           2
           2
           2
           2
           2
           2
           2
           2
           2
           2
           2
           2
           2
           2
           2
           2
           2
           2
           2
           2
           2
           2
           2
           2
           2
           2
           2
           2
           2
           2
           2
           2
           2
           2
           2
           2
           2
           2
           2
           2
           2
           2
           2
           2
           2
           2
           2
           2
           2
           2
           2
           2
           2
           2
           2
           2
           2
           2
           2
           2
           2
           2
           2
           2
           2
           2
           2
           2
           2
           2
           2
           2
           2
           2
           2
           2
           2
           2
           2
           2
           2
           2
           2
           2
           2
           2
           2
           2
           2
           2
           2
           2
           2
           2
           2
           2
           2
           2
           2
           2
           2
           2
           2
           2
           2
           2
           2
           2
           2
           2
           2
           2
           2
           2
           2
           2
           2
           2
           2
           2
           2
           2
           2
           2
           2
           2
           2
           2
           2
           2
           2
           2
           2
           2
           2
           2
           2
           2
           2
           2
           2
           2
           2
           2
           2
           2
           2
           2
           2
           2
           2
           2
           2
           2
           2
           2
           2
           2
           2
           2
           2
           2
           2
           2
           2
           2
           2
           2
           2
           2
           2
           2
           2
           2
           2
           2
           2
           2
           2
           2
           2
           2
           2
           2
           2
           2
           2
           2
           2
           2
           2
           2
           2
           2
           2
           2
           2
           2
           2
           2
           2
           2
           2
           2
           2
           2
           2
           2
           2
           2
           2
           2
           2
           2
           2
           2
           2
           2
           2
           2
           2
           2
           2
           2
           2
           2
           2
           2
           2
           2
           2
           2
           2
           2
           2
           2
           2
           2
           2
           2
           2
           2
           2
           2
           2
           2
           2
           2
           2
           2
           2
           2
           2
           2
           2
           2
           2
           2
           2
           2
           2
           2
           2
           2
           2
           2
           2
           2
           2
           2
           2
           2
           2
           2
           2
           2
           2
           2
           2
           2
           2
           2
           2
           2
           2
           2
           2
           2
           2
           2
           2
           2
           2
           2
           2
           2
           2
           2
           2
           2
           2
           2
           2
           2
           2
           2
           2
           2
           2
           2
           2
           2
           2
           2
           2
           2
           2
           2
           2
           2
           2
           2
           2
           2
           2
           2
           2
           2
           2
           2
           2
           2
           2
           2
           2
           2
           2
           2
           2
           2
           2
           2
           2
           2
           2
           2
           2
           2
           2
           2
           2
           2
           2
           2
           2
           2
           2
           2
           2
           2
           2
           2
           2
           2
           2
           2
           2
           2
           2
           2
           2
           2
           2
           2
           2
           2
           2
           2
           2
           2
           2
           2
           2
           2
           2
           2
           2
           2
           2
           2
           2
           2
           2
           2
           2
           2
           2
           2
           2
           2
           2
           2
           2
           2
           2
           2
           2
           2
           2
           2
           2
           2
           2
           2
           2
           2
           2
           2
           2
           2
           2
           2
           2
           2
           2
           2
           2
           2
           2
           2
           2
           2
           2
           2
           2
           2
           2
           2
           2
           2
           2
           2
           2
           2
           2
           2
           2
           2
           2
           2
           2
           2
           2
           2
           2
           2
           2
           2
           2
           2
           2
           2
           2
           2
           2
           2
           2
           2
           2
           2
           2
           2
           2
           2
           2
           2
           2
           2
           2
           2
           2
           2
           2
           2
           2
           2
           2
           2
           2
           2
           2
           2
           2
           2
           2
           2
           2
           2
           2
           2
           2
           2
           2
           2
           2
           2
           2
           2
           2
           2
           2
           2
           2
           2
           2
           2
           2
           2
           2
           2
           2
           2
           2
           2
           2
           2
           2
           2
           2
           2
           2
           2
           2
           2
           2
           2
           2
           2
           2
           2
           2
           2
           2
           2
           2
           2
           2
           2
           2
           2
           2
           2
           2
           2
           2
           2
           2
           2
           2
           2
           2
           2
           2
           2
           2
           2
           2
           2
           2
           2
           2
           2
           2
           2
           2
           2
           2
           2
           2
           2
           2
           2
           2
           2
           2
           2
           2
           2
           2
           2
           2
           2
           2
           2
           2
           2
           2
           2
           2
           2
           2
           2
           2
           2
           2
           2
           2
           2
           2
           2
           2
           2
           2
           2
           2
           2
           2
           2
           2
           2
           2
           2
           2
           2
           2
           2
           2
           2
           2
           2
           2
           2
           2
           2
           2
           2
           2
           2
           2
           2
           2
           2
           2
           2
           2
           2
           2
           2
           2
           2
           2
           2
           2
           2
           2
           2
           2
           2
           2
           2
           2
           2
           2
           2
           2
           2
           2
           2
           2
           2
           2
           2
           2
           2
           2
           2
           2
           2
           2
           2
           2
           2
           2
           2
           2
           2
           2
           2
           2
           2
           2
           2
           2
           2
           2
           2
           2
           2
           2
           2
           2
           2
           2
           2
           2
           2
           2
           2
           2
           2
           2
           2
           2
           2
           2
           2
           2
           2
           2
           2
           2
           2
           2
           2
           2
           2
           2
           2
           2
           2
           2
           2
           2
           2
           2
           2
           2
           2
           2
           2
           2
           2
           2
           2
           2
           2
           2
           2
           2
           2
           2
           2
           2
           2
           2
           2
           2
           2
           2
           2
           2
           2
           2
           2
           2
           2
           2
           2
           2
           2
           2
           2
           2
           2
           2
           2
           2
           2
           2
           2
           2
           2
           2
           2
           2
           2
           2
           2
           2
           2
           2
           2
           2
           2
           2
           2
           2
           2
           2
           2
           2
           2
           2
           2
           2
           2
           2
           2
           2
           2
           2
           2
           2
           2
           2
           2
           2
           2
           2
           2
           2
           2
           2
           2
           2
           2
           2
           2
           2
           2
           2
           2
           2
           2
           2
           2
           2
           2
           2
           2
           2
           2
           2
           2
           2
           2
           2
           2
           2
           2
           2
           2
           2
           2
           2
           2
           2
           2
           2
           2
           2
           2
           2
           2
           2
           2
           2
           2
           2
           2
           2
           2
           2
           2
           2
           2
           2
           2
           2
           2
           2
           2
           2
           2
</DataArray>
</CellData>
</Piece>
</UnstructuredGrid>
</VTKFile>
