<VTKFile type="UnstructuredGrid" version="1,0" byte_order="LittleEndian">
<UnstructuredGrid>
<Piece NumberOfPoints="1502" NumberOfCells="1440">
<Points>
<DataArray type="Float64" NumberOfComponents="3" format="ascii">
-0.1100000000000E+01 -0.4304044648606E+01  0.0000000000000E+00
 0.0000000000000E+00 -0.4304044648606E+01  0.0000000000000E+00
 0.1100000000000E+01 -0.4304044648606E+01  0.0000000000000E+00
-0.1426338184892E+01 -0.1495137730994E+01  0.0000000000000E+00
-0.7131690856113E+00 -0.1351817918288E+01  0.0000000000000E+00
 0.7131690992823E+00 -0.1351817920119E+01  0.0000000000000E+00
 0.1426338184892E+01 -0.1495137730994E+01  0.0000000000000E+00
-0.1297471036855E+01  0.8924645033579E+00  0.0000000000000E+00
 0.1297471037589E+01  0.8924645030013E+00  0.0000000000000E+00
-0.7500000000000E+00  0.3449934570704E+00  0.0000000000000E+00
 0.7500000000000E+00  0.3449934570704E+00  0.0000000000000E+00
-0.1045000000000E+01 -0.4304044648606E+01  0.0000000000000E+00
-0.9900000000000E+00 -0.4304044648606E+01  0.0000000000000E+00
-0.9350000000000E+00 -0.4304044648606E+01  0.0000000000000E+00
-0.8800000000000E+00 -0.4304044648606E+01  0.0000000000000E+00
-0.8250000000000E+00 -0.4304044648606E+01  0.0000000000000E+00
-0.7700000000000E+00 -0.4304044648606E+01  0.0000000000000E+00
-0.7150000000000E+00 -0.4304044648606E+01  0.0000000000000E+00
-0.6600000000000E+00 -0.4304044648606E+01  0.0000000000000E+00
-0.6050000000000E+00 -0.4304044648606E+01  0.0000000000000E+00
-0.5500000000000E+00 -0.4304044648606E+01  0.0000000000000E+00
-0.4950000000000E+00 -0.4304044648606E+01  0.0000000000000E+00
-0.4400000000000E+00 -0.4304044648606E+01  0.0000000000000E+00
-0.3850000000000E+00 -0.4304044648606E+01  0.0000000000000E+00
-0.3300000000000E+00 -0.4304044648606E+01  0.0000000000000E+00
-0.2750000000000E+00 -0.4304044648606E+01  0.0000000000000E+00
-0.2200000000000E+00 -0.4304044648606E+01  0.0000000000000E+00
-0.1650000000000E+00 -0.4304044648606E+01  0.0000000000000E+00
-0.1100000000000E+00 -0.4304044648606E+01  0.0000000000000E+00
-0.5500000000000E-01 -0.4304044648606E+01  0.0000000000000E+00
 0.5500000000000E-01 -0.4304044648606E+01  0.0000000000000E+00
 0.1100000000000E+00 -0.4304044648606E+01  0.0000000000000E+00
 0.1650000000000E+00 -0.4304044648606E+01  0.0000000000000E+00
 0.2200000000000E+00 -0.4304044648606E+01  0.0000000000000E+00
 0.2750000000000E+00 -0.4304044648606E+01  0.0000000000000E+00
 0.3300000000000E+00 -0.4304044648606E+01  0.0000000000000E+00
 0.3850000000000E+00 -0.4304044648606E+01  0.0000000000000E+00
 0.4400000000000E+00 -0.4304044648606E+01  0.0000000000000E+00
 0.4950000000000E+00 -0.4304044648606E+01  0.0000000000000E+00
 0.5500000000000E+00 -0.4304044648606E+01  0.0000000000000E+00
 0.6050000000000E+00 -0.4304044648606E+01  0.0000000000000E+00
 0.6600000000000E+00 -0.4304044648606E+01  0.0000000000000E+00
 0.7150000000000E+00 -0.4304044648606E+01  0.0000000000000E+00
 0.7700000000000E+00 -0.4304044648606E+01  0.0000000000000E+00
 0.8250000000000E+00 -0.4304044648606E+01  0.0000000000000E+00
 0.8800000000000E+00 -0.4304044648606E+01  0.0000000000000E+00
 0.9350000000000E+00 -0.4304044648606E+01  0.0000000000000E+00
 0.9900000000000E+00 -0.4304044648606E+01  0.0000000000000E+00
 0.1045000000000E+01 -0.4304044648606E+01  0.0000000000000E+00
-0.1355910848380E+01 -0.1476732672072E+01  0.0000000000000E+00
-0.1285259981017E+01 -0.1459205415754E+01  0.0000000000000E+00
-0.1214394584761E+01 -0.1442566916018E+01  0.0000000000000E+00
-0.1143323993112E+01 -0.1426827745365E+01  0.0000000000000E+00
-0.1072058114862E+01 -0.1411998118171E+01  0.0000000000000E+00
-0.1000607103274E+01 -0.1398087786375E+01  0.0000000000000E+00
-0.9289815514207E+00 -0.1385106053576E+01  0.0000000000000E+00
-0.8571924453329E+00 -0.1373061734396E+01  0.0000000000000E+00
-0.7852510794390E+00 -0.1361963112090E+01  0.0000000000000E+00
-0.6422126030433E+00 -0.1342784468384E+01  0.0000000000000E+00
-0.5711435255488E+00 -0.1334684768748E+01  0.0000000000000E+00
-0.4999736369017E+00 -0.1327524435880E+01  0.0000000000000E+00
-0.4287150862649E+00 -0.1321308491716E+01  0.0000000000000E+00
-0.3573801183139E+00 -0.1316041318931E+01  0.0000000000000E+00
-0.2859812157621E+00 -0.1311726660302E+01  0.0000000000000E+00
-0.2145309892672E+00 -0.1308367596678E+01  0.0000000000000E+00
-0.1430421463503E+00 -0.1305966536203E+01  0.0000000000000E+00
-0.7152752388590E-01 -0.1304525207180E+01  0.0000000000000E+00
 0.6896563986558E-08 -0.1304044648606E+01  0.0000000000000E+00
 0.7152753767778E-01 -0.1304525207365E+01  0.0000000000000E+00
 0.1430421601384E+00 -0.1305966536574E+01  0.0000000000000E+00
 0.2145310030492E+00 -0.1308367597233E+01  0.0000000000000E+00
 0.2859812295354E+00 -0.1311726661042E+01  0.0000000000000E+00
 0.3573801320760E+00 -0.1316041319855E+01  0.0000000000000E+00
 0.4287151000135E+00 -0.1321308492824E+01  0.0000000000000E+00
 0.4999736506343E+00 -0.1327524437170E+01  0.0000000000000E+00
 0.5711435392633E+00 -0.1334684770220E+01  0.0000000000000E+00
 0.6422126167371E+00 -0.1342784470036E+01  0.0000000000000E+00
 0.7852510917199E+00 -0.1361963113902E+01  0.0000000000000E+00
 0.8571924562271E+00 -0.1373061736151E+01  0.0000000000000E+00
 0.9289815609321E+00 -0.1385106055236E+01  0.0000000000000E+00
 0.1000607111408E+01 -0.1398087787904E+01  0.0000000000000E+00
 0.1072058121623E+01 -0.1411998119533E+01  0.0000000000000E+00
 0.1143323998507E+01 -0.1426827746523E+01  0.0000000000000E+00
 0.1214394588795E+01 -0.1442566916938E+01  0.0000000000000E+00
 0.1285259983698E+01 -0.1459205416402E+01  0.0000000000000E+00
 0.1355910849717E+01 -0.1476732672412E+01  0.0000000000000E+00
-0.1579712636672E+01 -0.1257117726587E+01  0.0000000000000E+00
-0.1733164540211E+01 -0.1019175933670E+01  0.0000000000000E+00
-0.1854662117542E+01 -0.7635066404071E+00  0.0000000000000E+00
-0.1941975481337E+01 -0.4942606593644E+00  0.0000000000000E+00
-0.1991516502432E+01 -0.2156092846034E+00  0.0000000000000E+00
-0.1998781287050E+01  0.6736447573279E-01  0.0000000000000E+00
-0.1925316867218E+01  0.3385059547416E+00  0.0000000000000E+00
-0.1756248887890E+01  0.5644442091257E+00  0.0000000000000E+00
-0.1540277150090E+01  0.7471961778048E+00  0.0000000000000E+00
-0.1173981215584E+01  0.9468055532948E+00  0.0000000000000E+00
-0.1048246390832E+01  0.9957805369659E+00  0.0000000000000E+00
-0.9216449825030E+00  0.1042480347406E+01  0.0000000000000E+00
-0.7946812217419E+00  0.1088183183765E+01  0.0000000000000E+00
-0.6661180574429E+00  0.1129122063103E+01  0.0000000000000E+00
-0.5354041844713E+00  0.1162549250252E+01  0.0000000000000E+00
-0.4029695874389E+00  0.1188340213072E+01  0.0000000000000E+00
-0.2693161135181E+00  0.1206817739605E+01  0.0000000000000E+00
-0.1348660417516E+00  0.1218121850014E+01  0.0000000000000E+00
 0.4058846663134E-09  0.1222022719718E+01  0.0000000000000E+00
 0.1348660425620E+00  0.1218121849962E+01  0.0000000000000E+00
 0.2693161143243E+00  0.1206817739504E+01  0.0000000000000E+00
 0.4029695882387E+00  0.1188340212925E+01  0.0000000000000E+00
 0.5354041852619E+00  0.1162549250060E+01  0.0000000000000E+00
 0.6661180582227E+00  0.1129122062868E+01  0.0000000000000E+00
 0.7946812225112E+00  0.1088183183495E+01  0.0000000000000E+00
 0.9216449832687E+00  0.1042480347127E+01  0.0000000000000E+00
 0.1048246391595E+01  0.9957805366789E+00  0.0000000000000E+00
 0.1173981216337E+01  0.9468055529829E+00  0.0000000000000E+00
 0.1540277150686E+01  0.7471961773831E+00  0.0000000000000E+00
 0.1756248888337E+01  0.5644442086587E+00  0.0000000000000E+00
 0.1925316867476E+01  0.3385059542402E+00  0.0000000000000E+00
 0.1998781287072E+01  0.6736447525390E-01  0.0000000000000E+00
 0.1991516502379E+01 -0.2156092849952E+00  0.0000000000000E+00
 0.1941975481197E+01 -0.4942606596555E+00  0.0000000000000E+00
 0.1854662117367E+01 -0.7635066405985E+00  0.0000000000000E+00
 0.1733164540072E+01 -0.1019175933786E+01  0.0000000000000E+00
 0.1579712636620E+01 -0.1257117726658E+01  0.0000000000000E+00
-0.1100000000000E+01 -0.4167858878309E+01  0.0000000000000E+00
-0.1100000000000E+01 -0.4031673085110E+01  0.0000000000000E+00
-0.1100000000000E+01 -0.3895487265942E+01  0.0000000000000E+00
-0.1100000000000E+01 -0.3759301447614E+01  0.0000000000000E+00
-0.1100000000000E+01 -0.3623115632099E+01  0.0000000000000E+00
-0.1100000000000E+01 -0.3486929673705E+01  0.0000000000000E+00
-0.1100000000000E+01 -0.3350743588902E+01  0.0000000000000E+00
-0.1100000000000E+01 -0.3214558196319E+01  0.0000000000000E+00
-0.1100000000000E+01 -0.3078372499853E+01  0.0000000000000E+00
-0.1100009219814E+01 -0.2942186831538E+01  0.0000000000000E+00
-0.1101425067002E+01 -0.2806011978909E+01  0.0000000000000E+00
-0.1107601577287E+01 -0.2669976600093E+01  0.0000000000000E+00
-0.1119747344921E+01 -0.2534345262128E+01  0.0000000000000E+00
-0.1137772499496E+01 -0.2399367495624E+01  0.0000000000000E+00
-0.1161564969771E+01 -0.2265287019052E+01  0.0000000000000E+00
-0.1191325563594E+01 -0.2132404467843E+01  0.0000000000000E+00
-0.1226713953463E+01 -0.2000906688008E+01  0.0000000000000E+00
-0.1267386994665E+01 -0.1870945985496E+01  0.0000000000000E+00
-0.1313508982080E+01 -0.1742820021577E+01  0.0000000000000E+00
-0.1365854654983E+01 -0.1617114507943E+01  0.0000000000000E+00
 0.1365854655064E+01 -0.1617114507984E+01  0.0000000000000E+00
 0.1313508982144E+01 -0.1742820021612E+01  0.0000000000000E+00
 0.1267386994709E+01 -0.1870945985522E+01  0.0000000000000E+00
 0.1226713953493E+01 -0.2000906688028E+01  0.0000000000000E+00
 0.1191325563615E+01 -0.2132404467860E+01  0.0000000000000E+00
 0.1161564969779E+01 -0.2265287019065E+01  0.0000000000000E+00
 0.1137772499496E+01 -0.2399367495636E+01  0.0000000000000E+00
 0.1119747344920E+01 -0.2534345262137E+01  0.0000000000000E+00
 0.1107601577287E+01 -0.2669976600103E+01  0.0000000000000E+00
 0.1101425067003E+01 -0.2806011978917E+01  0.0000000000000E+00
 0.1100009219814E+01 -0.2942186831546E+01  0.0000000000000E+00
 0.1100000000000E+01 -0.3078372499860E+01  0.0000000000000E+00
 0.1100000000000E+01 -0.3214558196326E+01  0.0000000000000E+00
 0.1100000000000E+01 -0.3350743588907E+01  0.0000000000000E+00
 0.1100000000000E+01 -0.3486929673709E+01  0.0000000000000E+00
 0.1100000000000E+01 -0.3623115632103E+01  0.0000000000000E+00
 0.1100000000000E+01 -0.3759301447617E+01  0.0000000000000E+00
 0.1100000000000E+01 -0.3895487265945E+01  0.0000000000000E+00
 0.1100000000000E+01 -0.4031673085112E+01  0.0000000000000E+00
 0.1100000000000E+01 -0.4167858878310E+01  0.0000000000000E+00
-0.6764636662017E+00  0.3637314849837E+00  0.0000000000000E+00
-0.6024837198702E+00  0.3806330875003E+00  0.0000000000000E+00
-0.5280996171512E+00  0.3956556459469E+00  0.0000000000000E+00
-0.4533537451325E+00  0.4087600740826E+00  0.0000000000000E+00
-0.3782916751723E+00  0.4199112310808E+00  0.0000000000000E+00
-0.3029616164712E+00  0.4290784607705E+00  0.0000000000000E+00
-0.2274141490083E+00  0.4362360171118E+00  0.0000000000000E+00
-0.1517018295911E+00  0.4413634482121E+00  0.0000000000000E+00
-0.7587874076696E-01  0.4444459110349E+00  0.0000000000000E+00
-0.3330669073875E-15  0.4454744042321E+00  0.0000000000000E+00
 0.7587874076696E-01  0.4444459110349E+00  0.0000000000000E+00
 0.1517018295911E+00  0.4413634482121E+00  0.0000000000000E+00
 0.2274141490083E+00  0.4362360171118E+00  0.0000000000000E+00
 0.3029616164712E+00  0.4290784607705E+00  0.0000000000000E+00
 0.3782916751723E+00  0.4199112310808E+00  0.0000000000000E+00
 0.4533537451325E+00  0.4087600740826E+00  0.0000000000000E+00
 0.5280996171512E+00  0.3956556459469E+00  0.0000000000000E+00
 0.6024837198702E+00  0.3806330875003E+00  0.0000000000000E+00
 0.6764636662017E+00  0.3637314849837E+00  0.0000000000000E+00
-0.7494610908407E+00  0.1752564208624E+00  0.0000000000000E+00
-0.7476230150202E+00  0.5528898378488E-02  0.0000000000000E+00
-0.7441028539882E+00 -0.1641717347835E+00  0.0000000000000E+00
-0.7386208425271E+00 -0.3338203224162E+00  0.0000000000000E+00
-0.7315845453817E+00 -0.5034122306519E+00  0.0000000000000E+00
-0.7245482478836E+00 -0.6730041388732E+00  0.0000000000000E+00
-0.7190662355151E+00 -0.8426527264768E+00  0.0000000000000E+00
-0.7155460732803E+00 -0.1012353359614E+01  0.0000000000000E+00
-0.7137079961342E+00 -0.1182080882084E+01  0.0000000000000E+00
 0.7494610908447E+00  0.1752564207090E+00  0.0000000000000E+00
 0.7476230150664E+00  0.5528898070996E-02  0.0000000000000E+00
 0.7441028541992E+00 -0.1641717352482E+00  0.0000000000000E+00
 0.7386208431973E+00 -0.3338203230495E+00  0.0000000000000E+00
 0.7315845470645E+00 -0.5034122314810E+00  0.0000000000000E+00
 0.7245482512846E+00 -0.6730041399270E+00  0.0000000000000E+00
 0.7190662411903E+00 -0.8426527277573E+00  0.0000000000000E+00
 0.7155460815261E+00 -0.1012353361101E+01  0.0000000000000E+00
 0.7137080070737E+00 -0.1182080883753E+01  0.0000000000000E+00
-0.8047471036855E+00  0.3997405616991E+00  0.0000000000000E+00
-0.8594942073710E+00  0.4544876663279E+00  0.0000000000000E+00
-0.9142413110566E+00  0.5092347709566E+00  0.0000000000000E+00
-0.9689884147421E+00  0.5639818755854E+00  0.0000000000000E+00
-0.1023735518428E+01  0.6187289802141E+00  0.0000000000000E+00
-0.1078482622113E+01  0.6734760848429E+00  0.0000000000000E+00
-0.1133229725799E+01  0.7282231894716E+00  0.0000000000000E+00
-0.1187976829484E+01  0.7829702941004E+00  0.0000000000000E+00
-0.1242723933170E+01  0.8377173987291E+00  0.0000000000000E+00
 0.8047471037588E+00  0.3997405616635E+00  0.0000000000000E+00
 0.8594942075177E+00  0.4544876662566E+00  0.0000000000000E+00
 0.9142413112766E+00  0.5092347708497E+00  0.0000000000000E+00
 0.9689884150354E+00  0.5639818754428E+00  0.0000000000000E+00
 0.1023735518794E+01  0.6187289800359E+00  0.0000000000000E+00
 0.1078482622553E+01  0.6734760846289E+00  0.0000000000000E+00
 0.1133229726312E+01  0.7282231892220E+00  0.0000000000000E+00
 0.1187976830071E+01  0.7829702938151E+00  0.0000000000000E+00
 0.1242723933830E+01  0.8377173984082E+00  0.0000000000000E+00
-0.1045046222997E+01 -0.4166982403859E+01  0.0000000000000E+00
-0.1045092446001E+01 -0.4029920136063E+01  0.0000000000000E+00
-0.1045138669014E+01 -0.3892857842130E+01  0.0000000000000E+00
-0.1045184892027E+01 -0.3755795549043E+01  0.0000000000000E+00
-0.1045231115039E+01 -0.3618733258786E+01  0.0000000000000E+00
-0.1045277338100E+01 -0.3481670824732E+01  0.0000000000000E+00
-0.1045323561203E+01 -0.3344608263454E+01  0.0000000000000E+00
-0.1045369784072E+01 -0.3207546398853E+01  0.0000000000000E+00
-0.1045416007044E+01 -0.3070484228411E+01  0.0000000000000E+00
-0.1045470986539E+01 -0.2933422086301E+01  0.0000000000000E+00
-0.1046861911460E+01 -0.2796370782116E+01  0.0000000000000E+00
-0.1052774281503E+01 -0.2659458994789E+01  0.0000000000000E+00
-0.1064355962771E+01 -0.2522951257624E+01  0.0000000000000E+00
-0.1081521601846E+01 -0.2387097079535E+01  0.0000000000000E+00
-0.1104164757923E+01 -0.2252140197233E+01  0.0000000000000E+00
-0.1132476148650E+01 -0.2118381244796E+01  0.0000000000000E+00
-0.1166132548346E+01 -0.1986007050998E+01  0.0000000000000E+00
-0.1204808054195E+01 -0.1855169932722E+01  0.0000000000000E+00
-0.1248658704703E+01 -0.1726167566747E+01  0.0000000000000E+00
-0.1298420308522E+01 -0.1599585687799E+01  0.0000000000000E+00
-0.9900818008859E+00 -0.4166147731587E+01  0.0000000000000E+00
-0.9901636017856E+00 -0.4028250791379E+01  0.0000000000000E+00
-0.9902454027008E+00 -0.3890353824875E+01  0.0000000000000E+00
-0.9903272036156E+00 -0.3752456859222E+01  0.0000000000000E+00
-0.9904090045286E+00 -0.3614559896416E+01  0.0000000000000E+00
-0.9904908055275E+00 -0.3476662788937E+01  0.0000000000000E+00
-0.9905726066023E+00 -0.3338765553460E+01  0.0000000000000E+00
-0.9906544072614E+00 -0.3200869018902E+01  0.0000000000000E+00
-0.9907362081029E+00 -0.3062972176641E+01  0.0000000000000E+00
-0.9908263021799E+00 -0.2925075362882E+01  0.0000000000000E+00
-0.9921816600285E+00 -0.2787189408229E+01  0.0000000000000E+00
-0.9978192456255E+00 -0.2649443011423E+01  0.0000000000000E+00
-0.1008826196536E+01 -0.2512100673648E+01  0.0000000000000E+00
-0.1025121676066E+01 -0.2375411883154E+01  0.0000000000000E+00
-0.1046604874068E+01 -0.2239620394023E+01  0.0000000000000E+00
-0.1073456417974E+01 -0.2105026839044E+01  0.0000000000000E+00
-0.1105370183713E+01 -0.1971818030576E+01  0.0000000000000E+00
-0.1142037510489E+01 -0.1840146295916E+01  0.0000000000000E+00
-0.1183606180628E+01 -0.1710309326612E+01  0.0000000000000E+00
-0.1230773072450E+01 -0.1582892879321E+01  0.0000000000000E+00
-0.9351071623717E+00 -0.4165355383137E+01  0.0000000000000E+00
-0.9352143247615E+00 -0.4026666094346E+01  0.0000000000000E+00
-0.9353214871716E+00 -0.3887976779108E+01  0.0000000000000E+00
-0.9354286495812E+00 -0.3749287464725E+01  0.0000000000000E+00
-0.9355358119885E+00 -0.3610598153207E+01  0.0000000000000E+00
-0.9356429745082E+00 -0.3471908696183E+01  0.0000000000000E+00
-0.9357501371274E+00 -0.3333219110427E+01  0.0000000000000E+00
-0.9358572992019E+00 -0.3194530229616E+01  0.0000000000000E+00
-0.9359644615155E+00 -0.3055841039335E+01  0.0000000000000E+00
-0.9360794537788E+00 -0.2917151877718E+01  0.0000000000000E+00
-0.9373890284398E+00 -0.2778473595312E+01  0.0000000000000E+00
-0.9427416140514E+00 -0.2639934909666E+01  0.0000000000000E+00
-0.9531636192662E+00 -0.2501800291468E+01  0.0000000000000E+00
-0.9685787238578E+00 -0.2364319209355E+01  0.0000000000000E+00
-0.9888917485491E+00 -0.2227735433899E+01  0.0000000000000E+00
-0.1014273230545E+01 -0.2092349596663E+01  0.0000000000000E+00
-0.1044434147173E+01 -0.1958348494428E+01  0.0000000000000E+00
-0.1079083079785E+01 -0.1825884464371E+01  0.0000000000000E+00
-0.1118359554707E+01 -0.1695255212063E+01  0.0000000000000E+00
-0.1162921520209E+01 -0.1567046514983E+01  0.0000000000000E+00
-0.8801227524380E+00 -0.4164605861986E+01  0.0000000000000E+00
-0.8802455048967E+00 -0.4025167051918E+01  0.0000000000000E+00
-0.8803682573788E+00 -0.3885728215260E+01  0.0000000000000E+00
-0.8804910098601E+00 -0.3746289379463E+01  0.0000000000000E+00
-0.8806137623389E+00 -0.3606850546545E+01  0.0000000000000E+00
-0.8807365149465E+00 -0.3467411567335E+01  0.0000000000000E+00
-0.8808592676680E+00 -0.3327972458697E+01  0.0000000000000E+00
-0.8809820197656E+00 -0.3188534058815E+01  0.0000000000000E+00
-0.8811047721371E+00 -0.3049095347789E+01  0.0000000000000E+00
-0.8812348911742E+00 -0.2909656665581E+01  0.0000000000000E+00
-0.8824889114589E+00 -0.2770228881603E+01  0.0000000000000E+00
-0.8875467262934E+00 -0.2630940731194E+01  0.0000000000000E+00
-0.8973740150205E+00 -0.2492056656196E+01  0.0000000000000E+00
-0.9118989736425E+00 -0.2353826106691E+01  0.0000000000000E+00
-0.9310320539568E+00 -0.2216492868851E+01  0.0000000000000E+00
-0.9549337029221E+00 -0.2080357573080E+01  0.0000000000000E+00
-0.9833319990803E+00 -0.1945607001420E+01  0.0000000000000E+00
-0.1015952766056E+01 -0.1812393500398E+01  0.0000000000000E+00
-0.1052927274348E+01 -0.1681014788849E+01  0.0000000000000E+00
-0.1094874542418E+01 -0.1552056663945E+01  0.0000000000000E+00
-0.8251290423813E+00 -0.4163899654558E+01  0.0000000000000E+00
-0.8252580847842E+00 -0.4023754636942E+01  0.0000000000000E+00
-0.8253871272118E+00 -0.3883609592602E+01  0.0000000000000E+00
-0.8255161696385E+00 -0.3743464549126E+01  0.0000000000000E+00
-0.8256452120626E+00 -0.3603319508545E+01  0.0000000000000E+00
-0.8257742546221E+00 -0.3463174320931E+01  0.0000000000000E+00
-0.8259032973014E+00 -0.3323029003233E+01  0.0000000000000E+00
-0.8260323393247E+00 -0.3182884397881E+01  0.0000000000000E+00
-0.8261613816360E+00 -0.3042739479809E+01  0.0000000000000E+00
-0.8262973273311E+00 -0.2902594590699E+01  0.0000000000000E+00
-0.8274864933868E+00 -0.2762460617739E+01  0.0000000000000E+00
-0.8322402381418E+00 -0.2622466313031E+01  0.0000000000000E+00
-0.8414635112943E+00 -0.2482876091236E+01  0.0000000000000E+00
-0.8550890248433E+00 -0.2343939384954E+01  0.0000000000000E+00
-0.8730328618520E+00 -0.2205899995056E+01  0.0000000000000E+00
-0.8954453790228E+00 -0.2069058550854E+01  0.0000000000000E+00
-0.9220717559223E+00 -0.1933601820502E+01  0.0000000000000E+00
-0.9526550585576E+00 -0.1799682159337E+01  0.0000000000000E+00
-0.9873183017666E+00 -0.1667597298689E+01  0.0000000000000E+00
-0.1026641574463E+01 -0.1537933054292E+01  0.0000000000000E+00
-0.7701265160660E+00 -0.4163237225252E+01  0.0000000000000E+00
-0.7702530321532E+00 -0.4022429778218E+01  0.0000000000000E+00
-0.7703795482645E+00 -0.3881622304334E+01  0.0000000000000E+00
-0.7705060643751E+00 -0.3740814831319E+01  0.0000000000000E+00
-0.7706325804831E+00 -0.3600007361211E+01  0.0000000000000E+00
-0.7707590967238E+00 -0.3459199743377E+01  0.0000000000000E+00
-0.7708856130819E+00 -0.3318391994843E+01  0.0000000000000E+00
-0.7710121287970E+00 -0.3177584962021E+01  0.0000000000000E+00
-0.7711386447943E+00 -0.3036777615003E+01  0.0000000000000E+00
-0.7712716008954E+00 -0.2895970297081E+01  0.0000000000000E+00
-0.7723870966897E+00 -0.2755173912119E+01  0.0000000000000E+00
-0.7768279557508E+00 -0.2614517227940E+01  0.0000000000000E+00
-0.7854383977895E+00 -0.2474264633712E+01  0.0000000000000E+00
-0.7981556505838E+00 -0.2334665545637E+01  0.0000000000000E+00
-0.8149014286464E+00 -0.2195963778370E+01  0.0000000000000E+00
-0.8358159984089E+00 -0.2058459960202E+01  0.0000000000000E+00
-0.8606616402904E+00 -0.1922340846260E+01  0.0000000000000E+00
-0.8891986627916E+00 -0.1787758800143E+01  0.0000000000000E+00
-0.9215418252451E+00 -0.1655011564905E+01  0.0000000000000E+00
-0.9582322872467E+00 -0.1524684973684E+01  0.0000000000000E+00
-0.7151156779294E+00 -0.4162619017118E+01  0.0000000000000E+00
-0.7152313558782E+00 -0.4021193361848E+01  0.0000000000000E+00
-0.7153470338491E+00 -0.3879767679609E+01  0.0000000000000E+00
-0.7154627118192E+00 -0.3738341998242E+01  0.0000000000000E+00
-0.7155783897870E+00 -0.3596916319797E+01  0.0000000000000E+00
-0.7156940678761E+00 -0.3455490492975E+01  0.0000000000000E+00
-0.7158097460726E+00 -0.3314064534880E+01  0.0000000000000E+00
-0.7159254236812E+00 -0.3172639295640E+01  0.0000000000000E+00
-0.7160411015478E+00 -0.3031213740824E+01  0.0000000000000E+00
-0.7161627562398E+00 -0.2889788215231E+01  0.0000000000000E+00
-0.7171962701658E+00 -0.2748373638284E+01  0.0000000000000E+00
-0.7213159323257E+00 -0.2607098792480E+01  0.0000000000000E+00
-0.7293052321208E+00 -0.2466228043196E+01  0.0000000000000E+00
-0.7411059129022E+00 -0.2326010791328E+01  0.0000000000000E+00
-0.7566453208056E+00 -0.2186690864400E+01  0.0000000000000E+00
-0.7760536319784E+00 -0.2048568889744E+01  0.0000000000000E+00
-0.7991102275296E+00 -0.1911831610333E+01  0.0000000000000E+00
-0.8255926585574E+00 -0.1776631397476E+01  0.0000000000000E+00
-0.8556074290363E+00 -0.1643266005168E+01  0.0000000000000E+00
-0.8896567694607E+00 -0.1512321282791E+01  0.0000000000000E+00
-0.6600970509584E+00 -0.4162045449923E+01  0.0000000000000E+00
-0.6601941019331E+00 -0.4020046227361E+01  0.0000000000000E+00
-0.6602911529263E+00 -0.3878046977720E+01  0.0000000000000E+00
-0.6603882039189E+00 -0.3736047728956E+01  0.0000000000000E+00
-0.6604852549095E+00 -0.3594048483124E+01  0.0000000000000E+00
-0.6605823060019E+00 -0.3452049088315E+01  0.0000000000000E+00
-0.6606793571844E+00 -0.3310049561700E+01  0.0000000000000E+00
-0.6607764078736E+00 -0.3168050756855E+01  0.0000000000000E+00
-0.6608734587794E+00 -0.3026051635154E+01  0.0000000000000E+00
-0.6609760232337E+00 -0.2884052542794E+01  0.0000000000000E+00
-0.6619197666746E+00 -0.2742064413634E+01  0.0000000000000E+00
-0.6657104437464E+00 -0.2600216043785E+01  0.0000000000000E+00
-0.6730708132532E+00 -0.2458771776549E+01  0.0000000000000E+00
-0.6839471339256E+00 -0.2317980998624E+01  0.0000000000000E+00
-0.6982723836829E+00 -0.2178087549471E+01  0.0000000000000E+00
-0.7161666483788E+00 -0.2039392055537E+01  0.0000000000000E+00
-0.7374264096551E+00 -0.1902081248514E+01  0.0000000000000E+00
-0.7618464613018E+00 -0.1766307506865E+01  0.0000000000000E+00
-0.7895250520744E+00 -0.1632368594737E+01  0.0000000000000E+00
-0.8209254835783E+00 -0.1500850376583E+01  0.0000000000000E+00
-0.6050711730871E+00 -0.4161516918125E+01  0.0000000000000E+00
-0.6051423461862E+00 -0.4018989163676E+01  0.0000000000000E+00
-0.6052135192989E+00 -0.3876461382048E+01  0.0000000000000E+00
-0.6052846924112E+00 -0.3733933601299E+01  0.0000000000000E+00
-0.6053558655219E+00 -0.3591405823494E+01  0.0000000000000E+00
-0.6054270387074E+00 -0.3448877896157E+01  0.0000000000000E+00
-0.6054982119589E+00 -0.3306349836524E+01  0.0000000000000E+00
-0.6055693848486E+00 -0.3163822501347E+01  0.0000000000000E+00
-0.6056405578972E+00 -0.3021294848134E+01  0.0000000000000E+00
-0.6057167812191E+00 -0.2878767224371E+01  0.0000000000000E+00
-0.6065635034711E+00 -0.2736250577219E+01  0.0000000000000E+00
-0.6100179451307E+00 -0.2593873715334E+01  0.0000000000000E+00
-0.6167421341316E+00 -0.2451900961678E+01  0.0000000000000E+00
-0.6266868444039E+00 -0.2310581689864E+01  0.0000000000000E+00
-0.6397906858014E+00 -0.2170159750353E+01  0.0000000000000E+00
-0.6561636538731E+00 -0.2030935768775E+01  0.0000000000000E+00
-0.6756193306500E+00 -0.1893096466429E+01  0.0000000000000E+00
-0.6979697527023E+00 -0.1756794228372E+01  0.0000000000000E+00
-0.7233049136956E+00 -0.1622326828101E+01  0.0000000000000E+00
-0.7520491865408E+00 -0.1490280143960E+01  0.0000000000000E+00
-0.5500385982869E+00 -0.4161033789916E+01  0.0000000000000E+00
-0.5500771965804E+00 -0.4018022907176E+01  0.0000000000000E+00
-0.5501157948812E+00 -0.3875011997166E+01  0.0000000000000E+00
-0.5501543931817E+00 -0.3732001088037E+01  0.0000000000000E+00
-0.5501929914815E+00 -0.3588990181862E+01  0.0000000000000E+00
-0.5502315898217E+00 -0.3445979125648E+01  0.0000000000000E+00
-0.5502701881978E+00 -0.3302967936690E+01  0.0000000000000E+00
-0.5503087863777E+00 -0.3159957474644E+01  0.0000000000000E+00
-0.5503473846437E+00 -0.3016946693484E+01  0.0000000000000E+00
-0.5503905699093E+00 -0.2873935941872E+01  0.0000000000000E+00
-0.5511335742212E+00 -0.2730936179131E+01  0.0000000000000E+00
-0.5542450840560E+00 -0.2588076225384E+01  0.0000000000000E+00
-0.5603263962216E+00 -0.2445620384998E+01  0.0000000000000E+00
-0.5693327996820E+00 -0.2303818019626E+01  0.0000000000000E+00
-0.5812085363640E+00 -0.2162912989786E+01  0.0000000000000E+00
-0.5960535115026E+00 -0.2023205920360E+01  0.0000000000000E+00
-0.6136984073852E+00 -0.1884883523146E+01  0.0000000000000E+00
-0.6339725034451E+00 -0.1748098189228E+01  0.0000000000000E+00
-0.6569575383771E+00 -0.1613147700654E+01  0.0000000000000E+00
-0.6830389565749E+00 -0.1480617948461E+01  0.0000000000000E+00
-0.4950519026787E+00 -0.4160603604494E+01  0.0000000000000E+00
-0.4951038053660E+00 -0.4017162536260E+01  0.0000000000000E+00
-0.4951557080633E+00 -0.3873721440673E+01  0.0000000000000E+00
-0.4952076107603E+00 -0.3730280345971E+01  0.0000000000000E+00
-0.4952595134562E+00 -0.3586839254232E+01  0.0000000000000E+00
-0.4953114162065E+00 -0.3443398012002E+01  0.0000000000000E+00
-0.4953633190051E+00 -0.3299956636628E+01  0.0000000000000E+00
-0.4954152215398E+00 -0.3156515990354E+01  0.0000000000000E+00
-0.4954671241903E+00 -0.3013075024005E+01  0.0000000000000E+00
-0.4955231551368E+00 -0.2869634087292E+01  0.0000000000000E+00
-0.4962090227682E+00 -0.2726204150367E+01  0.0000000000000E+00
-0.4990265444554E+00 -0.2582914043561E+01  0.0000000000000E+00
-0.5045168879682E+00 -0.2440028054687E+01  0.0000000000000E+00
-0.5126398137999E+00 -0.2297795534748E+01  0.0000000000000E+00
-0.5233451393291E+00 -0.2156460353215E+01  0.0000000000000E+00
-0.5367227792908E+00 -0.2016323134305E+01  0.0000000000000E+00
-0.5526203480869E+00 -0.1877570581358E+01  0.0000000000000E+00
-0.5708841969978E+00 -0.1740355090822E+01  0.0000000000000E+00
-0.5915878905426E+00 -0.1604974452359E+01  0.0000000000000E+00
-0.6150783282135E+00 -0.1472014568309E+01  0.0000000000000E+00
-0.4400598448564E+00 -0.4160217885556E+01  0.0000000000000E+00
-0.4401196897229E+00 -0.4016391098319E+01  0.0000000000000E+00
-0.4401795346009E+00 -0.3872564283656E+01  0.0000000000000E+00
-0.4402393794784E+00 -0.3728737469879E+01  0.0000000000000E+00
-0.4402992243547E+00 -0.3584910659074E+01  0.0000000000000E+00
-0.4403590692938E+00 -0.3441083697373E+01  0.0000000000000E+00
-0.4404189142884E+00 -0.3297256602171E+01  0.0000000000000E+00
-0.4404787589789E+00 -0.3153430238028E+01  0.0000000000000E+00
-0.4405386038029E+00 -0.3009603552950E+01  0.0000000000000E+00
-0.4406021182205E+00 -0.2865776897587E+01  0.0000000000000E+00
-0.4412254871236E+00 -0.2721961251799E+01  0.0000000000000E+00
-0.4437436589671E+00 -0.2578285455073E+01  0.0000000000000E+00
-0.4486376722979E+00 -0.2435013780377E+01  0.0000000000000E+00
-0.4558717590049E+00 -0.2292395569166E+01  0.0000000000000E+00
-0.4654013120275E+00 -0.2150674698937E+01  0.0000000000000E+00
-0.4773062555965E+00 -0.2010151793313E+01  0.0000000000000E+00
-0.4914511361163E+00 -0.1871013548046E+01  0.0000000000000E+00
-0.5076993767752E+00 -0.1733412364399E+01  0.0000000000000E+00
-0.5261163680144E+00 -0.1597646038857E+01  0.0000000000000E+00
-0.5470104645797E+00 -0.1464300483898E+01  0.0000000000000E+00
-0.3850629864597E+00 -0.4159876900567E+01  0.0000000000000E+00
-0.3851259729300E+00 -0.4015709128284E+01  0.0000000000000E+00
-0.3851889594123E+00 -0.3871541328509E+01  0.0000000000000E+00
-0.3852519458942E+00 -0.3727373529624E+01  0.0000000000000E+00
-0.3853149323749E+00 -0.3583205733716E+01  0.0000000000000E+00
-0.3853779189216E+00 -0.3439037786555E+01  0.0000000000000E+00
-0.3854409055267E+00 -0.3294869705576E+01  0.0000000000000E+00
-0.3855038918118E+00 -0.3150702357390E+01  0.0000000000000E+00
-0.3855668782373E+00 -0.3006534687509E+01  0.0000000000000E+00
-0.3856330755550E+00 -0.2862367047411E+01  0.0000000000000E+00
-0.3861891452633E+00 -0.2718210425541E+01  0.0000000000000E+00
-0.3884031669730E+00 -0.2574193669479E+01  0.0000000000000E+00
-0.3926960498090E+00 -0.2430581039070E+01  0.0000000000000E+00
-0.3990364969378E+00 -0.2287621867327E+01  0.0000000000000E+00
-0.4073854769611E+00 -0.2145560038844E+01  0.0000000000000E+00
-0.4178129235952E+00 -0.2004696176717E+01  0.0000000000000E+00
-0.4302003151572E+00 -0.1865216969994E+01  0.0000000000000E+00
-0.4444281468073E+00 -0.1727274824189E+01  0.0000000000000E+00
-0.4605536349915E+00 -0.1591167541823E+01  0.0000000000000E+00
-0.4788465898261E+00 -0.1457481044333E+01  0.0000000000000E+00
-0.3300619056673E+00 -0.4159580888679E+01  0.0000000000000E+00
-0.3301238113451E+00 -0.4015117104458E+01  0.0000000000000E+00
-0.3301857170347E+00 -0.3870653292689E+01  0.0000000000000E+00
-0.3302476227239E+00 -0.3726189481811E+01  0.0000000000000E+00
-0.3303095284118E+00 -0.3581725673917E+01  0.0000000000000E+00
-0.3303714341646E+00 -0.3437261714459E+01  0.0000000000000E+00
-0.3304333399749E+00 -0.3292797620909E+01  0.0000000000000E+00
-0.3304952454706E+00 -0.3148334261655E+01  0.0000000000000E+00
-0.3305571511044E+00 -0.3003870580046E+01  0.0000000000000E+00
-0.3306218089298E+00 -0.2859406928281E+01  0.0000000000000E+00
-0.3311063571750E+00 -0.2714954302256E+01  0.0000000000000E+00
-0.3330120067481E+00 -0.2570641556575E+01  0.0000000000000E+00
-0.3366995372036E+00 -0.2426732939691E+01  0.0000000000000E+00
-0.3421421228802E+00 -0.2283477777292E+01  0.0000000000000E+00
-0.3493063081284E+00 -0.2141119960130E+01  0.0000000000000E+00
-0.3582520361460E+00 -0.1999960110844E+01  0.0000000000000E+00
-0.3688777170754E+00 -0.1860184912661E+01  0.0000000000000E+00
-0.3810809180974E+00 -0.1721946774789E+01  0.0000000000000E+00
-0.3949106817397E+00 -0.1585543504984E+01  0.0000000000000E+00
-0.4105982736091E+00 -0.1451561032464E+01  0.0000000000000E+00
-0.2750571858516E+00 -0.4159330058600E+01  0.0000000000000E+00
-0.2751143717129E+00 -0.4014615444259E+01  0.0000000000000E+00
-0.2751715575851E+00 -0.3869900802322E+01  0.0000000000000E+00
-0.2752287434569E+00 -0.3725186161277E+01  0.0000000000000E+00
-0.2752859293275E+00 -0.3580471523221E+01  0.0000000000000E+00
-0.2753431152582E+00 -0.3435756733339E+01  0.0000000000000E+00
-0.2754003012419E+00 -0.3291041809131E+01  0.0000000000000E+00
-0.2754574869349E+00 -0.3146327620495E+01  0.0000000000000E+00
-0.2755146727556E+00 -0.3001613108943E+01  0.0000000000000E+00
-0.2755741520680E+00 -0.2856898627288E+01  0.0000000000000E+00
-0.2759835399151E+00 -0.2712195177736E+01  0.0000000000000E+00
-0.2775771785720E+00 -0.2567631620847E+01  0.0000000000000E+00
-0.2806557178774E+00 -0.2423472195421E+01  0.0000000000000E+00
-0.2851968032522E+00 -0.2279966220933E+01  0.0000000000000E+00
-0.2911725548721E+00 -0.2137357593360E+01  0.0000000000000E+00
-0.2986329254098E+00 -0.1995946934950E+01  0.0000000000000E+00
-0.3074932567632E+00 -0.1855920924000E+01  0.0000000000000E+00
-0.3176681881805E+00 -0.1717431972844E+01  0.0000000000000E+00
-0.3291985883348E+00 -0.1580777893680E+01  0.0000000000000E+00
-0.3422771784154E+00 -0.1446544622314E+01  0.0000000000000E+00
-0.2200494213304E+00 -0.4159124588568E+01  0.0000000000000E+00
-0.2200988426691E+00 -0.4014204504160E+01  0.0000000000000E+00
-0.2201482640172E+00 -0.3869284392117E+01  0.0000000000000E+00
-0.2201976853651E+00 -0.3724364280968E+01  0.0000000000000E+00
-0.2202471067119E+00 -0.3579444172811E+01  0.0000000000000E+00
-0.2202965281105E+00 -0.3434523912613E+01  0.0000000000000E+00
-0.2203459495550E+00 -0.3289603517898E+01  0.0000000000000E+00
-0.2203953707484E+00 -0.3144683859800E+01  0.0000000000000E+00
-0.2204447920520E+00 -0.2999763878328E+01  0.0000000000000E+00
-0.2204960481482E+00 -0.2854843926793E+01  0.0000000000000E+00
-0.2208272309758E+00 -0.2709935012576E+01  0.0000000000000E+00
-0.2221058142604E+00 -0.2565166001113E+01  0.0000000000000E+00
-0.2245723180114E+00 -0.2420801123295E+01  0.0000000000000E+00
-0.2282088586565E+00 -0.2277089693513E+01  0.0000000000000E+00
-0.2329931322596E+00 -0.2134275612017E+01  0.0000000000000E+00
-0.2389651009641E+00 -0.1992659500741E+01  0.0000000000000E+00
-0.2460570383625E+00 -0.1852428033938E+01  0.0000000000000E+00
-0.2542006558072E+00 -0.1713733626508E+01  0.0000000000000E+00
-0.2634286481713E+00 -0.1576874094283E+01  0.0000000000000E+00
-0.2738951923088E+00 -0.1442435378469E+01  0.0000000000000E+00
-0.1650392126324E+00 -0.4158964625296E+01  0.0000000000000E+00
-0.1650784252713E+00 -0.4013884577590E+01  0.0000000000000E+00
-0.1651176379177E+00 -0.3868804502217E+01  0.0000000000000E+00
-0.1651568505639E+00 -0.3723724427740E+01  0.0000000000000E+00
-0.1651960632093E+00 -0.3578644356259E+01  0.0000000000000E+00
-0.1652352758958E+00 -0.3433564132568E+01  0.0000000000000E+00
-0.1652744886187E+00 -0.3288483774212E+01  0.0000000000000E+00
-0.1653137011423E+00 -0.3143404153285E+01  0.0000000000000E+00
-0.1653529137534E+00 -0.2998324208628E+01  0.0000000000000E+00
-0.1653935024586E+00 -0.2853244293941E+01  0.0000000000000E+00
-0.1656440361591E+00 -0.2708175420631E+01  0.0000000000000E+00
-0.1666051201020E+00 -0.2563246457930E+01  0.0000000000000E+00
-0.1684571443782E+00 -0.2418721630574E+01  0.0000000000000E+00
-0.1711866963610E+00 -0.2274850248994E+01  0.0000000000000E+00
-0.1747770480530E+00 -0.2131876216768E+01  0.0000000000000E+00
-0.1792581710655E+00 -0.1990100155583E+01  0.0000000000000E+00
-0.1845792706359E+00 -0.1849708736549E+01  0.0000000000000E+00
-0.1906891302505E+00 -0.1710854376557E+01  0.0000000000000E+00
-0.1976122710256E+00 -0.1573834894273E+01  0.0000000000000E+00
-0.2054643255476E+00 -0.1439236235106E+01  0.0000000000000E+00
-0.1100271650341E+00 -0.4158850283464E+01  0.0000000000000E+00
-0.1100543300728E+00 -0.4013655893906E+01  0.0000000000000E+00
-0.1100814951167E+00 -0.3868461476660E+01  0.0000000000000E+00
-0.1101086601604E+00 -0.3723267060310E+01  0.0000000000000E+00
-0.1101358252036E+00 -0.3578072646959E+01  0.0000000000000E+00
-0.1101629902752E+00 -0.3432878081278E+01  0.0000000000000E+00
-0.1101901553721E+00 -0.3287683380826E+01  0.0000000000000E+00
-0.1102173203309E+00 -0.3142489418384E+01  0.0000000000000E+00
-0.1102444853503E+00 -0.2997295131957E+01  0.0000000000000E+00
-0.1102725677655E+00 -0.2852100875523E+01  0.0000000000000E+00
-0.1104406134806E+00 -0.2706917663368E+01  0.0000000000000E+00
-0.1110823592933E+00 -0.2561874367437E+01  0.0000000000000E+00
-0.1123180652995E+00 -0.2417235208066E+01  0.0000000000000E+00
-0.1141387897736E+00 -0.2273249492854E+01  0.0000000000000E+00
-0.1165333806953E+00 -0.2130161127761E+01  0.0000000000000E+00
-0.1195218191400E+00 -0.1988270734297E+01  0.0000000000000E+00
-0.1230702419557E+00 -0.1847764981321E+01  0.0000000000000E+00
-0.1271445047865E+00 -0.1708796287153E+01  0.0000000000000E+00
-0.1317609550242E+00 -0.1571662472481E+01  0.0000000000000E+00
-0.1369966810324E+00 -0.1436949485720E+01  0.0000000000000E+00
-0.5501388973120E-01 -0.4158781645376E+01  0.0000000000000E+00
-0.5502777946474E-01 -0.4013518617717E+01  0.0000000000000E+00
-0.5504166920092E-01 -0.3868255562359E+01  0.0000000000000E+00
-0.5505555893702E-01 -0.3722992507896E+01  0.0000000000000E+00
-0.5506944867283E-01 -0.3577729456434E+01  0.0000000000000E+00
-0.5508333842322E-01 -0.3432466252569E+01  0.0000000000000E+00
-0.5509722818649E-01 -0.3287202913870E+01  0.0000000000000E+00
-0.5511111787917E-01 -0.3141940313530E+01  0.0000000000000E+00
-0.5512500760284E-01 -0.2996677389052E+01  0.0000000000000E+00
-0.5513935602430E-01 -0.2851414494581E+01  0.0000000000000E+00
-0.5522368608569E-01 -0.2706162646130E+01  0.0000000000000E+00
-0.5554486617438E-01 -0.2561050717274E+01  0.0000000000000E+00
-0.5616302634812E-01 -0.2416342925707E+01  0.0000000000000E+00
-0.5707369575115E-01 -0.2272288577330E+01  0.0000000000000E+00
-0.5827129836579E-01 -0.2129131579530E+01  0.0000000000000E+00
-0.5976582473046E-01 -0.1987172553712E+01  0.0000000000000E+00
-0.6154034327819E-01 -0.1846598167384E+01  0.0000000000000E+00
-0.6357778182533E-01 -0.1707560839724E+01  0.0000000000000E+00
-0.6588631406154E-01 -0.1570358392634E+01  0.0000000000000E+00
-0.6850448416199E-01 -0.1435576776330E+01  0.0000000000000E+00
 0.2862823369523E-09 -0.4158758760510E+01  0.0000000000000E+00
 0.5725642989217E-09 -0.4013472847981E+01  0.0000000000000E+00
 0.8588466427077E-09 -0.3868186907748E+01  0.0000000000000E+00
 0.1145129137124E-08 -0.3722900968411E+01  0.0000000000000E+00
 0.1431411291690E-08 -0.3577615032075E+01  0.0000000000000E+00
 0.1717693957354E-08 -0.3432328943313E+01  0.0000000000000E+00
 0.2003976567042E-08 -0.3287042719694E+01  0.0000000000000E+00
 0.2290258229023E-08 -0.3141757234552E+01  0.0000000000000E+00
 0.2576540540582E-08 -0.2996471425219E+01  0.0000000000000E+00
 0.2862908882798E-08 -0.2851185645899E+01  0.0000000000000E+00
 0.3153507500703E-08 -0.2705910913180E+01  0.0000000000000E+00
 0.3456098328546E-08 -0.2560776101180E+01  0.0000000000000E+00
 0.3774700689739E-08 -0.2416045426712E+01  0.0000000000000E+00
 0.4110245087960E-08 -0.2271968195110E+01  0.0000000000000E+00
 0.4465088130623E-08 -0.2128788314238E+01  0.0000000000000E+00
 0.4838883325138E-08 -0.1986806405465E+01  0.0000000000000E+00
 0.5225485939100E-08 -0.1846209135851E+01  0.0000000000000E+00
 0.5628719591881E-08 -0.1707148924857E+01  0.0000000000000E+00
 0.6050320966622E-08 -0.1569923594790E+01  0.0000000000000E+00
 0.6487104863030E-08 -0.1435119096470E+01  0.0000000000000E+00
 0.5501389030371E-01 -0.4158781645385E+01  0.0000000000000E+00
 0.5502778060975E-01 -0.4013518617735E+01  0.0000000000000E+00
 0.5504167091844E-01 -0.3868255562385E+01  0.0000000000000E+00
 0.5505556122704E-01 -0.3722992507932E+01  0.0000000000000E+00
 0.5506945153536E-01 -0.3577729456478E+01  0.0000000000000E+00
 0.5508334185825E-01 -0.3432466252622E+01  0.0000000000000E+00
 0.5509723219403E-01 -0.3287202913932E+01  0.0000000000000E+00
 0.5511112245921E-01 -0.3141940313601E+01  0.0000000000000E+00
 0.5512501275539E-01 -0.2996677389131E+01  0.0000000000000E+00
 0.5513936174952E-01 -0.2851414494669E+01  0.0000000000000E+00
 0.5522369239205E-01 -0.2706162646227E+01  0.0000000000000E+00
 0.5554487308587E-01 -0.2561050717381E+01  0.0000000000000E+00
 0.5616303389675E-01 -0.2416342925823E+01  0.0000000000000E+00
 0.5707370397081E-01 -0.2272288577454E+01  0.0000000000000E+00
 0.5827130729508E-01 -0.2129131579663E+01  0.0000000000000E+00
 0.5976583440727E-01 -0.1987172553854E+01  0.0000000000000E+00
 0.6154035372815E-01 -0.1846598167536E+01  0.0000000000000E+00
 0.6357779308170E-01 -0.1707560839884E+01  0.0000000000000E+00
 0.6588632616105E-01 -0.1570358392803E+01  0.0000000000000E+00
 0.6850449713501E-01 -0.1435576776509E+01  0.0000000000000E+00
 0.1100271656065E+00 -0.4158850283482E+01  0.0000000000000E+00
 0.1100543312175E+00 -0.4013655893941E+01  0.0000000000000E+00
 0.1100814968337E+00 -0.3868461476714E+01  0.0000000000000E+00
 0.1101086624497E+00 -0.3723267060381E+01  0.0000000000000E+00
 0.1101358280652E+00 -0.3578072647048E+01  0.0000000000000E+00
 0.1101629937092E+00 -0.3432878081384E+01  0.0000000000000E+00
 0.1101901593784E+00 -0.3287683380950E+01  0.0000000000000E+00
 0.1102173249095E+00 -0.3142489418526E+01  0.0000000000000E+00
 0.1102444905012E+00 -0.2997295132116E+01  0.0000000000000E+00
 0.1102725734889E+00 -0.2852100875700E+01  0.0000000000000E+00
 0.1104406197850E+00 -0.2706917663563E+01  0.0000000000000E+00
 0.1110823662026E+00 -0.2561874367650E+01  0.0000000000000E+00
 0.1123180728459E+00 -0.2417235208296E+01  0.0000000000000E+00
 0.1141387979908E+00 -0.2273249493102E+01  0.0000000000000E+00
 0.1165333896219E+00 -0.2130161128027E+01  0.0000000000000E+00
 0.1195218288140E+00 -0.1988270734580E+01  0.0000000000000E+00
 0.1230702524027E+00 -0.1847764981623E+01  0.0000000000000E+00
 0.1271445160396E+00 -0.1708796287473E+01  0.0000000000000E+00
 0.1317609671203E+00 -0.1571662472820E+01  0.0000000000000E+00
 0.1369966940019E+00 -0.1436949486077E+01  0.0000000000000E+00
 0.1650392132044E+00 -0.4158964625323E+01  0.0000000000000E+00
 0.1650784264154E+00 -0.4013884577643E+01  0.0000000000000E+00
 0.1651176396338E+00 -0.3868804502297E+01  0.0000000000000E+00
 0.1651568528521E+00 -0.3723724427846E+01  0.0000000000000E+00
 0.1651960660695E+00 -0.3578644356392E+01  0.0000000000000E+00
 0.1652352793280E+00 -0.3433564132727E+01  0.0000000000000E+00
 0.1652744926230E+00 -0.3288483774398E+01  0.0000000000000E+00
 0.1653137057186E+00 -0.3143404153498E+01  0.0000000000000E+00
 0.1653529189017E+00 -0.2998324208867E+01  0.0000000000000E+00
 0.1653935081791E+00 -0.2853244294207E+01  0.0000000000000E+00
 0.1656440424602E+00 -0.2708175420923E+01  0.0000000000000E+00
 0.1666051270078E+00 -0.2563246458249E+01  0.0000000000000E+00
 0.1684571519207E+00 -0.2418721630920E+01  0.0000000000000E+00
 0.1711867045741E+00 -0.2274850249366E+01  0.0000000000000E+00
 0.1747770569752E+00 -0.2131876217167E+01  0.0000000000000E+00
 0.1792581807348E+00 -0.1990100156009E+01  0.0000000000000E+00
 0.1845792810779E+00 -0.1849708737001E+01  0.0000000000000E+00
 0.1906891414983E+00 -0.1710854377037E+01  0.0000000000000E+00
 0.1976122831161E+00 -0.1573834894781E+01  0.0000000000000E+00
 0.2054643385111E+00 -0.1439236235641E+01  0.0000000000000E+00
 0.2200494219020E+00 -0.4159124588604E+01  0.0000000000000E+00
 0.2200988438123E+00 -0.4014204504231E+01  0.0000000000000E+00
 0.2201482657321E+00 -0.3869284392223E+01  0.0000000000000E+00
 0.2201976876515E+00 -0.3724364281109E+01  0.0000000000000E+00
 0.2202471095699E+00 -0.3579444172988E+01  0.0000000000000E+00
 0.2202965315402E+00 -0.3434523912825E+01  0.0000000000000E+00
 0.2203459535564E+00 -0.3289603518146E+01  0.0000000000000E+00
 0.2203953753213E+00 -0.3144683860083E+01  0.0000000000000E+00
 0.2204447971965E+00 -0.2999763878646E+01  0.0000000000000E+00
 0.2204960538646E+00 -0.2854843927147E+01  0.0000000000000E+00
 0.2208272372724E+00 -0.2709935012966E+01  0.0000000000000E+00
 0.2221058211612E+00 -0.2565166001538E+01  0.0000000000000E+00
 0.2245723255485E+00 -0.2420801123755E+01  0.0000000000000E+00
 0.2282088668637E+00 -0.2277089694009E+01  0.0000000000000E+00
 0.2329931411755E+00 -0.2134275612548E+01  0.0000000000000E+00
 0.2389651106267E+00 -0.1992659501308E+01  0.0000000000000E+00
 0.2460570487974E+00 -0.1852428034541E+01  0.0000000000000E+00
 0.2542006670476E+00 -0.1713733627147E+01  0.0000000000000E+00
 0.2634286602540E+00 -0.1576874094959E+01  0.0000000000000E+00
 0.2738952052641E+00 -0.1442435379182E+01  0.0000000000000E+00
 0.2750571864227E+00 -0.4159330058645E+01  0.0000000000000E+00
 0.2751143728551E+00 -0.4014615444347E+01  0.0000000000000E+00
 0.2751715592983E+00 -0.3869900802454E+01  0.0000000000000E+00
 0.2752287457413E+00 -0.3725186161454E+01  0.0000000000000E+00
 0.2752859321830E+00 -0.3580471523442E+01  0.0000000000000E+00
 0.2753431186847E+00 -0.3435756733604E+01  0.0000000000000E+00
 0.2754003052395E+00 -0.3291041809440E+01  0.0000000000000E+00
 0.2754574915036E+00 -0.3146327620849E+01  0.0000000000000E+00
 0.2755146778954E+00 -0.3001613109341E+01  0.0000000000000E+00
 0.2755741577791E+00 -0.2856898627730E+01  0.0000000000000E+00
 0.2759835462059E+00 -0.2712195178222E+01  0.0000000000000E+00
 0.2775771854665E+00 -0.2567631621378E+01  0.0000000000000E+00
 0.2806557254076E+00 -0.2423472195995E+01  0.0000000000000E+00
 0.2851968114520E+00 -0.2279966221552E+01  0.0000000000000E+00
 0.2911725637801E+00 -0.2137357594023E+01  0.0000000000000E+00
 0.2986329350640E+00 -0.1995946935658E+01  0.0000000000000E+00
 0.3074932671891E+00 -0.1855920924753E+01  0.0000000000000E+00
 0.3176681994114E+00 -0.1717431973642E+01  0.0000000000000E+00
 0.3291986004074E+00 -0.1580777894524E+01  0.0000000000000E+00
 0.3422771913601E+00 -0.1446544623204E+01  0.0000000000000E+00
 0.3300619062378E+00 -0.4159580888732E+01  0.0000000000000E+00
 0.3301238124860E+00 -0.4015117104564E+01  0.0000000000000E+00
 0.3301857187460E+00 -0.3870653292848E+01  0.0000000000000E+00
 0.3302476250056E+00 -0.3726189482023E+01  0.0000000000000E+00
 0.3303095312640E+00 -0.3581725674181E+01  0.0000000000000E+00
 0.3303714375873E+00 -0.3437261714777E+01  0.0000000000000E+00
 0.3304333439680E+00 -0.3292797621279E+01  0.0000000000000E+00
 0.3304952500341E+00 -0.3148334262079E+01  0.0000000000000E+00
 0.3305571562384E+00 -0.3003870580523E+01  0.0000000000000E+00
 0.3306218146344E+00 -0.2859406928811E+01  0.0000000000000E+00
 0.3311063634587E+00 -0.2714954302838E+01  0.0000000000000E+00
 0.3330120136349E+00 -0.2570641557211E+01  0.0000000000000E+00
 0.3366995447255E+00 -0.2426732940380E+01  0.0000000000000E+00
 0.3421421310710E+00 -0.2283477778033E+01  0.0000000000000E+00
 0.3493063170268E+00 -0.2141119960924E+01  0.0000000000000E+00
 0.3582520457899E+00 -0.1999960111693E+01  0.0000000000000E+00
 0.3688777274904E+00 -0.1860184913564E+01  0.0000000000000E+00
 0.3810809293167E+00 -0.1721946775745E+01  0.0000000000000E+00
 0.3949106938001E+00 -0.1585543505997E+01  0.0000000000000E+00
 0.4105982865409E+00 -0.1451561033531E+01  0.0000000000000E+00
 0.3850629870294E+00 -0.4159876900628E+01  0.0000000000000E+00
 0.3851259740694E+00 -0.4015709128407E+01  0.0000000000000E+00
 0.3851889611214E+00 -0.3871541328694E+01  0.0000000000000E+00
 0.3852519481730E+00 -0.3727373529871E+01  0.0000000000000E+00
 0.3853149352233E+00 -0.3583205734024E+01  0.0000000000000E+00
 0.3853779223397E+00 -0.3439037786925E+01  0.0000000000000E+00
 0.3854409095145E+00 -0.3294869706008E+01  0.0000000000000E+00
 0.3855038963692E+00 -0.3150702357884E+01  0.0000000000000E+00
 0.3855668833645E+00 -0.3006534688064E+01  0.0000000000000E+00
 0.3856330812520E+00 -0.2862367048028E+01  0.0000000000000E+00
 0.3861891515386E+00 -0.2718210426220E+01  0.0000000000000E+00
 0.3884031738507E+00 -0.2574193670220E+01  0.0000000000000E+00
 0.3926960573210E+00 -0.2430581039871E+01  0.0000000000000E+00
 0.3990365051180E+00 -0.2287621868191E+01  0.0000000000000E+00
 0.4073854858481E+00 -0.2145560039770E+01  0.0000000000000E+00
 0.4178129332270E+00 -0.2004696177705E+01  0.0000000000000E+00
 0.4302003255592E+00 -0.1865216971045E+01  0.0000000000000E+00
 0.4444281580129E+00 -0.1727274825304E+01  0.0000000000000E+00
 0.4605536470375E+00 -0.1591167543002E+01  0.0000000000000E+00
 0.4788466027428E+00 -0.1457481045576E+01  0.0000000000000E+00
 0.4400598454253E+00 -0.4160217885626E+01  0.0000000000000E+00
 0.4401196908606E+00 -0.4016391098460E+01  0.0000000000000E+00
 0.4401795363073E+00 -0.3872564283867E+01  0.0000000000000E+00
 0.4402393817537E+00 -0.3728737470161E+01  0.0000000000000E+00
 0.4402992271988E+00 -0.3584910659426E+01  0.0000000000000E+00
 0.4403590727067E+00 -0.3441083697795E+01  0.0000000000000E+00
 0.4404189182702E+00 -0.3297256602663E+01  0.0000000000000E+00
 0.4404787635294E+00 -0.3153430238591E+01  0.0000000000000E+00
 0.4405386089222E+00 -0.3009603553584E+01  0.0000000000000E+00
 0.4406021239088E+00 -0.2865776898291E+01  0.0000000000000E+00
 0.4412254933894E+00 -0.2721961252573E+01  0.0000000000000E+00
 0.4437436658343E+00 -0.2578285455918E+01  0.0000000000000E+00
 0.4486376797985E+00 -0.2435013781291E+01  0.0000000000000E+00
 0.4558717671729E+00 -0.2292395570152E+01  0.0000000000000E+00
 0.4654013209015E+00 -0.2150674699993E+01  0.0000000000000E+00
 0.4773062652143E+00 -0.2010151794440E+01  0.0000000000000E+00
 0.4914511465035E+00 -0.1871013549246E+01  0.0000000000000E+00
 0.5076993879652E+00 -0.1733412365671E+01  0.0000000000000E+00
 0.5261163800438E+00 -0.1597646040203E+01  0.0000000000000E+00
 0.5470104774790E+00 -0.1464300485316E+01  0.0000000000000E+00
 0.4950519032465E+00 -0.4160603604573E+01  0.0000000000000E+00
 0.4951038065017E+00 -0.4017162536418E+01  0.0000000000000E+00
 0.4951557097668E+00 -0.3873721440910E+01  0.0000000000000E+00
 0.4952076130316E+00 -0.3730280346287E+01  0.0000000000000E+00
 0.4952595162954E+00 -0.3586839254627E+01  0.0000000000000E+00
 0.4953114196136E+00 -0.3443398012476E+01  0.0000000000000E+00
 0.4953633229799E+00 -0.3299956637182E+01  0.0000000000000E+00
 0.4954152260825E+00 -0.3156515990986E+01  0.0000000000000E+00
 0.4954671293008E+00 -0.3013075024716E+01  0.0000000000000E+00
 0.4955231608153E+00 -0.2869634088082E+01  0.0000000000000E+00
 0.4962090290232E+00 -0.2726204151236E+01  0.0000000000000E+00
 0.4990265513109E+00 -0.2582914044509E+01  0.0000000000000E+00
 0.5045168954561E+00 -0.2440028055714E+01  0.0000000000000E+00
 0.5126398219542E+00 -0.2297795535855E+01  0.0000000000000E+00
 0.5233451481883E+00 -0.2156460354401E+01  0.0000000000000E+00
 0.5367227888929E+00 -0.2016323135572E+01  0.0000000000000E+00
 0.5526203584575E+00 -0.1877570582705E+01  0.0000000000000E+00
 0.5708842081701E+00 -0.1740355092250E+01  0.0000000000000E+00
 0.5915879025534E+00 -0.1604974453869E+01  0.0000000000000E+00
 0.6150783410931E+00 -0.1472014569901E+01  0.0000000000000E+00
 0.5500385988537E+00 -0.4161033790003E+01  0.0000000000000E+00
 0.5500771977139E+00 -0.4018022907351E+01  0.0000000000000E+00
 0.5501157965814E+00 -0.3875011997428E+01  0.0000000000000E+00
 0.5501543954487E+00 -0.3732001088388E+01  0.0000000000000E+00
 0.5501929943152E+00 -0.3588990182300E+01  0.0000000000000E+00
 0.5502315932222E+00 -0.3445979126174E+01  0.0000000000000E+00
 0.5502701921651E+00 -0.3302967937304E+01  0.0000000000000E+00
 0.5503087909117E+00 -0.3159957475345E+01  0.0000000000000E+00
 0.5503473897445E+00 -0.3016946694273E+01  0.0000000000000E+00
 0.5503905755770E+00 -0.2873935942748E+01  0.0000000000000E+00
 0.5511335804643E+00 -0.2730936180095E+01  0.0000000000000E+00
 0.5542450908984E+00 -0.2588076226435E+01  0.0000000000000E+00
 0.5603264036954E+00 -0.2445620386136E+01  0.0000000000000E+00
 0.5693328078211E+00 -0.2303818020853E+01  0.0000000000000E+00
 0.5812085452069E+00 -0.2162912991101E+01  0.0000000000000E+00
 0.5960535210873E+00 -0.2023205921764E+01  0.0000000000000E+00
 0.6136984177373E+00 -0.1884883524639E+01  0.0000000000000E+00
 0.6339725145979E+00 -0.1748098190811E+01  0.0000000000000E+00
 0.6569575503672E+00 -0.1613147702329E+01  0.0000000000000E+00
 0.6830389694328E+00 -0.1480617950226E+01  0.0000000000000E+00
 0.6050711735961E+00 -0.4161516918212E+01  0.0000000000000E+00
 0.6051423472042E+00 -0.4018989163849E+01  0.0000000000000E+00
 0.6052135208259E+00 -0.3876461382308E+01  0.0000000000000E+00
 0.6052846944471E+00 -0.3733933601646E+01  0.0000000000000E+00
 0.6053558680668E+00 -0.3591405823928E+01  0.0000000000000E+00
 0.6054270417613E+00 -0.3448877896677E+01  0.0000000000000E+00
 0.6054982155217E+00 -0.3306349837131E+01  0.0000000000000E+00
 0.6055693889205E+00 -0.3163822502041E+01  0.0000000000000E+00
 0.6056405624780E+00 -0.3021294848915E+01  0.0000000000000E+00
 0.6057167863091E+00 -0.2878767225238E+01  0.0000000000000E+00
 0.6065635090779E+00 -0.2736250578173E+01  0.0000000000000E+00
 0.6100179512757E+00 -0.2593873716375E+01  0.0000000000000E+00
 0.6167421408437E+00 -0.2451900962805E+01  0.0000000000000E+00
 0.6266868517137E+00 -0.2310581691079E+01  0.0000000000000E+00
 0.6397906937444E+00 -0.2170159751654E+01  0.0000000000000E+00
 0.6561636624840E+00 -0.2030935770165E+01  0.0000000000000E+00
 0.6756193399513E+00 -0.1893096467907E+01  0.0000000000000E+00
 0.6979697627244E+00 -0.1756794229939E+01  0.0000000000000E+00
 0.7233049244723E+00 -0.1622326829760E+01  0.0000000000000E+00
 0.7520491980992E+00 -0.1490280145708E+01  0.0000000000000E+00
 0.6600970514097E+00 -0.4162045450007E+01  0.0000000000000E+00
 0.6601941028358E+00 -0.4020046227529E+01  0.0000000000000E+00
 0.6602911542804E+00 -0.3878046977972E+01  0.0000000000000E+00
 0.6603882057244E+00 -0.3736047729292E+01  0.0000000000000E+00
 0.6604852571663E+00 -0.3594048483544E+01  0.0000000000000E+00
 0.6605823087101E+00 -0.3452049088819E+01  0.0000000000000E+00
 0.6606793603440E+00 -0.3310049562288E+01  0.0000000000000E+00
 0.6607764114846E+00 -0.3168050757527E+01  0.0000000000000E+00
 0.6608734628417E+00 -0.3026051635910E+01  0.0000000000000E+00
 0.6609760277476E+00 -0.2884052543634E+01  0.0000000000000E+00
 0.6619197716469E+00 -0.2742064414558E+01  0.0000000000000E+00
 0.6657104491960E+00 -0.2600216044793E+01  0.0000000000000E+00
 0.6730708192057E+00 -0.2458771777641E+01  0.0000000000000E+00
 0.6839471404084E+00 -0.2317980999801E+01  0.0000000000000E+00
 0.6982723907284E+00 -0.2178087550732E+01  0.0000000000000E+00
 0.7161666560184E+00 -0.2039392056884E+01  0.0000000000000E+00
 0.7374264179084E+00 -0.1902081249946E+01  0.0000000000000E+00
 0.7618464701962E+00 -0.1766307508384E+01  0.0000000000000E+00
 0.7895250616408E+00 -0.1632368596345E+01  0.0000000000000E+00
 0.8209254938403E+00 -0.1500850378279E+01  0.0000000000000E+00
 0.7151156783233E+00 -0.4162619017198E+01  0.0000000000000E+00
 0.7152313566661E+00 -0.4021193362007E+01  0.0000000000000E+00
 0.7153470350309E+00 -0.3879767679848E+01  0.0000000000000E+00
 0.7154627133950E+00 -0.3738341998561E+01  0.0000000000000E+00
 0.7155783917567E+00 -0.3596916320194E+01  0.0000000000000E+00
 0.7156940702398E+00 -0.3455490493452E+01  0.0000000000000E+00
 0.7158097488303E+00 -0.3314064535437E+01  0.0000000000000E+00
 0.7159254268328E+00 -0.3172639296277E+01  0.0000000000000E+00
 0.7160411050934E+00 -0.3031213741540E+01  0.0000000000000E+00
 0.7161627601794E+00 -0.2889788216026E+01  0.0000000000000E+00
 0.7171962745057E+00 -0.2748373639159E+01  0.0000000000000E+00
 0.7213159370821E+00 -0.2607098793435E+01  0.0000000000000E+00
 0.7293052373161E+00 -0.2466228044230E+01  0.0000000000000E+00
 0.7411059185607E+00 -0.2326010792442E+01  0.0000000000000E+00
 0.7566453269564E+00 -0.2186690865594E+01  0.0000000000000E+00
 0.7760536386498E+00 -0.2048568891020E+01  0.0000000000000E+00
 0.7991102347380E+00 -0.1911831611690E+01  0.0000000000000E+00
 0.8255926663275E+00 -0.1776631398915E+01  0.0000000000000E+00
 0.8556074373960E+00 -0.1643266006692E+01  0.0000000000000E+00
 0.8896567784302E+00 -0.1512321284399E+01  0.0000000000000E+00
 0.7701265164027E+00 -0.4163237225325E+01  0.0000000000000E+00
 0.7702530328267E+00 -0.4022429778365E+01  0.0000000000000E+00
 0.7703795492748E+00 -0.3881622304554E+01  0.0000000000000E+00
 0.7705060657221E+00 -0.3740814831612E+01  0.0000000000000E+00
 0.7706325821669E+00 -0.3600007361578E+01  0.0000000000000E+00
 0.7707590987443E+00 -0.3459199743817E+01  0.0000000000000E+00
 0.7708856154392E+00 -0.3318391995356E+01  0.0000000000000E+00
 0.7710121314910E+00 -0.3177584962608E+01  0.0000000000000E+00
 0.7711386478251E+00 -0.3036777615663E+01  0.0000000000000E+00
 0.7712716042631E+00 -0.2895970297815E+01  0.0000000000000E+00
 0.7723871003997E+00 -0.2755173912926E+01  0.0000000000000E+00
 0.7768279598168E+00 -0.2614517228821E+01  0.0000000000000E+00
 0.7854384022306E+00 -0.2474264634665E+01  0.0000000000000E+00
 0.7981556554211E+00 -0.2334665546664E+01  0.0000000000000E+00
 0.8149014339060E+00 -0.2195963779472E+01  0.0000000000000E+00
 0.8358160041157E+00 -0.2058459961379E+01  0.0000000000000E+00
 0.8606616464579E+00 -0.1922340847513E+01  0.0000000000000E+00
 0.8891986694414E+00 -0.1787758801471E+01  0.0000000000000E+00
 0.9215418324023E+00 -0.1655011566313E+01  0.0000000000000E+00
 0.9582322949282E+00 -0.1524684975170E+01  0.0000000000000E+00
 0.8251290426611E+00 -0.4163899654623E+01  0.0000000000000E+00
 0.8252580853438E+00 -0.4023754637073E+01  0.0000000000000E+00
 0.8253871280512E+00 -0.3883609592798E+01  0.0000000000000E+00
 0.8255161707578E+00 -0.3743464549388E+01  0.0000000000000E+00
 0.8256452134617E+00 -0.3603319508872E+01  0.0000000000000E+00
 0.8257742563010E+00 -0.3463174321324E+01  0.0000000000000E+00
 0.8259032992601E+00 -0.3323029003691E+01  0.0000000000000E+00
 0.8260323415633E+00 -0.3182884398404E+01  0.0000000000000E+00
 0.8261613841544E+00 -0.3042739480398E+01  0.0000000000000E+00
 0.8262973301294E+00 -0.2902594591353E+01  0.0000000000000E+00
 0.8274864964698E+00 -0.2762460618459E+01  0.0000000000000E+00
 0.8322402415205E+00 -0.2622466313816E+01  0.0000000000000E+00
 0.8414635149845E+00 -0.2482876092086E+01  0.0000000000000E+00
 0.8550890288630E+00 -0.2343939385871E+01  0.0000000000000E+00
 0.8730328662242E+00 -0.2205899996038E+01  0.0000000000000E+00
 0.8954453837691E+00 -0.2069058551904E+01  0.0000000000000E+00
 0.9220717610531E+00 -0.1933601821620E+01  0.0000000000000E+00
 0.9526550640919E+00 -0.1799682160523E+01  0.0000000000000E+00
 0.9873183077263E+00 -0.1667597299948E+01  0.0000000000000E+00
 0.1026641580862E+01 -0.1537933055620E+01  0.0000000000000E+00
 0.8801227526612E+00 -0.4164605862042E+01  0.0000000000000E+00
 0.8802455053430E+00 -0.4025167052030E+01  0.0000000000000E+00
 0.8803682580483E+00 -0.3885728215428E+01  0.0000000000000E+00
 0.8804910107528E+00 -0.3746289379686E+01  0.0000000000000E+00
 0.8806137634548E+00 -0.3606850546824E+01  0.0000000000000E+00
 0.8807365162855E+00 -0.3467411567670E+01  0.0000000000000E+00
 0.8808592692302E+00 -0.3327972459088E+01  0.0000000000000E+00
 0.8809820215509E+00 -0.3188534059261E+01  0.0000000000000E+00
 0.8811047741456E+00 -0.3049095348291E+01  0.0000000000000E+00
 0.8812348934061E+00 -0.2909656666139E+01  0.0000000000000E+00
 0.8824889139179E+00 -0.2770228882217E+01  0.0000000000000E+00
 0.8875467289882E+00 -0.2630940731864E+01  0.0000000000000E+00
 0.8973740179636E+00 -0.2492056656920E+01  0.0000000000000E+00
 0.9118989768486E+00 -0.2353826107473E+01  0.0000000000000E+00
 0.9310320574458E+00 -0.2216492869689E+01  0.0000000000000E+00
 0.9549337067125E+00 -0.2080357573977E+01  0.0000000000000E+00
 0.9833320031794E+00 -0.1945607002375E+01  0.0000000000000E+00
 0.1015952770480E+01 -0.1812393501412E+01  0.0000000000000E+00
 0.1052927279116E+01 -0.1681014789925E+01  0.0000000000000E+00
 0.1094874547539E+01 -0.1552056665082E+01  0.0000000000000E+00
 0.9351071625386E+00 -0.4165355383182E+01  0.0000000000000E+00
 0.9352143250951E+00 -0.4026666094435E+01  0.0000000000000E+00
 0.9353214876721E+00 -0.3887976779241E+01  0.0000000000000E+00
 0.9354286502485E+00 -0.3749287464903E+01  0.0000000000000E+00
 0.9355358128226E+00 -0.3610598153429E+01  0.0000000000000E+00
 0.9356429755092E+00 -0.3471908696450E+01  0.0000000000000E+00
 0.9357501382952E+00 -0.3333219110738E+01  0.0000000000000E+00
 0.9358573005366E+00 -0.3194530229972E+01  0.0000000000000E+00
 0.9359644630170E+00 -0.3055841039736E+01  0.0000000000000E+00
 0.9360794554472E+00 -0.2917151878163E+01  0.0000000000000E+00
 0.9373890302784E+00 -0.2778473595801E+01  0.0000000000000E+00
 0.9427416160660E+00 -0.2639934910201E+01  0.0000000000000E+00
 0.9531636214662E+00 -0.2501800292046E+01  0.0000000000000E+00
 0.9685787262547E+00 -0.2364319209979E+01  0.0000000000000E+00
 0.9888917511598E+00 -0.2227735434568E+01  0.0000000000000E+00
 0.1014273233385E+01 -0.2092349597379E+01  0.0000000000000E+00
 0.1044434150246E+01 -0.1958348495191E+01  0.0000000000000E+00
 0.1079083083104E+01 -0.1825884465182E+01  0.0000000000000E+00
 0.1118359558289E+01 -0.1695255212926E+01  0.0000000000000E+00
 0.1162921524060E+01 -0.1567046515895E+01  0.0000000000000E+00
 0.9900818009967E+00 -0.4166147731619E+01  0.0000000000000E+00
 0.9901636020073E+00 -0.4028250791442E+01  0.0000000000000E+00
 0.9902454030334E+00 -0.3890353824970E+01  0.0000000000000E+00
 0.9903272040590E+00 -0.3752456859348E+01  0.0000000000000E+00
 0.9904090050829E+00 -0.3614559896574E+01  0.0000000000000E+00
 0.9904908061926E+00 -0.3476662789126E+01  0.0000000000000E+00
 0.9905726073782E+00 -0.3338765553681E+01  0.0000000000000E+00
 0.9906544081481E+00 -0.3200869019154E+01  0.0000000000000E+00
 0.9907362091005E+00 -0.3062972176925E+01  0.0000000000000E+00
 0.9908263032885E+00 -0.2925075363198E+01  0.0000000000000E+00
 0.9921816612505E+00 -0.2787189408576E+01  0.0000000000000E+00
 0.9978192469641E+00 -0.2649443011802E+01  0.0000000000000E+00
 0.1008826197998E+01 -0.2512100674057E+01  0.0000000000000E+00
 0.1025121677659E+01 -0.2375411883596E+01  0.0000000000000E+00
 0.1046604875805E+01 -0.2239620394497E+01  0.0000000000000E+00
 0.1073456419869E+01 -0.2105026839552E+01  0.0000000000000E+00
 0.1105370185765E+01 -0.1971818031119E+01  0.0000000000000E+00
 0.1142037512709E+01 -0.1840146296494E+01  0.0000000000000E+00
 0.1183606183030E+01 -0.1710309327229E+01  0.0000000000000E+00
 0.1230773075037E+01 -0.1582892879975E+01  0.0000000000000E+00
 0.1045046223052E+01 -0.4166982403876E+01  0.0000000000000E+00
 0.1045092446112E+01 -0.4029920136097E+01  0.0000000000000E+00
 0.1045138669180E+01 -0.3892857842181E+01  0.0000000000000E+00
 0.1045184892248E+01 -0.3755795549111E+01  0.0000000000000E+00
 0.1045231115316E+01 -0.3618733258871E+01  0.0000000000000E+00
 0.1045277338431E+01 -0.3481670824833E+01  0.0000000000000E+00
 0.1045323561590E+01 -0.3344608263573E+01  0.0000000000000E+00
 0.1045369784514E+01 -0.3207546398988E+01  0.0000000000000E+00
 0.1045416007541E+01 -0.3070484228564E+01  0.0000000000000E+00
 0.1045470987091E+01 -0.2933422086471E+01  0.0000000000000E+00
 0.1046861912070E+01 -0.2796370782303E+01  0.0000000000000E+00
 0.1052774282170E+01 -0.2659458994993E+01  0.0000000000000E+00
 0.1064355963499E+01 -0.2522951257843E+01  0.0000000000000E+00
 0.1081521602640E+01 -0.2387097079773E+01  0.0000000000000E+00
 0.1104164758793E+01 -0.2252140197489E+01  0.0000000000000E+00
 0.1132476149605E+01 -0.2118381245072E+01  0.0000000000000E+00
 0.1166132549384E+01 -0.1986007051293E+01  0.0000000000000E+00
 0.1204808055323E+01 -0.1855169933038E+01  0.0000000000000E+00
 0.1248658705933E+01 -0.1726167567089E+01  0.0000000000000E+00
 0.1298420309852E+01 -0.1599585688162E+01  0.0000000000000E+00
-0.6428079475289E+00 -0.1172076972089E+01  0.0000000000000E+00
-0.6445725414276E+00 -0.1001378991910E+01  0.0000000000000E+00
-0.6478510113258E+00 -0.8307079029823E+00  0.0000000000000E+00
-0.6528951459130E+00 -0.6600888595986E+00  0.0000000000000E+00
-0.6593381371986E+00 -0.4895264917391E+00  0.0000000000000E+00
-0.6657811281315E+00 -0.3189641238667E+00  0.0000000000000E+00
-0.6708252618112E+00 -0.1483450804569E+00  0.0000000000000E+00
-0.6741037305066E+00  0.2232600849347E-01  0.0000000000000E+00
-0.6758683230797E+00  0.1930239886852E+00  0.0000000000000E+00
-0.5717622019252E+00 -0.1163097080089E+01  0.0000000000000E+00
-0.5734202106823E+00 -0.9915189097050E+00  0.0000000000000E+00
-0.5764238865398E+00 -0.8199676323119E+00  0.0000000000000E+00
-0.5809970417873E+00 -0.6484684004727E+00  0.0000000000000E+00
-0.5868136252857E+00 -0.4770258406587E+00  0.0000000000000E+00
-0.5926302084314E+00 -0.3055832808331E+00  0.0000000000000E+00
-0.5972033627714E+00 -0.1340840489707E+00  0.0000000000000E+00
-0.6002070374260E+00  0.3746722844213E-01  0.0000000000000E+00
-0.6018650448575E+00  0.2090453988374E+00  0.0000000000000E+00
-0.5005853102949E+00 -0.1155150522808E+01  0.0000000000000E+00
-0.5021063992260E+00 -0.9827861299403E+00  0.0000000000000E+00
-0.5048049465676E+00 -0.8104486316177E+00  0.0000000000000E+00
-0.5088767881748E+00 -0.6381631788575E+00  0.0000000000000E+00
-0.5140366296026E+00 -0.4659343949968E+00  0.0000000000000E+00
-0.5191964706777E+00 -0.2937056111261E+00  0.0000000000000E+00
-0.5232683113774E+00 -0.1214201583456E+00  0.0000000000000E+00
-0.5259668575162E+00  0.5091733999426E-01  0.0000000000000E+00
-0.5274879451216E+00  0.2232817328716E+00  0.0000000000000E+00
-0.4292924458054E+00 -0.1148245728622E+01  0.0000000000000E+00
-0.4306493041388E+00 -0.9751924874222E+00  0.0000000000000E+00
-0.4330154122864E+00 -0.8021661421289E+00  0.0000000000000E+00
-0.4365586296214E+00 -0.6291918424054E+00  0.0000000000000E+00
-0.4410344182749E+00 -0.4562742088428E+00  0.0000000000000E+00
-0.4455102065756E+00 -0.2833565752716E+00  0.0000000000000E+00
-0.4490534230032E+00 -0.1103822755307E+00  0.0000000000000E+00
-0.4514195299479E+00  0.6264406977736E-01  0.0000000000000E+00
-0.4527763869556E+00  0.2356973109854E+00  0.0000000000000E+00
-0.3578991857854E+00 -0.1142390156027E+01  0.0000000000000E+00
-0.3590678354036E+00 -0.9687485164622E+00  0.0000000000000E+00
-0.3610775263391E+00 -0.7951337739660E+00  0.0000000000000E+00
-0.3640681414448E+00 -0.6215710770455E+00  0.0000000000000E+00
-0.3678358993193E+00 -0.4480650439469E+00  0.0000000000000E+00
-0.3716036568411E+00 -0.2745590108411E+00  0.0000000000000E+00
-0.3745942710393E+00 -0.1009963139061E+00  0.0000000000000E+00
-0.3766039607719E+00  0.7261842860244E-01  0.0000000000000E+00
-0.3777726090644E+00  0.2462600681747E+00  0.0000000000000E+00
-0.2864215855890E+00 -0.1137590239147E+01  0.0000000000000E+00
-0.2873816210134E+00 -0.9634633425220E+00  0.0000000000000E+00
-0.2890144893591E+00 -0.7893633439243E+00  0.0000000000000E+00
-0.2914320969289E+00 -0.6153153909072E+00  0.0000000000000E+00
-0.2944714186929E+00 -0.4413240997829E+00  0.0000000000000E+00
-0.2975107401042E+00 -0.2673328086529E+00  0.0000000000000E+00
-0.2999283467665E+00 -0.9328485562423E-01  0.0000000000000E+00
-0.3015612139093E+00  0.8081514298333E-01  0.0000000000000E+00
-0.3025212480080E+00  0.2549420396143E+00  0.0000000000000E+00
-0.2148760528319E+00 -0.1133851325356E+01  0.0000000000000E+00
-0.2156108655255E+00 -0.9593445794947E+00  0.0000000000000E+00
-0.2168503028290E+00 -0.7848647324114E+00  0.0000000000000E+00
-0.2186782944709E+00 -0.6104369309123E+00  0.0000000000000E+00
-0.2209725717140E+00 -0.4360657897959E+00  0.0000000000000E+00
-0.2232668486044E+00 -0.2616946486752E+00  0.0000000000000E+00
-0.2250948393388E+00 -0.8726684716740E-01  0.0000000000000E+00
-0.2263342754395E+00  0.8721299992331E-01  0.0000000000000E+00
-0.2270690868073E+00  0.2617197457887E+00  0.0000000000000E+00
-0.1432792800287E+00 -0.1131177627176E+01  0.0000000000000E+00
-0.1437762464154E+00 -0.9563982442783E+00  0.0000000000000E+00
-0.1446096291476E+00 -0.7816457606963E+00  0.0000000000000E+00
-0.1458353813581E+00 -0.6069453227008E+00  0.0000000000000E+00
-0.1473719905470E+00 -0.4323015440042E+00  0.0000000000000E+00
-0.1489085993831E+00 -0.2576577653047E+00  0.0000000000000E+00
-0.1501343506860E+00 -0.8295732730341E-01  0.0000000000000E+00
-0.1509677322153E+00  0.9179515628351E-01  0.0000000000000E+00
-0.1514646972764E+00  0.2665745391843E+00  0.0000000000000E+00
-0.7164822860673E-01 -0.1129572184387E+01  0.0000000000000E+00
-0.7189884966313E-01 -0.9546286881243E+00  0.0000000000000E+00
-0.7231767885223E-01 -0.7797120915013E+00  0.0000000000000E+00
-0.7293269270050E-01 -0.6048475404658E+00  0.0000000000000E+00
-0.7370313490275E-01 -0.4300396480768E+00  0.0000000000000E+00
-0.7447357675223E-01 -0.2552317556864E+00  0.0000000000000E+00
-0.7508858969298E-01 -0.8036720464800E-01  0.0000000000000E+00
-0.7550741767918E-01  0.9454939197745E-01  0.0000000000000E+00
-0.7575803740985E-01  0.2694928882412E+00  0.0000000000000E+00
 0.5524736011661E-08 -0.1129036832222E+01  0.0000000000000E+00
 0.4171790811275E-08 -0.9540385425029E+00  0.0000000000000E+00
 0.2880364772908E-08 -0.7790671525299E+00  0.0000000000000E+00
 0.1737109607311E-08 -0.6041478081441E+00  0.0000000000000E+00
 0.8719450676882E-09 -0.4292851221871E+00  0.0000000000000E+00
 0.3595448458221E-09 -0.2544224362301E+00  0.0000000000000E+00
 0.1238229648589E-09 -0.7950309184428E-01  0.0000000000000E+00
 0.3529816344305E-10  0.9546829812865E-01  0.0000000000000E+00
 0.8104325914218E-11  0.2704665878481E+00  0.0000000000000E+00
 0.7164823965508E-01 -0.1129572184556E+01  0.0000000000000E+00
 0.7189885800572E-01 -0.9546286882748E+00  0.0000000000000E+00
 0.7231768461208E-01 -0.7797120916309E+00  0.0000000000000E+00
 0.7293269617397E-01 -0.6048475405725E+00  0.0000000000000E+00
 0.7370313664601E-01 -0.4300396481608E+00  0.0000000000000E+00
 0.7447357747082E-01 -0.2552317557506E+00  0.0000000000000E+00
 0.7508858994025E-01 -0.8036720469512E-01  0.0000000000000E+00
 0.7550741774953E-01  0.9454939194626E-01  0.0000000000000E+00
 0.7575803742593E-01  0.2694928882256E+00  0.0000000000000E+00
 0.1432792910737E+00 -0.1131177627514E+01  0.0000000000000E+00
 0.1437762547550E+00 -0.9563982445790E+00  0.0000000000000E+00
 0.1446096349048E+00 -0.7816457609553E+00  0.0000000000000E+00
 0.1458353848293E+00 -0.6069453229140E+00  0.0000000000000E+00
 0.1473719922884E+00 -0.4323015441721E+00  0.0000000000000E+00
 0.1489086001002E+00 -0.2576577654331E+00  0.0000000000000E+00
 0.1501343509322E+00 -0.8295732739760E-01  0.0000000000000E+00
 0.1509677322849E+00  0.9179515622118E-01  0.0000000000000E+00
 0.1514646972921E+00  0.2665745391532E+00  0.0000000000000E+00
 0.2148760638713E+00 -0.1133851325862E+01  0.0000000000000E+00
 0.2156108738601E+00 -0.9593445799456E+00  0.0000000000000E+00
 0.2168503085819E+00 -0.7848647327997E+00  0.0000000000000E+00
 0.2186782979384E+00 -0.6104369312320E+00  0.0000000000000E+00
 0.2209725734523E+00 -0.4360657900476E+00  0.0000000000000E+00
 0.2232668493190E+00 -0.2616946488676E+00  0.0000000000000E+00
 0.2250948395831E+00 -0.8726684730858E-01  0.0000000000000E+00
 0.2263342755078E+00  0.8721299982987E-01  0.0000000000000E+00
 0.2270690868224E+00  0.2617197457421E+00  0.0000000000000E+00
 0.2864215966206E+00 -0.1137590239822E+01  0.0000000000000E+00
 0.2873816293411E+00 -0.9634633431226E+00  0.0000000000000E+00
 0.2890144951059E+00 -0.7893633444416E+00  0.0000000000000E+00
 0.2914321003912E+00 -0.6153153913331E+00  0.0000000000000E+00
 0.2944714204269E+00 -0.4413241001183E+00  0.0000000000000E+00
 0.2975107408153E+00 -0.2673328089091E+00  0.0000000000000E+00
 0.2999283470082E+00 -0.9328485581228E-01  0.0000000000000E+00
 0.3015612139760E+00  0.8081514285887E-01  0.0000000000000E+00
 0.3025212480222E+00  0.2549420395522E+00  0.0000000000000E+00
 0.3578991968070E+00 -0.1142390156869E+01  0.0000000000000E+00
 0.3590678437224E+00 -0.9687485172122E+00  0.0000000000000E+00
 0.3610775320781E+00 -0.7951337746119E+00  0.0000000000000E+00
 0.3640681449004E+00 -0.6215710775773E+00  0.0000000000000E+00
 0.3678359010477E+00 -0.4480650443656E+00  0.0000000000000E+00
 0.3716036575478E+00 -0.2745590111610E+00  0.0000000000000E+00
 0.3745942712777E+00 -0.1009963141409E+00  0.0000000000000E+00
 0.3766039608363E+00  0.7261842844706E-01  0.0000000000000E+00
 0.3777726090775E+00  0.2462600680972E+00  0.0000000000000E+00
 0.4292924568149E+00 -0.1148245729631E+01  0.0000000000000E+00
 0.4306493124468E+00 -0.9751924883211E+00  0.0000000000000E+00
 0.4330154180159E+00 -0.8021661429030E+00  0.0000000000000E+00
 0.4365586330689E+00 -0.6291918430427E+00  0.0000000000000E+00
 0.4410344199965E+00 -0.4562742093445E+00  0.0000000000000E+00
 0.4455102072769E+00 -0.2833565756550E+00  0.0000000000000E+00
 0.4490534232375E+00 -0.1103822758120E+00  0.0000000000000E+00
 0.4514195300096E+00  0.6264406959120E-01  0.0000000000000E+00
 0.4527763869673E+00  0.2356973108925E+00  0.0000000000000E+00
 0.5005853212899E+00 -0.1155150523983E+01  0.0000000000000E+00
 0.5021064075213E+00 -0.9827861309873E+00  0.0000000000000E+00
 0.5048049522860E+00 -0.8104486325194E+00  0.0000000000000E+00
 0.5088767916127E+00 -0.6381631795998E+00  0.0000000000000E+00
 0.5140366313163E+00 -0.4659343955811E+00  0.0000000000000E+00
 0.5191964713726E+00 -0.2937056115725E+00  0.0000000000000E+00
 0.5232683116069E+00 -0.1214201586732E+00  0.0000000000000E+00
 0.5259668575747E+00  0.5091733977747E-01  0.0000000000000E+00
 0.5274879451318E+00  0.2232817327634E+00  0.0000000000000E+00
 0.5717622129039E+00 -0.1163097081430E+01  0.0000000000000E+00
 0.5734202189629E+00 -0.9915189108996E+00  0.0000000000000E+00
 0.5764238922454E+00 -0.8199676333406E+00  0.0000000000000E+00
 0.5809970452143E+00 -0.6484684013195E+00  0.0000000000000E+00
 0.5868136269902E+00 -0.4770258413251E+00  0.0000000000000E+00
 0.5926302091190E+00 -0.3055832813422E+00  0.0000000000000E+00
 0.5972033629954E+00 -0.1340840493443E+00  0.0000000000000E+00
 0.6002070374809E+00  0.3746722819490E-01  0.0000000000000E+00
 0.6018650448658E+00  0.2090453987140E+00  0.0000000000000E+00
 0.6428079584890E+00 -0.1172076973595E+01  0.0000000000000E+00
 0.6445725496918E+00 -0.1001378993252E+01  0.0000000000000E+00
 0.6478510170170E+00 -0.8307079041373E+00  0.0000000000000E+00
 0.6528951493277E+00 -0.6600888605492E+00  0.0000000000000E+00
 0.6593381388929E+00 -0.4895264924872E+00  0.0000000000000E+00
 0.6657811288108E+00 -0.3189641244382E+00  0.0000000000000E+00
 0.6708252620291E+00 -0.1483450808761E+00  0.0000000000000E+00
 0.6741037305573E+00  0.2232600821599E-01  0.0000000000000E+00
 0.6758683230860E+00  0.1930239885468E+00  0.0000000000000E+00
-0.1493912699900E+01 -0.1245948640961E+01  0.0000000000000E+00
-0.1632114179481E+01 -0.1015235929788E+01  0.0000000000000E+00
-0.1741724987958E+01 -0.7685711016251E+00  0.0000000000000E+00
-0.1820766194995E+01 -0.5096924415063E+00  0.0000000000000E+00
-0.1865967729498E+01 -0.2423545704136E+00  0.0000000000000E+00
-0.1873120644158E+01  0.2887340610501E-01  0.0000000000000E+00
-0.1807462272798E+01  0.2894599333017E+00  0.0000000000000E+00
-0.1655564266959E+01  0.5093676183748E+00  0.0000000000000E+00
-0.1461284529476E+01  0.6904096839716E+00  0.0000000000000E+00
-0.1407911610363E+01 -0.1235569498233E+01  0.0000000000000E+00
-0.1530885042842E+01 -0.1011998013791E+01  0.0000000000000E+00
-0.1628631455275E+01 -0.7742498073865E+00  0.0000000000000E+00
-0.1699422876353E+01 -0.5256506283837E+00  0.0000000000000E+00
-0.1740307292582E+01 -0.2695384262787E+00  0.0000000000000E+00
-0.1747370706685E+01 -0.9968389857222E-02  0.0000000000000E+00
-0.1689540644756E+01  0.2401506118249E+00  0.0000000000000E+00
-0.1554834933667E+01  0.4541153997418E+00  0.0000000000000E+00
-0.1382269552347E+01  0.6335353740062E+00  0.0000000000000E+00
-0.1321717468671E+01 -0.1225990155986E+01  0.0000000000000E+00
-0.1429484329607E+01 -0.1009470946930E+01  0.0000000000000E+00
-0.1515387817702E+01 -0.7805504227981E+00  0.0000000000000E+00
-0.1577950922623E+01 -0.5421417890339E+00  0.0000000000000E+00
-0.1614539688037E+01 -0.2971663252531E+00  0.0000000000000E+00
-0.1621535070117E+01 -0.4916528912248E-01  0.0000000000000E+00
-0.1571554682145E+01  0.1905747042462E+00  0.0000000000000E+00
-0.1454062688287E+01  0.3986853612403E+00  0.0000000000000E+00
-0.1303233118844E+01  0.5765721518443E+00  0.0000000000000E+00
-0.1235338664721E+01 -0.1217220128470E+01  0.0000000000000E+00
-0.1327919486188E+01 -0.1007663185251E+01  0.0000000000000E+00
-0.1402000580163E+01 -0.7874803468363E+00  0.0000000000000E+00
-0.1456355899294E+01 -0.5591722661683E+00  0.0000000000000E+00
-0.1488669544153E+01 -0.3252435543734E+00  0.0000000000000E+00
-0.1495617427797E+01 -0.8872152318509E-01  0.0000000000000E+00
-0.1453507152202E+01  0.1407290302321E+00  0.0000000000000E+00
-0.1353249374514E+01  0.3430753791977E+00  0.0000000000000E+00
-0.1224176150134E+01  0.5195189545757E+00  0.0000000000000E+00
-0.1148784126122E+01 -0.1209268607751E+01  0.0000000000000E+00
-0.1226198458988E+01 -0.1006582898571E+01  0.0000000000000E+00
-0.1288476705889E+01 -0.7950467260992E+00  0.0000000000000E+00
-0.1334643784206E+01 -0.5767481823590E+00  0.0000000000000E+00
-0.1362701850985E+01 -0.3537752116567E+00  0.0000000000000E+00
-0.1369621779253E+01 -0.1286411651334E+00  0.0000000000000E+00
-0.1335401063674E+01  0.9061053604662E-01  0.0000000000000E+00
-0.1252397001676E+01  0.2872834192639E+00  0.0000000000000E+00
-0.1145099651710E+01  0.4623747661662E+00  0.0000000000000E+00
-0.1062062983396E+01 -0.1202144369658E+01  0.0000000000000E+00
-0.1124329355888E+01 -0.1006237886659E+01  0.0000000000000E+00
-0.1174823281550E+01 -0.8032563851118E+00  0.0000000000000E+00
-0.1212820644252E+01 -0.5948753874537E+00  0.0000000000000E+00
-0.1236641657216E+01 -0.3827661726965E+00  0.0000000000000E+00
-0.1243552156475E+01 -0.1689281163730E+00  0.0000000000000E+00
-0.1217239439725E+01  0.4021629028167E-01  0.0000000000000E+00
-0.1151507584842E+01  0.2313075245172E+00  0.0000000000000E+00
-0.1066004630648E+01  0.4051386074055E+00  0.0000000000000E+00
-0.9751847697070E+00 -0.1195855786589E+01  0.0000000000000E+00
-0.1022320650200E+01 -0.1006635590763E+01  0.0000000000000E+00
-0.1061047720681E+01 -0.8121158340625E+00  0.0000000000000E+00
-0.1090892833159E+01 -0.6135594605944E+00  0.0000000000000E+00
-0.1110494256751E+01 -0.4122210856250E+00  0.0000000000000E+00
-0.1117412793346E+01 -0.2095860939228E+00  0.0000000000000E+00
-0.1099025459080E+01 -0.1045649741365E-01  0.0000000000000E+00
-0.1050583244399E+01  0.1751458337972E+00  0.0000000000000E+00
-0.9868921472004E+00  0.3478095477247E+00  0.0000000000000E+00
-0.8881593748716E+00 -0.1190410790924E+01  0.0000000000000E+00
-0.9201811355569E+00 -0.1007783061068E+01  0.0000000000000E+00
-0.9471577202152E+00 -0.8216312407101E+00  0.0000000000000E+00
-0.9688669504882E+00 -0.6328056868796E+00  0.0000000000000E+00
-0.9842651510562E+00 -0.4421443527462E+00  0.0000000000000E+00
-0.9912080922863E+00 -0.2506186171164E+00  0.0000000000000E+00
-0.9807624287546E+00 -0.6141046782172E-01  0.0000000000000E+00
-0.9496261869906E+00  0.1187965864475E+00  0.0000000000000E+00
-0.9077633049796E+00  0.2903867071423E+00  0.0000000000000E+00
-0.8009969614158E+00 -0.1185816836835E+01  0.0000000000000E+00
-0.8179198426556E+00 -0.1009686922706E+01  0.0000000000000E+00
-0.8331611794591E+00 -0.8318084014129E+00  0.0000000000000E+00
-0.8467497645126E+00 -0.6526190340470E+00  0.0000000000000E+00
-0.8579599777782E+00 -0.4725401133079E+00  0.0000000000000E+00
-0.8649425605567E+00 -0.2920289966644E+00  0.0000000000000E+00
-0.8624537316589E+00 -0.1126481069538E+00  0.0000000000000E+00
-0.8486386687954E+00  0.6225812387342E-01  0.0000000000000E+00
-0.8286192320009E+00  0.2328692561765E+00  0.0000000000000E+00
 0.8009969712356E+00 -0.1185816838491E+01  0.0000000000000E+00
 0.8179198500446E+00 -0.1009686924186E+01  0.0000000000000E+00
 0.8331611845332E+00 -0.8318084026986E+00  0.0000000000000E+00
 0.8467497675458E+00 -0.6526190351224E+00  0.0000000000000E+00
 0.8579599792759E+00 -0.4725401141749E+00  0.0000000000000E+00
 0.8649425611529E+00 -0.2920289973475E+00  0.0000000000000E+00
 0.8624537318677E+00 -0.1126481074711E+00  0.0000000000000E+00
 0.8486386688771E+00  0.6225812351732E-01  0.0000000000000E+00
 0.8286192320618E+00  0.2328692559799E+00  0.0000000000000E+00
 0.8881593835745E+00 -0.1190410792534E+01  0.0000000000000E+00
 0.9201811420918E+00 -0.1007783062512E+01  0.0000000000000E+00
 0.9471577246905E+00 -0.8216312419750E+00  0.0000000000000E+00
 0.9688669531555E+00 -0.6328056879542E+00  0.0000000000000E+00
 0.9842651523705E+00 -0.4421443536322E+00  0.0000000000000E+00
 0.9912080928098E+00 -0.2506186178343E+00  0.0000000000000E+00
 0.9807624289621E+00 -0.6141046838041E-01  0.0000000000000E+00
 0.9496261871083E+00  0.1187965860503E+00  0.0000000000000E+00
 0.9077633050977E+00  0.2903867069063E+00  0.0000000000000E+00
 0.9751847772968E+00 -0.1195855788119E+01  0.0000000000000E+00
 0.1022320655883E+01 -0.1006635592141E+01  0.0000000000000E+00
 0.1061047724560E+01 -0.8121158352806E+00  0.0000000000000E+00
 0.1090892835463E+01 -0.6135594616459E+00  0.0000000000000E+00
 0.1110494257883E+01 -0.4122210865117E+00  0.0000000000000E+00
 0.1117412793798E+01 -0.2095860946607E+00  0.0000000000000E+00
 0.1099025459288E+01 -0.1045649800265E-01  0.0000000000000E+00
 0.1050583244554E+01  0.1751458333663E+00  0.0000000000000E+00
 0.9868921473761E+00  0.3478095474530E+00  0.0000000000000E+00
 0.1062062989877E+01 -0.1202144371075E+01  0.0000000000000E+00
 0.1124329360724E+01 -0.1006237887942E+01  0.0000000000000E+00
 0.1174823284836E+01 -0.8032563862574E+00  0.0000000000000E+00
 0.1212820646195E+01 -0.5948753884603E+00  0.0000000000000E+00
 0.1236641658170E+01 -0.3827661735655E+00  0.0000000000000E+00
 0.1243552156858E+01 -0.1689281171164E+00  0.0000000000000E+00
 0.1217239439933E+01  0.4021628967337E-01  0.0000000000000E+00
 0.1151507585035E+01  0.2313075240599E+00  0.0000000000000E+00
 0.1066004630881E+01  0.4051386071018E+00  0.0000000000000E+00
 0.1148784131499E+01 -0.1209268609022E+01  0.0000000000000E+00
 0.1226198462982E+01 -0.1006582899729E+01  0.0000000000000E+00
 0.1288476708587E+01 -0.7950467271470E+00  0.0000000000000E+00
 0.1334643785792E+01 -0.5767481832988E+00  0.0000000000000E+00
 0.1362701851763E+01 -0.3537752124899E+00  0.0000000000000E+00
 0.1369621779569E+01 -0.1286411658677E+00  0.0000000000000E+00
 0.1335401063885E+01  0.9061053542988E-01  0.0000000000000E+00
 0.1252397001908E+01  0.2872834187875E+00  0.0000000000000E+00
 0.1145099652002E+01  0.4623747658340E+00  0.0000000000000E+00
 0.1235338668999E+01 -0.1217220129564E+01  0.0000000000000E+00
 0.1327919489344E+01 -0.1007663186256E+01  0.0000000000000E+00
 0.1402000582276E+01 -0.7874803477613E+00  0.0000000000000E+00
 0.1456355900526E+01 -0.5591722670199E+00  0.0000000000000E+00
 0.1488669544757E+01 -0.3252435551529E+00  0.0000000000000E+00
 0.1495617428049E+01 -0.8872152389594E-01  0.0000000000000E+00
 0.1453507152418E+01  0.1407290296177E+00  0.0000000000000E+00
 0.1353249374785E+01  0.3430753787092E+00  0.0000000000000E+00
 0.1224176150486E+01  0.5195189542187E+00  0.0000000000000E+00
 0.1321717471856E+01 -0.1225990156871E+01  0.0000000000000E+00
 0.1429484331930E+01 -0.1009470947754E+01  0.0000000000000E+00
 0.1515387819235E+01 -0.7805504235757E+00  0.0000000000000E+00
 0.1577950923506E+01 -0.5421417897762E+00  0.0000000000000E+00
 0.1614539688471E+01 -0.2971663259614E+00  0.0000000000000E+00
 0.1621535070306E+01 -0.4916528979589E-01  0.0000000000000E+00
 0.1571554682369E+01  0.1905747036446E+00  0.0000000000000E+00
 0.1454062688600E+01  0.3986853607469E+00  0.0000000000000E+00
 0.1303233119256E+01  0.5765721514660E+00  0.0000000000000E+00
 0.1407911612462E+01 -0.1235569498876E+01  0.0000000000000E+00
 0.1530885044338E+01 -0.1011998014406E+01  0.0000000000000E+00
 0.1628631456233E+01 -0.7742498079925E+00  0.0000000000000E+00
 0.1699422876890E+01 -0.5256506289959E+00  0.0000000000000E+00
 0.1740307292850E+01 -0.2695384268984E+00  0.0000000000000E+00
 0.1747370706816E+01 -0.9968390479329E-02  0.0000000000000E+00
 0.1689540644988E+01  0.2401506112465E+00  0.0000000000000E+00
 0.1554834934023E+01  0.4541153992504E+00  0.0000000000000E+00
 0.1382269552819E+01  0.6335353736101E+00  0.0000000000000E+00
 0.1493912700920E+01 -0.1245948641334E+01  0.0000000000000E+00
 0.1632114180156E+01 -0.1015235930167E+01  0.0000000000000E+00
 0.1741724988346E+01 -0.7685711020355E+00  0.0000000000000E+00
 0.1820766195191E+01 -0.5096924419680E+00  0.0000000000000E+00
 0.1865967729603E+01 -0.2423545709277E+00  0.0000000000000E+00
 0.1873120644233E+01  0.2887340554782E-01  0.0000000000000E+00
 0.1807462273042E+01  0.2894599327568E+00  0.0000000000000E+00
 0.1655564267360E+01  0.5093676178923E+00  0.0000000000000E+00
 0.1461284530009E+01  0.6904096835610E+00  0.0000000000000E+00
-0.7262154211400E+00  0.4220388918148E+00  0.0000000000000E+00
-0.7759671760782E+00  0.4803462986459E+00  0.0000000000000E+00
-0.8257189310165E+00  0.5386537054770E+00  0.0000000000000E+00
-0.8754706859548E+00  0.5969611123081E+00  0.0000000000000E+00
-0.9252224408930E+00  0.6552685191392E+00  0.0000000000000E+00
-0.9749741958313E+00  0.7135759259704E+00  0.0000000000000E+00
-0.1024725950770E+01  0.7718833328015E+00  0.0000000000000E+00
-0.1074477705708E+01  0.8301907396326E+00  0.0000000000000E+00
-0.1124229460646E+01  0.8884981464637E+00  0.0000000000000E+00
-0.6470599869664E+00  0.4421478324469E+00  0.0000000000000E+00
-0.6916362540626E+00  0.5036625773935E+00  0.0000000000000E+00
-0.7362125211588E+00  0.5651773223400E+00  0.0000000000000E+00
-0.7807887882550E+00  0.6266920672866E+00  0.0000000000000E+00
-0.8253650553512E+00  0.6882068122331E+00  0.0000000000000E+00
-0.8699413224474E+00  0.7497215571797E+00  0.0000000000000E+00
-0.9145175895436E+00  0.8112363021263E+00  0.0000000000000E+00
-0.9590938566398E+00  0.8727510470728E+00  0.0000000000000E+00
-0.1003670123736E+01  0.9342657920194E+00  0.0000000000000E+00
-0.5674541536864E+00  0.4603381160929E+00  0.0000000000000E+00
-0.6068086902216E+00  0.5250205862388E+00  0.0000000000000E+00
-0.6461632267567E+00  0.5897030563848E+00  0.0000000000000E+00
-0.6855177632919E+00  0.6543855265307E+00  0.0000000000000E+00
-0.7248722998271E+00  0.7190679966767E+00  0.0000000000000E+00
-0.7642268363623E+00  0.7837504668226E+00  0.0000000000000E+00
-0.8035813728974E+00  0.8484329369686E+00  0.0000000000000E+00
-0.8429359094326E+00  0.9131154071145E+00  0.0000000000000E+00
-0.8822904459678E+00  0.9777978772605E+00  0.0000000000000E+00
-0.4874864927934E+00  0.4767023850508E+00  0.0000000000000E+00
-0.5216192404544E+00  0.5446446960190E+00  0.0000000000000E+00
-0.5557519881153E+00  0.6125870069873E+00  0.0000000000000E+00
-0.5898847357762E+00  0.6805293179555E+00  0.0000000000000E+00
-0.6240174834372E+00  0.7484716289237E+00  0.0000000000000E+00
-0.6581502310981E+00  0.8164139398920E+00  0.0000000000000E+00
-0.6922829787591E+00  0.8843562508602E+00  0.0000000000000E+00
-0.7264157264200E+00  0.9522985618284E+00  0.0000000000000E+00
-0.7605484740810E+00  0.1020240872797E+01  0.0000000000000E+00
-0.4070743133994E+00  0.4908323142830E+00  0.0000000000000E+00
-0.4358569516264E+00  0.5617533974853E+00  0.0000000000000E+00
-0.4646395898535E+00  0.6326744806875E+00  0.0000000000000E+00
-0.4934222280806E+00  0.7035955638897E+00  0.0000000000000E+00
-0.5222048663076E+00  0.7745166470919E+00  0.0000000000000E+00
-0.5509875045347E+00  0.8454377302941E+00  0.0000000000000E+00
-0.5797701427618E+00  0.9163588134963E+00  0.0000000000000E+00
-0.6085527809888E+00  0.9872798966986E+00  0.0000000000000E+00
-0.6373354192159E+00  0.1058200979901E+01  0.0000000000000E+00
-0.3262058732712E+00  0.5024255397187E+00  0.0000000000000E+00
-0.3494501300712E+00  0.5757726186668E+00  0.0000000000000E+00
-0.3726943868712E+00  0.6491196976150E+00  0.0000000000000E+00
-0.3959386436712E+00  0.7224667765632E+00  0.0000000000000E+00
-0.4191829004712E+00  0.7958138555114E+00  0.0000000000000E+00
-0.4424271572712E+00  0.8691609344596E+00  0.0000000000000E+00
-0.4656714140712E+00  0.9425080134077E+00  0.0000000000000E+00
-0.4889156708712E+00  0.1015855092356E+01  0.0000000000000E+00
-0.5121599276713E+00  0.1089202171304E+01  0.0000000000000E+00
-0.2449696928514E+00  0.5114464367078E+00  0.0000000000000E+00
-0.2625252366944E+00  0.5866568563038E+00  0.0000000000000E+00
-0.2800807805375E+00  0.6618672758998E+00  0.0000000000000E+00
-0.2976363243805E+00  0.7370776954957E+00  0.0000000000000E+00
-0.3151918682236E+00  0.8122881150917E+00  0.0000000000000E+00
-0.3327474120667E+00  0.8874985346877E+00  0.0000000000000E+00
-0.3503029559097E+00  0.9627089542837E+00  0.0000000000000E+00
-0.3678584997528E+00  0.1037919373880E+01  0.0000000000000E+00
-0.3854140435958E+00  0.1113129793476E+01  0.0000000000000E+00
-0.1634632579838E+00  0.5179088773513E+00  0.0000000000000E+00
-0.1752246863765E+00  0.5944543064906E+00  0.0000000000000E+00
-0.1869861147692E+00  0.6709997356298E+00  0.0000000000000E+00
-0.1987475431619E+00  0.7475451647691E+00  0.0000000000000E+00
-0.2105089715546E+00  0.8240905939083E+00  0.0000000000000E+00
-0.2222703999473E+00  0.9006360230476E+00  0.0000000000000E+00
-0.2340318283400E+00  0.9771814521868E+00  0.0000000000000E+00
-0.2457932567327E+00  0.1053726881326E+01  0.0000000000000E+00
-0.2575546851254E+00  0.1130272310465E+01  0.0000000000000E+00
-0.8177747086543E-01  0.5218135049328E+00  0.0000000000000E+00
-0.8767620096390E-01  0.5991810988308E+00  0.0000000000000E+00
-0.9357493106237E-01  0.6765486927287E+00  0.0000000000000E+00
-0.9947366116083E-01  0.7539162866266E+00  0.0000000000000E+00
-0.1053723912593E+00  0.8312838805245E+00  0.0000000000000E+00
-0.1112711213578E+00  0.9086514744224E+00  0.0000000000000E+00
-0.1171698514562E+00  0.9860190683204E+00  0.0000000000000E+00
-0.1230685815547E+00  0.1063386662218E+01  0.0000000000000E+00
-0.1289673116532E+00  0.1140754256116E+01  0.0000000000000E+00
 0.4058808316585E-10  0.5231292357807E+00  0.0000000000000E+00
 0.8117646714002E-10  0.6007840673293E+00  0.0000000000000E+00
 0.1217649898921E-09  0.6784388988780E+00  0.0000000000000E+00
 0.1623534571330E-09  0.7560937304266E+00  0.0000000000000E+00
 0.2029419521295E-09  0.8337485619753E+00  0.0000000000000E+00
 0.2435305581482E-09  0.9114033935239E+00  0.0000000000000E+00
 0.2841190531447E-09  0.9890582250725E+00  0.0000000000000E+00
 0.3247077701858E-09  0.1066713056621E+01  0.0000000000000E+00
 0.3652960431377E-09  0.1144367888170E+01  0.0000000000000E+00
 0.8177747094646E-01  0.5218135049277E+00  0.0000000000000E+00
 0.8767620112596E-01  0.5991810988204E+00  0.0000000000000E+00
 0.9357493130547E-01  0.6765486927132E+00  0.0000000000000E+00
 0.9947366148497E-01  0.7539162866059E+00  0.0000000000000E+00
 0.1053723916645E+00  0.8312838804987E+00  0.0000000000000E+00
 0.1112711218440E+00  0.9086514743914E+00  0.0000000000000E+00
 0.1171698520235E+00  0.9860190682842E+00  0.0000000000000E+00
 0.1230685822030E+00  0.1063386662177E+01  0.0000000000000E+00
 0.1289673123825E+00  0.1140754256070E+01  0.0000000000000E+00
 0.1634632580644E+00  0.5179088773413E+00  0.0000000000000E+00
 0.1752246865377E+00  0.5944543064706E+00  0.0000000000000E+00
 0.1869861150110E+00  0.6709997355998E+00  0.0000000000000E+00
 0.1987475434844E+00  0.7475451647290E+00  0.0000000000000E+00
 0.2105089719577E+00  0.8240905938582E+00  0.0000000000000E+00
 0.2222704004310E+00  0.9006360229875E+00  0.0000000000000E+00
 0.2340318289043E+00  0.9771814521167E+00  0.0000000000000E+00
 0.2457932573776E+00  0.1053726881246E+01  0.0000000000000E+00
 0.2575546858510E+00  0.1130272310375E+01  0.0000000000000E+00
 0.2449696929314E+00  0.5114464366931E+00  0.0000000000000E+00
 0.2625252368544E+00  0.5866568562744E+00  0.0000000000000E+00
 0.2800807807774E+00  0.6618672758557E+00  0.0000000000000E+00
 0.2976363247005E+00  0.7370776954370E+00  0.0000000000000E+00
 0.3151918686235E+00  0.8122881150183E+00  0.0000000000000E+00
 0.3327474125465E+00  0.8874985345996E+00  0.0000000000000E+00
 0.3503029564696E+00  0.9627089541809E+00  0.0000000000000E+00
 0.3678585003926E+00  0.1037919373762E+01  0.0000000000000E+00
 0.3854140443156E+00  0.1113129793344E+01  0.0000000000000E+00
 0.3262058733503E+00  0.5024255396995E+00  0.0000000000000E+00
 0.3494501302294E+00  0.5757726186284E+00  0.0000000000000E+00
 0.3726943871084E+00  0.6491196975574E+00  0.0000000000000E+00
 0.3959386439875E+00  0.7224667764863E+00  0.0000000000000E+00
 0.4191829008666E+00  0.7958138554153E+00  0.0000000000000E+00
 0.4424271577456E+00  0.8691609343443E+00  0.0000000000000E+00
 0.4656714146247E+00  0.9425080132732E+00  0.0000000000000E+00
 0.4889156715038E+00  0.1015855092202E+01  0.0000000000000E+00
 0.5121599283828E+00  0.1089202171131E+01  0.0000000000000E+00
 0.4070743134774E+00  0.4908323142595E+00  0.0000000000000E+00
 0.4358569517824E+00  0.5617533974382E+00  0.0000000000000E+00
 0.4646395900874E+00  0.6326744806169E+00  0.0000000000000E+00
 0.4934222283925E+00  0.7035955637956E+00  0.0000000000000E+00
 0.5222048666975E+00  0.7745166469743E+00  0.0000000000000E+00
 0.5509875050026E+00  0.8454377301529E+00  0.0000000000000E+00
 0.5797701433076E+00  0.9163588133316E+00  0.0000000000000E+00
 0.6085527816127E+00  0.9872798965103E+00  0.0000000000000E+00
 0.6373354199177E+00  0.1058200979689E+01  0.0000000000000E+00
 0.4874864928703E+00  0.4767023850238E+00  0.0000000000000E+00
 0.5216192406082E+00  0.5446446959651E+00  0.0000000000000E+00
 0.5557519883461E+00  0.6125870069063E+00  0.0000000000000E+00
 0.5898847360840E+00  0.6805293178476E+00  0.0000000000000E+00
 0.6240174838218E+00  0.7484716287888E+00  0.0000000000000E+00
 0.6581502315597E+00  0.8164139397300E+00  0.0000000000000E+00
 0.6922829792976E+00  0.8843562506713E+00  0.0000000000000E+00
 0.7264157270354E+00  0.9522985616125E+00  0.0000000000000E+00
 0.7605484747733E+00  0.1020240872554E+01  0.0000000000000E+00
 0.5674541537630E+00  0.4603381160649E+00  0.0000000000000E+00
 0.6068086903747E+00  0.5250205861830E+00  0.0000000000000E+00
 0.6461632269865E+00  0.5897030563010E+00  0.0000000000000E+00
 0.6855177635982E+00  0.6543855264191E+00  0.0000000000000E+00
 0.7248723002099E+00  0.7190679965371E+00  0.0000000000000E+00
 0.7642268368217E+00  0.7837504666552E+00  0.0000000000000E+00
 0.8035813734334E+00  0.8484329367732E+00  0.0000000000000E+00
 0.8429359100452E+00  0.9131154068912E+00  0.0000000000000E+00
 0.8822904466569E+00  0.9777978770093E+00  0.0000000000000E+00
 0.6470599870427E+00  0.4421478324182E+00  0.0000000000000E+00
 0.6916362542152E+00  0.5036625773361E+00  0.0000000000000E+00
 0.7362125213877E+00  0.5651773222539E+00  0.0000000000000E+00
 0.7807887885601E+00  0.6266920671718E+00  0.0000000000000E+00
 0.8253650557326E+00  0.6882068120896E+00  0.0000000000000E+00
 0.8699413229051E+00  0.7497215570075E+00  0.0000000000000E+00
 0.9145175900776E+00  0.8112363019254E+00  0.0000000000000E+00
 0.9590938572500E+00  0.8727510468432E+00  0.0000000000000E+00
 0.1003670124423E+01  0.9342657917611E+00  0.0000000000000E+00
 0.7262154212153E+00  0.4220388917836E+00  0.0000000000000E+00
 0.7759671762288E+00  0.4803462985835E+00  0.0000000000000E+00
 0.8257189312424E+00  0.5386537053834E+00  0.0000000000000E+00
 0.8754706862560E+00  0.5969611121833E+00  0.0000000000000E+00
 0.9252224412695E+00  0.6552685189833E+00  0.0000000000000E+00
 0.9749741962831E+00  0.7135759257832E+00  0.0000000000000E+00
 0.1024725951297E+01  0.7718833325831E+00  0.0000000000000E+00
 0.1074477706310E+01  0.8301907393830E+00  0.0000000000000E+00
 0.1124229461324E+01  0.8884981461829E+00  0.0000000000000E+00
</DataArray>
</Points>
<Cells>
<DataArray type="Int64" Name="connectivity" format="ascii">
0 11 218 123
123 218 219 124
124 219 220 125
125 220 221 126
126 221 222 127
127 222 223 128
128 223 224 129
129 224 225 130
130 225 226 131
131 226 227 132
132 227 228 133
133 228 229 134
134 229 230 135
135 230 231 136
136 231 232 137
137 232 233 138
138 233 234 139
139 234 235 140
140 235 236 141
141 236 237 142
142 237 49 3
11 12 238 218
218 238 239 219
219 239 240 220
220 240 241 221
221 241 242 222
222 242 243 223
223 243 244 224
224 244 245 225
225 245 246 226
226 246 247 227
227 247 248 228
228 248 249 229
229 249 250 230
230 250 251 231
231 251 252 232
232 252 253 233
233 253 254 234
234 254 255 235
235 255 256 236
236 256 257 237
237 257 50 49
12 13 258 238
238 258 259 239
239 259 260 240
240 260 261 241
241 261 262 242
242 262 263 243
243 263 264 244
244 264 265 245
245 265 266 246
246 266 267 247
247 267 268 248
248 268 269 249
249 269 270 250
250 270 271 251
251 271 272 252
252 272 273 253
253 273 274 254
254 274 275 255
255 275 276 256
256 276 277 257
257 277 51 50
13 14 278 258
258 278 279 259
259 279 280 260
260 280 281 261
261 281 282 262
262 282 283 263
263 283 284 264
264 284 285 265
265 285 286 266
266 286 287 267
267 287 288 268
268 288 289 269
269 289 290 270
270 290 291 271
271 291 292 272
272 292 293 273
273 293 294 274
274 294 295 275
275 295 296 276
276 296 297 277
277 297 52 51
14 15 298 278
278 298 299 279
279 299 300 280
280 300 301 281
281 301 302 282
282 302 303 283
283 303 304 284
284 304 305 285
285 305 306 286
286 306 307 287
287 307 308 288
288 308 309 289
289 309 310 290
290 310 311 291
291 311 312 292
292 312 313 293
293 313 314 294
294 314 315 295
295 315 316 296
296 316 317 297
297 317 53 52
15 16 318 298
298 318 319 299
299 319 320 300
300 320 321 301
301 321 322 302
302 322 323 303
303 323 324 304
304 324 325 305
305 325 326 306
306 326 327 307
307 327 328 308
308 328 329 309
309 329 330 310
310 330 331 311
311 331 332 312
312 332 333 313
313 333 334 314
314 334 335 315
315 335 336 316
316 336 337 317
317 337 54 53
16 17 338 318
318 338 339 319
319 339 340 320
320 340 341 321
321 341 342 322
322 342 343 323
323 343 344 324
324 344 345 325
325 345 346 326
326 346 347 327
327 347 348 328
328 348 349 329
329 349 350 330
330 350 351 331
331 351 352 332
332 352 353 333
333 353 354 334
334 354 355 335
335 355 356 336
336 356 357 337
337 357 55 54
17 18 358 338
338 358 359 339
339 359 360 340
340 360 361 341
341 361 362 342
342 362 363 343
343 363 364 344
344 364 365 345
345 365 366 346
346 366 367 347
347 367 368 348
348 368 369 349
349 369 370 350
350 370 371 351
351 371 372 352
352 372 373 353
353 373 374 354
354 374 375 355
355 375 376 356
356 376 377 357
357 377 56 55
18 19 378 358
358 378 379 359
359 379 380 360
360 380 381 361
361 381 382 362
362 382 383 363
363 383 384 364
364 384 385 365
365 385 386 366
366 386 387 367
367 387 388 368
368 388 389 369
369 389 390 370
370 390 391 371
371 391 392 372
372 392 393 373
373 393 394 374
374 394 395 375
375 395 396 376
376 396 397 377
377 397 57 56
19 20 398 378
378 398 399 379
379 399 400 380
380 400 401 381
381 401 402 382
382 402 403 383
383 403 404 384
384 404 405 385
385 405 406 386
386 406 407 387
387 407 408 388
388 408 409 389
389 409 410 390
390 410 411 391
391 411 412 392
392 412 413 393
393 413 414 394
394 414 415 395
395 415 416 396
396 416 417 397
397 417 4 57
20 21 418 398
398 418 419 399
399 419 420 400
400 420 421 401
401 421 422 402
402 422 423 403
403 423 424 404
404 424 425 405
405 425 426 406
406 426 427 407
407 427 428 408
408 428 429 409
409 429 430 410
410 430 431 411
411 431 432 412
412 432 433 413
413 433 434 414
414 434 435 415
415 435 436 416
416 436 437 417
417 437 58 4
21 22 438 418
418 438 439 419
419 439 440 420
420 440 441 421
421 441 442 422
422 442 443 423
423 443 444 424
424 444 445 425
425 445 446 426
426 446 447 427
427 447 448 428
428 448 449 429
429 449 450 430
430 450 451 431
431 451 452 432
432 452 453 433
433 453 454 434
434 454 455 435
435 455 456 436
436 456 457 437
437 457 59 58
22 23 458 438
438 458 459 439
439 459 460 440
440 460 461 441
441 461 462 442
442 462 463 443
443 463 464 444
444 464 465 445
445 465 466 446
446 466 467 447
447 467 468 448
448 468 469 449
449 469 470 450
450 470 471 451
451 471 472 452
452 472 473 453
453 473 474 454
454 474 475 455
455 475 476 456
456 476 477 457
457 477 60 59
23 24 478 458
458 478 479 459
459 479 480 460
460 480 481 461
461 481 482 462
462 482 483 463
463 483 484 464
464 484 485 465
465 485 486 466
466 486 487 467
467 487 488 468
468 488 489 469
469 489 490 470
470 490 491 471
471 491 492 472
472 492 493 473
473 493 494 474
474 494 495 475
475 495 496 476
476 496 497 477
477 497 61 60
24 25 498 478
478 498 499 479
479 499 500 480
480 500 501 481
481 501 502 482
482 502 503 483
483 503 504 484
484 504 505 485
485 505 506 486
486 506 507 487
487 507 508 488
488 508 509 489
489 509 510 490
490 510 511 491
491 511 512 492
492 512 513 493
493 513 514 494
494 514 515 495
495 515 516 496
496 516 517 497
497 517 62 61
25 26 518 498
498 518 519 499
499 519 520 500
500 520 521 501
501 521 522 502
502 522 523 503
503 523 524 504
504 524 525 505
505 525 526 506
506 526 527 507
507 527 528 508
508 528 529 509
509 529 530 510
510 530 531 511
511 531 532 512
512 532 533 513
513 533 534 514
514 534 535 515
515 535 536 516
516 536 537 517
517 537 63 62
26 27 538 518
518 538 539 519
519 539 540 520
520 540 541 521
521 541 542 522
522 542 543 523
523 543 544 524
524 544 545 525
525 545 546 526
526 546 547 527
527 547 548 528
528 548 549 529
529 549 550 530
530 550 551 531
531 551 552 532
532 552 553 533
533 553 554 534
534 554 555 535
535 555 556 536
536 556 557 537
537 557 64 63
27 28 558 538
538 558 559 539
539 559 560 540
540 560 561 541
541 561 562 542
542 562 563 543
543 563 564 544
544 564 565 545
545 565 566 546
546 566 567 547
547 567 568 548
548 568 569 549
549 569 570 550
550 570 571 551
551 571 572 552
552 572 573 553
553 573 574 554
554 574 575 555
555 575 576 556
556 576 577 557
557 577 65 64
28 29 578 558
558 578 579 559
559 579 580 560
560 580 581 561
561 581 582 562
562 582 583 563
563 583 584 564
564 584 585 565
565 585 586 566
566 586 587 567
567 587 588 568
568 588 589 569
569 589 590 570
570 590 591 571
571 591 592 572
572 592 593 573
573 593 594 574
574 594 595 575
575 595 596 576
576 596 597 577
577 597 66 65
29 1 598 578
578 598 599 579
579 599 600 580
580 600 601 581
581 601 602 582
582 602 603 583
583 603 604 584
584 604 605 585
585 605 606 586
586 606 607 587
587 607 608 588
588 608 609 589
589 609 610 590
590 610 611 591
591 611 612 592
592 612 613 593
593 613 614 594
594 614 615 595
595 615 616 596
596 616 617 597
597 617 67 66
1 30 618 598
598 618 619 599
599 619 620 600
600 620 621 601
601 621 622 602
602 622 623 603
603 623 624 604
604 624 625 605
605 625 626 606
606 626 627 607
607 627 628 608
608 628 629 609
609 629 630 610
610 630 631 611
611 631 632 612
612 632 633 613
613 633 634 614
614 634 635 615
615 635 636 616
616 636 637 617
617 637 68 67
30 31 638 618
618 638 639 619
619 639 640 620
620 640 641 621
621 641 642 622
622 642 643 623
623 643 644 624
624 644 645 625
625 645 646 626
626 646 647 627
627 647 648 628
628 648 649 629
629 649 650 630
630 650 651 631
631 651 652 632
632 652 653 633
633 653 654 634
634 654 655 635
635 655 656 636
636 656 657 637
637 657 69 68
31 32 658 638
638 658 659 639
639 659 660 640
640 660 661 641
641 661 662 642
642 662 663 643
643 663 664 644
644 664 665 645
645 665 666 646
646 666 667 647
647 667 668 648
648 668 669 649
649 669 670 650
650 670 671 651
651 671 672 652
652 672 673 653
653 673 674 654
654 674 675 655
655 675 676 656
656 676 677 657
657 677 70 69
32 33 678 658
658 678 679 659
659 679 680 660
660 680 681 661
661 681 682 662
662 682 683 663
663 683 684 664
664 684 685 665
665 685 686 666
666 686 687 667
667 687 688 668
668 688 689 669
669 689 690 670
670 690 691 671
671 691 692 672
672 692 693 673
673 693 694 674
674 694 695 675
675 695 696 676
676 696 697 677
677 697 71 70
33 34 698 678
678 698 699 679
679 699 700 680
680 700 701 681
681 701 702 682
682 702 703 683
683 703 704 684
684 704 705 685
685 705 706 686
686 706 707 687
687 707 708 688
688 708 709 689
689 709 710 690
690 710 711 691
691 711 712 692
692 712 713 693
693 713 714 694
694 714 715 695
695 715 716 696
696 716 717 697
697 717 72 71
34 35 718 698
698 718 719 699
699 719 720 700
700 720 721 701
701 721 722 702
702 722 723 703
703 723 724 704
704 724 725 705
705 725 726 706
706 726 727 707
707 727 728 708
708 728 729 709
709 729 730 710
710 730 731 711
711 731 732 712
712 732 733 713
713 733 734 714
714 734 735 715
715 735 736 716
716 736 737 717
717 737 73 72
35 36 738 718
718 738 739 719
719 739 740 720
720 740 741 721
721 741 742 722
722 742 743 723
723 743 744 724
724 744 745 725
725 745 746 726
726 746 747 727
727 747 748 728
728 748 749 729
729 749 750 730
730 750 751 731
731 751 752 732
732 752 753 733
733 753 754 734
734 754 755 735
735 755 756 736
736 756 757 737
737 757 74 73
36 37 758 738
738 758 759 739
739 759 760 740
740 760 761 741
741 761 762 742
742 762 763 743
743 763 764 744
744 764 765 745
745 765 766 746
746 766 767 747
747 767 768 748
748 768 769 749
749 769 770 750
750 770 771 751
751 771 772 752
752 772 773 753
753 773 774 754
754 774 775 755
755 775 776 756
756 776 777 757
757 777 75 74
37 38 778 758
758 778 779 759
759 779 780 760
760 780 781 761
761 781 782 762
762 782 783 763
763 783 784 764
764 784 785 765
765 785 786 766
766 786 787 767
767 787 788 768
768 788 789 769
769 789 790 770
770 790 791 771
771 791 792 772
772 792 793 773
773 793 794 774
774 794 795 775
775 795 796 776
776 796 797 777
777 797 76 75
38 39 798 778
778 798 799 779
779 799 800 780
780 800 801 781
781 801 802 782
782 802 803 783
783 803 804 784
784 804 805 785
785 805 806 786
786 806 807 787
787 807 808 788
788 808 809 789
789 809 810 790
790 810 811 791
791 811 812 792
792 812 813 793
793 813 814 794
794 814 815 795
795 815 816 796
796 816 817 797
797 817 5 76
39 40 818 798
798 818 819 799
799 819 820 800
800 820 821 801
801 821 822 802
802 822 823 803
803 823 824 804
804 824 825 805
805 825 826 806
806 826 827 807
807 827 828 808
808 828 829 809
809 829 830 810
810 830 831 811
811 831 832 812
812 832 833 813
813 833 834 814
814 834 835 815
815 835 836 816
816 836 837 817
817 837 77 5
40 41 838 818
818 838 839 819
819 839 840 820
820 840 841 821
821 841 842 822
822 842 843 823
823 843 844 824
824 844 845 825
825 845 846 826
826 846 847 827
827 847 848 828
828 848 849 829
829 849 850 830
830 850 851 831
831 851 852 832
832 852 853 833
833 853 854 834
834 854 855 835
835 855 856 836
836 856 857 837
837 857 78 77
41 42 858 838
838 858 859 839
839 859 860 840
840 860 861 841
841 861 862 842
842 862 863 843
843 863 864 844
844 864 865 845
845 865 866 846
846 866 867 847
847 867 868 848
848 868 869 849
849 869 870 850
850 870 871 851
851 871 872 852
852 872 873 853
853 873 874 854
854 874 875 855
855 875 876 856
856 876 877 857
857 877 79 78
42 43 878 858
858 878 879 859
859 879 880 860
860 880 881 861
861 881 882 862
862 882 883 863
863 883 884 864
864 884 885 865
865 885 886 866
866 886 887 867
867 887 888 868
868 888 889 869
869 889 890 870
870 890 891 871
871 891 892 872
872 892 893 873
873 893 894 874
874 894 895 875
875 895 896 876
876 896 897 877
877 897 80 79
43 44 898 878
878 898 899 879
879 899 900 880
880 900 901 881
881 901 902 882
882 902 903 883
883 903 904 884
884 904 905 885
885 905 906 886
886 906 907 887
887 907 908 888
888 908 909 889
889 909 910 890
890 910 911 891
891 911 912 892
892 912 913 893
893 913 914 894
894 914 915 895
895 915 916 896
896 916 917 897
897 917 81 80
44 45 918 898
898 918 919 899
899 919 920 900
900 920 921 901
901 921 922 902
902 922 923 903
903 923 924 904
904 924 925 905
905 925 926 906
906 926 927 907
907 927 928 908
908 928 929 909
909 929 930 910
910 930 931 911
911 931 932 912
912 932 933 913
913 933 934 914
914 934 935 915
915 935 936 916
916 936 937 917
917 937 82 81
45 46 938 918
918 938 939 919
919 939 940 920
920 940 941 921
921 941 942 922
922 942 943 923
923 943 944 924
924 944 945 925
925 945 946 926
926 946 947 927
927 947 948 928
928 948 949 929
929 949 950 930
930 950 951 931
931 951 952 932
932 952 953 933
933 953 954 934
934 954 955 935
935 955 956 936
936 956 957 937
937 957 83 82
46 47 958 938
938 958 959 939
939 959 960 940
940 960 961 941
941 961 962 942
942 962 963 943
943 963 964 944
944 964 965 945
945 965 966 946
946 966 967 947
947 967 968 948
948 968 969 949
949 969 970 950
950 970 971 951
951 971 972 952
952 972 973 953
953 973 974 954
954 974 975 955
955 975 976 956
956 976 977 957
957 977 84 83
47 48 978 958
958 978 979 959
959 979 980 960
960 980 981 961
961 981 982 962
962 982 983 963
963 983 984 964
964 984 985 965
965 985 986 966
966 986 987 967
967 987 988 968
968 988 989 969
969 989 990 970
970 990 991 971
971 991 992 972
972 992 993 973
973 993 994 974
974 994 995 975
975 995 996 976
976 996 997 977
977 997 85 84
48 2 162 978
978 162 161 979
979 161 160 980
980 160 159 981
981 159 158 982
982 158 157 983
983 157 156 984
984 156 155 985
985 155 154 986
986 154 153 987
987 153 152 988
988 152 151 989
989 151 150 990
990 150 149 991
991 149 148 992
992 148 147 993
993 147 146 994
994 146 145 995
995 145 144 996
996 144 143 997
997 143 6 85
4 58 998 190
190 998 999 189
189 999 1000 188
188 1000 1001 187
187 1001 1002 186
186 1002 1003 185
185 1003 1004 184
184 1004 1005 183
183 1005 1006 182
182 1006 163 9
58 59 1007 998
998 1007 1008 999
999 1008 1009 1000
1000 1009 1010 1001
1001 1010 1011 1002
1002 1011 1012 1003
1003 1012 1013 1004
1004 1013 1014 1005
1005 1014 1015 1006
1006 1015 164 163
59 60 1016 1007
1007 1016 1017 1008
1008 1017 1018 1009
1009 1018 1019 1010
1010 1019 1020 1011
1011 1020 1021 1012
1012 1021 1022 1013
1013 1022 1023 1014
1014 1023 1024 1015
1015 1024 165 164
60 61 1025 1016
1016 1025 1026 1017
1017 1026 1027 1018
1018 1027 1028 1019
1019 1028 1029 1020
1020 1029 1030 1021
1021 1030 1031 1022
1022 1031 1032 1023
1023 1032 1033 1024
1024 1033 166 165
61 62 1034 1025
1025 1034 1035 1026
1026 1035 1036 1027
1027 1036 1037 1028
1028 1037 1038 1029
1029 1038 1039 1030
1030 1039 1040 1031
1031 1040 1041 1032
1032 1041 1042 1033
1033 1042 167 166
62 63 1043 1034
1034 1043 1044 1035
1035 1044 1045 1036
1036 1045 1046 1037
1037 1046 1047 1038
1038 1047 1048 1039
1039 1048 1049 1040
1040 1049 1050 1041
1041 1050 1051 1042
1042 1051 168 167
63 64 1052 1043
1043 1052 1053 1044
1044 1053 1054 1045
1045 1054 1055 1046
1046 1055 1056 1047
1047 1056 1057 1048
1048 1057 1058 1049
1049 1058 1059 1050
1050 1059 1060 1051
1051 1060 169 168
64 65 1061 1052
1052 1061 1062 1053
1053 1062 1063 1054
1054 1063 1064 1055
1055 1064 1065 1056
1056 1065 1066 1057
1057 1066 1067 1058
1058 1067 1068 1059
1059 1068 1069 1060
1060 1069 170 169
65 66 1070 1061
1061 1070 1071 1062
1062 1071 1072 1063
1063 1072 1073 1064
1064 1073 1074 1065
1065 1074 1075 1066
1066 1075 1076 1067
1067 1076 1077 1068
1068 1077 1078 1069
1069 1078 171 170
66 67 1079 1070
1070 1079 1080 1071
1071 1080 1081 1072
1072 1081 1082 1073
1073 1082 1083 1074
1074 1083 1084 1075
1075 1084 1085 1076
1076 1085 1086 1077
1077 1086 1087 1078
1078 1087 172 171
67 68 1088 1079
1079 1088 1089 1080
1080 1089 1090 1081
1081 1090 1091 1082
1082 1091 1092 1083
1083 1092 1093 1084
1084 1093 1094 1085
1085 1094 1095 1086
1086 1095 1096 1087
1087 1096 173 172
68 69 1097 1088
1088 1097 1098 1089
1089 1098 1099 1090
1090 1099 1100 1091
1091 1100 1101 1092
1092 1101 1102 1093
1093 1102 1103 1094
1094 1103 1104 1095
1095 1104 1105 1096
1096 1105 174 173
69 70 1106 1097
1097 1106 1107 1098
1098 1107 1108 1099
1099 1108 1109 1100
1100 1109 1110 1101
1101 1110 1111 1102
1102 1111 1112 1103
1103 1112 1113 1104
1104 1113 1114 1105
1105 1114 175 174
70 71 1115 1106
1106 1115 1116 1107
1107 1116 1117 1108
1108 1117 1118 1109
1109 1118 1119 1110
1110 1119 1120 1111
1111 1120 1121 1112
1112 1121 1122 1113
1113 1122 1123 1114
1114 1123 176 175
71 72 1124 1115
1115 1124 1125 1116
1116 1125 1126 1117
1117 1126 1127 1118
1118 1127 1128 1119
1119 1128 1129 1120
1120 1129 1130 1121
1121 1130 1131 1122
1122 1131 1132 1123
1123 1132 177 176
72 73 1133 1124
1124 1133 1134 1125
1125 1134 1135 1126
1126 1135 1136 1127
1127 1136 1137 1128
1128 1137 1138 1129
1129 1138 1139 1130
1130 1139 1140 1131
1131 1140 1141 1132
1132 1141 178 177
73 74 1142 1133
1133 1142 1143 1134
1134 1143 1144 1135
1135 1144 1145 1136
1136 1145 1146 1137
1137 1146 1147 1138
1138 1147 1148 1139
1139 1148 1149 1140
1140 1149 1150 1141
1141 1150 179 178
74 75 1151 1142
1142 1151 1152 1143
1143 1152 1153 1144
1144 1153 1154 1145
1145 1154 1155 1146
1146 1155 1156 1147
1147 1156 1157 1148
1148 1157 1158 1149
1149 1158 1159 1150
1150 1159 180 179
75 76 1160 1151
1151 1160 1161 1152
1152 1161 1162 1153
1153 1162 1163 1154
1154 1163 1164 1155
1155 1164 1165 1156
1156 1165 1166 1157
1157 1166 1167 1158
1158 1167 1168 1159
1159 1168 181 180
76 5 199 1160
1160 199 198 1161
1161 198 197 1162
1162 197 196 1163
1163 196 195 1164
1164 195 194 1165
1165 194 193 1166
1166 193 192 1167
1167 192 191 1168
1168 191 10 181
3 49 1169 86
86 1169 1170 87
87 1170 1171 88
88 1171 1172 89
89 1172 1173 90
90 1173 1174 91
91 1174 1175 92
92 1175 1176 93
93 1176 1177 94
94 1177 208 7
49 50 1178 1169
1169 1178 1179 1170
1170 1179 1180 1171
1171 1180 1181 1172
1172 1181 1182 1173
1173 1182 1183 1174
1174 1183 1184 1175
1175 1184 1185 1176
1176 1185 1186 1177
1177 1186 207 208
50 51 1187 1178
1178 1187 1188 1179
1179 1188 1189 1180
1180 1189 1190 1181
1181 1190 1191 1182
1182 1191 1192 1183
1183 1192 1193 1184
1184 1193 1194 1185
1185 1194 1195 1186
1186 1195 206 207
51 52 1196 1187
1187 1196 1197 1188
1188 1197 1198 1189
1189 1198 1199 1190
1190 1199 1200 1191
1191 1200 1201 1192
1192 1201 1202 1193
1193 1202 1203 1194
1194 1203 1204 1195
1195 1204 205 206
52 53 1205 1196
1196 1205 1206 1197
1197 1206 1207 1198
1198 1207 1208 1199
1199 1208 1209 1200
1200 1209 1210 1201
1201 1210 1211 1202
1202 1211 1212 1203
1203 1212 1213 1204
1204 1213 204 205
53 54 1214 1205
1205 1214 1215 1206
1206 1215 1216 1207
1207 1216 1217 1208
1208 1217 1218 1209
1209 1218 1219 1210
1210 1219 1220 1211
1211 1220 1221 1212
1212 1221 1222 1213
1213 1222 203 204
54 55 1223 1214
1214 1223 1224 1215
1215 1224 1225 1216
1216 1225 1226 1217
1217 1226 1227 1218
1218 1227 1228 1219
1219 1228 1229 1220
1220 1229 1230 1221
1221 1230 1231 1222
1222 1231 202 203
55 56 1232 1223
1223 1232 1233 1224
1224 1233 1234 1225
1225 1234 1235 1226
1226 1235 1236 1227
1227 1236 1237 1228
1228 1237 1238 1229
1229 1238 1239 1230
1230 1239 1240 1231
1231 1240 201 202
56 57 1241 1232
1232 1241 1242 1233
1233 1242 1243 1234
1234 1243 1244 1235
1235 1244 1245 1236
1236 1245 1246 1237
1237 1246 1247 1238
1238 1247 1248 1239
1239 1248 1249 1240
1240 1249 200 201
57 4 190 1241
1241 190 189 1242
1242 189 188 1243
1243 188 187 1244
1244 187 186 1245
1245 186 185 1246
1246 185 184 1247
1247 184 183 1248
1248 183 182 1249
1249 182 9 200
5 77 1250 199
199 1250 1251 198
198 1251 1252 197
197 1252 1253 196
196 1253 1254 195
195 1254 1255 194
194 1255 1256 193
193 1256 1257 192
192 1257 1258 191
191 1258 209 10
77 78 1259 1250
1250 1259 1260 1251
1251 1260 1261 1252
1252 1261 1262 1253
1253 1262 1263 1254
1254 1263 1264 1255
1255 1264 1265 1256
1256 1265 1266 1257
1257 1266 1267 1258
1258 1267 210 209
78 79 1268 1259
1259 1268 1269 1260
1260 1269 1270 1261
1261 1270 1271 1262
1262 1271 1272 1263
1263 1272 1273 1264
1264 1273 1274 1265
1265 1274 1275 1266
1266 1275 1276 1267
1267 1276 211 210
79 80 1277 1268
1268 1277 1278 1269
1269 1278 1279 1270
1270 1279 1280 1271
1271 1280 1281 1272
1272 1281 1282 1273
1273 1282 1283 1274
1274 1283 1284 1275
1275 1284 1285 1276
1276 1285 212 211
80 81 1286 1277
1277 1286 1287 1278
1278 1287 1288 1279
1279 1288 1289 1280
1280 1289 1290 1281
1281 1290 1291 1282
1282 1291 1292 1283
1283 1292 1293 1284
1284 1293 1294 1285
1285 1294 213 212
81 82 1295 1286
1286 1295 1296 1287
1287 1296 1297 1288
1288 1297 1298 1289
1289 1298 1299 1290
1290 1299 1300 1291
1291 1300 1301 1292
1292 1301 1302 1293
1293 1302 1303 1294
1294 1303 214 213
82 83 1304 1295
1295 1304 1305 1296
1296 1305 1306 1297
1297 1306 1307 1298
1298 1307 1308 1299
1299 1308 1309 1300
1300 1309 1310 1301
1301 1310 1311 1302
1302 1311 1312 1303
1303 1312 215 214
83 84 1313 1304
1304 1313 1314 1305
1305 1314 1315 1306
1306 1315 1316 1307
1307 1316 1317 1308
1308 1317 1318 1309
1309 1318 1319 1310
1310 1319 1320 1311
1311 1320 1321 1312
1312 1321 216 215
84 85 1322 1313
1313 1322 1323 1314
1314 1323 1324 1315
1315 1324 1325 1316
1316 1325 1326 1317
1317 1326 1327 1318
1318 1327 1328 1319
1319 1328 1329 1320
1320 1329 1330 1321
1321 1330 217 216
85 6 122 1322
1322 122 121 1323
1323 121 120 1324
1324 120 119 1325
1325 119 118 1326
1326 118 117 1327
1327 117 116 1328
1328 116 115 1329
1329 115 114 1330
1330 114 8 217
9 163 1331 200
200 1331 1332 201
201 1332 1333 202
202 1333 1334 203
203 1334 1335 204
204 1335 1336 205
205 1336 1337 206
206 1337 1338 207
207 1338 1339 208
208 1339 95 7
163 164 1340 1331
1331 1340 1341 1332
1332 1341 1342 1333
1333 1342 1343 1334
1334 1343 1344 1335
1335 1344 1345 1336
1336 1345 1346 1337
1337 1346 1347 1338
1338 1347 1348 1339
1339 1348 96 95
164 165 1349 1340
1340 1349 1350 1341
1341 1350 1351 1342
1342 1351 1352 1343
1343 1352 1353 1344
1344 1353 1354 1345
1345 1354 1355 1346
1346 1355 1356 1347
1347 1356 1357 1348
1348 1357 97 96
165 166 1358 1349
1349 1358 1359 1350
1350 1359 1360 1351
1351 1360 1361 1352
1352 1361 1362 1353
1353 1362 1363 1354
1354 1363 1364 1355
1355 1364 1365 1356
1356 1365 1366 1357
1357 1366 98 97
166 167 1367 1358
1358 1367 1368 1359
1359 1368 1369 1360
1360 1369 1370 1361
1361 1370 1371 1362
1362 1371 1372 1363
1363 1372 1373 1364
1364 1373 1374 1365
1365 1374 1375 1366
1366 1375 99 98
167 168 1376 1367
1367 1376 1377 1368
1368 1377 1378 1369
1369 1378 1379 1370
1370 1379 1380 1371
1371 1380 1381 1372
1372 1381 1382 1373
1373 1382 1383 1374
1374 1383 1384 1375
1375 1384 100 99
168 169 1385 1376
1376 1385 1386 1377
1377 1386 1387 1378
1378 1387 1388 1379
1379 1388 1389 1380
1380 1389 1390 1381
1381 1390 1391 1382
1382 1391 1392 1383
1383 1392 1393 1384
1384 1393 101 100
169 170 1394 1385
1385 1394 1395 1386
1386 1395 1396 1387
1387 1396 1397 1388
1388 1397 1398 1389
1389 1398 1399 1390
1390 1399 1400 1391
1391 1400 1401 1392
1392 1401 1402 1393
1393 1402 102 101
170 171 1403 1394
1394 1403 1404 1395
1395 1404 1405 1396
1396 1405 1406 1397
1397 1406 1407 1398
1398 1407 1408 1399
1399 1408 1409 1400
1400 1409 1410 1401
1401 1410 1411 1402
1402 1411 103 102
171 172 1412 1403
1403 1412 1413 1404
1404 1413 1414 1405
1405 1414 1415 1406
1406 1415 1416 1407
1407 1416 1417 1408
1408 1417 1418 1409
1409 1418 1419 1410
1410 1419 1420 1411
1411 1420 104 103
172 173 1421 1412
1412 1421 1422 1413
1413 1422 1423 1414
1414 1423 1424 1415
1415 1424 1425 1416
1416 1425 1426 1417
1417 1426 1427 1418
1418 1427 1428 1419
1419 1428 1429 1420
1420 1429 105 104
173 174 1430 1421
1421 1430 1431 1422
1422 1431 1432 1423
1423 1432 1433 1424
1424 1433 1434 1425
1425 1434 1435 1426
1426 1435 1436 1427
1427 1436 1437 1428
1428 1437 1438 1429
1429 1438 106 105
174 175 1439 1430
1430 1439 1440 1431
1431 1440 1441 1432
1432 1441 1442 1433
1433 1442 1443 1434
1434 1443 1444 1435
1435 1444 1445 1436
1436 1445 1446 1437
1437 1446 1447 1438
1438 1447 107 106
175 176 1448 1439
1439 1448 1449 1440
1440 1449 1450 1441
1441 1450 1451 1442
1442 1451 1452 1443
1443 1452 1453 1444
1444 1453 1454 1445
1445 1454 1455 1446
1446 1455 1456 1447
1447 1456 108 107
176 177 1457 1448
1448 1457 1458 1449
1449 1458 1459 1450
1450 1459 1460 1451
1451 1460 1461 1452
1452 1461 1462 1453
1453 1462 1463 1454
1454 1463 1464 1455
1455 1464 1465 1456
1456 1465 109 108
177 178 1466 1457
1457 1466 1467 1458
1458 1467 1468 1459
1459 1468 1469 1460
1460 1469 1470 1461
1461 1470 1471 1462
1462 1471 1472 1463
1463 1472 1473 1464
1464 1473 1474 1465
1465 1474 110 109
178 179 1475 1466
1466 1475 1476 1467
1467 1476 1477 1468
1468 1477 1478 1469
1469 1478 1479 1470
1470 1479 1480 1471
1471 1480 1481 1472
1472 1481 1482 1473
1473 1482 1483 1474
1474 1483 111 110
179 180 1484 1475
1475 1484 1485 1476
1476 1485 1486 1477
1477 1486 1487 1478
1478 1487 1488 1479
1479 1488 1489 1480
1480 1489 1490 1481
1481 1490 1491 1482
1482 1491 1492 1483
1483 1492 112 111
180 181 1493 1484
1484 1493 1494 1485
1485 1494 1495 1486
1486 1495 1496 1487
1487 1496 1497 1488
1488 1497 1498 1489
1489 1498 1499 1490
1490 1499 1500 1491
1491 1500 1501 1492
1492 1501 113 112
181 10 209 1493
1493 209 210 1494
1494 210 211 1495
1495 211 212 1496
1496 212 213 1497
1497 213 214 1498
1498 214 215 1499
1499 215 216 1500
1500 216 217 1501
1501 217 8 113
</DataArray>
<DataArray type="Int64" Name="offsets" format="ascii">
4
8
12
16
20
24
28
32
36
40
44
48
52
56
60
64
68
72
76
80
84
88
92
96
100
104
108
112
116
120
124
128
132
136
140
144
148
152
156
160
164
168
172
176
180
184
188
192
196
200
204
208
212
216
220
224
228
232
236
240
244
248
252
256
260
264
268
272
276
280
284
288
292
296
300
304
308
312
316
320
324
328
332
336
340
344
348
352
356
360
364
368
372
376
380
384
388
392
396
400
404
408
412
416
420
424
428
432
436
440
444
448
452
456
460
464
468
472
476
480
484
488
492
496
500
504
508
512
516
520
524
528
532
536
540
544
548
552
556
560
564
568
572
576
580
584
588
592
596
600
604
608
612
616
620
624
628
632
636
640
644
648
652
656
660
664
668
672
676
680
684
688
692
696
700
704
708
712
716
720
724
728
732
736
740
744
748
752
756
760
764
768
772
776
780
784
788
792
796
800
804
808
812
816
820
824
828
832
836
840
844
848
852
856
860
864
868
872
876
880
884
888
892
896
900
904
908
912
916
920
924
928
932
936
940
944
948
952
956
960
964
968
972
976
980
984
988
992
996
1000
1004
1008
1012
1016
1020
1024
1028
1032
1036
1040
1044
1048
1052
1056
1060
1064
1068
1072
1076
1080
1084
1088
1092
1096
1100
1104
1108
1112
1116
1120
1124
1128
1132
1136
1140
1144
1148
1152
1156
1160
1164
1168
1172
1176
1180
1184
1188
1192
1196
1200
1204
1208
1212
1216
1220
1224
1228
1232
1236
1240
1244
1248
1252
1256
1260
1264
1268
1272
1276
1280
1284
1288
1292
1296
1300
1304
1308
1312
1316
1320
1324
1328
1332
1336
1340
1344
1348
1352
1356
1360
1364
1368
1372
1376
1380
1384
1388
1392
1396
1400
1404
1408
1412
1416
1420
1424
1428
1432
1436
1440
1444
1448
1452
1456
1460
1464
1468
1472
1476
1480
1484
1488
1492
1496
1500
1504
1508
1512
1516
1520
1524
1528
1532
1536
1540
1544
1548
1552
1556
1560
1564
1568
1572
1576
1580
1584
1588
1592
1596
1600
1604
1608
1612
1616
1620
1624
1628
1632
1636
1640
1644
1648
1652
1656
1660
1664
1668
1672
1676
1680
1684
1688
1692
1696
1700
1704
1708
1712
1716
1720
1724
1728
1732
1736
1740
1744
1748
1752
1756
1760
1764
1768
1772
1776
1780
1784
1788
1792
1796
1800
1804
1808
1812
1816
1820
1824
1828
1832
1836
1840
1844
1848
1852
1856
1860
1864
1868
1872
1876
1880
1884
1888
1892
1896
1900
1904
1908
1912
1916
1920
1924
1928
1932
1936
1940
1944
1948
1952
1956
1960
1964
1968
1972
1976
1980
1984
1988
1992
1996
2000
2004
2008
2012
2016
2020
2024
2028
2032
2036
2040
2044
2048
2052
2056
2060
2064
2068
2072
2076
2080
2084
2088
2092
2096
2100
2104
2108
2112
2116
2120
2124
2128
2132
2136
2140
2144
2148
2152
2156
2160
2164
2168
2172
2176
2180
2184
2188
2192
2196
2200
2204
2208
2212
2216
2220
2224
2228
2232
2236
2240
2244
2248
2252
2256
2260
2264
2268
2272
2276
2280
2284
2288
2292
2296
2300
2304
2308
2312
2316
2320
2324
2328
2332
2336
2340
2344
2348
2352
2356
2360
2364
2368
2372
2376
2380
2384
2388
2392
2396
2400
2404
2408
2412
2416
2420
2424
2428
2432
2436
2440
2444
2448
2452
2456
2460
2464
2468
2472
2476
2480
2484
2488
2492
2496
2500
2504
2508
2512
2516
2520
2524
2528
2532
2536
2540
2544
2548
2552
2556
2560
2564
2568
2572
2576
2580
2584
2588
2592
2596
2600
2604
2608
2612
2616
2620
2624
2628
2632
2636
2640
2644
2648
2652
2656
2660
2664
2668
2672
2676
2680
2684
2688
2692
2696
2700
2704
2708
2712
2716
2720
2724
2728
2732
2736
2740
2744
2748
2752
2756
2760
2764
2768
2772
2776
2780
2784
2788
2792
2796
2800
2804
2808
2812
2816
2820
2824
2828
2832
2836
2840
2844
2848
2852
2856
2860
2864
2868
2872
2876
2880
2884
2888
2892
2896
2900
2904
2908
2912
2916
2920
2924
2928
2932
2936
2940
2944
2948
2952
2956
2960
2964
2968
2972
2976
2980
2984
2988
2992
2996
3000
3004
3008
3012
3016
3020
3024
3028
3032
3036
3040
3044
3048
3052
3056
3060
3064
3068
3072
3076
3080
3084
3088
3092
3096
3100
3104
3108
3112
3116
3120
3124
3128
3132
3136
3140
3144
3148
3152
3156
3160
3164
3168
3172
3176
3180
3184
3188
3192
3196
3200
3204
3208
3212
3216
3220
3224
3228
3232
3236
3240
3244
3248
3252
3256
3260
3264
3268
3272
3276
3280
3284
3288
3292
3296
3300
3304
3308
3312
3316
3320
3324
3328
3332
3336
3340
3344
3348
3352
3356
3360
3364
3368
3372
3376
3380
3384
3388
3392
3396
3400
3404
3408
3412
3416
3420
3424
3428
3432
3436
3440
3444
3448
3452
3456
3460
3464
3468
3472
3476
3480
3484
3488
3492
3496
3500
3504
3508
3512
3516
3520
3524
3528
3532
3536
3540
3544
3548
3552
3556
3560
3564
3568
3572
3576
3580
3584
3588
3592
3596
3600
3604
3608
3612
3616
3620
3624
3628
3632
3636
3640
3644
3648
3652
3656
3660
3664
3668
3672
3676
3680
3684
3688
3692
3696
3700
3704
3708
3712
3716
3720
3724
3728
3732
3736
3740
3744
3748
3752
3756
3760
3764
3768
3772
3776
3780
3784
3788
3792
3796
3800
3804
3808
3812
3816
3820
3824
3828
3832
3836
3840
3844
3848
3852
3856
3860
3864
3868
3872
3876
3880
3884
3888
3892
3896
3900
3904
3908
3912
3916
3920
3924
3928
3932
3936
3940
3944
3948
3952
3956
3960
3964
3968
3972
3976
3980
3984
3988
3992
3996
4000
4004
4008
4012
4016
4020
4024
4028
4032
4036
4040
4044
4048
4052
4056
4060
4064
4068
4072
4076
4080
4084
4088
4092
4096
4100
4104
4108
4112
4116
4120
4124
4128
4132
4136
4140
4144
4148
4152
4156
4160
4164
4168
4172
4176
4180
4184
4188
4192
4196
4200
4204
4208
4212
4216
4220
4224
4228
4232
4236
4240
4244
4248
4252
4256
4260
4264
4268
4272
4276
4280
4284
4288
4292
4296
4300
4304
4308
4312
4316
4320
4324
4328
4332
4336
4340
4344
4348
4352
4356
4360
4364
4368
4372
4376
4380
4384
4388
4392
4396
4400
4404
4408
4412
4416
4420
4424
4428
4432
4436
4440
4444
4448
4452
4456
4460
4464
4468
4472
4476
4480
4484
4488
4492
4496
4500
4504
4508
4512
4516
4520
4524
4528
4532
4536
4540
4544
4548
4552
4556
4560
4564
4568
4572
4576
4580
4584
4588
4592
4596
4600
4604
4608
4612
4616
4620
4624
4628
4632
4636
4640
4644
4648
4652
4656
4660
4664
4668
4672
4676
4680
4684
4688
4692
4696
4700
4704
4708
4712
4716
4720
4724
4728
4732
4736
4740
4744
4748
4752
4756
4760
4764
4768
4772
4776
4780
4784
4788
4792
4796
4800
4804
4808
4812
4816
4820
4824
4828
4832
4836
4840
4844
4848
4852
4856
4860
4864
4868
4872
4876
4880
4884
4888
4892
4896
4900
4904
4908
4912
4916
4920
4924
4928
4932
4936
4940
4944
4948
4952
4956
4960
4964
4968
4972
4976
4980
4984
4988
4992
4996
5000
5004
5008
5012
5016
5020
5024
5028
5032
5036
5040
5044
5048
5052
5056
5060
5064
5068
5072
5076
5080
5084
5088
5092
5096
5100
5104
5108
5112
5116
5120
5124
5128
5132
5136
5140
5144
5148
5152
5156
5160
5164
5168
5172
5176
5180
5184
5188
5192
5196
5200
5204
5208
5212
5216
5220
5224
5228
5232
5236
5240
5244
5248
5252
5256
5260
5264
5268
5272
5276
5280
5284
5288
5292
5296
5300
5304
5308
5312
5316
5320
5324
5328
5332
5336
5340
5344
5348
5352
5356
5360
5364
5368
5372
5376
5380
5384
5388
5392
5396
5400
5404
5408
5412
5416
5420
5424
5428
5432
5436
5440
5444
5448
5452
5456
5460
5464
5468
5472
5476
5480
5484
5488
5492
5496
5500
5504
5508
5512
5516
5520
5524
5528
5532
5536
5540
5544
5548
5552
5556
5560
5564
5568
5572
5576
5580
5584
5588
5592
5596
5600
5604
5608
5612
5616
5620
5624
5628
5632
5636
5640
5644
5648
5652
5656
5660
5664
5668
5672
5676
5680
5684
5688
5692
5696
5700
5704
5708
5712
5716
5720
5724
5728
5732
5736
5740
5744
5748
5752
5756
5760
</DataArray>
<DataArray type="Int64" Name="types" format="ascii">
9
9
9
9
9
9
9
9
9
9
9
9
9
9
9
9
9
9
9
9
9
9
9
9
9
9
9
9
9
9
9
9
9
9
9
9
9
9
9
9
9
9
9
9
9
9
9
9
9
9
9
9
9
9
9
9
9
9
9
9
9
9
9
9
9
9
9
9
9
9
9
9
9
9
9
9
9
9
9
9
9
9
9
9
9
9
9
9
9
9
9
9
9
9
9
9
9
9
9
9
9
9
9
9
9
9
9
9
9
9
9
9
9
9
9
9
9
9
9
9
9
9
9
9
9
9
9
9
9
9
9
9
9
9
9
9
9
9
9
9
9
9
9
9
9
9
9
9
9
9
9
9
9
9
9
9
9
9
9
9
9
9
9
9
9
9
9
9
9
9
9
9
9
9
9
9
9
9
9
9
9
9
9
9
9
9
9
9
9
9
9
9
9
9
9
9
9
9
9
9
9
9
9
9
9
9
9
9
9
9
9
9
9
9
9
9
9
9
9
9
9
9
9
9
9
9
9
9
9
9
9
9
9
9
9
9
9
9
9
9
9
9
9
9
9
9
9
9
9
9
9
9
9
9
9
9
9
9
9
9
9
9
9
9
9
9
9
9
9
9
9
9
9
9
9
9
9
9
9
9
9
9
9
9
9
9
9
9
9
9
9
9
9
9
9
9
9
9
9
9
9
9
9
9
9
9
9
9
9
9
9
9
9
9
9
9
9
9
9
9
9
9
9
9
9
9
9
9
9
9
9
9
9
9
9
9
9
9
9
9
9
9
9
9
9
9
9
9
9
9
9
9
9
9
9
9
9
9
9
9
9
9
9
9
9
9
9
9
9
9
9
9
9
9
9
9
9
9
9
9
9
9
9
9
9
9
9
9
9
9
9
9
9
9
9
9
9
9
9
9
9
9
9
9
9
9
9
9
9
9
9
9
9
9
9
9
9
9
9
9
9
9
9
9
9
9
9
9
9
9
9
9
9
9
9
9
9
9
9
9
9
9
9
9
9
9
9
9
9
9
9
9
9
9
9
9
9
9
9
9
9
9
9
9
9
9
9
9
9
9
9
9
9
9
9
9
9
9
9
9
9
9
9
9
9
9
9
9
9
9
9
9
9
9
9
9
9
9
9
9
9
9
9
9
9
9
9
9
9
9
9
9
9
9
9
9
9
9
9
9
9
9
9
9
9
9
9
9
9
9
9
9
9
9
9
9
9
9
9
9
9
9
9
9
9
9
9
9
9
9
9
9
9
9
9
9
9
9
9
9
9
9
9
9
9
9
9
9
9
9
9
9
9
9
9
9
9
9
9
9
9
9
9
9
9
9
9
9
9
9
9
9
9
9
9
9
9
9
9
9
9
9
9
9
9
9
9
9
9
9
9
9
9
9
9
9
9
9
9
9
9
9
9
9
9
9
9
9
9
9
9
9
9
9
9
9
9
9
9
9
9
9
9
9
9
9
9
9
9
9
9
9
9
9
9
9
9
9
9
9
9
9
9
9
9
9
9
9
9
9
9
9
9
9
9
9
9
9
9
9
9
9
9
9
9
9
9
9
9
9
9
9
9
9
9
9
9
9
9
9
9
9
9
9
9
9
9
9
9
9
9
9
9
9
9
9
9
9
9
9
9
9
9
9
9
9
9
9
9
9
9
9
9
9
9
9
9
9
9
9
9
9
9
9
9
9
9
9
9
9
9
9
9
9
9
9
9
9
9
9
9
9
9
9
9
9
9
9
9
9
9
9
9
9
9
9
9
9
9
9
9
9
9
9
9
9
9
9
9
9
9
9
9
9
9
9
9
9
9
9
9
9
9
9
9
9
9
9
9
9
9
9
9
9
9
9
9
9
9
9
9
9
9
9
9
9
9
9
9
9
9
9
9
9
9
9
9
9
9
9
9
9
9
9
9
9
9
9
9
9
9
9
9
9
9
9
9
9
9
9
9
9
9
9
9
9
9
9
9
9
9
9
9
9
9
9
9
9
9
9
9
9
9
9
9
9
9
9
9
9
9
9
9
9
9
9
9
9
9
9
9
9
9
9
9
9
9
9
9
9
9
9
9
9
9
9
9
9
9
9
9
9
9
9
9
9
9
9
9
9
9
9
9
9
9
9
9
9
9
9
9
9
9
9
9
9
9
9
9
9
9
9
9
9
9
9
9
9
9
9
9
9
9
9
9
9
9
9
9
9
9
9
9
9
9
9
9
9
9
9
9
9
9
9
9
9
9
9
9
9
9
9
9
9
9
9
9
9
9
9
9
9
9
9
9
9
9
9
9
9
9
9
9
9
9
9
9
9
9
9
9
9
9
9
9
9
9
9
9
9
9
9
9
9
9
9
9
9
9
9
9
9
9
9
9
9
9
9
9
9
9
9
9
9
9
9
9
9
9
9
9
9
9
9
9
9
9
9
9
9
9
9
9
9
9
9
9
9
9
9
9
9
9
9
9
9
9
9
9
9
9
9
9
9
9
9
9
9
9
9
9
9
9
9
9
9
9
9
9
9
9
9
9
9
9
9
9
9
9
9
9
9
9
9
9
9
9
9
9
9
9
9
9
9
9
9
9
9
9
9
9
9
9
9
9
9
9
9
9
9
9
9
9
9
9
9
9
9
9
9
9
9
9
9
9
9
9
9
9
9
9
9
9
9
9
9
9
9
9
9
9
9
9
9
9
9
9
9
9
9
9
9
9
9
9
9
9
9
9
9
9
9
9
9
9
9
9
9
9
9
9
9
9
9
9
9
9
9
9
9
9
9
9
9
9
9
9
9
9
9
9
9
9
9
9
9
9
9
9
9
9
9
9
9
9
9
9
9
9
9
9
9
9
9
9
9
9
9
9
9
9
9
9
9
9
9
9
9
9
9
9
9
9
9
9
9
9
9
9
9
9
9
9
9
9
9
9
9
9
9
9
9
9
9
9
9
9
9
9
9
9
9
9
9
9
9
9
9
9
9
9
9
9
9
9
9
9
9
9
9
9
9
9
9
9
9
9
9
9
9
9
9
9
9
9
9
9
9
9
9
9
9
9
9
9
9
9
9
9
9
9
9
9
9
9
9
9
9
9
9
9
9
9
9
9
9
9
9
9
9
9
9
9
9
9
9
9
9
9
9
9
9
9
9
9
9
9
9
9
9
9
9
9
9
9
9
9
9
9
9
9
9
9
9
9
9
9
9
9
9
9
9
9
9
9
9
9
9
9
9
9
9
9
9
9
9
9
9
9
9
9
9
9
9
9
9
9
9
9
9
</DataArray>
</Cells>
<PointData Vectors="'U'">
<DataArray type="Float64" Name="U" NumberOfComponents="2" ComponentName0="U1" ComponentName1="U2" format="ascii">
 0.9545434284519E-37  0.2530902189437E-36
 0.5022790237843E-37 -0.1646501825063E-36
 0.2153261647067E-36 -0.5579099873042E-36
 0.4299464040852E-01 -0.4685799136840E-02
 0.5318430565022E-01 -0.2939896665664E-02
 0.6541644962930E-01 -0.3033962285412E-01
 0.7016422442603E-01 -0.7075126110238E-01
 0.7644587852734E+00 -0.8025317216072E+00
 0.9545874529180E+00 -0.2645890669528E+00
 0.6070428640501E+00 -0.6968453110009E+00
 0.8903449859289E+00 -0.2262030487362E+00
 0.3592724239866E-37  0.3098534134575E-36
 0.3974550871078E-37  0.2494204182635E-36
 0.3884700165089E-37  0.2073328157892E-36
 0.3790242656060E-37  0.1728160256203E-36
 0.3745332703805E-37  0.1425667135412E-36
 0.3746330327439E-37  0.1151474021590E-36
 0.3782333276319E-37  0.8978587317774E-37
 0.3843531607060E-37  0.6600691329602E-37
 0.3922263835751E-37  0.4348895334996E-37
 0.4012958577651E-37  0.2199918783277E-37
 0.4111429928768E-37  0.1349223724978E-38
 0.4213464178681E-37 -0.1859497248366E-37
 0.4317364773520E-37 -0.3795716755623E-37
 0.4421518403424E-37 -0.5684094471281E-37
 0.4524877035041E-37 -0.7533726758438E-37
 0.4626867021622E-37 -0.9352773232255E-37
 0.4727318852816E-37 -0.1114868730626E-36
 0.4826414173624E-37 -0.1292839055333E-36
 0.4924646082999E-37 -0.1469841353229E-36
 0.5121885497763E-37 -0.1823431384699E-36
 0.5223223594466E-37 -0.2001237502956E-36
 0.5328348340615E-37 -0.2180537273855E-36
 0.5439065665992E-37 -0.2361972767340E-36
 0.5557466883683E-37 -0.2546230004825E-36
 0.5685968925821E-37 -0.2734063443253E-36
 0.5827376938020E-37 -0.2926328729130E-36
 0.5984977006652E-37 -0.3124028095799E-36
 0.6162666673194E-37 -0.3328375930346E-36
 0.6364825353004E-37 -0.3540907359993E-36
 0.6597422801410E-37 -0.3763498302660E-36
 0.6868409552253E-37 -0.3998912598632E-36
 0.7186607740813E-37 -0.4250875981302E-36
 0.7563830325665E-37 -0.4524964114011E-36
 0.8014402974680E-37 -0.4830024426376E-36
 0.8551707900180E-37 -0.5181374511666E-36
 0.9167285986694E-37 -0.5609103406977E-36
 0.9712262287816E-37 -0.6185333174678E-36
 0.9081600294242E-37 -0.7151908361487E-36
 0.4384980646831E-01 -0.3033079906359E-03
 0.4510849192061E-01  0.1402430007185E-02
 0.4635898521645E-01  0.1980702874477E-02
 0.4752459945622E-01  0.1945625195181E-02
 0.4860824424967E-01  0.1540373412546E-02
 0.4962415773172E-01  0.8950910817137E-03
 0.5058466026237E-01  0.8538595166623E-04
 0.5149764959489E-01 -0.8419635059536E-03
 0.5236619877076E-01 -0.1856446955008E-02
 0.5396505133975E-01 -0.4053421724899E-02
 0.5472138786258E-01 -0.5182054556757E-02
 0.5545691317195E-01 -0.6329171018242E-02
 0.5617254263460E-01 -0.7492558771422E-02
 0.5686890769500E-01 -0.8670919088178E-02
 0.5754658196702E-01 -0.9864100770090E-02
 0.5820613007869E-01 -0.1107311169778E-01
 0.5884812146466E-01 -0.1230002724698E-01
 0.5947314319094E-01 -0.1354788494285E-01
 0.6008181356859E-01 -0.1482059320314E-01
 0.6067479041023E-01 -0.1612285855061E-01
 0.6125277256121E-01 -0.1746013718210E-01
 0.6181649367158E-01 -0.1883861322880E-01
 0.6236670826321E-01 -0.2026520700663E-01
 0.6290417141273E-01 -0.2174762185823E-01
 0.6342960692378E-01 -0.2329443452744E-01
 0.6394365773141E-01 -0.2491523928909E-01
 0.6444674882962E-01 -0.2662089172734E-01
 0.6493891046271E-01 -0.2842347427224E-01
 0.6589706883816E-01 -0.3242288484818E-01
 0.6636924453986E-01 -0.3465687265560E-01
 0.6683705262729E-01 -0.3707174562178E-01
 0.6730623376148E-01 -0.3970772661922E-01
 0.6778653139980E-01 -0.4262449575185E-01
 0.6829344211207E-01 -0.4591733392822E-01
 0.6884764085589E-01 -0.4975212171045E-01
 0.6946247329126E-01 -0.5444746149306E-01
 0.7006024716644E-01 -0.6070472832240E-01
-0.7539329280485E-01 -0.1102942436326E+00
-0.1045883037362E+00 -0.1689350288803E+00
-0.1040895131406E+00 -0.1848197437134E+00
-0.7265092031155E-01 -0.1821420616220E+00
-0.1078264219336E-01 -0.1723620392068E+00
 0.8263245743296E-01 -0.1650212578495E+00
 0.2130646770993E+00 -0.1905421316702E+00
 0.3730140913856E+00 -0.3026295518995E+00
 0.5733364550171E+00 -0.5222074536037E+00
 0.8303994384242E+00 -0.9290256016057E+00
 0.8721100258313E+00 -0.1016557555271E+01
 0.8952350850133E+00 -0.1062234754611E+01
 0.9010990243423E+00 -0.1064646520015E+01
 0.8917897718294E+00 -0.1022479965574E+01
 0.8741132058854E+00 -0.9375344547869E+00
 0.8555299450800E+00 -0.8169615949397E+00
 0.8418387757560E+00 -0.6741634532544E+00
 0.8370852224996E+00 -0.5352382750219E+00
 0.8421104804030E+00 -0.4305470887533E+00
 0.8537420230942E+00 -0.3616527854467E+00
 0.8683184065389E+00 -0.3132210339921E+00
 0.8835860345357E+00 -0.2791155592659E+00
 0.8985493472138E+00 -0.2560052625148E+00
 0.9126162061421E+00 -0.2418145177216E+00
 0.9253205133861E+00 -0.2351163227290E+00
 0.9361503324207E+00 -0.2347954547682E+00
 0.9447888385871E+00 -0.2399994953755E+00
 0.9510816927413E+00 -0.2500622267214E+00
 0.9498289887986E+00 -0.3046147348167E+00
 0.9287202741132E+00 -0.3502798887207E+00
 0.8898309374791E+00 -0.3936476334267E+00
 0.8317450953094E+00 -0.4208331151303E+00
 0.7584315303594E+00 -0.4311671794072E+00
 0.6700122688657E+00 -0.4290646015136E+00
 0.5639497436643E+00 -0.4076979058945E+00
 0.4369141000027E+00 -0.3553026941608E+00
 0.2943733418375E+00 -0.2417970267441E+00
 0.1105523593215E-02  0.1815479815482E-02
 0.2232892518425E-02  0.3156734020033E-02
 0.3601465291062E-02  0.4355096797736E-02
 0.5211539047778E-02  0.5421059337571E-02
 0.7062687490716E-02  0.6362489341560E-02
 0.9144373098155E-02  0.7178990905395E-02
 0.1144487947998E-01  0.7866432499767E-02
 0.1395083364600E-01  0.8417772053013E-02
 0.1664799220382E-01  0.8822698771741E-02
 0.1952173333808E-01  0.9066012781732E-02
 0.2255445838054E-01  0.9150205954578E-02
 0.2571388444340E-01  0.9114440551224E-02
 0.2894980797793E-01  0.8959975327019E-02
 0.3220260276843E-01  0.8667641303460E-02
 0.3540485862040E-01  0.8216427943024E-02
 0.3847849183442E-01  0.7589006802945E-02
 0.4133556234809E-01  0.6742765969205E-02
 0.4387573976526E-01  0.5592247587820E-02
 0.4588658336557E-01  0.3942384573841E-02
 0.4716630041433E-01  0.1124720403811E-02
 0.5779123581248E-01 -0.5952565278515E-01
 0.5251561558083E-01 -0.5309527836945E-01
 0.4792667223296E-01 -0.4850847642923E-01
 0.4386604728002E-01 -0.4472777432080E-01
 0.4010295191360E-01 -0.4141385246815E-01
 0.3656245494546E-01 -0.3841312359787E-01
 0.3319841444714E-01 -0.3564373314441E-01
 0.2999146964081E-01 -0.3304172889061E-01
 0.2693820664201E-01 -0.3057195854508E-01
 0.2404385864128E-01 -0.2823295689779E-01
 0.2130422373681E-01 -0.2602330080921E-01
 0.1869577579603E-01 -0.2386722355163E-01
 0.1620666403346E-01 -0.2168940099890E-01
 0.1384334454640E-01 -0.1945568520776E-01
 0.1161339614484E-01 -0.1714996751942E-01
 0.9520645426894E-02 -0.1476034799774E-01
 0.7562551293075E-02 -0.1227473496339E-01
 0.5729049039726E-02 -0.9675663040299E-02
 0.3979562605650E-02 -0.6926917669567E-02
 0.2252542090834E-02 -0.3977951413948E-02
 0.6531371257729E+00 -0.6943392257161E+00
 0.6962677763244E+00 -0.6832813338142E+00
 0.7358802276040E+00 -0.6643306839727E+00
 0.7714199979012E+00 -0.6385329879564E+00
 0.8024875258028E+00 -0.6071681737841E+00
 0.8288615452619E+00 -0.5716825435731E+00
 0.8505167969742E+00 -0.5336300200255E+00
 0.8676351034647E+00 -0.4945853348754E+00
 0.8805997947493E+00 -0.4560266611223E+00
 0.8899554632045E+00 -0.4191902863208E+00
 0.8963232612378E+00 -0.3849444428676E+00
 0.9003060392569E+00 -0.3538121560671E+00
 0.9024300898433E+00 -0.3260777023987E+00
 0.9031248669805E+00 -0.3018488601364E+00
 0.9027197232398E+00 -0.2811090379384E+00
 0.9014507329709E+00 -0.2637623679659E+00
 0.8994751203429E+00 -0.2496810472944E+00
 0.8968928467184E+00 -0.2387470172299E+00
 0.8937764633612E+00 -0.2308852238287E+00
 0.5178203237698E+00 -0.6002591066433E+00
 0.4364787373135E+00 -0.5063186043109E+00
 0.3630109750595E+00 -0.4172284725524E+00
 0.2962651162195E+00 -0.3336809810955E+00
 0.2358822742419E+00 -0.2560300178435E+00
 0.1818889818992E+00 -0.1849728393299E+00
 0.1345417737994E+00 -0.1216654620685E+00
 0.9525156279722E-01 -0.6792597718193E-01
 0.6654312685729E-01 -0.2665870789105E-01
 0.8505356823102E+00 -0.2189798368389E+00
 0.8006869561416E+00 -0.2084878559904E+00
 0.7419046752129E+00 -0.1942592810965E+00
 0.6749177857750E+00 -0.1763140327035E+00
 0.5993820922692E+00 -0.1550212366116E+00
 0.5148116125243E+00 -0.1312085725016E+00
 0.4205671778104E+00 -0.1060271103354E+00
 0.3153830869419E+00 -0.8055226851000E-01
 0.1974667258450E+00 -0.5545418002927E-01
 0.6090005417006E+00 -0.7357337360092E+00
 0.6109828552404E+00 -0.7724107453482E+00
 0.6135579805991E+00 -0.8055342042994E+00
 0.6174810030011E+00 -0.8337562567099E+00
 0.6237871859587E+00 -0.8555351278849E+00
 0.6339106551632E+00 -0.8691486799358E+00
 0.6498202736821E+00 -0.8727230332802E+00
 0.6741938643845E+00 -0.8642620795572E+00
 0.7105779723439E+00 -0.8416983636547E+00
 0.9023361667688E+00 -0.2257316620960E+00
 0.9123890009939E+00 -0.2255768511460E+00
 0.9205586455388E+00 -0.2261600237048E+00
 0.9271680443935E+00 -0.2277522413451E+00
 0.9325956017223E+00 -0.2305399246171E+00
 0.9372229728244E+00 -0.2346355907007E+00
 0.9414104329737E+00 -0.2400926905215E+00
 0.9454905215169E+00 -0.2469209885532E+00
 0.9497656363555E+00 -0.2550952580566E+00
 0.9425801581789E-03  0.1411732462650E-02
 0.2132170783394E-02  0.2701413744006E-02
 0.3520588673870E-02  0.3798337327982E-02
 0.5160502689148E-02  0.4769677116496E-02
 0.7042450464680E-02  0.5618702445536E-02
 0.9158173169310E-02  0.6346539955921E-02
 0.1149549107012E-01  0.6949270857283E-02
 0.1404111438673E-01  0.7420104289914E-02
 0.1678086159558E-01  0.7748906952582E-02
 0.1970025476019E-01  0.7920706710797E-02
 0.2278124481344E-01  0.7942206721490E-02
 0.2598977450676E-01  0.7861504815944E-02
 0.2927216335557E-01  0.7689643567662E-02
 0.3256493178896E-01  0.7414042139101E-02
 0.3579644047302E-01  0.7022294698961E-02
 0.3888327367440E-01  0.6505410567628E-02
 0.4173522650807E-01  0.5835594839422E-02
 0.4422477517035E-01  0.4970440698590E-02
 0.4618425285456E-01  0.3816118439327E-02
 0.4677919292707E-01  0.2381044379853E-02
 0.8419983020555E-03  0.1158332684798E-02
 0.2034153994632E-02  0.2286594007468E-02
 0.3452031249390E-02  0.3284045414431E-02
 0.5117429933813E-02  0.4154865423015E-02
 0.7029254098256E-02  0.4910607852051E-02
 0.9177322255113E-02  0.5550032398193E-02
 0.1154981886860E-01  0.6069636195989E-02
 0.1413328296126E-01  0.6462913917328E-02
 0.1691354014450E-01  0.6720512653398E-02
 0.1987548738294E-01  0.6830075835833E-02
 0.2299898893025E-01  0.6802826477180E-02
 0.2624765623767E-01  0.6690208391224E-02
 0.2956578527959E-01  0.6509413793021E-02
 0.3288703934335E-01  0.6254735188380E-02
 0.3613592575442E-01  0.5920746644100E-02
 0.3922546755178E-01  0.5506542690128E-02
 0.4205525930354E-01  0.5001937021437E-02
 0.4449395929403E-01  0.4393904683900E-02
 0.4627809929017E-01  0.3711579730660E-02
 0.4667891379849E-01  0.2928994977980E-02
 0.7797166924697E-03  0.9654133816858E-03
 0.1955349851810E-02  0.1927755707459E-02
 0.3393294321448E-02  0.2806685441755E-02
 0.5083202834474E-02  0.3575696134521E-02
 0.7022505593935E-02  0.4236604544375E-02
 0.9201139117086E-02  0.4788137036086E-02
 0.1160680255280E-01  0.5226237680884E-02
 0.1422589011395E-01  0.5544958345564E-02
 0.1704385208971E-01  0.5736340397223E-02
 0.2004429243805E-01  0.5791424174881E-02
 0.2320451724131E-01  0.5724944876831E-02
 0.2648591760076E-01  0.5588983365198E-02
 0.2983133792418E-01  0.5404601108724E-02
 0.3317231963251E-01  0.5171733642415E-02
 0.3643055318743E-01  0.4890515904645E-02
 0.3951491383298E-01  0.4567120168113E-02
 0.4231948528786E-01  0.4202429397545E-02
 0.4469736799065E-01  0.3809417665614E-02
 0.4637313298242E-01  0.3420529801222E-02
 0.4690515335398E-01  0.2933534227591E-02
 0.7412781841117E-03  0.8043331887764E-03
 0.1897081912476E-02  0.1612104452645E-02
 0.3346107158562E-02  0.2365655208432E-02
 0.5057371998655E-02  0.3029431904515E-02
 0.7021900668040E-02  0.3595059988026E-02
 0.9228878955309E-02  0.4059182839528E-02
 0.1166544208806E-01  0.4417461971519E-02
 0.1431753899196E-01  0.4664524850561E-02
 0.1716989352119E-01  0.4794175247535E-02
 0.2020443708045E-01  0.4800779882340E-02
 0.2339595587837E-01  0.4701486179553E-02
 0.2670393189484E-01  0.4547483302538E-02
 0.3007012258066E-01  0.4362067522821E-02
 0.3342466066143E-01  0.4149291005032E-02
 0.3668716120938E-01  0.3913358546224E-02
 0.3976389542174E-01  0.3664492447895E-02
 0.4254515606931E-01  0.3410083337490E-02
 0.4488113384306E-01  0.3165879663446E-02
 0.4654729523233E-01  0.2932072391054E-02
 0.4733663656182E-01  0.2588338881102E-02
 0.7183452877685E-03  0.6627656503679E-03
 0.1856615184104E-02  0.1328435474699E-02
 0.3310975082914E-02  0.1957062669445E-02
 0.5039737024879E-02  0.2513746415486E-02
 0.7026948423253E-02  0.2983854480578E-02
 0.9259859737121E-02  0.3361296525740E-02
 0.1172479057892E-01  0.3641376497697E-02
 0.1440698563784E-01  0.3819429587436E-02
 0.1729014747711E-01  0.3891070361149E-02
 0.2035441528819E-01  0.3853583431188E-02
 0.2357231633915E-01  0.3725565002997E-02
 0.2690180548776E-01  0.3556350110318E-02
 0.3028392610269E-01  0.3370202449892E-02
 0.3364803916851E-01  0.3173837290133E-02
 0.3691273703148E-01  0.2973689834199E-02
 0.3998340787153E-01  0.2781280910421E-02
 0.4275073476777E-01  0.2604052334792E-02
 0.4507801273302E-01  0.2447066890999E-02
 0.4680831296045E-01  0.2284230006800E-02
 0.4788335788900E-01  0.2010280879365E-02
 0.7058896363587E-03  0.5343791842805E-03
 0.1830579865979E-02  0.1068836222878E-02
 0.3287222388966E-02  0.1576214930050E-02
 0.5029960813535E-02  0.2025929500849E-02
 0.7037124312468E-02  0.2400725060843E-02
 0.9293416876761E-02  0.2692360688072E-02
 0.1178399928308E-01  0.2895780577944E-02
 0.1449318897986E-01  0.3007096286675E-02
 0.1740348744063E-01  0.3023622446634E-02
 0.2049329369564E-01  0.2945038712301E-02
 0.2373323791545E-01  0.2790597218877E-02
 0.2708016417740E-01  0.2607123478084E-02
 0.3047480600708E-01  0.2418842416319E-02
 0.3384642909111E-01  0.2233778956881E-02
 0.3711376063654E-01  0.2058882814254E-02
 0.4018334747914E-01  0.1904369438012E-02
 0.4295130539651E-01  0.1772939625439E-02
 0.4530304822945E-01  0.1656361364863E-02
 0.4714180530502E-01  0.1515459199898E-02
 0.4849128800471E-01  0.1270472375832E-02
 0.7007164478108E-03  0.4155168942944E-03
 0.1815928971041E-02  0.8278002149206E-03
 0.3273571151429E-02  0.1218739430508E-02
 0.5027457843988E-02  0.1563031143882E-02
 0.7051876912574E-02  0.1843273622989E-02
 0.9328922551323E-02  0.2050086163034E-02
 0.1184233451936E-01  0.2178248462268E-02
 0.1457532867836E-01  0.2224670486844E-02
 0.1750913726900E-01  0.2188177674887E-02
 0.2062058306859E-01  0.2070323639411E-02
 0.2387880475307E-01  0.1890378891562E-02
 0.2723996572557E-01  0.1692198201722E-02
 0.3064493302200E-01  0.1499152951534E-02
 0.3402358376256E-01  0.1319411460929E-02
 0.3729596170233E-01  0.1158982133366E-02
 0.4037187637829E-01  0.1024792292300E-02
 0.4315666714591E-01  0.9128271983323E-03
 0.4555992732645E-01  0.8040544111681E-03
 0.4752990889395E-01  0.6560015594274E-03
 0.4912915108741E-01  0.4141907287803E-03
 0.7006984297384E-03  0.3038751559323E-03
 0.1810139546955E-02  0.6014095800903E-03
 0.3268546724067E-02  0.8808739791072E-03
 0.5031456444906E-02  0.1122100009569E-02
 0.7070625416524E-02  0.1309009723539E-02
 0.9365801988488E-02  0.1432062773465E-02
 0.1189918850858E-01  0.1486191976354E-02
 0.1465279873761E-01  0.1469123122661E-02
 0.1760661962328E-01  0.1380979583131E-02
 0.2073613285000E-01  0.1224720203713E-02
 0.2400940576388E-01  0.1019133268779E-02
 0.2738235386190E-01  0.8047768855623E-03
 0.3079644611294E-01  0.6035208389204E-03
 0.3418287543684E-01  0.4227382684890E-03
 0.3746411906091E-01  0.2664020938080E-03
 0.4055498577081E-01  0.1370795437433E-03
 0.4337190148629E-01  0.2412295700984E-04
 0.4584649223832E-01 -0.9847644370917E-04
 0.4795709275078E-01 -0.2714994120792E-03
 0.4977886917235E-01 -0.5284248356741E-03
 0.7043629262396E-03  0.1978988126325E-03
 0.1811190364013E-02  0.3867877868265E-03
 0.3270700260548E-02  0.5594588291066E-03
 0.5041098506684E-02  0.7003283114232E-03
 0.7092777774854E-02  0.7954179447018E-03
 0.9403544139820E-02  0.8358064240008E-03
 0.1195408264067E-01  0.8169233178611E-03
 0.1472518932581E-01  0.7373389089797E-03
 0.1769570344317E-01  0.5982740540297E-03
 0.2084004398304E-01  0.4036964916729E-03
 0.2412562568649E-01  0.1715311190276E-03
 0.2750854238884E-01 -0.6118186971759E-04
 0.3093133703563E-01 -0.2745671568463E-03
 0.3432718196708E-01 -0.4627429645910E-03
 0.3762193534477E-01 -0.6244496510292E-03
 0.4073652182703E-01 -0.7617410531235E-03
 0.4359868717219E-01 -0.8907420296561E-03
 0.4615798156516E-01 -0.1041152337977E-02
 0.4841123779136E-01 -0.1249545885658E-02
 0.5043036142186E-01 -0.1536415069158E-02
 0.7106593844008E-03  0.9647644579687E-04
 0.1817485384380E-02  0.1817508467279E-03
 0.3278716129046E-02  0.2518455116072E-03
 0.5055525060442E-02  0.2951141105953E-03
 0.7117760003471E-02  0.3000182991130E-03
 0.9441710681779E-02  0.2588063308522E-03
 0.1200666451688E-01  0.1677120631482E-03
 0.1479226373937E-01  0.2618821731211E-04
 0.1777635508934E-01 -0.1636162313325E-03
 0.2093259730860E-01 -0.3970430257771E-03
 0.2422815984875E-01 -0.6573079598372E-03
 0.2761972595965E-01 -0.9110230434103E-03
 0.3105136657807E-01 -0.1140655235148E-02
 0.3445881961317E-01 -0.1342270237911E-02
 0.3777202500442E-01 -0.1517613823196E-02
 0.4091851510179E-01 -0.1673063640936E-02
 0.4383645388807E-01 -0.1828762199284E-02
 0.4648897312385E-01 -0.2015648639153E-02
 0.4888229719725E-01 -0.2265403670384E-02
 0.5108059125616E-01 -0.2590533263874E-02
 0.7187770948432E-03 -0.1155343043214E-05
 0.1827638574372E-02 -0.1505951307800E-04
 0.3291211893529E-02 -0.4338927359563E-04
 0.5073559773789E-02 -0.9447677208963E-04
 0.7144511809708E-02 -0.1773596174716E-03
 0.9479231397797E-02 -0.2982939015659E-03
 0.1205579609075E-01 -0.4600278260170E-03
 0.1485283252399E-01 -0.6622193699120E-03
 0.1784740420545E-01 -0.9019583953883E-03
 0.2101273249604E-01 -0.1174172135093E-02
 0.2431613482323E-01 -0.1463421396758E-02
 0.2771526426837E-01 -0.1740022087171E-02
 0.3115611158795E-01 -0.1988993837876E-02
 0.3457741067370E-01 -0.2208579549419E-02
 0.3791354036826E-01 -0.2403492640787E-02
 0.4109848541802E-01 -0.2583803852112E-02
 0.4407921943204E-01 -0.2772264030579E-02
 0.4682812065933E-01 -0.2999442199461E-02
 0.4935515489232E-01 -0.3292450787297E-02
 0.5171194321413E-01 -0.3656925290820E-02
 0.7282089986203E-03 -0.9572484931827E-04
 0.1840831185269E-02 -0.2053851963918E-03
 0.3307509206525E-02 -0.3289998546014E-03
 0.5094921597500E-02 -0.4721180872243E-03
 0.7173185656737E-02 -0.6413316646281E-03
 0.9516661447629E-02 -0.8411959615946E-03
 0.1210242544386E-01 -0.1073262895853E-02
 0.1490826106609E-01 -0.1336262216719E-02
 0.1791067200599E-01 -0.1626613893328E-02
 0.2108274869859E-01 -0.1938996961141E-02
 0.2439231213786E-01 -0.2259421323245E-02
 0.2779833163449E-01 -0.2561900035769E-02
 0.3124907176869E-01 -0.2834097668464E-02
 0.3468661237063E-01 -0.3076490268857E-02
 0.3804995945227E-01 -0.3296549851835E-02
 0.4127917841133E-01 -0.3507376041338E-02
 0.4432840890891E-01 -0.3733223793819E-02
 0.4717603214340E-01 -0.4003411156721E-02
 0.4983152576774E-01 -0.4340631282696E-02
 0.5233412281932E-01 -0.4746422926574E-02
 0.7385421060243E-03 -0.1877701432949E-03
 0.1856324056907E-02 -0.3903761292785E-03
 0.3326849471736E-02 -0.6066420727132E-03
 0.5119034138038E-02 -0.8397786953969E-03
 0.7203423469087E-02 -0.1094058656906E-02
 0.9553827693889E-02 -0.1372238624545E-02
 0.1214653761132E-01 -0.1674555698505E-02
 0.1495869374878E-01 -0.1998779362283E-02
 0.1796647994506E-01 -0.2340719603701E-02
 0.2114315524212E-01 -0.2694914111805E-02
 0.2445737389843E-01 -0.3048863866707E-02
 0.2786973556644E-01 -0.3380223832939E-02
 0.3133107921441E-01 -0.3679302859364E-02
 0.3478707333998E-01 -0.3948736698802E-02
 0.3818136197087E-01 -0.4198439401390E-02
 0.4145951728464E-01 -0.4443897097495E-02
 0.4458126567081E-01 -0.4710059835212E-02
 0.4752828473132E-01 -0.5024494397422E-02
 0.5030719397757E-01 -0.5406157801543E-02
 0.5294429375163E-01 -0.5853055295366E-02
 0.7494773147506E-03 -0.2777422293961E-03
 0.1873564308822E-02 -0.5710114098034E-03
 0.3348645817473E-02 -0.8777716041081E-03
 0.5145447604263E-02 -0.1199257878086E-02
 0.7234965737497E-02 -0.1537578573601E-02
 0.9590649002897E-02 -0.1893665087519E-02
 0.1218821044780E-01 -0.2266369743278E-02
 0.1500436159794E-01 -0.2652478113381E-02
 0.1801521270095E-01 -0.3047224616386E-02
 0.2119447829656E-01 -0.3445062501685E-02
 0.2451194756113E-01 -0.3834975478505E-02
 0.2793013022949E-01 -0.4198167797457E-02
 0.3140268590286E-01 -0.4527518931372E-02
 0.3487902315175E-01 -0.4827661535110E-02
 0.3830731071534E-01 -0.5110589661397E-02
 0.4163798214078E-01 -0.5393621570730E-02
 0.4483491237099E-01 -0.5701838544653E-02
 0.4788105858550E-01 -0.6060937313167E-02
 0.5077853265701E-01 -0.6486690313147E-02
 0.5354167913142E-01 -0.6975006627472E-02
 0.7608056728130E-03 -0.3660294752399E-03
 0.1892154992529E-02 -0.7481424106824E-03
 0.3372469886674E-02 -0.1143684783753E-02
 0.5173841587795E-02 -0.1552205963946E-02
 0.7267657342673E-02 -0.1973807062671E-02
 0.9627136755438E-02 -0.2407611725960E-02
 0.1222760772463E-01 -0.2851054384138E-02
 0.1504556921715E-01 -0.3299921626414E-02
 0.1805730197669E-01 -0.3748887257229E-02
 0.2123724574112E-01 -0.4192336747905E-02
 0.2455659694284E-01 -0.4620689149804E-02
 0.2798002039039E-01 -0.5018579161150E-02
 0.3146419214938E-01 -0.5381329813262E-02
 0.3496234118697E-01 -0.5715351600597E-02
 0.3842697950334E-01 -0.6034354744102E-02
 0.4181276385233E-01 -0.6357039669519E-02
 0.4508651140277E-01 -0.6708282333922E-02
 0.4823095021700E-01 -0.7111977306731E-02
 0.5124279442546E-01 -0.7581419963794E-02
 0.5412557264689E-01 -0.8111368929690E-02
 0.7723918356327E-03 -0.4529739218979E-03
 0.1911831872403E-02 -0.9225233834897E-03
 0.3398038605291E-02 -0.1405549871286E-02
 0.5204023340993E-02 -0.1900142980941E-02
 0.7301449298104E-02 -0.2404540811749E-02
 0.9663393454657E-02 -0.2916101073680E-02
 0.1226497255406E-01 -0.3430833841176E-02
 0.1508268420256E-01 -0.3943520051340E-02
 0.1809321488294E-01 -0.4448274299880E-02
 0.2127197850009E-01 -0.4939400172735E-02
 0.2459182118958E-01 -0.5408676322199E-02
 0.2801977416077E-01 -0.5844033611245E-02
 0.3151568178309E-01 -0.6243075517225E-02
 0.3503662513749E-01 -0.6613740706027E-02
 0.3853925485842E-01 -0.6971112897828E-02
 0.4198188222552E-01 -0.7334932776503E-02
 0.4533330388724E-01 -0.7729701663011E-02
 0.4857495578780E-01 -0.8177731364572E-02
 0.5169772838033E-01 -0.8690502740410E-02
 0.5469528970310E-01 -0.9262214029634E-02
 0.7841623159942E-03 -0.5388827802919E-03
 0.1932445770671E-02 -0.1094833956542E-02
 0.3425202099508E-02 -0.1664431908158E-02
 0.5235923675392E-02 -0.2244475944772E-02
 0.7336397787526E-02 -0.2831463738245E-02
 0.9699610116598E-02 -0.3421039487765E-02
 0.1230062152211E-01 -0.4007801340613E-02
 0.1511612919488E-01 -0.4585526481900E-02
 0.1812344675612E-01 -0.5147763889043E-02
 0.2129918782953E-01 -0.5688699412959E-02
 0.2461806075827E-01 -0.6201377147748E-02
 0.2804964271672E-01 -0.6676884238303E-02
 0.3155706180661E-01 -0.7114919990097E-02
 0.3510125475648E-01 -0.7524688175336E-02
 0.3864281950058E-01 -0.7922335231036E-02
 0.4214325913082E-01 -0.8328394087613E-02
 0.4557263164197E-01 -0.8766949384427E-02
 0.4891037595569E-01 -0.9259031362047E-02
 0.5214138746469E-01 -0.9814881211187E-02
 0.5525018598938E-01 -0.1042852853780E-01
 0.7960970370292E-03 -0.6240369760427E-03
 0.1953949235128E-02 -0.1265696374158E-02
 0.3453933200115E-02 -0.1921313057919E-02
 0.5269591657364E-02 -0.2586514772098E-02
 0.7372661263754E-02 -0.3256154729238E-02
 0.9736062580696E-02 -0.3924217745018E-02
 0.1233493922432E-01 -0.4583916266136E-02
 0.1514637590901E-01 -0.5228035143556E-02
 0.1814851738564E-01 -0.5849549149460E-02
 0.2131937714542E-01 -0.6442477289604E-02
 0.2463570852968E-01 -0.7001025578368E-02
 0.2806978464518E-01 -0.7519300634215E-02
 0.3158810347180E-01 -0.7998902799414E-02
 0.3515544975566E-01 -0.8450035003145E-02
 0.3873621700584E-01 -0.8889627924291E-02
 0.4229476523442E-01 -0.9338834174745E-02
 0.4580192925892E-01 -0.9821368202065E-02
 0.4923472547775E-01 -0.1035731731408E-01
 0.5257201705782E-01 -0.1095618661236E-01
 0.5578966679045E-01 -0.1161213585076E-01
 0.8082232948757E-03 -0.7086979390867E-03
 0.1976386698375E-02 -0.1435689528784E-02
 0.3484318760295E-02 -0.2177110122132E-02
 0.5305188926747E-02 -0.2927487387143E-02
 0.7410496266770E-02 -0.3680096610662E-02
 0.9773106970600E-02 -0.4427313872526E-02
 0.1236837307322E-01 -0.5161003475492E-02
 0.1517394071919E-01 -0.5872980852288E-02
 0.1816896994955E-01 -0.6555641431852E-02
 0.2133304740222E-01 -0.7202782903193E-02
 0.2464512477995E-01 -0.7809668452107E-02
 0.2808029336573E-01 -0.8373297839133E-02
 0.3160848353114E-01 -0.8896975985094E-02
 0.3519832167225E-01 -0.9391641233898E-02
 0.3881790227801E-01 -0.9874756572784E-02
 0.4243424680167E-01 -0.1036797615486E-01
 0.4601870109087E-01 -0.1089474670621E-01
 0.4954565632554E-01 -0.1147456776914E-01
 0.5298797947882E-01 -0.1211667162100E-01
 0.5631318006854E-01 -0.1281561893520E-01
 0.8206116103996E-03 -0.7931134676184E-03
 0.1999887609915E-02 -0.1605361325219E-02
 0.3516552904489E-02 -0.2432690720998E-02
 0.5342984170302E-02 -0.3268554842118E-02
 0.7450252408260E-02 -0.4104686524605E-02
 0.9811174440969E-02 -0.4931898089280E-02
 0.1240142820422E-01 -0.5740754609399E-02
 0.1519938135698E-01 -0.6522139633321E-02
 0.1818537195850E-01 -0.7267873218590E-02
 0.2134070507740E-01 -0.7971479209188E-02
 0.2464665487041E-01 -0.8629179221676E-02
 0.2808122650614E-01 -0.9240756563455E-02
 0.3161782507186E-01 -0.9811028887223E-02
 0.3522892089546E-01 -0.1035140977658E-01
 0.3888628187081E-01 -0.1087965957154E-01
 0.4255953975703E-01 -0.1141784855833E-01
 0.4622049213372E-01 -0.1198928858985E-01
 0.4984089184072E-01 -0.1261325573517E-01
 0.5338769381722E-01 -0.1329916273737E-01
 0.5682020004165E-01 -0.1404225681911E-01
 0.8333731961776E-03 -0.8775232668666E-03
 0.2024662252557E-02 -0.1775240487498E-02
 0.3550932247130E-02 -0.2688889192721E-02
 0.5383347992648E-02 -0.3610826875222E-02
 0.7492366669128E-02 -0.4531247373501E-02
 0.9850765106965E-02 -0.5439438935040E-02
 0.1243466211627E-01 -0.6324730093343E-02
 0.1522329412051E-01 -0.7177128945833E-02
 0.1819831738132E-01 -0.7987898949247E-02
 0.2134287173724E-01 -0.8750246216016E-02
 0.2464064853656E-01 -0.9461264475239E-02
 0.2807263628244E-01 -0.1012343309264E-01
 0.3161573773016E-01 -0.1074290007885E-01
 0.3524628024206E-01 -0.1133129685412E-01
 0.3893974768333E-01 -0.1190645154132E-01
 0.4266847622210E-01 -0.1249077646627E-01
 0.4640485618499E-01 -0.1310759103776E-01
 0.5011816626140E-01 -0.1377631973576E-01
 0.5376957960010E-01 -0.1450702558088E-01
 0.5731020242281E-01 -0.1529597500256E-01
 0.8466589647154E-03 -0.9621646892744E-03
 0.2051000200242E-02 -0.1945848863222E-02
 0.3587853177515E-02 -0.2946523395018E-02
 0.5426748331799E-02 -0.3955378744338E-02
 0.7537357062769E-02 -0.4961040681546E-02
 0.9892441043424E-02 -0.5951310614518E-02
 0.1246867875615E-01 -0.6914361773285E-02
 0.1524631112151E-01 -0.7839407534074E-02
 0.1820842928779E-01 -0.8717193959996E-02
 0.2134009435470E-01 -0.9540580236743E-02
 0.2462747991454E-01 -0.1030746399586E-01
 0.2805460032107E-01 -0.1102296008938E-01
 0.3160185762778E-01 -0.1169437832677E-01
 0.3524945704113E-01 -0.1233331187422E-01
 0.3897670789444E-01 -0.1295742023390E-01
 0.4275888828311E-01 -0.1358937383989E-01
 0.4656932365554E-01 -0.1425263271101E-01
 0.5037516640604E-01 -0.1496714882783E-01
 0.5413199951918E-01 -0.1574414482013E-01
 0.5778263263930E-01 -0.1658131386595E-01
 0.8606601704768E-03 -0.1047279178423E-02
 0.2079271577723E-02 -0.2117715219259E-02
 0.3627811324344E-02 -0.3206413499829E-02
 0.5473746399959E-02 -0.4303270033672E-02
 0.7585815504360E-02 -0.5395280999629E-02
 0.9936818075058E-02 -0.6468801255954E-02
 0.1250412165137E-01 -0.7510955688700E-02
 0.1526909703524E-01 -0.8510274379520E-02
 0.1821636230694E-01 -0.9457051069315E-02
 0.2133295552798E-01 -0.1034378882252E-01
 0.2460756744268E-01 -0.1116914409732E-01
 0.2802725239550E-01 -0.1194083815648E-01
 0.3157588742715E-01 -0.1266719259945E-01
 0.3523757566285E-01 -0.1335950691633E-01
 0.3899561864562E-01 -0.1403501715296E-01
 0.4282861270501E-01 -0.1471653672665E-01
 0.4671137018980E-01 -0.1542776988390E-01
 0.5060947252739E-01 -0.1618958008704E-01
 0.5447319710442E-01 -0.1701491899146E-01
 0.5823686549798E-01 -0.1790341628505E-01
 0.8756109575782E-03 -0.1133119982264E-02
 0.2109931513872E-02 -0.2291391640917E-02
 0.3671403363264E-02 -0.3469403986947E-02
 0.5524993000810E-02 -0.4655566193743E-02
 0.7638399566114E-02 -0.5835152007314E-02
 0.9984555985721E-02 -0.6993121821611E-02
 0.1254166568136E-01 -0.8115694565158E-02
 0.1529234485825E-01 -0.9190866350653E-02
 0.1822280426816E-01 -0.1020857449902E-01
 0.2132208282246E-01 -0.1116098117556E-01
 0.2458139283623E-01 -0.1204748409591E-01
 0.2799081258918E-01 -0.1287841796300E-01
 0.3153763692787E-01 -0.1366299069730E-01
 0.3520987246815E-01 -0.1441195506903E-01
 0.3899502001504E-01 -0.1514184083983E-01
 0.4287550027589E-01 -0.1587543612345E-01
 0.4682838741255E-01 -0.1663673953322E-01
 0.5081849618145E-01 -0.1744790807871E-01
 0.5479122585726E-01 -0.1832427121162E-01
 0.5867215388400E-01 -0.1926803646974E-01
 0.8917933016972E-03 -0.1219961858502E-02
 0.2143528449032E-02 -0.2467473951840E-02
 0.3719331371619E-02 -0.3736390357733E-02
 0.5581224918517E-02 -0.5013363819945E-02
 0.7695822629845E-02 -0.6281824720845E-02
 0.1003634668963E-01 -0.7525415804521E-02
 0.1258200706554E-01 -0.8729640214347E-02
 0.1531677020273E-01 -0.9882154969892E-02
 0.1822847641524E-01 -0.1097267185810E-01
 0.2130815644166E-01 -0.1199305509314E-01
 0.2454951823150E-01 -0.1294345721345E-01
 0.2794561617772E-01 -0.1383687424011E-01
 0.3148706431639E-01 -0.1468330744547E-01
 0.3516574491056E-01 -0.1549271789160E-01
 0.3897357991158E-01 -0.1628061268569E-01
 0.4289743399473E-01 -0.1706951085107E-01
 0.4691765797344E-01 -0.1788367091318E-01
 0.5099941397409E-01 -0.1874690924150E-01
 0.5508386729417E-01 -0.1967768060041E-01
 0.5908756418344E-01 -0.2068157705561E-01
 0.9095451344924E-03 -0.1308113755549E-02
 0.2180717285942E-02 -0.2646627953909E-02
 0.3772409918465E-02 -0.4008352234957E-02
 0.5643260813991E-02 -0.5377820365291E-02
 0.7758841710234E-02 -0.6736477539443E-02
 0.1009289979491E-01 -0.8066768952188E-02
 0.1262585113456E-01 -0.9353734940893E-02
 0.1534310371180E-01 -0.1058494136482E-01
 0.1823413169357E-01 -0.1175004324260E-01
 0.2129191456402E-01 -0.1284067947585E-01
 0.2451260067566E-01 -0.1385780481408E-01
 0.2789214046267E-01 -0.1481717005482E-01
 0.3142431794043E-01 -0.1572951972747E-01
 0.3510480627471E-01 -0.1660379750766E-01
 0.3893014972990E-01 -0.1745413928245E-01
 0.4289236116245E-01 -0.1830245483649E-01
 0.4697633757179E-01 -0.1917310194232E-01
 0.5114909544117E-01 -0.2009187843673E-01
 0.5534853385019E-01 -0.2108123378330E-01
 0.5948189341889E-01 -0.2215115697256E-01
 0.9292728796827E-03 -0.1397935939727E-02
 0.2222278809445E-02 -0.2829624134617E-02
 0.3831576005536E-02 -0.4286395230633E-02
 0.5711995737782E-02 -0.5750189392021E-02
 0.7828242017910E-02 -0.7200318298091E-02
 0.1015492496716E-01 -0.8618219083246E-02
 0.1267389750119E-01 -0.9988802370555E-02
 0.1537208123076E-01 -0.1129985022814E-01
 0.1824055063736E-01 -0.1254116868603E-01
 0.2127415563702E-01 -0.1370427409349E-01
 0.2447140293181E-01 -0.1479100607230E-01
 0.2783102828229E-01 -0.1582001350235E-01
 0.3134977767909E-01 -0.1680278956971E-01
 0.3502694667166E-01 -0.1774707268737E-01
 0.3886383576716E-01 -0.1866525832152E-01
 0.4285834648968E-01 -0.1957819692193E-01
 0.4700144928991E-01 -0.2051000278508E-01
 0.5126402388407E-01 -0.2148868212823E-01
 0.5558215591447E-01 -0.2254170038108E-01
 0.5985356430141E-01 -0.2368472776953E-01
 0.9514703176509E-03 -0.1489863832889E-02
 0.2269147354515E-02 -0.3017384643707E-02
 0.3897901696857E-02 -0.4571804517968E-02
 0.5788392805177E-02 -0.6131862129717E-02
 0.7904817036915E-02 -0.7674607800773E-02
 0.1022311046978E-01 -0.9180765477015E-02
 0.1272682228423E-01 -0.1063554763068E-01
 0.1540443140815E-01 -0.1202732303755E-01
 0.1824853445088E-01 -0.1334629444176E-01
 0.2125573700059E-01 -0.1458398741644E-01
 0.2442679953083E-01 -0.1574324427984E-01
 0.2776310660731E-01 -0.1684580804471E-01
 0.3126409398422E-01 -0.1790399550229E-01
 0.3493239993773E-01 -0.1892421571627E-01
 0.3877408918330E-01 -0.1991676227133E-01
 0.4279365687036E-01 -0.2090086260567E-01
 0.4698989720523E-01 -0.2189981210877E-01
 0.5134020867260E-01 -0.2294382529237E-01
 0.5578104593021E-01 -0.2406663910426E-01
 0.6020051486951E-01 -0.2529123919968E-01
 0.9767468238580E-03 -0.1584442247287E-02
 0.2322449421884E-02 -0.3211048169685E-02
 0.3972608670361E-02 -0.4866113707757E-02
 0.5873469742292E-02 -0.6524415285382E-02
 0.7989342624959E-02 -0.8160683032575E-02
 0.1029809737824E-01 -0.9755376258993E-02
 0.1278525719829E-01 -0.1129455580264E-01
 0.1544086054983E-01 -0.1276760945778E-01
 0.1825889512629E-01 -0.1416541676627E-01
 0.2123756958319E-01 -0.1547967109434E-01
 0.2437977742220E-01 -0.1671436850739E-01
 0.2768939871728E-01 -0.1789459522907E-01
 0.3116822240062E-01 -0.1903364935588E-01
 0.3482181395778E-01 -0.2013658357112E-01
 0.3866081952289E-01 -0.2121128351519E-01
 0.4269688289645E-01 -0.2227470716244E-01
 0.4693853714287E-01 -0.2334844686103E-01
 0.5137304075726E-01 -0.2446461878251E-01
 0.5594079251379E-01 -0.2566435750098E-01
 0.6052002358810E-01 -0.2698111490974E-01
 0.1005869863658E-02 -0.1682376479203E-02
 0.2383556751954E-02 -0.3412061305690E-02
 0.4057082694998E-02 -0.5171194276767E-02
 0.5968276753392E-02 -0.6929664795928E-02
 0.8082543509118E-02 -0.8659978714355E-02
 0.1038044924117E-01 -0.1034299428473E-01
 0.1284976540046E-01 -0.1196629100938E-01
 0.1548203434484E-01 -0.1352076021512E-01
 0.1827244210808E-01 -0.1499826708986E-01
 0.2122060799895E-01 -0.1639085598717E-01
 0.2433142990235E-01 -0.1770385720521E-01
 0.2761112741734E-01 -0.1896599834816E-01
 0.3106344854589E-01 -0.2019180822813E-01
 0.3469631961215E-01 -0.2138508907353E-01
 0.3852452600285E-01 -0.2255114155656E-01
 0.4256712685485E-01 -0.2370399616033E-01
 0.4684427087198E-01 -0.2486233277702E-01
 0.5135731814898E-01 -0.2605927136885E-01
 0.5605549867533E-01 -0.2734449236187E-01
 0.6081001621408E-01 -0.2876506452053E-01
 0.1039786346401E-02 -0.1784580913484E-02
 0.2454126447151E-02 -0.3622497010030E-02
 0.4152888447856E-02 -0.5489984522286E-02
 0.6073890100533E-02 -0.7350964339534E-02
 0.8185062661807E-02 -0.9176084522514E-02
 0.1047055937195E-01 -0.1094753720596E-01
 0.1292062768643E-01 -0.1265520181511E-01
 0.1552817715104E-01 -0.1429199220901E-01
 0.1828932344372E-01 -0.1585109698887E-01
 0.2120485941165E-01 -0.1732512382052E-01
 0.2428157080727E-01 -0.1872095814282E-01
 0.2752789904912E-01 -0.2007134653068E-01
 0.3094913556520E-01 -0.2139240574288E-01
 0.3455487405596E-01 -0.2268694164888E-01
 0.3836334029965E-01 -0.2395767184560E-01
 0.4240091873136E-01 -0.2521510226215E-01
 0.4670120719263E-01 -0.2647340126640E-01
 0.5128493244413E-01 -0.2776491538773E-01
 0.5611841291277E-01 -0.2914863717830E-01
 0.6106873168606E-01 -0.3068956674899E-01
 0.1079841108474E-02 -0.1892353590296E-02
 0.2536300876671E-02 -0.3844672716385E-02
 0.4261768079170E-02 -0.5824793777754E-02
 0.6191283703022E-02 -0.7789551409597E-02
 0.8297377726888E-02 -0.9708652836212E-02
 0.1056877823550E-01 -0.1156693243138E-01
 0.1299834953810E-01 -0.1335742914543E-01
 0.1558015005297E-01 -0.1507559496088E-01
 0.1831088432698E-01 -0.1671630258362E-01
 0.2119222716348E-01 -0.1827297392001E-01
 0.2423273040303E-01 -0.1975428693999E-01
 0.2744295461007E-01 -0.2119738041735E-01
 0.3082926723039E-01 -0.2262039655000E-01
 0.3440205191639E-01 -0.2402561626033E-01
 0.3818185430292E-01 -0.2541357371629E-01
 0.4220147726544E-01 -0.2679112114993E-01
 0.4650874424745E-01 -0.2816630077820E-01
 0.5114920688242E-01 -0.2956783086729E-01
 0.5611725313540E-01 -0.3106319503146E-01
 0.6128569307876E-01 -0.3274156150422E-01
 0.1127834290565E-02 -0.2007550356871E-02
 0.2632734665090E-02 -0.4082057747880E-02
 0.4385595402946E-02 -0.6179342275392E-02
 0.6321302588746E-02 -0.8248277176235E-02
 0.8419770427009E-02 -0.1025945261000E-01
 0.1067522490483E-01 -0.1220204067039E-01
 0.1308312033791E-01 -0.1407306058017E-01
 0.1563836147920E-01 -0.1587095511231E-01
 0.1833782984626E-01 -0.1759266637501E-01
 0.2118372858291E-01 -0.1923273586789E-01
 0.2418626917361E-01 -0.2080189450339E-01
 0.2735810021229E-01 -0.2234203951161E-01
 0.3070621276210E-01 -0.2387381656472E-01
 0.3424081247906E-01 -0.2539961514056E-01
 0.3798336194452E-01 -0.2691860778214E-01
 0.4197137150432E-01 -0.2843460390611E-01
 0.4626618857813E-01 -0.2994840360589E-01
 0.5094289240015E-01 -0.3148103188457E-01
 0.5603908638822E-01 -0.3310552691212E-01
 0.6145067787625E-01 -0.3494086306162E-01
 0.1186322588037E-02 -0.2132944574390E-02
 0.2746773719409E-02 -0.4339524661669E-02
 0.4526267799735E-02 -0.6558336408882E-02
 0.6464506959403E-02 -0.8730343818590E-02
 0.8552248159303E-02 -0.1083029617468E-01
 0.1078979677031E-01 -0.1285368013170E-01
 0.1317493424252E-01 -0.1480207857472E-01
 0.1570305884067E-01 -0.1667724839306E-01
 0.1837076223528E-01 -0.1847862653999E-01
 0.2118034129564E-01 -0.2020227860497E-01
 0.2414357088579E-01 -0.2186128806022E-01
 0.2727525669512E-01 -0.2350262763979E-01
 0.3058261115407E-01 -0.2514989102961E-01
 0.3407466513026E-01 -0.2680629884406E-01
 0.3777225176140E-01 -0.2847090113586E-01
 0.4171516122179E-01 -0.3014616243279E-01
 0.4597536990447E-01 -0.3182600936414E-01
 0.5065954147777E-01 -0.3351931183157E-01
 0.5586688630817E-01 -0.3529748327583E-01
 0.6154861374247E-01 -0.3731522287377E-01
 0.1259086071488E-02 -0.2272885426944E-02
 0.2882594751751E-02 -0.4624080957395E-02
 0.4685459161958E-02 -0.6967635984046E-02
 0.6620992629695E-02 -0.9239162495201E-02
 0.8694494737260E-02 -0.1142294887478E-01
 0.1091215059006E-01 -0.1352262141007E-01
 0.1327355726874E-01 -0.1554439127261E-01
 0.1577428012043E-01 -0.1749346537898E-01
 0.1841013468808E-01 -0.1937226084905E-01
 0.2118297059347E-01 -0.2117895692228E-01
 0.2410601492119E-01 -0.2292938305622E-01
 0.2719641908364E-01 -0.2467579891026E-01
 0.3046129739781E-01 -0.2644502850411E-01
 0.3390754937270E-01 -0.2824180242210E-01
 0.3755389295593E-01 -0.3006659233649E-01
 0.4143965189222E-01 -0.3192341281300E-01
 0.4564209061848E-01 -0.3380259052175E-01
 0.5029568010018E-01 -0.3569830001472E-01
 0.5557936032849E-01 -0.3766780959965E-01
 0.6155526319653E-01 -0.3990305208999E-01
 0.1351969442272E-02 -0.2434617995619E-02
 0.3045217917995E-02 -0.4946022880322E-02
 0.4864120851679E-02 -0.7414214272142E-02
 0.6790193098142E-02 -0.9778017675893E-02
 0.8845863095842E-02 -0.1203902258827E-01
 0.1104170083241E-01 -0.1420959086696E-01
 0.1337849937781E-01 -0.1629988548536E-01
 0.1585179273152E-01 -0.1831847142000E-01
 0.1845618385448E-01 -0.2027127782376E-01
 0.2119240812203E-01 -0.2215952915175E-01
 0.2407495699188E-01 -0.2400243136105E-01
 0.2712362672599E-01 -0.2585756589676E-01
 0.3034521464792E-01 -0.2775488511790E-01
 0.3374365763968E-01 -0.2970104616424E-01
 0.3733434117704E-01 -0.3169962818438E-01
 0.4115372449674E-01 -0.3375992276335E-01
 0.4527759076456E-01 -0.3587578461482E-01
 0.4985513569160E-01 -0.3803151600166E-01
 0.5515248274868E-01 -0.4025415708637E-01
 0.6142980104033E-01 -0.4276063964630E-01
 0.1474466042060E-02 -0.2631203722743E-02
 0.3240013613279E-02 -0.5320660030324E-02
 0.5061581331925E-02 -0.7905419319213E-02
 0.6970784159782E-02 -0.1034951363342E-01
 0.9005432663294E-02 -0.1267992367122E-01
 0.1117763184909E-01 -0.1491526378460E-01
 0.1348900470166E-01 -0.1706850905786E-01
 0.1593501748359E-01 -0.1915112931283E-01
 0.1850882263658E-01 -0.2117303123297E-01
 0.2120927096843E-01 -0.2314001713053E-01
 0.2405173028857E-01 -0.2507589164393E-01
 0.2705896661093E-01 -0.2704332924445E-01
 0.3023732802073E-01 -0.2907452826701E-01
 0.3358719483695E-01 -0.3117787520845E-01
 0.3711992695049E-01 -0.3336174118759E-01
 0.4086747940084E-01 -0.3564468374573E-01
 0.4489892740654E-01 -0.3803342791482E-01
 0.4935619155008E-01 -0.4052231372305E-01
 0.5456713117301E-01 -0.4310310623227E-01
 0.6110206511933E-01 -0.4597554836236E-01
 0.1642810398523E-02 -0.2888946939649E-02
 0.3470507393210E-02 -0.5770131566991E-02
 0.5274273648901E-02 -0.8446320202997E-02
 0.7161006618448E-02 -0.1095523670289E-01
 0.9172061641432E-02 -0.1334688058829E-01
 0.1131893029221E-01 -0.1564019217084E-01
 0.1360408640867E-01 -0.1785039921780E-01
 0.1602294205354E-01 -0.1999052249427E-01
 0.1856746074874E-01 -0.2207461396116E-01
 0.2123388727504E-01 -0.2411545541194E-01
 0.2403769398526E-01 -0.2614416076594E-01
 0.2700464301079E-01 -0.2822795148770E-01
 0.3014057292800E-01 -0.3039870802126E-01
 0.3344205873092E-01 -0.3266542412936E-01
 0.3691675536969E-01 -0.3504252403427E-01
 0.4059109538957E-01 -0.3756239030533E-01
 0.4452585857534E-01 -0.4025133113381E-01
 0.4883950341771E-01 -0.4314656016291E-01
 0.5383409745592E-01 -0.4625745306794E-01
 0.6045453932689E-01 -0.4969250179827E-01
 0.1885921681108E-02 -0.3270705533039E-02
 0.3730629549382E-02 -0.6319228477037E-02
 0.5495715208676E-02 -0.9033911964925E-02
 0.7359642440233E-02 -0.1159757002300E-01
 0.9344119258350E-02 -0.1404020636607E-01
 0.1146458325075E-01 -0.1638496594889E-01
 0.1372257845262E-01 -0.1864591972511E-01
 0.1611408873164E-01 -0.2083636121585E-01
 0.1863068806353E-01 -0.2297320098008E-01
 0.2126603547065E-01 -0.2507943865108E-01
 0.2403437445551E-01 -0.2719998552337E-01
 0.2696322064768E-01 -0.2940592642895E-01
 0.3005775558610E-01 -0.3172240773246E-01
 0.3331167904054E-01 -0.3415643022787E-01
 0.3672959628053E-01 -0.3673045183650E-01
 0.4033475516860E-01 -0.3949255256582E-01
 0.4417413257842E-01 -0.4249834634534E-01
 0.4836066092961E-01 -0.4583265604152E-01
 0.5305909314089E-01 -0.4968847954961E-01
 0.5932886468147E-01 -0.5415270398108E-01
 0.7781969856385E-01 -0.2682737190999E-01
 0.1139289883796E+00 -0.6788609817180E-01
 0.1589277067483E+00 -0.1218870545626E+00
 0.2109740441240E+00 -0.1856472291022E+00
 0.2690660031200E+00 -0.2571759003238E+00
 0.3331088533750E+00 -0.3351478694955E+00
 0.4032328872682E+00 -0.4187917348385E+00
 0.4798340416663E+00 -0.5075745347004E+00
 0.5635178956869E+00 -0.6003053233770E+00
 0.8904129068318E-01 -0.2716833540475E-01
 0.1325734179156E+00 -0.6783304008289E-01
 0.1832275206850E+00 -0.1216794795901E+00
 0.2398559730263E+00 -0.1853258739186E+00
 0.3018654729010E+00 -0.2566145022325E+00
 0.3693491245561E+00 -0.3340932750174E+00
 0.4425676393589E+00 -0.4167811846949E+00
 0.5218144997984E+00 -0.5037799973348E+00
 0.6071040205791E+00 -0.5935190917696E+00
 0.1001192456205E+00 -0.2763790934687E-01
 0.1509930746230E+00 -0.6773069315432E-01
 0.2071844254224E+00 -0.1210246287631E+00
 0.2682238713799E+00 -0.1840029586437E+00
 0.3339227261166E+00 -0.2543679579884E+00
 0.4045550342526E+00 -0.3305063728892E+00
 0.4804454126647E+00 -0.4111672247404E+00
 0.5617154175565E+00 -0.4950765301887E+00
 0.6478250537950E+00 -0.5803537084215E+00
 0.1109518303803E+00 -0.2822627802054E-01
 0.1690018652272E+00 -0.6756596088176E-01
 0.2305511419480E+00 -0.1199295350995E+00
 0.2957829989365E+00 -0.1817171039013E+00
 0.3648917514835E+00 -0.2505039346878E+00
 0.4383053424601E+00 -0.3244966933851E+00
 0.5163561998219E+00 -0.4021655814643E+00
 0.5989622789372E+00 -0.4818949140898E+00
 0.6851161619649E+00 -0.5615669431237E+00
 0.1214338044053E+00 -0.2893068192128E-01
 0.1864199052105E+00 -0.6734533766025E-01
 0.2530962013034E+00 -0.1184280325498E+00
 0.3222595590800E+00 -0.1785445961131E+00
 0.3944537280514E+00 -0.2451574223705E+00
 0.4702275441955E+00 -0.3162936360225E+00
 0.5498796312061E+00 -0.3901655958704E+00
 0.6331216404556E+00 -0.4648684111563E+00
 0.7185673120663E+00 -0.5380885930300E+00
 0.1314626578014E+00 -0.2975231828220E-01
 0.2030788997464E+00 -0.6708866809693E-01
 0.2746084183490E+00 -0.1165776939630E+00
 0.3474088400504E+00 -0.1746002549151E+00
 0.4223325956698E+00 -0.2385268633925E+00
 0.5000169047514E+00 -0.3062219290537E+00
 0.5806995551897E+00 -0.3756787019784E+00
 0.6638976101277E+00 -0.4447587753100E+00
 0.7479273916218E+00 -0.5109901872501E+00
 0.1409433278394E+00 -0.3069434211456E-01
 0.2188271067743E+00 -0.6682571185283E-01
 0.2949021555532E+00 -0.1144563035243E+00
 0.3710225357948E+00 -0.1700324288024E+00
 0.4483047766888E+00 -0.2308610803689E+00
 0.5274455893327E+00 -0.2946730628708E+00
 0.6086068484405E+00 -0.3592910859504E+00
 0.6911311791588E+00 -0.4224039467448E+00
 0.7731084357905E+00 -0.4814244082203E+00
 0.1497918903396E+00 -0.3176079472769E-01
 0.2335336019407E+00 -0.6659343280237E-01
 0.3138218269843E+00 -0.1121573094555E+00
 0.3929337142274E+00 -0.1650145423605E+00
 0.4722038426240E+00 -0.2224428592805E+00
 0.5523643355129E+00 -0.2820767534267E+00
 0.6334964593076E+00 -0.3416230649159E+00
 0.7147947862267E+00 -0.3986644854703E+00
 0.7941852840316E+00 -0.4505575924057E+00
 0.1579383766636E+00 -0.3295593114528E-01
 0.2470915407776E+00 -0.6643346401465E-01
 0.3312449558432E+00 -0.1097845118927E+00
 0.4130191788580E+00 -0.1597352885347E+00
 0.4939209598787E+00 -0.2135721027659E+00
 0.5746990358248E+00 -0.2688751236263E+00
 0.6553587462472E+00 -0.3232926172995E+00
 0.7349796633808E+00 -0.3743727647463E+00
 0.8113836027686E+00 -0.4194939023200E+00
 0.1653287598379E+00 -0.3428377434383E-01
 0.2594202808031E+00 -0.6638965917669E-01
 0.3470836355964E+00 -0.1074465654486E+00
 0.4311994579969E+00 -0.1543888044049E+00
 0.5134021470610E+00 -0.2045502636557E+00
 0.5944434781955E+00 -0.2555002280522E+00
 0.6742659266345E+00 -0.3048846430957E+00
 0.7518745133675E+00 -0.3502886312059E+00
 0.8250502007985E+00 -0.3892001357145E+00
 0.1719260937500E+00 -0.3574784710066E-01
 0.2704663047976E+00 -0.6650586512048E-01
 0.3612844272821E+00 -0.1052518230384E+00
 0.4474367886289E+00 -0.1491657388563E+00
 0.5306431258257E+00 -0.1956668820195E+00
 0.6116493667324E+00 -0.2423556191616E+00
 0.6903549886902E+00 -0.2869269689214E+00
 0.7657371475479E+00 -0.3270669306797E+00
 0.8356040916941E+00 -0.3604499692204E+00
 0.1777108706807E+00 -0.3735108491057E-01
 0.2802030573183E+00 -0.6682408370591E-01
 0.3738269341623E+00 -0.1033039293744E+00
 0.4617315684675E+00 -0.1442457533741E+00
 0.5456825423505E+00 -0.1871887271176E+00
 0.6264147754358E+00 -0.2298023161217E+00
 0.7038090383013E+00 -0.2698738902561E+00
 0.7768640905577E+00 -0.3052404545291E+00
 0.8434822252637E+00 -0.3338140599313E+00
 0.1826806875843E+00 -0.3909593886909E-01
 0.2886298526304E+00 -0.6738316623117E-01
 0.3847213197938E+00 -0.1016984624580E+00
 0.4741177067269E+00 -0.1397918226845E+00
 0.5585942288006E+00 -0.1793518440477E+00
 0.6388721125532E+00 -0.2181493904659E+00
 0.7148392641179E+00 -0.2540974492274E+00
 0.7855637164238E+00 -0.2852176770466E+00
 0.8491002283679E+00 -0.3096841158377E+00
 0.1868493524304E+00 -0.4098466055991E-01
 0.2957700705227E+00 -0.6821812892150E-01
 0.3940050790938E+00 -0.1005208240374E+00
 0.4846572872355E+00 -0.1359465953960E+00
 0.5694790853134E+00 -0.1723566451163E+00
 0.6491765632651E+00 -0.2076490527841E+00
 0.7236693043192E+00 -0.2398857020148E+00
 0.7921364215709E+00 -0.2672911077687E+00
 0.8528305539170E+00 -0.2883024154554E+00
 0.1902455865584E+00 -0.4301974678573E-01
 0.3016689121209E+00 -0.6936007951438E-01
 0.4017394255357E+00 -0.9984550355749E-01
 0.4934349619885E+00 -0.1328309836054E+00
 0.5784570301746E+00 -0.1663661279840E+00
 0.6574956448217E+00 -0.1984955960704E+00
 0.7305230801376E+00 -0.2274460549394E+00
 0.7968622799221E+00 -0.2516512673309E+00
 0.8549923721782E+00 -0.2697927424994E+00
 0.1929114525126E+00 -0.4520444237899E-01
 0.3063909486403E+00 -0.7083668705828E-01
 0.4080056868719E+00 -0.9973658294440E-01
 0.5005524626738E+00 -0.1305452806851E+00
 0.5856592678339E+00 -0.1615072363346E+00
 0.6639998583957E+00 -0.1908276511560E+00
 0.7356160249956E+00 -0.2169104433487E+00
 0.7999955275244E+00 -0.2384016909179E+00
 0.8558508220441E+00 -0.2541906435651E+00
 0.1949005811012E+00 -0.4754323352557E-01
 0.3100177802501E+00 -0.7267278416493E-01
 0.4129020672171E+00 -0.1002495139687E+00
 0.5061239580484E+00 -0.1291721265827E+00
 0.5912210267575E+00 -0.1578768333116E+00
 0.6688537857018E+00 -0.1847327608277E+00
 0.7391481439025E+00 -0.2083406088947E+00
 0.8017649933035E+00 -0.2275681865606E+00
 0.8556256893748E+00 -0.2414717044946E+00
 0.1962762239081E+00 -0.5004072180582E-01
 0.3126461762574E+00 -0.7489138867148E-01
 0.4165412829725E+00 -0.1014333635892E+00
 0.5102722080412E+00 -0.1287818834578E+00
 0.5952769127741E+00 -0.1555487248554E+00
 0.6722056759752E+00 -0.1802642719796E+00
 0.7412950328971E+00 -0.2017254221072E+00
 0.8023780247598E+00 -0.2190995475256E+00
 0.8545113647069E+00 -0.2315615129119E+00
 0.1971076735898E+00 -0.5270244560247E-01
 0.3143877921367E+00 -0.7750655483150E-01
 0.4190505296965E+00 -0.1033401892630E+00
 0.5131246527685E+00 -0.1294384055823E+00
 0.5979569043901E+00 -0.1545802269152E+00
 0.6741883740414E+00 -0.1774549451908E+00
 0.7421797073427E+00 -0.1970357931999E+00
 0.8020149930671E+00 -0.2127842055340E+00
 0.8527220813646E+00 -0.2243357420366E+00
-0.6635667323371E-01 -0.7869763397042E-01
-0.9960716900951E-01 -0.1480323439415E+00
-0.9940247907937E-01 -0.1828536358682E+00
-0.7093966529125E-01 -0.1978436237599E+00
-0.1507711383873E-01 -0.2051201536994E+00
 0.6925804683860E-01 -0.2153276608299E+00
 0.1873873785214E+00 -0.2608032546787E+00
 0.3331132331204E+00 -0.3866125877181E+00
 0.5195627666193E+00 -0.5948711335245E+00
-0.5139957905028E-01 -0.6275493490916E-01
-0.8739742160427E-01 -0.1286773131757E+00
-0.8867257739275E-01 -0.1770930502096E+00
-0.6272044731995E-01 -0.2095594722815E+00
-0.1171596476815E-01 -0.2353495254987E+00
 0.6531628938737E-01 -0.2655176880423E+00
 0.1737323375066E+00 -0.3290167608852E+00
 0.3103405459997E+00 -0.4591700983444E+00
 0.4858337457751E+00 -0.6508500074244E+00
-0.3576896185684E-01 -0.5259965341293E-01
-0.6971315299780E-01 -0.1149963269399E+00
-0.7150852108065E-01 -0.1706271412176E+00
-0.4739286070234E-01 -0.2176314886287E+00
 0.1173775518920E-03 -0.2610650400716E+00
 0.7167309193437E-01 -0.3102276186295E+00
 0.1725366812759E+00 -0.3880367826483E+00
 0.3021796331351E+00 -0.5171153794760E+00
 0.4678835971793E+00 -0.6897726514825E+00
-0.2011179235923E-01 -0.4562060703166E-01
-0.4884413641786E-01 -0.1049484745182E+00
-0.4896759835719E-01 -0.1649417887111E+00
-0.2523546418921E-01 -0.2226859829582E+00
 0.2020507022749E-01 -0.2808027843768E+00
 0.8785781088272E-01 -0.3458662997384E+00
 0.1827381514499E+00 -0.4339630717860E+00
 0.3060587286846E+00 -0.5586253211670E+00
 0.4616229586845E+00 -0.7124272019745E+00
-0.4634792208882E-02 -0.4053146262119E-01
-0.2596719572220E-01 -0.9716660871273E-01
-0.2235173575776E-01 -0.1596298341934E+00
 0.2699255556386E-02 -0.2248113731338E+00
 0.4751666985282E-01 -0.2937334508955E+00
 0.1125594036084E+00 -0.3705005711818E+00
 0.2024607314538E+00 -0.4648893897801E+00
 0.3191744199091E+00 -0.5833879834693E+00
 0.4636703532883E+00 -0.7200911569792E+00
 0.1057800217793E-01 -0.3663989648826E-01
-0.1869723751199E-02 -0.9068345295498E-01
 0.7181776468910E-02 -0.1540593855119E+00
 0.3507815627752E-01 -0.2236782763050E+00
 0.8053035976905E-01 -0.2994517555180E+00
 0.1439472989281E+00 -0.3834586887039E+00
 0.2293820374367E+00 -0.4804873585970E+00
 0.3387651570945E+00 -0.5921677667524E+00
 0.4712147517767E+00 -0.7144514338165E+00
 0.2544200631371E-01 -0.3353691175949E-01
 0.2283322539254E-01 -0.8486033823541E-01
 0.3857906452084E-01 -0.1476965882646E+00
 0.7050817025598E-01 -0.2190186785785E+00
 0.1175351162034E+00 -0.2979428731054E+00
 0.1799632803784E+00 -0.3850216962454E+00
 0.2610466269532E+00 -0.4815970833825E+00
 0.3622702144248E+00 -0.5865366116149E+00
 0.4819784498940E+00 -0.6974681758019E+00
 0.3984170755420E-01 -0.3096983668136E-01
 0.4759321750408E-01 -0.7929102128090E-01
 0.7086139906321E-01 -0.1402182772815E+00
 0.1076249783617E+00 -0.2108013896987E+00
 0.1568145321056E+00 -0.2896198029193E+00
 0.2185617594963E+00 -0.3761946252362E+00
 0.2951198603450E+00 -0.4699117465535E+00
 0.3874631782828E+00 -0.5686368823354E+00
 0.4941716464325E+00 -0.6712609315737E+00
 0.5361843077607E-01 -0.2877022476918E-01
 0.7188675182495E-01 -0.7371173630522E-01
 0.1031210247900E+00 -0.1315153905769E+00
 0.1451420170115E+00 -0.1992806185421E+00
 0.1967529303160E+00 -0.2752796513467E+00
 0.2578740635840E+00 -0.3584923972475E+00
 0.3296157940425E+00 -0.4476744696186E+00
 0.4125596342140E+00 -0.5410236295903E+00
 0.5064393544311E+00 -0.6380147867744E+00
 0.2049374841754E+00 -0.6079326122575E-01
 0.3293024307892E+00 -0.8877896861136E-01
 0.4403301881154E+00 -0.1162582321915E+00
 0.5390080205059E+00 -0.1422271903029E+00
 0.6261776809152E+00 -0.1655699404453E+00
 0.7023591152225E+00 -0.1853376501439E+00
 0.7677588445379E+00 -0.2008117558173E+00
 0.8225438985551E+00 -0.2119573109335E+00
 0.8671295562286E+00 -0.2198651922121E+00
 0.2125596780927E+00 -0.6697478966633E-01
 0.3432458563227E+00 -0.9879990206330E-01
 0.4595233265835E+00 -0.1292661024104E+00
 0.5617889967794E+00 -0.1568069314572E+00
 0.6506982582368E+00 -0.1801680481912E+00
 0.7268808263992E+00 -0.1985415599103E+00
 0.7904819441055E+00 -0.2110663170189E+00
 0.8415591444044E+00 -0.2182468320854E+00
 0.8817434147956E+00 -0.2226546090867E+00
 0.2205314529208E+00 -0.7420267115199E-01
 0.3574050707654E+00 -0.1111468811269E+00
 0.4782940089301E+00 -0.1457323544739E+00
 0.5832784916078E+00 -0.1755977245663E+00
 0.6731126210737E+00 -0.1992811453387E+00
 0.7487406966580E+00 -0.2161643409033E+00
 0.8104107457198E+00 -0.2251186355074E+00
 0.8581223035066E+00 -0.2272957109405E+00
 0.8942720797541E+00 -0.2269536183732E+00
 0.2290830038889E+00 -0.8282532422282E-01
 0.3719365504329E+00 -0.1264867951899E+00
 0.4966606806672E+00 -0.1664097108527E+00
 0.6034317967890E+00 -0.1991734557466E+00
 0.6934188950213E+00 -0.2231678510979E+00
 0.7680591025155E+00 -0.2381715461640E+00
 0.8277894335048E+00 -0.2427861626692E+00
 0.8724176759595E+00 -0.2389471305895E+00
 0.9048769430157E+00 -0.2329387716413E+00
 0.2384766457194E+00 -0.9334702138490E-01
 0.3868831835180E+00 -0.1457121712891E+00
 0.5144389450910E+00 -0.1921457741871E+00
 0.6219868302396E+00 -0.2279933427467E+00
 0.7114401127563E+00 -0.2518071746244E+00
 0.7848389813073E+00 -0.2642061438349E+00
 0.8427768395843E+00 -0.2636764758189E+00
 0.8847040078036E+00 -0.2530584821802E+00
 0.9138990443855E+00 -0.2407186508031E+00
 0.2489910767928E+00 -0.1065360871109E+00
 0.4020670143396E+00 -0.1700466568609E+00
 0.5311348686695E+00 -0.2238734506336E+00
 0.6384244991586E+00 -0.2622612655914E+00
 0.7268478319804E+00 -0.2847558735588E+00
 0.7990132136042E+00 -0.2935291000714E+00
 0.8555279753825E+00 -0.2871968752369E+00
 0.8953041353762E+00 -0.2693810752516E+00
 0.9217566515075E+00 -0.2503066097903E+00
 0.2608735365841E+00 -0.1236313767915E+00
 0.4168773524211E+00 -0.2012293179639E+00
 0.5458096576683E+00 -0.2624607899382E+00
 0.6519706262218E+00 -0.3016253734779E+00
 0.7392568756080E+00 -0.3209328742149E+00
 0.8105500730590E+00 -0.3250378687034E+00
 0.8662467553973E+00 -0.3126158421467E+00
 0.9045901846652E+00 -0.2875899210839E+00
 0.9288853516229E+00 -0.2616330531972E+00
 0.2741425536753E+00 -0.1468702530021E+00
 0.4298758635395E+00 -0.2416903344623E+00
 0.5569190291169E+00 -0.3082690822261E+00
 0.6617917130389E+00 -0.3444607059701E+00
 0.7484683313487E+00 -0.3586028893146E+00
 0.8195764707179E+00 -0.3574623468892E+00
 0.8752390809944E+00 -0.3392015175934E+00
 0.9129714072340E+00 -0.3073400497893E+00
 0.9357049003719E+00 -0.2745745995317E+00
 0.2880753531098E+00 -0.1807308935780E+00
 0.4375535595065E+00 -0.2951001973170E+00
 0.5628706155249E+00 -0.3585087565858E+00
 0.6676411304769E+00 -0.3878475278359E+00
 0.7546692932589E+00 -0.3958501673120E+00
 0.8264555424695E+00 -0.3896676067014E+00
 0.8829295693172E+00 -0.3663574028179E+00
 0.9208669394348E+00 -0.3283059480214E+00
 0.9426014077651E+00 -0.2889787012326E+00
 0.6612721868816E+00 -0.7374133755940E+00
 0.6686271284598E+00 -0.7801054600649E+00
 0.6761757878655E+00 -0.8210661803496E+00
 0.6844800662858E+00 -0.8590954927574E+00
 0.6943992084951E+00 -0.8928381081320E+00
 0.7071659869502E+00 -0.9206924753365E+00
 0.7245102457027E+00 -0.9407509790845E+00
 0.7487528867852E+00 -0.9507465953395E+00
 0.7829287721067E+00 -0.9479610487098E+00
 0.7098798675372E+00 -0.7291759399998E+00
 0.7224990646916E+00 -0.7753759210487E+00
 0.7347405892848E+00 -0.8212731604706E+00
 0.7470633545988E+00 -0.8658877903365E+00
 0.7599856706054E+00 -0.9080559971326E+00
 0.7742691153855E+00 -0.9463217047006E+00
 0.7910002975594E+00 -0.9788499427635E+00
 0.8116553890844E+00 -0.1003345802696E+01
 0.8380474651943E+00 -0.1016993497609E+01
 0.7541070173616E+00 -0.7109449474362E+00
 0.7713600874779E+00 -0.7583916640798E+00
 0.7877819578789E+00 -0.8063518079411E+00
 0.8034987314549E+00 -0.8542016307765E+00
 0.8186177149101E+00 -0.9010358148437E+00
 0.8332923248603E+00 -0.9456416181216E+00
 0.8477867226736E+00 -0.9864097056092E+00
 0.8625135643445E+00 -0.1021250469240E+01
 0.8780539109299E+00 -0.1047557657619E+01
 0.7934663573921E+00 -0.6837811723332E+00
 0.8144528163582E+00 -0.7300639225893E+00
 0.8341742100793E+00 -0.7772442660540E+00
 0.8523701162680E+00 -0.8249554311506E+00
 0.8686685021030E+00 -0.8725931352584E+00
 0.8825719885763E+00 -0.9192737184066E+00
 0.8934623268191E+00 -0.9637630731626E+00
 0.9006316890468E+00 -0.1004385310548E+01
 0.9033709206746E+00 -0.1038939721692E+01
 0.8273554538640E+00 -0.6489362640492E+00
 0.8509435763838E+00 -0.6915729824704E+00
 0.8727823913527E+00 -0.7350466770235E+00
 0.8922690964885E+00 -0.7791899497554E+00
 0.9085843836069E+00 -0.8236787922679E+00
 0.9206229400213E+00 -0.8680019446402E+00
 0.9269320981257E+00 -0.9114024674959E+00
 0.9256807519150E+00 -0.9527807074187E+00
 0.9147208344505E+00 -0.9905484059479E+00
 0.8554132825960E+00 -0.6081257686908E+00
 0.8803415360884E+00 -0.6449094296532E+00
 0.9029894955665E+00 -0.6820492023012E+00
 0.9225015656541E+00 -0.7195050787022E+00
 0.9377290696603E+00 -0.7571766543721E+00
 0.9471222732161E+00 -0.7948959413715E+00
 0.9486016290975E+00 -0.8324027213832E+00
 0.9394083867402E+00 -0.8692783037911E+00
 0.9159861855189E+00 -0.9047823129396E+00
 0.8776288234825E+00 -0.5634965377897E+00
 0.9026690801655E+00 -0.5929054516998E+00
 0.9248556804579E+00 -0.6218587241642E+00
 0.9431813457152E+00 -0.6503583148844E+00
 0.9563228641729E+00 -0.6784260353721E+00
 0.9625214341164E+00 -0.7061303237270E+00
 0.9594165807006E+00 -0.7336136624930E+00
 0.9438009965940E+00 -0.7611074471379E+00
 0.9112261500036E+00 -0.7888891384827E+00
 0.8942988378405E+00 -0.5173434570098E+00
 0.9183687308033E+00 -0.5387524453372E+00
 0.9389822590582E+00 -0.5587583377552E+00
 0.9550666492975E+00 -0.5773319121804E+00
 0.9652663333370E+00 -0.5945082894885E+00
 0.9678437444053E+00 -0.6104403346948E+00
 0.9605353620719E+00 -0.6254735136232E+00
 0.9403165343215E+00 -0.6402539694455E+00
 0.9029559099163E+00 -0.6558921604551E+00
 0.9060152506596E+00 -0.4718751647197E+00
 0.9282979332562E+00 -0.4856272831071E+00
 0.9465452065612E+00 -0.4971899097067E+00
 0.9596928998332E+00 -0.5065072041693E+00
 0.9664700669685E+00 -0.5136083597496E+00
 0.9653460986691E+00 -0.5186717137279E+00
 0.9544637657791E+00 -0.5221208478837E+00
 0.9315432282674E+00 -0.5247824821750E+00
 0.8937167386828E+00 -0.5281770783180E+00
 0.9136003235709E+00 -0.4289239892981E+00
 0.9336407432684E+00 -0.4361601309149E+00
 0.9491925152200E+00 -0.4408497538671E+00
 0.9592812673218E+00 -0.4430104974133E+00
 0.9628299819737E+00 -0.4427774208563E+00
 0.9586619865254E+00 -0.4404690704142E+00
 0.9455305015801E+00 -0.4366820752545E+00
 0.9222042994324E+00 -0.4324380098665E+00
 0.8876941643955E+00 -0.4294351182501E+00
 0.9179604938859E+00 -0.3896664780533E+00
 0.9356707451783E+00 -0.3918665184545E+00
 0.9486606857582E+00 -0.3916086612290E+00
 0.9561287287461E+00 -0.3890590499532E+00
 0.9572831314190E+00 -0.3845330747449E+00
 0.9513899462162E+00 -0.3785515896718E+00
 0.9378704533111E+00 -0.3719095354713E+00
 0.9164914921148E+00 -0.3657583745103E+00
 0.8877566812229E+00 -0.3616899173585E+00
 0.9199500000147E+00 -0.3546864319623E+00
 0.9355308785223E+00 -0.3532902821512E+00
 0.9464058560780E+00 -0.3498067451231E+00
 0.9520009218544E+00 -0.3445349416397E+00
 0.9518482941841E+00 -0.3379235570494E+00
 0.9456523102036E+00 -0.3306021500476E+00
 0.9333987700482E+00 -0.3234037981748E+00
 0.9155274114228E+00 -0.3173629372873E+00
 0.8931815165625E+00 -0.3136366497056E+00
 0.9202549492137E+00 -0.3242079773725E+00
 0.9340633417411E+00 -0.3204878147567E+00
 0.9433891215763E+00 -0.3151882087112E+00
 0.9478949553787E+00 -0.3086854817052E+00
 0.9474113775957E+00 -0.3014793270229E+00
 0.9419907160710E+00 -0.2941976130736E+00
 0.9319798367954E+00 -0.2875787953529E+00
 0.9181029185353E+00 -0.2824154432333E+00
 0.9014938035181E+00 -0.2794311469784E+00
 0.9193827085196E+00 -0.2982197110403E+00
 0.9318257727414E+00 -0.2932416223562E+00
 0.9401559445422E+00 -0.2872256346024E+00
 0.9442442158186E+00 -0.2805614950297E+00
 0.9441546573899E+00 -0.2737264467231E+00
 0.9401662966846E+00 -0.2672723198841E+00
 0.9327922453901E+00 -0.2617868734319E+00
 0.9227760662875E+00 -0.2578257629195E+00
 0.9110356326417E+00 -0.2558227282412E+00
 0.9176847839279E+00 -0.2765674395542E+00
 0.9291494796879E+00 -0.2711997391470E+00
 0.9369481695847E+00 -0.2653040656368E+00
 0.9411130721295E+00 -0.2592284070747E+00
 0.9418685752199E+00 -0.2533804014147E+00
 0.9396141627840E+00 -0.2482057971182E+00
 0.9348991296489E+00 -0.2441449316568E+00
 0.9283782098784E+00 -0.2415770754683E+00
 0.9207391726412E+00 -0.2407653008240E+00
 0.9153969107014E+00 -0.2590232430024E+00
 0.9262101748673E+00 -0.2539638773134E+00
 0.9338113425922E+00 -0.2488139548374E+00
 0.9383500600543E+00 -0.2438425030373E+00
 0.9401524665442E+00 -0.2393702483442E+00
 0.9396676242624E+00 -0.2357417959553E+00
 0.9374187969937E+00 -0.2332820736289E+00
 0.9339527127993E+00 -0.2322558809294E+00
 0.9297831573886E+00 -0.2328408956374E+00
 0.9127055292505E+00 -0.2453511676035E+00
 0.9231271006052E+00 -0.2411529646234E+00
 0.9307216522348E+00 -0.2371981769149E+00
 0.9357395287295E+00 -0.2336659203061E+00
 0.9385774754021E+00 -0.2308062668687E+00
 0.9396985007492E+00 -0.2288891820684E+00
 0.9395837807645E+00 -0.2281609006613E+00
 0.9386940359104E+00 -0.2288174740494E+00
 0.9374375094308E+00 -0.2309964401009E+00
 0.9097393558724E+00 -0.2353609552351E+00
 0.9199480768122E+00 -0.2324486858590E+00
 0.9276153210031E+00 -0.2299701122167E+00
 0.9331085468273E+00 -0.2280678506600E+00
 0.9368702669732E+00 -0.2269635707568E+00
 0.9393580280993E+00 -0.2268831261547E+00
 0.9410119445032E+00 -0.2280191276930E+00
 0.9422362283385E+00 -0.2305177321804E+00
 0.9433874033582E+00 -0.2344844491210E+00
 0.9064172051931E+00 -0.2289264069085E+00
 0.9164664635011E+00 -0.2274902493960E+00
 0.9242749376748E+00 -0.2265732588835E+00
 0.9302669305168E+00 -0.2263797659804E+00
 0.9348795545225E+00 -0.2271332012306E+00
 0.9385384593614E+00 -0.2290229440275E+00
 0.9416403324542E+00 -0.2321872146732E+00
 0.9445461828315E+00 -0.2367152254274E+00
 0.9475931820522E+00 -0.2426610099209E+00
</DataArray>
</PointData>
   <DataArray type="Float64" Name="Load" NumberOfComponents="1"    ComponentName0="Load" format="ascii">
 0.5271419391105E+01
 0.4649389679657E+01
 0.3997436118258E+01
 0.3559401492857E+01
 0.3125753616216E+01
 0.2696429350874E+01
 0.2252335222617E+01
 0.1784286966143E+01
 0.1280463870447E+01
 0.7237700147318E+00
 0.8403557623727E-01
 0.6578712134763E+00
 0.1464221480878E+01
 0.2274079478937E+01
 0.3039133815424E+01
 0.3714548637207E+01
 0.4283602567496E+01
 0.4722893268698E+01
 0.5191479687806E+01
 0.4642921465148E+01
 0.8350241143261E+01
 0.4109721842718E+01
 0.4144103775368E+01
 0.3634425359656E+01
 0.3191232683649E+01
 0.2783332068152E+01
 0.2371374380077E+01
 0.1946972813793E+01
 0.1499513954586E+01
 0.1018750390500E+01
 0.4926875198298E+00
 0.8896021054403E-01
 0.7080161529397E+00
 0.1347864073818E+01
 0.1971558701881E+01
 0.2539478419165E+01
 0.3016499523054E+01
 0.3359356908565E+01
 0.3534264806621E+01
 0.3297814455417E+01
 0.2669155969012E+01
 0.7346403754370E+01
 0.3332855809952E+01
 0.3494312141720E+01
 0.3216645583542E+01
 0.2821068296418E+01
 0.2440927584965E+01
 0.2054559158353E+01
 0.1654183718173E+01
 0.1232799919077E+01
 0.7832038114732E+00
 0.3024695781030E+00
 0.2117516444041E+00
 0.7248592034207E+00
 0.1229891545296E+01
 0.1703428467614E+01
 0.2117005220360E+01
 0.2438357325555E+01
 0.2627964917115E+01
 0.2615986567771E+01
 0.2299167989438E+01
 0.2562335576987E+01
 0.6888056336887E+01
 0.2734894549073E+01
 0.2894183982725E+01
 0.2757798826090E+01
 0.2445194172455E+01
 0.2101340992331E+01
 0.1745326527810E+01
 0.1373645761311E+01
 0.9833068982167E+00
 0.5720520859284E+00
 0.1494809218488E+00
 0.3045557235158E+00
 0.7245713289569E+00
 0.1119643768042E+01
 0.1474822506585E+01
 0.1770565270946E+01
 0.1982487739975E+01
 0.2079490168553E+01
 0.2022885035010E+01
 0.1942859502205E+01
 0.2962054357340E+01
 0.6445355837284E+01
 0.2238060576307E+01
 0.2362333749551E+01
 0.2299828544603E+01
 0.2064776497093E+01
 0.1766001529429E+01
 0.1443883509024E+01
 0.1104686645761E+01
 0.7497390839171E+00
 0.3826838898433E+00
 0.7445655447988E-01
 0.3787993618876E+00
 0.7182887815103E+00
 0.1024121537796E+01
 0.1287745673777E+01
 0.1497778960160E+01
 0.1639995720690E+01
 0.1700786848111E+01
 0.1705991601267E+01
 0.1945044245564E+01
 0.3330613669326E+01
 0.6072931890460E+01
 0.1805668992739E+01
 0.1890161307580E+01
 0.1862314577724E+01
 0.1687963638586E+01
 0.1435924696820E+01
 0.1150515934513E+01
 0.8465742207757E+00
 0.5306242380874E+00
 0.2153496336249E+00
 0.1546338269360E+00
 0.4427655759068E+00
 0.7134687122691E+00
 0.9475081859955E+00
 0.1141831963970E+01
 0.1292692782616E+01
 0.1397167451762E+01
 0.1466203353107E+01
 0.1588389218553E+01
 0.2110476914267E+01
 0.3588142322678E+01
 0.5775048159899E+01
 0.1417848653735E+01
 0.1466287494831E+01
 0.1451711777366E+01
 0.1321484188967E+01
 0.1112925885410E+01
 0.8653433370500E+00
 0.5986951213062E+00
 0.3256589159527E+00
 0.1000515116862E+00
 0.2615734657570E+00
 0.5023472049066E+00
 0.7147873301280E+00
 0.8915584683920E+00
 0.1034503535956E+01
 0.1146925369010E+01
 0.1238132169601E+01
 0.1345862725438E+01
 0.1605180657974E+01
 0.2324697444269E+01
 0.3758930495743E+01
 0.5540007455684E+01
 0.1062712184031E+01
 0.1080955711190E+01
 0.1068448358648E+01
 0.9691467183377E+00
 0.7987613033170E+00
 0.5886205332531E+00
 0.3613711057058E+00
 0.1452618292874E+00
 0.1628406936244E+00
 0.3677386660397E+00
 0.5617339769437E+00
 0.7249400148821E+00
 0.8562299645292E+00
 0.9617456344780E+00
 0.1051457087537E+01
 0.1147686125614E+01
 0.1313532360291E+01
 0.1702776535577E+01
 0.2537844900456E+01
 0.3876745933155E+01
 0.5353687028205E+01
 0.7325795213243E+00
 0.7264859505711E+00
 0.7104405506827E+00
 0.6324087925267E+00
 0.4947517445174E+00
 0.3216198804364E+00
 0.1444966887105E+00
 0.1284319996833E+00
 0.2996997890434E+00
 0.4731338221655E+00
 0.6239290848084E+00
 0.7453555738668E+00
 0.8404564357848E+00
 0.9191787113191E+00
 0.9981357530085E+00
 0.1113059579226E+01
 0.1346067056515E+01
 0.1840911968027E+01
 0.2731870009357E+01
 0.3969246365582E+01
 0.5203903317976E+01
 0.4222185776971E+00
 0.3970803967433E+00
 0.3747184950760E+00
 0.3113122358929E+00
 0.2032503043874E+00
 0.8591350284839E-01
 0.1405225516439E+00
 0.2927570328330E+00
 0.4443364687986E+00
 0.5796901555155E+00
 0.6911147570845E+00
 0.7767551118649E+00
 0.8428435082499E+00
 0.9028708375843E+00
 0.9802916055304E+00
 0.1123287391603E+01
 0.1422393892596E+01
 0.1993760872549E+01
 0.2900532079817E+01
 0.4051622019147E+01
 0.5084000633340E+01
 0.1287241990828E+00
 0.9187552833807E-01
 0.5890195413423E-01
 0.2262010344502E-01
 0.1002908251308E+00
 0.2170691265170E+00
 0.3460863839172E+00
 0.4740103885735E+00
 0.5906687050685E+00
 0.6887724221680E+00
 0.7644910192831E+00
 0.8192124372104E+00
 0.8618666777879E+00
 0.9094083860791E+00
 0.9920651994273E+00
 0.1167445502045E+01
 0.1523893345569E+01
 0.2144602673451E+01
 0.3045127922570E+01
 0.4109843005225E+01
 0.5062849971303E+01
 0.1567804864097E+00
 0.2103909153658E+00
 0.2418429432793E+00
 0.2907548158984E+00
 0.3666893816073E+00
 0.4612112602077E+00
 0.5617625016992E+00
 0.6571228289200E+00
 0.7388383757382E+00
 0.8018496860374E+00
 0.8450994873013E+00
 0.8727292751929E+00
 0.8961591698822E+00
 0.9357903382166E+00
 0.1027959167842E+01
 0.1235488272891E+01
 0.1637176073338E+01
 0.2286417129321E+01
 0.3166073995148E+01
 0.4157051457307E+01
 0.5035381181509E+01
 0.4275177596861E+00
 0.4896750423923E+00
 0.5286304493352E+00
 0.5732982196063E+00
 0.6338029712548E+00
 0.7053878374682E+00
 0.7779493280403E+00
 0.8418786235156E+00
 0.8903948918231E+00
 0.9206133156262E+00
 0.9340728359784E+00
 0.9374774088526E+00
 0.9446704316134E+00
 0.9793955519402E+00
 0.1082874411859E+01
 0.1319061056021E+01
 0.1754000879527E+01
 0.2416432567548E+01
 0.3268922542132E+01
 0.4192575587358E+01
 0.5007932010741E+01
 0.6906676400571E+00
 0.7597936521101E+00
 0.8049334131115E+00
 0.8473863529848E+00
 0.8958469287200E+00
 0.9474394844725E+00
 0.9943345646408E+00
 0.1028893522664E+01
 0.1046311049346E+01
 0.1045964507834E+01
 0.1031895044431E+01
 0.1013250139378E+01
 0.1006234974566E+01
 0.1037625378741E+01
 0.1151959058539E+01
 0.1411273666034E+01
 0.1868532571031E+01
 0.2533624084820E+01
 0.3356161165042E+01
 0.4222888056440E+01
 0.4988198887750E+01
 0.9472678393244E+00
 0.1022136581399E+01
 0.1073051226585E+01
 0.1114760554390E+01
 0.1153757419517E+01
 0.1188038292924E+01
 0.1211670105935E+01
 0.1219045379143E+01
 0.1207466191653E+01
 0.1178583497517E+01
 0.1138830725898E+01
 0.1099683816642E+01
 0.1079592424706E+01
 0.1107868449477E+01
 0.1230828537339E+01
 0.1506847670190E+01
 0.1977211754710E+01
 0.2637900736500E+01
 0.3430970128982E+01
 0.4250839321033E+01
 0.4974687507460E+01
 0.1198710615639E+01
 0.1278546449707E+01
 0.1335111646017E+01
 0.1377281295538E+01
 0.1408940190093E+01
 0.1428284551896E+01
 0.1430924558977E+01
 0.1413229212627E+01
 0.1374626727066E+01
 0.1318984268265E+01
 0.1254989051299E+01
 0.1196307732212E+01
 0.1163445100204E+01
 0.1187656940114E+01
 0.1315792471869E+01
 0.1601963632197E+01
 0.2077921467860E+01
 0.2729804469978E+01
 0.3495726747943E+01
 0.4277183512117E+01
 0.4966529584053E+01
 0.1446287349504E+01
 0.1530741611389E+01
 0.1593068068983E+01
 0.1636761238111E+01
 0.1662884541456E+01
 0.1669378216224E+01
 0.1653101110607E+01
 0.1612294331776E+01
 0.1548458074030E+01
 0.1467565128470E+01
 0.1380388403589E+01
 0.1302616019789E+01
 0.1256560120232E+01
 0.1274827708096E+01
 0.1403945330656E+01
 0.1693972409841E+01
 0.2169480905782E+01
 0.2810039350043E+01
 0.3551944646018E+01
 0.4302260148258E+01
 0.4963277798262E+01
 0.1691185084560E+01
 0.1780299067628E+01
 0.1848725610015E+01
 0.1894936022303E+01
 0.1917072053127E+01
 0.1912524449853E+01
 0.1879177982429E+01
 0.1817027341889E+01
 0.1729543704003E+01
 0.1624653036452E+01
 0.1515016978798E+01
 0.1418144582246E+01
 0.1357873522100E+01
 0.1367634901813E+01
 0.1493147004616E+01
 0.1781122640098E+01
 0.2251282311960E+01
 0.2879226502808E+01
 0.3600602508600E+01
 0.4326354697044E+01
 0.4964864808295E+01
 0.1934508390833E+01
 0.2028680788288E+01
 0.2103769190252E+01
 0.2153459683283E+01
 0.2172940432749E+01
 0.2158891614937E+01
 0.2110081109914E+01
 0.2028147446688E+01
 0.1918402830083E+01
 0.1790540060627E+01
 0.1658884954549E+01
 0.1542539638243E+01
 0.1466573202906E+01
 0.1464806999326E+01
 0.1581952680239E+01
 0.1862341206862E+01
 0.2323048886298E+01
 0.2937835571780E+01
 0.3642340039877E+01
 0.4349771054553E+01
 0.4971543205211E+01
 0.2177302081806E+01
 0.2277264250357E+01
 0.2359791284259E+01
 0.2413909083024E+01
 0.2431865185317E+01
 0.2409586008930E+01
 0.2346666569616E+01
 0.2246303677440E+01
 0.2115503630616E+01
 0.1965511233397E+01
 0.1812065763170E+01
 0.1675611469975E+01
 0.1582155172889E+01
 0.1565564472898E+01
 0.1669534501182E+01
 0.1937074106807E+01
 0.2384693566612E+01
 0.2986170928258E+01
 0.3677549422595E+01
 0.4372822849650E+01
 0.4983825435193E+01
 0.2420572900542E+01
 0.2527372681735E+01
 0.2618319439604E+01
 0.2677792502652E+01
 0.2695148377067E+01
 0.2665632399263E+01
 0.2589705094495E+01
 0.2472070067773E+01
 0.2321270638999E+01
 0.2149863410199E+01
 0.1974725503348E+01
 0.1817372034929E+01
 0.1704457036613E+01
 0.1669617433613E+01
 0.1755617218009E+01
 0.2005186092762E+01
 0.2436244762868E+01
 0.3024369978691E+01
 0.3706406061669E+01
 0.4395800638225E+01
 0.5002422161614E+01
 0.2665311210027E+01
 0.2780305705989E+01
 0.2880844311541E+01
 0.2946560044476E+01
 0.2964009587693E+01
 0.2927955434301E+01
 0.2839865235712E+01
 0.2705936984727E+01
 0.2536085708332E+01
 0.2343915063539E+01
 0.2147140534129E+01
 0.1968057728697E+01
 0.1833675416715E+01
 0.1777157585397E+01
 0.1840437860083E+01
 0.2066911753927E+01
 0.2477816954898E+01
 0.3052402267762E+01
 0.3728865166546E+01
 0.4418928584711E+01
 0.5028182011229E+01
 0.2912514285431E+01
 0.3037372267882E+01
 0.3148849250700E+01
 0.3221614356349E+01
 0.3239575908744E+01
 0.3197358965770E+01
 0.3097693311024E+01
 0.2948297843778E+01
 0.2760282488240E+01
 0.2548007277993E+01
 0.2329703843934E+01
 0.2128139369226E+01
 0.1970373175253E+01
 0.1888853087639E+01
 0.1924732427372E+01
 0.2122851381440E+01
 0.2509615864726E+01
 0.3070069107777E+01
 0.3744637656591E+01
 0.4442313053625E+01
 0.5062036446367E+01
 0.3163213118347E+01
 0.3299928221888E+01
 0.3423842563709E+01
 0.3504320260889E+01
 0.3522868202886E+01
 0.3474500878816E+01
 0.3363588820722E+01
 0.3199430796387E+01
 0.2994134509429E+01
 0.2762496246769E+01
 0.2522920730290E+01
 0.2298320913410E+01
 0.2115479920542E+01
 0.2005850106577E+01
 0.2009749067618E+01
 0.2174007834136E+01
 0.2531976346713E+01
 0.3077007455646E+01
 0.3753152332677E+01
 0.4465882748561E+01
 0.5104951758624E+01
 0.3418505138658E+01
 0.3569421588209E+01
 0.3707393646957E+01
 0.3796011586267E+01
 0.3814780770290E+01
 0.3759861359568E+01
 0.3637774520411E+01
 0.3459475429068E+01
 0.3237837309344E+01
 0.2987737805773E+01
 0.2727394308872E+01
 0.2479527605861E+01
 0.2270286903251E+01
 0.2129781404615E+01
 0.2097285699765E+01
 0.2221863842727E+01
 0.2545437620879E+01
 0.3072704059242E+01
 0.3753509012282E+01
 0.4489319901336E+01
 0.5157886835248E+01
 0.3679596114147E+01
 0.3847449352401E+01
 0.4001174021669E+01
 0.4097992523105E+01
 0.4116050900234E+01
 0.4053702525429E+01
 0.3920260600636E+01
 0.3728404679420E+01
 0.3491485073652E+01
 0.3224064507933E+01
 0.2943801082813E+01
 0.2672883136181E+01
 0.2436434936861E+01
 0.2262779314795E+01
 0.2189748718599E+01
 0.2268501739336E+01
 0.2550866575885E+01
 0.3056527594507E+01
 0.3744427415555E+01
 0.4511984907388E+01
 0.5221747117495E+01
 0.3947855964510E+01
 0.4135831074738E+01
 0.4307003848945E+01
 0.4411529167301E+01
 0.4427213841702E+01
 0.4356017545560E+01
 0.4210802977054E+01
 0.4005992519431E+01
 0.3755042448126E+01
 0.3471755926639E+01
 0.3172856862163E+01
 0.2879674730058E+01
 0.2615891897898E+01
 0.2407487883767E+01
 0.2290227180663E+01
 0.2316769484321E+01
 0.2549648345387E+01
 0.3027787658852E+01
 0.3724195603513E+01
 0.4532850775553E+01
 0.5297306929674E+01
 0.4224895737971E+01
 0.4436706672591E+01
 0.4626903363409E+01
 0.4737824100593E+01
 0.4748537507066E+01
 0.4666468024324E+01
 0.4508856665347E+01
 0.4291778445827E+01
 0.4028312408331E+01
 0.3731003252173E+01
 0.3415273815446E+01
 0.3101305151105E+01
 0.2810914822811E+01
 0.2567065770611E+01
 0.2402574536585E+01
 0.2370491204877E+01
 0.2543986575484E+01
 0.2985821252674E+01
 0.3690615877152E+01
 0.4550503048323E+01
 0.5385008940740E+01
 0.4512677349207E+01
 0.4752668565655E+01
 0.4963145816101E+01
 0.5077961794639E+01
 0.5079929353213E+01
 0.4984309359377E+01
 0.4813526099012E+01
 0.4585029647714E+01
 0.4310900451779E+01
 0.4001868898228E+01
 0.3671709639925E+01
 0.3339230674394E+01
 0.3023990572970E+01
 0.2745166055717E+01
 0.2531486734588E+01
 0.2434708963693E+01
 0.2537365598700E+01
 0.2930198627571E+01
 0.3640706117103E+01
 0.4563659567548E+01
 0.5484074888368E+01
 0.4813675735353E+01
 0.5086941693693E+01
 0.5318303624348E+01
 0.5432804544483E+01
 0.5420807022379E+01
 0.5308306921070E+01
 0.5123516630422E+01
 0.4884702302493E+01
 0.4602175340521E+01
 0.4284242439191E+01
 0.3942711372573E+01
 0.3594886819947E+01
 0.3257749251554E+01
 0.2945878523459E+01
 0.2682544621306E+01
 0.2515973643823E+01
 0.2535088799970E+01
 0.2861565839104E+01
 0.3569380731122E+01
 0.4572642576555E+01
 0.5591110727084E+01
 0.5131167583315E+01
 0.5443910599188E+01
 0.5695740728704E+01
 0.5803453953025E+01
 0.5770702051831E+01
 0.5637539533876E+01
 0.5438097591038E+01
 0.5190535262904E+01
 0.4902497989353E+01
 0.4579209212769E+01
 0.4230208405424E+01
 0.3871272063381E+01
 0.3516590071814E+01
 0.3175338433238E+01
 0.2863766611294E+01
 0.2623717926069E+01
 0.2545697633157E+01
 0.2781548683821E+01
 0.3471652225006E+01
 0.4565859567418E+01
 0.5743902086490E+01
 0.5469518326244E+01
 0.5828952061575E+01
 0.6098632289114E+01
 0.6189662835631E+01
 0.6127485160846E+01
 0.5969539722907E+01
 0.5755058879927E+01
 0.5500750015783E+01
 0.5210660292616E+01
 0.4886251897836E+01
 0.4534498517553E+01
 0.4169743483260E+01
 0.3803349524018E+01
 0.3438446782404E+01
 0.3082780516140E+01
 0.2768622264942E+01
 0.2581144532704E+01
 0.2695956407058E+01
 0.3338586710152E+01
 0.4539282570191E+01
 0.5913502955135E+01
 0.5834829505335E+01
 0.6248974124117E+01
 0.6529750746584E+01
 0.6589312444382E+01
 0.6487118562371E+01
 0.6300285999111E+01
 0.6070722129417E+01
 0.5811986749917E+01
 0.5523757456065E+01
 0.5203095111254E+01
 0.4854075932025E+01
 0.4489803250546E+01
 0.4118997309684E+01
 0.3738455978142E+01
 0.3346490394985E+01
 0.2962857499333E+01
 0.2658964696045E+01
 0.2618857993368E+01
 0.3165615083092E+01
 0.4475264011136E+01
 0.6108083989979E+01
 0.6236110484543E+01
 0.6713516062809E+01
 0.6991606373820E+01
 0.6998710105222E+01
 0.6844880886222E+01
 0.6626008155910E+01
 0.6381966506841E+01
 0.6121481467650E+01
 0.5839563126763E+01
 0.5528334651869E+01
 0.5188498995307E+01
 0.4832072151907E+01
 0.4465465287681E+01
 0.4079282759335E+01
 0.3662443666801E+01
 0.3220492984901E+01
 0.2802155564952E+01
 0.2575790080173E+01
 0.2951869338113E+01
 0.4351306741946E+01
 0.6339444344304E+01
 0.6687239911940E+01
 0.7235321509100E+01
 0.7484463667454E+01
 0.7410721005763E+01
 0.7194578099634E+01
 0.6942579648111E+01
 0.6685363993792E+01
 0.6425921355820E+01
 0.6155161774229E+01
 0.5860000044330E+01
 0.5537005941800E+01
 0.5196931700721E+01
 0.4844184572829E+01
 0.4463829940066E+01
 0.4036860271470E+01
 0.3555592067330E+01
 0.3039266489593E+01
 0.2610025118189E+01
 0.2713605932487E+01
 0.4136179427629E+01
 0.6622297208036E+01
 0.7210854762668E+01
 0.7830924208357E+01
 0.8002759620214E+01
 0.7813132907343E+01
 0.7528994153613E+01
 0.7245942943717E+01
 0.6977346270240E+01
 0.6721407795541E+01
 0.6466684542819E+01
 0.6195309689828E+01
 0.5898536811998E+01
 0.5584733570072E+01
 0.5256132735727E+01
 0.4893564781021E+01
 0.4473438857850E+01
 0.3979506344568E+01
 0.3401980810263E+01
 0.2786488851043E+01
 0.2511174068599E+01
 0.3787666598566E+01
 0.6977459879474E+01
 0.7846585513458E+01
 0.8519384817344E+01
 0.8527286830402E+01
 0.8187663048972E+01
 0.7841379987776E+01
 0.7532530586733E+01
 0.7254476639987E+01
 0.7003504625812E+01
 0.6768882916734E+01
 0.6530177511137E+01
 0.6271776324574E+01
 0.5996286103044E+01
 0.5702120542525E+01
 0.5368093771522E+01
 0.4972220416120E+01
 0.4497408739230E+01
 0.3917558025566E+01
 0.3190644332154E+01
 0.2492300396561E+01
 0.3275293327282E+01
 0.7430665756084E+01
 0.8670546369703E+01
 0.9311880078397E+01
 0.9009376769465E+01
 0.8513738893972E+01
 0.8127775006655E+01
 0.7799227379167E+01
 0.7514036442685E+01
 0.7267481584059E+01
 0.7054515888080E+01
 0.6858143441518E+01
 0.6655168291650E+01
 0.6433902791354E+01
 0.6183407768140E+01
 0.5884843679558E+01
 0.5528180960048E+01
 0.5106347816815E+01
 0.4594269496832E+01
 0.3913129319396E+01
 0.2917267346741E+01
 0.2719258543342E+01
 0.8005704418027E+01
 0.9849645407456E+01
 0.1015547115278E+02
 0.9350491762745E+01
 0.8788142528226E+01
 0.8384551530924E+01
 0.8044220875781E+01
 0.7754592590583E+01
 0.7509140339507E+01
 0.7313747491737E+01
 0.7167926654078E+01
 0.7046676288047E+01
 0.6903795707752E+01
 0.6702637791656E+01
 0.6438778554879E+01
 0.6129894378309E+01
 0.5793474515722E+01
 0.5415364506941E+01
 0.4979513315451E+01
 0.4152879225102E+01
 0.2912253884258E+01
 0.8705110843335E+01
 0.1183839446936E+02
 0.1059424479949E+02
 0.9518554770386E+01
 0.9021133316371E+01
 0.8606298921606E+01
 0.8268986630315E+01
 0.7975705698674E+01
 0.7726785791281E+01
 0.7534967200202E+01
 0.7437481455021E+01
 0.7442368917956E+01
 0.7422035281763E+01
 0.7265208966921E+01
 0.7019917752213E+01
 0.6762848790344E+01
 0.6526229452726E+01
 0.6357410473187E+01
 0.6262532840338E+01
 0.6482589868960E+01
 0.5568118417808E+01
 0.1058512999749E+02
 0.7434934250133E+00
 0.1504096115468E+01
 0.2044778068085E+01
 0.2452917171821E+01
 0.2777386192066E+01
 0.3047322340289E+01
 0.3285038945953E+01
 0.3500769573769E+01
 0.3668497395259E+01
 0.3722951695453E+01
 0.7012157989240E+00
 0.1480535625027E+01
 0.2033367288625E+01
 0.2443912944664E+01
 0.2762923700947E+01
 0.3021353424831E+01
 0.3242072333685E+01
 0.3429812498864E+01
 0.3553721313288E+01
 0.3556913860414E+01
 0.6663354211842E+00
 0.1451820194241E+01
 0.2007570958579E+01
 0.2414506703698E+01
 0.2723302778075E+01
 0.2965287195304E+01
 0.3160077903711E+01
 0.3307834388557E+01
 0.3379523758092E+01
 0.3333729299343E+01
 0.6377894334048E+00
 0.1418003054311E+01
 0.1968352612287E+01
 0.2365964037391E+01
 0.2659955067321E+01
 0.2879998033166E+01
 0.3042050043221E+01
 0.3143536646109E+01
 0.3159663532536E+01
 0.3062101268534E+01
 0.6152344904468E+00
 0.1379233182552E+01
 0.1916785783630E+01
 0.2299959419370E+01
 0.2574928279240E+01
 0.2768675487277E+01
 0.2893843440897E+01
 0.2946548269825E+01
 0.2906546437902E+01
 0.2755061335257E+01
 0.5985010252273E+00
 0.1336041891478E+01
 0.1854219876807E+01
 0.2218574206240E+01
 0.2471182024765E+01
 0.2635845842367E+01
 0.2722437040814E+01
 0.2726581092538E+01
 0.2631988649861E+01
 0.2426716824526E+01
 0.5874947330058E+00
 0.1289260277994E+01
 0.1782338672247E+01
 0.2124329245132E+01
 0.2352303987109E+01
 0.2486683942035E+01
 0.2535093823662E+01
 0.2493139216541E+01
 0.2347774631777E+01
 0.2091825638747E+01
 0.5821469348662E+00
 0.1239960952571E+01
 0.1703124762677E+01
 0.2020078664731E+01
 0.2222210650497E+01
 0.2326520788539E+01
 0.2338873873506E+01
 0.2255246167475E+01
 0.2065352668261E+01
 0.1765504350975E+01
 0.5823881446776E+00
 0.1189394221180E+01
 0.1618776176562E+01
 0.1908860648373E+01
 0.2084888430307E+01
 0.2160502698408E+01
 0.2140279745249E+01
 0.2021018854461E+01
 0.1795169368489E+01
 0.1462162615939E+01
 0.5881299624234E+00
 0.1138919757420E+01
 0.1531605126209E+01
 0.1793748923774E+01
 0.1944189378241E+01
 0.1993350860174E+01
 0.1944975015485E+01
 0.1797211208722E+01
 0.1545673943700E+01
 0.1193412889420E+01
 0.5992513725883E+00
 0.1089938749811E+01
 0.1443937467899E+01
 0.1677722806395E+01
 0.1803676997383E+01
 0.1829195233802E+01
 0.1757591954439E+01
 0.1588861113401E+01
 0.1322321301068E+01
 0.9654126687405E+00
 0.6155899158039E+00
 0.1043832300836E+01
 0.1358023074800E+01
 0.1563561471094E+01
 0.1666515244807E+01
 0.1671472719442E+01
 0.1581641211420E+01
 0.1399184180604E+01
 0.1127321331309E+01
 0.7782384856885E+00
 0.6369394995440E+00
 0.1001910848200E+01
 0.1275962761199E+01
 0.1453763437079E+01
 0.1535395186087E+01
 0.1522882302520E+01
 0.1419529317979E+01
 0.1229745543907E+01
 0.9603886129846E+00
 0.6281817961689E+00
 0.6630560734369E+00
 0.9653781354875E+00
 0.1199655475560E+01
 0.1350491479581E+01
 0.1412493476944E+01
 0.1385388870739E+01
 0.1272667935800E+01
 0.1080818884510E+01
 0.8197057525554E+00
 0.5100316705180E+00
 0.6936708958582E+00
 0.9353114306841E+00
 0.1130769397455E+01
 0.1255543760389E+01
 0.1299456543990E+01
 0.1260256303336E+01
 0.1141638089159E+01
 0.9517983708325E+00
 0.7026502398778E+00
 0.4181120066458E+00
 0.7285090909616E+00
 0.9126581038369E+00
 0.1070739362487E+01
 0.1170358094461E+01
 0.1197403596593E+01
 0.1148081833747E+01
 0.1026339260746E+01
 0.8415878691550E+00
 0.6063961376860E+00
 0.3469454006763E+00
 0.7673085588761E+00
 0.8982448093056E+00
 0.1020794619537E+01
 0.1096052881896E+01
 0.1106971442248E+01
 0.1048782675281E+01
 0.9260461056889E+00
 0.7488797319732E+00
 0.5285440800221E+00
 0.2918688445775E+00
 0.8098175167242E+00
 0.8928185641376E+00
 0.9820174572684E+00
 0.1033499506728E+01
 0.1028415483782E+01
 0.9616575603288E+00
 0.8390909302002E+00
 0.6722596757237E+00
 0.4677295461956E+00
 0.2498918056634E+00
 0.8557604390525E+00
 0.8969985527086E+00
 0.9556276420485E+00
 0.9833460072999E+00
 0.9616213821632E+00
 0.8857976359121E+00
 0.7627790975272E+00
 0.6081694067271E+00
 0.4251158644761E+00
 0.2210292754142E+00
 0.9038779917888E+00
 0.9127638595859E+00
 0.9430678458223E+00
 0.9459865435583E+00
 0.9061112389034E+00
 0.8199545501045E+00
 0.6954990709107E+00
 0.5493558739023E+00
 0.3933448473855E+00
 0.2207486285576E+00
 0.1292203213716E+01
 0.6197530720573E+00
 0.3438345291525E+00
 0.2874913061181E+00
 0.2036670720588E+00
 0.9514354377315E-01
 0.3826633491190E-01
 0.1370370227882E+00
 0.6952986716422E+00
 0.1184859492095E+01
 0.1395814778923E+01
 0.1174175551257E+01
 0.8128403697001E+00
 0.6970780725426E+00
 0.6321910368979E+00
 0.5774579686926E+00
 0.5987332105430E+00
 0.8312950439684E+00
 0.1502563855965E+01
 0.2096173772522E+01
 0.1335141603090E+01
 0.1413311128233E+01
 0.1240554421692E+01
 0.1138848408562E+01
 0.1106258361582E+01
 0.1118864589004E+01
 0.1216407370851E+01
 0.1524798228190E+01
 0.2223371030002E+01
 0.2816450146095E+01
 0.1258788451981E+01
 0.1536993171855E+01
 0.1545691796841E+01
 0.1540390559184E+01
 0.1570739779871E+01
 0.1651033659986E+01
 0.1811174352312E+01
 0.2162009318400E+01
 0.2826397485376E+01
 0.3356943250232E+01
 0.1181796682708E+01
 0.1606002705310E+01
 0.1766576967680E+01
 0.1869029890834E+01
 0.1979091631693E+01
 0.2125590251696E+01
 0.2335388774655E+01
 0.2701409523034E+01
 0.3296455322447E+01
 0.3735067125492E+01
 0.1107442555451E+01
 0.1641973658608E+01
 0.1923566233061E+01
 0.2123308545302E+01
 0.2308504997382E+01
 0.2512643181575E+01
 0.2758513168152E+01
 0.3119479174372E+01
 0.3628924112659E+01
 0.3970100848971E+01
 0.1035200256521E+01
 0.1652811504282E+01
 0.2027356793453E+01
 0.2305867998956E+01
 0.2552009058784E+01
 0.2798919400780E+01
 0.3065677623116E+01
 0.3406559453986E+01
 0.3828265538423E+01
 0.4083288975771E+01
 0.9638078313663E+00
 0.1640996864694E+01
 0.2083466353882E+01
 0.2420603256492E+01
 0.2710191666371E+01
 0.2983074856253E+01
 0.3255214969882E+01
 0.3565033671618E+01
 0.3906448828844E+01
 0.4096260872831E+01
 0.8917929421518E+00
 0.1606604589744E+01
 0.2095710544328E+01
 0.2472375732492E+01
 0.2787910562086E+01
 0.3071437920873E+01
 0.3336812712634E+01
 0.3608843562985E+01
 0.3880798040697E+01
 0.4028926498250E+01
 0.8151689475829E+00
 0.1550540882897E+01
 0.2069591364468E+01
 0.2467598100627E+01
 0.2792423848996E+01
 0.3073440157903E+01
 0.3326822727696E+01
 0.3567037180451E+01
 0.3780205668006E+01
 0.3895164823688E+01
 0.9551473225040E+00
 0.9435381646916E+00
 0.9403372926972E+00
 0.9086438222475E+00
 0.8385938265680E+00
 0.7319201035588E+00
 0.5988002371818E+00
 0.4541775447953E+00
 0.3188382373319E+00
 0.2203970621169E+00
 0.1019637652467E+01
 0.9863093442326E+00
 0.9452566769457E+00
 0.8697903770214E+00
 0.7617780792331E+00
 0.6307560549711E+00
 0.4895587383972E+00
 0.3509177741784E+00
 0.2393345484060E+00
 0.1460369730618E+00
 0.1094211513706E+01
 0.1043875575730E+01
 0.9624911519730E+00
 0.8411577315942E+00
 0.6954253533810E+00
 0.5418829027150E+00
 0.3948760928606E+00
 0.2657551462273E+00
 0.1673104719444E+00
 0.7817470828909E-01
 0.1180989734059E+01
 0.1116083523117E+01
 0.9860776339357E+00
 0.8129919801306E+00
 0.6285042379198E+00
 0.4550967718367E+00
 0.3067036695952E+00
 0.1894244293721E+00
 0.1051337900934E+00
 0.3448905807891E-01
 0.1283113403379E+01
 0.1199374230079E+01
 0.1004990964379E+01
 0.7715074713950E+00
 0.5482697721463E+00
 0.3605948945659E+00
 0.2181785553722E+00
 0.1203257691620E+00
 0.5843575212283E-01
 0.1442497111987E-01
 0.1403823241124E+01
 0.1285319607595E+01
 0.1000677421846E+01
 0.6978497098837E+00
 0.4410938481398E+00
 0.2505012984852E+00
 0.1259814702198E+00
 0.5814386659470E-01
 0.2725712233613E-01
 0.1288104310765E-01
 0.1545498162126E+01
 0.1355319430829E+01
 0.9420105681792E+00
 0.5681490737032E+00
 0.2956003437938E+00
 0.1227831809208E+00
 0.3132967958723E-01
 0.4071573368746E-02
 0.9979829449792E-02
 0.3008190072344E-01
 0.1704849463087E+01
 0.1366990553878E+01
 0.7777757883632E+00
 0.3574911633553E+00
 0.1143214227188E+00
 0.1390410593845E-01
 0.5969157786804E-01
 0.4211232066541E-01
 0.6202102336345E-02
 0.6170198066021E-01
 0.1860738429018E+01
 0.1211827318323E+01
 0.4227111487706E+00
 0.8515530656647E-01
 0.7495511484787E-01
 0.1420180562053E+00
 0.1370633755406E+00
 0.7509164990598E-01
 0.1367048650501E-01
 0.1038768864982E+00
 0.1776458643695E+01
 0.5485962684235E+00
 0.2036370185958E-01
 0.1669441376432E+00
 0.2384275896284E+00
 0.2444927872662E+00
 0.1925861694113E+00
 0.9231939097380E-01
 0.2879954926054E-01
 0.1527730720415E+00
 0.3802041677371E+01
 0.3911306458461E+01
 0.3956468403709E+01
 0.3946181877417E+01
 0.3864617625791E+01
 0.3692422129482E+01
 0.3404262792123E+01
 0.2966722055770E+01
 0.2335878233307E+01
 0.1433127703997E+01
 0.3562513108152E+01
 0.3693020425862E+01
 0.3764223998317E+01
 0.3779901384697E+01
 0.3727667931450E+01
 0.3583043173936E+01
 0.3312989560512E+01
 0.2876322654605E+01
 0.2223818728071E+01
 0.1316321094730E+01
 0.3287852158712E+01
 0.3382690224185E+01
 0.3451859751744E+01
 0.3474190771951E+01
 0.3435091792530E+01
 0.3311306107193E+01
 0.3070604454969E+01
 0.2673133127438E+01
 0.2076892424942E+01
 0.1255742969367E+01
 0.2974492123085E+01
 0.3022123176108E+01
 0.3058178064287E+01
 0.3063294490371E+01
 0.3020278857315E+01
 0.2908873111567E+01
 0.2702068289834E+01
 0.2366101489533E+01
 0.1863868158239E+01
 0.1165294231525E+01
 0.2625889832768E+01
 0.2621556897284E+01
 0.2611730097400E+01
 0.2582979439597E+01
 0.2522402373635E+01
 0.2415223644778E+01
 0.2242277581715E+01
 0.1977649674769E+01
 0.1587386623128E+01
 0.1036913015055E+01
 0.2253689166594E+01
 0.2194657844075E+01
 0.2131947529338E+01
 0.2058730484115E+01
 0.1968584819063E+01
 0.1854923359627E+01
 0.1709180526787E+01
 0.1517544591863E+01
 0.1255150548540E+01
 0.8834342532323E+00
 0.1873818053713E+01
 0.1759995629624E+01
 0.1641780468610E+01
 0.1517456206803E+01
 0.1387000093698E+01
 0.1252499291731E+01
 0.1117702108172E+01
 0.9860920791139E+00
 0.8546065692865E+00
 0.6961488244637E+00
 0.1505490172671E+01
 0.1341943093589E+01
 0.1172085049930E+01
 0.9973164350309E+00
 0.8223352423809E+00
 0.6562919576878E+00
 0.5139489999417E+00
 0.4161102243390E+00
 0.3880211200323E+00
 0.4515022520948E+00
 0.1169238467902E+01
 0.9685358005931E+00
 0.7608376103488E+00
 0.5498616052258E+00
 0.3450123811812E+00
 0.1693203234460E+00
 0.1055105428002E+00
 0.1489096735536E+00
 0.1148547939471E+00
 0.2186649398899E+00
 0.8823221821612E+00
 0.6636694913731E+00
 0.4414116075487E+00
 0.2247863542435E+00
 0.8315072903087E-01
 0.2102228259772E+00
 0.3391028927715E+00
 0.3810197425233E+00
 0.2665197212427E+00
 0.1366006609065E+00
 0.6526092525189E+00
 0.4361640193863E+00
 0.2246902906584E+00
 0.7052676919337E-01
 0.1936430708693E+00
 0.3338471386538E+00
 0.4120791524961E+00
 0.3883808813061E+00
 0.2089305902298E+00
 0.1990297423703E+00
 0.4776738039022E+00
 0.2790109314396E+00
 0.1003327233290E+00
 0.1117962775955E+00
 0.2423998059529E+00
 0.3304279168887E+00
 0.3468817425958E+00
 0.2641343120370E+00
 0.5433053731175E-01
 0.2925749406606E+00
 0.3494417261556E+00
 0.1775492053122E+00
 0.5392951182724E-01
 0.1366470039385E+00
 0.2280771040837E+00
 0.2691936054573E+00
 0.2419456038970E+00
 0.1321823646776E+00
 0.6534683419673E-01
 0.3357632142372E+00
 0.2588385368483E+00
 0.1173172459527E+00
 0.5069966121651E-01
 0.1275498071966E+00
 0.1838166119035E+00
 0.1918374444725E+00
 0.1414535172188E+00
 0.2892020166451E-01
 0.1406205475204E+00
 0.3491624501075E+00
 0.1972871467805E+00
 0.8552120636910E-01
 0.4632760803395E-01
 0.1005441908462E+00
 0.1311176904206E+00
 0.1196264575062E+00
 0.6126793425838E-01
 0.4298586097437E-01
 0.1834929018479E+00
 0.3459716396363E+00
 0.1575257639755E+00
 0.7192877201453E-01
 0.3594492393240E-01
 0.6818643784464E-01
 0.8246325354677E-01
 0.6186430737786E-01
 0.6966195176501E-02
 0.8757189609202E-01
 0.2043328122790E+00
 0.3353009708726E+00
 0.1339112928628E+00
 0.6923333026543E-01
 0.2868306013465E-01
 0.4016566129485E-01
 0.4517755729006E-01
 0.2207241104069E-01
 0.3316758793257E-01
 0.1121653412388E+00
 0.2114980057681E+00
 0.3240791060340E+00
 0.1224490718865E+00
 0.7147265429627E-01
 0.2900817474969E-01
 0.2245481835907E-01
 0.2115200314516E-01
 0.9090097978415E-02
 0.5470528884821E-01
 0.1245851113196E+00
 0.2115500090987E+00
 0.3124001287879E+00
 0.1184268349813E+00
 0.6891636321653E-01
 0.2866603124719E-01
 0.1403655008087E-01
 0.9365666559242E-02
 0.2772447995396E-01
 0.7160812223920E-01
 0.1320716962835E+00
 0.2063413334023E+00
 0.2928656853356E+00
 0.1049491256197E+00
 0.5268109321469E-01
 0.3021698008837E-01
 0.2452958174741E-01
 0.3356016418700E-01
 0.5675374813800E-01
 0.9194433762068E-01
 0.1374390898711E+00
 0.1921083391618E+00
 0.2572146317042E+00
</DataArray>
<CellData Tensors="'E_Centroid','S_Centroid'">
<DataArray type="Float64" Name="E_Centroid" NumberOfComponents="4" ComponentName0="E11" ComponentName1="E22" ComponentName2="E33" ComponentName3="E12" format="ascii">
-0.1541672687654E-02  0.1180992365684E-01  0.0000000000000E+00  0.3729027417799E-02
-0.2602915423298E-02  0.9627015768131E-02  0.0000000000000E+00  0.4289098043448E-03
-0.2057173500934E-02  0.8398391691222E-02  0.0000000000000E+00  0.5339578645960E-03
-0.1868076645379E-02  0.7453935816806E-02  0.0000000000000E+00  0.4611088394223E-03
-0.1633817221644E-02  0.6550256020114E-02  0.0000000000000E+00  0.4586356517808E-03
-0.1411386318954E-02  0.5649257955121E-02  0.0000000000000E+00  0.4674867101933E-03
-0.1178970813995E-02  0.4718817654339E-02  0.0000000000000E+00  0.4882991746412E-03
-0.9346102445182E-03  0.3737795890785E-02  0.0000000000000E+00  0.5195141529156E-03
-0.6713404435789E-03  0.2681945035496E-02  0.0000000000000E+00  0.5643873488648E-03
-0.3818539576086E-03  0.1514352047753E-02  0.0000000000000E+00  0.6339413506636E-03
-0.5987666930887E-04  0.1649669814863E-03  0.0000000000000E+00  0.7776851639328E-03
 0.2934658423181E-03 -0.1411568999204E-02  0.0000000000000E+00  0.1106687498543E-02
 0.6547412623892E-03 -0.3140713285091E-02  0.0000000000000E+00  0.1740316638683E-02
 0.9828891009979E-03 -0.4899559694915E-02  0.0000000000000E+00  0.2727308667841E-02
 0.1237588167547E-02 -0.6595952464421E-02  0.0000000000000E+00  0.4065511783769E-02
 0.1380314605763E-02 -0.8144252093162E-02  0.0000000000000E+00  0.5714601161759E-02
 0.1406967289825E-02 -0.9504700244353E-02  0.0000000000000E+00  0.7636714013660E-02
 0.1185647768867E-02 -0.1069551665485E-01  0.0000000000000E+00  0.9896070646458E-02
 0.1051878972943E-02 -0.1190026593234E-01  0.0000000000000E+00  0.1296698832022E-01
-0.2350327842747E-02 -0.1213069565398E-01  0.0000000000000E+00  0.1815650019960E-01
 0.9732671952420E-02 -0.1331555393882E-01  0.0000000000000E+00  0.2005848431847E-01
-0.9639371202724E-03  0.9345973537859E-02  0.0000000000000E+00  0.4114572035653E-02
-0.2004550071628E-02  0.8790898519830E-02  0.0000000000000E+00  0.2380315805315E-02
-0.1904577940926E-02  0.7612963638234E-02  0.0000000000000E+00  0.1455882651209E-02
-0.1657037403359E-02  0.6694799380891E-02  0.0000000000000E+00  0.1376053162343E-02
-0.1457990944698E-02  0.5830581988035E-02  0.0000000000000E+00  0.1336027979101E-02
-0.1244588676584E-02  0.4966008461778E-02  0.0000000000000E+00  0.1363377594756E-02
-0.1025963539471E-02  0.4074501123209E-02  0.0000000000000E+00  0.1423009760936E-02
-0.7952158402454E-03  0.3134717997157E-02  0.0000000000000E+00  0.1515331472640E-02
-0.5485847877313E-03  0.2124107210163E-02  0.0000000000000E+00  0.1649397385153E-02
-0.2863384901179E-03  0.1012986377598E-02  0.0000000000000E+00  0.1859891659012E-02
-0.2354990811185E-04 -0.2243031295602E-03  0.0000000000000E+00  0.2204653756404E-02
 0.2199981315429E-03 -0.1578524851262E-02  0.0000000000000E+00  0.2719562081253E-02
 0.4328082293321E-03 -0.2996681035718E-02  0.0000000000000E+00  0.3420626856291E-02
 0.6001518838495E-03 -0.4403033157025E-02  0.0000000000000E+00  0.4326157608916E-02
 0.6975398031606E-03 -0.5715967070972E-02  0.0000000000000E+00  0.5423818263546E-02
 0.7068258008037E-03 -0.6860260907853E-02  0.0000000000000E+00  0.6666786824558E-02
 0.5765176048831E-03 -0.7758723677014E-02  0.0000000000000E+00  0.8021077119774E-02
 0.3091998301821E-03 -0.8323407907649E-02  0.0000000000000E+00  0.9415151577313E-02
-0.6058567465835E-03 -0.8200272570140E-02  0.0000000000000E+00  0.1091606906948E-01
-0.9236613351760E-03 -0.6817666141218E-02  0.0000000000000E+00  0.8581670598706E-02
 0.1158980938085E-01 -0.8700695111405E-02  0.0000000000000E+00  0.5460978575451E-02
-0.6085682884106E-03  0.7677188039054E-02  0.0000000000000E+00  0.4053381247150E-02
-0.1468585676315E-02  0.7555055407208E-02  0.0000000000000E+00  0.3376934513810E-02
-0.1624078125468E-02  0.6778705085509E-02  0.0000000000000E+00  0.2469139143904E-02
-0.1459110767435E-02  0.5922044629239E-02  0.0000000000000E+00  0.2210721290015E-02
-0.1277758512560E-02  0.5113886540657E-02  0.0000000000000E+00  0.2174526680882E-02
-0.1087018849861E-02  0.4296736586008E-02  0.0000000000000E+00  0.2214335841792E-02
-0.8857415897961E-03  0.3452359800401E-02  0.0000000000000E+00  0.2313130341521E-02
-0.6747338937469E-03  0.2563076736788E-02  0.0000000000000E+00  0.2463692596970E-02
-0.4537218256076E-03  0.1611299495767E-02  0.0000000000000E+00  0.2681915685181E-02
-0.2320537142201E-03  0.5815283729679E-03  0.0000000000000E+00  0.3006834511572E-02
-0.3393560937828E-04 -0.5243212647189E-03  0.0000000000000E+00  0.3477890003674E-02
 0.1181141025298E-03 -0.1677595185158E-02  0.0000000000000E+00  0.4084757147387E-02
 0.2196621973422E-03 -0.2835772191073E-02  0.0000000000000E+00  0.4792629352193E-02
 0.2702206210158E-03 -0.3946414712084E-02  0.0000000000000E+00  0.5585064789068E-02
 0.2629071118289E-03 -0.4944254864553E-02  0.0000000000000E+00  0.6429361059958E-02
 0.1840059205567E-03 -0.5757884600285E-02  0.0000000000000E+00  0.7263919072551E-02
 0.1857259354604E-04 -0.6297809010882E-02  0.0000000000000E+00  0.7984386100988E-02
-0.2896518150681E-03 -0.6418180538703E-02  0.0000000000000E+00  0.8422564623427E-02
-0.6626073098014E-03 -0.5819388279927E-02  0.0000000000000E+00  0.7579167184241E-02
 0.1446114821095E-02 -0.5297674315694E-02  0.0000000000000E+00  0.3245453069698E-02
 0.1149372155903E-01 -0.7451844409890E-02  0.0000000000000E+00  0.2325114719209E-02
-0.3867563074155E-03  0.6361817379884E-02  0.0000000000000E+00  0.3960438460008E-02
-0.1050931435316E-02  0.6360690751034E-02  0.0000000000000E+00  0.3915889242350E-02
-0.1313214052725E-02  0.5863670498395E-02  0.0000000000000E+00  0.3295199953599E-02
-0.1248263889766E-02  0.5143906844290E-02  0.0000000000000E+00  0.2997858401320E-02
-0.1102431183579E-02  0.4400807821410E-02  0.0000000000000E+00  0.2952902899417E-02
-0.9365887234792E-03  0.3641208024953E-02  0.0000000000000E+00  0.3015646677908E-02
-0.7582511322226E-03  0.2851563353011E-02  0.0000000000000E+00  0.3151170744414E-02
-0.5719882024707E-03  0.2021368613394E-02  0.0000000000000E+00  0.3355742543443E-02
-0.3834660335701E-03  0.1140422542042E-02  0.0000000000000E+00  0.3645609039973E-02
-0.2080041611578E-03  0.2062482816875E-03  0.0000000000000E+00  0.4053275922872E-02
-0.7193905825392E-04 -0.7642433159955E-03  0.0000000000000E+00  0.4595606279716E-02
 0.5312981178063E-05 -0.1736308616046E-02  0.0000000000000E+00  0.5233486836331E-02
 0.2509080262447E-04 -0.2674511791663E-02  0.0000000000000E+00  0.5903685409519E-02
-0.2733363060281E-05 -0.3540939914581E-02  0.0000000000000E+00  0.6560985276485E-02
-0.7206279791572E-04 -0.4284929755679E-02  0.0000000000000E+00  0.7150523828167E-02
-0.1781240595224E-03 -0.4844531299824E-02  0.0000000000000E+00  0.7579895217132E-02
-0.3132615289419E-03 -0.5140028165299E-02  0.0000000000000E+00  0.7698660146073E-02
-0.4278932137926E-03 -0.5054707758503E-02  0.0000000000000E+00  0.7143737150100E-02
 0.3083214128169E-04 -0.4647370294106E-02  0.0000000000000E+00  0.4961469174035E-02
 0.3178069588469E-02 -0.4965490190108E-02  0.0000000000000E+00  0.1049051186022E-02
 0.1083901177830E-01 -0.6875709168249E-02  0.0000000000000E+00  0.1688086508468E-02
-0.2420105714448E-03  0.5246249555511E-02  0.0000000000000E+00  0.3899749155540E-02
-0.7345095400200E-03  0.5266549224483E-02  0.0000000000000E+00  0.4236752396719E-02
-0.1020875539069E-02  0.4937884659319E-02  0.0000000000000E+00  0.3930106871159E-02
-0.1033024111379E-02  0.4357527894161E-02  0.0000000000000E+00  0.3701365298108E-02
-0.9315524883968E-03  0.3695139909180E-02  0.0000000000000E+00  0.3670168574574E-02
-0.7943982765467E-03  0.2999143632719E-02  0.0000000000000E+00  0.3759357170857E-02
-0.6424372319008E-03  0.2270995018895E-02  0.0000000000000E+00  0.3931384852998E-02
-0.4850628285767E-03  0.1507120446083E-02  0.0000000000000E+00  0.4183099758877E-02
-0.3328975699378E-03  0.7055712246178E-03  0.0000000000000E+00  0.4528918565121E-02
-0.2044307717333E-03 -0.1264684067894E-03  0.0000000000000E+00  0.4990015632756E-02
-0.1242086773970E-03 -0.9648366064681E-03  0.0000000000000E+00  0.5563303209577E-02
-0.1063474622544E-03 -0.1774604825857E-02  0.0000000000000E+00  0.6191471530383E-02
-0.1437304106414E-03 -0.2526603026364E-02  0.0000000000000E+00  0.6794412435833E-02
-0.2181902166498E-03 -0.3193902882008E-02  0.0000000000000E+00  0.7305450025632E-02
-0.3102631497634E-03 -0.3739744733000E-02  0.0000000000000E+00  0.7647545123218E-02
-0.3953302817986E-03 -0.4118736513002E-02  0.0000000000000E+00  0.7704749781026E-02
-0.4259189906493E-03 -0.4278148057052E-02  0.0000000000000E+00  0.7283745229304E-02
-0.2224638786762E-03 -0.4201076526775E-02  0.0000000000000E+00  0.5995628965549E-02
 0.8900341574221E-03 -0.4159013210316E-02  0.0000000000000E+00  0.3374705280713E-02
 0.4275174230556E-02 -0.4946745725402E-02  0.0000000000000E+00  0.4109555145419E-03
 0.1014597290327E-01 -0.6555690020680E-02  0.0000000000000E+00  0.1738043138477E-02
-0.1437569197991E-03  0.4259938468319E-02  0.0000000000000E+00  0.3876403318129E-02
-0.4953921136760E-03  0.4268358455681E-02  0.0000000000000E+00  0.4450142995507E-02
-0.7644894218623E-03  0.4038002886184E-02  0.0000000000000E+00  0.4417345707616E-02
-0.8255137709177E-03  0.3574774896774E-02  0.0000000000000E+00  0.4309079852352E-02
-0.7667283461614E-03  0.2998280850370E-02  0.0000000000000E+00  0.4320229235861E-02
-0.6606832005135E-03  0.2370965482058E-02  0.0000000000000E+00  0.4441340480647E-02
-0.5373216945749E-03  0.1709112253170E-02  0.0000000000000E+00  0.4648432731539E-02
-0.4113298574524E-03  0.1016997498895E-02  0.0000000000000E+00  0.4939400579743E-02
-0.2968902241076E-03  0.2999016556767E-03  0.0000000000000E+00  0.5325060275382E-02
-0.2132752721393E-03 -0.4285323053294E-03  0.0000000000000E+00  0.5814874314407E-02
-0.1812155432487E-03 -0.1141592503564E-02  0.0000000000000E+00  0.6389909218910E-02
-0.2086683788781E-03 -0.1807096574745E-02  0.0000000000000E+00  0.6981601697497E-02
-0.2826560722378E-03 -0.2402134205712E-02  0.0000000000000E+00  0.7500085559086E-02
-0.3771845321078E-03 -0.2909451148167E-02  0.0000000000000E+00  0.7863287896121E-02
-0.4597567639000E-03 -0.3306685575529E-02  0.0000000000000E+00  0.7977630355189E-02
-0.4845838722217E-03 -0.3569129290916E-02  0.0000000000000E+00  0.7712446515128E-02
-0.3597426399263E-03 -0.3684940802413E-02  0.0000000000000E+00  0.6868112224314E-02
 0.1660860171590E-03 -0.3726376662675E-02  0.0000000000000E+00  0.5166450693834E-02
 0.1685149911912E-02 -0.4007774744713E-02  0.0000000000000E+00  0.2595944159944E-02
 0.4942265764483E-02 -0.5001427287563E-02  0.0000000000000E+00  0.4908287291997E-03
 0.9538081111862E-02 -0.6360719615653E-02  0.0000000000000E+00  0.2004125363654E-02
-0.7503081533534E-04  0.3364700916480E-02  0.0000000000000E+00  0.3884413801650E-02
-0.3139303580747E-03  0.3351607208703E-02  0.0000000000000E+00  0.4608759902128E-02
-0.5471683555440E-03  0.3178149525785E-02  0.0000000000000E+00  0.4797738290409E-02
-0.6337930505779E-03  0.2806808916343E-02  0.0000000000000E+00  0.4825443585600E-02
-0.6105956028956E-03  0.2312857844209E-02  0.0000000000000E+00  0.4899486767032E-02
-0.5354869796188E-03  0.1756642406319E-02  0.0000000000000E+00  0.5058639885565E-02
-0.4416765839138E-03  0.1164182228736E-02  0.0000000000000E+00  0.5298575883323E-02
-0.3479645654260E-03  0.5471695605818E-03  0.0000000000000E+00  0.5620426636260E-02
-0.2706897811405E-03 -0.8333874841001E-04  0.0000000000000E+00  0.6031079108562E-02
-0.2281343225007E-03 -0.7099439566888E-03  0.0000000000000E+00  0.6529782123244E-02
-0.2361844930813E-03 -0.1306248088751E-02  0.0000000000000E+00  0.7085944646324E-02
-0.2964146655247E-03 -0.1844381945082E-02  0.0000000000000E+00  0.7624674093616E-02
-0.3899018336629E-03 -0.2307880422891E-02  0.0000000000000E+00  0.8051190684796E-02
-0.4830492651482E-03 -0.2688836538689E-02  0.0000000000000E+00  0.8273783862663E-02
-0.5310969175913E-03 -0.2979470680544E-02  0.0000000000000E+00  0.8189472713868E-02
-0.4681311478403E-03 -0.3177796960599E-02  0.0000000000000E+00  0.7666109047357E-02
-0.1702598244833E-03 -0.3311833252512E-02  0.0000000000000E+00  0.6537064050474E-02
 0.6242789103804E-03 -0.3502169320580E-02  0.0000000000000E+00  0.4675966041797E-02
 0.2354431394105E-02 -0.4016124907706E-02  0.0000000000000E+00  0.2359208675428E-02
 0.5345158949988E-02 -0.5070689476263E-02  0.0000000000000E+00  0.8866515379489E-03
 0.9031393302208E-02 -0.6236491217967E-02  0.0000000000000E+00  0.2349699850714E-02
-0.2594153448422E-04  0.2537439533430E-02  0.0000000000000E+00  0.3916572277205E-02
-0.1754864637409E-03  0.2502095227696E-02  0.0000000000000E+00  0.4738469954898E-02
-0.3662273855245E-03  0.2361472693076E-02  0.0000000000000E+00  0.5101562073785E-02
-0.4616622748091E-03  0.2060501284588E-02  0.0000000000000E+00  0.5261159416479E-02
-0.4653133985544E-03  0.1641537956685E-02  0.0000000000000E+00  0.5408255329114E-02
-0.4187736099518E-03  0.1155956561691E-02  0.0000000000000E+00  0.5609667234111E-02
-0.3540943801786E-03  0.6342209278382E-03  0.0000000000000E+00  0.5879619705385E-02
-0.2921971761814E-03  0.9370834006932E-04  0.0000000000000E+00  0.6224065746008E-02
-0.2501668167949E-03 -0.4503538660634E-03  0.0000000000000E+00  0.6646792722563E-02
-0.2440580233328E-03 -0.9789196169643E-03  0.0000000000000E+00  0.7139079736659E-02
-0.2844414758099E-03 -0.1467686446503E-02  0.0000000000000E+00  0.7662476358690E-02
-0.3665871421749E-03 -0.1893939484318E-02  0.0000000000000E+00  0.8139459787675E-02
-0.4656785474725E-03 -0.2247829350938E-02  0.0000000000000E+00  0.8474046874056E-02
-0.5409121472059E-03 -0.2530610810814E-02  0.0000000000000E+00  0.8570174017105E-02
-0.5366838971493E-03 -0.2748667529514E-02  0.0000000000000E+00  0.8322936985742E-02
-0.3715463243975E-03 -0.2921361154855E-02  0.0000000000000E+00  0.7612514618824E-02
 0.9195544739943E-04 -0.3105493936105E-02  0.0000000000000E+00  0.6326756277883E-02
 0.1086981203082E-02 -0.3433276182984E-02  0.0000000000000E+00  0.4474089646030E-02
 0.2900040891894E-02 -0.4098898828884E-02  0.0000000000000E+00  0.2465843383778E-02
 0.5593972733803E-02 -0.5146473725164E-02  0.0000000000000E+00  0.1411290118758E-02
 0.8610619785748E-02 -0.6158238177632E-02  0.0000000000000E+00  0.2723598691631E-02
 0.9583911943095E-05  0.1762963220665E-02  0.0000000000000E+00  0.3966579017541E-02
-0.6936299768298E-04  0.1707849698454E-02  0.0000000000000E+00  0.4852194580912E-02
-0.2169869203467E-03  0.1586177006853E-02  0.0000000000000E+00  0.5349796689160E-02
-0.3099219499755E-03  0.1338900053997E-02  0.0000000000000E+00  0.5627902426998E-02
-0.3319913946738E-03  0.9860741769890E-03  0.0000000000000E+00  0.5849628236690E-02
-0.3102821082671E-03  0.5684640899055E-03  0.0000000000000E+00  0.6094414158074E-02
-0.2730904694314E-03  0.1170901831282E-03  0.0000000000000E+00  0.6390803147153E-02
-0.2414550333882E-03 -0.3471883853144E-03  0.0000000000000E+00  0.6749991521936E-02
-0.2318757646965E-03 -0.8066174136381E-03  0.0000000000000E+00  0.7173955212311E-02
-0.2573327646131E-03 -0.1242103954592E-02  0.0000000000000E+00  0.7648447822211E-02
-0.3229355602576E-03 -0.1632549183590E-02  0.0000000000000E+00  0.8130442766767E-02
-0.4178963257521E-03 -0.1960809577770E-02  0.0000000000000E+00  0.8542689830146E-02
-0.5117427266656E-03 -0.2223678161342E-02  0.0000000000000E+00  0.8791018143744E-02
-0.5571593385064E-03 -0.2431192887428E-02  0.0000000000000E+00  0.8779659777950E-02
-0.4899286064506E-03 -0.2602615972153E-02  0.0000000000000E+00  0.8408638650213E-02
-0.2197047733962E-03 -0.2774410655125E-02  0.0000000000000E+00  0.7580126839347E-02
 0.3886069046151E-03 -0.3018679976837E-02  0.0000000000000E+00  0.6240209047021E-02
 0.1521207077344E-02 -0.3456603885942E-02  0.0000000000000E+00  0.4492523300842E-02
 0.3342066652634E-02 -0.4212033753801E-02  0.0000000000000E+00  0.2787828244274E-02
 0.5760092232429E-02 -0.5235637700306E-02  0.0000000000000E+00  0.1985249415500E-02
 0.8254029041643E-02 -0.6114448574279E-02  0.0000000000000E+00  0.3087397832711E-02
 0.3546448961067E-04  0.1030591279979E-02  0.0000000000000E+00  0.4029365474125E-02
 0.1230760949060E-04  0.9590871515670E-03  0.0000000000000E+00  0.4956411059368E-02
-0.9439047640957E-04  0.8484063404391E-03  0.0000000000000E+00  0.5556672160259E-02
-0.1775428203754E-03  0.6423859520131E-03  0.0000000000000E+00  0.5936238007712E-02
-0.2106852516735E-03  0.3470491815965E-03  0.0000000000000E+00  0.6228156325743E-02
-0.2094224947386E-03 -0.6619591907983E-05  0.0000000000000E+00  0.6514272679810E-02
-0.1971552022083E-03 -0.3894172723403E-03  0.0000000000000E+00  0.6832646217497E-02
-0.1934309974408E-03 -0.7790708443780E-03  0.0000000000000E+00  0.7199280764882E-02
-0.2130237263848E-03 -0.1156840708970E-02  0.0000000000000E+00  0.7615611880527E-02
-0.2652702269505E-03 -0.1504793298856E-02  0.0000000000000E+00  0.8064201042527E-02
-0.3498710345652E-03 -0.1805701241418E-02  0.0000000000000E+00  0.8500217286210E-02
-0.4503361985659E-03 -0.2048128707852E-02  0.0000000000000E+00  0.8849005441104E-02
-0.5309549623744E-03 -0.2235346455157E-02  0.0000000000000E+00  0.9020675275791E-02
-0.5388973844999E-03 -0.2385483792708E-02  0.0000000000000E+00  0.8923628570357E-02
-0.4041399947872E-03 -0.2528590957012E-02  0.0000000000000E+00  0.8467989060915E-02
-0.3399763722561E-04 -0.2712727782366E-02  0.0000000000000E+00  0.7582103138130E-02
 0.6931873213130E-03 -0.3013953292247E-02  0.0000000000000E+00  0.6262340027678E-02
 0.1913964090115E-02 -0.3531785149999E-02  0.0000000000000E+00  0.4669210555195E-02
 0.3697196616407E-02 -0.4332617630320E-02  0.0000000000000E+00  0.3234062910455E-02
 0.5895033206437E-02 -0.5328383962309E-02  0.0000000000000E+00  0.2610881119436E-02
 0.7927212582118E-02 -0.6123442628283E-02  0.0000000000000E+00  0.3373041975018E-02
 0.5428852531712E-04  0.3324839151806E-03  0.0000000000000E+00  0.4101192465797E-02
 0.7537734271808E-04  0.2483056260177E-03  0.0000000000000E+00  0.5054327046384E-02
 0.6249343760069E-05  0.1443857243077E-03  0.0000000000000E+00  0.5731783176706E-02
-0.6264166255458E-04 -0.2926401360173E-04  0.0000000000000E+00  0.6194786118545E-02
-0.1008123616354E-03 -0.2747121522520E-03  0.0000000000000E+00  0.6548423578610E-02
-0.1154817061716E-03 -0.5690171538851E-03  0.0000000000000E+00  0.6870936037115E-02
-0.1249725064322E-03 -0.8860121667545E-03  0.0000000000000E+00  0.7205775080151E-02
-0.1462419762553E-03 -0.1203674152262E-02  0.0000000000000E+00  0.7572932979783E-02
-0.1914643365641E-03 -0.1503606344527E-02  0.0000000000000E+00  0.7974382815436E-02
-0.2659982097972E-03 -0.1769923244010E-02  0.0000000000000E+00  0.8391577061209E-02
-0.3643458778400E-03 -0.1989616167524E-02  0.0000000000000E+00  0.8780194900554E-02
-0.4647891180990E-03 -0.2156859748526E-02  0.0000000000000E+00  0.9070012989440E-02
-0.5269875458850E-03 -0.2280997858919E-02  0.0000000000000E+00  0.9177345540792E-02
-0.4938627438908E-03 -0.2387195543793E-02  0.0000000000000E+00  0.9017643574064E-02
-0.2924736519677E-03 -0.2513682317108E-02  0.0000000000000E+00  0.8514051928738E-02
 0.1668120625025E-03 -0.2714736456589E-02  0.0000000000000E+00  0.7620299332934E-02
 0.9868535255608E-03 -0.3062660343141E-02  0.0000000000000E+00  0.6370073745251E-02
 0.2257697556765E-02 -0.3632368319124E-02  0.0000000000000E+00  0.4949267345052E-02
 0.3986165664296E-02 -0.4448517446604E-02  0.0000000000000E+00  0.3742937036078E-02
 0.5982350373945E-02 -0.5402255361065E-02  0.0000000000000E+00  0.3252904250409E-02
 0.7801520882558E-02 -0.6198502685527E-02  0.0000000000000E+00  0.3711065566799E-02
 0.6808676052862E-04 -0.3375809488321E-03  0.0000000000000E+00  0.4178488626043E-02
 0.1243541905222E-03 -0.4311428925840E-03  0.0000000000000E+00  0.5147211330009E-02
 0.8928124696364E-04 -0.5306093908176E-03  0.0000000000000E+00  0.5881498297545E-02
 0.3735429167692E-04 -0.6783841612107E-03  0.0000000000000E+00  0.6410651897926E-02
-0.9576581909421E-06 -0.8805329563492E-03  0.0000000000000E+00  0.6815517065194E-02
-0.2722459256957E-04 -0.1120268197249E-02  0.0000000000000E+00  0.7167671841744E-02
-0.5505474299944E-04 -0.1374914058528E-02  0.0000000000000E+00  0.7512898662854E-02
-0.9818085253982E-04 -0.1623891485857E-02  0.0000000000000E+00  0.7874310262156E-02
-0.1655800124123E-03 -0.1850194492481E-02  0.0000000000000E+00  0.8255238613821E-02
-0.2584685589944E-03 -0.2040611252999E-02  0.0000000000000E+00  0.8637739316572E-02
-0.3664372461451E-03 -0.2186477302102E-02  0.0000000000000E+00  0.8979832341622E-02
-0.4630476216087E-03 -0.2287328030687E-02  0.0000000000000E+00  0.9217111149950E-02
-0.5040109562652E-03 -0.2358030877949E-02  0.0000000000000E+00  0.9273488673052E-02
-0.4292923492691E-03 -0.2429557814654E-02  0.0000000000000E+00  0.9073294691621E-02
-0.1655650101285E-03 -0.2545714394728E-02  0.0000000000000E+00  0.8553548091311E-02
 0.3702267356473E-03 -0.2762672800838E-02  0.0000000000000E+00  0.7689595668963E-02
 0.1260139988870E-02 -0.3144559197269E-02  0.0000000000000E+00  0.6539048401382E-02
 0.2556015368497E-02 -0.3743113721640E-02  0.0000000000000E+00  0.5290827256158E-02
 0.4219190500835E-02 -0.4552777096675E-02  0.0000000000000E+00  0.4276478986994E-02
 0.6057222290393E-02 -0.5457939777510E-02  0.0000000000000E+00  0.3863917128137E-02
 0.7696823720277E-02 -0.6231982267764E-02  0.0000000000000E+00  0.4217850315744E-02
 0.7815191692041E-04 -0.9847319719444E-03  0.0000000000000E+00  0.4259269501082E-02
 0.1627732674854E-03 -0.1085348529841E-02  0.0000000000000E+00  0.5236041738866E-02
 0.1586118053544E-03 -0.1181949267664E-02  0.0000000000000E+00  0.6010846846804E-02
 0.1253434841505E-03 -0.1308955341208E-02  0.0000000000000E+00  0.6590288804532E-02
 0.9086945229994E-04 -0.1473655401911E-02  0.0000000000000E+00  0.7035104179142E-02
 0.5702727182916E-04 -0.1663696652178E-02  0.0000000000000E+00  0.7409083309670E-02
 0.1429234341144E-04 -0.1859891192226E-02  0.0000000000000E+00  0.7758315520125E-02
-0.4757268335689E-04 -0.2043874964117E-02  0.0000000000000E+00  0.8108292778159E-02
-0.1339941953783E-03 -0.2200791800673E-02  0.0000000000000E+00  0.8464292585710E-02
-0.2420052821826E-03 -0.2320512004060E-02  0.0000000000000E+00  0.8810307078225E-02
-0.3565937986804E-03 -0.2398698879702E-02  0.0000000000000E+00  0.9108101534750E-02
-0.4470899909763E-03 -0.2439924689645E-02  0.0000000000000E+00  0.9300087773603E-02
-0.4659168981974E-03 -0.2463973446998E-02  0.0000000000000E+00  0.9318701215279E-02
-0.3512389727671E-03 -0.2506403805683E-02  0.0000000000000E+00  0.9098094707312E-02
-0.3122110585391E-04 -0.2614368494437E-02  0.0000000000000E+00  0.8588564448046E-02
 0.5685962541154E-03 -0.2842917071010E-02  0.0000000000000E+00  0.7782112943005E-02
 0.1510278343803E-02 -0.3246116195231E-02  0.0000000000000E+00  0.6748526020508E-02
 0.2814134332964E-02 -0.3855438807887E-02  0.0000000000000E+00  0.5665930419578E-02
 0.4413954907584E-02 -0.4644173856688E-02  0.0000000000000E+00  0.4808182881912E-02
 0.6116590148743E-02 -0.5496702817971E-02  0.0000000000000E+00  0.4448419755651E-02
 0.7630621771904E-02 -0.6223984680349E-02  0.0000000000000E+00  0.4656556975729E-02
 0.8553669883434E-04 -0.1613177942972E-02  0.0000000000000E+00  0.4341887643744E-02
 0.1934288875339E-03 -0.1719079760935E-02  0.0000000000000E+00  0.5321201417102E-02
 0.2175513804184E-03 -0.1813855343444E-02  0.0000000000000E+00  0.6123167790471E-02
 0.2040253201181E-03 -0.1924024552818E-02  0.0000000000000E+00  0.6738405221488E-02
 0.1766190812589E-03 -0.2056275408380E-02  0.0000000000000E+00  0.7211547180610E-02
 0.1388284515322E-03 -0.2201259793875E-02  0.0000000000000E+00  0.7598727996068E-02
 0.8449177102311E-04 -0.2343035009488E-02  0.0000000000000E+00  0.7945220813889E-02
 0.6881021457350E-05 -0.2465896759349E-02  0.0000000000000E+00  0.8278379263064E-02
-0.9573280542058E-04 -0.2557643940824E-02  0.0000000000000E+00  0.8605854510032E-02
-0.2162729128786E-03 -0.2611454263104E-02  0.0000000000000E+00  0.8914591129785E-02
-0.3354687270384E-03 -0.2627182696951E-02  0.0000000000000E+00  0.9171145710345E-02
-0.4189084914575E-03 -0.2614041456275E-02  0.0000000000000E+00  0.9325412207947E-02
-0.4163620300892E-03 -0.2596073988016E-02  0.0000000000000E+00  0.9318837579051E-02
-0.2651519089392E-03 -0.2612267366107E-02  0.0000000000000E+00  0.9095584931355E-02
 0.1038099218736E-03 -0.2711334691526E-02  0.0000000000000E+00  0.8617656899662E-02
 0.7557565931638E-03 -0.2945339690858E-02  0.0000000000000E+00  0.7888365690152E-02
 0.1734664066593E-02 -0.3358037772224E-02  0.0000000000000E+00  0.6980316754656E-02
 0.3036767986631E-02 -0.3964171625052E-02  0.0000000000000E+00  0.6051496437605E-02
 0.4577635783434E-02 -0.4722852995351E-02  0.0000000000000E+00  0.5322235483018E-02
 0.6174953155623E-02 -0.5521780000371E-02  0.0000000000000E+00  0.4985293426520E-02
 0.7592671640576E-02 -0.6207891378184E-02  0.0000000000000E+00  0.5070309920539E-02
 0.9107196525769E-04 -0.2226538329268E-02  0.0000000000000E+00  0.4425207150861E-02
 0.2186078030920E-03 -0.2336507616452E-02  0.0000000000000E+00  0.5402952326545E-02
 0.2690079901054E-03 -0.2430259994824E-02  0.0000000000000E+00  0.6220977094666E-02
 0.2760148016383E-03 -0.2526718214845E-02  0.0000000000000E+00  0.6858854738705E-02
 0.2583380294356E-03 -0.2630795794768E-02  0.0000000000000E+00  0.7348784306929E-02
 0.2198097022775E-03 -0.2735025434067E-02  0.0000000000000E+00  0.7740136946654E-02
 0.1569271948144E-03 -0.2826367282420E-02  0.0000000000000E+00  0.8076949211731E-02
 0.6632147624758E-04 -0.2891984346240E-02  0.0000000000000E+00  0.8388150872162E-02
-0.5005222613930E-04 -0.2922620777902E-02  0.0000000000000E+00  0.8684078584614E-02
-0.1811719118297E-03 -0.2914831480419E-02  0.0000000000000E+00  0.8955365626039E-02
-0.3038761859387E-03 -0.2872432995920E-02  0.0000000000000E+00  0.9174088020390E-02
-0.3804846788788E-03 -0.2808833084818E-02  0.0000000000000E+00  0.9297985089302E-02
-0.3586800435078E-03 -0.2751674675564E-02  0.0000000000000E+00  0.9277633121341E-02
-0.1756576701170E-03 -0.2742357781984E-02  0.0000000000000E+00  0.9066848816197E-02
 0.2342959971363E-03 -0.2829863552037E-02  0.0000000000000E+00  0.8637265821880E-02
 0.9274838980605E-03 -0.3062364701335E-02  0.0000000000000E+00  0.7998554883111E-02
 0.1932580684590E-02 -0.3474069897062E-02  0.0000000000000E+00  0.7218843099877E-02
 0.3227727767314E-02 -0.4066576873623E-02  0.0000000000000E+00  0.6431181766368E-02
 0.4718274443937E-02 -0.4789819187894E-02  0.0000000000000E+00  0.5805976136877E-02
 0.6235045354622E-02 -0.5538357104767E-02  0.0000000000000E+00  0.5477030981042E-02
 0.7578507078830E-02 -0.6184229530212E-02  0.0000000000000E+00  0.5456489881372E-02
 0.9543406627099E-04 -0.2828001037543E-02  0.0000000000000E+00  0.4508525859533E-02
 0.2402238510835E-03 -0.2941339057468E-02  0.0000000000000E+00  0.5481568820621E-02
 0.3155528565455E-03 -0.3034817023024E-02  0.0000000000000E+00  0.6306260645542E-02
 0.3437992353202E-03 -0.3120138856713E-02  0.0000000000000E+00  0.6954832362859E-02
 0.3380912275699E-03 -0.3199710620125E-02  0.0000000000000E+00  0.7450333778015E-02
 0.3016267950224E-03 -0.3267102248051E-02  0.0000000000000E+00  0.7836706093159E-02
 0.2329343150894E-03 -0.3311821920216E-02  0.0000000000000E+00  0.8156839367908E-02
 0.1317635407882E-03 -0.3323948261465E-02  0.0000000000000E+00  0.8441151725485E-02
 0.3626593173267E-05 -0.3297289361593E-02  0.0000000000000E+00  0.8702885600002E-02
-0.1367434798531E-03 -0.3231718114402E-02  0.0000000000000E+00  0.8936857191653E-02
-0.2626753692949E-03 -0.3134708622709E-02  0.0000000000000E+00  0.9121113453029E-02
-0.3336652369625E-03 -0.3023393013160E-02  0.0000000000000E+00  0.9221345195406E-02
-0.2957831175259E-03 -0.2928385440451E-02  0.0000000000000E+00  0.9197090147586E-02
-0.8655067982116E-04 -0.2892666302528E-02  0.0000000000000E+00  0.9011127888952E-02
 0.3562641011225E-03 -0.2964661544701E-02  0.0000000000000E+00  0.8642553567810E-02
 0.1081026505009E-02 -0.3188474843935E-02  0.0000000000000E+00  0.8103127109731E-02
 0.2104098113500E-02 -0.3590133877958E-02  0.0000000000000E+00  0.7451301018800E-02
 0.3390659478295E-02 -0.4161301230883E-02  0.0000000000000E+00  0.6792640802136E-02
 0.4840998866492E-02 -0.4846642748465E-02  0.0000000000000E+00  0.6253208668159E-02
 0.6297707843912E-02 -0.5547657937680E-02  0.0000000000000E+00  0.5923921617350E-02
 0.7585567391369E-02 -0.6153217159351E-02  0.0000000000000E+00  0.5809049565577E-02
 0.9918974363099E-04 -0.3420431696752E-02  0.0000000000000E+00  0.4591513304252E-02
 0.2599152202909E-03 -0.3536920031575E-02  0.0000000000000E+00  0.5557407551712E-02
 0.3594819712505E-03 -0.3630926545394E-02  0.0000000000000E+00  0.6380663398873E-02
 0.4097241130658E-03 -0.3707306374068E-02  0.0000000000000E+00  0.7029019735324E-02
 0.4179117340820E-03 -0.3765522464226E-02  0.0000000000000E+00  0.7519312185480E-02
 0.3859219580336E-03 -0.3799582366191E-02  0.0000000000000E+00  0.7891623931952E-02
 0.3137935930057E-03 -0.3801227957419E-02  0.0000000000000E+00  0.8188135061269E-02
 0.2041215566483E-03 -0.3763405638251E-02  0.0000000000000E+00  0.8440806623862E-02
 0.6577326977417E-04 -0.3682976191002E-02  0.0000000000000E+00  0.8665924012515E-02
-0.8309135859938E-04 -0.3562966840069E-02  0.0000000000000E+00  0.8862770763534E-02
-0.2126779560838E-03 -0.3414147266561E-02  0.0000000000000E+00  0.9015579651793E-02
-0.2800706857741E-03 -0.3256890695327E-02  0.0000000000000E+00  0.9097890342049E-02
-0.2301031085391E-03 -0.3124204770494E-02  0.0000000000000E+00  0.9077838158269E-02
-0.8392519212919E-06 -0.3060006046661E-02  0.0000000000000E+00  0.8926337316450E-02
 0.4667828857944E-03 -0.3111740140526E-02  0.0000000000000E+00  0.8627947509020E-02
 0.1214614209058E-02 -0.3319790967866E-02  0.0000000000000E+00  0.8193126639943E-02
 0.2249703030842E-02 -0.3703648910860E-02  0.0000000000000E+00  0.7667066718197E-02
 0.3528444739452E-02 -0.4247879453548E-02  0.0000000000000E+00  0.7127011098160E-02
 0.4949035722003E-02 -0.4894351418171E-02  0.0000000000000E+00  0.6660139975407E-02
 0.6363336129315E-02 -0.5550190479564E-02  0.0000000000000E+00  0.6325016668831E-02
 0.7612248677485E-02 -0.6115207321604E-02  0.0000000000000E+00  0.6122082185830E-02
 0.1028272762844E-03 -0.4006453567551E-02  0.0000000000000E+00  0.4674162605702E-02
 0.2791168162032E-03 -0.4126316357898E-02  0.0000000000000E+00  0.5630941456418E-02
 0.4028718335965E-03 -0.4221766584482E-02  0.0000000000000E+00  0.6445607945769E-02
 0.4759963315867E-03 -0.4291127366451E-02  0.0000000000000E+00  0.7083686401016E-02
 0.4997710125354E-03 -0.4330684729636E-02  0.0000000000000E+00  0.7558453663565E-02
 0.4742957525748E-03 -0.4334495312061E-02  0.0000000000000E+00  0.7907823971368E-02
 0.4007237096990E-03 -0.4296293618584E-02  0.0000000000000E+00  0.8173917189410E-02
 0.2842293844787E-03 -0.4211798409507E-02  0.0000000000000E+00  0.8390370865558E-02
 0.1367920668104E-03 -0.4080818041089E-02  0.0000000000000E+00  0.8576562935329E-02
-0.2031966490901E-04 -0.3909287420097E-02  0.0000000000000E+00  0.8736344035077E-02
-0.1545769075099E-03 -0.3710864086606E-02  0.0000000000000E+00  0.8860148345830E-02
-0.2210304264789E-03 -0.3508675212992E-02  0.0000000000000E+00  0.8929100840851E-02
-0.1635645500646E-03 -0.3337598781357E-02  0.0000000000000E+00  0.8919460554145E-02
 0.7919402619683E-04 -0.3242010150655E-02  0.0000000000000E+00  0.8809465658332E-02
 0.5637537491563E-03 -0.3268262150349E-02  0.0000000000000E+00  0.8587505222844E-02
 0.1327133624333E-02 -0.3453719796316E-02  0.0000000000000E+00  0.8260238895592E-02
 0.2369951835733E-02 -0.3813098047628E-02  0.0000000000000E+00  0.7857304029486E-02
 0.3643139122623E-02 -0.4326254273416E-02  0.0000000000000E+00  0.7427715119946E-02
 0.5044394218313E-02 -0.4933683450926E-02  0.0000000000000E+00  0.7024086125881E-02
 0.6432191881731E-02 -0.5546442973698E-02  0.0000000000000E+00  0.6679004309733E-02
 0.7657575853824E-02 -0.6070932943385E-02  0.0000000000000E+00  0.6390640650925E-02
 0.1067792886394E-03 -0.4588509490573E-02  0.0000000000000E+00  0.4756753550816E-02
 0.2991165014243E-03 -0.4712379693515E-02  0.0000000000000E+00  0.5702773099251E-02
 0.4476298329235E-03 -0.4810327200905E-02  0.0000000000000E+00  0.6502364247192E-02
 0.5446975482028E-03 -0.4874381930702E-02  0.0000000000000E+00  0.7120753858462E-02
 0.5855628397510E-03 -0.4897561263556E-02  0.0000000000000E+00  0.7570122526687E-02
 0.5682863351347E-03 -0.4873770269412E-02  0.0000000000000E+00  0.7887952729599E-02
 0.4948746514081E-03 -0.4798590025561E-02  0.0000000000000E+00  0.8117060266992E-02
 0.3728540755420E-03 -0.4670404819909E-02  0.0000000000000E+00  0.8292906730002E-02
 0.2170549380317E-03 -0.4491800488976E-02  0.0000000000000E+00  0.8437910837701E-02
 0.5151411829082E-04 -0.4271307517470E-02  0.0000000000000E+00  0.8560423763586E-02
-0.8889400841769E-04 -0.4025026534198E-02  0.0000000000000E+00  0.8656930200195E-02
-0.1575392997941E-03 -0.3778349958474E-02  0.0000000000000E+00  0.8715759378722E-02
-0.9757595276222E-04 -0.3567549143075E-02  0.0000000000000E+00  0.8720781526161E-02
 0.1519276678283E-03 -0.3437109966902E-02  0.0000000000000E+00  0.8656882783587E-02
 0.6457455898270E-03 -0.3432401817388E-02  0.0000000000000E+00  0.8515119974587E-02
 0.1417887526778E-02 -0.3588693890016E-02  0.0000000000000E+00  0.8296727019134E-02
 0.2465267042504E-02 -0.3917706978102E-02  0.0000000000000E+00  0.8014485423983E-02
 0.3736039166884E-02 -0.4396592547586E-02  0.0000000000000E+00  0.7689601300655E-02
 0.5128234891323E-02 -0.4965275459403E-02  0.0000000000000E+00  0.7342997509802E-02
 0.6504436769712E-02 -0.5537056594379E-02  0.0000000000000E+00  0.6984700233872E-02
 0.7721068862370E-02 -0.6021488409803E-02  0.0000000000000E+00  0.6610807147821E-02
 0.1114406684137E-03 -0.5168913371232E-02  0.0000000000000E+00  0.4839824883684E-02
 0.3211014802409E-03 -0.5297804463768E-02  0.0000000000000E+00  0.5773635853761E-02
 0.4955407925455E-03 -0.5399445865376E-02  0.0000000000000E+00  0.6552084292418E-02
 0.6178034128629E-03 -0.5459721356828E-02  0.0000000000000E+00  0.7141827873513E-02
 0.6770957410475E-03 -0.5468397408842E-02  0.0000000000000E+00  0.7556315377073E-02
 0.6693530604413E-03 -0.5419203751537E-02  0.0000000000000E+00  0.7834346559854E-02
 0.5973191565130E-03 -0.5309533437580E-02  0.0000000000000E+00  0.8020207791544E-02
 0.4707028326706E-03 -0.5140343821847E-02  0.0000000000000E+00  0.8151281661504E-02
 0.3069238313317E-03 -0.4916784308098E-02  0.0000000000000E+00  0.8252854678476E-02
 0.1324321153675E-03 -0.4649616488668E-02  0.0000000000000E+00  0.8337558311555E-02
-0.1594377150774E-04 -0.4356907808731E-02  0.0000000000000E+00  0.8407637925230E-02
-0.9023023251292E-04 -0.4065823391855E-02  0.0000000000000E+00  0.8458163406988E-02
-0.3303086760065E-04 -0.3813580108216E-02  0.0000000000000E+00  0.8480117570994E-02
 0.2163464304334E-03 -0.3644507205621E-02  0.0000000000000E+00  0.8464571288283E-02
 0.7118726908844E-03 -0.3603235010965E-02  0.0000000000000E+00  0.8404624665297E-02
 0.1486432730445E-02 -0.3723984494316E-02  0.0000000000000E+00  0.8295285892455E-02
 0.2535831013818E-02 -0.4017245624691E-02  0.0000000000000E+00  0.8131936421334E-02
 0.3807754752021E-02 -0.4459213218036E-02  0.0000000000000E+00  0.7908365198194E-02
 0.5201045649866E-02 -0.4989748137976E-02  0.0000000000000E+00  0.7615248152700E-02
 0.6580104412826E-02 -0.5522834318953E-02  0.0000000000000E+00  0.7241257905230E-02
 0.7802650405912E-02 -0.5968266362626E-02  0.0000000000000E+00  0.6779635931441E-02
 0.1171839353656E-03 -0.5749896523534E-02  0.0000000000000E+00  0.4924154685927E-02
 0.3461995330731E-03 -0.5885180400980E-02  0.0000000000000E+00  0.5844387531198E-02
 0.5483115891671E-03 -0.5991843959550E-02  0.0000000000000E+00  0.6595809733855E-02
 0.6972061374454E-03 -0.6049672213350E-02  0.0000000000000E+00  0.7148202573827E-02
 0.7760899224389E-03 -0.6045297423003E-02  0.0000000000000E+00  0.7518650148446E-02
 0.7788614876571E-03 -0.5972429421049E-02  0.0000000000000E+00  0.7749012377091E-02
 0.7090411324120E-03 -0.5830364490175E-02  0.0000000000000E+00  0.7885761744340E-02
 0.5784229405972E-03 -0.5622571811442E-02  0.0000000000000E+00  0.7968183735587E-02
 0.4067626414370E-03 -0.5356519863216E-02  0.0000000000000E+00  0.8024114874204E-02
 0.2225560499172E-03 -0.5044793036130E-02  0.0000000000000E+00  0.8070101818151E-02
 0.6418848365630E-04 -0.4706920959315E-02  0.0000000000000E+00  0.8113743933684E-02
-0.1935886433641E-04 -0.4371340105941E-02  0.0000000000000E+00  0.8156329811511E-02
 0.2968821628957E-04 -0.4075771990796E-02  0.0000000000000E+00  0.8195500718180E-02
 0.2720031474316E-03 -0.3864150382577E-02  0.0000000000000E+00  0.8228304304815E-02
 0.7617164218562E-03 -0.3780663868652E-02  0.0000000000000E+00  0.8249829022125E-02
 0.1532484616824E-02 -0.3859583108213E-02  0.0000000000000E+00  0.8248852980652E-02
 0.2581535547890E-02 -0.4111918395727E-02  0.0000000000000E+00  0.8203430172524E-02
 0.3858254381250E-02 -0.4514555949676E-02  0.0000000000000E+00  0.8080132431071E-02
 0.5262708999089E-02 -0.5007729819634E-02  0.0000000000000E+00  0.7839494664086E-02
 0.6659051513334E-02 -0.5504704237270E-02  0.0000000000000E+00  0.7448239034945E-02
 0.7902557905597E-02 -0.5912885225154E-02  0.0000000000000E+00  0.6895080766347E-02
 0.1243738664082E-03 -0.6333653083082E-02  0.0000000000000E+00  0.5010748251892E-02
 0.3755189707874E-03 -0.6477044660575E-02  0.0000000000000E+00  0.5915998604474E-02
 0.6076159587354E-03 -0.6590164946974E-02  0.0000000000000E+00  0.6634456202958E-02
 0.7847388586644E-03 -0.6646643544972E-02  0.0000000000000E+00  0.7140837584366E-02
 0.8841753820755E-03 -0.6630203875819E-02  0.0000000000000E+00  0.7458340028604E-02
 0.8980670222714E-03 -0.6534886848402E-02  0.0000000000000E+00  0.7633608734208E-02
 0.8309196396515E-03 -0.6362122838720E-02  0.0000000000000E+00  0.7715882542701E-02
 0.6965943946775E-03 -0.6117871250565E-02  0.0000000000000E+00  0.7746150694113E-02
 0.5169392551658E-03 -0.5811649768779E-02  0.0000000000000E+00  0.7754312164446E-02
 0.3221152257007E-03 -0.5457417568701E-02  0.0000000000000E+00  0.7760326184466E-02
 0.1516560574086E-03 -0.5075635288480E-02  0.0000000000000E+00  0.7776640212344E-02
 0.5520277747256E-04 -0.4695495227691E-02  0.0000000000000E+00  0.7810193674470E-02
 0.9070747294615E-04 -0.4354766112692E-02  0.0000000000000E+00  0.7864883736913E-02
 0.3190011348300E-03 -0.4096721221608E-02  0.0000000000000E+00  0.7943791612896E-02
 0.7952902927909E-03 -0.3965378283116E-02  0.0000000000000E+00  0.8044519585701E-02
 0.1555876892663E-02 -0.3996144798321E-02  0.0000000000000E+00  0.8150402459396E-02
 0.2601964049989E-02 -0.4202317004914E-02  0.0000000000000E+00  0.8222821186662E-02
 0.3886880807548E-02 -0.4563168373301E-02  0.0000000000000E+00  0.8201116595872E-02
 0.5312502429224E-02 -0.5019850460772E-02  0.0000000000000E+00  0.8014539579724E-02
 0.6740892045664E-02 -0.5483671507449E-02  0.0000000000000E+00  0.7605615144831E-02
 0.8021256711489E-02 -0.5857119101846E-02  0.0000000000000E+00  0.6955917452058E-02
 0.1333829506115E-03 -0.6922388313194E-02  0.0000000000000E+00  0.5100833568851E-02
 0.4101908867019E-03 -0.7075937335933E-02  0.0000000000000E+00  0.5989535543398E-02
 0.6751417558485E-03 -0.7197015190849E-02  0.0000000000000E+00  0.6668774564038E-02
 0.8822007341843E-03 -0.7252934613785E-02  0.0000000000000E+00  0.7120307292546E-02
 0.1002888246835E-02 -0.7224875154749E-02  0.0000000000000E+00  0.7376150363092E-02
 0.1028094582961E-02 -0.7107786315295E-02  0.0000000000000E+00  0.7489424953307E-02
 0.9637071494951E-03 -0.6905615940806E-02  0.0000000000000E+00  0.7512496906033E-02
 0.8257151016323E-03 -0.6626831134665E-02  0.0000000000000E+00  0.7487609583765E-02
 0.6378182520092E-03 -0.6282700477400E-02  0.0000000000000E+00  0.7446042937186E-02
 0.4314433899088E-03 -0.5888070348330E-02  0.0000000000000E+00  0.7410537502282E-02
 0.2468489461155E-03 -0.5463776485936E-02  0.0000000000000E+00  0.7397798668107E-02
 0.1339651282595E-03 -0.5039234104307E-02  0.0000000000000E+00  0.7419803968844E-02
 0.1506628637370E-03 -0.4651763810222E-02  0.0000000000000E+00  0.7486338583298E-02
 0.3579988798775E-03 -0.4343633619118E-02  0.0000000000000E+00  0.7606815203433E-02
 0.8130474994090E-03 -0.4158854892923E-02  0.0000000000000E+00  0.7782448217531E-02
 0.1556569778154E-02 -0.4134987587825E-02  0.0000000000000E+00  0.7992737308465E-02
 0.2596396916440E-02 -0.4289422857787E-02  0.0000000000000E+00  0.8183696981290E-02
 0.3892341740869E-02 -0.4605708647665E-02  0.0000000000000E+00  0.8267295995649E-02
 0.5349050877182E-02 -0.5026724708503E-02  0.0000000000000E+00  0.8139172225152E-02
 0.6824911154509E-02 -0.5460769208520E-02  0.0000000000000E+00  0.7713727794319E-02
 0.8159359470483E-02 -0.5802835496042E-02  0.0000000000000E+00  0.6961656706579E-02
 0.1446093302766E-03 -0.7518373805807E-02  0.0000000000000E+00  0.5195865083793E-02
 0.4514174892962E-03 -0.7684464345259E-02  0.0000000000000E+00  0.6066138248086E-02
 0.7526431145940E-03 -0.7815008401999E-02  0.0000000000000E+00  0.6699285960686E-02
 0.9913817251642E-03 -0.7870740424713E-02  0.0000000000000E+00  0.7086719008444E-02
 0.1133662306995E-02 -0.7830856971504E-02  0.0000000000000E+00  0.7272336638970E-02
 0.1169911665444E-02 -0.7692066638095E-02  0.0000000000000E+00  0.7317357242069E-02
 0.1108000848697E-02 -0.7461380683327E-02  0.0000000000000E+00  0.7277312298517E-02
 0.9661786222833E-03 -0.7149819255680E-02  0.0000000000000E+00  0.7194924850791E-02
 0.7697448633812E-03 -0.6770063396341E-02  0.0000000000000E+00  0.7101960139706E-02
 0.5509652042679E-03 -0.6337316259419E-02  0.0000000000000E+00  0.7023193972119E-02
 0.3503810543471E-03 -0.5872211239281E-02  0.0000000000000E+00  0.6978930535816E-02
 0.2178125438057E-03 -0.5403837653223E-02  0.0000000000000E+00  0.6985519337716E-02
 0.2107045302115E-03 -0.4968519365458E-02  0.0000000000000E+00  0.7058259555655E-02
 0.3902367305840E-03 -0.4607044706700E-02  0.0000000000000E+00  0.7213375352500E-02
 0.8159306107611E-03 -0.4363392888843E-02  0.0000000000000E+00  0.7457333059965E-02
 0.1534705470333E-02 -0.4278145796885E-02  0.0000000000000E+00  0.7768288779127E-02
 0.2563839823866E-02 -0.4374656129331E-02  0.0000000000000E+00  0.8079026252305E-02
 0.3872681358901E-02 -0.4642967028136E-02  0.0000000000000E+00  0.8274069565948E-02
 0.5370238653685E-02 -0.5028935444468E-02  0.0000000000000E+00  0.8211968492033E-02
 0.6909953666344E-02 -0.5437012374367E-02  0.0000000000000E+00  0.7773211787039E-02
 0.8317553792400E-02 -0.5751944161617E-02  0.0000000000000E+00  0.6912443389276E-02
 0.1584992517607E-03 -0.8124014392240E-02  0.0000000000000E+00  0.5297537075213E-02
 0.5005310240328E-03 -0.8305372384563E-02  0.0000000000000E+00  0.6146988787656E-02
 0.8420002004707E-03 -0.8446814671410E-02  0.0000000000000E+00  0.6726183671209E-02
 0.1114085605780E-02 -0.8502151708036E-02  0.0000000000000E+00  0.7039594350458E-02
 0.1277812306865E-02 -0.8449443454270E-02  0.0000000000000E+00  0.7146561860433E-02
 0.1324292147746E-02 -0.8288343242789E-02  0.0000000000000E+00  0.7117882129522E-02
 0.1264205998611E-02 -0.8029637109402E-02  0.0000000000000E+00  0.7011837760651E-02
 0.1118244693519E-02 -0.7686946750318E-02  0.0000000000000E+00  0.6870453337584E-02
 0.9130209873280E-03 -0.7273966577779E-02  0.0000000000000E+00  0.6724857129524E-02
 0.6811730534544E-03 -0.6805677347357E-02  0.0000000000000E+00  0.6601022235052E-02
 0.4630665642457E-03 -0.6301916985170E-02  0.0000000000000E+00  0.6522142792874E-02
 0.3079861426755E-03 -0.5790892777156E-02  0.0000000000000E+00  0.6508205890438E-02
 0.2725020115428E-03 -0.5307324496291E-02  0.0000000000000E+00  0.6579581260435E-02
 0.4175833110862E-03 -0.4889874712500E-02  0.0000000000000E+00  0.6759867931269E-02
 0.8054639842924E-03 -0.4582185162476E-02  0.0000000000000E+00  0.7062896958003E-02
 0.1490715596015E-02 -0.4428479855924E-02  0.0000000000000E+00  0.7468933429195E-02
 0.2503081612380E-02 -0.4459976721032E-02  0.0000000000000E+00  0.7900784388135E-02
 0.3825238233844E-02 -0.4675913615667E-02  0.0000000000000E+00  0.8215859055001E-02
 0.5373083144706E-02 -0.5027027238358E-02  0.0000000000000E+00  0.8231031790687E-02
 0.6994280686287E-02 -0.5413360738979E-02  0.0000000000000E+00  0.7784870745258E-02
 0.8496534355401E-02 -0.5706357233489E-02  0.0000000000000E+00  0.6808938106393E-02
 0.1755767900873E-03 -0.8741933160292E-02  0.0000000000000E+00  0.5407808833384E-02
 0.5590691351533E-03 -0.8941641759292E-02  0.0000000000000E+00  0.6233266101224E-02
 0.9452894250723E-03 -0.9095214412830E-02  0.0000000000000E+00  0.6749189874024E-02
 0.1252148649194E-02 -0.9149144310532E-02  0.0000000000000E+00  0.6977705700164E-02
 0.1436504599562E-02 -0.9081622263855E-02  0.0000000000000E+00  0.6997792614009E-02
 0.1491768013217E-02 -0.8896843595304E-02  0.0000000000000E+00  0.6891029633122E-02
 0.1432490589789E-02 -0.8610233739085E-02  0.0000000000000E+00  0.6717412368957E-02
 0.1282002972406E-02 -0.8238025490559E-02  0.0000000000000E+00  0.6516605394988E-02
 0.1067874144940E-02 -0.7794437904031E-02  0.0000000000000E+00  0.6317752362048E-02
 0.8225948800538E-03 -0.7293594070204E-02  0.0000000000000E+00  0.6147129293965E-02
 0.5858850638028E-03 -0.6753937033008E-02  0.0000000000000E+00  0.6030088965314E-02
 0.4060555484593E-03 -0.6202245983294E-02  0.0000000000000E+00  0.5989437290884E-02
 0.3382454328285E-03 -0.5670979358993E-02  0.0000000000000E+00  0.6050019397729E-02
 0.4425966305593E-03 -0.5195828397623E-02  0.0000000000000E+00  0.6243313708586E-02
 0.7838896271894E-03 -0.4819421107348E-02  0.0000000000000E+00  0.6592973742266E-02
 0.1425491582807E-02 -0.4589849542208E-02  0.0000000000000E+00  0.7085845665158E-02
 0.2412795428969E-02 -0.4548050539547E-02  0.0000000000000E+00  0.7639538152205E-02
 0.3746595052274E-02 -0.4705780554739E-02  0.0000000000000E+00  0.8085624299515E-02
 0.5353569579426E-02 -0.5021521075287E-02  0.0000000000000E+00  0.8193657280688E-02
 0.7075390552839E-02 -0.5390701104228E-02  0.0000000000000E+00  0.7749484605202E-02
 0.8696915565038E-02 -0.5667959189896E-02  0.0000000000000E+00  0.6652157553234E-02
 0.1964849524803E-03 -0.9375083760127E-02  0.0000000000000E+00  0.5528944685435E-02
 0.6288747420176E-03 -0.9596604768860E-02  0.0000000000000E+00  0.6326076965619E-02
 0.1064867006320E-02 -0.9763156302028E-02  0.0000000000000E+00  0.6767348296118E-02
 0.1407449440461E-02 -0.9813550172646E-02  0.0000000000000E+00  0.6898856929775E-02
 0.1610709353748E-02 -0.9727996789730E-02  0.0000000000000E+00  0.6824175244886E-02
 0.1672566151980E-02 -0.9517327512155E-02  0.0000000000000E+00  0.6636361277258E-02
 0.1612731057216E-02 -0.9202584859357E-02  0.0000000000000E+00  0.6395243722764E-02
 0.1457330797727E-02 -0.8802519354738E-02  0.0000000000000E+00  0.6135911551687E-02
 0.1234420452331E-02 -0.8331260885035E-02  0.0000000000000E+00  0.5883972997965E-02
 0.9757539016458E-03 -0.7801376481238E-02  0.0000000000000E+00  0.5665107141809E-02
 0.7199350627130E-03 -0.7229321596323E-02  0.0000000000000E+00  0.5506110593671E-02
 0.5138762125648E-03 -0.6639938114098E-02  0.0000000000000E+00  0.5431694127291E-02
 0.4106355676776E-03 -0.6062742749249E-02  0.0000000000000E+00  0.5470338401270E-02
 0.4685909903295E-03 -0.5529406873370E-02  0.0000000000000E+00  0.5661658168357E-02
 0.7543454540230E-03 -0.5080412073701E-02  0.0000000000000E+00  0.6041721881595E-02
 0.1340635749714E-02 -0.4767362333832E-02  0.0000000000000E+00  0.6609420683166E-02
 0.2291708668118E-02 -0.4642506766263E-02  0.0000000000000E+00  0.7283973040233E-02
 0.3632520894687E-02 -0.4734188645764E-02  0.0000000000000E+00  0.7874240086358E-02
 0.5306448594259E-02 -0.5012953912981E-02  0.0000000000000E+00  0.8095927026082E-02
 0.7149803824082E-02 -0.5369897123684E-02  0.0000000000000E+00  0.7667494584795E-02
 0.8919089535988E-02 -0.5638543955271E-02  0.0000000000000E+00  0.6443241496644E-02
 0.2220445446378E-03 -0.1002690395038E-01  0.0000000000000E+00  0.5663573174881E-02
 0.7122319646620E-03 -0.1027410007909E-01  0.0000000000000E+00  0.6426346057052E-02
 0.1203468163370E-02 -0.1045381569963E-01  0.0000000000000E+00  0.6778723342829E-02
 0.1581901767530E-02 -0.1049699753300E-01  0.0000000000000E+00  0.6799595561144E-02
 0.1801126551422E-02 -0.1038867685421E-01  0.0000000000000E+00  0.6622898148921E-02
 0.1866527808247E-02 -0.1014899115943E-01  0.0000000000000E+00  0.6352961984238E-02
 0.1804449807497E-02 -0.9805601794502E-02  0.0000000000000E+00  0.6046459651385E-02
 0.1643846261988E-02 -0.9379491185701E-02  0.0000000000000E+00  0.5731093754635E-02
 0.1412622897513E-02 -0.8883924514181E-02  0.0000000000000E+00  0.5427235437164E-02
 0.1141121482512E-02 -0.8329147167544E-02  0.0000000000000E+00  0.5159127239314E-02
 0.8663759699163E-03 -0.7729056399605E-02  0.0000000000000E+00  0.4954364097145E-02
 0.6335292011068E-03 -0.7106118950104E-02  0.0000000000000E+00  0.4838555539245E-02
 0.4928527516972E-03 -0.6486253408803E-02  0.0000000000000E+00  0.4842640998043E-02
 0.4996973439989E-03 -0.5895892026627E-02  0.0000000000000E+00  0.5014159512039E-02
 0.7210753029335E-03 -0.5371726904267E-02  0.0000000000000E+00  0.5403982348223E-02
 0.1238821674063E-02 -0.4967694609215E-02  0.0000000000000E+00  0.6029356062809E-02
 0.2138883316841E-02 -0.4748362199844E-02  0.0000000000000E+00  0.6820325626539E-02
 0.3477911255277E-02 -0.4763293267567E-02  0.0000000000000E+00  0.7569670260464E-02
 0.5224952625041E-02 -0.5001971883029E-02  0.0000000000000E+00  0.7932215899408E-02
 0.7212939635946E-02 -0.5351928263554E-02  0.0000000000000E+00  0.7538684531993E-02
 0.9162718324738E-02 -0.5619806268446E-02  0.0000000000000E+00  0.6182685682568E-02
 0.2533411580263E-03 -0.1070153258579E-01  0.0000000000000E+00  0.5814770822031E-02
 0.8120548992250E-03 -0.1097867679370E-01  0.0000000000000E+00  0.6534634179421E-02
 0.1364322108997E-02 -0.1117064418347E-01  0.0000000000000E+00  0.6779960655811E-02
 0.1777416423039E-02 -0.1120079975084E-01  0.0000000000000E+00  0.6674843149257E-02
 0.2008075313546E-02 -0.1106312669760E-01  0.0000000000000E+00  0.6390055176516E-02
 0.2073009225543E-02 -0.1079035517604E-01  0.0000000000000E+00  0.6039460574184E-02
 0.2006746562092E-02 -0.1041762141440E-01  0.0000000000000E+00  0.5672176759796E-02
 0.1840857961414E-02 -0.9967546682816E-02  0.0000000000000E+00  0.5305139563329E-02
 0.1602245829334E-02 -0.9451567265971E-02  0.0000000000000E+00  0.4951721692485E-02
 0.1319064393618E-02 -0.8876776903207E-02  0.0000000000000E+00  0.4634023823816E-02
 0.1026359457225E-02 -0.8253980687421E-02  0.0000000000000E+00  0.4379928863229E-02
 0.7672403289292E-03 -0.7602941376580E-02  0.0000000000000E+00  0.4214872263661E-02
 0.5884952364295E-03 -0.6945412914926E-02  0.0000000000000E+00  0.4170669006752E-02
 0.5408903895581E-03 -0.6301280122411E-02  0.0000000000000E+00  0.4301862850629E-02
 0.6896709255501E-03 -0.5701303321407E-02  0.0000000000000E+00  0.4675862490274E-02
 0.1124233269341E-02 -0.5199501836462E-02  0.0000000000000E+00  0.5334910463036E-02
 0.1954310288799E-02 -0.4872603392563E-02  0.0000000000000E+00  0.6232051275227E-02
 0.3276546477018E-02 -0.4796313869956E-02  0.0000000000000E+00  0.7155106954483E-02
 0.5100572284840E-02 -0.4988641532903E-02  0.0000000000000E+00  0.7695658872883E-02
 0.7258951416393E-02 -0.5339591883361E-02  0.0000000000000E+00  0.7360678707759E-02
 0.9426172406644E-02 -0.5611297647372E-02  0.0000000000000E+00  0.5870404647402E-02
 0.2918574657677E-03 -0.1140412779546E-01  0.0000000000000E+00  0.5986174498215E-02
 0.9321538491375E-03 -0.1171586455538E-01  0.0000000000000E+00  0.6650828337995E-02
 0.1551277953957E-02 -0.1191739175489E-01  0.0000000000000E+00  0.6765640828263E-02
 0.1995807855062E-02 -0.1192575916610E-01  0.0000000000000E+00  0.6517433786917E-02
 0.2231333493297E-02 -0.1174995880789E-01  0.0000000000000E+00  0.6120541516468E-02
 0.2290765285555E-02 -0.1143914283307E-01  0.0000000000000E+00  0.5694099684662E-02
 0.2218228108406E-02 -0.1103633914153E-01  0.0000000000000E+00  0.5273586947173E-02
 0.2047313249082E-02 -0.1056477750400E-01  0.0000000000000E+00  0.4861374061522E-02
 0.1802806295111E-02 -0.1003291533164E-01  0.0000000000000E+00  0.4462149652026E-02
 0.1509788335532E-02 -0.9443814995234E-02  0.0000000000000E+00  0.4095365981361E-02
 0.1200952605167E-02 -0.8804699366546E-02  0.0000000000000E+00  0.3788891989328E-02
 0.9172795981729E-03 -0.8132439630393E-02  0.0000000000000E+00  0.3566906423707E-02
 0.7014735734534E-03 -0.7444225002423E-02  0.0000000000000E+00  0.3460084736878E-02
 0.5979649050331E-03 -0.6752135353293E-02  0.0000000000000E+00  0.3528153954949E-02
 0.6672674368646E-03 -0.6078486738059E-02  0.0000000000000E+00  0.3855556655865E-02
 0.1003240200951E-02 -0.5473883447647E-02  0.0000000000000E+00  0.4515661700454E-02
 0.1739430321230E-02 -0.5025065250119E-02  0.0000000000000E+00  0.5499266104071E-02
 0.3022307975880E-02 -0.4838282305563E-02  0.0000000000000E+00  0.6608166667041E-02
 0.4918986788601E-02 -0.4972722628128E-02  0.0000000000000E+00  0.7372059902911E-02
 0.7287776434945E-02 -0.5333996997854E-02  0.0000000000000E+00  0.7143577530932E-02
 0.9692760027014E-02 -0.5622545125421E-02  0.0000000000000E+00  0.5477541275403E-02
 0.3396962031310E-03 -0.1214143976139E-01  0.0000000000000E+00  0.6181905208995E-02
 0.1077749927856E-02 -0.1249312944109E-01  0.0000000000000E+00  0.6773564936405E-02
 0.1769227381475E-02 -0.1269902354259E-01  0.0000000000000E+00  0.6727091159917E-02
 0.2239035147789E-02 -0.1267313591301E-01  0.0000000000000E+00  0.6317078022977E-02
 0.2470442514036E-02 -0.1244821613263E-01  0.0000000000000E+00  0.5807214632519E-02
 0.2518430742032E-02 -0.1209393400861E-01  0.0000000000000E+00  0.5313756676887E-02
 0.2437637840730E-02 -0.1166075317360E-01  0.0000000000000E+00  0.4850646455106E-02
 0.2262540332813E-02 -0.1117095014456E-01  0.0000000000000E+00  0.4401806834040E-02
 0.2014420519477E-02 -0.1062873515139E-01  0.0000000000000E+00  0.3961764599899E-02
 0.1714269334294E-02 -0.1003223195766E-01  0.0000000000000E+00  0.3547010678173E-02
 0.1392108197492E-02 -0.9384609884838E-02  0.0000000000000E+00  0.3185352672647E-02
 0.1086906325124E-02 -0.8699795258208E-02  0.0000000000000E+00  0.2898687973606E-02
 0.8368456498460E-03 -0.7990219419559E-02  0.0000000000000E+00  0.2714116086733E-02
 0.6781535957333E-03 -0.7259071677767E-02  0.0000000000000E+00  0.2693720161496E-02
 0.6629487946011E-03 -0.6517543884267E-02  0.0000000000000E+00  0.2937722868892E-02
 0.8844026768056E-03 -0.5807967753550E-02  0.0000000000000E+00  0.3555026861732E-02
 0.1497127693779E-02 -0.5221953465545E-02  0.0000000000000E+00  0.4591023059739E-02
 0.2705428220637E-02 -0.4898340934399E-02  0.0000000000000E+00  0.5890554864151E-02
 0.4664369822040E-02 -0.4955090807277E-02  0.0000000000000E+00  0.6935643331765E-02
 0.7272208913941E-02 -0.5331357703823E-02  0.0000000000000E+00  0.6884954620304E-02
 0.1004415313032E-01 -0.5672432785766E-02  0.0000000000000E+00  0.5018808620987E-02
 0.3998333621670E-03 -0.1292235956092E-01  0.0000000000000E+00  0.6407822217503E-02
 0.1255715965886E-02 -0.1331929488551E-01  0.0000000000000E+00  0.6899714855255E-02
 0.2023572528232E-02 -0.1351964056627E-01  0.0000000000000E+00  0.6651647875740E-02
 0.2508017799028E-02 -0.1344153736472E-01  0.0000000000000E+00  0.6060898949628E-02
 0.2723381366109E-02 -0.1315391419750E-01  0.0000000000000E+00  0.5442762782474E-02
 0.2753213710051E-02 -0.1275048738473E-01  0.0000000000000E+00  0.4896517438689E-02
 0.2662456766187E-02 -0.1228709535889E-01  0.0000000000000E+00  0.4405130679025E-02
 0.2484669735420E-02 -0.1178292280096E-01  0.0000000000000E+00  0.3930813604605E-02
 0.2236052375967E-02 -0.1123671791506E-01  0.0000000000000E+00  0.3456840596423E-02
 0.1932371618172E-02 -0.1064079878893E-01  0.0000000000000E+00  0.2996542614069E-02
 0.1600693220159E-02 -0.9993799715605E-02  0.0000000000000E+00  0.2577921974958E-02
 0.1278379002639E-02 -0.9306767092538E-02  0.0000000000000E+00  0.2219778164343E-02
 0.9989630885601E-03 -0.8587467798666E-02  0.0000000000000E+00  0.1942890369381E-02
 0.7887551761205E-03 -0.7829575052781E-02  0.0000000000000E+00  0.1807906230320E-02
 0.6875011176489E-03 -0.7030927239251E-02  0.0000000000000E+00  0.1927244866637E-02
 0.7805977464920E-03 -0.6219916814953E-02  0.0000000000000E+00  0.2445662839576E-02
 0.1235674874919E-02 -0.5483778724000E-02  0.0000000000000E+00  0.3478903699494E-02
 0.2319901515816E-02 -0.4990517938904E-02  0.0000000000000E+00  0.4955320067256E-02
 0.4308893065976E-02 -0.4936178923382E-02  0.0000000000000E+00  0.6349808435674E-02
 0.7204115367770E-02 -0.5328834697460E-02  0.0000000000000E+00  0.6574016259918E-02
 0.1041459340357E-01 -0.5750650334657E-02  0.0000000000000E+00  0.4556069981595E-02
 0.4768342762876E-03 -0.1375908365418E-01  0.0000000000000E+00  0.6670125097755E-02
 0.1475648429850E-02 -0.1420516713216E-01  0.0000000000000E+00  0.7021619334806E-02
 0.2320322647104E-02 -0.1438187562306E-01  0.0000000000000E+00  0.6519444712507E-02
 0.2802061774084E-02 -0.1422602898689E-01  0.0000000000000E+00  0.5732170358736E-02
 0.2986167231027E-02 -0.1385971739507E-01  0.0000000000000E+00  0.5019631405595E-02
 0.2990757565528E-02 -0.1340182515510E-01  0.0000000000000E+00  0.4441517148521E-02
 0.2888783650325E-02 -0.1290894648809E-01  0.0000000000000E+00  0.3940099063421E-02
 0.2710413597212E-02 -0.1239464334084E-01  0.0000000000000E+00  0.3454437903549E-02
 0.2465211404780E-02 -0.1185137587345E-01  0.0000000000000E+00  0.2956010417801E-02
 0.2162513126676E-02 -0.1126493792043E-01  0.0000000000000E+00  0.2454681105475E-02
 0.1826146990352E-02 -0.1062886382997E-01  0.0000000000000E+00  0.1979172362837E-02
 0.1492601703825E-02 -0.9951414095162E-02  0.0000000000000E+00  0.1544794694997E-02
 0.1191074131806E-02 -0.9236093876978E-02  0.0000000000000E+00  0.1163302164697E-02
 0.9367054473350E-03 -0.8467194458092E-02  0.0000000000000E+00  0.8896391796080E-03
 0.7534224466678E-03 -0.7628318105414E-02  0.0000000000000E+00  0.8425452152630E-03
 0.7105897266468E-03 -0.6728884581385E-02  0.0000000000000E+00  0.1196350473624E-02
 0.9744207542114E-03 -0.5838263162111E-02  0.0000000000000E+00  0.2144732973620E-02
 0.1868119132261E-02 -0.5139414018901E-02  0.0000000000000E+00  0.3749455152151E-02
 0.3828016228709E-02 -0.4922026094310E-02  0.0000000000000E+00  0.5552767186511E-02
 0.7041003372682E-02 -0.5321410714605E-02  0.0000000000000E+00  0.6208909185391E-02
 0.1083644342303E-01 -0.5843513327408E-02  0.0000000000000E+00  0.4031412932811E-02
 0.5777336218308E-03 -0.1466943306266E-01  0.0000000000000E+00  0.6976687673267E-02
 0.1751007506666E-02 -0.1516541756917E-01  0.0000000000000E+00  0.7124416398581E-02
 0.2665877812382E-02 -0.1528733085123E-01  0.0000000000000E+00  0.6300916606316E-02
 0.3118431847118E-02 -0.1501915947879E-01  0.0000000000000E+00  0.5310489290013E-02
 0.3253410106300E-02 -0.1455758624387E-01  0.0000000000000E+00  0.4530547265472E-02
 0.3226391570816E-02 -0.1404182729485E-01  0.0000000000000E+00  0.3948100101951E-02
 0.3112810236619E-02 -0.1352121771476E-01  0.0000000000000E+00  0.3457839879184E-02
 0.2936649068430E-02 -0.1300143268301E-01  0.0000000000000E+00  0.2977568421101E-02
 0.2699691012796E-02 -0.1246871512661E-01  0.0000000000000E+00  0.2466819201763E-02
 0.2403573000052E-02 -0.1190191665871E-01  0.0000000000000E+00  0.1931030021313E-02
 0.2068448038499E-02 -0.1128865504825E-01  0.0000000000000E+00  0.1400201776156E-02
 0.1730916819274E-02 -0.1063422560652E-01  0.0000000000000E+00  0.8863856150599E-03
 0.1416566443129E-02 -0.9938387401736E-02  0.0000000000000E+00  0.3900724063674E-03
 0.1128684128563E-02 -0.9177018727921E-02  0.0000000000000E+00 -0.4344728253533E-04
 0.8732145298798E-03 -0.8320666619114E-02  0.0000000000000E+00 -0.2960887006307E-03
 0.6961340048778E-03 -0.7357568646952E-02  0.0000000000000E+00 -0.1777781979829E-03
 0.7413714366895E-03 -0.6323769687884E-02  0.0000000000000E+00  0.5742222340141E-03
 0.1362785588072E-02 -0.5386799053979E-02  0.0000000000000E+00  0.2201034617879E-02
 0.3187991501502E-02 -0.4930380127705E-02  0.0000000000000E+00  0.4445387097371E-02
 0.6731473258571E-02 -0.5298820177419E-02  0.0000000000000E+00  0.5738886190876E-02
 0.1132346670201E-01 -0.5970996423238E-02  0.0000000000000E+00  0.3445258634263E-02
 0.7138821061308E-03 -0.1568052270336E-01  0.0000000000000E+00  0.7336758822726E-02
 0.2100783682962E-02 -0.1621880981680E-01  0.0000000000000E+00  0.7179031952010E-02
 0.3065425762946E-02 -0.1623274310690E-01  0.0000000000000E+00  0.5952197812385E-02
 0.3450331748310E-02 -0.1580776360282E-01  0.0000000000000E+00  0.4773408324400E-02
 0.3517596000018E-02 -0.1523734113478E-01  0.0000000000000E+00  0.3971017083278E-02
 0.3454823737430E-02 -0.1466395049650E-01  0.0000000000000E+00  0.3417063327231E-02
 0.3330266286984E-02 -0.1411840145697E-01  0.0000000000000E+00  0.2960696910035E-02
 0.3159561468233E-02 -0.1359775133272E-01  0.0000000000000E+00  0.2505008708449E-02
 0.2936527211490E-02 -0.1308357689247E-01  0.0000000000000E+00  0.1997456646292E-02
 0.2653849217228E-02 -0.1254801370563E-01  0.0000000000000E+00  0.1436623669357E-02
 0.2327188798855E-02 -0.1197150093876E-01  0.0000000000000E+00  0.8537280415306E-03
 0.1994283150459E-02 -0.1135533905163E-01  0.0000000000000E+00  0.2585457173676E-03
 0.1678155341247E-02 -0.1069577048230E-01  0.0000000000000E+00 -0.3607180210858E-03
 0.1370186583979E-02 -0.9962179685668E-02  0.0000000000000E+00 -0.9708698970495E-03
 0.1058169833067E-02 -0.9115942570387E-02  0.0000000000000E+00 -0.1460736640066E-02
 0.7612115094457E-03 -0.8127313582451E-02  0.0000000000000E+00 -0.1643920166163E-02
 0.5782204589488E-03 -0.6987920557032E-02  0.0000000000000E+00 -0.1223610782608E-02
 0.8397814898243E-03 -0.5801807312624E-02  0.0000000000000E+00  0.2350452262220E-03
 0.2359176141617E-02 -0.5004292699680E-02  0.0000000000000E+00  0.2865443165806E-02
 0.6190795731387E-02 -0.5259092120659E-02  0.0000000000000E+00  0.5066179207313E-02
 0.1189727882101E-01 -0.6152799914656E-02  0.0000000000000E+00  0.2786084442168E-02
 0.9043982943604E-03 -0.1683611960836E-01  0.0000000000000E+00  0.7759790918260E-02
 0.2551667693955E-02 -0.1738801837414E-01  0.0000000000000E+00  0.7128146356789E-02
 0.3519326224843E-02 -0.1720359424197E-01  0.0000000000000E+00  0.5410020841732E-02
 0.3784461730647E-02 -0.1657064682944E-01  0.0000000000000E+00  0.4101502878930E-02
 0.3769367313897E-02 -0.1588759366591E-01  0.0000000000000E+00  0.3342370281051E-02
 0.3670694712544E-02 -0.1526189660920E-01  0.0000000000000E+00  0.2850827283621E-02
 0.3536609645449E-02 -0.1469484963715E-01  0.0000000000000E+00  0.2450640585170E-02
 0.3374557641126E-02 -0.1417716730593E-01  0.0000000000000E+00  0.2040832826199E-02
 0.3171697065316E-02 -0.1368919602356E-01  0.0000000000000E+00  0.1556482855737E-02
 0.2910819769235E-02 -0.1319808366818E-01  0.0000000000000E+00  0.9843996200096E-03
 0.2601606434455E-02 -0.1267524401850E-01  0.0000000000000E+00  0.3547333174532E-03
 0.2283467173612E-02 -0.1211494053090E-01  0.0000000000000E+00 -0.3234355781842E-03
 0.1977857208640E-02 -0.1150895865433E-01  0.0000000000000E+00 -0.1072671140925E-02
 0.1664927009005E-02 -0.1082324743557E-01  0.0000000000000E+00 -0.1870817890089E-02
 0.1316511079961E-02 -0.1001728817183E-01  0.0000000000000E+00 -0.2617375032904E-02
 0.9277880988185E-03 -0.9053063389050E-02  0.0000000000000E+00 -0.3149121612325E-02
 0.5393100796797E-03 -0.7881729246646E-02  0.0000000000000E+00 -0.3195358962702E-02
 0.3762662335456E-03 -0.6491496654937E-02  0.0000000000000E+00 -0.2197241628428E-02
 0.1337716805415E-02 -0.5245566155941E-02  0.0000000000000E+00  0.5705045711212E-03
 0.5281003766615E-02 -0.5215617961229E-02  0.0000000000000E+00  0.3971696064152E-02
 0.1257975677065E-01 -0.6427730752228E-02  0.0000000000000E+00  0.2012033382099E-02
 0.1183010987260E-02 -0.1821241042359E-01  0.0000000000000E+00  0.8249865076964E-02
 0.3139967380922E-02 -0.1869490667361E-01  0.0000000000000E+00  0.6855928013419E-02
 0.4014634456848E-02 -0.1816068341310E-01  0.0000000000000E+00  0.4589833297974E-02
 0.4098456450715E-02 -0.1727795139018E-01  0.0000000000000E+00  0.3290775009002E-02
 0.3999142027439E-02 -0.1649831135404E-01  0.0000000000000E+00  0.2654380432617E-02
 0.3869292881065E-02 -0.1583015497194E-01  0.0000000000000E+00  0.2252855644105E-02
 0.3727297822311E-02 -0.1524525064777E-01  0.0000000000000E+00  0.1928873901485E-02
 0.3576252157639E-02 -0.1473248228026E-01  0.0000000000000E+00  0.1587196190701E-02
 0.3399611145860E-02 -0.1427650106442E-01  0.0000000000000E+00  0.1152058273342E-02
 0.3170654592868E-02 -0.1384468083295E-01  0.0000000000000E+00  0.5899749003087E-03
 0.2890656138877E-02 -0.1339730337683E-01  0.0000000000000E+00 -0.7812695886206E-04
 0.2599547782585E-02 -0.1291413265875E-01  0.0000000000000E+00 -0.8427888882380E-03
 0.2317244129143E-02 -0.1237852884949E-01  0.0000000000000E+00 -0.1730717541729E-02
 0.2014220036624E-02 -0.1175767866459E-01  0.0000000000000E+00 -0.2722633906237E-02
 0.1651873227839E-02 -0.1102133428817E-01  0.0000000000000E+00 -0.3728511106954E-02
 0.1209539338792E-02 -0.1013806372024E-01  0.0000000000000E+00 -0.4624348514879E-02
 0.6805497134312E-03 -0.9043373804371E-02  0.0000000000000E+00 -0.5223408374541E-02
 0.1105722269430E-03 -0.7601661545552E-02  0.0000000000000E+00 -0.5043743848663E-02
 0.2043424597524E-03 -0.5876731361173E-02  0.0000000000000E+00 -0.2754573572043E-02
 0.3790241739341E-02 -0.5247442964291E-02  0.0000000000000E+00  0.1967430506315E-02
 0.1336908628186E-01 -0.6879669389990E-02  0.0000000000000E+00  0.9613537046143E-03
 0.1611950568013E-02 -0.1995645833845E-01  0.0000000000000E+00  0.8781998266878E-02
 0.3909185310616E-02 -0.2013600946777E-01  0.0000000000000E+00  0.6119631891975E-02
 0.4506123253001E-02 -0.1901437432951E-01  0.0000000000000E+00  0.3404960742535E-02
 0.4361756873567E-02 -0.1789990116823E-01  0.0000000000000E+00  0.2376541912103E-02
 0.4200899575499E-02 -0.1706394738347E-01  0.0000000000000E+00  0.1921998541333E-02
 0.4046684974874E-02 -0.1636380617941E-01  0.0000000000000E+00  0.1627288630279E-02
 0.3898364533724E-02 -0.1576566886376E-01  0.0000000000000E+00  0.1395806440431E-02
 0.3758684730463E-02 -0.1525617748459E-01  0.0000000000000E+00  0.1142256572594E-02
 0.3612297203074E-02 -0.1483316517466E-01  0.0000000000000E+00  0.7900331119142E-03
 0.3427144838089E-02 -0.1447616529578E-01  0.0000000000000E+00  0.2727072352135E-03
 0.3193111469638E-02 -0.1413464628434E-01  0.0000000000000E+00 -0.4193724800563E-03
 0.2944980190629E-02 -0.1375679503179E-01  0.0000000000000E+00 -0.1280703531981E-02
 0.2698207028317E-02 -0.1330595235029E-01  0.0000000000000E+00 -0.2323509185423E-02
 0.2416323819578E-02 -0.1275957998914E-01  0.0000000000000E+00 -0.3510975384040E-02
 0.2061778713691E-02 -0.1211604649543E-01  0.0000000000000E+00 -0.4755979830737E-02
 0.1608519755667E-02 -0.1137154719702E-01  0.0000000000000E+00 -0.5993597738708E-02
 0.1030558059598E-02 -0.1047478837195E-01  0.0000000000000E+00 -0.7136140039778E-02
 0.2366652310609E-03 -0.9270941029403E-02  0.0000000000000E+00 -0.8017141423176E-02
-0.7361273849638E-03 -0.7340421437687E-02  0.0000000000000E+00 -0.7342728881241E-02
 0.1454286989977E-02 -0.5676397813673E-02  0.0000000000000E+00 -0.2001967765895E-02
 0.1415800140195E-01 -0.7713874464409E-02  0.0000000000000E+00 -0.9860782981830E-03
 0.2308221875693E-02 -0.2240036742624E-01  0.0000000000000E+00  0.9190901188530E-02
 0.4883573544402E-02 -0.2156159920556E-01  0.0000000000000E+00  0.4392064619379E-02
 0.4878094786992E-02 -0.1960090986781E-01  0.0000000000000E+00  0.1882166956662E-02
 0.4553619673869E-02 -0.1844278378611E-01  0.0000000000000E+00  0.1450334907255E-02
 0.4374902899119E-02 -0.1757557533475E-01  0.0000000000000E+00  0.1147754323374E-02
 0.4198451845549E-02 -0.1686142841555E-01  0.0000000000000E+00  0.9851878211569E-03
 0.4048030165465E-02 -0.1625384689649E-01  0.0000000000000E+00  0.8491799993543E-03
 0.3915847350975E-02 -0.1574207103675E-01  0.0000000000000E+00  0.6983886995762E-03
 0.3798440407508E-02 -0.1534277756481E-01  0.0000000000000E+00  0.4688651063535E-03
 0.3669210989467E-02 -0.1507239610848E-01  0.0000000000000E+00  0.5661245138303E-04
 0.3507489038523E-02 -0.1488325241364E-01  0.0000000000000E+00 -0.6295724119857E-03
 0.3326139000411E-02 -0.1465373156742E-01  0.0000000000000E+00 -0.1614656331670E-02
 0.3123748778434E-02 -0.1429535367407E-01  0.0000000000000E+00 -0.2848869263019E-02
 0.2867137047426E-02 -0.1381870907982E-01  0.0000000000000E+00 -0.4228583515989E-02
 0.2533090406060E-02 -0.1328072519849E-01  0.0000000000000E+00 -0.5671242058977E-02
 0.2119640983554E-02 -0.1272281282158E-01  0.0000000000000E+00 -0.7168204745968E-02
 0.1565656260353E-02 -0.1214312623284E-01  0.0000000000000E+00 -0.8779968672131E-02
 0.8744310106363E-03 -0.1148959936629E-01  0.0000000000000E+00 -0.1052105283241E-01
-0.7055860080455E-03 -0.1030095411682E-01  0.0000000000000E+00 -0.1266397478666E-01
-0.1714004902240E-02 -0.7686971946842E-02  0.0000000000000E+00 -0.9949103929872E-02
 0.1437809550548E-01 -0.9587112684384E-02  0.0000000000000E+00 -0.6332867287354E-02
 0.3455038167056E-02 -0.2652663316112E-01  0.0000000000000E+00  0.8501201550262E-02
 0.5915830570651E-02 -0.2194676753629E-01  0.0000000000000E+00  0.5760579967444E-03
 0.4906947990458E-02 -0.1999232774535E-01  0.0000000000000E+00  0.6807413453974E-03
 0.4734446855792E-02 -0.1889171438215E-01  0.0000000000000E+00  0.4482744657943E-03
 0.4501070281231E-02 -0.1803342778972E-01  0.0000000000000E+00  0.3786531162501E-03
 0.4329009341627E-02 -0.1732373091700E-01  0.0000000000000E+00  0.3288283865903E-03
 0.4174745088280E-02 -0.1670978325728E-01  0.0000000000000E+00  0.2886266944905E-03
 0.4044658546277E-02 -0.1618813733669E-01  0.0000000000000E+00  0.2411500300982E-03
 0.3942820358744E-02 -0.1578721691331E-01  0.0000000000000E+00  0.1681338445607E-03
 0.3874944571720E-02 -0.1559419951335E-01  0.0000000000000E+00 -0.3254330864905E-04
 0.3831243190361E-02 -0.1563519003095E-01  0.0000000000000E+00 -0.6372959422398E-03
 0.3758940804994E-02 -0.1563342870311E-01  0.0000000000000E+00 -0.1815284148293E-02
 0.3600291264321E-02 -0.1535532037426E-01  0.0000000000000E+00 -0.3325207195874E-02
 0.3355900133847E-02 -0.1491728734494E-01  0.0000000000000E+00 -0.4881818305200E-02
 0.3052555340989E-02 -0.1448782560099E-01  0.0000000000000E+00 -0.6450884880096E-02
 0.2694494504474E-02 -0.1414090305539E-01  0.0000000000000E+00 -0.8095137854336E-02
 0.2310370543317E-02 -0.1397084029246E-01  0.0000000000000E+00 -0.9930912655684E-02
 0.1720663181357E-02 -0.1409569592414E-01  0.0000000000000E+00 -0.1223971162510E-01
 0.1396771090432E-02 -0.1481273464030E-01  0.0000000000000E+00 -0.1587203611045E-01
-0.3537355363038E-02 -0.1477629270890E-01  0.0000000000000E+00 -0.2299368864997E-01
 0.1261397501689E-01 -0.1662867896973E-01  0.0000000000000E+00 -0.2789084733529E-01
 0.7029577104532E-01 -0.1365339315697E+00  0.0000000000000E+00  0.1188270924831E+00
 0.1826917316210E+00 -0.2414643853533E+00  0.0000000000000E+00  0.2271321104593E+00
 0.2621002716963E+00 -0.3155471705393E+00  0.0000000000000E+00  0.3024576995491E+00
 0.3217077747858E+00 -0.3716277172857E+00  0.0000000000000E+00  0.3604505027067E+00
 0.3686322765387E+00 -0.4166064634139E+00  0.0000000000000E+00  0.4090633504032E+00
 0.4070019825226E+00 -0.4546514225735E+00  0.0000000000000E+00  0.4539794135643E+00
 0.4400983957271E+00 -0.4888186954113E+00  0.0000000000000E+00  0.4977644548070E+00
 0.4692722445030E+00 -0.5206567417549E+00  0.0000000000000E+00  0.5467751508456E+00
 0.4902243084003E+00 -0.5470803283757E+00  0.0000000000000E+00  0.6096379724777E+00
 0.4931369435794E+00 -0.5593971811028E+00  0.0000000000000E+00  0.6824778070296E+00
 0.6383086008887E-01 -0.1307459492591E+00  0.0000000000000E+00  0.1755530766515E+00
 0.1789657667431E+00 -0.2384689185735E+00  0.0000000000000E+00  0.2640416561464E+00
 0.2601214667061E+00 -0.3142712741669E+00  0.0000000000000E+00  0.3315148472008E+00
 0.3200943164218E+00 -0.3706756201698E+00  0.0000000000000E+00  0.3881718350909E+00
 0.3662455691949E+00 -0.4148854284400E+00  0.0000000000000E+00  0.4397027426728E+00
 0.4030360512917E+00 -0.4512562543376E+00  0.0000000000000E+00  0.4902879390237E+00
 0.4337075122539E+00 -0.4830377363015E+00  0.0000000000000E+00  0.5430319009249E+00
 0.4587748012188E+00 -0.5110551543307E+00  0.0000000000000E+00  0.6050326164266E+00
 0.4735281303709E+00 -0.5312724995767E+00  0.0000000000000E+00  0.6818901619131E+00
 0.4694184792280E+00 -0.5361014899541E+00  0.0000000000000E+00  0.7638242048772E+00
 0.5859908975919E-01 -0.1258645091089E+00  0.0000000000000E+00  0.2318350237228E+00
 0.1746956459032E+00 -0.2345693719961E+00  0.0000000000000E+00  0.3009769417505E+00
 0.2562619046467E+00 -0.3108093676864E+00  0.0000000000000E+00  0.3599332809597E+00
 0.3157255279469E+00 -0.3667078662396E+00  0.0000000000000E+00  0.4145465070567E+00
 0.3604472947318E+00 -0.4094596581323E+00  0.0000000000000E+00  0.4682109216364E+00
 0.3949267287995E+00 -0.4434891849716E+00  0.0000000000000E+00  0.5240651808751E+00
 0.4219275048943E+00 -0.4716035176796E+00  0.0000000000000E+00  0.5853087327635E+00
 0.4413581945195E+00 -0.4939409778628E+00  0.0000000000000E+00  0.6577639230642E+00
 0.4488705016351E+00 -0.5066207202756E+00  0.0000000000000E+00  0.7440144870447E+00
 0.4383708888874E+00 -0.5039854399287E+00  0.0000000000000E+00  0.8318123959153E+00
 0.5449722807533E-01 -0.1217118845023E+00  0.0000000000000E+00  0.2869738275678E+00
 0.1698699183389E+00 -0.2297909310518E+00  0.0000000000000E+00  0.3371260299983E+00
 0.2506495120187E+00 -0.3053058245287E+00  0.0000000000000E+00  0.3872254198486E+00
 0.3087838046667E+00 -0.3599003445032E+00  0.0000000000000E+00  0.4390906229214E+00
 0.3514183650116E+00 -0.4005523817986E+00  0.0000000000000E+00  0.4940659178894E+00
 0.3828160064043E+00 -0.4314560334078E+00  0.0000000000000E+00  0.5541984776562E+00
 0.4052310649145E+00 -0.4548921076197E+00  0.0000000000000E+00  0.6220828779773E+00
 0.4182255472060E+00 -0.4705724087263E+00  0.0000000000000E+00  0.7017649899756E+00
 0.4181581998129E+00 -0.4751107817391E+00  0.0000000000000E+00  0.7932237646185E+00
 0.4008797166484E+00 -0.4646119073317E+00  0.0000000000000E+00  0.8837711434116E+00
 0.5148183337789E-01 -0.1182468852884E+00  0.0000000000000E+00  0.3404016206351E+00
 0.1645072207803E+00 -0.2241572868762E+00  0.0000000000000E+00  0.3719810785202E+00
 0.2434282969382E+00 -0.2979201136481E+00  0.0000000000000E+00  0.4129553440343E+00
 0.2994982388769E+00 -0.3504974681017E+00  0.0000000000000E+00  0.4613927272201E+00
 0.3394476536296E+00 -0.3884540679227E+00  0.0000000000000E+00  0.5166497686445E+00
 0.3671636808604E+00 -0.4155997674118E+00  0.0000000000000E+00  0.5795425873401E+00
 0.3844474927714E+00 -0.4337309189320E+00  0.0000000000000E+00  0.6516593087518E+00
 0.3907191292886E+00 -0.4423314080947E+00  0.0000000000000E+00  0.7351941623546E+00
 0.3830492435180E+00 -0.4385919460310E+00  0.0000000000000E+00  0.8282285538496E+00
 0.3587311580717E+00 -0.4198801995626E+00  0.0000000000000E+00  0.9183140186442E+00
 0.4952577275765E-01 -0.1154568057422E+00  0.0000000000000E+00  0.3915770637570E+00
 0.1586760045312E+00 -0.2177504447686E+00  0.0000000000000E+00  0.4051609860630E+00
 0.2347821677667E+00 -0.2888500197927E+00  0.0000000000000E+00  0.4368011410453E+00
 0.2881575336866E+00 -0.3387993426823E+00  0.0000000000000E+00  0.4810864968047E+00
 0.3249516494521E+00 -0.3735856671111E+00  0.0000000000000E+00  0.5354159271646E+00
 0.3486079709072E+00 -0.3965629444474E+00  0.0000000000000E+00  0.5992691610383E+00
 0.3605535182965E+00 -0.4091178180826E+00  0.0000000000000E+00  0.6730293533668E+00
 0.3601737343456E+00 -0.4106302253971E+00  0.0000000000000E+00  0.7571677688704E+00
 0.3451567466449E+00 -0.3987929190925E+00  0.0000000000000E+00  0.8483258513118E+00
 0.3138366453476E+00 -0.3718674714850E+00  0.0000000000000E+00  0.9345698674279E+00
 0.4860456049787E-01 -0.1133415714867E+00  0.0000000000000E+00  0.4400032395191E+00
 0.1524847411631E+00 -0.2106973117366E+00  0.0000000000000E+00  0.4363720227231E+00
 0.2249417881240E+00 -0.2783413121076E+00  0.0000000000000E+00  0.4585287476578E+00
 0.2751122904758E+00 -0.3251686370619E+00  0.0000000000000E+00  0.4978999074304E+00
 0.3084324699175E+00 -0.3564602128085E+00  0.0000000000000E+00  0.5499941152881E+00
 0.3278727290909E+00 -0.3750859133959E+00  0.0000000000000E+00  0.6129164344866E+00
 0.3345574115429E+00 -0.3820993174184E+00  0.0000000000000E+00  0.6857814740276E+00
 0.3278981694726E+00 -0.3768485437712E+00  0.0000000000000E+00  0.7674825114207E+00
 0.3060893618627E+00 -0.3574379542475E+00  0.0000000000000E+00  0.8534849094904E+00
 0.2682066260022E+00 -0.3227362293310E+00  0.0000000000000E+00  0.9323483409001E+00
 0.4869027947798E-01 -0.1119050642354E+00  0.0000000000000E+00  0.4852405116423E+00
 0.1460740154825E+00 -0.2031611344757E+00  0.0000000000000E+00  0.4653906266431E+00
 0.2141790548071E+00 -0.2666832008185E+00  0.0000000000000E+00  0.4779865501121E+00
 0.2607588633707E+00 -0.3100166373596E+00  0.0000000000000E+00  0.5116804506085E+00
 0.2904360099215E+00 -0.3376400058874E+00  0.0000000000000E+00  0.5602213800593E+00
 0.3056996114429E+00 -0.3519353628309E+00  0.0000000000000E+00  0.6203720359711E+00
 0.3074367038650E+00 -0.3536953080630E+00  0.0000000000000E+00  0.6899953729319E+00
 0.2951339691822E+00 -0.3422975115887E+00  0.0000000000000E+00  0.7665412029029E+00
 0.2674140651567E+00 -0.3161983225807E+00  0.0000000000000E+00  0.8444017214532E+00
 0.2239032241109E+00 -0.2746990976426E+00  0.0000000000000E+00  0.9123965992508E+00
 0.4974875574718E-01 -0.1111507389454E+00  0.0000000000000E+00  0.5269180860239E+00
 0.1396077864842E+00 -0.1953321710623E+00  0.0000000000000E+00  0.4920557176992E+00
 0.2027950729048E+00 -0.2541967661525E+00  0.0000000000000E+00  0.4951015889424E+00
 0.2455181517186E+00 -0.2937822303114E+00  0.0000000000000E+00  0.5223986395730E+00
 0.2715158632794E+00 -0.3176994605940E+00  0.0000000000000E+00  0.5661343571004E+00
 0.2828019727100E+00 -0.3278540526232E+00  0.0000000000000E+00  0.6218236811751E+00
 0.2800890727158E+00 -0.3248478665409E+00  0.0000000000000E+00  0.6861575041557E+00
 0.2629969146015E+00 -0.3081577860535E+00  0.0000000000000E+00  0.7552810075927E+00
 0.2305621249583E+00 -0.2765982290220E+00  0.0000000000000E+00  0.8225391707431E+00
 0.1828950979625E+00 -0.2298632912696E+00  0.0000000000000E+00  0.8766713534532E+00
 0.5173832218399E-01 -0.1110790702323E+00  0.0000000000000E+00  0.5647425920689E+00
 0.1332639807173E+00 -0.1874177188365E+00  0.0000000000000E+00  0.5162631832085E+00
 0.1911059210633E+00 -0.2412205480568E+00  0.0000000000000E+00  0.5098719190682E+00
 0.2298147978178E+00 -0.2769106956032E+00  0.0000000000000E+00  0.5301367174689E+00
 0.2522051860552E+00 -0.2971954637168E+00  0.0000000000000E+00  0.5679413644591E+00
 0.2598318066939E+00 -0.3035258679240E+00  0.0000000000000E+00  0.6177014318395E+00
 0.2532933380429E+00 -0.2963806411561E+00  0.0000000000000E+00  0.6750713409929E+00
 0.2324118543776E+00 -0.2754155534180E+00  0.0000000000000E+00  0.7350696159784E+00
 0.1966886836704E+00 -0.2398735985035E+00  0.0000000000000E+00  0.7900701486099E+00
 0.1467640696615E+00 -0.1899331680912E+00  0.0000000000000E+00  0.8285090685482E+00
 0.5460959428667E-01 -0.1116860447566E+00  0.0000000000000E+00  0.5985030630732E+00
 0.1272251930224E+00 -0.1796321371257E+00  0.0000000000000E+00  0.5379596096186E+00
 0.1794286616399E+00 -0.2280960920598E+00  0.0000000000000E+00  0.5223547225164E+00
 0.2140591832293E+00 -0.2598349570045E+00  0.0000000000000E+00  0.5350683750941E+00
 0.2329955014060E+00 -0.2766449661922E+00  0.0000000000000E+00  0.5659860076128E+00
 0.2373570077169E+00 -0.2795515790359E+00  0.0000000000000E+00  0.6086161754632E+00
 0.2276826397494E+00 -0.2689712430099E+00  0.0000000000000E+00  0.6577629200423E+00
 0.2040618314306E+00 -0.2448133818027E+00  0.0000000000000E+00  0.7075562287322E+00
 0.1665279306147E+00 -0.2068344090586E+00  0.0000000000000E+00  0.7496346247062E+00
 0.1163327932685E+00 -0.1558303524425E+00  0.0000000000000E+00  0.7723096013703E+00
 0.5830609133312E-01 -0.1129625065724E+00  0.0000000000000E+00  0.6280722325636E+00
 0.1216702865805E+00 -0.1721877051589E+00  0.0000000000000E+00  0.5571347063112E+00
 0.1680689629768E+00 -0.2151549627632E+00  0.0000000000000E+00  0.5326512734713E+00
 0.1986328762467E+00 -0.2429602360201E+00  0.0000000000000E+00  0.5374337865179E+00
 0.2143215716306E+00 -0.2565087251103E+00  0.0000000000000E+00  0.5607073335881E+00
 0.2158476352338E+00 -0.2564337775250E+00  0.0000000000000E+00  0.5952979437179E+00
 0.2037322361335E+00 -0.2431378771988E+00  0.0000000000000E+00  0.6353843306598E+00
 0.1783735299803E+00 -0.2168346196313E+00  0.0000000000000E+00  0.6744947534895E+00
 0.1403560122125E+00 -0.1778302934105E+00  0.0000000000000E+00  0.7038816515110E+00
 0.9158024562046E-01 -0.1276003143973E+00  0.0000000000000E+00  0.7121714005212E+00
 0.6276564970994E-01 -0.1148943529131E+00  0.0000000000000E+00  0.6534045372469E+00
 0.1167675427714E+00 -0.1652870182065E+00  0.0000000000000E+00  0.5738127284607E+00
 0.1573110610816E+00 -0.2027080820492E+00  0.0000000000000E+00  0.5408900686492E+00
 0.1838776362816E+00 -0.2266522748192E+00  0.0000000000000E+00  0.5375123914379E+00
 0.1965515681177E+00 -0.2371803966567E+00  0.0000000000000E+00  0.5525993452544E+00
 0.1956702606279E+00 -0.2345698505542E+00  0.0000000000000E+00  0.5785364308105E+00
 0.1817629520215E+00 -0.2192408505339E+00  0.0000000000000E+00  0.6091216809797E+00
 0.1555432831714E+00 -0.1917259802333E+00  0.0000000000000E+00  0.6375802600499E+00
 0.1181034852447E+00 -0.1528503831911E+00  0.0000000000000E+00  0.6551179458242E+00
 0.7196005795154E-01 -0.1047428190547E+00  0.0000000000000E+00  0.6510750332654E+00
 0.6792256713487E-01 -0.1174635693721E+00  0.0000000000000E+00  0.6745314794643E+00
 0.1126698335174E+00 -0.1591174606079E+00  0.0000000000000E+00  0.5880435329897E+00
 0.1474105476192E+00 -0.1910379463715E+00  0.0000000000000E+00  0.5472092016221E+00
 0.1700879504295E+00 -0.2112292036720E+00  0.0000000000000E+00  0.5355946788771E+00
 0.1799817307136E+00 -0.2189801366045E+00  0.0000000000000E+00  0.5421713989606E+00
 0.1770892572983E+00 -0.2142517847600E+00  0.0000000000000E+00  0.5591269431474E+00
 0.1619576513707E+00 -0.1974970292731E+00  0.0000000000000E+00  0.5801173309553E+00
 0.1355897491302E+00 -0.1695465182381E+00  0.0000000000000E+00  0.5983341861692E+00
 0.9949344478624E-01 -0.1316579080670E+00  0.0000000000000E+00  0.6052138533981E+00
 0.5672242865823E-01 -0.8653598382435E-01  0.0000000000000E+00  0.5911565886366E+00
 0.7371033048875E-01 -0.1206500045946E+00  0.0000000000000E+00  0.6915551361487E+00
 0.1095120883322E+00 -0.1538479954055E+00  0.0000000000000E+00  0.5998942878912E+00
 0.1385904209723E+00 -0.1803943028811E+00  0.0000000000000E+00  0.5517390355800E+00
 0.1575071979488E+00 -0.1969571726700E+00  0.0000000000000E+00  0.5319535195851E+00
 0.1648345291501E+00 -0.2021519477467E+00  0.0000000000000E+00  0.5299095911167E+00
 0.1602723310821E+00 -0.1956700126296E+00  0.0000000000000E+00  0.5378253085825E+00
 0.1443853427274E+00 -0.1780022316869E+00  0.0000000000000E+00  0.5494179278367E+00
 0.1184124891650E+00 -0.1502256489909E+00  0.0000000000000E+00  0.5580495704299E+00
 0.8414187783975E-01 -0.1138953803838E+00  0.0000000000000E+00  0.5555881110482E+00
 0.4505958842084E-01 -0.7218374520621E-01  0.0000000000000E+00  0.5338158380894E+00
 0.8006472429115E-01 -0.1244335241825E+00  0.0000000000000E+00  0.7046409591300E+00
 0.1074110006873E+00 -0.1496283878986E+00  0.0000000000000E+00  0.6094429309725E+00
 0.1310409167812E+00 -0.1709934682554E+00  0.0000000000000E+00  0.5545873576687E+00
 0.1463280571487E+00 -0.1840510608800E+00  0.0000000000000E+00  0.5268150274368E+00
 0.1512595159227E+00 -0.1868636434128E+00  0.0000000000000E+00  0.5162374688879E+00
 0.1452958476807E+00 -0.1789177802470E+00  0.0000000000000E+00  0.5153105734070E+00
 0.1290236067830E+00 -0.1607510487677E+00  0.0000000000000E+00  0.5179569647939E+00
 0.1038461791984E+00 -0.1336190713092E+00  0.0000000000000E+00  0.5177986148044E+00
 0.7164038850037E-01 -0.9917206653080E-01  0.0000000000000E+00  0.5072373811617E+00
 0.3619644922392E-01 -0.6091214639572E-01  0.0000000000000E+00  0.4798104313544E+00
 0.8692661819891E-01 -0.1287960498949E+00  0.0000000000000E+00  0.7140102068267E+00
 0.1064668301141E+00 -0.1465900215705E+00  0.0000000000000E+00  0.6167763154077E+00
 0.1249230337208E+00 -0.1630224659209E+00  0.0000000000000E+00  0.5558279818893E+00
 0.1366988704896E+00 -0.1726796345393E+00  0.0000000000000E+00  0.5203343655206E+00
 0.1393379292518E+00 -0.1732147257818E+00  0.0000000000000E+00  0.5014686672263E+00
 0.1321449017067E+00 -0.1639873201483E+00  0.0000000000000E+00  0.4921457885944E+00
 0.1157665393776E+00 -0.1456448699218E+00  0.0000000000000E+00  0.4865635884997E+00
 0.9170284840948E-01 -0.1195457110169E+00  0.0000000000000E+00  0.4785109712698E+00
 0.6164004608529E-01 -0.8715833579681E-01  0.0000000000000E+00  0.4608175329347E+00
 0.2947301844582E-01 -0.5206080293212E-01  0.0000000000000E+00  0.4292718277155E+00
 0.9424374690459E-01 -0.1337185169395E+00  0.0000000000000E+00  0.7199434514843E+00
 0.1067679630171E+00 -0.1448529446937E+00  0.0000000000000E+00  0.6219998768422E+00
 0.1203777762855E+00 -0.1566463010644E+00  0.0000000000000E+00  0.5554937391451E+00
 0.1287321788315E+00 -0.1629772552220E+00  0.0000000000000E+00  0.5125720448261E+00
 0.1291004071549E+00 -0.1612474025846E+00  0.0000000000000E+00  0.4857809625559E+00
 0.1207111789418E+00 -0.1507885409251E+00  0.0000000000000E+00  0.4686777365423E+00
 0.1043942847245E+00 -0.1324332779576E+00  0.0000000000000E+00  0.4559699768392E+00
 0.8178118743871E-01 -0.1078076262259E+00  0.0000000000000E+00  0.4411502932928E+00
 0.5394483694147E-01 -0.7766596301756E-01  0.0000000000000E+00  0.4168718672436E+00
 0.2444203026954E-01 -0.4522684279982E-01  0.0000000000000E+00  0.3818351027385E+00
 0.1019613817554E+00 -0.1391791663285E+00  0.0000000000000E+00  0.7227572068438E+00
 0.1083945222530E+00 -0.1445097341067E+00  0.0000000000000E+00  0.6252965667907E+00
 0.1175535240990E+00 -0.1520600437023E+00  0.0000000000000E+00  0.5535783651265E+00
 0.1225154312519E+00 -0.1550402574883E+00  0.0000000000000E+00  0.5034304209337E+00
 0.1205252909512E+00 -0.1509512258513E+00  0.0000000000000E+00  0.4692204165114E+00
 0.1108653394903E+00 -0.1391939480181E+00  0.0000000000000E+00  0.4450595903556E+00
 0.9449672565685E-01 -0.1207612781739E+00  0.0000000000000E+00  0.4263749341882E+00
 0.7368996710829E-01 -0.9779821126864E-01  0.0000000000000E+00  0.4070879552746E+00
 0.4865221096003E-01 -0.7092435247238E-01  0.0000000000000E+00  0.3765859717915E+00
 0.2106315778301E-01 -0.4045582462467E-01  0.0000000000000E+00  0.3366334491795E+00
 0.1100020679783E+00 -0.1449109692244E+00  0.0000000000000E+00  0.7233806870979E+00
 0.1115307211881E+00 -0.1459269145205E+00  0.0000000000000E+00  0.6272682993381E+00
 0.1166669697301E+00 -0.1494559895493E+00  0.0000000000000E+00  0.5497845278142E+00
 0.1180907485757E+00 -0.1489371632907E+00  0.0000000000000E+00  0.4926760461860E+00
 0.1135440355748E+00 -0.1422596241305E+00  0.0000000000000E+00  0.4516562342143E+00
 0.1024341022722E+00 -0.1290238347476E+00  0.0000000000000E+00  0.4213764969531E+00
 0.8585050364371E-01 -0.1103963013049E+00  0.0000000000000E+00  0.3976550039573E+00
 0.6623412718782E-01 -0.8864022627300E-01  0.0000000000000E+00  0.3756533208987E+00
 0.4539917831063E-01 -0.6528486449183E-01  0.0000000000000E+00  0.3451748715517E+00
 0.2073383341421E-01 -0.4064873558462E-01  0.0000000000000E+00  0.2955953388079E+00
 0.1392399919196E+00 -0.2231055782321E+00  0.0000000000000E+00 -0.1285357932352E+00
 0.8168513883172E-01 -0.9351102413253E-01  0.0000000000000E+00  0.2061214334855E+00
 0.4529786927013E-01 -0.5189879389518E-01  0.0000000000000E+00  0.1288376196885E+00
 0.3831095270158E-01 -0.4297619444732E-01  0.0000000000000E+00  0.6306668658700E-01
 0.2719420024840E-01 -0.3039392375529E-01  0.0000000000000E+00  0.1876687879190E-01
 0.1304347812818E-01 -0.1386856992105E-01  0.0000000000000E+00 -0.1318859107511E-01
 0.7012930519700E-02 -0.3635625125107E-02  0.0000000000000E+00 -0.3079469453715E-01
 0.1979259246012E-01 -0.1897251352150E-01  0.0000000000000E+00 -0.4347703842197E-01
 0.8257650827638E-01 -0.1133220325083E+00  0.0000000000000E+00  0.2766539824829E-01
 0.1227996906943E+00 -0.2087090125199E+00  0.0000000000000E+00  0.1022354507008E+00
 0.1674418433805E+00 -0.2259871068145E+00  0.0000000000000E+00 -0.2059355126825E+00
 0.1499164950667E+00 -0.1817508172887E+00  0.0000000000000E+00  0.1354996764284E+00
 0.1075322798397E+00 -0.1222642332080E+00  0.0000000000000E+00  0.1596139168773E+00
 0.9326593311865E-01 -0.1038440002545E+00  0.0000000000000E+00  0.9977647811393E-01
 0.8498318414039E-01 -0.9379236089872E-01  0.0000000000000E+00  0.3193717429490E-01
 0.7807896159334E-01 -0.8523262212248E-01  0.0000000000000E+00 -0.3615664988464E-01
 0.8116043238365E-01 -0.8817376474638E-01  0.0000000000000E+00 -0.9384396526037E-01
 0.1098759671721E+00 -0.1251337163145E+00  0.0000000000000E+00 -0.1255069815846E+00
 0.1908599360923E+00 -0.2335042112437E+00  0.0000000000000E+00 -0.5090132169272E-01
 0.2511286330161E+00 -0.3396746806972E+00  0.0000000000000E+00  0.5844248947741E-01
 0.1611664924590E+00 -0.2152541621612E+00  0.0000000000000E+00 -0.2173258141324E+00
 0.1816979594928E+00 -0.2175926279567E+00  0.0000000000000E+00  0.7744293015858E-01
 0.1633683869135E+00 -0.1873140746431E+00  0.0000000000000E+00  0.1482799951994E+00
 0.1524667871042E+00 -0.1695640337123E+00  0.0000000000000E+00  0.1212479586927E+00
 0.1490519345383E+00 -0.1637945929683E+00  0.0000000000000E+00  0.5375902205899E-01
 0.1511603547447E+00 -0.1652635163465E+00  0.0000000000000E+00 -0.2687002237379E-01
 0.1636056476035E+00 -0.1803816505557E+00  0.0000000000000E+00 -0.9989167158974E-01
 0.2020690331621E+00 -0.2290181801110E+00  0.0000000000000E+00 -0.1345350468529E+00
 0.2884717268040E+00 -0.3398244172824E+00  0.0000000000000E+00 -0.5732147578620E-01
 0.3534738511242E+00 -0.4416755354769E+00  0.0000000000000E+00  0.7920464214412E-01
 0.1505834304278E+00 -0.2041827709665E+00  0.0000000000000E+00 -0.2050888268611E+00
 0.1974014753877E+00 -0.2368203975958E+00  0.0000000000000E+00  0.4964396838415E-01
 0.2035780145440E+00 -0.2333624669761E+00  0.0000000000000E+00  0.1358813802367E+00
 0.2059339877042E+00 -0.2296302082804E+00  0.0000000000000E+00  0.1333790913858E+00
 0.2116402419173E+00 -0.2325604247457E+00  0.0000000000000E+00  0.8196467158630E-01
 0.2229581770829E+00 -0.2439644579980E+00  0.0000000000000E+00  0.8261462733820E-02
 0.2435225587894E+00 -0.2686561037774E+00  0.0000000000000E+00 -0.6338295758670E-01
 0.2877400545268E+00 -0.3235464465466E+00  0.0000000000000E+00 -0.9175376425278E-01
 0.3710705954978E+00 -0.4278496033361E+00  0.0000000000000E+00 -0.1114907456231E-01
 0.4308758748769E+00 -0.5174913156659E+00  0.0000000000000E+00  0.1389911218363E+00
 0.1390370707867E+00 -0.1937969400632E+00  0.0000000000000E+00 -0.1786057324173E+00
 0.2054729734935E+00 -0.2481977023925E+00  0.0000000000000E+00  0.4355432796406E-01
 0.2323927616167E+00 -0.2669757394929E+00  0.0000000000000E+00  0.1342775944840E+00
 0.2495759739663E+00 -0.2789044335084E+00  0.0000000000000E+00  0.1491419111710E+00
 0.2663820526438E+00 -0.2932906173991E+00  0.0000000000000E+00  0.1173545154473E+00
 0.2868601669175E+00 -0.3142645980393E+00  0.0000000000000E+00  0.6158499633932E-01
 0.3141760257250E+00 -0.3462497096053E+00  0.0000000000000E+00  0.3039138619102E-02
 0.3607976027131E+00 -0.4030461932234E+00  0.0000000000000E+00 -0.1343645904546E-01
 0.4360167812494E+00 -0.4959143998853E+00  0.0000000000000E+00  0.6890539308020E-01
 0.4857561671134E+00 -0.5697860920424E+00  0.0000000000000E+00  0.2212037333880E+00
 0.1275091259397E+00 -0.1840810045439E+00  0.0000000000000E+00 -0.1422919337450E+00
 0.2088998918278E+00 -0.2548586648991E+00  0.0000000000000E+00  0.5356309470148E-01
 0.2524631285032E+00 -0.2912558032868E+00  0.0000000000000E+00  0.1445416307274E+00
 0.2830474784487E+00 -0.3173140915628E+00  0.0000000000000E+00  0.1729020493870E+00
 0.3102740443924E+00 -0.3425400435532E+00  0.0000000000000E+00  0.1608660069927E+00
 0.3387712425259E+00 -0.3718037293183E+00  0.0000000000000E+00  0.1270754644479E+00
 0.3712336356549E+00 -0.4088519524900E+00  0.0000000000000E+00  0.8810274818844E-01
 0.4176771730873E+00 -0.4644159205208E+00  0.0000000000000E+00  0.8606229359171E-01
 0.4823659454442E+00 -0.5436526533209E+00  0.0000000000000E+00  0.1677714914999E+00
 0.5206963311359E+00 -0.6014827831107E+00  0.0000000000000E+00  0.3128859087192E+00
 0.1161495795294E+00 -0.1747494390699E+00  0.0000000000000E+00 -0.9846360177072E-01
 0.2088433446983E+00 -0.2578817771700E+00  0.0000000000000E+00  0.7552977018458E-01
 0.2652129829571E+00 -0.3078022315502E+00  0.0000000000000E+00  0.1651792619073E+00
 0.3066770688872E+00 -0.3452759864477E+00  0.0000000000000E+00  0.2045576109357E+00
 0.3423693908740E+00 -0.3792834984064E+00  0.0000000000000E+00  0.2109008913101E+00
 0.3768889514997E+00 -0.4146300431817E+00  0.0000000000000E+00  0.1992391328612E+00
 0.4125397571033E+00 -0.4544085057674E+00  0.0000000000000E+00  0.1819115176847E+00
 0.4568238804225E+00 -0.5064709828264E+00  0.0000000000000E+00  0.1943493848253E+00
 0.5105220185579E+00 -0.5719202661288E+00  0.0000000000000E+00  0.2730036833936E+00
 0.5385773434351E+00 -0.6157325681583E+00  0.0000000000000E+00  0.4043953245950E+00
 0.1049177293303E+00 -0.1654928679507E+00  0.0000000000000E+00 -0.4862707271409E-01
 0.2057044872448E+00 -0.2575694705504E+00  0.0000000000000E+00  0.1064835528699E+00
 0.2714196659981E+00 -0.3173982853636E+00  0.0000000000000E+00  0.1940653504128E+00
 0.3209957365958E+00 -0.3633599299342E+00  0.0000000000000E+00  0.2422764253872E+00
 0.3627619145691E+00 -0.4035932343412E+00  0.0000000000000E+00  0.2645302061349E+00
 0.4010251588314E+00 -0.4425509632396E+00  0.0000000000000E+00  0.2726842963574E+00
 0.4377784590926E+00 -0.4827608934889E+00  0.0000000000000E+00  0.2756919316619E+00
 0.4784134636313E+00 -0.5297055249068E+00  0.0000000000000E+00  0.3007497374290E+00
 0.5219993953974E+00 -0.5825875992788E+00  0.0000000000000E+00  0.3745120585649E+00
 0.5423678434063E+00 -0.6156974189062E+00  0.0000000000000E+00  0.4888814084495E+00
 0.9370519152022E-01 -0.1560071198090E+00  0.0000000000000E+00  0.6039594194430E-02
 0.1995627259834E+00 -0.2538657301282E+00  0.0000000000000E+00  0.1444249581810E+00
 0.2716317925872E+00 -0.3205743837496E+00  0.0000000000000E+00  0.2293554364620E+00
 0.3266932651977E+00 -0.3722511213749E+00  0.0000000000000E+00  0.2837842055331E+00
 0.3721396303892E+00 -0.4161553089307E+00  0.0000000000000E+00  0.3185892729642E+00
 0.4120540813054E+00 -0.4564820325080E+00  0.0000000000000E+00  0.3427685885171E+00
 0.4482375991423E+00 -0.4953600345032E+00  0.0000000000000E+00  0.3622682611880E+00
 0.4842114701295E+00 -0.5362933549917E+00  0.0000000000000E+00  0.3960680564802E+00
 0.5191367665765E+00 -0.5782173187391E+00  0.0000000000000E+00  0.4640361041012E+00
 0.5348259909418E+00 -0.6042587305222E+00  0.0000000000000E+00  0.5618194705775E+00
 0.8221506572497E-01 -0.1454860079092E+00  0.0000000000000E+00  0.6523610902341E-01
 0.1905128334165E+00 -0.2469268254173E+00  0.0000000000000E+00  0.1891922199162E+00
 0.2666499980633E+00 -0.3180871393141E+00  0.0000000000000E+00  0.2696725633944E+00
 0.3246881543687E+00 -0.3728454690509E+00  0.0000000000000E+00  0.3268973593346E+00
 0.3715155968393E+00 -0.4180094730849E+00  0.0000000000000E+00  0.3702001850440E+00
 0.4113031022651E+00 -0.4577642556911E+00  0.0000000000000E+00  0.4062537902292E+00
 0.4461828196481E+00 -0.4945661191814E+00  0.0000000000000E+00  0.4378265711180E+00
 0.4782043825131E+00 -0.5304650727493E+00  0.0000000000000E+00  0.4748207595296E+00
 0.5055149738005E+00 -0.5633892520347E+00  0.0000000000000E+00  0.5324712269648E+00
 0.5183056858533E+00 -0.5830094089458E+00  0.0000000000000E+00  0.6169973853510E+00
 0.1176751905776E+00 -0.1518175830821E+00  0.0000000000000E+00  0.7184270803875E+00
 0.1166942723546E+00 -0.1495589669403E+00  0.0000000000000E+00  0.6218243943974E+00
 0.1171690087753E+00 -0.1482481012351E+00  0.0000000000000E+00  0.5397111351112E+00
 0.1137657397286E+00 -0.1427459703618E+00  0.0000000000000E+00  0.4757604998941E+00
 0.1049893328467E+00 -0.1317467167414E+00  0.0000000000000E+00  0.4260728446277E+00
 0.9107026699931E-01 -0.1155097973579E+00  0.0000000000000E+00  0.3854646451121E+00
 0.7340400358043E-01 -0.9551583605667E-01  0.0000000000000E+00  0.3514372975056E+00
 0.5406865697910E-01 -0.7390737098151E-01  0.0000000000000E+00  0.3219574713764E+00
 0.3609642135306E-01 -0.5353947684628E-01  0.0000000000000E+00  0.2892073528191E+00
 0.2501678876081E-01 -0.3695195818965E-01  0.0000000000000E+00  0.2525071806543E+00
 0.1276438445684E+00 -0.1602002522206E+00  0.0000000000000E+00  0.7096516522487E+00
 0.1237051256531E+00 -0.1547472267047E+00  0.0000000000000E+00  0.6063187014467E+00
 0.1191166577833E+00 -0.1477852631607E+00  0.0000000000000E+00  0.5123666230213E+00
 0.1097539178908E+00 -0.1358495191249E+00  0.0000000000000E+00  0.4359079142507E+00
 0.9580678310728E-01 -0.1192751158644E+00  0.0000000000000E+00  0.3747169500676E+00
 0.7857596891593E-01 -0.9945819089813E-01  0.0000000000000E+00  0.3247988437789E+00
 0.5979749924845E-01 -0.7828743934560E-01  0.0000000000000E+00  0.2858247752750E+00
 0.4125281986894E-01 -0.5757416080400E-01  0.0000000000000E+00  0.2561841972675E+00
 0.2677480092699E-01 -0.4047006058144E-01  0.0000000000000E+00  0.2277845410430E+00
 0.1471240160524E-01 -0.2607731452525E-01  0.0000000000000E+00  0.2043607205113E+00
 0.1387694249770E+00 -0.1702507347571E+00  0.0000000000000E+00  0.6980954567327E+00
 0.1326981680410E+00 -0.1621267615400E+00  0.0000000000000E+00  0.5841289452994E+00
 0.1227265944693E+00 -0.1491364651294E+00  0.0000000000000E+00  0.4758233083548E+00
 0.1071689377734E+00 -0.1304171138157E+00  0.0000000000000E+00  0.3871918959338E+00
 0.8809645019481E-01 -0.1082946030511E+00  0.0000000000000E+00  0.3168802942290E+00
 0.6779938021928E-01 -0.8517171176806E-01  0.0000000000000E+00  0.2611786405584E+00
 0.4821134863585E-01 -0.6316559978096E-01  0.0000000000000E+00  0.2203624598164E+00
 0.3097818851897E-01 -0.4383693190027E-01  0.0000000000000E+00  0.1928724628131E+00
 0.1797580804396E-01 -0.2893201425768E-01  0.0000000000000E+00  0.1714080534595E+00
 0.6155801393100E-02 -0.1531800820739E-01  0.0000000000000E+00  0.1535457965076E+00
 0.1513395858762E+00 -0.1822862512058E+00  0.0000000000000E+00  0.6835027957792E+00
 0.1435856233043E+00 -0.1717376040234E+00  0.0000000000000E+00  0.5533189525731E+00
 0.1271755007555E+00 -0.1514356172998E+00  0.0000000000000E+00  0.4289306899193E+00
 0.1046565016909E+00 -0.1250390063087E+00  0.0000000000000E+00  0.3297788969595E+00
 0.8033282649821E-01 -0.9720500941977E-01  0.0000000000000E+00  0.2540340127500E+00
 0.5731803729877E-01 -0.7118057300125E-01  0.0000000000000E+00  0.1967783607920E+00
 0.3750644645422E-01 -0.4900613023599E-01  0.0000000000000E+00  0.1574072154447E+00
 0.2180932543852E-01 -0.3148706874316E-01  0.0000000000000E+00  0.1333013449127E+00
 0.1060734121095E-01 -0.1876033550864E-01  0.0000000000000E+00  0.1164413193715E+00
 0.1111502586086E-02 -0.7839060580575E-02  0.0000000000000E+00  0.1022233055553E+00
 0.1656890595600E+00 -0.1968594411468E+00  0.0000000000000E+00  0.6653649175389E+00
 0.1558421295207E+00 -0.1830977045840E+00  0.0000000000000E+00  0.5111238392170E+00
 0.1309307782897E+00 -0.1530946915058E+00  0.0000000000000E+00  0.3699607741483E+00
 0.1003312146834E+00 -0.1176990487409E+00  0.0000000000000E+00  0.2639851244598E+00
 0.7076287851768E-01 -0.8415081921223E-01  0.0000000000000E+00  0.1881871029927E+00
 0.4576085467234E-01 -0.5607797638536E-01  0.0000000000000E+00  0.1343588171497E+00
 0.2668697864547E-01 -0.3485564803424E-01  0.0000000000000E+00  0.9925092591045E-01
 0.1358524722377E-01 -0.2023773326193E-01  0.0000000000000E+00  0.7846722928576E-01
 0.5376239279304E-02 -0.1085040443331E-01  0.0000000000000E+00  0.6486641146302E-01
-0.5317355765682E-03 -0.3769855864826E-02  0.0000000000000E+00  0.5386836130125E-01
 0.1820900740119E+00 -0.2146097569192E+00  0.0000000000000E+00  0.6422557089835E+00
 0.1682470423724E+00 -0.1950427199164E+00  0.0000000000000E+00  0.4532857126457E+00
 0.1314482429832E+00 -0.1514103334045E+00  0.0000000000000E+00  0.2970095527290E+00
 0.9164263898406E-01 -0.1056152939908E+00  0.0000000000000E+00  0.1911548929341E+00
 0.5751633368897E-01 -0.6714592361506E-01  0.0000000000000E+00  0.1228252883107E+00
 0.3200649410319E-01 -0.3875358859828E-01  0.0000000000000E+00  0.7772996181194E-01
 0.1526071172228E-01 -0.2026246831190E-01  0.0000000000000E+00  0.4866388139608E-01
 0.6221943719581E-02 -0.1007586373557E-01  0.0000000000000E+00  0.3052571501078E-01
 0.2267114991731E-02 -0.5249291318664E-02  0.0000000000000E+00  0.1911360015035E-01
 0.7240283954904E-03 -0.2730923155321E-02  0.0000000000000E+00  0.1074751647039E-01
 0.2005257712960E+00 -0.2362124467532E+00  0.0000000000000E+00  0.6110663503330E+00
 0.1781384799636E+00 -0.2049705177590E+00  0.0000000000000E+00  0.3732354473518E+00
 0.1245384439586E+00 -0.1417720756232E+00  0.0000000000000E+00  0.2089082439220E+00
 0.7538978647355E-01 -0.8523987430851E-01  0.0000000000000E+00  0.1154173137575E+00
 0.3902967454675E-01 -0.4453570256990E-01  0.0000000000000E+00  0.6414220972310E-01
 0.1569334771285E-01 -0.1899002844590E-01  0.0000000000000E+00  0.3191069576457E-01
 0.3343284434044E-02 -0.5437106259477E-02  0.0000000000000E+00  0.8464597766760E-02
-0.2396380437037E-03 -0.1095527599738E-02  0.0000000000000E+00 -0.8616242929707E-02
 0.1037584488516E-02 -0.1755163227582E-02  0.0000000000000E+00 -0.1906289744989E-01
 0.4316554600919E-02 -0.4193366997023E-02  0.0000000000000E+00 -0.2587843861442E-01
 0.2196731831852E+00 -0.2620116751220E+00  0.0000000000000E+00  0.5648130071010E+00
 0.1796569320657E+00 -0.2067504390355E+00  0.0000000000000E+00  0.2612494346514E+00
 0.1033875875253E+00 -0.1165158640982E+00  0.0000000000000E+00  0.1079608918172E+00
 0.4838245873864E-01 -0.5272134543667E-01  0.0000000000000E+00  0.4753420877541E-01
 0.1545516830467E-01 -0.1687614167270E-01  0.0000000000000E+00  0.2217571483552E-01
-0.2042595524658E-02  0.1889910825881E-02  0.0000000000000E+00  0.1517723770553E-02
-0.8209075558428E-02  0.8675620816220E-02  0.0000000000000E+00 -0.1965795788753E-01
-0.5516644495232E-02  0.6386411989126E-02  0.0000000000000E+00 -0.3793262383041E-01
 0.1447736274520E-02 -0.1346019036256E-03  0.0000000000000E+00 -0.4879935515775E-01
 0.9748469171067E-02 -0.7665651962954E-02  0.0000000000000E+00 -0.5547814336317E-01
 0.2345011389760E+00 -0.2908968552105E+00  0.0000000000000E+00  0.4877603802415E+00
 0.1576915469772E+00 -0.1847794756213E+00  0.0000000000000E+00  0.1016400722542E+00
 0.5794190682151E-01 -0.6162486102678E-01  0.0000000000000E+00  0.1324566949434E-01
 0.1255271382879E-01 -0.1153063302734E-01  0.0000000000000E+00  0.1109844042708E-01
-0.9445813038651E-02  0.1171847641292E-01  0.0000000000000E+00  0.4903736586768E-02
-0.1880498820774E-01  0.2134537147122E-01  0.0000000000000E+00 -0.1214705553600E-01
-0.1806113890320E-01  0.2068471682346E-01  0.0000000000000E+00 -0.3588940979036E-01
-0.9210562929288E-02  0.1197303176012E-01  0.0000000000000E+00 -0.5748943505637E-01
 0.3265835739592E-02 -0.1610558773239E-03  0.0000000000000E+00 -0.6999160396786E-01
 0.1659120692454E-01 -0.1271018387461E-01  0.0000000000000E+00 -0.7798586519971E-01
 0.1964356744353E+00 -0.3023904289827E+00  0.0000000000000E+00  0.3087816425176E+00
 0.7680399318512E-01 -0.7839207788962E-01  0.0000000000000E+00 -0.8004984225366E-01
-0.5865657547299E-03  0.4669895905991E-02  0.0000000000000E+00 -0.8600221942197E-02
-0.2078285705596E-01  0.2633692701597E-01  0.0000000000000E+00  0.1734195799014E-01
-0.3098799944734E-01  0.3639137427329E-01  0.0000000000000E+00  0.1033719560215E-01
-0.3217573756253E-01  0.3693702375045E-01  0.0000000000000E+00 -0.1158719726054E-01
-0.2503124813858E-01  0.2939345195949E-01  0.0000000000000E+00 -0.4171675432142E-01
-0.1085993635390E-01  0.1514019479512E-01  0.0000000000000E+00 -0.6813976664185E-01
 0.6235773210376E-02 -0.1423250573798E-02  0.0000000000000E+00 -0.8363376115547E-01
 0.2423731833110E-01 -0.1887125016899E-01  0.0000000000000E+00 -0.9319236807523E-01
 0.4984369985103E+00 -0.5762286889347E+00  0.0000000000000E+00  0.7109229396924E+00
 0.5128428023614E+00 -0.5927109467105E+00  0.0000000000000E+00  0.6749060955678E+00
 0.5167615407689E+00 -0.6014610789059E+00  0.0000000000000E+00  0.6254449270769E+00
 0.5125572572605E+00 -0.6026126248882E+00  0.0000000000000E+00  0.5639632155129E+00
 0.4980085471891E+00 -0.5938955775683E+00  0.0000000000000E+00  0.4926305556644E+00
 0.4703863792617E+00 -0.5725395692649E+00  0.0000000000000E+00  0.4146710588337E+00
 0.4260327192241E+00 -0.5349823871007E+00  0.0000000000000E+00  0.3353030683322E+00
 0.3600195237397E+00 -0.4765691575322E+00  0.0000000000000E+00  0.2618974773999E+00
 0.2658112855122E+00 -0.3910450278875E+00  0.0000000000000E+00  0.2041786145327E+00
 0.1298877182558E+00 -0.2676663220421E+00  0.0000000000000E+00  0.1709535164696E+00
 0.4664534810888E+00 -0.5404806508420E+00  0.0000000000000E+00  0.8053309959898E+00
 0.4818114826263E+00 -0.5619256370134E+00  0.0000000000000E+00  0.7745703231467E+00
 0.4890579554678E+00 -0.5746986517403E+00  0.0000000000000E+00  0.7409503948983E+00
 0.4878634956219E+00 -0.5801485673784E+00  0.0000000000000E+00  0.6953973101206E+00
 0.4765696259327E+00 -0.5764169254084E+00  0.0000000000000E+00  0.6383475866870E+00
 0.4516188573498E+00 -0.5600933405350E+00  0.0000000000000E+00  0.5707712942874E+00
 0.4081991716013E+00 -0.5265566010197E+00  0.0000000000000E+00  0.4943500108878E+00
 0.3402522890414E+00 -0.4700082442213E+00  0.0000000000000E+00  0.4111779004640E+00
 0.2401908152648E+00 -0.3834689845539E+00  0.0000000000000E+00  0.3226118451945E+00
 0.1008526322329E+00 -0.2600200572824E+00  0.0000000000000E+00  0.2241886922757E+00
 0.4285586111995E+00 -0.5006484494014E+00  0.0000000000000E+00  0.8867547312726E+00
 0.4389661144311E+00 -0.5169429171148E+00  0.0000000000000E+00  0.8671494629461E+00
 0.4453935164061E+00 -0.5299229921581E+00  0.0000000000000E+00  0.8448385113163E+00
 0.4447817279728E+00 -0.5366405918199E+00  0.0000000000000E+00  0.8127914540338E+00
 0.4348247274899E+00 -0.5352375714181E+00  0.0000000000000E+00  0.7670437988192E+00
 0.4121087683235E+00 -0.5224947068893E+00  0.0000000000000E+00  0.7053135704959E+00
 0.3718867283448E+00 -0.4939298692089E+00  0.0000000000000E+00  0.6253963665802E+00
 0.3082366124774E+00 -0.4439282859170E+00  0.0000000000000E+00  0.5248573096033E+00
 0.2147296755272E+00 -0.3662754689634E+00  0.0000000000000E+00  0.4004072976432E+00
 0.8601475756327E-01 -0.2554954562544E+00  0.0000000000000E+00  0.2487849722440E+00
 0.3855809289755E+00 -0.4549540090886E+00  0.0000000000000E+00  0.9462882795998E+00
 0.3893909850940E+00 -0.4644729494030E+00  0.0000000000000E+00  0.9412926806301E+00
 0.3911567159212E+00 -0.4727242026224E+00  0.0000000000000E+00  0.9307746742673E+00
 0.3880064563072E+00 -0.4770774107395E+00  0.0000000000000E+00  0.9100760749154E+00
 0.3773699303289E+00 -0.4752028759207E+00  0.0000000000000E+00  0.8739303547116E+00
 0.3561876308345E+00 -0.4643638744176E+00  0.0000000000000E+00  0.8169987693713E+00
 0.3204163689644E+00 -0.4408350120234E+00  0.0000000000000E+00  0.7335224074557E+00
 0.2649757141020E+00 -0.3998532357548E+00  0.0000000000000E+00  0.6171793330240E+00
 0.1840786313769E+00 -0.3358782155663E+00  0.0000000000000E+00  0.4618495223830E+00
 0.7149069394231E-01 -0.2429577152748E+00  0.0000000000000E+00  0.2630924188084E+00
 0.3379623928568E+00 -0.4039291738346E+00  0.0000000000000E+00  0.9825047708507E+00
 0.3346813844734E+00 -0.4058230936501E+00  0.0000000000000E+00  0.9902391562479E+00
 0.3301886435777E+00 -0.4073304929490E+00  0.0000000000000E+00  0.9907389696835E+00
 0.3224922654620E+00 -0.4066207663579E+00  0.0000000000000E+00  0.9799741748495E+00
 0.3096254615685E+00 -0.4019717351057E+00  0.0000000000000E+00  0.9522275875658E+00
 0.2893186863602E+00 -0.3914051777624E+00  0.0000000000000E+00  0.9004581203347E+00
 0.2586153830606E+00 -0.3723224338314E+00  0.0000000000000E+00  0.8162149602976E+00
 0.2134979955258E+00 -0.3411099372511E+00  0.0000000000000E+00  0.6898141213685E+00
 0.1485353909172E+00 -0.2927523317509E+00  0.0000000000000E+00  0.5114646819324E+00
 0.5690113862377E-01 -0.2207679913437E+00  0.0000000000000E+00  0.2731437841159E+00
 0.2873347413146E+00 -0.3492351843975E+00  0.0000000000000E+00  0.9949110464949E+00
 0.2767095790862E+00 -0.3429825686502E+00  0.0000000000000E+00  0.1011532501835E+01
 0.2651919744480E+00 -0.3365314561766E+00  0.0000000000000E+00  0.1020268391938E+01
 0.2517390786185E+00 -0.3289697822794E+00  0.0000000000000E+00  0.1017290451205E+01
 0.2353338122834E+00 -0.3194600225246E+00  0.0000000000000E+00  0.9968510339707E+00
 0.2148910152326E+00 -0.3071589388943E+00  0.0000000000000E+00  0.9512365270558E+00
 0.1889777554984E+00 -0.2909543379149E+00  0.0000000000000E+00  0.8704392112655E+00
 0.1552803535841E+00 -0.2689865351853E+00  0.0000000000000E+00  0.7418172328239E+00
 0.1096191051411E+00 -0.2376819818884E+00  0.0000000000000E+00  0.5504724295749E+00
 0.4488855364295E-01 -0.1904773975730E+00  0.0000000000000E+00  0.2820857513330E+00
 0.2358577521022E+00 -0.2932131504992E+00  0.0000000000000E+00  0.9836268770000E+00
 0.2179825424699E+00 -0.2786880094539E+00  0.0000000000000E+00  0.1003859591962E+01
 0.1992254659812E+00 -0.2637409274014E+00  0.0000000000000E+00  0.1016134322894E+01
 0.1792964331380E+00 -0.2481498870094E+00  0.0000000000000E+00  0.1016959615806E+01
 0.1581243486928E+00 -0.2319390594167E+00  0.0000000000000E+00  0.1001134666269E+01
 0.1359095611561E+00 -0.2154370517780E+00  0.0000000000000E+00  0.9613725342596E+00
 0.1130396078579E+00 -0.1992207809940E+00  0.0000000000000E+00  0.8876168007836E+00
 0.8976928272962E-01 -0.1838577280449E+00  0.0000000000000E+00  0.7658939156049E+00
 0.6515538932984E-01 -0.1690543550336E+00  0.0000000000000E+00  0.5765340210373E+00
 0.3412587347551E-01 -0.1509134760417E+00  0.0000000000000E+00  0.2939053101868E+00
 0.1861393914378E+00 -0.2386844257518E+00  0.0000000000000E+00  0.9498176896939E+00
 0.1617783389414E+00 -0.2165406926468E+00  0.0000000000000E+00  0.9673640222574E+00
 0.1363968471522E+00 -0.1935424241563E+00  0.0000000000000E+00  0.9765270254414E+00
 0.1101685081663E+00 -0.1698611727569E+00  0.0000000000000E+00  0.9744253241578E+00
 0.8372135938999E-01 -0.1461129124757E+00  0.0000000000000E+00  0.9569182698305E+00
 0.5829453171814E-01 -0.1235132288302E+00  0.0000000000000E+00  0.9181720580928E+00
 0.3591680572524E-01 -0.1040567819956E+00  0.0000000000000E+00  0.8499182154754E+00
 0.1959324835584E-01 -0.9072834917812E-01  0.0000000000000E+00  0.7399800972083E+00
 0.1338348167826E-01 -0.8766422974131E-01  0.0000000000000E+00  0.5690092695289E+00
 0.2033185122308E-01 -0.9904174456517E-01  0.0000000000000E+00  0.3022869306809E+00
 0.1409690890054E+00 -0.1886622873896E+00  0.0000000000000E+00  0.8963861592803E+00
 0.1118884333109E+00 -0.1606611414012E+00  0.0000000000000E+00  0.9047788418884E+00
 0.8179300103968E-01 -0.1315254606259E+00  0.0000000000000E+00  0.9031466025809E+00
 0.5114724326242E-01 -0.1016521437989E+00  0.0000000000000E+00  0.8891791838839E+00
 0.2104128975553E-01 -0.7201986948433E-01  0.0000000000000E+00  0.8597497911874E+00
-0.6597788967096E-02 -0.4438698196615E-01  0.0000000000000E+00  0.8106985512109E+00
-0.2862293396054E-01 -0.2164444235998E-01  0.0000000000000E+00  0.7364445686371E+00
-0.3996696203123E-01 -0.8451730832813E-02  0.0000000000000E+00  0.6291229502351E+00
-0.3222562919091E-01 -0.1251297733479E-01  0.0000000000000E+00  0.4764691186473E+00
 0.1007144265066E-01 -0.4782240238966E-01  0.0000000000000E+00  0.2537797569516E+00
 0.1026898916648E+00 -0.1456832192493E+00  0.0000000000000E+00  0.8286316861087E+00
 0.7154224029856E-01 -0.1145609253484E+00  0.0000000000000E+00  0.8230981690798E+00
 0.3985197663464E-01 -0.8256493075198E-01  0.0000000000000E+00  0.8048952622762E+00
 0.8415860346987E-02 -0.5038032398359E-01  0.0000000000000E+00  0.7720327334892E+00
-0.2127044880132E-01 -0.1933530949019E-01  0.0000000000000E+00  0.7219870157517E+00
-0.4679037669480E-01  0.8396611175303E-02  0.0000000000000E+00  0.6518014572455E+00
-0.6437602394237E-01  0.2940838993097E-01  0.0000000000000E+00  0.5582395190473E+00
-0.6808532611935E-01  0.3832779578880E-01  0.0000000000000E+00  0.4380991547341E+00
-0.4805052250619E-01  0.2629473463293E-01  0.0000000000000E+00  0.2889987026096E+00
 0.1498348270848E-01 -0.2335744598913E-01  0.0000000000000E+00  0.1129447157395E+00
 0.7234896242822E-01 -0.1109268387817E+00  0.0000000000000E+00  0.7539234966370E+00
 0.4187737929964E-01 -0.7957903462531E-01  0.0000000000000E+00  0.7336150803062E+00
 0.1180540880287E-01 -0.4818869956880E-01  0.0000000000000E+00  0.6987858395495E+00
-0.1668549268351E-01 -0.1781700678507E-01  0.0000000000000E+00  0.6480545313319E+00
-0.4174442813657E-01  0.9849892153877E-02  0.0000000000000E+00  0.5798577881919E+00
-0.6067761447304E-01  0.3234046671096E-01  0.0000000000000E+00  0.4928384309622E+00
-0.6965617061170E-01  0.4612753408692E-01  0.0000000000000E+00  0.3864882721134E+00
-0.6324228169521E-01  0.4618929463743E-01  0.0000000000000E+00  0.2624253972278E+00
-0.3361725811014E-01  0.2529387390418E-01  0.0000000000000E+00  0.1273586900596E+00
 0.2966704139091E-01 -0.2661114855541E-01  0.0000000000000E+00  0.2550599170969E-02
 0.4956269990035E-01 -0.8409332178004E-01  0.0000000000000E+00  0.6785311090231E+00
 0.2183350737852E-01 -0.5477377552423E-01  0.0000000000000E+00  0.6456412743839E+00
-0.4399912241729E-02 -0.2648434548606E-01  0.0000000000000E+00  0.5982326803726E+00
-0.2767772598521E-01 -0.5846359972810E-03  0.0000000000000E+00  0.5360290900169E+00
-0.4599942644214E-01  0.2104535990558E-01  0.0000000000000E+00  0.4590196850653E+00
-0.5676059275266E-01  0.3594203553814E-01  0.0000000000000E+00  0.3679942086823E+00
-0.5670879796471E-01  0.4100487536287E-01  0.0000000000000E+00  0.2653943184240E+00
-0.4200463291660E-01  0.3251841190417E-01  0.0000000000000E+00  0.1567654967814E+00
-0.8768475945099E-02  0.6548172748326E-02  0.0000000000000E+00  0.5343124498689E-01
 0.4393809112458E-01 -0.3877820836298E-01  0.0000000000000E+00 -0.2398156711143E-01
 0.3317845810048E-01 -0.6405825301452E-01  0.0000000000000E+00  0.6060370927915E+00
 0.9320285503265E-02 -0.3808398569849E-01  0.0000000000000E+00  0.5635153363654E+00
-0.1214527068218E-01 -0.1406923113686E-01  0.0000000000000E+00  0.5078799675861E+00
-0.2971921080454E-01  0.6550378513257E-02  0.0000000000000E+00  0.4400227079385E+00
-0.4154559690988E-01  0.2198141691098E-01  0.0000000000000E+00  0.3613648396445E+00
-0.4549375148378E-01  0.3014416686430E-01  0.0000000000000E+00  0.2743142321307E+00
-0.3934491837439E-01  0.2883225191874E-01  0.0000000000000E+00  0.1829447473469E+00
-0.2120593780941E-01  0.1607096229901E-01  0.0000000000000E+00  0.9387591811169E-01
 0.9480189672029E-02 -0.9004496173238E-02  0.0000000000000E+00  0.1698157501164E-01
 0.5045103312142E-01 -0.4447422889977E-01  0.0000000000000E+00 -0.3642955948973E-01
 0.2192107503321E-01 -0.4954663618774E-01  0.0000000000000E+00  0.5385867793521E+00
 0.2347596477865E-02 -0.2749693330081E-01  0.0000000000000E+00  0.4893777863789E+00
-0.1431027155171E-01 -0.7994001722422E-02  0.0000000000000E+00  0.4292310116781E+00
-0.2671585328806E-01  0.7647818011195E-02  0.0000000000000E+00  0.3600597701920E+00
-0.3333191381340E-01  0.1790129870078E-01  0.0000000000000E+00  0.2842640646485E+00
-0.3263867301216E-01  0.2123135071337E-01  0.0000000000000E+00  0.2049862204883E+00
-0.2343472425729E-01  0.1637456467860E-01  0.0000000000000E+00  0.1264638029974E+00
-0.5290130032495E-02  0.2759977667082E-02  0.0000000000000E+00  0.5420931215330E-01
 0.2088144004801E-01 -0.1888361715130E-01  0.0000000000000E+00 -0.5570176223974E-02
 0.5253351180580E-01 -0.4617691494185E-01  0.0000000000000E+00 -0.4762492635044E-01
 0.1460097825011E-01 -0.3935157111199E-01  0.0000000000000E+00  0.4773257916665E+00
-0.7352873052646E-03 -0.2131066074593E-01  0.0000000000000E+00  0.4239307733142E+00
-0.1308879989133E-01 -0.5960465021905E-02  0.0000000000000E+00  0.3619980396365E+00
-0.2136160730105E-01  0.5584560971420E-02  0.0000000000000E+00  0.2942944712300E+00
-0.2433496923913E-01  0.1207705441743E-01  0.0000000000000E+00  0.2236815371348E+00
-0.2100950198839E-01  0.1247214480612E-01  0.0000000000000E+00  0.1532337330324E+00
-0.1090552801004E-01  0.6214348913042E-02  0.0000000000000E+00  0.8639281095644E-01
 0.5665767420769E-02 -0.6485783506496E-02  0.0000000000000E+00  0.2680619606490E-01
 0.2742353687764E-01 -0.2445867376982E-01  0.0000000000000E+00 -0.2229342335480E-01
 0.5218671686124E-01 -0.4561567071581E-01  0.0000000000000E+00 -0.5885882335380E-01
 0.1022376209386E-01 -0.3245257492133E-01  0.0000000000000E+00  0.4227057479309E+00
-0.1195271455702E-02 -0.1818975704462E-01  0.0000000000000E+00  0.3668513185422E+00
-0.1007137759594E-01 -0.6252269742029E-02  0.0000000000000E+00  0.3048247929003E+00
-0.1542567095202E-01  0.2317925184156E-02  0.0000000000000E+00  0.2401373263991E+00
-0.1620884824224E-01  0.6426103197898E-02  0.0000000000000E+00  0.1756147610140E+00
-0.1175138043557E-01  0.5356229674870E-02  0.0000000000000E+00  0.1136949932779E+00
-0.1970208245693E-02 -0.1025045427723E-02  0.0000000000000E+00  0.5664666470148E-01
 0.1256772520181E-01 -0.1220562499951E-01  0.0000000000000E+00  0.6450966415832E-02
 0.3070046972021E-01 -0.2706755095009E-01  0.0000000000000E+00 -0.3560083899590E-01
 0.5076958241423E-01 -0.4400722741018E-01  0.0000000000000E+00 -0.6934816474906E-01
 0.8018697772085E-02 -0.2805554983536E-01  0.0000000000000E+00  0.3745120737128E+00
-0.6634270476402E-04 -0.1699523994812E-01  0.0000000000000E+00  0.3167958311904E+00
-0.6539290382482E-02 -0.7430402953936E-02  0.0000000000000E+00  0.2555051086279E+00
-0.1016559299786E-01 -0.6859007828472E-03  0.0000000000000E+00  0.1946447234018E+00
-0.9865050822713E-02  0.2104683215234E-02  0.0000000000000E+00  0.1364275253865E+00
-0.5164814154351E-02  0.4568659523514E-03  0.0000000000000E+00  0.8229670415836E-01
 0.3812194248367E-02 -0.5519077401076E-02  0.0000000000000E+00  0.3340851259203E-01
 0.1647731756762E-01 -0.1524648239556E-01  0.0000000000000E+00 -0.9427816037990E-02
 0.3194492039647E-01 -0.2784128436995E-01  0.0000000000000E+00 -0.4597934448021E-01
 0.4927853200010E-01 -0.4231580402793E-01  0.0000000000000E+00 -0.7695036463033E-01
 0.7465567678999E-02 -0.2556227256418E-01  0.0000000000000E+00  0.3320383311185E+00
 0.1677834087129E-02 -0.1661149215857E-01  0.0000000000000E+00  0.2720557991224E+00
-0.3585102998568E-02 -0.8185498103074E-02  0.0000000000000E+00  0.2122788234046E+00
-0.6307292158091E-02 -0.2498446339053E-02  0.0000000000000E+00  0.1559925252612E+00
-0.5436521189470E-02 -0.5528974894178E-03  0.0000000000000E+00  0.1039720733045E+00
-0.7701900738439E-03 -0.2509939514062E-02  0.0000000000000E+00  0.5668226697133E-01
 0.7410056463673E-02 -0.8061586893433E-02  0.0000000000000E+00  0.1453197936544E-01
 0.1857326860740E-01 -0.1665465137025E-01  0.0000000000000E+00 -0.2225262421779E-01
 0.3212041681229E-01 -0.2767230043607E-01  0.0000000000000E+00 -0.5381286774372E-01
 0.4763138641361E-01 -0.4065529667043E-01  0.0000000000000E+00 -0.8061746447580E-01
 0.7867073355988E-02 -0.2426978588771E-01  0.0000000000000E+00  0.2940076726485E+00
 0.2721730448237E-02 -0.1535830882338E-01  0.0000000000000E+00  0.2325326331527E+00
-0.1806367857034E-02 -0.7749920426689E-02  0.0000000000000E+00  0.1764196765475E+00
-0.3457176831005E-02 -0.3420438337631E-02  0.0000000000000E+00  0.1251364337891E+00
-0.1855004947697E-02 -0.2565901989584E-02  0.0000000000000E+00  0.7832890652392E-01
 0.2829434209761E-02 -0.4920403253677E-02  0.0000000000000E+00  0.3614014442535E-01
 0.1021343821754E-01 -0.1004438126875E-01  0.0000000000000E+00 -0.1179363161713E-02
 0.1986299746747E-01 -0.1747485176907E-01  0.0000000000000E+00 -0.3346143219263E-01
 0.3146038948458E-01 -0.2685327724889E-01  0.0000000000000E+00 -0.6070446055642E-01
 0.4476794745920E-01 -0.3799181602454E-01  0.0000000000000E+00 -0.8310212268510E-01
 0.7517638513637E-02 -0.2111583307011E-01  0.0000000000000E+00  0.2570282317865E+00
 0.1956869835570E-02 -0.1181669042127E-01  0.0000000000000E+00  0.2040089747104E+00
 0.8373444238652E-04 -0.7360937727290E-02  0.0000000000000E+00  0.1524117707631E+00
 0.5836372516674E-03 -0.5696636180038E-02  0.0000000000000E+00  0.1037014674925E+00
 0.3086391050167E-02 -0.6232463735420E-02  0.0000000000000E+00  0.5881156301738E-01
 0.7394999273168E-02 -0.8644513544405E-02  0.0000000000000E+00  0.1853415372863E-01
 0.1331962574000E-01 -0.1268902931881E-01  0.0000000000000E+00 -0.1660949638985E-01
 0.2068650494975E-01 -0.1816804047978E-01  0.0000000000000E+00 -0.4634683070023E-01
 0.2933848790338E-01 -0.2495018715155E-01  0.0000000000000E+00 -0.7048067766779E-01
 0.3952646165210E-01 -0.3314669362524E-01  0.0000000000000E+00 -0.8884408363682E-01
</DataArray>
<DataArray type="Float64" Name="S_Centroid" NumberOfComponents="4" ComponentName0="S11" ComponentName1="S22" ComponentName2="S33" ComponentName3="S12" format="ascii">
 0.7837823815588E+00  0.6346947511282E+01  0.1426145999819E+01  0.7768807101120E+00
-0.1089785762039E+00  0.4986826074236E+01  0.9755695141435E+00  0.8935620901658E-01
 0.2356914507668E-01  0.4380054630989E+01  0.8807247683370E+00  0.1112412215146E+00
-0.2551475824803E-02  0.3881620373773E+01  0.7758137911501E+00  0.9606434130772E-01
 0.2081563278051E-02  0.3412112072208E+01  0.6828387372724E+00  0.9554909388370E-01
 0.5156645201239E-03  0.2942450771412E+01  0.5885932959571E+00  0.9739306438172E-01
 0.4075675368130E-03  0.2457819423239E+01  0.4916454054813E+00  0.1017289944643E+00
-0.8958578732798E-04  0.1946746299087E+01  0.3893313484615E+00  0.1082321149219E+00
-0.4745401217944E-03  0.1396727739356E+01  0.2792506440080E+00  0.1175806973881E+00
-0.1814410350414E-02  0.7882714232548E+00  0.1572914049247E+00  0.1320711143936E+00
-0.1035273513251E-01  0.8333211913282E-01  0.1459587701756E-01  0.1620177420836E+00
-0.3301467459853E-01 -0.7434458568016E+00 -0.1552921085941E+00  0.2305598949573E+00
-0.7246504110804E-01 -0.1653904431964E+01 -0.3452738997593E+00  0.3625659654919E+00
-0.1344449146932E+00 -0.2585465240236E+01 -0.5439820390919E+00  0.5681893043890E+00
-0.2285555448919E+00 -0.3492530800106E+01 -0.7442172800893E+00  0.8469816195150E+00
-0.3643046988305E+00 -0.4332874146860E+01 -0.9394357831368E+00  0.1190541905743E+01
-0.5384487884074E+00 -0.5084976916357E+01 -0.1124685157712E+01  0.1590982082228E+01
-0.8267952501076E+00 -0.5777280414361E+01 -0.1320815152575E+01  0.2061681379559E+01
-0.1068437540400E+01 -0.6465164570865E+01 -0.1506720444705E+01  0.2701455893338E+01
-0.2990556573768E+01 -0.7065709818326E+01 -0.2011253308389E+01  0.3782604198855E+01
 0.3557657460870E+01 -0.6045769969964E+01 -0.4976225092340E+00  0.4178850889303E+01
 0.7625312849034E+00  0.5058327381789E+01  0.1164171750686E+01  0.8572025052989E+00
 0.1073192222136E+00  0.4605422790817E+01  0.9425484166511E+00  0.4958991248757E+00
-0.7427755120504E-03  0.3964899539289E+01  0.7928313645695E+00  0.3033088849153E+00
 0.9256929500182E-02  0.3489188914295E+01  0.6996891791853E+00  0.2866777414429E+00
-0.1919002997652E-03  0.3036713480797E+01  0.6073043251489E+00  0.2783391616215E+00
-0.1714743348044E-02  0.2586034057876E+01  0.5168638706075E+00  0.2840369982020E+00
-0.4076799845739E-02  0.2121116804326E+01  0.4234080072054E+00  0.2964603661255E+00
-0.6409070223396E-02  0.1631063357961E+01  0.3249308623893E+00  0.3156940560160E+00
-0.9754430758257E-02  0.1103867232265E+01  0.2188225635621E+00  0.3436244543868E+00
-0.1838438395809E-01  0.5230009762457E+00  0.1009233199614E+00  0.3874774279986E+00
-0.4423649546835E-01 -0.1278836708641E+00 -0.3442403377945E-01  0.4593028647769E+00
-0.9701838292982E-01 -0.8464029572374E+00 -0.1886842708451E+00  0.5665754321872E+00
-0.1757566915168E+00 -0.1604710548405E+01 -0.3560934532907E+00  0.7126305932907E+00
-0.2781146820972E+00 -0.2362775110618E+01 -0.5281779664134E+00  0.9012828329524E+00
-0.4063622188469E+00 -0.3078656743099E+01 -0.6970038027753E+00  0.1129962135432E+01
-0.5601330343674E+00 -0.3713085821811E+01 -0.8546437839708E+00  0.1388913918333E+01
-0.7573129753211E+00 -0.4230330167486E+01 -0.9975286434258E+00  0.1671057729136E+01
-0.9842512178272E+00 -0.4581171099657E+01 -0.1113084480083E+01  0.1961489907069E+01
-0.1475513853999E+01 -0.4639853772622E+01 -0.1223073543549E+01  0.2274181050495E+01
-0.1460043284455E+01 -0.3915878614206E+01 -0.1075184395754E+01  0.1787848036957E+01
 0.5230353109751E+01 -0.3224023741024E+01  0.4012658797247E+00  0.1137703867060E+01
 0.7281826455474E+00  0.4180581106750E+01  0.9817527650888E+00  0.8444544243923E+00
 0.2334323401294E+00  0.3993282782260E+01  0.8453430370744E+00  0.7035280219632E+00
 0.3922120985443E-01  0.3540380872400E+01  0.7159204271188E+00  0.5144039870358E+00
 0.1188912085058E-01  0.3087370528493E+01  0.6198519391053E+00  0.4605669342761E+00
 0.3961924555784E-03  0.2663581624682E+01  0.5327955713667E+00  0.4530263907253E+00
-0.7130379665729E-02  0.2236101046375E+01  0.4457941399848E+00  0.4613199658944E+00
-0.1258423539105E-01  0.1794958006035E+01  0.3564747594407E+00  0.4819021532868E+00
-0.1886927652292E-01  0.1330218482849E+01  0.2622698451734E+00  0.5132692897607E+00
-0.2827608019564E-01  0.8321494682404E+00  0.1607746800047E+00  0.5587324330251E+00
-0.4815089921839E-01  0.2908416362680E+00  0.4853814813321E-01  0.6264238550218E+00
-0.9167551589683E-01 -0.2960028717813E+00 -0.7753567869100E-01  0.7245604156327E+00
-0.1673803903856E+00 -0.9155925917308E+00 -0.2165945996508E+00  0.8509910702589E+00
-0.2718227030299E+00 -0.1544920361708E+01 -0.3633486183618E+00  0.9984644458938E+00
-0.3979905989171E+00 -0.2154921983345E+01 -0.5105825240607E+00  0.1163555161499E+01
-0.5406425727545E+00 -0.2710293390858E+01 -0.6501872024111E+00  0.1339450217498E+01
-0.6974807005577E+00 -0.3173268411427E+01 -0.7741498339326E+00  0.1513316469690E+01
-0.8643776079428E+00 -0.3496203269918E+01 -0.8721161885677E+00  0.1663413766908E+01
-0.1052331659271E+01 -0.3605885287777E+01 -0.9316434032921E+00  0.1754700958856E+01
-0.1176363563761E+01 -0.3325022295977E+01 -0.9002771853628E+00  0.1578993159462E+01
 0.6760900997554E-01 -0.2742303123375E+01 -0.5349388306511E+00  0.6761360545078E+00
 0.5350422476518E+01 -0.2543563324260E+01  0.5613718388166E+00  0.4843988986321E+00
 0.6687211509245E+00  0.3480626846982E+01  0.8298696119474E+00  0.8250913437858E+00
 0.2995784911504E+00  0.3387754394460E+01  0.7374665881112E+00  0.8158102567969E+00
 0.8483533319306E-01  0.3075203888733E+01  0.6320078538029E+00  0.6864999886282E+00
 0.2095158077803E-01  0.2684356046687E+01  0.5410615335554E+00  0.6245538320572E+00
-0.1238448745501E-02  0.2291777797639E+01  0.4581078766050E+00  0.6151881025175E+00
-0.1460372243514E-01  0.1892811584674E+01  0.3756415780453E+00  0.6282597230038E+00
-0.2520015603350E-01  0.1478889209078E+01  0.2907378149413E+00  0.6564939034558E+00
-0.3702557775424E-01  0.1043539759506E+01  0.2013028393500E+00  0.6991130281476E+00
-0.5464466284201E-01  0.5803089087526E+00  0.1051328507487E+00  0.7595018814415E+00
-0.8691227242125E-01  0.8569291166896E-01 -0.2438721540928E-03  0.8444324818345E+00
-0.1461110509952E+00 -0.4345711576711E+00 -0.1161364434638E+00  0.9574179725630E+00
-0.2382023236200E+00 -0.9638779873276E+00 -0.2404160657720E+00  0.1090309754861E+01
-0.3575206445238E+00 -0.1482355056017E+01 -0.3679751455914E+00  0.1229934457262E+01
-0.4933157563902E+00 -0.1967568482529E+01 -0.4921768551179E+00  0.1366871929206E+01
-0.6351640339154E+00 -0.2390525261957E+01 -0.6051378681918E+00  0.1489692460502E+01
-0.7718093956738E+00 -0.2716145740971E+01 -0.6975910377238E+00  0.1579144832981E+01
-0.8879270000865E+00 -0.2899079760241E+01 -0.7574013633516E+00  0.1603887526449E+01
-0.9397612129210E+00 -0.2867600601763E+01 -0.7614723742835E+00  0.1488278569241E+01
-0.6283391433884E+00 -0.2577590153292E+01 -0.6411858688906E+00  0.1033639408690E+01
 0.1075942791686E+01 -0.2317207107627E+01 -0.2482528668876E+00  0.2185523298784E+00
 0.5066713604552E+01 -0.2314420104845E+01  0.5504587081439E+00  0.3516846883907E+00
 0.5941954699151E+00  0.2880970517134E+01  0.6950332077666E+00  0.8124477387198E+00
 0.3234043293298E+00  0.2823845474996E+01  0.6294499702447E+00  0.8826567471244E+00
 0.1186642497501E+00  0.2601480992912E+01  0.5440290566391E+00  0.8187722627913E+00
 0.3130993481275E-01  0.2277373264876E+01  0.4617366468182E+00  0.7711177685241E+00
-0.4315274402099E-02  0.1923473219801E+01  0.3838315947992E+00  0.7646184511374E+00
-0.2478464142627E-01  0.1555857816842E+01  0.3062146396461E+00  0.7831994086501E+00
-0.4149359271121E-01  0.1172436508772E+01  0.2261885865827E+00  0.8190385090072E+00
-0.6015706135628E-01  0.7699193010236E+00  0.1419524500487E+00  0.8714791142683E+00
-0.8694708948932E-01  0.3457482405009E+00  0.5176023097360E-01  0.9435246987237E+00
-0.1311377082772E+00 -0.9865338963124E-01 -0.4595822026652E-01  0.1039586587576E+01
-0.2030099082601E+00 -0.5532715445032E+00 -0.1512562928066E+00  0.1159021499117E+01
-0.3055548216839E+00 -0.1000662054792E+01 -0.2612433791880E+00  0.1289889898960E+01
-0.4307673232702E+00 -0.1423630910689E+01 -0.3708796523184E+00  0.1415502587283E+01
-0.5648144198955E+00 -0.1804694694049E+01 -0.4739018298505E+00  0.1521968751560E+01
-0.6917774194815E+00 -0.2120728075615E+01 -0.5625011074012E+00  0.1593238563380E+01
-0.7916746858539E+00 -0.2343093945002E+01 -0.6269537355136E+00  0.1605156200394E+01
-0.8308089057805E+00 -0.2435904346129E+01 -0.6533426601174E+00  0.1517446919003E+01
-0.7070739081523E+00 -0.2364829174076E+01 -0.6143806256007E+00  0.1249089364721E+01
-0.8317731393425E-01 -0.2186947045267E+01 -0.4540248786058E+00  0.7030635984025E+00
 0.1688048770827E+01 -0.2154417867946E+01 -0.9327382081353E-01  0.8561573198360E-01
 0.4726139110700E+01 -0.2232887090328E+01  0.4986504115050E+00  0.3620923196167E+00
 0.5117931780830E+00  0.2346666251909E+01  0.5716918945172E+00  0.8075840226045E+00
 0.3176097345834E+00  0.2302505800219E+01  0.5240231147691E+00  0.9271131217614E+00
 0.1361173996666E+00  0.2137155856383E+01  0.4546546579848E+00  0.9202803534677E+00
 0.3787776120902E-01  0.1871331368194E+01  0.3818418315705E+00  0.8977249670105E+00
-0.9532288706119E-02  0.1559221539286E+01  0.3099378547344E+00  0.9000477552357E+00
-0.3774545511749E-01  0.1225441492817E+01  0.2375392110794E+00  0.9252792645035E+00
-0.6113534651869E-01  0.8748787960504E+00  0.1627486923315E+00  0.9684234833321E+00
-0.8726693254340E-01  0.5078694644565E+00  0.8412050763612E-01  0.1029041784891E+01
-0.1232860053437E+00  0.1253772772822E+00  0.4182543939458E-03  0.1109387554616E+01
-0.1780046398115E+00 -0.2676950700847E+00 -0.8913994330753E-01  0.1211432145826E+01
-0.2592298201078E+00 -0.6593868859122E+00 -0.1837233439417E+00  0.1331231083967E+01
-0.3669125185776E+00 -0.1032924265202E+01 -0.2799673609277E+00  0.1454500350033E+01
-0.4906609100787E+00 -0.1373776796833E+01 -0.3728875469388E+00  0.1562517820929E+01
-0.6136374093403E+00 -0.1668748496745E+01 -0.4564771880191E+00  0.1638184974290E+01
-0.7146823210959E+00 -0.1900902656329E+01 -0.5231170032800E+00  0.1662006319870E+01
-0.7649256759445E+00 -0.2050152930542E+01 -0.5630157296869E+00  0.1606759686661E+01
-0.7116543680338E+00 -0.2097153598962E+01 -0.5617616017702E+00  0.1430856709845E+01
-0.4252823159521E+00 -0.2047141761855E+01 -0.4944848229299E+00  0.1076343891876E+01
 0.3795590053425E+00 -0.1992492929027E+01 -0.3225867895438E+00  0.5408216986452E+00
 0.2051060518364E+01 -0.2092144909698E+01 -0.8216878389245E-02  0.1022559849960E+00
 0.4415500671076E+01 -0.2208999615602E+01  0.4413002176707E+00  0.4175261163910E+00
 0.4256357957260E+00  0.1858857347090E+01  0.4568986353714E+00  0.8092528733340E+00
 0.2910952564778E+00  0.1818402572175E+01  0.4218995720174E+00  0.9601583105588E+00
 0.1374272453463E+00  0.1689643025379E+01  0.3654140595901E+00  0.9995288080196E+00
 0.3772732879508E-01  0.1471311478119E+01  0.3018077658800E+00  0.1005300744503E+01
-0.1798951732988E-01  0.1200116082605E+01  0.2364253165781E+00  0.1020726407263E+01
-0.5351465012099E-01  0.9015392583146E+00  0.1696049241660E+00  0.1053883306875E+01
-0.8368390103877E-01  0.5854239359036E+00  0.1003480084683E+00  0.1103869972951E+01
-0.1173178741774E+00  0.2556546773996E+00  0.2766736105671E-01  0.1170922212979E+01
-0.1619580387317E+00 -0.8389510862122E-01 -0.4917063020329E-01  0.1256474811163E+01
-0.2253446202722E+00 -0.4260986340186E+00 -0.1302886527996E+00  0.1360371272297E+01
-0.3126369574712E+00 -0.7584967878931E+00 -0.2142267522651E+00  0.1476238464318E+01
-0.4208389795587E+00 -0.1065825344439E+01 -0.2973328692302E+00  0.1588473765558E+01
-0.5371510854080E+00 -0.1336308828935E+01 -0.3746919884519E+00  0.1677331388500E+01
-0.6418102314695E+00 -0.1560888259829E+01 -0.4405397048242E+00  0.1723704967107E+01
-0.7088692257527E+00 -0.1729024957783E+01 -0.4875788439726E+00  0.1706140144485E+01
-0.7014335597175E+00 -0.1830460978896E+01 -0.5063789152684E+00  0.1597106047566E+01
-0.5545656426400E+00 -0.1863554567734E+01 -0.4836240492814E+00  0.1361888340466E+01
-0.1395907983383E+00 -0.1858944223635E+01 -0.3997070103507E+00  0.9741595896218E+00
 0.7502223075044E+00 -0.1904176144991E+01 -0.2307907709364E+00  0.4915018061602E+00
 0.2265270318055E+01 -0.2074666515438E+01  0.3812076109158E-01  0.1847190699473E+00
 0.4151261386951E+01 -0.2210357147323E+01  0.3881808537100E+00  0.4895208010163E+00
 0.3380102016420E+00  0.1406085643954E+01  0.3488191743169E+00  0.8159525557247E+00
 0.2500207536172E+00  0.1365679788945E+01  0.3231401133277E+00  0.9871812381520E+00
 0.1245226664311E+00  0.1261064363025E+01  0.2771174100207E+00  0.1062825429399E+01
 0.2970169785112E-01  0.1080603178323E+01  0.2220609785439E+00  0.1096074875711E+01
-0.3051605663548E-01  0.8473386725340E+00  0.1633645256140E+00  0.1126719857434E+01
-0.7210248034983E-01  0.5840350895386E+00  0.1023865233634E+00  0.1168680670871E+01
-0.1086328588857E+00  0.3031651850986E+00  0.3890646582234E-01  0.1224920768913E+01
-0.1493167176272E+00  0.1147724707794E-01 -0.2756789452064E-01  0.1296680360531E+01
-0.2015307148663E+00 -0.2849419851876E+00 -0.9729454146058E-01  0.1384748480428E+01
-0.2715488521962E+00 -0.5777411821156E+00 -0.1698580093934E+00  0.1487308274777E+01
-0.3618683870537E+00 -0.8548871236183E+00 -0.2433511057606E+00  0.1596349237429E+01
-0.4667066806684E+00 -0.1103103488314E+01 -0.3139620384749E+00  0.1695720784888E+01
-0.5709088330569E+00 -0.1313471665990E+01 -0.3768761054253E+00  0.1765426427711E+01
-0.6519804811474E+00 -0.1481021588925E+01 -0.4266004203713E+00  0.1785452915796E+01
-0.6799171093813E+00 -0.1601576953911E+01 -0.4562988194578E+00  0.1733945201057E+01
-0.6121592393444E+00 -0.1674582082730E+01 -0.4573482712299E+00  0.1585940541650E+01
-0.3802322520209E+00 -0.1712502825172E+01 -0.4185470216755E+00  0.1318074221285E+01
 0.1270345234448E+00 -0.1756406049405E+01 -0.3258743100479E+00  0.9321020072747E+00
 0.1041842318095E+01 -0.1874382558319E+01 -0.1665080505259E+00  0.5137173703446E+00
 0.2392974608107E+01 -0.2082211405348E+01  0.6215264147792E-01  0.2940187740110E+00
 0.3928366799447E+01 -0.2225324003345E+01  0.3406085642960E+00  0.5674163926807E+00
 0.2501804038869E+00  0.9807551140402E+00  0.2461871072539E+00  0.8263706266020E+00
 0.1986663534530E+00  0.9391716416709E+00  0.2275676024158E+00  0.1010873868513E+01
 0.9975407745655E-01  0.8510723785906E+00  0.1901652940431E+00  0.1114540974140E+01
 0.1377948325045E-01  0.7007886498659E+00  0.1429136287529E+00  0.1172479669379E+01
-0.4748491452956E-01  0.5017090722994E+00  0.9084483290765E-01  0.1218672546284E+01
-0.9342560209447E-01  0.2727186462348E+00  0.3585860936240E-01  0.1269669613112E+01
-0.1354544022291E+00  0.2712086926697E-01 -0.2166670691529E-01  0.1331417319017E+01
-0.1823622958646E+00 -0.2264178590578E+00 -0.8175603220275E-01  0.1406248230244E+01
-0.2408500685984E+00 -0.4803257550627E+00 -0.1442351668815E+00  0.1494573998853E+01
-0.3154770895336E+00 -0.7257984176722E+00 -0.2082551045444E+00  0.1593426625670E+01
-0.4061515924892E+00 -0.9518239341891E+00 -0.2715951093827E+00  0.1693842238870E+01
-0.5044992959490E+00 -0.1147379816027E+01 -0.3303758273181E+00  0.1779727043527E+01
-0.5931457118518E+00 -0.1306452141196E+01 -0.3799195762707E+00  0.1831462108731E+01
-0.6471986533469E+00 -0.1428045963458E+01 -0.4150489295457E+00  0.1829095782530E+01
-0.6336570088096E+00 -0.1513943408999E+01 -0.4295200899622E+00  0.1751799714444E+01
-0.5073930297218E+00 -0.1571853811132E+01 -0.4158493743674E+00  0.1579193087609E+01
-0.2033683916748E+00 -0.1623071255421E+01 -0.3652879348623E+00  0.1300043548234E+01
 0.3650311623390E+00 -0.1709056733879E+01 -0.2688051183135E+00  0.9359423520176E+00
 0.1271699001721E+01 -0.1875842826477E+01 -0.1208287667517E+00  0.5807975494480E+00
 0.2472879333086E+01 -0.2108674794175E+01  0.7284090886748E-01  0.4135936272020E+00
 0.3736342719253E+01 -0.2250522939180E+01  0.2971639604427E+00  0.6432078802173E+00
 0.1628401752758E+00  0.5774763368996E+00  0.1480633046414E+00  0.8394511383578E+00
 0.1400441126597E+00  0.5345355875451E+00  0.1349159420514E+00  0.1032585634804E+01
 0.6539506282745E-01  0.4582270688721E+00  0.1047244279004E+00  0.1157640030512E+01
-0.9414627468851E-02  0.3322223601779E+00  0.6456154750386E-01  0.1236716248535E+01
-0.6884608617774E-01  0.1635432604410E+00  0.1893943513486E-01  0.1297532564641E+01
-0.1172652186293E+00 -0.3276400932641E-01 -0.3000584603827E-01  0.1357140138257E+01
-0.1636164017799E+00 -0.2437255974693E+00 -0.8146840106381E-01  0.1423467958443E+01
-0.2156659520052E+00 -0.4596825542896E+00 -0.1350697032717E+00  0.1499850155626E+01
-0.2790188393807E+00 -0.6722759144811E+00 -0.1902589536074E+00  0.1586585804503E+01
-0.3563714228119E+00 -0.8728393681565E+00 -0.2458421618570E+00  0.1680041879687E+01
-0.4451646423962E+00 -0.1051760560412E+01 -0.2993850450228E+00  0.1770878596896E+01
-0.5346491048062E+00 -0.1200395982022E+01 -0.3470090225365E+00  0.1843542795652E+01
-0.6054397725737E+00 -0.1315602892803E+01 -0.3842085388005E+00  0.1879307344456E+01
-0.6307046377858E+00 -0.1400115639295E+01 -0.4061640614685E+00  0.1859089280874E+01
-0.5757154164863E+00 -0.1460903315215E+01 -0.4073237524099E+00  0.1764164383309E+01
-0.3956553322790E+00 -0.1511792889982E+01 -0.3814896501369E+00  0.1579604816521E+01
-0.3350056444899E-01 -0.1578142482929E+01 -0.3223286142788E+00  0.1304654169193E+01
 0.5727876611167E+00 -0.1696274516629E+01 -0.2246973744507E+00  0.9727521965830E+00
 0.1452245665772E+01 -0.1893510262055E+01 -0.8825292057162E-01  0.6737631046715E+00
 0.2534965115581E+01 -0.2141458693116E+01  0.7870128566587E-01  0.5439335651983E+00
 0.3553528844645E+01 -0.2300910811816E+01  0.2505236102990E+00  0.7027170763835E+00
 0.7633861454023E-01  0.1922533600288E+00  0.5371839571427E-01  0.8544150949190E+00
 0.7636319493935E-01  0.1484166461352E+00  0.4495596888482E-01  0.1052984798715E+01
 0.2352543092616E-01  0.8108225601140E-01  0.2092153769927E-01  0.1194121492181E+01
-0.3886537019550E-01 -0.2495801649968E-01 -0.1276467752924E-01  0.1290580438158E+01
-0.9416133422721E-01 -0.1666195801375E+00 -0.5215618365014E-01  0.1364254908822E+01
-0.1431866656959E+00 -0.3321597684406E+00 -0.9506928824395E-01  0.1431445004177E+01
-0.1924864186319E+00 -0.5095862763120E+00 -0.1404145410811E+00  0.1501203137970E+01
-0.2484225119953E+00 -0.6890192509038E+00 -0.1874883553736E+00  0.1577694366870E+01
-0.3152032954507E+00 -0.8619291307442E+00 -0.2354264887471E+00  0.1661329749090E+01
-0.3935994620450E+00 -0.1020234891411E+01 -0.2827668749047E+00  0.1748245216743E+01
-0.4787499623312E+00 -0.1155945914685E+01 -0.3269391802749E+00  0.1829207266406E+01
-0.5577800383413E+00 -0.1262809465935E+01 -0.3641179062810E+00  0.1889586034774E+01
-0.6095761251801E+00 -0.1340413753796E+01 -0.3899979816066E+00  0.1911946982917E+01
-0.6059231361213E+00 -0.1394811800788E+01 -0.4001469933445E+00  0.1878675739931E+01
-0.5116079146559E+00 -0.1437111522833E+01 -0.3897438933053E+00  0.1773760814082E+01
-0.2843733701074E+00 -0.1485018583414E+01 -0.3538783959774E+00  0.1587562357085E+01
 0.1228824590766E+00 -0.1564414982025E+01 -0.2883065088859E+00  0.1327098693632E+01
 0.7497808139429E+00 -0.1704413294916E+01 -0.1909264990397E+00  0.1031097360992E+01
 0.1596686829242E+01 -0.1917764458238E+01 -0.6421552675596E-01  0.7797785472462E+00
 0.2573214736543E+01 -0.2170370974597E+01  0.8056875358969E-01  0.6776883838189E+00
 0.3473275114223E+01 -0.2360068024658E+01  0.2226414212307E+00  0.7731386578297E+00
-0.9060265728973E-02 -0.1780884775428E+00 -0.3742974921211E-01  0.8705184615971E+00
 0.9204703016823E-02 -0.2222524143693E+00 -0.4260954290542E-01  0.1072335691089E+01
-0.2409505742954E-01 -0.2823828225303E+00 -0.6129557690534E-01  0.1225312142279E+01
-0.7346764015409E-01 -0.3716919947833E+00 -0.8903192831416E-01  0.1335552475418E+01
-0.1228282790012E+00 -0.4893179856569E+00 -0.1224292547560E+00  0.1419899385056E+01
-0.1707175823574E+00 -0.6261524165095E+00 -0.1593740021482E+00  0.1493264963321E+01
-0.2215462586219E+00 -0.7714876387261E+00 -0.1986067824291E+00  0.1565187217541E+01
-0.2800854074690E+00 -0.9157981697725E+00 -0.2391767190123E+00  0.1640481300542E+01
-0.3489603591601E+00 -0.1050883057445E+01 -0.2799686874930E+00  0.1719841373608E+01
-0.4270118803388E+00 -0.1169571334330E+01 -0.3193166476920E+00  0.1799529019817E+01
-0.5072536584743E+00 -0.1265603679906E+01 -0.3545714729597E+00  0.1870798399858E+01
-0.5749331354372E+00 -0.1335049970666E+01 -0.3819966269127E+00  0.1920231484804E+01
-0.6075103837814E+00 -0.1380018682564E+01 -0.3975058191924E+00  0.1931976802088E+01
-0.5759343433933E+00 -0.1409378285234E+01 -0.3970625316421E+00  0.1890269722726E+01
-0.4455520131403E+00 -0.1437280920927E+01 -0.3765665924247E+00  0.1781989181264E+01
-0.1780230436781E+00 -0.1483397847305E+01 -0.3322841831481E+00  0.1601999093722E+01
 0.2633334314862E+00 -0.1571957891513E+01 -0.2617248959055E+00  0.1362301746905E+01
 0.9001316259405E+00 -0.1724505488431E+01 -0.1648747749550E+00  0.1102255675629E+01
 0.1711664564969E+01 -0.1943321924916E+01 -0.4633147267994E-01  0.8909331200777E+00
 0.2607076298934E+01 -0.2190907884109E+01  0.8323368420532E-01  0.8049827330294E+00
 0.3410460081770E+01 -0.2393209065501E+01  0.2034502062855E+00  0.8787188135977E+00
-0.9335060070953E-01 -0.5362188866366E+00 -0.1259138993455E+00  0.8873478105216E+00
-0.6031326135178E-01 -0.5803640089460E+00 -0.1281354559689E+00  0.1090842026221E+01
-0.7604195420849E-01 -0.6346090665788E+00 -0.1421302062754E+00  0.1252259756641E+01
-0.1121640877772E+00 -0.7097885968591E+00 -0.1643905393769E+00  0.1372976830868E+01
-0.1541913367077E+00 -0.8060766910098E+00 -0.1920536084053E+00  0.1465646700348E+01
-0.1993871668330E+00 -0.9163554667220E+00 -0.2231485300362E+00  0.1543559019015E+01
-0.2503780361026E+00 -0.1031287840679E+01 -0.2563331791759E+00  0.1616315729345E+01
-0.3103007977691E+00 -0.1142093412687E+01 -0.2904788464196E+00  0.1689227657921E+01
-0.3801067546354E+00 -0.1241272421369E+01 -0.3242758400330E+00  0.1763394284310E+01
-0.4567407205922E+00 -0.1322785185890E+01 -0.3559051865999E+00  0.1835480636738E+01
-0.5312602962990E+00 -0.1382137411278E+01 -0.3826795472178E+00  0.1897521148360E+01
-0.5872617659373E+00 -0.1417609554987E+01 -0.4009742701598E+00  0.1937518281355E+01
-0.6010612641395E+00 -0.1433584824072E+01 -0.4069292237061E+00  0.1941396081695E+01
-0.5432444108345E+00 -0.1441229755653E+01 -0.3968948392116E+00  0.1895436392649E+01
-0.3804518023269E+00 -0.1456763211564E+01 -0.3674430082535E+00  0.1789284255566E+01
-0.7896279300273E-01 -0.1500426674941E+01 -0.3158778982958E+00  0.1621273525766E+01
 0.3881940458238E+00 -0.1593637007185E+01 -0.2410885958648E+00  0.1405942917447E+01
 0.1027930344407E+01 -0.1751058457380E+01 -0.1446256247497E+00  0.1180402167814E+01
 0.1807173018836E+01 -0.1967047290238E+01 -0.3197485475688E-01  0.1001704764577E+01
 0.2634674686845E+01 -0.2204197370602E+01  0.8609546453163E-01  0.9267541134591E+00
 0.3374791997480E+01 -0.2397960676622E+01  0.1953662670828E+00  0.9701160342008E+00
-0.1765321086691E+00 -0.8843298743308E+00 -0.2121723997616E+00  0.9045599235334E+00
-0.1313005897697E+00 -0.9281791913193E+00 -0.2118959593753E+00  0.1108583625810E+01
-0.1310624804265E+00 -0.9774819466003E+00 -0.2217088887091E+00  0.1275659953180E+01
-0.1538782378209E+00 -0.1040565682675E+01 -0.2388887876590E+00  0.1403834417657E+01
-0.1874721009269E+00 -0.1117844802632E+01 -0.2610633846020E+00  0.1502405658896E+01
-0.2286036159555E+00 -0.1203640382454E+01 -0.2864488039503E+00  0.1583068328583E+01
-0.2784816634038E+00 -0.1289951152771E+01 -0.3136865679094E+00  0.1655254332116E+01
-0.3386628789630E+00 -0.1368986951740E+01 -0.3415299712298E+00  0.1724662342188E+01
-0.4084132251528E+00 -0.1434209529023E+01 -0.3685245563266E+00  0.1792886351804E+01
-0.4828536078072E+00 -0.1480845834589E+01 -0.3927398943316E+00  0.1857206480760E+01
-0.5512580095591E+00 -0.1506138827984E+01 -0.4114793736402E+00  0.1910655351577E+01
-0.5957882620521E+00 -0.1510426995121E+01 -0.4212430577117E+00  0.1942794205164E+01
-0.5918780795283E+00 -0.1500091393076E+01 -0.4183939007553E+00  0.1941424490814E+01
-0.5101215366949E+00 -0.1488086308086E+01 -0.3996415749113E+00  0.1894913522659E+01
-0.3189020920955E+00 -0.1491879011432E+01 -0.3621562261020E+00  0.1795345182971E+01
 0.1078980933686E-01 -0.1531333638509E+01 -0.3041087703660E+00  0.1643409514700E+01
 0.4973081173524E+00 -0.1624650976885E+01 -0.2254685752662E+00  0.1454232653608E+01
 0.1136513927516E+01 -0.1780544236774E+01 -0.1288060637708E+00  0.1260728421370E+01
 0.1887179180699E+01 -0.1988024467504E+01 -0.2016905766154E-01  0.1108799056208E+01
 0.2663615637599E+01 -0.2210023165295E+01  0.9071849581274E-01  0.1038602794612E+01
 0.3355943772014E+01 -0.2394290804855E+01  0.1923305962978E+00  0.1056314564155E+01
-0.2586459050898E+00 -0.1224316858744E+01 -0.2965925571863E+00  0.9219181541397E+00
-0.2030661740350E+00 -0.1267697596201E+01 -0.2941527584304E+00  0.1125615065235E+01
-0.1880872339881E+00 -0.1312782224915E+01 -0.3001738962536E+00  0.1296036891503E+01
-0.1975915362022E+00 -0.1365396956837E+01 -0.3125977032659E+00  0.1428928067015E+01
-0.2218671849971E+00 -0.1425672942092E+01 -0.3295080303279E+00  0.1530996726808E+01
-0.2577481503909E+00 -0.1488929454144E+01 -0.3493355261124E+00  0.1612528526548E+01
-0.3053692449997E+00 -0.1548408607427E+01 -0.3707555760100E+00  0.1682697748265E+01
-0.3648192367920E+00 -0.1597446659767E+01 -0.3924531851598E+00  0.1747531427360E+01
-0.4337263539626E+00 -0.1630629914225E+01 -0.4128712597897E+00  0.1809183033968E+01
-0.5054887771652E+00 -0.1644513594582E+01 -0.4300004807570E+00  0.1865701167458E+01
-0.5677691400565E+00 -0.1638001141557E+01 -0.4411540628965E+00  0.1911268332835E+01
-0.6014960928869E+00 -0.1613307926182E+01 -0.4429608104144E+00  0.1937080222127E+01
-0.5814437383951E+00 -0.1578524832609E+01 -0.4319937206380E+00  0.1932840228812E+01
-0.4784706286620E+00 -0.1547929005951E+01 -0.4052799329617E+00  0.1888926832017E+01
-0.2628721698963E+00 -0.1539605312214E+01 -0.3604955017939E+00  0.1799430375089E+01
 0.8994039392754E-01 -0.1572496518359E+01 -0.2965112293046E+00  0.1666365596510E+01
 0.5911462211729E+00 -0.1661624848921E+01 -0.2140957287399E+00  0.1503925642073E+01
 0.1228379743449E+01 -0.1810913849393E+01 -0.1165068229248E+00  0.1339829531333E+01
 0.1956010909875E+01 -0.2005694760216E+01 -0.9936770216155E-02  0.1209578358845E+01
 0.2694697817061E+01 -0.2210886528835E+01  0.9676225908705E-01  0.1141048118217E+01
 0.3351360938862E+01 -0.2383112633997E+01  0.1936496638587E+00  0.1136768722463E+01
-0.3397590047566E+00 -0.1557856961654E+01 -0.3795231989374E+00  0.9392762184034E+00
-0.2750616271247E+00 -0.1600712835729E+01 -0.3751548981609E+00  0.1141993501460E+01
-0.2461952305518E+00 -0.1642182676905E+01 -0.3776755871192E+00  0.1313804297892E+01
-0.2423530527847E+00 -0.1685660587547E+01 -0.3856027338124E+00  0.1448923405331E+01
-0.2565758022675E+00 -0.1730659901813E+01 -0.3974471467385E+00  0.1552152866565E+01
-0.2861937689573E+00 -0.1773164199878E+01 -0.4118715999045E+00  0.1632647098687E+01
-0.3305673236684E+00 -0.1807549084711E+01 -0.4276232880479E+00  0.1699341530761E+01
-0.3884575237006E+00 -0.1828337437730E+01 -0.4433589988927E+00  0.1758573271775E+01
-0.4559420920202E+00 -0.1831323736424E+01 -0.4574531725054E+00  0.1813101162164E+01
-0.5248183483453E+00 -0.1814391109538E+01 -0.4678418985480E+00  0.1861845243637E+01
-0.5813069685929E+00 -0.1777987487877E+01 -0.4718588983252E+00  0.1900231964662E+01
-0.6052852824389E+00 -0.1726005186404E+01 -0.4662581007164E+00  0.1921113577605E+01
-0.5710441639468E+00 -0.1667961795775E+01 -0.4478011986171E+00  0.1916060442655E+01
-0.4498429288554E+00 -0.1619057768746E+01 -0.4137801456861E+00  0.1877318305536E+01
-0.2138340557177E+00 -0.1597553071374E+01 -0.3622774308167E+00  0.1800531988822E+01
 0.1577265445751E+00 -0.1621232346400E+01 -0.2927011647265E+00  0.1688151477001E+01
 0.6703136843264E+00 -0.1702282972889E+01 -0.2063938607880E+00  0.1552354375061E+01
 0.1305741199973E+01 -0.1840909087703E+01 -0.1070335791408E+00  0.1415133496931E+01
 0.2016298983515E+01 -0.2020218346025E+01 -0.7838725137576E-03  0.1302751802631E+01
 0.2728218528862E+01 -0.2207350534543E+01  0.1041736004161E+00  0.1234150333883E+01
 0.3359590608559E+01 -0.2364902940024E+01  0.1989375366713E+00  0.1210218656490E+01
-0.4199545551670E+00 -0.1886463485018E+01 -0.4612836149106E+00  0.9565652693435E+00
-0.3468415591104E+00 -0.1928856243459E+01 -0.4551395672960E+00  0.1157793237065E+01
-0.3045831578046E+00 -0.1967253368944E+01 -0.4543673121203E+00  0.1329304871464E+01
-0.2872791664673E+00 -0.2002708531846E+01 -0.4579975464873E+00  0.1464379107889E+01
-0.2908160563662E+00 -0.2033913634666E+01 -0.4649459451346E+00  0.1566523368085E+01
-0.3133186962824E+00 -0.2057278827045E+01 -0.4741195117304E+00  0.1644088315074E+01
-0.3536185646783E+00 -0.2068210873097E+01 -0.4843658947727E+00  0.1705861466861E+01
-0.4092943739910E+00 -0.2062430701094E+01 -0.4943450223832E+00  0.1758501375604E+01
-0.4749837768398E+00 -0.2036962714951E+01 -0.5023893058443E+00  0.1805400831457E+01
-0.5410183826865E+00 -0.1990966496364E+01 -0.5063969833561E+00  0.1846410571151E+01
-0.5923415514413E+00 -0.1926287094160E+01 -0.5037257366264E+00  0.1878245756126E+01
-0.6079407660270E+00 -0.1848282433594E+01 -0.4912446472442E+00  0.1895393816553E+01
-0.5617523997098E+00 -0.1767628089196E+01 -0.4658761047232E+00  0.1891216278276E+01
-0.4254671003826E+00 -0.1700119928358E+01 -0.4251174120829E+00  0.1859653602975E+01
-0.1728623138814E+00 -0.1663913571145E+01 -0.3673551824794E+00  0.1797489059915E+01
 0.2137035850364E+00 -0.1675631900656E+01 -0.2923856674809E+00  0.1706901379082E+01
 0.7354393282292E+00 -0.1745123974653E+01 -0.2019369322938E+00  0.1597305562324E+01
 0.1370263814152E+01 -0.1869871258218E+01 -0.9992149030226E-01  0.1484793975096E+01
 0.2069693254749E+01 -0.2031718043471E+01  0.7595042368675E-02  0.1387529158097E+01
 0.2764326945620E+01 -0.2199642462419E+01  0.1129368983231E+00  0.1317711802734E+01
 0.3379692689595E+01 -0.2340080629154E+01  0.2079224151865E+00  0.1275433785547E+01
-0.4993256320044E+00 -0.2211525979350E+01 -0.5421703303498E+00  0.9737838737696E+00
-0.4180346084939E+00 -0.2253631759811E+01 -0.5343332816231E+00  0.1173112800507E+01
-0.3625387970078E+00 -0.2289471466422E+01 -0.5304020605895E+00  0.1342834985367E+01
-0.3315475179063E+00 -0.2317849053822E+01 -0.5298793222416E+00  0.1475767996547E+01
-0.3238334401175E+00 -0.2336523327691E+01 -0.5320713614901E+00  0.1574677842665E+01
-0.3385156099414E+00 -0.2342178548564E+01 -0.5361388396901E+00  0.1647463323277E+01
-0.3740831763676E+00 -0.2331173724958E+01 -0.5410513883275E+00  0.1702899410231E+01
-0.4270668002081E+00 -0.2300411709716E+01 -0.5454957101134E+00  0.1747993925983E+01
-0.4907847031976E+00 -0.2248122243791E+01 -0.5477813975604E+00  0.1786783940423E+01
-0.5542453010299E+00 -0.2174648528334E+01 -0.5457787740055E+00  0.1820071669454E+01
-0.6012738613740E+00 -0.2083060182317E+01 -0.5368668167382E+00  0.1845864234130E+01
-0.6101106945314E+00 -0.1979962685510E+01 -0.5180146837272E+00  0.1860229337224E+01
-0.5544245914796E+00 -0.1876938851233E+01 -0.4862726957886E+00  0.1858220944165E+01
-0.4062825162711E+00 -0.1790117586522E+01 -0.4392800271045E+00  0.1835305340928E+01
-0.1407287803298E+00 -0.1737402067825E+01 -0.3756261752283E+00  0.1789063583649E+01
 0.2576131449440E+00 -0.1734409108712E+01 -0.2953591971549E+00  0.1720883098974E+01
 0.7870429507486E+00 -0.1789227827587E+01 -0.2004369783544E+00  0.1636938335411E+01
 0.1423097524259E+01 -0.1897483049177E+01 -0.9487710639748E-01  0.1547440646146E+01
 0.2117207414891E+01 -0.2040324936966E+01  0.1537649581412E-01  0.1463351272591E+01
 0.2803100628486E+01 -0.2187997215547E+01  0.1230206844210E+00  0.1391459227739E+01
 0.3411023673656E+01 -0.2309188310975E+01  0.2203670758199E+00  0.1331383465636E+01
-0.5779711718035E+00 -0.2534341491617E+01 -0.6224625419595E+00  0.9909903206256E+00
-0.4883213595404E+00 -0.2576444768913E+01 -0.6129532348243E+00  0.1188077726060E+01
-0.4194177736195E+00 -0.2610233198941E+01 -0.6059302035411E+00  0.1354659214801E+01
-0.3743877553785E+00 -0.2632337532648E+01 -0.6013450665660E+00  0.1483490383495E+01
-0.3549041674021E+00 -0.2639539204773E+01 -0.5988886833591E+00  0.1577108855810E+01
-0.3611979207420E+00 -0.2628721500338E+01 -0.5979838931267E+00  0.1643323481252E+01
-0.3915404888627E+00 -0.2597150765456E+01 -0.5977382597707E+00  0.1691054218090E+01
-0.4415261967467E+00 -0.2542884064632E+01 -0.5968820611701E+00  0.1727688897793E+01
-0.5032751158354E+00 -0.2465298205549E+01 -0.5937146731240E+00  0.1757898086822E+01
-0.5646182137515E+00 -0.2365793890845E+01 -0.5860824296527E+00  0.1783421612985E+01
-0.6084170359944E+00 -0.2248472250996E+01 -0.5713778659123E+00  0.1803527120561E+01
-0.6122926728404E+00 -0.2120963776877E+01 -0.5466512980892E+00  0.1815783199391E+01
-0.5497018104609E+00 -0.1995523969500E+01 -0.5090451635776E+00  0.1816829480105E+01
-0.3929721347431E+00 -0.1888404478834E+01 -0.4562753295144E+00  0.1803517242101E+01
-0.1179749340525E+00 -0.1817203016172E+01 -0.3870355958122E+00  0.1773983323633E+01
 0.2892855775018E+00 -0.1796790007648E+01 -0.3015008905220E+00  0.1728484791360E+01
 0.8254668251502E+00 -0.1834105676830E+01 -0.2017277733420E+00  0.1669684459183E+01
 0.1464939455188E+01 -0.1923657084092E+01 -0.9174352714804E-01  0.1602000266991E+01
 0.2159397787684E+01 -0.2046231514674E+01  0.2263325493916E-01  0.1529791144076E+01
 0.2844540341337E+01 -0.2172748547906E+01  0.1343583606883E+00  0.1455145878443E+01
 0.3453164863908E+01 -0.2272900651943E+01  0.2360528459104E+00  0.1377251485709E+01
-0.6559931682570E+00 -0.2856140679312E+01 -0.7024267799807E+00  0.1008296848263E+01
-0.5574164800604E+00 -0.2898627284250E+01 -0.6912087631618E+00  0.1202840799880E+01
-0.4746226122911E+00 -0.2930867046991E+01 -0.6810979420057E+00  0.1365017557530E+01
-0.4150705303063E+00 -0.2947372511389E+01 -0.6724886183598E+00  0.1487880803287E+01
-0.3833353551098E+00 -0.2943957494538E+01 -0.6654585798456E+00  0.1574232366314E+01
-0.3808043917953E+00 -0.2917703057153E+01 -0.6597014996199E+00  0.1632155529249E+01
-0.4055912390701E+00 -0.2866779813830E+01 -0.6544742203324E+00  0.1670876619089E+01
-0.4524350832009E+00 -0.2790371183443E+01 -0.6485612629932E+00  0.1698183675262E+01
-0.5123734844578E+00 -0.2688918537148E+01 -0.6402584138618E+00  0.1719344720412E+01
-0.5722066846043E+00 -0.2564726931337E+01 -0.6273867325371E+00  0.1736991310593E+01
-0.6139837489423E+00 -0.2422718759960E+01 -0.6073405108306E+00  0.1751591230073E+01
-0.6148256130735E+00 -0.2271322758685E+01 -0.5772296829532E+00  0.1762117372080E+01
-0.5480143978265E+00 -0.2123243244171E+01 -0.5342515363604E+00  0.1766691156236E+01
-0.3859891058506E+00 -0.1994678116878E+01 -0.4761334516407E+00  0.1763452347346E+01
-0.1049644885220E+00 -0.1902926026494E+01 -0.4015781089872E+00  0.1750963467588E+01
 0.3085758842190E+00 -0.1862431287373E+01 -0.3107710852617E+00  0.1728184556636E+01
 0.8508442192465E+00 -0.1879604373351E+01 -0.2057520338868E+00  0.1694153416904E+01
 0.1496084131544E+01 -0.1948485847425E+01 -0.9048034452444E-01  0.1647576078865E+01
 0.2196449226036E+01 -0.2049714841686E+01  0.2934687730731E-01  0.1586510027872E+01
 0.2888553237078E+01 -0.2154337888640E+01  0.1468430718757E+00  0.1508595393176E+01
 0.3505879894985E+01 -0.2232002077656E+01  0.2547755672622E+00  0.1412424148876E+01
-0.7334945706729E+00 -0.3178111422476E+01 -0.7823212102873E+00  0.1025865557020E+01
-0.6250531104268E+00 -0.3221461409834E+01 -0.7693029155157E+00  0.1217580732642E+01
-0.5275830178667E+00 -0.3252647823065E+01 -0.7560461794522E+00  0.1374127024474E+01
-0.4528955261666E+00 -0.3264094832016E+01 -0.7433980827141E+00  0.1489208865849E+01
-0.4084635912230E+00 -0.3250708311432E+01 -0.7318343914361E+00  0.1566385443703E+01
-0.3968032767096E+00 -0.3209841148351E+01 -0.7213288957607E+00  0.1614377574551E+01
-0.4158611222612E+00 -0.3140613458239E+01 -0.7112949266991E+00  0.1642867025991E+01
-0.4595666897372E+00 -0.3043314496670E+01 -0.7005762477208E+00  0.1660038274125E+01
-0.5179818626576E+00 -0.2919349566966E+01 -0.6874662961687E+00  0.1671690594641E+01
-0.5770234647090E+00 -0.2771752245111E+01 -0.6697551519442E+00  0.1681271207939E+01
-0.6180787679085E+00 -0.2606041030876E+01 -0.6448239693656E+00  0.1690363315319E+01
-0.6178855085114E+00 -0.2431211021343E+01 -0.6098193150579E+00  0.1699235373178E+01
-0.5495860022634E+00 -0.2260194417634E+01 -0.5619560923533E+00  0.1707395978714E+01
-0.3855747048844E+00 -0.2108972004775E+01 -0.4989093493661E+00  0.1714230059246E+01
-0.1019164242196E+00 -0.1994574873898E+01 -0.4192982658715E+00  0.1718714375341E+01
 0.3153271243956E+00 -0.1931367755457E+01 -0.3232081310284E+00  0.1718511033368E+01
 0.8630866308879E+00 -0.1925852505359E+01 -0.2125531780616E+00  0.1709047948365E+01
 0.1516452990543E+01 -0.1972217972012E+01 -0.9115299765224E-01  0.1683360918959E+01
 0.2228209186557E+01 -0.2051140310616E+01  0.3541377571578E-01  0.1633228050962E+01
 0.2934930804480E+01 -0.2133300745685E+01  0.1603260141480E+00  0.1551716461760E+01
 0.3569075886504E+01 -0.2187358737013E+01  0.2763434340160E+00  0.1436475156088E+01
-0.8105774662728E+00 -0.3501422021878E+01 -0.8623999104809E+00  0.1043905883218E+01
-0.6909679050838E+00 -0.3546202744394E+01 -0.8474341425233E+00  0.1232499706204E+01
-0.5777362847611E+00 -0.3576811654692E+01 -0.8309096002720E+00  0.1382178372184E+01
-0.4871789232202E+00 -0.3583588250379E+01 -0.8141534468516E+00  0.1487674493048E+01
-0.4296531225748E+00 -0.3560644472255E+01 -0.7980595308580E+00  0.1553820835433E+01
-0.4086970683334E+00 -0.3505761173422E+01 -0.7828916600172E+00  0.1590335149010E+01
-0.4220061680467E+00 -0.3419107193258E+01 -0.7682226837084E+00  0.1607475525737E+01
-0.4627074719750E+00 -0.3302068150441E+01 -0.7529551357031E+00  0.1613781390599E+01
-0.5199851208769E+00 -0.3156897207639E+01 -0.7353764766611E+00  0.1615481696914E+01
-0.5790217754280E+00 -0.2987160433781E+01 -0.7132364524699E+00  0.1616734617749E+01
-0.6206959958382E+00 -0.2798734051216E+01 -0.6838860196015E+00  0.1620133373548E+01
-0.6214839197126E+00 -0.2600941416948E+01 -0.6444850769357E+00  0.1627123678140E+01
-0.5544355995684E+00 -0.2406716255651E+01 -0.5922303798687E+00  0.1638517441121E+01
-0.3917662179309E+00 -0.2231650528544E+01 -0.5246833571134E+00  0.1654956581910E+01
-0.1089190539909E+00 -0.2092530955692E+01 -0.4402900084975E+00  0.1675941576192E+01
 0.3093559314160E+00 -0.2003986434082E+01 -0.3389261055836E+00  0.1698000508157E+01
 0.8618804360951E+00 -0.1973236663073E+01 -0.2222712487078E+00  0.1713087742967E+01
 0.1525604835113E+01 -0.1995248981496E+01 -0.9392883067631E-01  0.1708565953230E+01
 0.2254188780984E+01 -0.2050958245822E+01  0.4064610763802E-01  0.1669695741629E+01
 0.2983318979595E+01 -0.2110249154885E+01  0.1746139675439E+00  0.1584503151238E+01
 0.3642764962878E+01 -0.2139891611650E+01  0.3005746747244E+00  0.1449149465580E+01
-0.8873412032622E+00 -0.3827245889213E+01 -0.9429174325456E+00  0.1062673657538E+01
-0.7548852696074E+00 -0.3874105354625E+01 -0.9257981386420E+00  0.1247819901775E+01
-0.6245067108695E+00 -0.3904572097181E+01 -0.9058157751078E+00  0.1389328030724E+01
-0.5172405313914E+00 -0.3906880251294E+01 -0.8848241697219E+00  0.1483397348930E+01
-0.4462947658270E+00 -0.3874529507973E+01 -0.8641648676370E+00  0.1536697988494E+01
-0.4160289065283E+00 -0.3805979272382E+01 -0.8444016483647E+00  0.1560296861397E+01
-0.4237204837247E+00 -0.3702605096540E+01 -0.8252651283504E+00  0.1565103518203E+01
-0.4616626199935E+00 -0.3566890210739E+01 -0.8057105781525E+00  0.1559918659410E+01
-0.5182538333733E+00 -0.3401803296799E+01 -0.7840114377171E+00  0.1551258941395E+01
-0.5780967935937E+00 -0.3211227511321E+01 -0.7578648722759E+00  0.1543861975808E+01
-0.6217195583223E+00 -0.3001146815768E+01 -0.7245732856150E+00  0.1541208052028E+01
-0.6254685697095E+00 -0.2780968244592E+01 -0.6812873730124E+00  0.1545792489670E+01
-0.5623767301394E+00 -0.2563387839319E+01 -0.6251529232072E+00  0.1559653867647E+01
-0.4043941932446E+00 -0.2363407729627E+01 -0.5535603928231E+00  0.1584753163446E+01
-0.1259256911291E+00 -0.2197551682789E+01 -0.4646954817082E+00  0.1621343374626E+01
 0.2904571466060E+00 -0.2081025083329E+01 -0.3581135926809E+00  0.1665153601795E+01
 0.8466895487205E+00 -0.2022402016749E+01 -0.2351424971096E+00  0.1704936866868E+01
 0.1522730315398E+01 -0.2018124004364E+01 -0.9907873926953E-01  0.1722353328149E+01
 0.2273538717719E+01 -0.2049701098913E+01  0.4476752442838E-01  0.1695660876029E+01
 0.3033177137383E+01 -0.2085856334499E+01  0.1894641634000E+00  0.1607026619825E+01
 0.3727028108024E+01 -0.2090553113580E+01  0.3272950037659E+00  0.1450345143602E+01
-0.9638800903604E+00 -0.4156789722465E+01 -0.1024133977826E+01  0.1082471889769E+01
-0.8164992434873E+00 -0.4206449999466E+01 -0.1004589863560E+01  0.1263778798546E+01
-0.6672827926509E+00 -0.4237137582365E+01 -0.9808840896195E+00  0.1395684571677E+01
-0.5423907896123E+00 -0.4234941676224E+01 -0.9554665074048E+00  0.1476399789759E+01
-0.4578066530092E+00 -0.4193023009774E+01 -0.9301659464171E+00  0.1515070129356E+01
-0.4183916848357E+00 -0.4110882635473E+01 -0.9058548775600E+00  0.1524449421645E+01
-0.4207468665008E+00 -0.3991322495976E+01 -0.8824138856444E+00  0.1516106725092E+01
-0.4562645711056E+00 -0.3837930345192E+01 -0.8588389960572E+00  0.1498942673526E+01
-0.5126505670373E+00 -0.3654237334119E+01 -0.8333775926496E+00  0.1479575025431E+01
-0.5740910521926E+00 -0.3444208321601E+01 -0.8036598867341E+00  0.1463165407224E+01
-0.6209287705452E+00 -0.3213675553118E+01 -0.7669208761605E+00  0.1453943858017E+01
-0.6295260549360E+00 -0.2971880297881E+01 -0.7202812812963E+00  0.1455316525076E+01
-0.5730140767399E+00 -0.2731024027909E+01 -0.6608076307766E+00  0.1470470737109E+01
-0.4230691502118E+00 -0.2505269743909E+01 -0.5856677875513E+00  0.1502786528039E+01
-0.1527320182180E+00 -0.2310783471027E+01 -0.4927031051908E+00  0.1553611050301E+01
 0.2584272238464E+00 -0.2163594131479E+01 -0.3810333872044E+00  0.1618393491632E+01
 0.8167643203551E+00 -0.2074275652964E+01 -0.2515022702694E+00  0.1683130465050E+01
 0.1506633105750E+01 -0.2041553713371E+01 -0.1069841231184E+00  0.1723764488625E+01
 0.2285002658040E+01 -0.2047986538762E+01  0.4740322456199E-01  0.1710826764925E+01
 0.3083722537840E+01 -0.2060846633013E+01  0.2045751840140E+00  0.1619419118278E+01
 0.3821982083800E+01 -0.2040308715815E+01  0.3563346789067E+00  0.1440092369189E+01
-0.1040280217281E+01 -0.4491327560377E+01 -0.1106321572017E+01  0.1103653554595E+01
-0.8754511759184E+00 -0.4544577587054E+01 -0.1084005768747E+01  0.1280622660915E+01
-0.7053908396919E+00 -0.4575730360030E+01 -0.1056224255683E+01  0.1401288261355E+01
-0.5619179803267E+00 -0.4568683517799E+01 -0.1026120314916E+01  0.1466582152703E+01
-0.4636381106429E+00 -0.4516661334383E+01 -0.9960599038477E+00  0.1488867050559E+01
-0.4154409468516E+00 -0.4420705682960E+01 -0.9672293403752E+00  0.1482892106634E+01
-0.4128907327219E+00 -0.4285325351443E+01 -0.9396432308348E+00  0.1460799529841E+01
-0.4463844626940E+00 -0.4115214221848E+01 -0.9123197505030E+00  0.1431344441775E+01
-0.5030392746456E+00 -0.3914284084968E+01 -0.8834646850875E+00  0.1401011898505E+01
-0.5668035104871E+00 -0.3686324503078E+01 -0.8506256153883E+00  0.1375212962221E+01
-0.6180070641870E+00 -0.3436750202777E+01 -0.8109514654768E+00  0.1358779745141E+01
-0.6331872682362E+00 -0.3174386811855E+01 -0.7615148273656E+00  0.1355876223807E+01
-0.5857384117621E+00 -0.2910666117585E+01 -0.6992809162896E+00  0.1370746092520E+01
-0.4471585515597E+00 -0.2658599389228E+01 -0.6211515974135E+00  0.1408305815517E+01
-0.1889346271839E+00 -0.2433788432762E+01 -0.5245446198055E+00  0.1471436862596E+01
 0.2131086738005E+00 -0.2253222758382E+01 -0.4080228229963E+00  0.1556027793885E+01
 0.7711596758471E+00 -0.2130114622536E+01 -0.2717909933878E+00  0.1645996743440E+01
 0.1475699898916E+01 -0.2066446696250E+01 -0.1181493612274E+00  0.1711637298874E+01
 0.2286847959468E+01 -0.2046531356047E+01  0.4806332140036E-01  0.1714798285468E+01
 0.3133855831860E+01 -0.2035994749161E+01  0.2195722198117E+00  0.1621848067901E+01
 0.3927747248219E+01 -0.1990124232455E+01  0.3875246089273E+00  0.1418528768642E+01
-0.1116614748989E+01 -0.4832243885753E+01 -0.1189771744678E+01  0.1126626837490E+01
-0.9313007514179E+00 -0.4889930280939E+01 -0.1164246223820E+01  0.1298597101197E+01
-0.7380634585762E+00 -0.4921606713979E+01 -0.1131934051378E+01  0.1406081220263E+01
-0.5750763749440E+00 -0.4908948430733E+01 -0.1096804977479E+01  0.1453688683924E+01
-0.4632783398875E+00 -0.4845831188760E+01 -0.1061821921552E+01  0.1457873457631E+01
-0.4069127387591E+00 -0.4735500898226E+01 -0.1028482742723E+01  0.1435631170002E+01
-0.4000377154216E+00 -0.4584506175394E+01 -0.9969087930181E+00  0.1399460906724E+01
-0.4319463563844E+00 -0.4398624872768E+01 -0.9661142602268E+00  0.1357626120584E+01
-0.4892974281359E+00 -0.4181927439370E+01 -0.9342449874225E+00  0.1316198405491E+01
-0.5560020417716E+00 -0.3937747429314E+01 -0.8987499076095E+00  0.1280651933062E+01
-0.6125551277818E+00 -0.3670814327191E+01 -0.8566739037600E+00  0.1256268531320E+01
-0.6358366558385E+00 -0.3389295620564E+01 -0.8050264672764E+00  0.1247799432502E+01
-0.5997219096382E+00 -0.3103565566679E+01 -0.7406575063001E+00  0.1260420704730E+01
-0.4757558312397E+00 -0.2825099587148E+01 -0.6601710935148E+00  0.1300690352725E+01
-0.2338698186989E+00 -0.2568582618958E+01 -0.5604904958833E+00  0.1373536192894E+01
 0.1544606538431E+00 -0.2351931475355E+01 -0.4394941708514E+00  0.1476217843242E+01
 0.7087682098093E+00 -0.2191584269869E+01 -0.2965632164311E+00  0.1591570444423E+01
 0.1427861056250E+01 -0.2093962104592E+01 -0.1332202116534E+00  0.1684505058216E+01
 0.2276771834715E+01 -0.2046182594012E+01  0.4611784882787E-01  0.1707011929237E+01
 0.3182064040565E+01 -0.2012140803646E+01  0.2339846508703E+00  0.1614475955408E+01
 0.4044403204606E+01 -0.1940961261752E+01  0.4206883948396E+00  0.1385866153482E+01
-0.1192936688448E+01 -0.5181090308797E+01 -0.1274805418445E+01  0.1151863473272E+01
-0.9834869452666E+00 -0.5244103397551E+01 -0.1245518087123E+01  0.1317932697897E+01
-0.7644011776535E+00 -0.5276077544927E+01 -0.1208095762518E+01  0.1409864224857E+01
-0.5810767512746E+00 -0.5256493245124E+01 -0.1167514016677E+01  0.1437261856800E+01
-0.4562721622463E+00 -0.5180733043629E+01 -0.1127401057975E+01  0.1421703172487E+01
-0.3926476516724E+00 -0.5055103333483E+01 -0.1089550213267E+01  0.1382575262662E+01
-0.3821751127996E+00 -0.4888556733513E+01 -0.1054146384971E+01  0.1332342438934E+01
-0.4129439359538E+00 -0.4687881488864E+01 -0.1020165100165E+01  0.1278314903427E+01
-0.4713304504913E+00 -0.4457030997828E+01 -0.9856723043516E+00  0.1225827704865E+01
-0.5414390325680E+00 -0.4198576683021E+01 -0.9480031572441E+00  0.1180230651612E+01
-0.6041085411571E+00 -0.3916298807529E+01 -0.9040814832092E+00  0.1147106370833E+01
-0.6367268617494E+00 -0.3617482823790E+01 -0.8508419497863E+00  0.1131602940375E+01
-0.6139167511018E+00 -0.3311157709789E+01 -0.7850149038758E+00  0.1139653830768E+01
-0.5076448650918E+00 -0.3006810635426E+01 -0.7028911105775E+00  0.1179512115478E+01
-0.2865319944339E+00 -0.2717680958281E+01 -0.6008425994962E+00  0.1258692055540E+01
 0.8266396922789E-01 -0.2462335225929E+01 -0.4759342584321E+00  0.1376962638907E+01
 0.6283788661929E+00 -0.2260877557623E+01 -0.3264997431513E+00  0.1517494379613E+01
 0.1360540955735E+01 -0.2125588010794E+01 -0.1530094132918E+00  0.1640466680584E+01
 0.2251783393206E+01 -0.2047967640799E+01  0.4076315108870E-01  0.1686651459578E+01
 0.3226294188772E+01 -0.1990247859842E+01  0.2472092694698E+00  0.1597394701198E+01
 0.4171918638272E+01 -0.1893761968022E+01  0.4556313408394E+00  0.1342341975134E+01
-0.1269267498978E+01 -0.5539662694632E+01 -0.1361786059014E+01  0.1179911075170E+01
-0.1031273949927E+01 -0.5608912290123E+01 -0.1328037267799E+01  0.1338822091894E+01
-0.7833254530379E+00 -0.5640527050556E+01 -0.1284770519863E+01  0.1412234026249E+01
-0.5790820380470E+00 -0.5611956734103E+01 -0.1238207772881E+01  0.1416582405053E+01
-0.4422459519291E+00 -0.5521330691663E+01 -0.1192715346491E+01  0.1379770444265E+01
-0.3726222396495E+00 -0.5379088463749E+01 -0.1150342157821E+01  0.1323533743429E+01
-0.3594170495552E+00 -0.5196938538374E+01 -0.1111271134145E+01  0.1259679090910E+01
-0.3894592115140E+00 -0.4982516469977E+01 -0.1074395152308E+01  0.1193977862584E+01
-0.4490879307848E+00 -0.4739316008336E+01 -0.1037680803287E+01  0.1130674046601E+01
-0.5228696398145E+00 -0.4468814900871E+01 -0.9983369230136E+00  0.1074818172188E+01
-0.5921600944149E+00 -0.4173590239487E+01 -0.9531500809835E+00  0.1032159184342E+01
-0.6350003187599E+00 -0.3859853707089E+01 -0.8989708185655E+00  0.1008032401506E+01
-0.6270614638402E+00 -0.3535022356827E+01 -0.8324167765373E+00  0.1008883538753E+01
-0.5412642743012E+00 -0.3206093172110E+01 -0.7494715004503E+00  0.1044616562414E+01
-0.3454758058133E+00 -0.2884143385842E+01 -0.6459238479561E+00  0.1125829653084E+01
-0.1723334102656E-02 -0.2587771779046E+01 -0.5178990303471E+00  0.1256115843299E+01
 0.5287737490634E+00 -0.2340911875761E+01 -0.3624276307402E+00  0.1420901168667E+01
 0.1270604402625E+01 -0.2163230806699E+01 -0.1785252834750E+00  0.1577014633680E+01
 0.2208033136554E+01 -0.2053185397892E+01  0.3096954819388E-01  0.1652544974939E+01
 0.3263865315012E+01 -0.1971496296778E+01  0.2584738074984E+00  0.1570559273598E+01
 0.4309870422421E+01 -0.1849514809443E+01  0.4920711299280E+00  0.1288059514003E+01
-0.1345578915154E+01 -0.5910109630407E+01 -0.1451137730736E+01  0.1211410584914E+01
-0.1073674643069E+01 -0.5986479502920E+01 -0.1412030850239E+01  0.1361382117332E+01
-0.7935216634492E+00 -0.6016424272338E+01 -0.1361989207453E+01  0.1412491799786E+01
-0.5682130947989E+00 -0.5975803153817E+01 -0.1308803269226E+01  0.1390592319308E+01
-0.4209480084405E+00 -0.5867282166224E+01 -0.1257646053673E+01  0.1331261491801E+01
-0.3469886783552E+00 -0.5706723832369E+01 -0.1210742520186E+01  0.1258220949830E+01
-0.3320326901359E+00 -0.5508852667484E+01 -0.1168177088931E+01  0.1181703488689E+01
-0.3616826434056E+00 -0.5281851232949E+01 -0.1128706792090E+01  0.1105237406282E+01
-0.4225811300025E+00 -0.5028336574941E+01 -0.1090183557234E+01  0.1031608683372E+01
-0.5000721538180E+00 -0.4748339350278E+01 -0.1049682316461E+01  0.9654216275640E+00
-0.5761865316277E+00 -0.4442994915626E+01 -0.1003836304409E+01  0.9124851775733E+00
-0.6297194749125E+00 -0.4117295176880E+01 -0.9494029445057E+00  0.8780983860818E+00
-0.6376989049557E+00 -0.3776827293558E+01 -0.8829052528590E+00  0.8688893742488E+00
-0.5746831523560E+00 -0.3425587525263E+01 -0.8000541474455E+00  0.8962214249886E+00
-0.4086971856061E+00 -0.3071603115225E+01 -0.6960600705383E+00  0.9741380163877E+00
-0.9757900813389E-01 -0.2732468629008E+01 -0.5660095358626E+00  0.1111439677039E+01
 0.4089774559503E+00 -0.2435569904219E+01 -0.4053184956935E+00  0.1298344012448E+01
 0.1154148886074E+01 -0.2209542916811E+01 -0.2110788092927E+00  0.1490647278482E+01
 0.2140784384855E+01 -0.2063054695431E+01  0.1554593811642E-01  0.1603262261202E+01
 0.3291140801532E+01 -0.1958252226995E+01  0.2665777188797E+00  0.1533474726975E+01
 0.4457415554756E+01 -0.1808196952190E+01  0.5298437284086E+00  0.1223000965171E+01
-0.1421763636520E+01 -0.6295090816597E+01 -0.1543370913621E+01  0.1247119684031E+01
-0.1109340195390E+01 -0.6379347850850E+01 -0.1497737631566E+01  0.1385589233641E+01
-0.7933722475441E+00 -0.6405317945626E+01 -0.1439738060088E+01  0.1409508502388E+01
-0.5475733309266E+00 -0.6348226242003E+01 -0.1379159935137E+01  0.1357798702236E+01
-0.3923090366781E+00 -0.6217847481037E+01 -0.1322031323243E+01  0.1275112812764E+01
-0.3161224878338E+00 -0.6036917523055E+01 -0.1270608021111E+01  0.1186270764692E+01
-0.3004759613240E+00 -0.5823212301747E+01 -0.1224737670864E+01  0.1098663944599E+01
-0.3299339879586E+00 -0.5584971788691E+01 -0.1182981172958E+01  0.1012786260302E+01
-0.3919014373041E+00 -0.5323452102870E+01 -0.1143070725068E+01  0.9296145085301E+00
-0.4728697002353E+00 -0.5036871076720E+01 -0.1101948171811E+01  0.8532012439979E+00
-0.5556790451087E+00 -0.4724700689635E+01 -0.1056075962686E+01  0.7893524958163E+00
-0.6199057508065E+00 -0.4390622086678E+01 -0.1002105582429E+01  0.7431055030935E+00
-0.6442126200761E+00 -0.4038253684929E+01 -0.9364932749558E+00  0.7208509850593E+00
-0.6055938715518E+00 -0.3668135638249E+01 -0.8547459146968E+00  0.7350320721223E+00
-0.4735301550726E+00 -0.3284261054310E+01 -0.7515582530757E+00  0.8032409679770E+00
-0.2029059376727E+00 -0.2901707451220E+01 -0.6209226870309E+00  0.9407628519248E+00
 0.2684244372781E+00 -0.2550115377117E+01 -0.4563381947678E+00  0.1145680435503E+01
 0.1007076324285E+01 -0.2268169618182E+01 -0.2522186625379E+00  0.1376701385548E+01
 0.2042114512281E+01 -0.2079431067786E+01 -0.7463311212156E-02  0.1535845809292E+01
 0.3307931768236E+01 -0.1951140482369E+01  0.2713582612169E+00  0.1488245315248E+01
 0.4603957639083E+01 -0.1777419491917E+01  0.5653076378569E+00  0.1141154429542E+01
-0.1497591002109E+01 -0.6698064307743E+01 -0.1639131086395E+01  0.1287896915342E+01
-0.1136406943452E+01 -0.6790939999804E+01 -0.1585469412277E+01  0.1411159358246E+01
-0.7808492047461E+00 -0.6809287074802E+01 -0.1518027278530E+01  0.1401477321502E+01
-0.5162493849655E+00 -0.6729653978200E+01 -0.1449180694227E+01  0.1316057918185E+01
-0.3564508774880E+00 -0.6572558631494E+01 -0.1385801922446E+01  0.1209836378770E+01
-0.2805848990656E+00 -0.6369070196711E+01 -0.1329931038973E+01  0.1107032638269E+01
-0.2653058381942E+00 -0.6139635412911E+01 -0.1280988269309E+01  0.1010551342304E+01
-0.2945540318451E+00 -0.5891841716850E+01 -0.1237279168176E+01  0.9170430881474E+00
-0.3570907334771E+00 -0.5625072249923E+01 -0.1196432614508E+01  0.8253676229291E+00
-0.4409937248859E+00 -0.5335369251045E+01 -0.1155272612401E+01  0.7389605561175E+00
-0.5300246227624E+00 -0.5020323812581E+01 -0.1110069703610E+01  0.6636151384867E+00
-0.6044680744402E+00 -0.4682260390701E+01 -0.1057345708784E+01  0.6038933263348E+00
-0.6448384703195E+00 -0.4322782240104E+01 -0.9935241568894E+00  0.5654408499985E+00
-0.6314524231919E+00 -0.3938629612270E+01 -0.9140164207124E+00  0.5611916989179E+00
-0.5369095613420E+00 -0.3528781503440E+01 -0.8131382250731E+00  0.6120255961658E+00
-0.3153273837455E+00 -0.3103815056135E+01 -0.6838284981660E+00  0.7406305943547E+00
 0.1064662798835E+00 -0.2693150862882E+01 -0.5173369243087E+00  0.9564631350701E+00
 0.8226905387468E+00 -0.2345546601316E+01 -0.3045712170524E+00  0.1227198926984E+01
 0.1903109505505E+01 -0.2104999080090E+01 -0.4037791551871E-01  0.1444925690529E+01
 0.3299649714047E+01 -0.1951836363646E+01  0.2695626740970E+00  0.1434365542334E+01
 0.4792247188666E+01 -0.1756330260106E+01  0.6071833947597E+00  0.1045585126776E+01
-0.1572642554879E+01 -0.7123556259046E+01 -0.1739239788702E+01  0.1334962958664E+01
-0.1152282125134E+01 -0.7225203298134E+01 -0.1675497109621E+01  0.1437440591275E+01
-0.7535209340797E+00 -0.7229859707371E+01 -0.1596676152082E+01  0.1385759970671E+01
-0.4735370043991E+00 -0.7119184972788E+01 -0.1518544418066E+01  0.1262687278037E+01
-0.3139429147910E+00 -0.6929482716532E+01 -0.1448685147852E+01  0.1133908910199E+01
-0.2413378872910E+00 -0.6701213327407E+01 -0.1388510263630E+01  0.1020107797193E+01
-0.2273984068207E+00 -0.6456378443468E+01 -0.1336755389977E+01  0.9177355558510E+00
-0.2561450118920E+00 -0.6200975220619E+01 -0.1291424065746E+01  0.8189194989255E+00
-0.3184039762542E+00 -0.5932058250239E+01 -0.1250092463926E+01  0.7201751224662E+00
-0.4043489618451E+00 -0.5643169951792E+01 -0.1209503800750E+01  0.6242797097139E+00
-0.4987537547913E+00 -0.5329792466028E+01 -0.1165709261534E+01  0.5370670767825E+00
-0.5823960098549E+00 -0.4992873538558E+01 -0.1115053926298E+01  0.4624537830896E+00
-0.6377243918729E+00 -0.4632070584964E+01 -0.1053959011073E+01  0.4047688259491E+00
-0.6492436821597E+00 -0.4240214601950E+01 -0.9778916713937E+00  0.3766471303813E+00
-0.5945726271617E+00 -0.3810584434550E+01 -0.8810314254706E+00  0.4015093462189E+00
-0.4302119383860E+00 -0.3347092998411E+01 -0.7554609986166E+00  0.5095130903129E+00
-0.7514990673354E-01 -0.2874922232663E+01 -0.5900144366713E+00  0.7247716022613E+00
 0.5957066732474E+00 -0.2450301425321E+01 -0.3709189559418E+00  0.1032358344781E+01
 0.1708249068666E+01 -0.2143864250666E+01 -0.8712303769817E-01  0.1322876754147E+01
 0.3262170383592E+01 -0.1959892130618E+01  0.2604556544758E+00  0.1369586717415E+01
 0.4987183792538E+01 -0.1748334414995E+01  0.6477698851612E+00  0.9491812438083E+00
-0.1646075951315E+01 -0.7577708407613E+01 -0.1844756899275E+01  0.1389609391914E+01
-0.1153135237262E+01 -0.7686808371875E+01 -0.1767988748172E+01  0.1462837357785E+01
-0.7084146279901E+00 -0.7667663889943E+01 -0.1675215728549E+01  0.1358217645066E+01
-0.4191364120526E+00 -0.7514174211504E+01 -0.1586662148354E+01  0.1194202155104E+01
-0.2659789911465E+00 -0.7285097567923E+01 -0.1510215334318E+01  0.1045756540235E+01
-0.1998326594419E+00 -0.7030075442742E+01 -0.1445981641984E+01  0.9253160703104E+00
-0.1880294628173E+00 -0.6770417004143E+01 -0.1391689314130E+01  0.8208539695074E+00
-0.2156929428676E+00 -0.6509466651425E+01 -0.1345031938901E+01  0.7196745614520E+00
-0.2764625670124E+00 -0.6241707251458E+01 -0.1303633983120E+01  0.6158355021791E+00
-0.3631785601793E+00 -0.5957949815911E+01 -0.1264225694057E+01  0.5113918957038E+00
-0.4617050109612E+00 -0.5651292839873E+01 -0.1222599588385E+01  0.4123275745671E+00
-0.5529177055630E+00 -0.5321257609965E+01 -0.1174835080612E+01  0.3218322273251E+00
-0.6210829914513E+00 -0.4965736317654E+01 -0.1117363878471E+01  0.2423546170433E+00
-0.6556073394515E+00 -0.4573898956982E+01 -0.1045901274872E+01  0.1853414952914E+00
-0.6409206219476E+00 -0.4133312509975E+01 -0.9548466406129E+00  0.1755302527439E+00
-0.5397952520294E+00 -0.3639576206011E+01 -0.8358743040636E+00  0.2492396813860E+00
-0.2695250362834E+00 -0.3108143327701E+01 -0.6755336828632E+00  0.4468193683945E+00
 0.3240364476534E+00 -0.2595769024746E+01 -0.4543465221888E+00  0.7811364880916E+00
 0.1443060939938E+01 -0.2202790018932E+01 -0.1519458180631E+00  0.1156826494317E+01
 0.3172583716958E+01 -0.1978422139952E+01  0.2388323189601E+00  0.1293522743744E+01
 0.5208647277165E+01 -0.1741334684925E+01  0.6934625287814E+00  0.8398776922497E+00
-0.1716458179807E+01 -0.8069444282566E+01 -0.1957180521639E+01  0.1453476594987E+01
-0.1133526091025E+01 -0.8182036521784E+01 -0.1863112550324E+01  0.1484253412685E+01
-0.6421972088441E+00 -0.8122700800105E+01 -0.1752979627911E+01  0.1312690956389E+01
-0.3535322749385E+00 -0.7910861975299E+01 -0.1652878874677E+01  0.1106351932672E+01
-0.2144369577194E+00 -0.7635685418526E+01 -0.1570024498644E+01  0.9438640112960E+00
-0.1578140663006E+00 -0.7352905242458E+01 -0.1502143884135E+01  0.8225208525304E+00
-0.1486079200175E+00 -0.7079452882547E+01 -0.1445612182054E+01  0.7203833063742E+00
-0.1742828689077E+00 -0.6815150248847E+01 -0.1397886644381E+01  0.6203267528554E+00
-0.2319376824854E+00 -0.6552106891542E+01 -0.1356808935024E+01  0.5139206657577E+00
-0.3177256789880E+00 -0.6278346355335E+01 -0.1319214426522E+01  0.4022979201078E+00
-0.4187309882993E+00 -0.5984190593956E+01 -0.1280584335533E+01  0.2917087026414E+00
-0.5153553529620E+00 -0.5667498017581E+01 -0.1236570692535E+01  0.1846636693455E+00
-0.5933502542016E+00 -0.5324581011145E+01 -0.1183586270706E+01  0.8126508445806E-01
-0.6475392224960E+00 -0.4941582068700E+01 -0.1117824274896E+01 -0.9051517172381E-02
-0.6705289823006E+00 -0.4501312784867E+01 -0.1034368368847E+01 -0.6168514581154E-01
-0.6351434418781E+00 -0.3990852871807E+01 -0.9251992765235E+00 -0.3703712448779E-01
-0.4664283432536E+00 -0.3410237137848E+01 -0.7753331077737E+00  0.1196296317892E+00
 0.8936555307030E-02 -0.2803390371896E+01 -0.5588907716460E+00  0.4585488775860E+00
 0.1086331363278E+01 -0.2296323473824E+01 -0.2419984257151E+00  0.9261223096522E+00
 0.3003760116491E+01 -0.2008862136056E+01  0.1989795990519E+00  0.1195601286797E+01
 0.5461509780567E+01 -0.1744516503724E+01  0.7433986664461E+00  0.7177622136889E+00
-0.1781249252596E+01 -0.8612251239588E+01 -0.2078700129412E+01  0.1528491417605E+01
-0.1085510474468E+01 -0.8718674413746E+01 -0.1960837006862E+01  0.1495631652954E+01
-0.5515333850365E+00 -0.8592437060835E+01 -0.1828794116425E+01  0.1240041207834E+01
-0.2786717932641E+00 -0.8302878169641E+01 -0.1716310018156E+01  0.9944600651136E+00
-0.1620774198436E+00 -0.7976634539936E+01 -0.1627742416211E+01  0.8272952236283E+00
-0.1173133087589E+00 -0.7666802554147E+01 -0.1556823195780E+01  0.7118881914050E+00
-0.1107411909687E+00 -0.7381019399559E+01 -0.1498352140433E+01  0.6168118547255E+00
-0.1332646828664E+00 -0.7115478332589E+01 -0.1449748624694E+01  0.5218768129642E+00
-0.1857594854436E+00 -0.6860802845517E+01 -0.1409312487193E+01  0.4161368002772E+00
-0.2684190385622E+00 -0.6602528574024E+01 -0.1374189542994E+01  0.2992965970394E+00
-0.3698258300340E+00 -0.6327613205911E+01 -0.1339487827149E+01  0.1778600082105E+00
-0.4691953713730E+00 -0.6031537941761E+01 -0.1300146682000E+01  0.5386369098447E-01
-0.5532151849135E+00 -0.5709017598587E+01 -0.1252446575363E+01 -0.7514958753957E-01
-0.6224213266675E+00 -0.5344240593960E+01 -0.1193332401908E+01 -0.2022645613830E+00
-0.6782310314040E+00 -0.4917444522315E+01 -0.1119135127420E+01 -0.3043201325912E+00
-0.7058982937480E+00 -0.4409450406174E+01 -0.1023069755229E+01 -0.3424833671001E+00
-0.6493109540017E+00 -0.3801869702831E+01 -0.8902361446321E+00 -0.2549189124103E+00
-0.3392613153463E+00 -0.3106589976161E+01 -0.6891702685708E+00  0.4896775534130E-01
 0.6156127486232E+00 -0.2452499260964E+01 -0.3673773079425E+00  0.5969673247269E+00
 0.2708901497165E+01 -0.2061885096006E+01  0.1294032821602E+00  0.1055453998902E+01
 0.5755043806826E+01 -0.1765822314357E+01  0.7978443103826E+00  0.5804342573436E+00
-0.1835906499134E+01 -0.9227788940244E+01 -0.2212739120848E+01  0.1616623103956E+01
-0.9974094373542E+00 -0.9305611945093E+01 -0.2060604307195E+01  0.1485030487310E+01
-0.4342068992624E+00 -0.9068757072324E+01 -0.1900592822638E+01  0.1127087672562E+01
-0.1990000306721E+00 -0.8680295242976E+01 -0.1775859081192E+01  0.8544797643217E+00
-0.1125173207322E+00 -0.8302917708646E+01 -0.1683087030955E+01  0.6963271401564E+00
-0.8043306186855E-01 -0.7969012759670E+01 -0.1609889188297E+01  0.5939223492793E+00
-0.7616824043170E-01 -0.7672609589315E+01 -0.1549755589043E+01  0.5105501206425E+00
-0.9429680666986E-01 -0.7407515516447E+01 -0.1500362486980E+01  0.4251735044023E+00
-0.1392233362523E+00 -0.7164595439171E+01 -0.1460763776852E+01  0.3242672608065E+00
-0.2159451170651E+00 -0.6927988199320E+01 -0.1428786684568E+01  0.2050832536593E+00
-0.3151136840590E+00 -0.6680468023647E+01 -0.1399116362390E+01  0.7390277428587E-01
-0.4140377879469E+00 -0.6413374316594E+01 -0.1365482441255E+01 -0.6738241195436E-01
-0.4996569510483E+00 -0.6119163546665E+01 -0.1323764119268E+01 -0.2234731538043E+00
-0.5782693912029E+00 -0.5781675396854E+01 -0.1271988976566E+01 -0.3897537261340E+00
-0.6598950078153E+00 -0.5382311350999E+01 -0.1208441289770E+01 -0.5452864638341E+00
-0.7419321086531E+00 -0.4900620218270E+01 -0.1128510482201E+01 -0.6560670009384E+00
-0.7950679300085E+00 -0.4303834307263E+01 -0.1019780462650E+01 -0.6656997822430E+00
-0.6925599805894E+00 -0.3554127843684E+01 -0.8493375775107E+00 -0.4577586714523E+00
 0.1462513450096E-01 -0.2728409425918E+01 -0.5427568663712E+00  0.1188551186884E+00
 0.2209499592687E+01 -0.2164092783053E+01  0.9081362062168E-02  0.8274366779767E+00
 0.6096013385301E+01 -0.1823773062897E+01  0.8544480772131E+00  0.4191736202295E+00
-0.1872273175556E+01 -0.9953698743338E+01 -0.2365194419023E+01  0.1718721886766E+01
-0.8520885445822E+00 -0.9949952711374E+01 -0.2160408283384E+01  0.1428318332582E+01
-0.2919647127509E+00 -0.9531680468948E+01 -0.1964729065616E+01  0.9562152680364E+00
-0.1227952656168E+00 -0.9029631843871E+01 -0.1830485449174E+01  0.6855781251728E+00
-0.6968660464747E-01 -0.8610292159054E+01 -0.1735995778609E+01  0.5529959220884E+00
-0.4902551997933E-01 -0.8257128771679E+01 -0.1661230883086E+01  0.4693449246896E+00
-0.4667495051964E-01 -0.7951903460087E+01 -0.1599715705959E+01  0.4018487284780E+00
-0.5937137857128E-01 -0.7688010708751E+01 -0.1549476440553E+01  0.3306658722416E+00
-0.9417454853115E-01 -0.7459221284523E+01 -0.1510679189122E+01  0.2400121396836E+00
-0.1613976005119E+00 -0.7251120676995E+01 -0.1482503677592E+01  0.1229114372591E+00
-0.2548165385693E+00 -0.7041466319924E+01 -0.1459256593443E+01 -0.1627644972251E-01
-0.3494363581019E+00 -0.6813469859273E+01 -0.1432581264822E+01 -0.1755810179468E+00
-0.4318823020933E+00 -0.6555121027983E+01 -0.1397400686838E+01 -0.3605661536313E+00
-0.5139998265111E+00 -0.6252290937764E+01 -0.1353258173020E+01 -0.5672153957240E+00
-0.6130335553539E+00 -0.5893536673912E+01 -0.1301314065244E+01 -0.7767731453530E+00
-0.7360981352301E+00 -0.5464266064753E+01 -0.1240072858475E+01 -0.9634059382071E+00
-0.8779409920334E+00 -0.4929575781055E+01 -0.1161503371925E+01 -0.1088210075327E+01
-0.9943573341726E+00 -0.4207788064732E+01 -0.1040429095284E+01 -0.1050779965862E+01
-0.7026891181213E+00 -0.3236469870547E+01 -0.7878318094733E+00 -0.5738694927504E+00
 0.1376878323925E+01 -0.2388823626569E+01 -0.2023890635446E+00  0.4098813544643E+00
 0.6471760525399E+01 -0.1965220983583E+01  0.9013079217938E+00  0.2002820212972E+00
-0.1876202290060E+01 -0.1086303931210E+02 -0.2547848358398E+01  0.1829582967722E+01
-0.6248984190461E+00 -0.1064372955183E+02 -0.2253725627758E+01  0.1274923307662E+01
-0.1374835660233E+00 -0.9937690867732E+01 -0.2015034916777E+01  0.7093668195997E+00
-0.6289916792436E-01 -0.9338589995635E+01 -0.1880297860730E+01  0.4951128971253E+00
-0.3615963892826E-01 -0.8896512516493E+01 -0.1786534457706E+01  0.4004163617832E+00
-0.2459258130189E-01 -0.8528963874466E+01 -0.1710711316645E+01  0.3390184637994E+00
-0.2391819766133E-01 -0.8217265426265E+01 -0.1648236749346E+01  0.2907930077009E+00
-0.3075539551859E-01 -0.7953614632115E+01 -0.1596874029322E+01  0.2379701186995E+00
-0.5333008890009E-01 -0.7738939393868E+01 -0.1558453919776E+01  0.1645902312400E+00
-0.1066091966560E+00 -0.7566321733909E+01 -0.1534586208980E+01  0.5681400719505E-01
-0.1891945380748E+00 -0.7409093584300E+01 -0.1519657647120E+01 -0.8736926646141E-01
-0.2745659073441E+00 -0.7233638899402E+01 -0.1501640983725E+01 -0.2668132351668E+00
-0.3490450686431E+00 -0.7017444793170E+01 -0.1473297994316E+01 -0.4840644124275E+00
-0.4297618000033E+00 -0.6753055037933E+01 -0.1436563388994E+01 -0.7314532031917E+00
-0.5373516501053E+00 -0.6444778805902E+01 -0.1396426112010E+01 -0.9908291289429E+00
-0.6857595006336E+00 -0.6094120717490E+01 -0.1355976063830E+01 -0.1248666192463E+01
-0.8822994933798E+00 -0.5676193827954E+01 -0.1311698683813E+01 -0.1486695837928E+01
-0.1156150042896E+01 -0.5117652641585E+01 -0.1254760555594E+01 -0.1670237792347E+01
-0.1428462660081E+01 -0.4180251841882E+01 -0.1121742917108E+01 -0.1529735179793E+01
 0.1954861680931E-01 -0.2951570043999E+01 -0.5864042941761E+00 -0.4170766168589E+00
 0.6794184886379E+01 -0.2319096701969E+01  0.8950176502187E+00 -0.2054329782779E+00
-0.1828816720800E+01 -0.1212406223770E+02 -0.2790575833283E+01  0.1914771076188E+01
-0.2815701996002E+00 -0.1130039215139E+02 -0.2316392504714E+01  0.9150134600981E+00
-0.1229598406436E-01 -0.1021188123157E+02 -0.2044835473596E+01  0.3921181149974E+00
-0.3170908819625E-01 -0.9613543839392E+01 -0.1929050614263E+01  0.3021531049278E+00
-0.1055056471172E-01 -0.9156583139441E+01 -0.1833426768151E+01  0.2391154834425E+00
-0.9391853843082E-02 -0.8784341940840E+01 -0.1758746785144E+01  0.2052474622313E+00
-0.8573130224304E-02 -0.8467688551698E+01 -0.1695252361646E+01  0.1769124994261E+00
-0.1092804532901E-01 -0.8201727353208E+01 -0.1642531104183E+01  0.1454976453837E+00
-0.2069669737713E-01 -0.7996204166036E+01 -0.1603380196575E+01  0.9768023024773E-01
-0.5493783789341E-01 -0.7863940775978E+01 -0.1583775746374E+01  0.1179426067551E-01
-0.1185134083255E+00 -0.7781322327694E+01 -0.1579967170747E+01 -0.1311609188379E+00
-0.1873855338541E+00 -0.7678998251845E+01 -0.1573276780584E+01 -0.3363867349292E+00
-0.2500498379602E+00 -0.7508009175146E+01 -0.1551611825742E+01 -0.5935144283216E+00
-0.3264112717036E+00 -0.7278847140791E+01 -0.1521051705164E+01 -0.8809548969765E+00
-0.4372727546325E+00 -0.7026362573498E+01 -0.1492727087870E+01 -0.1181508759353E+01
-0.5894790472436E+00 -0.6773834784023E+01 -0.1472662788198E+01 -0.1493375985034E+01
-0.8167363110440E+00 -0.6528729002354E+01 -0.1469093084571E+01 -0.1829160135485E+01
-0.1109982717712E+01 -0.6261662028635E+01 -0.1474328971239E+01 -0.2191886001308E+01
-0.1822680331911E+01 -0.5820750367302E+01 -0.1528686162622E+01 -0.2638328074001E+01
-0.2019859965717E+01 -0.4508596228120E+01 -0.1305691258224E+01 -0.2072729980242E+01
 0.6656287407988E+01 -0.3329215979658E+01  0.6654142955815E+00 -0.1319347348255E+01
-0.1764789032546E+01 -0.1425715205493E+02 -0.3204388265244E+01  0.1771083651906E+01
 0.2384103255448E+00 -0.1137100552351E+02 -0.2226519072771E+01  0.1200120823570E+00
-0.5063002184208E-01 -0.1042532821933E+02 -0.2095191679455E+01  0.1418211132722E+00
 0.6398984626447E-02 -0.9837834840066E+01 -0.1966287200388E+01  0.9339051347520E-01
-0.4048194555532E-02 -0.9393422367466E+01 -0.1879494140411E+01  0.7888606568953E-01
-0.1068593500084E-02 -0.9023043678855E+01 -0.1804822481365E+01  0.6850591370285E-01
-0.1500446590041E-02 -0.8703387235630E+01 -0.1740977562387E+01  0.6013056120285E-01
-0.1319924048361E-02 -0.8431651521015E+01 -0.1686594314145E+01  0.5023958947901E-01
-0.2213301730282E-02 -0.8223062144671E+01 -0.1645055113794E+01  0.3502788419648E-01
-0.1311409962385E-01 -0.8125257448258E+01 -0.1627674333831E+01 -0.6779855951713E-02
-0.4308577248507E-01 -0.8154099594556E+01 -0.1639437097838E+01 -0.1327699876369E+00
-0.8300913563254E-01 -0.8163163077275E+01 -0.1649234467157E+01 -0.3781841966219E+00
-0.1325216120202E+00 -0.8030693108480E+01 -0.1632642968428E+01 -0.6927514974199E+00
-0.2074565406907E+00 -0.7821284637943E+01 -0.1605748259654E+01 -0.1017045477724E+01
-0.3163339604687E+00 -0.7624826001477E+01 -0.1588232016056E+01 -0.1343934346682E+01
-0.4670729601968E+00 -0.7481821926052E+01 -0.1589779000939E+01 -0.1686487048798E+01
-0.6568553329220E+00 -0.7440693164315E+01 -0.1619509723580E+01 -0.2068940131463E+01
-0.1001811595574E+01 -0.7591961206496E+01 -0.1718754586026E+01 -0.2549939915564E+01
-0.1281340359563E+01 -0.8035301063929E+01 -0.1863328312464E+01 -0.3306674181465E+01
-0.4017460353339E+01 -0.8700350902486E+01 -0.2543562289067E+01 -0.4790351790179E+01
 0.4698225126962E+01 -0.7486214003872E+01 -0.5575977836908E+00 -0.5810593180421E+01
-0.1830897135343E+01 -0.2675100003845E+01 -0.2117818650047E+01  0.2425042705704E+00
-0.1133445047803E+01 -0.2864694506245E+01 -0.1879125585637E+01  0.4635349196806E+00
-0.6390493265422E+00 -0.2996793990641E+01 -0.1708846354742E+01  0.6172606118252E+00
-0.2829867686653E+00 -0.3112927554925E+01 -0.1596079728039E+01  0.7356132714265E+00
-0.2924695824674E-01 -0.3234303042285E+01 -0.1533868496359E+01  0.8348231647652E+00
 0.1377471480123E+00 -0.3379205528701E+01 -0.1523485435060E+01  0.9264885998622E+00
 0.2385961811490E+00 -0.3552902153103E+01 -0.1557723802867E+01  0.1015845826961E+01
 0.2724912915604E+00 -0.3768035186238E+01 -0.1642905626332E+01  0.1115867655692E+01
 0.1830700848567E+00 -0.4050826395213E+01 -0.1817845461257E+01  0.1244159128514E+01
-0.1057206602734E+00 -0.4401778315521E+01 -0.2118524513250E+01  0.1392811852210E+01
-0.1878927822965E+01 -0.2673118882172E+01 -0.2139461945988E+01  0.3582715852936E+00
-0.1172009128395E+01 -0.2875824171886E+01 -0.1902481646307E+01  0.5388605231848E+00
-0.6696000296827E+00 -0.3014060198413E+01 -0.1731320302814E+01  0.6765609132034E+00
-0.3107178758514E+00 -0.3130187007083E+01 -0.1617225290877E+01  0.7921874191954E+00
-0.6027202229849E-01 -0.3248561811149E+01 -0.1555151897776E+01  0.8973525367947E+00
 0.1033107894722E+00 -0.3383596583271E+01 -0.1541734319175E+01  0.1000587631472E+01
 0.1930099602236E+00 -0.3548807383854E+01 -0.1577224785106E+01  0.1108228370133E+01
 0.2010015749439E+00 -0.3757488042754E+01 -0.1671548635631E+01  0.1234760442688E+01
 0.8651941794687E-01 -0.4014707646390E+01 -0.1846248462685E+01  0.1391612576461E+01
-0.2160479568242E+00 -0.4320211099671E+01 -0.2132041751145E+01  0.1558824909177E+01
-0.1911483020078E+01 -0.2664395669129E+01 -0.2150662978472E+01  0.4731327018587E+00
-0.1201286485322E+01 -0.2871755947490E+01 -0.1914329938566E+01  0.6142386571317E+00
-0.6980675016604E+00 -0.3012644125306E+01 -0.1744034460250E+01  0.7345577168401E+00
-0.3413718579532E+00 -0.3126814285463E+01 -0.1630047483271E+01  0.8460132803937E+00
-0.9584844501202E-01 -0.3238325806189E+01 -0.1567061894090E+01  0.9555324939103E+00
 0.5926872739091E-01 -0.3362837045878E+01 -0.1552677105751E+01  0.1069520778163E+01
 0.1338724675610E+00 -0.3513192933658E+01 -0.1588280615037E+01  0.1194507618853E+01
 0.1202438466657E+00 -0.3697303798807E+01 -0.1681218173242E+01  0.1342375354281E+01
-0.1431098746425E-01 -0.3914275161691E+01 -0.1846435485420E+01  0.1518396913567E+01
-0.3086111806939E+00 -0.4154963546328E+01 -0.2097880116379E+01  0.1697576319571E+01
-0.1926602280523E+01 -0.2645823148770E+01 -0.2149039946317E+01  0.5856608730623E+00
-0.1222495217603E+01 -0.2853763991949E+01 -0.1915841823630E+01  0.6880123066769E+00
-0.7244554477068E+00 -0.2993660904842E+01 -0.1747514681266E+01  0.7902559595155E+00
-0.3739962198660E+00 -0.3103319279915E+01 -0.1634338280752E+01  0.8961033128112E+00
-0.1365908173220E+00 -0.3205859174138E+01 -0.1570951492002E+01  0.1008297792429E+01
 0.7357051638351E-02 -0.3316202297229E+01 -0.1555157261483E+01  0.1131017302256E+01
 0.6620236808798E-01 -0.3444504461429E+01 -0.1587801979843E+01  0.1269556894861E+01
 0.3336795634380E-01 -0.3594378805506E+01 -0.1673675094861E+01  0.1432173450091E+01
-0.1141646521320E+00 -0.3760160498158E+01 -0.1820932816018E+01  0.1618824010738E+01
-0.4014520653598E+00 -0.3934070941613E+01 -0.2037695808109E+01  0.1803614579854E+01
-0.1924534904197E+01 -0.2617305185030E+01 -0.2134664836522E+01  0.6946971855330E+00
-0.1235720860396E+01 -0.2822106607219E+01 -0.1907178904942E+01  0.7591450588201E+00
-0.7486704056874E+00 -0.2958255756811E+01 -0.1742255291955E+01  0.8427660089168E+00
-0.4081457411342E+00 -0.3061189445239E+01 -0.1630587533460E+01  0.9416178114168E+00
-0.1813710563597E+00 -0.3152398493676E+01 -0.1566871684543E+01  0.1054387283803E+01
-0.5000944665244E-01 -0.3244962299334E+01 -0.1548636716686E+01  0.1182739975123E+01
-0.6555085040533E-02 -0.3346058808987E+01 -0.1575728526196E+01  0.1329916957715E+01
-0.5541648005089E-01 -0.3455622757842E+01 -0.1650188437624E+01  0.1500396250920E+01
-0.2123887393916E+00 -0.3566026250474E+01 -0.1775855040733E+01  0.1690262356166E+01
-0.4908965175071E+00 -0.3668902061449E+01 -0.1955105327150E+01  0.1874110243651E+01
-0.1905852914970E+01 -0.2579251195108E+01 -0.2107998926390E+01  0.7991368654583E+00
-0.1241117379646E+01 -0.2777551867830E+01 -0.1888774541523E+01  0.8268591559012E+00
-0.7704053959984E+00 -0.2907679632668E+01 -0.1728699959089E+01  0.8914309008154E+00
-0.4430066126477E+00 -0.3002014273371E+01 -0.1619159812322E+01  0.9818091779487E+00
-0.2286318618411E+00 -0.3079804584819E+01 -0.1554965125986E+01  0.1092685566528E+01
-0.1103645141492E+00 -0.3151878456839E+01 -0.1533254192475E+01  0.1222998288825E+01
-0.8108903658339E-01 -0.3222604697821E+01 -0.1552736051232E+01  0.1373529293699E+01
-0.1431378049461E+00 -0.3289276418692E+01 -0.1613234681018E+01  0.1545240345887E+01
-0.3060949108634E+00 -0.3342624161234E+01 -0.1714897959536E+01  0.1731277248979E+01
-0.5744413889514E+00 -0.3373233704824E+01 -0.1855407289368E+01  0.1907285445277E+01
-0.1871436753127E+01 -0.2532441374008E+01 -0.2069822714503E+01  0.8979657956652E+00
-0.1238831466530E+01 -0.2721207193853E+01 -0.1861218165660E+01  0.8905551491367E+00
-0.7892019002220E+00 -0.2843418637527E+01 -0.1707331648412E+01  0.9357729551626E+00
-0.4775336379631E+00 -0.2927659874798E+01 -0.1600440946938E+01  0.1016122260886E+01
-0.2766727899872E+00 -0.2990520476784E+01 -0.1535580831488E+01  0.1122436970886E+01
-0.1712810844840E+00 -0.3040500035737E+01 -0.1509537122675E+01  0.1250849867314E+01
-0.1545068113071E+00 -0.3079636319644E+01 -0.1520047267691E+01  0.1399554029763E+01
-0.2267200532069E+00 -0.3103237252453E+01 -0.1565079929691E+01  0.1566290840904E+01
-0.3924133124900E+00 -0.3100688074320E+01 -0.1641757647636E+01  0.1741805939148E+01
-0.6487425121580E+00 -0.3060754168535E+01 -0.1743463435504E+01  0.1902751717666E+01
-0.1822417063474E+01 -0.2477908262836E+01 -0.2021152898239E+01  0.9902867592568E+00
-0.1229013869272E+01 -0.2654463462094E+01 -0.1825234341113E+01  0.9497767898378E+00
-0.8045036941052E+00 -0.2767206779883E+01 -0.1678703918517E+01  0.9754827561218E+00
-0.5105864625817E+00 -0.2840282385819E+01 -0.1574908354754E+01  0.1044245818415E+01
-0.3237902431785E+00 -0.2887365819988E+01 -0.1509243345860E+01  0.1143308939824E+01
-0.2305323503326E+00 -0.2914756737300E+01 -0.1478285867438E+01  0.1266065380560E+01
-0.2241728452204E+00 -0.2922670855278E+01 -0.1479016535483E+01  0.1408153823452E+01
-0.3033214861670E+00 -0.2905082634281E+01 -0.1507949932786E+01  0.1564369803111E+01
-0.4682827289952E+00 -0.2850374109447E+01 -0.1559768710112E+01  0.1723268820690E+01
-0.7101949736389E+00 -0.2745306492651E+01 -0.1624085685037E+01  0.1862033877532E+01
-0.1760136432610E+01 -0.2416869064541E+01 -0.1963192578682E+01  0.1075343033574E+01
-0.1211836222446E+01 -0.2578938091092E+01 -0.1781663922844E+01  0.1004195343058E+01
-0.8157204381357E+00 -0.2680993252127E+01 -0.1643455430255E+01  0.1010411406824E+01
-0.5410222369406E+00 -0.2742248287828E+01 -0.1543137142727E+01  0.1066119673463E+01
-0.3683903420332E+00 -0.2773350849589E+01 -0.1476618356317E+01  0.1155376239917E+01
-0.2861468234645E+00 -0.2778620398274E+01 -0.1440440590564E+01  0.1269027921795E+01
-0.2878427108158E+00 -0.2756973077131E+01 -0.1431063416705E+01  0.1400321438188E+01
-0.3704621641850E+00 -0.2701705842218E+01 -0.1443918959347E+01  0.1541389812664E+01
-0.5308326873535E+00 -0.2600874950176E+01 -0.1471902585906E+01  0.1678651370225E+01
-0.7551934729543E+00 -0.2439921593635E+01 -0.1501704077488E+01  0.1789125212580E+01
-0.1686112319235E+01 -0.2350673105146E+01 -0.1897289144647E+01  0.1152535903116E+01
-0.1187511361306E+01 -0.2496416258505E+01 -0.1731445976920E+01  0.1053598333933E+01
-0.8222801658011E+00 -0.2586878000375E+01 -0.1602304334039E+01  0.1040554937718E+01
-0.5677675619806E+00 -0.2636034883744E+01 -0.1505787145671E+01  0.1081911669181E+01
-0.4090556767792E+00 -0.2651507310320E+01 -0.1438464600288E+01  0.1159064010040E+01
-0.3364829600279E+00 -0.2635902041966E+01 -0.1397020947394E+01  0.1260615168042E+01
-0.3437708386822E+00 -0.2587338102538E+01 -0.1377621198879E+01  0.1377696615388E+01
-0.4263283290456E+00 -0.2499093260504E+01 -0.1374948143601E+01  0.1500142074642E+01
-0.5779311632778E+00 -0.2359818030739E+01 -0.1380742117686E+01  0.1612388059695E+01
-0.7811994036681E+00 -0.2155473844589E+01 -0.1380236423180E+01  0.1690834835143E+01
-0.1601996935289E+01 -0.2280754646220E+01 -0.1824893238681E+01  0.1221434823589E+01
-0.1156309599983E+01 -0.2408788499562E+01 -0.1675596102536E+01  0.1097876755214E+01
-0.8236715402605E+00 -0.2487037883241E+01 -0.1556033425099E+01  0.1066030046816E+01
-0.5898681481732E+00 -0.2524129946615E+01 -0.1463579100838E+01  0.1091976276588E+01
-0.4445930274321E+00 -0.2524758202989E+01 -0.1395595074758E+01  0.1155073485861E+01
-0.3802739607551E+00 -0.2490104928804E+01 -0.1349078074671E+01  0.1242073828483E+01
-0.3907948525025E+00 -0.2417953559286E+01 -0.1320111750192E+01  0.1342373307297E+01
-0.4700352370744E+00 -0.2302178966043E+01 -0.1302940672161E+01  0.1443992304706E+01
-0.6090046420568E+00 -0.2132932560327E+01 -0.1288710481852E+01  0.1529866582274E+01
-0.7880193496828E+00 -0.1898889333078E+01 -0.1262847077694E+01  0.1576142044891E+01
-0.1509533919355E+01 -0.2208589421577E+01 -0.1747517965806E+01  0.1281780067496E+01
-0.1118569288887E+01 -0.2317989664306E+01 -0.1615182703904E+01  0.1137009605639E+01
-0.8194749112398E+00 -0.2383654201243E+01 -0.1505470679048E+01  0.1087043416129E+01
-0.6065228330076E+00 -0.2408943700864E+01 -0.1417269267325E+01  0.1096803646844E+01
-0.4740589799371E+00 -0.2395815294724E+01 -0.1348840905670E+01  0.1144300681720E+01
-0.4166413579214E+00 -0.2344320595235E+01 -0.1297652114692E+01  0.1214893763675E+01
-0.4283480513504E+00 -0.2252307699084E+01 -0.1259908199509E+01  0.1296702716684E+01
-0.5016530325823E+00 -0.2114747522101E+01 -0.1229708257582E+01  0.1376519906197E+01
-0.6252755573618E+00 -0.1923995173203E+01 -0.1198157240326E+01  0.1436493167514E+01
-0.7778650939806E+00 -0.1672479625391E+01 -0.1151662015184E+01  0.1453411022650E+01
-0.1410513639727E+01 -0.2135656508164E+01 -0.1666699965281E+01  0.1333478648524E+01
-0.1074700675988E+01 -0.2225943782954E+01 -0.1551302891768E+01  0.1171046385563E+01
-0.8093833535773E+00 -0.2278849245099E+01 -0.1451469317696E+01  0.1103857283853E+01
-0.6171034757334E+00 -0.2292735767300E+01 -0.1367624440757E+01  0.1096964065048E+01
-0.4967656139433E+00 -0.2267100165479E+01 -0.1299016913033E+01  0.1127753766740E+01
-0.4450742081733E+00 -0.2201156296055E+01 -0.1243728333833E+01  0.1180686594448E+01
-0.4563832952644E+00 -0.2093133511103E+01 -0.1198272895954E+01  0.1243105472395E+01
-0.5219911507579E+00 -0.1939416716825E+01 -0.1156861694830E+01  0.1301184205239E+01
-0.6289001521948E+00 -0.1734834309972E+01 -0.1110955194401E+01  0.1336975400726E+01
-0.7544417414305E+00 -0.1475677974694E+01 -0.1048156263920E+01  0.1328724558762E+01
-0.1306728983313E+01 -0.2063407092118E+01 -0.1583963951435E+01  0.1376594857166E+01
-0.1025183252440E+01 -0.2134519147729E+01 -0.1485060124313E+01  0.1200088843809E+01
-0.7932138570833E+00 -0.2174636282655E+01 -0.1394889562139E+01  0.1116753473604E+01
-0.6211640264093E+00 -0.2177560575024E+01 -0.1315400559337E+01  0.1093050365942E+01
-0.5122684460651E+00 -0.2140684232357E+01 -0.1246887755696E+01  0.1106472243674E+01
-0.4653763085943E+00 -0.2062686685638E+01 -0.1188189604275E+01  0.1141075395104E+01
-0.4752413490755E+00 -0.1942403312077E+01 -0.1136292987859E+01  0.1183912921277E+01
-0.5322650248016E+00 -0.1777719178335E+01 -0.1085692572721E+01  0.1221090176846E+01
-0.6222918655208E+00 -0.1565766775891E+01 -0.1028387558855E+01  0.1235130314059E+01
-0.7217023554315E+00 -0.1306430570120E+01 -0.9532224725916E+00  0.1206442018604E+01
-0.1199933747085E+01 -0.1993241237864E+01 -0.1500792239119E+01  0.1411337013693E+01
-0.9705544323242E+00 -0.2045493550493E+01 -0.1417542548329E+01  0.1224274057914E+01
-0.7709114569661E+00 -0.2072889922730E+01 -0.1336586645067E+01  0.1125998032709E+01
-0.6184391473232E+00 -0.2065232497961E+01 -0.1261325670084E+01  0.1085619428605E+01
-0.5203479085850E+00 -0.2018251897134E+01 -0.1193141905662E+01  0.1081448146013E+01
-0.4775897799192E+00 -0.1930415673798E+01 -0.1131762560377E+01  0.1097602671467E+01
-0.4854977268831E+00 -0.1801365378621E+01 -0.1074825656861E+01  0.1121261078127E+01
-0.5338391253449E+00 -0.1630321322789E+01 -0.1017155408043E+01  0.1138876675270E+01
-0.6078661864921E+00 -0.1416181526836E+01 -0.9513024228512E+00  0.1133853288773E+01
-0.6833182213002E+00 -0.1161862440574E+01 -0.8672349088814E+00  0.1089420078617E+01
-0.1091799430133E+01 -0.1926486159274E+01 -0.1418594223423E+01  0.1438042774901E+01
-0.9113953142958E+00 -0.1960535676722E+01 -0.1349807562355E+01  0.1243761084626E+01
-0.7425335646992E+00 -0.1975326974011E+01 -0.1277394449954E+01  0.1131810934936E+01
-0.6088522165007E+00 -0.1957338413629E+01 -0.1206109593102E+01  0.1075132709927E+01
-0.5209774329100E+00 -0.1901071961929E+01 -0.1138363212687E+01  0.1053545855728E+01
-0.4819426383055E+00 -0.1805263569696E+01 -0.1074986915034E+01  0.1051654232296E+01
-0.4877878028107E+00 -0.1670541499895E+01 -0.1014414769699E+01  0.1057055031049E+01
-0.5280604050987E+00 -0.1497306326324E+01 -0.9519223613541E+00  0.1056731867805E+01
-0.5878547499512E+00 -0.1285048444521E+01 -0.8802644991694E+00  0.1035178329741E+01
-0.6424891315586E+00 -0.1038850746654E+01 -0.7902297407556E+00  0.9792049627419E+00
-0.9838799309546E+00 -0.1864380617766E+01 -0.1338682454503E+01  0.1457163688583E+01
-0.8482917952762E+00 -0.1881176905031E+01 -0.1282850285890E+01  0.1258727175322E+01
-0.7082551266871E+00 -0.1883542881280E+01 -0.1218145060655E+01  0.1134342821102E+01
-0.5924507596024E+00 -0.1855220168908E+01 -0.1150405333482E+01  0.1061906869270E+01
-0.5144093841527E+00 -0.1790134507774E+01 -0.1083135626458E+01  0.1023405444149E+01
-0.4787239413751E+00 -0.1687426888702E+01 -0.1018090887554E+01  0.1004379161211E+01
-0.4827770343703E+00 -0.1549762379315E+01 -0.9552935220090E+00  0.9929869161108E+00
-0.5159165968630E+00 -0.1378155615629E+01 -0.8902139376134E+00  0.9765530033834E+00
-0.5642988366681E+00 -0.1171639171373E+01 -0.8158908617101E+00  0.9404439455273E+00
-0.6018964054566E+00 -0.9346875133916E+00 -0.7221944400269E+00  0.8760649552318E+00
-0.8774500903606E+00 -0.1807908310887E+01 -0.1262118445385E+01  0.1469272351159E+01
-0.7818954326243E+00 -0.1808919546563E+01 -0.1217683037129E+01  0.1269387504789E+01
-0.6682679834226E+00 -0.1798978504135E+01 -0.1159605846211E+01  0.1133660693052E+01
-0.5694730952403E+00 -0.1760123847445E+01 -0.1094910560285E+01  0.1046065398453E+01
-0.5008886251640E+00 -0.1685981727103E+01 -0.1027829062958E+01  0.9913897203058E+00
-0.4689584220165E+00 -0.1577120544821E+01 -0.9616571119744E+00  0.9564851773926E+00
-0.4703856588179E+00 -0.1437028772590E+01 -0.8964847804878E+00  0.9305509738958E+00
-0.4983370389446E+00 -0.1272168932081E+01 -0.8321378042712E+00  0.9003067217359E+00
-0.5382475220676E+00 -0.1075434461111E+01 -0.7584305301705E+00  0.8507589134319E+00
-0.5647850113495E+00 -0.8491477588020E+00 -0.6645484002857E+00  0.7792553123431E+00
-0.7737874227083E+00 -0.1758034558543E+01 -0.1189956328170E+01  0.1475014709041E+01
-0.7122773827869E+00 -0.1744539654480E+01 -0.1154704004587E+01  0.1276115443465E+01
-0.6234593258152E+00 -0.1723922868754E+01 -0.1103269628649E+01  0.1129751766480E+01
-0.5398463820581E+00 -0.1672726745182E+01 -0.1039909367165E+01  0.1027409023147E+01
-0.4808619964069E+00 -0.1588929412826E+01 -0.9728019598720E+00  0.9575926875344E+00
-0.4532329987227E+00 -0.1473883152646E+01 -0.9057445888458E+00  0.9082848790134E+00
-0.4540500426642E+00 -0.1332654140645E+01 -0.8397509640254E+00  0.8701529276203E+00
-0.4700323983322E+00 -0.1169984147377E+01 -0.7708077745283E+00  0.8307917461322E+00
-0.5135220011439E+00 -0.1001589607386E+01 -0.7121024542030E+00  0.7685428001978E+00
-0.5340655489572E+00 -0.7851634365391E+00 -0.6200376216106E+00  0.6870070396990E+00
-0.6671468585948E+00 -0.1707608235776E+01 -0.1116134891523E+01  0.1476287117724E+01
-0.6445147564133E+00 -0.1695362249954E+01 -0.1099742190203E+01  0.1280139387442E+01
-0.5721646589517E+00 -0.1658380820157E+01 -0.1048356372522E+01  0.1122009241347E+01
-0.5042428159600E+00 -0.1594152661197E+01 -0.9862458717621E+00  0.1005461319562E+01
-0.4546723756181E+00 -0.1498768946691E+01 -0.9181174191565E+00  0.9217474175114E+00
-0.4320494968716E+00 -0.1376775771188E+01 -0.8501478738317E+00  0.8599520352955E+00
-0.4343873605189E+00 -0.1235394728306E+01 -0.7847975797570E+00  0.8115408250607E+00
-0.4460420747562E+00 -0.1078182293476E+01 -0.7163854512522E+00  0.7666394310272E+00
-0.4504980555646E+00 -0.9022696592063E+00 -0.6358008243297E+00  0.7044385139420E+00
-0.5521070493977E+00 -0.8026481475553E+00 -0.6367349409529E+00  0.6032557939748E+00
-0.2113090095962E+01 -0.3592051607984E+01 -0.2681416594054E+01 -0.2623179455907E+00
-0.4469779095578E-01 -0.7597841709816E+00 -0.3781065211516E+00  0.4206559870462E+00
-0.2616069977736E-01 -0.4228817742432E+00 -0.2110499622544E+00  0.2629339179448E+00
 0.7210451318031E-02 -0.3245738230282E+00 -0.1491607843254E+00  0.1287075237513E+00
 0.8692655125317E-02 -0.2263609124273E+00 -0.1023040806725E+00  0.3829975266759E-01
 0.2685820147980E-01 -0.8298689268775E-01 -0.2638048480083E-01 -0.2691549201185E-01
 0.1366060749094E+00  0.9314258244638E-01  0.1079818686833E+00 -0.6284631543290E-01
 0.1070063016152E+00 -0.5121862088712E-01  0.2622020987568E-01 -0.8872864991271E-01
-0.6459731489295E+00 -0.1445559030332E+01 -0.9830201217595E+00  0.5645999647086E-01
-0.2245537288182E+01 -0.3598634037092E+01 -0.2746760515912E+01  0.2086437771096E+00
-0.1188419187902E+01 -0.2794251638980E+01 -0.1871855283887E+01 -0.4202765568356E+00
-0.4059279668499E+00 -0.1759672100011E+01 -0.1017832028843E+01  0.2765299521190E+00
-0.3211435376967E-01 -0.9700593057456E+00 -0.4710216187775E+00  0.3257426877689E+00
 0.4246698258109E-01 -0.7620633583699E+00 -0.3382102957629E+00  0.2036254657038E+00
 0.6521620053117E-01 -0.6644799022610E+00 -0.2816539390986E+00  0.6517790677713E-01
 0.8996716939500E-01 -0.5766107238632E+00 -0.2287224700199E+00 -0.7378908145707E-01
 0.1070312838878E+00 -0.5841287049585E+00 -0.2242357873345E+00 -0.1915182966050E+00
-0.3935943972401E-01 -0.9985826384062E+00 -0.4878327754839E+00 -0.2561366973192E+00
-0.5844362119272E+00 -0.2316534773887E+01 -0.1363456359874E+01 -0.1038802484367E+00
-0.1806049162685E+01 -0.4217491261429E+01 -0.2831063992153E+01  0.1192703867853E+00
-0.1071511166711E+01 -0.2607922003142E+01 -0.1729333585445E+01 -0.4435220700176E+00
-0.4060282925264E+00 -0.2035785793642E+01 -0.1147652617588E+01  0.1580467963702E+00
-0.9880064922167E-01 -0.1530157636328E+01 -0.7656103922664E+00  0.3026122353463E+00
 0.7566677965974E-01 -0.1238744734943E+01 -0.5466466375966E+00  0.2474448138592E+00
 0.1370113540636E+00 -0.1139913249040E+01 -0.4713638894433E+00  0.1097122900053E+00
 0.1660636472126E+00 -0.1125462358288E+01 -0.4509173930619E+00 -0.5483678039914E-01
 0.1314025716721E+00 -0.1272627217871E+01 -0.5363755823531E+00 -0.2038605544301E+00
-0.3686779192343E-01 -0.1796407439363E+01 -0.8616393565191E+00 -0.2745613203306E+00
-0.4644530545458E+00 -0.3028927114121E+01 -0.1641888675109E+01 -0.1169826037402E+00
-0.1377303322609E+01 -0.4622811025654E+01 -0.2820053736531E+01  0.1616421269558E+00
-0.1099094093584E+01 -0.2547119406572E+01 -0.1713720340727E+01 -0.4185486265865E+00
-0.4546125263138E+00 -0.2226946703194E+01 -0.1260332834672E+01  0.1013142212743E+00
-0.1213613047732E+00 -0.1904791843036E+01 -0.9522919770550E+00  0.2773089394834E+00
 0.8291265736104E-01 -0.1694900388916E+01 -0.7576342319091E+00  0.2722022275387E+00
 0.1949611567108E+00 -0.1618102790323E+01 -0.6688765661011E+00  0.1672748401077E+00
 0.2384040146313E+00 -0.1667402660714E+01 -0.6716293619552E+00  0.1686012804188E-01
 0.1903801282063E+00 -0.1900145026823E+01 -0.8035895003116E+00 -0.1293529747716E+00
 0.2961902952864E-01 -0.2465427915651E+01 -0.1144830173574E+01 -0.1872525802596E+00
-0.3008093081366E+00 -0.3561708081532E+01 -0.1815383168540E+01 -0.2275321341092E-01
-0.1010660065945E+01 -0.4881546561095E+01 -0.2769337107685E+01  0.2836553509164E+00
-0.1183327431216E+01 -0.2541833599052E+01 -0.1750825679785E+01 -0.3645014950247E+00
-0.5273634918577E+00 -0.2379080537792E+01 -0.1366028690471E+01  0.8888638367220E-01
-0.1571723278642E+00 -0.2195411109557E+01 -0.1105714212783E+01  0.2740359073325E+00
 0.8096483243982E-01 -0.2076098056961E+01 -0.9377126131466E+00  0.3043712475346E+00
 0.2269318544871E+00 -0.2057446392439E+01 -0.8603418306551E+00  0.2394990113112E+00
 0.2946617643414E+00 -0.2158908706860E+01 -0.8761960607612E+00  0.1256836661005E+00
 0.2568660380989E+00 -0.2438749210333E+01 -0.1025485088349E+01  0.6202323717482E-02
 0.1218380587607E+00 -0.2995891723101E+01 -0.1350805218814E+01 -0.2742134501297E-01
-0.1354335167001E+00 -0.3939234259110E+01 -0.1915093849773E+01  0.1406232512981E+00
-0.7039927230423E+00 -0.5012328478192E+01 -0.2686670957766E+01  0.4514361909539E+00
-0.1288315257071E+01 -0.2560111709056E+01 -0.1808760669492E+01 -0.2903917017559E+00
-0.6167774781003E+00 -0.2509669547909E+01 -0.1469430098497E+01  0.1093124382549E+00
-0.2098482088330E+00 -0.2429109156714E+01 -0.1240309958661E+01  0.2949829200911E+00
 0.5969668196125E-01 -0.2390758707828E+01 -0.1095599149379E+01  0.3528613255658E+00
 0.2347907280178E+00 -0.2429756571880E+01 -0.1031633943999E+01  0.3282979737208E+00
 0.3265990761436E+00 -0.2573706933735E+01 -0.1056140690389E+01  0.2593376827571E+00
 0.3124768692480E+00 -0.2871545942089E+01 -0.1202762461185E+01  0.1798015270610E+00
 0.2104367362343E+00 -0.3389943240596E+01 -0.1494368053260E+01  0.1756373340031E+00
 0.9333689955323E-02 -0.4178497328808E+01 -0.1959506905291E+01  0.3423907992571E+00
-0.4576769360795E+00 -0.5037999855086E+01 -0.2582968085297E+01  0.6385426713734E+00
-0.1399520956780E+01 -0.2586863890802E+01 -0.1873600873611E+01 -0.2009461262257E+00
-0.7154735791845E+00 -0.2620474078151E+01 -0.1567895394971E+01  0.1541423882568E+00
-0.2791950352689E+00 -0.2618032647399E+01 -0.1361697007400E+01  0.3371005347781E+00
 0.1762813924732E-01 -0.2643404741829E+01 -0.1234115000083E+01  0.4174645124523E+00
 0.2171791597416E+00 -0.2728342839710E+01 -0.1180246926592E+01  0.4304099826146E+00
 0.3316343369548E+00 -0.2899055439875E+01 -0.1206687915312E+01  0.4066104755568E+00
 0.3451751285753E+00 -0.3193389212542E+01 -0.1338660616069E+01  0.3712479955759E+00
 0.2772309989949E+00 -0.3654584772557E+01 -0.1587356269548E+01  0.3966313979243E+00
 0.1206902024816E+00 -0.4297441575333E+01 -0.1963073140261E+01  0.5571503747245E+00
-0.2685927540171E+00 -0.4980061784750E+01 -0.2466867626964E+01  0.8252965814753E+00
-0.1508520422193E+01 -0.2612237146685E+01 -0.1936756052460E+01 -0.9923892398679E-01
-0.8186579522610E+00 -0.2709572067244E+01 -0.1658268104962E+01  0.2173133733801E+00
-0.3622292675307E+00 -0.2765567846466E+01 -0.1470064639850E+01  0.3960517358574E+00
-0.4431468245856E-01 -0.2837603119540E+01 -0.1354501363504E+01  0.4944416848647E+00
 0.1751697547363E+00 -0.2952810447434E+01 -0.1305491122257E+01  0.5398575639783E+00
 0.3091416521635E+00 -0.3134026195817E+01 -0.1327695732149E+01  0.5564985644460E+00
 0.3486370256594E+00 -0.3408666457312E+01 -0.1438213829229E+01  0.5626365956846E+00
 0.3127578259324E+00 -0.3802013559192E+01 -0.1639950190473E+01  0.6137749748427E+00
 0.1934359935822E+00 -0.4315082355691E+01 -0.1937173785278E+01  0.7643103242217E+00
-0.1308046547749E+00 -0.4857601647639E+01 -0.2344550956188E+01  0.9977171609101E+00
-0.1609496162305E+01 -0.2628730086924E+01 -0.1991966332085E+01  0.1232570244761E-01
-0.9216766885124E+00 -0.2772405082305E+01 -0.1736218427881E+01  0.2947448128534E+00
-0.4561298859966E+00 -0.2873297954638E+01 -0.1564831081129E+01  0.4680723196899E+00
-0.1231697678745E+00 -0.2976004001096E+01 -0.1456611667722E+01  0.5791514403330E+00
 0.1116333186857E+00 -0.3105897048494E+01 -0.1407303949441E+01  0.6501821902501E+00
 0.2613679387043E+00 -0.3283677426674E+01 -0.1420485455743E+01  0.6995277322349E+00
 0.3229055965295E+00 -0.3528513319432E+01 -0.1506635625943E+01  0.7393229826159E+00
 0.3111702966687E+00 -0.3854155523530E+01 -0.1665203052401E+01  0.8083021567375E+00
 0.2299556227704E+00 -0.4249040647456E+01 -0.1888969956811E+01  0.9470124581175E+00
-0.3699501817782E-01 -0.4686320415679E+01 -0.2219958248282E+01  0.1146570349047E+01
-0.1687376710621E+01 -0.2616768848657E+01 -0.2022948407730E+01  0.1331349164823E+00
-0.1026109192296E+01 -0.2811577188984E+01 -0.1803712594627E+01  0.3861065715706E+00
-0.5562214618168E+00 -0.2942903657129E+01 -0.1644588801733E+01  0.5503521706389E+00
-0.2144658288605E+00 -0.3061541845127E+01 -0.1539723602869E+01  0.6671374685708E+00
 0.2985135367720E-01 -0.3192699954749E+01 -0.1486538838733E+01  0.7555105823351E+00
 0.1932955749059E+00 -0.3353918133914E+01 -0.1485492598966E+01  0.8290893684870E+00
 0.2742053988270E+00 -0.3565586191346E+01 -0.1546948968560E+01  0.8935236152512E+00
 0.2809346654057E+00 -0.3836083522678E+01 -0.1670919958680E+01  0.9690219590094E+00
 0.2129244088689E+00 -0.4149949985833E+01 -0.1850402016480E+01  0.1086675974279E+01
 0.4677500570151E-01 -0.4448388650185E+01 -0.2068758407660E+01  0.1259178338472E+01
-0.6113205694851E+00 -0.1711291075110E+01 -0.1091627470191E+01  0.1466177716266E+01
-0.5744727529166E+00 -0.1661220669287E+01 -0.1050775905771E+01  0.1269029377350E+01
-0.5154443753908E+00 -0.1598779519169E+01 -0.9936852279227E+00  0.1101451297039E+01
-0.4622288056883E+00 -0.1509215378335E+01 -0.9265787641408E+00  0.9709397964896E+00
-0.4269802675641E+00 -0.1393249858503E+01 -0.8555081570818E+00  0.8695364183127E+00
-0.4096845420336E+00 -0.1252868478869E+01 -0.7813999178424E+00  0.7866625416831E+00
-0.4073687492882E+00 -0.1096837483060E+01 -0.7069769274105E+00  0.7172189750828E+00
-0.4136105968131E+00 -0.9359617317698E+00 -0.6342989928252E+00  0.6570560645663E+00
-0.4103707795210E+00 -0.7762315887945E+00 -0.5577031116937E+00  0.5902190878645E+00
-0.2794912974224E+00 -0.5324249586498E+00 -0.3816006393860E+00  0.5153207772634E+00
-0.5199238286912E+00 -0.1694797694089E+01 -0.1040919113066E+01  0.1448268679233E+01
-0.4875836288535E+00 -0.1624123843480E+01 -0.9925025094795E+00  0.1237385105997E+01
-0.4304247956421E+00 -0.1519820392215E+01 -0.9166152359681E+00  0.1045646170279E+01
-0.3863739450811E+00 -0.1388836954121E+01 -0.8343491205090E+00  0.8896079889882E+00
-0.3592999283975E+00 -0.1237185231035E+01 -0.7503480230300E+00  0.7647284701458E+00
-0.3469446112873E+00 -0.1073614651934E+01 -0.6676628520205E+00  0.6628547837598E+00
-0.3471035052742E+00 -0.9107154999927E+00 -0.5911749309760E+00  0.5833158683813E+00
-0.3534599134205E+00 -0.7568353450657E+00 -0.5218387701649E+00  0.5228248928067E+00
-0.3285907288294E+00 -0.6030595515354E+00 -0.4378756306609E+00  0.4648664106688E+00
-0.3033173301977E+00 -0.4698059676000E+00 -0.3633679490433E+00  0.4170626952593E+00
-0.4401394202592E+00 -0.1701446195707E+01 -0.1006545236951E+01  0.1424684606732E+01
-0.3992889987842E+00 -0.1602656059274E+01 -0.9409141749010E+00  0.1192099889333E+01
-0.3434723143849E+00 -0.1453117456504E+01 -0.8443971901760E+00  0.9710679770218E+00
-0.3058847629372E+00 -0.1275623749802E+01 -0.7433089991019E+00  0.7901875433627E+00
-0.2862139069980E+00 -0.1087810043346E+01 -0.6457912550235E+00  0.6466944785429E+00
-0.2787097056418E+00 -0.9030815101781E+00 -0.5554418700265E+00  0.5330176342250E+00
-0.2813480834210E+00 -0.7359478732461E+00 -0.4781290984208E+00  0.4497193061124E+00
-0.2846882874821E+00 -0.5900561261756E+00 -0.4111298733763E+00  0.3936172713663E+00
-0.2769298111176E+00 -0.4683903104632E+00 -0.3503004562545E+00  0.3498123542826E+00
-0.2678155741691E+00 -0.3554637766911E+00 -0.2929412941613E+00  0.3133587686369E+00
-0.3717385674801E+00 -0.1733476679123E+01 -0.9894511633939E+00  0.1394903665987E+01
-0.3140335363376E+00 -0.1601067118311E+01 -0.9000973054017E+00  0.1129222353106E+01
-0.2565798810565E+00 -0.1393768118939E+01 -0.7756635580307E+00  0.8753687556473E+00
-0.2245160997695E+00 -0.1162048786243E+01 -0.6516854947729E+00  0.6730181576061E+00
-0.2115616360913E+00 -0.9362058649156E+00 -0.5394507241050E+00  0.5184367611347E+00
-0.2092727394090E+00 -0.7337568635079E+00 -0.4432239122467E+00  0.4015884917379E+00
-0.2145894125347E+00 -0.5677019707403E+00 -0.3676769492067E+00  0.3212392154538E+00
-0.2204067780419E+00 -0.4379430810007E+00 -0.3094244329652E+00  0.2720435612668E+00
-0.2173786862492E+00 -0.3372467545896E+00 -0.2606739565331E+00  0.2376353458489E+00
-0.2105620388497E+00 -0.2470949497636E+00 -0.2150987841027E+00  0.2086189910983E+00
-0.3203221195048E+00 -0.1800111919508E+01 -0.9966039958085E+00  0.1357887587915E+01
-0.2353463925039E+00 -0.1618774287931E+01 -0.8714367175939E+00  0.1043109876799E+01
-0.1742307534627E+00 -0.1333518386221E+01 -0.7086420938541E+00  0.7550219886700E+00
-0.1457829103849E+00 -0.1035702353655E+01 -0.5552980726902E+00  0.5387451523958E+00
-0.1392217109553E+00 -0.7715225185289E+00 -0.4280497867719E+00  0.3840553125414E+00
-0.1430881443198E+00 -0.5587568428516E+00 -0.3298671431339E+00  0.2742016678748E+00
-0.1522486893546E+00 -0.4034430841694E+00 -0.2611751328938E+00  0.2025529101856E+00
-0.1572485356606E+00 -0.2953015173469E+00 -0.2126985243741E+00  0.1601372027539E+00
-0.1530804869855E+00 -0.2193116858662E+00 -0.1750243207964E+00  0.1323804316645E+00
-0.1397042196088E+00 -0.1529210371226E+00 -0.1375338703149E+00  0.1099354313162E+00
-0.2965201281043E+00 -0.1915703112810E+01 -0.1039744920592E+01  0.1310725937764E+01
-0.1700098893183E+00 -0.1652825246802E+01 -0.8567325118034E+00  0.9250728837005E+00
-0.1017202397024E+00 -0.1256245042221E+01 -0.6382436808853E+00  0.6061419448364E+00
-0.7269314539956E-01 -0.8778275663580E+00 -0.4467447333929E+00  0.3901120267126E+00
-0.7312428935209E-01 -0.5819498297812E+00 -0.3078848352117E+00  0.2506638538985E+00
-0.8508466894303E-01 -0.3739013332649E+00 -0.2157234204906E+00  0.1586325752551E+00
-0.9763148269214E-01 -0.2426240543778E+00 -0.1599201020173E+00  0.9931404374601E-01
-0.9782487815899E-01 -0.1643465412952E+00 -0.1232205668309E+00  0.6229737762355E-01
-0.8609496026740E-01 -0.1167741697225E+00 -0.9534849085339E-01  0.3900734727724E-01
-0.6121080232975E-01 -0.7531264540573E-01 -0.6416602027293E-01  0.2193370710021E-01
-0.3225299647554E+00 -0.2105134937830E+01 -0.1141002501321E+01  0.1247074185364E+01
-0.1307992132314E+00 -0.1694509409285E+01 -0.8578950504069E+00  0.7617049952133E+00
-0.4268706822936E-01 -0.1129668781690E+01 -0.5510072480645E+00  0.4263433552886E+00
-0.7221353632441E-02 -0.6628526226623E+00 -0.3149347680597E+00  0.2355455384716E+00
-0.1673827135250E-01 -0.3578214435338E+00 -0.1760430655501E+00  0.1309024689288E+00
-0.4134959297660E-01 -0.1829143937394E+00 -0.1054040734892E+00  0.6512386896011E-01
-0.5329926196911E-01 -0.8913759135948E-01 -0.6694532089464E-01  0.1727468933393E-01
-0.4366708224715E-01 -0.4716050900930E-01 -0.4268896778226E-01 -0.1758416925856E-01
-0.1870795401471E-01 -0.3010692429374E-01 -0.2294299274678E-01 -0.3890387237825E-01
 0.2155724133985E-01 -0.1317713255747E-01  0.3938651117731E-02 -0.5281314007225E-01
-0.4570543798259E+00 -0.2423115027572E+01 -0.1353679618044E+01  0.1152679607263E+01
-0.1329613479678E+00 -0.1710134292517E+01 -0.8662549488307E+00  0.5331621119659E+00
 0.2242552594269E-02 -0.8953225568008E+00 -0.4197476009124E+00  0.2203283508260E+00
 0.5875311994233E-01 -0.3539154688630E+00 -0.1387263036408E+00  0.9700858941624E-01
 0.1764983971065E-01 -0.1143146909162E+00 -0.4543247995138E-01  0.4525656092552E-01
-0.1321888006999E-01  0.2832166271761E-02 -0.4881755472785E-02  0.3097395452620E-02
-0.1858967835608E-01  0.5032744975960E-01  0.1491675252182E-01 -0.4011828143566E-01
 0.5291975183581E-02  0.5387587924077E-01  0.2780889150891E-01 -0.7741351808403E-01
 0.4789369423626E-01  0.4143517105491E-01  0.4198456658036E-01 -0.9959052081087E-01
 0.1063831427186E+00  0.3530509721598E-01  0.6659347260035E-01 -0.1132207008330E+00
-0.8459807606311E+00 -0.2990462371295E+01 -0.1803128267432E+01  0.9954293482388E+00
-0.2224376264326E+00 -0.1620278536132E+01 -0.8660765942085E+00  0.2074287190543E+00
 0.1187432658094E+00 -0.3692843584569E+00 -0.1177543132456E+00  0.2703197858180E-01
 0.8391433925861E-01 -0.1438503574409E-01  0.3267877256894E-01  0.2264987844097E-01
 0.3410904481899E-01  0.1204938997934E+00  0.7266338378353E-01  0.1000762569540E-01
 0.4468081017065E-02  0.1683471002478E+00  0.8122313498845E-01 -0.2478990927724E-01
 0.1016416573655E-01  0.1683105157695E+00  0.8388310009509E-01 -0.7324369350911E-01
 0.5072969526907E-01  0.1371933471327E+00  0.8832382970482E-01 -0.1173253777612E+00
 0.1125984094760E+00  0.9861109674256E-01  0.9926846767095E-01 -0.1428400082135E+00
 0.1918063383754E+00  0.7220882481249E-01  0.1240871263836E+00 -0.1591548270673E+00
-0.2585890618834E+01 -0.4621915532396E+01 -0.3387668882486E+01  0.6301666178938E+00
 0.2627101914747E+00 -0.3707431603645E+00 -0.5077549524942E-01 -0.1633670251399E+00
 0.1281613024631E+00  0.1496162480345E+00  0.1305554484027E+00 -0.1755147336566E-01
 0.9275111214995E-01  0.2850767615791E+00  0.1775791002023E+00  0.3539175102899E-01
 0.4627932616001E-01  0.3212971783039E+00  0.1727609566599E+00  0.2109631757253E-01
 0.2090205171560E-01  0.3029949552626E+00  0.1522315928937E+00 -0.2364734136721E-01
 0.3730345723061E-01  0.2594450904641E+00  0.1394718170628E+00 -0.8513623337806E-01
 0.9252552395929E-01  0.1986485083270E+00  0.1368517948275E+00 -0.1390607483614E+00
 0.1793219005670E+00  0.1480605789736E+00  0.1538697649938E+00 -0.1706811453537E+00
 0.2704959886168E+00  0.9454264765742E-01  0.1715681586137E+00 -0.1901885064302E+00
-0.4527804795016E+00 -0.4839171044059E+01 -0.2487217209765E+01  0.1450863143406E+01
-0.4603713007531E+00 -0.4972835586339E+01 -0.2553607230456E+01  0.1377359379827E+01
-0.5988495784040E+00 -0.5163023539962E+01 -0.2708080358763E+01  0.1276418219559E+01
-0.7872507190135E+00 -0.5338964527393E+01 -0.2879321158508E+01  0.1150945338715E+01
-0.1033087724770E+01 -0.5489839258007E+01 -0.3065775674129E+01  0.1005368481763E+01
-0.1346177859339E+01 -0.5603018469022E+01 -0.3266122266046E+01  0.8462674676939E+00
-0.1744515551341E+01 -0.5667026192582E+01 -0.3483424610809E+01  0.6842919767430E+00
-0.2256949263220E+01 -0.5671596944650E+01 -0.3726416708247E+01  0.5344846481883E+00
-0.2919127845734E+01 -0.5600174025050E+01 -0.4004071869113E+01  0.4166910504046E+00
-0.3875012108368E+01 -0.5497681661920E+01 -0.4405166060862E+01  0.3488847277720E+00
-0.4629632281242E+00 -0.4572898463828E+01 -0.2366854989214E+01  0.1643532646210E+01
-0.5948953754912E+00 -0.4855046887680E+01 -0.2561472857194E+01  0.1580755762806E+01
-0.7420168862121E+00 -0.5083880592624E+01 -0.2738171808108E+01  0.1512143664284E+01
-0.9593314398750E+00 -0.5318564353615E+01 -0.2950611015457E+01  0.1419178185071E+01
-0.1247214369298E+01 -0.5545118663971E+01 -0.3192396517539E+01  0.1302750177969E+01
-0.1624889355118E+01 -0.5754326900853E+01 -0.3468231631510E+01  0.1164839377041E+01
-0.2118097905051E+01 -0.5933427592312E+01 -0.3784216974162E+01  0.1008877574059E+01
-0.2759874765100E+01 -0.6067060617834E+01 -0.4148659619457E+01  0.8391385730559E+00
-0.3600631826274E+01 -0.6146182031679E+01 -0.4581002501619E+01  0.6583915213391E+00
-0.4677382906984E+01 -0.6150332661303E+01 -0.5089026304187E+01  0.4575279437908E+00
-0.5556942760049E+00 -0.4348376159084E+01 -0.2304913098646E+01  0.1809703534677E+01
-0.7014373370439E+00 -0.4603106856722E+01 -0.2493135764746E+01  0.1769692782958E+01
-0.8847102687192E+00 -0.4865593980373E+01 -0.2702642990218E+01  0.1724160228574E+01
-0.1121548334561E+01 -0.5127353724718E+01 -0.2936983960412E+01  0.1658758070802E+01
-0.1435683742789E+01 -0.5395121700726E+01 -0.3210478550309E+01  0.1565395509064E+01
-0.1847269581999E+01 -0.5661977647186E+01 -0.3529346188765E+01  0.1439415451159E+01
-0.2384154429188E+01 -0.5918099728191E+01 -0.3902059444071E+01  0.1276319116505E+01
-0.3080332456376E+01 -0.6150393268639E+01 -0.4338441079753E+01  0.1071137367406E+01
-0.3968893838076E+01 -0.6340343409348E+01 -0.4845341494000E+01  0.8171577509550E+00
-0.5067689770352E+01 -0.6461609011554E+01 -0.5418770413752E+01  0.5077244335627E+00
-0.6442510574138E+00 -0.4075005909437E+01 -0.2218050768794E+01  0.1931200572178E+01
-0.8112287508507E+00 -0.4296387669991E+01 -0.2400579711707E+01  0.1921005472232E+01
-0.1011381917399E+01 -0.4537426485742E+01 -0.2607939942862E+01  0.1899540153106E+01
-0.1264146901369E+01 -0.4795101463606E+01 -0.2847846724315E+01  0.1857298113578E+01
-0.1587706577115E+01 -0.5067595585038E+01 -0.3127992008278E+01  0.1783531337592E+01
-0.2004869014190E+01 -0.5354058834262E+01 -0.3458696080000E+01  0.1667344428641E+01
-0.2542297805284E+01 -0.5649446301632E+01 -0.3850119720485E+01  0.1496984506226E+01
-0.3230876849623E+01 -0.5944464402259E+01 -0.4312410377446E+01  0.1259549660254E+01
-0.4102114538729E+01 -0.6224387385116E+01 -0.4853455891897E+01  0.9425500464440E+00
-0.5190479935026E+01 -0.6473942830830E+01 -0.5482278686047E+01  0.5369233041260E+00
-0.7297035500829E+00 -0.3757832396177E+01 -0.2109141889393E+01  0.2005111778872E+01
-0.9085523021776E+00 -0.3931019562276E+01 -0.2274598770524E+01  0.2020896238879E+01
-0.1118731229284E+01 -0.4129013421630E+01 -0.2466439979674E+01  0.2021916266300E+01
-0.1373527744095E+01 -0.4349499304957E+01 -0.2689822706232E+01  0.1999947297233E+01
-0.1688790411821E+01 -0.4593268767948E+01 -0.2952567807003E+01  0.1943321608853E+01
-0.2083097127484E+01 -0.4861561881258E+01 -0.3263989725830E+01  0.1837669634826E+01
-0.2579958411581E+01 -0.5155214809147E+01 -0.3635531404521E+01  0.1665744818285E+01
-0.3208689141647E+01 -0.5472394991552E+01 -0.4080109532255E+01  0.1407783922302E+01
-0.4004750742802E+01 -0.5805925122500E+01 -0.4611017644997E+01  0.1043805474178E+01
-0.5007030562238E+01 -0.6140373950779E+01 -0.5239280107829E+01  0.5574362945661E+00
-0.8063348673360E+00 -0.3404579464186E+01 -0.1979129730796E+01  0.2030430708779E+01
-0.9895053772066E+00 -0.3518861084304E+01 -0.2118932231536E+01  0.2064352046235E+01
-0.1198505887240E+01 -0.3654519891781E+01 -0.2280922110355E+01  0.2082180393398E+01
-0.1441774454848E+01 -0.3812014705333E+01 -0.2469280899022E+01  0.2076102963327E+01
-0.1729203294257E+01 -0.3993667927963E+01 -0.2689749467621E+01  0.2034389866896E+01
-0.2072956557726E+01 -0.4203772698747E+01 -0.2950062743060E+01  0.1941299036382E+01
-0.2489137850980E+01 -0.4448044356296E+01 -0.3260475629150E+01  0.1776406555044E+01
-0.3001706252665E+01 -0.4733407840883E+01 -0.3635503614746E+01  0.1513912721276E+01
-0.3647102262710E+01 -0.5064657721123E+01 -0.4094527182016E+01  0.1123413122492E+01
-0.4471662625120E+01 -0.5432339977801E+01 -0.4654881211567E+01  0.5756852072688E+00
-0.8711272783191E+00 -0.3030600351913E+01 -0.1833811981558E+01  0.2007401791424E+01
-0.1051198349709E+01 -0.3078425093899E+01 -0.1940923013573E+01  0.2048693046481E+01
-0.1249573989230E+01 -0.3139232739262E+01 -0.2062739157159E+01  0.2073743517793E+01
-0.1469614692570E+01 -0.3214293551729E+01 -0.2201436869237E+01  0.2075427789042E+01
-0.1714656576363E+01 -0.3306752120958E+01 -0.2360062081755E+01  0.2043131973634E+01
-0.1987982677998E+01 -0.3422050487056E+01 -0.2542715581126E+01  0.1961984765386E+01
-0.2294066205277E+01 -0.3568598405706E+01 -0.2755452360173E+01  0.1811462860211E+01
-0.2641864659628E+01 -0.3758709602470E+01 -0.3008269895556E+01  0.1563048808624E+01
-0.3055999217219E+01 -0.4011957358253E+01 -0.3321939582046E+01  0.1176600043887E+01
-0.3594735953746E+01 -0.4349998605449E+01 -0.3734025233350E+01  0.5998067559696E+00
-0.9202586128112E+00 -0.2654233378257E+01 -0.1680011231541E+01  0.1938403449927E+01
-0.1090585362587E+01 -0.2634744676444E+01 -0.1750905113904E+01  0.1974212291922E+01
-0.1270381581127E+01 -0.2617072485519E+01 -0.1827103406689E+01  0.1992912298435E+01
-0.1458873516938E+01 -0.2601851807347E+01 -0.1908540897573E+01  0.1988623112139E+01
-0.1653112052175E+01 -0.2591211121776E+01 -0.1994831886697E+01  0.1952894429809E+01
-0.1847286698356E+01 -0.2589359190992E+01 -0.2085223562704E+01  0.1873820528240E+01
-0.2032025794147E+01 -0.2603346560818E+01 -0.2178625001307E+01  0.1734526971765E+01
-0.2194415040677E+01 -0.2644707275875E+01 -0.2274387483011E+01  0.1510163464915E+01
-0.2320336138828E+01 -0.2732775777610E+01 -0.2374962594702E+01  0.1161243408143E+01
-0.2433587568883E+01 -0.2920826735761E+01 -0.2516574716800E+01  0.6169121039308E+00
-0.9495004737405E+00 -0.2294934664199E+01 -0.1524884510964E+01  0.1829359510219E+01
-0.1102711962445E+01 -0.2215159207070E+01 -0.1559399445717E+01  0.1846487433923E+01
-0.1256236392518E+01 -0.2126923991859E+01 -0.1590085376624E+01  0.1843156333293E+01
-0.1406018208823E+01 -0.2029689176926E+01 -0.1614782467206E+01  0.1814651397153E+01
-0.1544044496106E+01 -0.1923885962699E+01 -0.1629927311504E+01  0.1754591412009E+01
-0.1657055012478E+01 -0.1811296616681E+01 -0.1630125261570E+01  0.1654486840548E+01
-0.1724016457830E+01 -0.1695532818621E+01 -0.1607188155856E+01  0.1502948100478E+01
-0.1711211049414E+01 -0.1582577452581E+01 -0.1548080592011E+01  0.1283924389276E+01
-0.1561951152944E+01 -0.1481491349384E+01 -0.1430417972466E+01  0.9723859572117E+00
-0.1165895495384E+01 -0.1402196903903E+01 -0.1207003424604E+01  0.5179178717497E+00
-0.9554741239463E+00 -0.1969241924418E+01 -0.1374616539245E+01  0.1691085075063E+01
-0.1083418143792E+01 -0.1843022902151E+01 -0.1375427288104E+01  0.1679792183158E+01
-0.1202991088625E+01 -0.1702651935506E+01 -0.1365652217877E+01  0.1642643393732E+01
-0.1307370440150E+01 -0.1547354866184E+01 -0.1341720890574E+01  0.1575577008399E+01
-0.1385097451349E+01 -0.1377198923543E+01 -0.1298279292906E+01  0.1473442890484E+01
-0.1418536846935E+01 -0.1193283835038E+01 -0.1227555717414E+01  0.1330207056682E+01
-0.1380772023375E+01 -0.9979784970511E+00 -0.1118012741765E+01  0.1139264325510E+01
-0.1229330492922E+01 -0.7949912194749E+00 -0.9514312024132E+00  0.8940799083457E+00
-0.8917177706928E+00 -0.5882677413075E+00 -0.6955931888759E+00  0.5897932711100E+00
-0.2065818786046E+00 -0.3630754652524E+00 -0.2677389509337E+00  0.2304994200635E+00
-0.9381403663376E+00 -0.1686204861679E+01 -0.1233442254039E+01  0.1538619382140E+01
-0.1034498946147E+01 -0.1530239411548E+01 -0.1205427025059E+01  0.1497173634492E+01
-0.1115089892669E+01 -0.1359963804589E+01 -0.1163275234761E+01  0.1426093551258E+01
-0.1171245145558E+01 -0.1175863570466E+01 -0.1103141093733E+01  0.1322560269097E+01
-0.1190142651739E+01 -0.9795535891580E+00 -0.1019757230635E+01  0.1183383242168E+01
-0.1153681344715E+01 -0.7740157069212E+00 -0.9060176119710E+00  0.1005792717065E+01
-0.1036587003281E+01 -0.5640004531079E+00 -0.7522761025949E+00  0.7887515763813E+00
-0.8033632986143E+00 -0.3567038030169E+00 -0.5452315363838E+00  0.5355620355930E+00
-0.4033350954317E+00 -0.1628814951783E+00 -0.2661217969117E+00  0.2599156942101E+00
 0.2187953780976E+00 -0.1091151982879E-01  0.9770541313851E-01  0.5205304434770E-02
-0.9017435111647E+00 -0.1447278293976E+01 -0.1104040245616E+01  0.1384757366476E+01
-0.9640758464491E+00 -0.1276758634061E+01 -0.1053192203168E+01  0.1317635254913E+01
-0.1005414643873E+01 -0.1095555187800E+01 -0.9874558183820E+00  0.1220883022159E+01
-0.1016596812346E+01 -0.9060127714890E+00 -0.9036265021104E+00  0.1093936919289E+01
-0.9856038350115E+00 -0.7119516456152E+00 -0.7978510738709E+00  0.9367748682398E+00
-0.8973032008881E+00 -0.5189251259249E+00 -0.6656273119139E+00  0.7510085897567E+00
-0.7335626664956E+00 -0.3347313464678E+00 -0.5020981848193E+00  0.5416210584473E+00
-0.4747484127906E+00 -0.1705727193979E+00 -0.3033009313593E+00  0.3199295855277E+00
-0.1067789807040E+00 -0.4426204721073E-01 -0.7098928293985E-01  0.1090433572045E+00
 0.3443149841506E+00  0.6697434947943E-02  0.1649758365579E+00 -0.4894197373648E-01
-0.8518908517141E+00 -0.1248775387199E+01 -0.9873131297851E+00  0.1236810394455E+01
-0.8816137007201E+00 -0.1075100522109E+01 -0.9196556823969E+00  0.1150031299638E+01
-0.8877232371174E+00 -0.8955761369388E+00 -0.8381507036806E+00  0.1036489730608E+01
-0.8620750595326E+00 -0.7140359193399E+00 -0.7407721581912E+00  0.8980055271333E+00
-0.7950952404657E+00 -0.5358013062927E+00 -0.6255213753899E+00  0.7374792651787E+00
-0.6764577934202E+00 -0.3677315958307E+00 -0.4907690117032E+00  0.5598249639860E+00
-0.4967107573930E+00 -0.2184365927056E+00 -0.3361192536938E+00  0.3733566275414E+00
-0.2507343305728E+00 -0.9858371776195E-01 -0.1641794823009E+00  0.1915835065057E+00
 0.5390389904387E-01 -0.2154379834493E-01  0.1520924728993E-01  0.3465627556207E-01
 0.3970176773771E+00  0.9567627996875E-02  0.1910950930411E+00 -0.7434603983525E-01
-0.7937924286552E+00 -0.1085497372651E+01 -0.8832662043735E+00  0.1099156693447E+01
-0.7945123828510E+00 -0.9163267902096E+00 -0.8040944092990E+00  0.9987301770934E+00
-0.7715390678909E+00 -0.7457583746892E+00 -0.7131297962039E+00  0.8759816571963E+00
-0.7187025447026E+00 -0.5784426617348E+00 -0.6096582454793E+00  0.7348158581305E+00
-0.6294084103852E+00 -0.4202932570965E+00 -0.4933597824651E+00  0.5801307446511E+00
-0.4979429687384E+00 -0.2780653207008E+00 -0.3647238951114E+00  0.4183392258255E+00
-0.3213849197944E+00 -0.1588980260467E+00 -0.2257329839728E+00  0.2580893940816E+00
-0.1024883921528E+00 -0.6963080967890E-01 -0.8089602465571E-01  0.1106312493822E+00
 0.1491063351306E+00 -0.1320002091665E-01  0.6387596751852E-01 -0.1136770658876E-01
 0.4176606199382E+00  0.1476091860065E-01  0.2032381225978E+00 -0.9719372732462E-01
-0.7317496236091E+00 -0.9519641109799E+00 -0.7913454532497E+00  0.9741342694972E+00
-0.7078715913470E+00 -0.7918527074994E+00 -0.7048704186700E+00  0.8651648441999E+00
-0.6624817776953E+00 -0.6333865333067E+00 -0.6090581046261E+00  0.7387715100614E+00
-0.5916263882028E+00 -0.4816420278178E+00 -0.5044361542502E+00  0.6006009621809E+00
-0.4912461144801E+00 -0.3426256096389E+00 -0.3919197093418E+00  0.4564929332985E+00
-0.3587161788860E+00 -0.2220563959404E+00 -0.2729631094761E+00  0.3127219044013E+00
-0.1945024330138E+00 -0.1246253842915E+00 -0.1499900737531E+00  0.1763118592377E+00
-0.3092618965317E-02 -0.5269078605560E-01 -0.2621820029333E-01  0.5470652262580E-01
 0.2067277426456E+00 -0.5036382617796E-02  0.9479493897263E-01 -0.4549678239364E-01
 0.4231016717358E+00  0.2390825273023E-01  0.2100946639662E+00 -0.1201200477582E+00
-0.6689874741231E+00 -0.8431766049386E+00 -0.7107171153564E+00  0.8626647923952E+00
-0.6246720615506E+00 -0.6940373089086E+00 -0.6197934025438E+00  0.7486761608973E+00
-0.5630201759860E+00 -0.5474319806512E+00 -0.5219125122957E+00  0.6220914145866E+00
-0.4820530961453E+00 -0.4096302547144E+00 -0.4190911738411E+00  0.4900761767222E+00
-0.3789401956141E+00 -0.2865526386407E+00 -0.3127816313064E+00  0.3583974717479E+00
-0.2524356163001E+00 -0.1826086362009E+00 -0.2044707981569E+00  0.2320305987145E+00
-0.1038082763928E+00 -0.9995046896940E-01 -0.9576661007735E-01  0.1156054382600E+00
 0.6287419052673E-01 -0.3824152466271E-01  0.1157735292672E-01  0.1316523759401E-01
 0.2414625806712E+00  0.5674741009386E-02  0.1161545408953E+00 -0.7265477351993E-01
 0.4234341270373E+00  0.3659000499127E-01  0.2162113415050E+00 -0.1415268669496E+00
-0.6079046403106E+00 -0.7551464673992E+00 -0.6406340189987E+00  0.7643103551358E+00
-0.5457771480724E+00 -0.6148746878972E+00 -0.5455063615221E+00  0.6465221049946E+00
-0.4733410217112E+00 -0.4769782158834E+00 -0.4466500405366E+00  0.5214389976226E+00
-0.3884447242065E+00 -0.3497521028894E+00 -0.3469525078551E+00  0.3972341297135E+00
-0.2883861002810E+00 -0.2395300429436E+00 -0.2481205866863E+00  0.2784235214227E+00
-0.1716071029053E+00 -0.1486614697981E+00 -0.1505262287888E+00  0.1679524576022E+00
-0.3901383628732E-01 -0.7710065937715E-01 -0.5457381282388E-01  0.6818063799821E-01
 0.1066075892341E+00 -0.2287730867983E-01  0.3935323176069E-01 -0.1924044090946E-01
 0.2615921141386E+00  0.1756678836346E-01  0.1312046838432E+00 -0.9383539697448E-01
 0.4237546893633E+00  0.4990025629266E-01  0.2226178238937E+00 -0.1570415605974E+00
-0.5481304001551E+00 -0.6829379114611E+00 -0.5786021049921E+00  0.6776292477302E+00
-0.4706223780444E+00 -0.5452726893119E+00 -0.4774706804464E+00  0.5552159170266E+00
-0.3909720046589E+00 -0.4097491275496E+00 -0.3763389311835E+00  0.4332220889321E+00
-0.3072880579491E+00 -0.2917417484710E+00 -0.2815440083034E+00  0.3183520926279E+00
-0.2136882948295E+00 -0.1937551368540E+00 -0.1914984124055E+00  0.2121879048752E+00
-0.1080185201948E+00 -0.1151195383239E+00 -0.1048748872378E+00  0.1156780959537E+00
 0.9413884278269E-02 -0.5373568049582E-01 -0.2083124416941E-01  0.2965710076985E-01
 0.1371528014573E+00 -0.6634627139521E-02  0.6134354177376E-01 -0.4541351884864E-01
 0.2733224231593E+00  0.2927051582525E-01  0.1422186809620E+00 -0.1098221791579E+00
 0.4174588592167E+00  0.5710505041820E-01  0.2230450369627E+00 -0.1645254378391E+00
-0.4923299434370E+00 -0.6235007975993E+00 -0.5244404469569E+00  0.6000156589529E+00
-0.3929175349007E+00 -0.4667136136202E+00 -0.4040266387801E+00  0.4745563945740E+00
-0.3129141073902E+00 -0.3371735056533E+00 -0.3055411773555E+00  0.3600401565113E+00
-0.2340074561403E+00 -0.2338575031060E+00 -0.2198965302880E+00  0.2553804773277E+00
-0.1489201681172E+00 -0.1518217886987E+00 -0.1413487193450E+00  0.1598549114029E+00
-0.5530539844697E-01 -0.8693738811931E-01 -0.6685410951659E-01  0.7375539684623E-01
 0.4709272491060E-01 -0.3559225265154E-01  0.5405221948051E-02 -0.2406863597284E-02
 0.1574291347433E+00  0.5029749980712E-02  0.7635567562660E-01 -0.6828863718319E-01
 0.2757119749387E+00  0.3769700848662E-01  0.1473022218363E+00 -0.1238866542972E+00
 0.3993781287055E+00  0.6158317543667E-01  0.2166518123973E+00 -0.1695961688826E+00
-0.4040879500253E+00 -0.5209592627068E+00 -0.4347721888813E+00  0.5245474122345E+00
-0.3072587274088E+00 -0.3634773407476E+00 -0.3152459512339E+00  0.4163448466853E+00
-0.2323307030984E+00 -0.2627171201421E+00 -0.2326724763329E+00  0.3110444303810E+00
-0.1610946368414E+00 -0.1867284059712E+00 -0.1634768297073E+00  0.2116356481155E+00
-0.8799119983678E-01 -0.1260273418496E+00 -0.1005887143375E+00  0.1200235980920E+00
-0.9766784107628E-02 -0.7523418341612E-01 -0.3995045463483E-01  0.3782480355849E-01
 0.7452774494667E-01 -0.3163003088967E-01  0.2016192555565E-01 -0.3389693143534E-01
 0.1649570442042E+00  0.6367062730577E-02  0.8052233005511E-01 -0.9458536885268E-01
 0.2600551390119E+00  0.3846871003658E-01  0.1403062086969E+00 -0.1438381178060E+00
 0.3653114659419E+00  0.6868634212040E-01  0.2039789692719E+00 -0.1813144565487E+00
</DataArray>
<DataArray type="Float64" Name="S_Mises" NumberOfComponents="1" ComponentName0="S_Mises" format="ascii">
 0.5271419391105E+01
 0.4649389679657E+01
 0.3997436118258E+01
 0.3559401492857E+01
 0.3125753616216E+01
 0.2696429350874E+01
 0.2252335222617E+01
 0.1784286966143E+01
 0.1280463870447E+01
 0.7237700147318E+00
 0.8403557623727E-01
 0.6578712134763E+00
 0.1464221480878E+01
 0.2274079478937E+01
 0.3039133815424E+01
 0.3714548637207E+01
 0.4283602567496E+01
 0.4722893268698E+01
 0.5191479687806E+01
 0.4642921465148E+01
 0.8350241143261E+01
 0.4109721842718E+01
 0.4144103775368E+01
 0.3634425359656E+01
 0.3191232683649E+01
 0.2783332068152E+01
 0.2371374380077E+01
 0.1946972813793E+01
 0.1499513954586E+01
 0.1018750390500E+01
 0.4926875198298E+00
 0.8896021054403E-01
 0.7080161529397E+00
 0.1347864073818E+01
 0.1971558701881E+01
 0.2539478419165E+01
 0.3016499523054E+01
 0.3359356908565E+01
 0.3534264806621E+01
 0.3297814455417E+01
 0.2669155969012E+01
 0.7346403754370E+01
 0.3332855809952E+01
 0.3494312141720E+01
 0.3216645583542E+01
 0.2821068296418E+01
 0.2440927584965E+01
 0.2054559158353E+01
 0.1654183718173E+01
 0.1232799919077E+01
 0.7832038114732E+00
 0.3024695781030E+00
 0.2117516444041E+00
 0.7248592034207E+00
 0.1229891545296E+01
 0.1703428467614E+01
 0.2117005220360E+01
 0.2438357325555E+01
 0.2627964917115E+01
 0.2615986567771E+01
 0.2299167989438E+01
 0.2562335576987E+01
 0.6888056336887E+01
 0.2734894549073E+01
 0.2894183982725E+01
 0.2757798826090E+01
 0.2445194172455E+01
 0.2101340992331E+01
 0.1745326527810E+01
 0.1373645761311E+01
 0.9833068982167E+00
 0.5720520859284E+00
 0.1494809218488E+00
 0.3045557235158E+00
 0.7245713289569E+00
 0.1119643768042E+01
 0.1474822506585E+01
 0.1770565270946E+01
 0.1982487739975E+01
 0.2079490168553E+01
 0.2022885035010E+01
 0.1942859502205E+01
 0.2962054357340E+01
 0.6445355837284E+01
 0.2238060576307E+01
 0.2362333749551E+01
 0.2299828544603E+01
 0.2064776497093E+01
 0.1766001529429E+01
 0.1443883509024E+01
 0.1104686645761E+01
 0.7497390839171E+00
 0.3826838898433E+00
 0.7445655447988E-01
 0.3787993618876E+00
 0.7182887815103E+00
 0.1024121537796E+01
 0.1287745673777E+01
 0.1497778960160E+01
 0.1639995720690E+01
 0.1700786848111E+01
 0.1705991601267E+01
 0.1945044245564E+01
 0.3330613669326E+01
 0.6072931890460E+01
 0.1805668992739E+01
 0.1890161307580E+01
 0.1862314577724E+01
 0.1687963638586E+01
 0.1435924696820E+01
 0.1150515934513E+01
 0.8465742207757E+00
 0.5306242380874E+00
 0.2153496336249E+00
 0.1546338269360E+00
 0.4427655759068E+00
 0.7134687122691E+00
 0.9475081859955E+00
 0.1141831963970E+01
 0.1292692782616E+01
 0.1397167451762E+01
 0.1466203353107E+01
 0.1588389218553E+01
 0.2110476914267E+01
 0.3588142322678E+01
 0.5775048159899E+01
 0.1417848653735E+01
 0.1466287494831E+01
 0.1451711777366E+01
 0.1321484188967E+01
 0.1112925885410E+01
 0.8653433370500E+00
 0.5986951213062E+00
 0.3256589159527E+00
 0.1000515116862E+00
 0.2615734657570E+00
 0.5023472049066E+00
 0.7147873301280E+00
 0.8915584683920E+00
 0.1034503535956E+01
 0.1146925369010E+01
 0.1238132169601E+01
 0.1345862725438E+01
 0.1605180657974E+01
 0.2324697444269E+01
 0.3758930495743E+01
 0.5540007455684E+01
 0.1062712184031E+01
 0.1080955711190E+01
 0.1068448358648E+01
 0.9691467183377E+00
 0.7987613033170E+00
 0.5886205332531E+00
 0.3613711057058E+00
 0.1452618292874E+00
 0.1628406936244E+00
 0.3677386660397E+00
 0.5617339769437E+00
 0.7249400148821E+00
 0.8562299645292E+00
 0.9617456344780E+00
 0.1051457087537E+01
 0.1147686125614E+01
 0.1313532360291E+01
 0.1702776535577E+01
 0.2537844900456E+01
 0.3876745933155E+01
 0.5353687028205E+01
 0.7325795213243E+00
 0.7264859505711E+00
 0.7104405506827E+00
 0.6324087925267E+00
 0.4947517445174E+00
 0.3216198804364E+00
 0.1444966887105E+00
 0.1284319996833E+00
 0.2996997890434E+00
 0.4731338221655E+00
 0.6239290848084E+00
 0.7453555738668E+00
 0.8404564357848E+00
 0.9191787113191E+00
 0.9981357530085E+00
 0.1113059579226E+01
 0.1346067056515E+01
 0.1840911968027E+01
 0.2731870009357E+01
 0.3969246365582E+01
 0.5203903317976E+01
 0.4222185776971E+00
 0.3970803967433E+00
 0.3747184950760E+00
 0.3113122358929E+00
 0.2032503043874E+00
 0.8591350284839E-01
 0.1405225516439E+00
 0.2927570328330E+00
 0.4443364687986E+00
 0.5796901555155E+00
 0.6911147570845E+00
 0.7767551118649E+00
 0.8428435082499E+00
 0.9028708375843E+00
 0.9802916055304E+00
 0.1123287391603E+01
 0.1422393892596E+01
 0.1993760872549E+01
 0.2900532079817E+01
 0.4051622019147E+01
 0.5084000633340E+01
 0.1287241990828E+00
 0.9187552833807E-01
 0.5890195413423E-01
 0.2262010344502E-01
 0.1002908251308E+00
 0.2170691265170E+00
 0.3460863839172E+00
 0.4740103885735E+00
 0.5906687050685E+00
 0.6887724221680E+00
 0.7644910192831E+00
 0.8192124372104E+00
 0.8618666777879E+00
 0.9094083860791E+00
 0.9920651994273E+00
 0.1167445502045E+01
 0.1523893345569E+01
 0.2144602673451E+01
 0.3045127922570E+01
 0.4109843005225E+01
 0.5062849971303E+01
 0.1567804864097E+00
 0.2103909153658E+00
 0.2418429432793E+00
 0.2907548158984E+00
 0.3666893816073E+00
 0.4612112602077E+00
 0.5617625016992E+00
 0.6571228289200E+00
 0.7388383757382E+00
 0.8018496860374E+00
 0.8450994873013E+00
 0.8727292751929E+00
 0.8961591698822E+00
 0.9357903382166E+00
 0.1027959167842E+01
 0.1235488272891E+01
 0.1637176073338E+01
 0.2286417129321E+01
 0.3166073995148E+01
 0.4157051457307E+01
 0.5035381181509E+01
 0.4275177596861E+00
 0.4896750423923E+00
 0.5286304493352E+00
 0.5732982196063E+00
 0.6338029712548E+00
 0.7053878374682E+00
 0.7779493280403E+00
 0.8418786235156E+00
 0.8903948918231E+00
 0.9206133156262E+00
 0.9340728359784E+00
 0.9374774088526E+00
 0.9446704316134E+00
 0.9793955519402E+00
 0.1082874411859E+01
 0.1319061056021E+01
 0.1754000879527E+01
 0.2416432567548E+01
 0.3268922542132E+01
 0.4192575587358E+01
 0.5007932010741E+01
 0.6906676400571E+00
 0.7597936521101E+00
 0.8049334131115E+00
 0.8473863529848E+00
 0.8958469287200E+00
 0.9474394844725E+00
 0.9943345646408E+00
 0.1028893522664E+01
 0.1046311049346E+01
 0.1045964507834E+01
 0.1031895044431E+01
 0.1013250139378E+01
 0.1006234974566E+01
 0.1037625378741E+01
 0.1151959058539E+01
 0.1411273666034E+01
 0.1868532571031E+01
 0.2533624084820E+01
 0.3356161165042E+01
 0.4222888056440E+01
 0.4988198887750E+01
 0.9472678393244E+00
 0.1022136581399E+01
 0.1073051226585E+01
 0.1114760554390E+01
 0.1153757419517E+01
 0.1188038292924E+01
 0.1211670105935E+01
 0.1219045379143E+01
 0.1207466191653E+01
 0.1178583497517E+01
 0.1138830725898E+01
 0.1099683816642E+01
 0.1079592424706E+01
 0.1107868449477E+01
 0.1230828537339E+01
 0.1506847670190E+01
 0.1977211754710E+01
 0.2637900736500E+01
 0.3430970128982E+01
 0.4250839321033E+01
 0.4974687507460E+01
 0.1198710615639E+01
 0.1278546449707E+01
 0.1335111646017E+01
 0.1377281295538E+01
 0.1408940190093E+01
 0.1428284551896E+01
 0.1430924558977E+01
 0.1413229212627E+01
 0.1374626727066E+01
 0.1318984268265E+01
 0.1254989051299E+01
 0.1196307732212E+01
 0.1163445100204E+01
 0.1187656940114E+01
 0.1315792471869E+01
 0.1601963632197E+01
 0.2077921467860E+01
 0.2729804469978E+01
 0.3495726747943E+01
 0.4277183512117E+01
 0.4966529584053E+01
 0.1446287349504E+01
 0.1530741611389E+01
 0.1593068068983E+01
 0.1636761238111E+01
 0.1662884541456E+01
 0.1669378216224E+01
 0.1653101110607E+01
 0.1612294331776E+01
 0.1548458074030E+01
 0.1467565128470E+01
 0.1380388403589E+01
 0.1302616019789E+01
 0.1256560120232E+01
 0.1274827708096E+01
 0.1403945330656E+01
 0.1693972409841E+01
 0.2169480905782E+01
 0.2810039350043E+01
 0.3551944646018E+01
 0.4302260148258E+01
 0.4963277798262E+01
 0.1691185084560E+01
 0.1780299067628E+01
 0.1848725610015E+01
 0.1894936022303E+01
 0.1917072053127E+01
 0.1912524449853E+01
 0.1879177982429E+01
 0.1817027341889E+01
 0.1729543704003E+01
 0.1624653036452E+01
 0.1515016978798E+01
 0.1418144582246E+01
 0.1357873522100E+01
 0.1367634901813E+01
 0.1493147004616E+01
 0.1781122640098E+01
 0.2251282311960E+01
 0.2879226502808E+01
 0.3600602508600E+01
 0.4326354697044E+01
 0.4964864808295E+01
 0.1934508390833E+01
 0.2028680788288E+01
 0.2103769190252E+01
 0.2153459683283E+01
 0.2172940432749E+01
 0.2158891614937E+01
 0.2110081109914E+01
 0.2028147446688E+01
 0.1918402830083E+01
 0.1790540060627E+01
 0.1658884954549E+01
 0.1542539638243E+01
 0.1466573202906E+01
 0.1464806999326E+01
 0.1581952680239E+01
 0.1862341206862E+01
 0.2323048886298E+01
 0.2937835571780E+01
 0.3642340039877E+01
 0.4349771054553E+01
 0.4971543205211E+01
 0.2177302081806E+01
 0.2277264250357E+01
 0.2359791284259E+01
 0.2413909083024E+01
 0.2431865185317E+01
 0.2409586008930E+01
 0.2346666569616E+01
 0.2246303677440E+01
 0.2115503630616E+01
 0.1965511233397E+01
 0.1812065763170E+01
 0.1675611469975E+01
 0.1582155172889E+01
 0.1565564472898E+01
 0.1669534501182E+01
 0.1937074106807E+01
 0.2384693566612E+01
 0.2986170928258E+01
 0.3677549422595E+01
 0.4372822849650E+01
 0.4983825435193E+01
 0.2420572900542E+01
 0.2527372681735E+01
 0.2618319439604E+01
 0.2677792502652E+01
 0.2695148377067E+01
 0.2665632399263E+01
 0.2589705094495E+01
 0.2472070067773E+01
 0.2321270638999E+01
 0.2149863410199E+01
 0.1974725503348E+01
 0.1817372034929E+01
 0.1704457036613E+01
 0.1669617433613E+01
 0.1755617218009E+01
 0.2005186092762E+01
 0.2436244762868E+01
 0.3024369978691E+01
 0.3706406061669E+01
 0.4395800638225E+01
 0.5002422161614E+01
 0.2665311210027E+01
 0.2780305705989E+01
 0.2880844311541E+01
 0.2946560044476E+01
 0.2964009587693E+01
 0.2927955434301E+01
 0.2839865235712E+01
 0.2705936984727E+01
 0.2536085708332E+01
 0.2343915063539E+01
 0.2147140534129E+01
 0.1968057728697E+01
 0.1833675416715E+01
 0.1777157585397E+01
 0.1840437860083E+01
 0.2066911753927E+01
 0.2477816954898E+01
 0.3052402267762E+01
 0.3728865166546E+01
 0.4418928584711E+01
 0.5028182011229E+01
 0.2912514285431E+01
 0.3037372267882E+01
 0.3148849250700E+01
 0.3221614356349E+01
 0.3239575908744E+01
 0.3197358965770E+01
 0.3097693311024E+01
 0.2948297843778E+01
 0.2760282488240E+01
 0.2548007277993E+01
 0.2329703843934E+01
 0.2128139369226E+01
 0.1970373175253E+01
 0.1888853087639E+01
 0.1924732427372E+01
 0.2122851381440E+01
 0.2509615864726E+01
 0.3070069107777E+01
 0.3744637656591E+01
 0.4442313053625E+01
 0.5062036446367E+01
 0.3163213118347E+01
 0.3299928221888E+01
 0.3423842563709E+01
 0.3504320260889E+01
 0.3522868202886E+01
 0.3474500878816E+01
 0.3363588820722E+01
 0.3199430796387E+01
 0.2994134509429E+01
 0.2762496246769E+01
 0.2522920730290E+01
 0.2298320913410E+01
 0.2115479920542E+01
 0.2005850106577E+01
 0.2009749067618E+01
 0.2174007834136E+01
 0.2531976346713E+01
 0.3077007455646E+01
 0.3753152332677E+01
 0.4465882748561E+01
 0.5104951758624E+01
 0.3418505138658E+01
 0.3569421588209E+01
 0.3707393646957E+01
 0.3796011586267E+01
 0.3814780770290E+01
 0.3759861359568E+01
 0.3637774520411E+01
 0.3459475429068E+01
 0.3237837309344E+01
 0.2987737805773E+01
 0.2727394308872E+01
 0.2479527605861E+01
 0.2270286903251E+01
 0.2129781404615E+01
 0.2097285699765E+01
 0.2221863842727E+01
 0.2545437620879E+01
 0.3072704059242E+01
 0.3753509012282E+01
 0.4489319901336E+01
 0.5157886835248E+01
 0.3679596114147E+01
 0.3847449352401E+01
 0.4001174021669E+01
 0.4097992523105E+01
 0.4116050900234E+01
 0.4053702525429E+01
 0.3920260600636E+01
 0.3728404679420E+01
 0.3491485073652E+01
 0.3224064507933E+01
 0.2943801082813E+01
 0.2672883136181E+01
 0.2436434936861E+01
 0.2262779314795E+01
 0.2189748718599E+01
 0.2268501739336E+01
 0.2550866575885E+01
 0.3056527594507E+01
 0.3744427415555E+01
 0.4511984907388E+01
 0.5221747117495E+01
 0.3947855964510E+01
 0.4135831074738E+01
 0.4307003848945E+01
 0.4411529167301E+01
 0.4427213841702E+01
 0.4356017545560E+01
 0.4210802977054E+01
 0.4005992519431E+01
 0.3755042448126E+01
 0.3471755926639E+01
 0.3172856862163E+01
 0.2879674730058E+01
 0.2615891897898E+01
 0.2407487883767E+01
 0.2290227180663E+01
 0.2316769484321E+01
 0.2549648345387E+01
 0.3027787658852E+01
 0.3724195603513E+01
 0.4532850775553E+01
 0.5297306929674E+01
 0.4224895737971E+01
 0.4436706672591E+01
 0.4626903363409E+01
 0.4737824100593E+01
 0.4748537507066E+01
 0.4666468024324E+01
 0.4508856665347E+01
 0.4291778445827E+01
 0.4028312408331E+01
 0.3731003252173E+01
 0.3415273815446E+01
 0.3101305151105E+01
 0.2810914822811E+01
 0.2567065770611E+01
 0.2402574536585E+01
 0.2370491204877E+01
 0.2543986575484E+01
 0.2985821252674E+01
 0.3690615877152E+01
 0.4550503048323E+01
 0.5385008940740E+01
 0.4512677349207E+01
 0.4752668565655E+01
 0.4963145816101E+01
 0.5077961794639E+01
 0.5079929353213E+01
 0.4984309359377E+01
 0.4813526099012E+01
 0.4585029647714E+01
 0.4310900451779E+01
 0.4001868898228E+01
 0.3671709639925E+01
 0.3339230674394E+01
 0.3023990572970E+01
 0.2745166055717E+01
 0.2531486734588E+01
 0.2434708963693E+01
 0.2537365598700E+01
 0.2930198627571E+01
 0.3640706117103E+01
 0.4563659567548E+01
 0.5484074888368E+01
 0.4813675735353E+01
 0.5086941693693E+01
 0.5318303624348E+01
 0.5432804544483E+01
 0.5420807022379E+01
 0.5308306921070E+01
 0.5123516630422E+01
 0.4884702302493E+01
 0.4602175340521E+01
 0.4284242439191E+01
 0.3942711372573E+01
 0.3594886819947E+01
 0.3257749251554E+01
 0.2945878523459E+01
 0.2682544621306E+01
 0.2515973643823E+01
 0.2535088799970E+01
 0.2861565839104E+01
 0.3569380731122E+01
 0.4572642576555E+01
 0.5591110727084E+01
 0.5131167583315E+01
 0.5443910599188E+01
 0.5695740728704E+01
 0.5803453953025E+01
 0.5770702051831E+01
 0.5637539533876E+01
 0.5438097591038E+01
 0.5190535262904E+01
 0.4902497989353E+01
 0.4579209212769E+01
 0.4230208405424E+01
 0.3871272063381E+01
 0.3516590071814E+01
 0.3175338433238E+01
 0.2863766611294E+01
 0.2623717926069E+01
 0.2545697633157E+01
 0.2781548683821E+01
 0.3471652225006E+01
 0.4565859567418E+01
 0.5743902086490E+01
 0.5469518326244E+01
 0.5828952061575E+01
 0.6098632289114E+01
 0.6189662835631E+01
 0.6127485160846E+01
 0.5969539722907E+01
 0.5755058879927E+01
 0.5500750015783E+01
 0.5210660292616E+01
 0.4886251897836E+01
 0.4534498517553E+01
 0.4169743483260E+01
 0.3803349524018E+01
 0.3438446782404E+01
 0.3082780516140E+01
 0.2768622264942E+01
 0.2581144532704E+01
 0.2695956407058E+01
 0.3338586710152E+01
 0.4539282570191E+01
 0.5913502955135E+01
 0.5834829505335E+01
 0.6248974124117E+01
 0.6529750746584E+01
 0.6589312444382E+01
 0.6487118562371E+01
 0.6300285999111E+01
 0.6070722129417E+01
 0.5811986749917E+01
 0.5523757456065E+01
 0.5203095111254E+01
 0.4854075932025E+01
 0.4489803250546E+01
 0.4118997309684E+01
 0.3738455978142E+01
 0.3346490394985E+01
 0.2962857499333E+01
 0.2658964696045E+01
 0.2618857993368E+01
 0.3165615083092E+01
 0.4475264011136E+01
 0.6108083989979E+01
 0.6236110484543E+01
 0.6713516062809E+01
 0.6991606373820E+01
 0.6998710105222E+01
 0.6844880886222E+01
 0.6626008155910E+01
 0.6381966506841E+01
 0.6121481467650E+01
 0.5839563126763E+01
 0.5528334651869E+01
 0.5188498995307E+01
 0.4832072151907E+01
 0.4465465287681E+01
 0.4079282759335E+01
 0.3662443666801E+01
 0.3220492984901E+01
 0.2802155564952E+01
 0.2575790080173E+01
 0.2951869338113E+01
 0.4351306741946E+01
 0.6339444344304E+01
 0.6687239911940E+01
 0.7235321509100E+01
 0.7484463667454E+01
 0.7410721005763E+01
 0.7194578099634E+01
 0.6942579648111E+01
 0.6685363993792E+01
 0.6425921355820E+01
 0.6155161774229E+01
 0.5860000044330E+01
 0.5537005941800E+01
 0.5196931700721E+01
 0.4844184572829E+01
 0.4463829940066E+01
 0.4036860271470E+01
 0.3555592067330E+01
 0.3039266489593E+01
 0.2610025118189E+01
 0.2713605932487E+01
 0.4136179427629E+01
 0.6622297208036E+01
 0.7210854762668E+01
 0.7830924208357E+01
 0.8002759620214E+01
 0.7813132907343E+01
 0.7528994153613E+01
 0.7245942943717E+01
 0.6977346270240E+01
 0.6721407795541E+01
 0.6466684542819E+01
 0.6195309689828E+01
 0.5898536811998E+01
 0.5584733570072E+01
 0.5256132735727E+01
 0.4893564781021E+01
 0.4473438857850E+01
 0.3979506344568E+01
 0.3401980810263E+01
 0.2786488851043E+01
 0.2511174068599E+01
 0.3787666598566E+01
 0.6977459879474E+01
 0.7846585513458E+01
 0.8519384817344E+01
 0.8527286830402E+01
 0.8187663048972E+01
 0.7841379987776E+01
 0.7532530586733E+01
 0.7254476639987E+01
 0.7003504625812E+01
 0.6768882916734E+01
 0.6530177511137E+01
 0.6271776324574E+01
 0.5996286103044E+01
 0.5702120542525E+01
 0.5368093771522E+01
 0.4972220416120E+01
 0.4497408739230E+01
 0.3917558025566E+01
 0.3190644332154E+01
 0.2492300396561E+01
 0.3275293327282E+01
 0.7430665756084E+01
 0.8670546369703E+01
 0.9311880078397E+01
 0.9009376769465E+01
 0.8513738893972E+01
 0.8127775006655E+01
 0.7799227379167E+01
 0.7514036442685E+01
 0.7267481584059E+01
 0.7054515888080E+01
 0.6858143441518E+01
 0.6655168291650E+01
 0.6433902791354E+01
 0.6183407768140E+01
 0.5884843679558E+01
 0.5528180960048E+01
 0.5106347816815E+01
 0.4594269496832E+01
 0.3913129319396E+01
 0.2917267346741E+01
 0.2719258543342E+01
 0.8005704418027E+01
 0.9849645407456E+01
 0.1015547115278E+02
 0.9350491762745E+01
 0.8788142528226E+01
 0.8384551530924E+01
 0.8044220875781E+01
 0.7754592590583E+01
 0.7509140339507E+01
 0.7313747491737E+01
 0.7167926654078E+01
 0.7046676288047E+01
 0.6903795707752E+01
 0.6702637791656E+01
 0.6438778554879E+01
 0.6129894378309E+01
 0.5793474515722E+01
 0.5415364506941E+01
 0.4979513315451E+01
 0.4152879225102E+01
 0.2912253884258E+01
 0.8705110843335E+01
 0.1183839446936E+02
 0.1059424479949E+02
 0.9518554770386E+01
 0.9021133316371E+01
 0.8606298921606E+01
 0.8268986630315E+01
 0.7975705698674E+01
 0.7726785791281E+01
 0.7534967200202E+01
 0.7437481455021E+01
 0.7442368917956E+01
 0.7422035281763E+01
 0.7265208966921E+01
 0.7019917752213E+01
 0.6762848790344E+01
 0.6526229452726E+01
 0.6357410473187E+01
 0.6262532840338E+01
 0.6482589868960E+01
 0.5568118417808E+01
 0.1058512999749E+02
 0.7434934250133E+00
 0.1504096115468E+01
 0.2044778068085E+01
 0.2452917171821E+01
 0.2777386192066E+01
 0.3047322340289E+01
 0.3285038945953E+01
 0.3500769573769E+01
 0.3668497395259E+01
 0.3722951695453E+01
 0.7012157989240E+00
 0.1480535625027E+01
 0.2033367288625E+01
 0.2443912944664E+01
 0.2762923700947E+01
 0.3021353424831E+01
 0.3242072333685E+01
 0.3429812498864E+01
 0.3553721313288E+01
 0.3556913860414E+01
 0.6663354211842E+00
 0.1451820194241E+01
 0.2007570958579E+01
 0.2414506703698E+01
 0.2723302778075E+01
 0.2965287195304E+01
 0.3160077903711E+01
 0.3307834388557E+01
 0.3379523758092E+01
 0.3333729299343E+01
 0.6377894334048E+00
 0.1418003054311E+01
 0.1968352612287E+01
 0.2365964037391E+01
 0.2659955067321E+01
 0.2879998033166E+01
 0.3042050043221E+01
 0.3143536646109E+01
 0.3159663532536E+01
 0.3062101268534E+01
 0.6152344904468E+00
 0.1379233182552E+01
 0.1916785783630E+01
 0.2299959419370E+01
 0.2574928279240E+01
 0.2768675487277E+01
 0.2893843440897E+01
 0.2946548269825E+01
 0.2906546437902E+01
 0.2755061335257E+01
 0.5985010252273E+00
 0.1336041891478E+01
 0.1854219876807E+01
 0.2218574206240E+01
 0.2471182024765E+01
 0.2635845842367E+01
 0.2722437040814E+01
 0.2726581092538E+01
 0.2631988649861E+01
 0.2426716824526E+01
 0.5874947330058E+00
 0.1289260277994E+01
 0.1782338672247E+01
 0.2124329245132E+01
 0.2352303987109E+01
 0.2486683942035E+01
 0.2535093823662E+01
 0.2493139216541E+01
 0.2347774631777E+01
 0.2091825638747E+01
 0.5821469348662E+00
 0.1239960952571E+01
 0.1703124762677E+01
 0.2020078664731E+01
 0.2222210650497E+01
 0.2326520788539E+01
 0.2338873873506E+01
 0.2255246167475E+01
 0.2065352668261E+01
 0.1765504350975E+01
 0.5823881446776E+00
 0.1189394221180E+01
 0.1618776176562E+01
 0.1908860648373E+01
 0.2084888430307E+01
 0.2160502698408E+01
 0.2140279745249E+01
 0.2021018854461E+01
 0.1795169368489E+01
 0.1462162615939E+01
 0.5881299624234E+00
 0.1138919757420E+01
 0.1531605126209E+01
 0.1793748923774E+01
 0.1944189378241E+01
 0.1993350860174E+01
 0.1944975015485E+01
 0.1797211208722E+01
 0.1545673943700E+01
 0.1193412889420E+01
 0.5992513725883E+00
 0.1089938749811E+01
 0.1443937467899E+01
 0.1677722806395E+01
 0.1803676997383E+01
 0.1829195233802E+01
 0.1757591954439E+01
 0.1588861113401E+01
 0.1322321301068E+01
 0.9654126687405E+00
 0.6155899158039E+00
 0.1043832300836E+01
 0.1358023074800E+01
 0.1563561471094E+01
 0.1666515244807E+01
 0.1671472719442E+01
 0.1581641211420E+01
 0.1399184180604E+01
 0.1127321331309E+01
 0.7782384856885E+00
 0.6369394995440E+00
 0.1001910848200E+01
 0.1275962761199E+01
 0.1453763437079E+01
 0.1535395186087E+01
 0.1522882302520E+01
 0.1419529317979E+01
 0.1229745543907E+01
 0.9603886129846E+00
 0.6281817961689E+00
 0.6630560734369E+00
 0.9653781354875E+00
 0.1199655475560E+01
 0.1350491479581E+01
 0.1412493476944E+01
 0.1385388870739E+01
 0.1272667935800E+01
 0.1080818884510E+01
 0.8197057525554E+00
 0.5100316705180E+00
 0.6936708958582E+00
 0.9353114306841E+00
 0.1130769397455E+01
 0.1255543760389E+01
 0.1299456543990E+01
 0.1260256303336E+01
 0.1141638089159E+01
 0.9517983708325E+00
 0.7026502398778E+00
 0.4181120066458E+00
 0.7285090909616E+00
 0.9126581038369E+00
 0.1070739362487E+01
 0.1170358094461E+01
 0.1197403596593E+01
 0.1148081833747E+01
 0.1026339260746E+01
 0.8415878691550E+00
 0.6063961376860E+00
 0.3469454006763E+00
 0.7673085588761E+00
 0.8982448093056E+00
 0.1020794619537E+01
 0.1096052881896E+01
 0.1106971442248E+01
 0.1048782675281E+01
 0.9260461056889E+00
 0.7488797319732E+00
 0.5285440800221E+00
 0.2918688445775E+00
 0.8098175167242E+00
 0.8928185641376E+00
 0.9820174572684E+00
 0.1033499506728E+01
 0.1028415483782E+01
 0.9616575603288E+00
 0.8390909302002E+00
 0.6722596757237E+00
 0.4677295461956E+00
 0.2498918056634E+00
 0.8557604390525E+00
 0.8969985527086E+00
 0.9556276420485E+00
 0.9833460072999E+00
 0.9616213821632E+00
 0.8857976359121E+00
 0.7627790975272E+00
 0.6081694067271E+00
 0.4251158644761E+00
 0.2210292754142E+00
 0.9038779917888E+00
 0.9127638595859E+00
 0.9430678458223E+00
 0.9459865435583E+00
 0.9061112389034E+00
 0.8199545501045E+00
 0.6954990709107E+00
 0.5493558739023E+00
 0.3933448473855E+00
 0.2207486285576E+00
 0.1292203213716E+01
 0.6197530720573E+00
 0.3438345291525E+00
 0.2874913061181E+00
 0.2036670720588E+00
 0.9514354377315E-01
 0.3826633491190E-01
 0.1370370227882E+00
 0.6952986716422E+00
 0.1184859492095E+01
 0.1395814778923E+01
 0.1174175551257E+01
 0.8128403697001E+00
 0.6970780725426E+00
 0.6321910368979E+00
 0.5774579686926E+00
 0.5987332105430E+00
 0.8312950439684E+00
 0.1502563855965E+01
 0.2096173772522E+01
 0.1335141603090E+01
 0.1413311128233E+01
 0.1240554421692E+01
 0.1138848408562E+01
 0.1106258361582E+01
 0.1118864589004E+01
 0.1216407370851E+01
 0.1524798228190E+01
 0.2223371030002E+01
 0.2816450146095E+01
 0.1258788451981E+01
 0.1536993171855E+01
 0.1545691796841E+01
 0.1540390559184E+01
 0.1570739779871E+01
 0.1651033659986E+01
 0.1811174352312E+01
 0.2162009318400E+01
 0.2826397485376E+01
 0.3356943250232E+01
 0.1181796682708E+01
 0.1606002705310E+01
 0.1766576967680E+01
 0.1869029890834E+01
 0.1979091631693E+01
 0.2125590251696E+01
 0.2335388774655E+01
 0.2701409523034E+01
 0.3296455322447E+01
 0.3735067125492E+01
 0.1107442555451E+01
 0.1641973658608E+01
 0.1923566233061E+01
 0.2123308545302E+01
 0.2308504997382E+01
 0.2512643181575E+01
 0.2758513168152E+01
 0.3119479174372E+01
 0.3628924112659E+01
 0.3970100848971E+01
 0.1035200256521E+01
 0.1652811504282E+01
 0.2027356793453E+01
 0.2305867998956E+01
 0.2552009058784E+01
 0.2798919400780E+01
 0.3065677623116E+01
 0.3406559453986E+01
 0.3828265538423E+01
 0.4083288975771E+01
 0.9638078313663E+00
 0.1640996864694E+01
 0.2083466353882E+01
 0.2420603256492E+01
 0.2710191666371E+01
 0.2983074856253E+01
 0.3255214969882E+01
 0.3565033671618E+01
 0.3906448828844E+01
 0.4096260872831E+01
 0.8917929421518E+00
 0.1606604589744E+01
 0.2095710544328E+01
 0.2472375732492E+01
 0.2787910562086E+01
 0.3071437920873E+01
 0.3336812712634E+01
 0.3608843562985E+01
 0.3880798040697E+01
 0.4028926498250E+01
 0.8151689475829E+00
 0.1550540882897E+01
 0.2069591364468E+01
 0.2467598100627E+01
 0.2792423848996E+01
 0.3073440157903E+01
 0.3326822727696E+01
 0.3567037180451E+01
 0.3780205668006E+01
 0.3895164823688E+01
 0.9551473225040E+00
 0.9435381646916E+00
 0.9403372926972E+00
 0.9086438222475E+00
 0.8385938265680E+00
 0.7319201035588E+00
 0.5988002371818E+00
 0.4541775447953E+00
 0.3188382373319E+00
 0.2203970621169E+00
 0.1019637652467E+01
 0.9863093442326E+00
 0.9452566769457E+00
 0.8697903770214E+00
 0.7617780792331E+00
 0.6307560549711E+00
 0.4895587383972E+00
 0.3509177741784E+00
 0.2393345484060E+00
 0.1460369730618E+00
 0.1094211513706E+01
 0.1043875575730E+01
 0.9624911519730E+00
 0.8411577315942E+00
 0.6954253533810E+00
 0.5418829027150E+00
 0.3948760928606E+00
 0.2657551462273E+00
 0.1673104719444E+00
 0.7817470828909E-01
 0.1180989734059E+01
 0.1116083523117E+01
 0.9860776339357E+00
 0.8129919801306E+00
 0.6285042379198E+00
 0.4550967718367E+00
 0.3067036695952E+00
 0.1894244293721E+00
 0.1051337900934E+00
 0.3448905807891E-01
 0.1283113403379E+01
 0.1199374230079E+01
 0.1004990964379E+01
 0.7715074713950E+00
 0.5482697721463E+00
 0.3605948945659E+00
 0.2181785553722E+00
 0.1203257691620E+00
 0.5843575212283E-01
 0.1442497111987E-01
 0.1403823241124E+01
 0.1285319607595E+01
 0.1000677421846E+01
 0.6978497098837E+00
 0.4410938481398E+00
 0.2505012984852E+00
 0.1259814702198E+00
 0.5814386659470E-01
 0.2725712233613E-01
 0.1288104310765E-01
 0.1545498162126E+01
 0.1355319430829E+01
 0.9420105681792E+00
 0.5681490737032E+00
 0.2956003437938E+00
 0.1227831809208E+00
 0.3132967958723E-01
 0.4071573368746E-02
 0.9979829449792E-02
 0.3008190072344E-01
 0.1704849463087E+01
 0.1366990553878E+01
 0.7777757883632E+00
 0.3574911633553E+00
 0.1143214227188E+00
 0.1390410593845E-01
 0.5969157786804E-01
 0.4211232066541E-01
 0.6202102336345E-02
 0.6170198066021E-01
 0.1860738429018E+01
 0.1211827318323E+01
 0.4227111487706E+00
 0.8515530656647E-01
 0.7495511484787E-01
 0.1420180562053E+00
 0.1370633755406E+00
 0.7509164990598E-01
 0.1367048650501E-01
 0.1038768864982E+00
 0.1776458643695E+01
 0.5485962684235E+00
 0.2036370185958E-01
 0.1669441376432E+00
 0.2384275896284E+00
 0.2444927872662E+00
 0.1925861694113E+00
 0.9231939097380E-01
 0.2879954926054E-01
 0.1527730720415E+00
 0.3802041677371E+01
 0.3911306458461E+01
 0.3956468403709E+01
 0.3946181877417E+01
 0.3864617625791E+01
 0.3692422129482E+01
 0.3404262792123E+01
 0.2966722055770E+01
 0.2335878233307E+01
 0.1433127703997E+01
 0.3562513108152E+01
 0.3693020425862E+01
 0.3764223998317E+01
 0.3779901384697E+01
 0.3727667931450E+01
 0.3583043173936E+01
 0.3312989560512E+01
 0.2876322654605E+01
 0.2223818728071E+01
 0.1316321094730E+01
 0.3287852158712E+01
 0.3382690224185E+01
 0.3451859751744E+01
 0.3474190771951E+01
 0.3435091792530E+01
 0.3311306107193E+01
 0.3070604454969E+01
 0.2673133127438E+01
 0.2076892424942E+01
 0.1255742969367E+01
 0.2974492123085E+01
 0.3022123176108E+01
 0.3058178064287E+01
 0.3063294490371E+01
 0.3020278857315E+01
 0.2908873111567E+01
 0.2702068289834E+01
 0.2366101489533E+01
 0.1863868158239E+01
 0.1165294231525E+01
 0.2625889832768E+01
 0.2621556897284E+01
 0.2611730097400E+01
 0.2582979439597E+01
 0.2522402373635E+01
 0.2415223644778E+01
 0.2242277581715E+01
 0.1977649674769E+01
 0.1587386623128E+01
 0.1036913015055E+01
 0.2253689166594E+01
 0.2194657844075E+01
 0.2131947529338E+01
 0.2058730484115E+01
 0.1968584819063E+01
 0.1854923359627E+01
 0.1709180526787E+01
 0.1517544591863E+01
 0.1255150548540E+01
 0.8834342532323E+00
 0.1873818053713E+01
 0.1759995629624E+01
 0.1641780468610E+01
 0.1517456206803E+01
 0.1387000093698E+01
 0.1252499291731E+01
 0.1117702108172E+01
 0.9860920791139E+00
 0.8546065692865E+00
 0.6961488244637E+00
 0.1505490172671E+01
 0.1341943093589E+01
 0.1172085049930E+01
 0.9973164350309E+00
 0.8223352423809E+00
 0.6562919576878E+00
 0.5139489999417E+00
 0.4161102243390E+00
 0.3880211200323E+00
 0.4515022520948E+00
 0.1169238467902E+01
 0.9685358005931E+00
 0.7608376103488E+00
 0.5498616052258E+00
 0.3450123811812E+00
 0.1693203234460E+00
 0.1055105428002E+00
 0.1489096735536E+00
 0.1148547939471E+00
 0.2186649398899E+00
 0.8823221821612E+00
 0.6636694913731E+00
 0.4414116075487E+00
 0.2247863542435E+00
 0.8315072903087E-01
 0.2102228259772E+00
 0.3391028927715E+00
 0.3810197425233E+00
 0.2665197212427E+00
 0.1366006609065E+00
 0.6526092525189E+00
 0.4361640193863E+00
 0.2246902906584E+00
 0.7052676919337E-01
 0.1936430708693E+00
 0.3338471386538E+00
 0.4120791524961E+00
 0.3883808813061E+00
 0.2089305902298E+00
 0.1990297423703E+00
 0.4776738039022E+00
 0.2790109314396E+00
 0.1003327233290E+00
 0.1117962775955E+00
 0.2423998059529E+00
 0.3304279168887E+00
 0.3468817425958E+00
 0.2641343120370E+00
 0.5433053731175E-01
 0.2925749406606E+00
 0.3494417261556E+00
 0.1775492053122E+00
 0.5392951182724E-01
 0.1366470039385E+00
 0.2280771040837E+00
 0.2691936054573E+00
 0.2419456038970E+00
 0.1321823646776E+00
 0.6534683419673E-01
 0.3357632142372E+00
 0.2588385368483E+00
 0.1173172459527E+00
 0.5069966121651E-01
 0.1275498071966E+00
 0.1838166119035E+00
 0.1918374444725E+00
 0.1414535172188E+00
 0.2892020166451E-01
 0.1406205475204E+00
 0.3491624501075E+00
 0.1972871467805E+00
 0.8552120636910E-01
 0.4632760803395E-01
 0.1005441908462E+00
 0.1311176904206E+00
 0.1196264575062E+00
 0.6126793425838E-01
 0.4298586097437E-01
 0.1834929018479E+00
 0.3459716396363E+00
 0.1575257639755E+00
 0.7192877201453E-01
 0.3594492393240E-01
 0.6818643784464E-01
 0.8246325354677E-01
 0.6186430737786E-01
 0.6966195176501E-02
 0.8757189609202E-01
 0.2043328122790E+00
 0.3353009708726E+00
 0.1339112928628E+00
 0.6923333026543E-01
 0.2868306013465E-01
 0.4016566129485E-01
 0.4517755729006E-01
 0.2207241104069E-01
 0.3316758793257E-01
 0.1121653412388E+00
 0.2114980057681E+00
 0.3240791060340E+00
 0.1224490718865E+00
 0.7147265429627E-01
 0.2900817474969E-01
 0.2245481835907E-01
 0.2115200314516E-01
 0.9090097978415E-02
 0.5470528884821E-01
 0.1245851113196E+00
 0.2115500090987E+00
 0.3124001287879E+00
 0.1184268349813E+00
 0.6891636321653E-01
 0.2866603124719E-01
 0.1403655008087E-01
 0.9365666559242E-02
 0.2772447995396E-01
 0.7160812223920E-01
 0.1320716962835E+00
 0.2063413334023E+00
 0.2928656853356E+00
 0.1049491256197E+00
 0.5268109321469E-01
 0.3021698008837E-01
 0.2452958174741E-01
 0.3356016418700E-01
 0.5675374813800E-01
 0.9194433762068E-01
 0.1374390898711E+00
 0.1921083391618E+00
 0.2572146317042E+00
</DataArray>
<DataArray type="Float64" Name="S_Hyd" NumberOfComponents="1" ComponentName0="S_Hyd" format="ascii">
-0.2852291964220E+01
-0.1951139004059E+01
-0.1761449514801E+01
-0.1551627563033E+01
-0.1365677457586E+01
-0.1177186577296E+01
-0.9832907987525E+00
-0.7786626872538E+00
-0.5585012810808E+00
-0.3145828059430E+00
-0.2919175367262E-01
 0.3105842133314E+00
 0.6905477909437E+00
 0.1087964064674E+01
 0.1488434541696E+01
 0.1878871542942E+01
 0.2249370287492E+01
 0.2641630272348E+01
 0.3013440851990E+01
 0.4022506566827E+01
 0.9952450061094E+00
-0.2328343472460E+01
-0.1885096809894E+01
-0.1585662709449E+01
-0.1399378340994E+01
-0.1214608635215E+01
-0.1033727728379E+01
-0.8468160038953E+00
-0.6498617167089E+00
-0.4376451216897E+00
-0.2018466374163E+00
 0.6884806670396E-01
 0.3773685370041E+00
 0.7121868977376E+00
 0.1056355919709E+01
 0.1394007588240E+01
 0.1709287546716E+01
 0.1995057262078E+01
 0.2226168932522E+01
 0.2446147056724E+01
 0.2150368764805E+01
-0.8025317494838E+00
-0.1963505505795E+01
-0.1690686053154E+01
-0.1431840836458E+01
-0.1239703862816E+01
-0.1065591129501E+01
-0.8915882688981E+00
-0.7129495100283E+00
-0.5245396838333E+00
-0.3215493560165E+00
-0.9707629506095E-01
 0.1550713554564E+00
 0.4331891939224E+00
 0.7266972276998E+00
 0.1021165035441E+01
 0.1300374388675E+01
 0.1548299648639E+01
 0.1744232355476E+01
 0.1863286783446E+01
 0.1800554348367E+01
 0.1069877648017E+01
-0.1122743663691E+01
-0.1659739203285E+01
-0.1474933157907E+01
-0.1264015691910E+01
-0.1082123053673E+01
-0.9162157418327E+00
-0.7512831467615E+00
-0.5814756226620E+00
-0.4026056737005E+00
-0.2102656988864E+00
 0.4877443021290E-03
 0.2322728840434E+00
 0.4808321255732E+00
 0.7359502820440E+00
 0.9843536980125E+00
 0.1210275721355E+01
 0.1395182058123E+01
 0.1514802707893E+01
 0.1522944729656E+01
 0.1282371721857E+01
 0.4965057276098E+00
-0.1100917402617E+01
-0.1390066398272E+01
-0.1258899924857E+01
-0.1088058099767E+01
-0.9234732821690E+00
-0.7676631800659E+00
-0.6124292716874E+00
-0.4523771675479E+00
-0.2839048965720E+00
-0.1035204606617E+00
 0.9191643939165E-01
 0.3025125818566E+00
 0.5224867518880E+00
 0.7417592954258E+00
 0.9478036479316E+00
 0.1125002200832E+01
 0.1253907455457E+01
 0.1306685304009E+01
 0.1228761235943E+01
 0.9080497459357E+00
 0.1865476393106E+00
-0.9973008106258E+00
-0.1143383774836E+01
-0.1048046216524E+01
-0.9093093046780E+00
-0.7636836536578E+00
-0.6198757017714E+00
-0.4750784162595E+00
-0.3254973806211E+00
-0.1682410131831E+00
-0.8365087775041E-03
 0.1782798844012E+00
 0.3674466833206E+00
 0.5599347149023E+00
 0.7457750846168E+00
 0.9129543647014E+00
 0.1046233993568E+01
 0.1126031445391E+01
 0.1123523189589E+01
 0.9889696335790E+00
 0.6451735710762E+00
 0.1643375657442E-01
-0.8826004243816E+00
-0.9137972593957E+00
-0.8437991335568E+00
-0.7308281101049E+00
-0.6036155242645E+00
-0.4728506272845E+00
-0.3392098441199E+00
-0.2006960144444E+00
-0.5533472142630E-01
 0.9834125918541E-01
 0.2605773023635E+00
 0.4284534992098E+00
 0.5946657310760E+00
 0.7493839675982E+00
 0.8810793987076E+00
 0.9751576758361E+00
 0.1012757817961E+01
 0.9672480865520E+00
 0.7994140107747E+00
 0.4615815361410E+00
-0.7624152123643E-01
-0.7763616977794E+00
-0.6976383399708E+00
-0.6462802186301E+00
-0.5542348131591E+00
-0.4441219515728E+00
-0.3267290471708E+00
-0.2047730441841E+00
-0.7781293067843E-01
 0.5513578835663E-01
 0.1945890805048E+00
 0.3397160145684E+00
 0.4867022054775E+00
 0.6279240691524E+00
 0.7537522014908E+00
 0.8532008301480E+00
 0.9125976275833E+00
 0.9146965311014E+00
 0.8370940329563E+00
 0.6517486120027E+00
 0.3330160969166E+00
-0.1243052814123E+00
-0.6812171201329E+00
-0.4923742083937E+00
-0.4551351991799E+00
-0.3803305833634E+00
-0.2858272539564E+00
-0.1816896635592E+00
-0.7171721783423E-01
 0.4333341329247E-01
 0.1635120623751E+00
 0.2884703301808E+00
 0.4165102039167E+00
 0.5431902120204E+00
 0.6607516464312E+00
 0.7598391431060E+00
 0.8300978487836E+00
 0.8590401692571E+00
 0.8316987384071E+00
 0.7305758606527E+00
 0.5376102299512E+00
 0.2416575305026E+00
-0.1456818159259E+00
-0.5943279135052E+00
-0.2961266056056E+00
-0.2698318807521E+00
-0.2094488532000E+00
-0.1291230934043E+00
-0.3787886979936E-01
 0.6001169133133E-01
 0.1629368001043E+00
 0.2701394031888E+00
 0.3805179024897E+00
 0.4916843176085E+00
 0.5987700826102E+00
 0.6940180364549E+00
 0.7684170680590E+00
 0.8123281128498E+00
 0.8146474947037E+00
 0.7629792907994E+00
 0.6446572205524E+00
 0.4493947433210E+00
 0.1765058389514E+00
-0.1574025693772E+00
-0.5010472143762E+00
-0.1074367900944E+00
-0.8991193665314E-01
-0.4184307487894E-01
 0.2552935474147E-01
 0.1043123660050E+00
 0.1901385741268E+00
 0.2808290786750E+00
 0.3749767060909E+00
 0.4708529716473E+00
 0.5655337427868E+00
 0.6538783524303E+00
 0.7282358035191E+00
 0.7799959535276E+00
 0.8002939767512E+00
 0.7794877769312E+00
 0.7077567831662E+00
 0.5766130106115E+00
 0.3818529933376E+00
 0.1284310519171E+00
-0.1611375051784E+00
-0.4452828369320E+00
 0.7485949749464E-01
 0.8521908475262E-01
 0.1225911522884E+00
 0.1780638544172E+00
 0.2448585064714E+00
 0.3187480003384E+00
 0.3972135599257E+00
 0.4783534320846E+00
 0.5599373680328E+00
 0.6386332874536E+00
 0.7091429371135E+00
 0.7639932443385E+00
 0.7950116285127E+00
 0.7941250534230E+00
 0.7531331754973E+00
 0.6645683580438E+00
 0.5234497853109E+00
 0.3297495458153E+00
 0.9266294420923E-01
-0.1664673663435E+00
-0.4069004075182E+00
 0.2518277955639E+00
 0.2562709087556E+00
 0.2842604090209E+00
 0.3287810746711E+00
 0.3841072120410E+00
 0.4462970545304E+00
 0.5126663519857E+00
 0.5809576856252E+00
 0.6485516720126E+00
 0.7118103643608E+00
 0.7653590849317E+00
 0.8019485303613E+00
 0.8138584373060E+00
 0.7937896685662E+00
 0.7348860073814E+00
 0.6317557887466E+00
 0.4821771857420E+00
 0.2892512459076E+00
 0.6394970871965E-01
-0.1721909269251E+00
-0.3907325293136E+00
 0.4243447942538E+00
 0.4237919134881E+00
 0.4434177719120E+00
 0.4777775693851E+00
 0.5221267627205E+00
 0.5728976007865E+00
 0.6273731280282E+00
 0.6830599339777E+00
 0.7370491035009E+00
 0.7854797789094E+00
 0.8229587370612E+00
 0.8424861049616E+00
 0.8367877911197E+00
 0.7992831398974E+00
 0.7243124432098E+00
 0.6082175331794E+00
 0.4509371449329E+00
 0.2576121243427E+00
 0.4033811482217E-01
-0.1814369893725E+00
-0.3846611878191E+00
 0.5931851070066E+00
 0.5883055095555E+00
 0.6003477850523E+00
 0.6251953987683E+00
 0.6590160524723E+00
 0.6986710435490E+00
 0.7415111428122E+00
 0.7849063605730E+00
 0.8257425093257E+00
 0.8600009508348E+00
 0.8823081148368E+00
 0.8859216098278E+00
 0.8639874305473E+00
 0.8105598558581E+00
 0.7209909946349E+00
 0.5930224512452E+00
 0.4281914521626E+00
 0.2330136429561E+00
 0.1987354018553E-01
-0.1935245157710E+00
-0.3872993229081E+00
 0.7590463884492E+00
 0.7503097870048E+00
 0.7553511648588E+00
 0.7712054580482E+00
 0.7948942836062E+00
 0.8237431895801E+00
 0.8552465654757E+00
 0.8867179867744E+00
 0.9149063336497E+00
 0.9356837854771E+00
 0.9437177849316E+00
 0.9325161898532E+00
 0.8956023861129E+00
 0.8275602810959E+00
 0.7245548526362E+00
 0.5854023221838E+00
 0.4127877164501E+00
 0.2140671556233E+00
 0.1567745008047E-02
-0.2083471982451E+00
-0.3978750684019E+00
 0.9225672183651E+00
 0.9102791232885E+00
 0.9087346129564E+00
 0.9159950816002E+00
 0.9298918787221E+00
 0.9482390116859E+00
 0.9687317775159E+00
 0.9886900324893E+00
 0.1004778599212E+01
 0.1012793954136E+01
 0.1007451460743E+01
 0.9824892822883E+00
 0.9317521978763E+00
 0.8502348136079E+00
 0.7347103558354E+00
 0.5847713277003E+00
 0.4038738595725E+00
 0.1998429781229E+00
-0.1519008454873E-01
-0.2258737938414E+00
-0.4158448252092E+00
 0.1084340647235E+01
 0.1068666549976E+01
 0.1060804108006E+01
 0.1059758631323E+01
 0.1064142709766E+01
 0.1072277666065E+01
 0.1082102763218E+01
 0.1090991406679E+01
 0.1095562781516E+01
 0.1091557534456E+01
 0.1073733620143E+01
 0.1036029354589E+01
 0.9725453795006E+00
 0.8785600432993E+00
 0.7512523411277E+00
 0.5907183869745E+00
 0.4008739517309E+00
 0.1897542104387E+00
-0.3075299124635E-01
-0.2460413657867E+00
-0.4407341461669E+00
 0.1244925068460E+01
 0.1225906454426E+01
 0.1211860392034E+01
 0.1202690118197E+01
 0.1197777351845E+01
 0.1195967771402E+01
 0.1195476504696E+01
 0.1193764107516E+01
 0.1187429331503E+01
 0.1172164844750E+01
 0.1142755717634E+01
 0.1093302582602E+01
 0.1018090314513E+01
 0.9125506476970E+00
 0.7740711820123E+00
 0.6030017735562E+00
 0.4034555416740E+00
 0.1834870520176E+00
-0.4526650931622E-01
-0.2687167180397E+00
-0.4721056859584E+00
 0.1404853542517E+01
 0.1382417509157E+01
 0.1362195867096E+01
 0.1344977220018E+01
 0.1330917143164E+01
 0.1319402982856E+01
 0.1308948424411E+01
 0.1297122509879E+01
 0.1280516811823E+01
 0.1254773449493E+01
 0.1214681006578E+01
 0.1154459351571E+01
 0.1068503059453E+01
 0.9522668914565E+00
 0.8031562080010E+00
 0.6215421628053E+00
 0.4115040626638E+00
 0.1809606868018E+00
-0.5869375388579E-01
-0.2936861401044E+00
-0.5095511281969E+00
 0.1564642401146E+01
 0.1538605811926E+01
 0.1512092340128E+01
 0.1486796146966E+01
 0.1463668764697E+01
 0.1442657773607E+01
 0.1422589835733E+01
 0.1401152478043E+01
 0.1374932575264E+01
 0.1339510287255E+01
 0.1289647922717E+01
 0.1219638614971E+01
 0.1123912170750E+01
 0.9978186863417E+00
 0.8385965213296E+00
 0.6464162540298E+00
 0.4251063508444E+00
 0.1823059930407E+00
-0.7082755055205E-01
-0.3206520243144E+00
-0.5526868611689E+00
 0.1724799799544E+01
 0.1694868264000E+01
 0.1661819179908E+01
 0.1628306873484E+01
 0.1596119041896E+01
 0.1565783300591E+01
 0.1536445348338E+01
 0.1505910252706E+01
 0.1470752935059E+01
 0.1426472887226E+01
 0.1367772022218E+01
 0.1288970137865E+01
 0.1184460745029E+01
 0.1049366701196E+01
 0.8805800060603E+00
 0.6778522027499E+00
 0.4445424918954E+00
 0.1878576590199E+00
-0.8129221426657E-01
-0.3492279307512E+00
-0.6011493419839E+00
 0.1885834841674E+01
 0.1851596254292E+01
 0.1811631527719E+01
 0.1769648317469E+01
 0.1728329713812E+01
 0.1688803275758E+01
 0.1650530236205E+01
 0.1611421136295E+01
 0.1568022855963E+01
 0.1515729725730E+01
 0.1449146553235E+01
 0.1362574729105E+01
 0.1250305830889E+01
 0.1107120771898E+01
 0.9293909518755E+00
 0.7162271764680E+00
 0.4702849883793E+00
 0.1981574760784E+00
-0.8953504774495E-01
-0.3789283220946E+00
-0.6545899994033E+00
 0.2048267930217E+01
 0.2009179702171E+01
 0.1961768154879E+01
 0.1910932991080E+01
 0.1860331869733E+01
 0.1811709732623E+01
 0.1764827749374E+01
 0.1717677970785E+01
 0.1666755164602E+01
 0.1607319753509E+01
 0.1533841733274E+01
 0.1440562544704E+01
 0.1321615245142E+01
 0.1171335560557E+01
 0.9854061981452E+00
 0.7620667649458E+00
 0.5030045342927E+00
 0.2139682435797E+00
-0.9480644794670E-01
-0.4091503629472E+00
-0.7126693489638E+00
 0.2212643116558E+01
 0.2168011510573E+01
 0.2112448485135E+01
 0.2052240604347E+01
 0.1992119782958E+01
 0.1934458656729E+01
 0.1879286438333E+01
 0.1824639478348E+01
 0.1766929348234E+01
 0.1701251209651E+01
 0.1621902910813E+01
 0.1523029635819E+01
 0.1398561815212E+01
 0.1242303179401E+01
 0.1049089226584E+01
 0.8160456358593E+00
 0.5435819800256E+00
 0.2362987195205E+00
-0.9612664160705E-01
-0.4391444341703E+00
-0.7750492082304E+00
 0.2379543459807E+01
 0.2328492418726E+01
 0.2263868074644E+01
 0.2193609927719E+01
 0.2123643816733E+01
 0.2056965459903E+01
 0.1993817561278E+01
 0.1932228496460E+01
 0.1868489951643E+01
 0.1797499792898E+01
 0.1713347786244E+01
 0.1610052914560E+01
 0.1481314994206E+01
 0.1320342170634E+01
 0.1120980977847E+01
 0.8789883307879E+00
 0.5931264254970E+00
 0.2664404199982E+00
-0.9223569651039E-01
-0.4679692959296E+00
-0.8413767792313E+00
 0.2549610805230E+01
 0.2491036143313E+01
 0.2416191495033E+01
 0.2335028004359E+01
 0.2254802087950E+01
 0.2179100399474E+01
 0.2108292743761E+01
 0.2040330174994E+01
 0.1971344584224E+01
 0.1896006290944E+01
 0.1808162943965E+01
 0.1701683878442E+01
 0.1570029788256E+01
 0.1405782203699E+01
 0.1201685184070E+01
 0.9518685050443E+00
 0.6529994781939E+00
 0.3060188227836E+00
-0.8152630116503E-01
-0.4944185328000E+00
-0.9112626703630E+00
 0.2723572084208E+01
 0.2656074502617E+01
 0.2569541007819E+01
 0.2476415515010E+01
 0.2385430663361E+01
 0.2300684287073E+01
 0.2222542240692E+01
 0.2148790277933E+01
 0.2075361580802E+01
 0.1996673821233E+01
 0.1906300138295E+01
 0.1797941614805E+01
 0.1664833532401E+01
 0.1498942982287E+01
 0.1291847679870E+01
 0.1035798047832E+01
 0.7248552524794E+00
 0.3570505625163E+00
-0.6193909561863E-01
-0.5169476085776E+00
-0.9841422476353E+00
 0.2902275425432E+01
 0.2824061665409E+01
 0.2723978381080E+01
 0.2617606505947E+01
 0.2515292076113E+01
 0.2421485010303E+01
 0.2336354148850E+01
 0.2257413556148E+01
 0.2180367087392E+01
 0.2099364606852E+01
 0.2007672583888E+01
 0.1898805865433E+01
 0.1765810483791E+01
 0.1600108275021E+01
 0.1392120123790E+01
 0.1132019057668E+01
 0.8106369813208E+00
 0.4221576133432E+00
-0.3109187584675E-01
-0.5331554311388E+00
-0.1059687443658E+01
 0.3086741788913E+01
 0.2995475225936E+01
 0.2879476084419E+01
 0.2758319836022E+01
 0.2644062613653E+01
 0.2541216010667E+01
 0.2449475311312E+01
 0.2365962316536E+01
 0.2286141421748E+01
 0.2203896316255E+01
 0.2112151899143E+01
 0.2004211139971E+01
 0.1872986526654E+01
 0.1709491808166E+01
 0.1503116487486E+01
 0.1241845358641E+01
 0.9126763782024E+00
 0.5044373188119E+00
 0.1492662223896E-01
-0.5427165156945E+00
-0.1130615261674E+01
 0.3278262132083E+01
 0.3170938785178E+01
 0.3036054519359E+01
 0.2898361352464E+01
 0.2771603810476E+01
 0.2659862044916E+01
 0.2561976506805E+01
 0.2474558305624E+01
 0.2392865199303E+01
 0.2310545196110E+01
 0.2220139379651E+01
 0.2114691391308E+01
 0.1987048289104E+01
 0.1828032818725E+01
 0.1626276429952E+01
 0.1367656979349E+01
 0.1034673835769E+01
 0.6091424265407E+00
 0.8075583003462E-01
-0.5391253414994E+00
-0.1214366774440E+01
 0.3478479534209E+01
 0.3350994177630E+01
 0.3193352264511E+01
 0.3037088798418E+01
 0.2897370259725E+01
 0.2777020492776E+01
 0.2673510746755E+01
 0.2582848099419E+01
 0.2500184896806E+01
 0.2419007571463E+01
 0.2331418494118E+01
 0.2230107824904E+01
 0.2107917995970E+01
 0.1955783318501E+01
 0.1762062829061E+01
 0.1510921978471E+01
 0.1180028858689E+01
 0.7418379026718E+00
 0.1742460732326E+00
-0.5209113024832E+00
-0.1295539754235E+01
 0.3689513752734E+01
 0.3535977452437E+01
 0.3350431415494E+01
 0.3173324257304E+01
 0.3020430631129E+01
 0.2891963248056E+01
 0.2783378593697E+01
 0.2690063844398E+01
 0.2607267933864E+01
 0.2528451356716E+01
 0.2445199146407E+01
 0.2349670132047E+01
 0.2234727729192E+01
 0.2091802523768E+01
 0.1909693257512E+01
 0.1671748587368E+01
 0.1351067348949E+01
 0.9086930330938E+00
 0.3038916323526E+00
-0.4776646319887E+00
-0.1386925040340E+01
 0.3914360994671E+01
 0.3726225054378E+01
 0.3505959212287E+01
 0.3305757708305E+01
 0.3140048958297E+01
 0.3004287730965E+01
 0.2891224328206E+01
 0.2795773254045E+01
 0.2713617836350E+01
 0.2638428820282E+01
 0.2561168639263E+01
 0.2473141354359E+01
 0.2367172512018E+01
 0.2235648522031E+01
 0.2068736712005E+01
 0.1850398530069E+01
 0.1550666196292E+01
 0.1117781529412E+01
 0.4839968454201E+00
-0.3979591931621E+00
-0.1486797314430E+01
 0.4157400207198E+01
 0.3921673965025E+01
 0.3657588187432E+01
 0.3432619993687E+01
 0.3255484791997E+01
 0.3113646352895E+01
 0.2996704243653E+01
 0.2899497213383E+01
 0.2818624939384E+01
 0.2748379051860E+01
 0.2678975621031E+01
 0.2600293331711E+01
 0.2504893119621E+01
 0.2386664774178E+01
 0.2238270227046E+01
 0.2046139485050E+01
 0.1780472267155E+01
 0.1378340520026E+01
 0.7347546067612E+00
-0.2588065611066E+00
-0.1595688600951E+01
 0.4425478186742E+01
 0.4121208563214E+01
 0.3801185598075E+01
 0.3551718118280E+01
 0.3366174020111E+01
 0.3219778336612E+01
 0.3099511139596E+01
 0.3000724936699E+01
 0.2921527517425E+01
 0.2857573333651E+01
 0.2798232690032E+01
 0.2730964848599E+01
 0.2647528205660E+01
 0.2543977921541E+01
 0.2416882549528E+01
 0.2257020936375E+01
 0.2039560899974E+01
 0.1698675133928E+01
 0.1085513719263E+01
-0.1816272389880E-01
-0.1708896133206E+01
 0.4730388779306E+01
 0.4320816513113E+01
 0.3929458082438E+01
 0.3660970852887E+01
 0.3471991514104E+01
 0.3322461724915E+01
 0.3199431372189E+01
 0.3098952842625E+01
 0.3021358340725E+01
 0.2965007318366E+01
 0.2918513150646E+01
 0.2865162494066E+01
 0.2794801338972E+01
 0.2706516312432E+01
 0.2602628098170E+01
 0.2480145686153E+01
 0.2323006715005E+01
 0.2080858164730E+01
 0.1575663599381E+01
 0.4047781220629E+00
-0.1802615821203E+01
 0.5095696653519E+01
 0.4507451199543E+01
 0.4030069783511E+01
 0.3760595674763E+01
 0.3573068871042E+01
 0.3421422590804E+01
 0.3296473457757E+01
 0.3193748018985E+01
 0.3116907800848E+01
 0.3069172379849E+01
 0.3039315256498E+01
 0.3003281930157E+01
 0.2946595952043E+01
 0.2873126742310E+01
 0.2792852189339E+01
 0.2711952093985E+01
 0.2623397335049E+01
 0.2509521080025E+01
 0.2243485806357E+01
 0.1172808573789E+01
-0.1790035278209E+01
 0.5581151597262E+01
 0.4632784951900E+01
 0.4089670896409E+01
 0.3858101180617E+01
 0.3666853490768E+01
 0.3517493526609E+01
 0.3390504681189E+01
 0.3285062167573E+01
 0.3206760353329E+01
 0.3167551453415E+01
 0.3159934302256E+01
 0.3146553522094E+01
 0.3103223612950E+01
 0.3042103372553E+01
 0.2985454138667E+01
 0.2945325539821E+01
 0.2938186132656E+01
 0.2948657905862E+01
 0.3057372287278E+01
 0.2611382484020E+01
-0.1330828574637E+01
 0.6408776450906E+01
 0.4453038090247E+01
 0.4190383306875E+01
 0.3932574351942E+01
 0.3758988234144E+01
 0.3609644917907E+01
 0.3481955081535E+01
 0.3373188586403E+01
 0.3290110186732E+01
 0.3255348627238E+01
 0.3278874154959E+01
 0.3298468893355E+01
 0.3265285896310E+01
 0.3211496479429E+01
 0.3176463992667E+01
 0.3179557962396E+01
 0.3239019406939E+01
 0.3437509129365E+01
 0.3726656578652E+01
 0.5087124514964E+01
 0.1115195553534E+01
 0.2207938596412E+01
 0.1959088379895E+01
 0.1781563223975E+01
 0.1663998017210E+01
 0.1599139498964E+01
 0.1588314605250E+01
 0.1624009924940E+01
 0.1712816507003E+01
 0.1895200590538E+01
 0.2208674496348E+01
 0.2230502883708E+01
 0.1983438315529E+01
 0.1804993510303E+01
 0.1686043391271E+01
 0.1621328577074E+01
 0.1607340037658E+01
 0.1644340736245E+01
 0.1742678367814E+01
 0.1924812230376E+01
 0.2222766935880E+01
 0.2242180555893E+01
 0.1995790790460E+01
 0.1818248695739E+01
 0.1699411208896E+01
 0.1633745381764E+01
 0.1618748474746E+01
 0.1655867027045E+01
 0.1752759375128E+01
 0.1925007211525E+01
 0.2187151614467E+01
 0.2240488458537E+01
 0.1997367011061E+01
 0.1821877011272E+01
 0.1703884593511E+01
 0.1637800494487E+01
 0.1621334169025E+01
 0.1655368024395E+01
 0.1744895314674E+01
 0.1898419322103E+01
 0.2124406271694E+01
 0.2225501641916E+01
 0.1988335457519E+01
 0.1816393818151E+01
 0.1699974239944E+01
 0.1633547078193E+01
 0.1614536154224E+01
 0.1642780806741E+01
 0.1720409225172E+01
 0.1851423343533E+01
 0.2038301302035E+01
 0.2197701012156E+01
 0.1969147929666E+01
 0.1802261662585E+01
 0.1688060232780E+01
 0.1621133857549E+01
 0.1598499054488E+01
 0.1618809928546E+01
 0.1681882968219E+01
 0.1787872343878E+01
 0.1934360794381E+01
 0.2157900280546E+01
 0.1940418942014E+01
 0.1779984062054E+01
 0.1668544819900E+01
 0.1600924699420E+01
 0.1573772747632E+01
 0.1584730132881E+01
 0.1631679078450E+01
 0.1711619678149E+01
 0.1817653372066E+01
 0.2107159408183E+01
 0.1902903890826E+01
 0.1750138130835E+01
 0.1641925734385E+01
 0.1573466469675E+01
 0.1541191651690E+01
 0.1541953411994E+01
 0.1572118017744E+01
 0.1626141849518E+01
 0.1693195717109E+01
 0.2046732691945E+01
 0.1857479412128E+01
 0.1713389706839E+01
 0.1608802555832E+01
 0.1539453182647E+01
 0.1501735937434E+01
 0.1491959734884E+01
 0.1505362321917E+01
 0.1534536741145E+01
 0.1565606381359E+01
 0.1978024856343E+01
 0.1805124532243E+01
 0.1670487500072E+01
 0.1569863197132E+01
 0.1499675862463E+01
 0.1456468649796E+01
 0.1436243380033E+01
 0.1433456577717E+01
 0.1439497103901E+01
 0.1438969890479E+01
 0.1902548273397E+01
 0.1746898067361E+01
 0.1622247616200E+01
 0.1525859065209E+01
 0.1454982101727E+01
 0.1406485654743E+01
 0.1376286720660E+01
 0.1358384958426E+01
 0.1343549228078E+01
 0.1316585253485E+01
 0.1821880435580E+01
 0.1683913885699E+01
 0.1569533263844E+01
 0.1477578600399E+01
 0.1406238393443E+01
 0.1352871355949E+01
 0.1313521316648E+01
 0.1282036270755E+01
 0.1249142656964E+01
 0.1200668911518E+01
 0.1737623371057E+01
 0.1617315783570E+01
 0.1513233972124E+01
 0.1425821227930E+01
 0.1354294230818E+01
 0.1296652946020E+01
 0.1249263234107E+01
 0.1206089854137E+01
 0.1158229885523E+01
 0.1092758660015E+01
 0.1651366675622E+01
 0.1548254174827E+01
 0.1454246567293E+01
 0.1371375053590E+01
 0.1299946811373E+01
 0.1238750866169E+01
 0.1184645883004E+01
 0.1131892258619E+01
 0.1072148733422E+01
 0.9937851327145E+00
 0.1564655741356E+01
 0.1477863510382E+01
 0.1393462674921E+01
 0.1314999105123E+01
 0.1243913903793E+01
 0.1179922671365E+01
 0.1120562920788E+01
 0.1060438618726E+01
 0.9917833787264E+00
 0.9041385235853E+00
 0.1478959937610E+01
 0.1407246184458E+01
 0.1331751662888E+01
 0.1257433407744E+01
 0.1186804202509E+01
 0.1120731041012E+01
 0.1057581357468E+01
 0.9924296975921E+00
 0.9177225645473E+00
 0.8238565396561E+00
 0.1395647667741E+01
 0.1337439662066E+01
 0.1269981022874E+01
 0.1199358753997E+01
 0.1129226506128E+01
 0.1061413905877E+01
 0.9959443118980E+00
 0.9280953833685E+00
 0.8506096232505E+00
 0.7529261196250E+00
 0.1315825615544E+01
 0.1269499338772E+01
 0.1208950777923E+01
 0.1141502500990E+01
 0.1071566471742E+01
 0.1002578692937E+01
 0.9346330706319E+00
 0.8675479250988E+00
 0.7907041711165E+00
 0.6928270568124E+00
 0.1240592769807E+01
 0.1203840347284E+01
 0.1150217274406E+01
 0.1084160831468E+01
 0.1014197789702E+01
 0.9442869134047E+00
 0.8754850491115E+00
 0.8036081067458E+00
 0.7424046875778E+00
 0.6464222023689E+00
 0.1163629995298E+01
 0.1146539732190E+01
 0.1092967283877E+01
 0.1028213782973E+01
 0.9571862471552E+00
 0.8863243806304E+00
 0.8181932228605E+00
 0.7468699398282E+00
 0.6628561797002E+00
 0.6638300459686E+00
 0.2795519432667E+01
 0.3941961610296E+00
 0.2200308120916E+00
 0.1555080520119E+00
 0.1066574459915E+00
 0.2750305866959E-01
-0.1125768420130E+00
-0.2733596353458E-01
 0.1024850767007E+01
 0.2863643947062E+01
 0.1951508703590E+01
 0.1061144031901E+01
 0.4910650927643E+00
 0.3526022238506E+00
 0.2936392136095E+00
 0.2384553414960E+00
 0.2337777361350E+00
 0.5085916178714E+00
 0.1421475781896E+01
 0.2951534805422E+01
 0.1802922251766E+01
 0.1196488901252E+01
 0.7981895592719E+00
 0.5699081976266E+00
 0.4914219281399E+00
 0.4701053680459E+00
 0.5592000761841E+00
 0.8983048626018E+00
 0.1711756281259E+01
 0.2940056028265E+01
 0.1786644613627E+01
 0.1313964021393E+01
 0.9928150416214E+00
 0.7898739878213E+00
 0.6973393999043E+00
 0.7002093360126E+00
 0.8377847996427E+00
 0.1193546353232E+01
 0.1892633519403E+01
 0.2887181244908E+01
 0.1825328903351E+01
 0.1424157573373E+01
 0.1152765883401E+01
 0.9776152792226E+00
 0.8969521228689E+00
 0.9134810010931E+00
 0.1069122753528E+01
 0.1408286294384E+01
 0.1996587208528E+01
 0.2800997386334E+01
 0.1885729211873E+01
 0.1531959041502E+01
 0.1293089108070E+01
 0.1142220391748E+01
 0.1075533262620E+01
 0.1101082849327E+01
 0.1253943844675E+01
 0.1557958185874E+01
 0.2042890181381E+01
 0.2692881625487E+01
 0.1953328573731E+01
 0.1634614350769E+01
 0.1419641563356E+01
 0.1286630534221E+01
 0.1230470202187E+01
 0.1258036339411E+01
 0.1395624900012E+01
 0.1654903347703E+01
 0.2046608171037E+01
 0.2571840721910E+01
 0.2019171207113E+01
 0.1728832708156E+01
 0.1532620584616E+01
 0.1412139721834E+01
 0.1361043938318E+01
 0.1384193425268E+01
 0.1499414420294E+01
 0.1709735307911E+01
 0.2019606715796E+01
 0.2444319086201E+01
 0.2076730860438E+01
 0.1810100066233E+01
 0.1631419640588E+01
 0.1518595145564E+01
 0.1467189226416E+01
 0.1480931647904E+01
 0.1570747782949E+01
 0.1736062759754E+01
 0.1969351660499E+01
 0.2314424560713E+01
 0.2109031322336E+01
 0.1880466325302E+01
 0.1714571306893E+01
 0.1605243758952E+01
 0.1549795813268E+01
 0.1548705052658E+01
 0.1612776587026E+01
 0.1742022938651E+01
 0.1929142531148E+01
 0.2156790684048E+01
 0.1138079704929E+01
 0.1095489775991E+01
 0.1035969707494E+01
 0.9660076493880E+00
 0.8919127610497E+00
 0.8146509795817E+00
 0.7370610532529E+00
 0.6612904404694E+00
 0.5814351600031E+00
 0.3978389651527E+00
 0.1085213545282E+01
 0.1034736660604E+01
 0.9556201412752E+00
 0.8698533399038E+00
 0.7822777274875E+00
 0.6960740384139E+00
 0.6163313120809E+00
 0.5440446762170E+00
 0.4565086370086E+00
 0.3788304156136E+00
 0.1049376950972E+01
 0.9809530776532E+00
 0.8803289870216E+00
 0.7749391706136E+00
 0.6732717351223E+00
 0.5790776952821E+00
 0.4984750183626E+00
 0.4286247623447E+00
 0.3652068592784E+00
 0.3054068816738E+00
 0.1031555469999E+01
 0.9383993200166E+00
 0.8086705193422E+00
 0.6794167935950E+00
 0.5624060750373E+00
 0.4620845050545E+00
 0.3833227774939E+00
 0.3225914306693E+00
 0.2717664657906E+00
 0.2242519242387E+00
 0.1039012678274E+01
 0.9085191326761E+00
 0.7387970778460E+00
 0.5789277789099E+00
 0.4462646720854E+00
 0.3439040434351E+00
 0.2722889688059E+00
 0.2217495257939E+00
 0.1824721645493E+00
 0.1433863756821E+00
 0.1083989387169E+01
 0.8931892159745E+00
 0.6654029876029E+00
 0.4657551483835E+00
 0.3209863181150E+00
 0.2249031408995E+00
 0.1667252130291E+00
 0.1284639954284E+00
 0.9940587361442E-01
 0.6689648933614E-01
 0.1189555801302E+01
 0.8944012243079E+00
 0.5744543659945E+00
 0.3283362481182E+00
 0.1835342601455E+00
 0.1098893534017E+00
 0.6979405807441E-01
 0.4450551967957E-01
 0.2391929035174E-01
-0.4106253300038E-02
 0.1411283008480E+01
 0.9031168631052E+00
 0.4376092017063E+00
 0.1446295508538E+00
 0.4736577705231E-01
 0.5089489757004E-02
-0.1555150797512E-01
-0.2899224864442E-01
-0.4377114395718E-01
-0.6942723751165E-01
 0.1879857133119E+01
 0.9029309189242E+00
 0.1227651352977E+00
-0.3406935869449E-01
-0.7575544279864E-01
-0.8467943875109E-01
-0.8745259386704E-01
-0.9208229070220E-01
-0.1034926579632E+00
-0.1293674298572E+00
 0.3531825011239E+01
 0.5293615471308E-01
-0.1361109996335E+00
-0.1851356579771E+00
-0.1801124870413E+00
-0.1587095332906E+00
-0.1454067882525E+00
-0.1426752757046E+00
-0.1604174148448E+00
-0.1788689316293E+00
 0.2593056244442E+01
 0.2662271372516E+01
 0.2823317825710E+01
 0.3001845468305E+01
 0.3196234218969E+01
 0.3405106198135E+01
 0.3631655451578E+01
 0.3884987638706E+01
 0.4174457913299E+01
 0.4592619943717E+01
 0.2467572227055E+01
 0.2670471706788E+01
 0.2854689762315E+01
 0.3076168936316E+01
 0.3328243183603E+01
 0.3615815962494E+01
 0.3945247490508E+01
 0.4325198334130E+01
 0.4775938786524E+01
 0.5305580624158E+01
 0.2402994511245E+01
 0.2599226652837E+01
 0.2817649079770E+01
 0.3061962006564E+01
 0.3347094664608E+01
 0.3679531139317E+01
 0.4068104533817E+01
 0.4523055601590E+01
 0.5051526247141E+01
 0.5649356398553E+01
 0.2312435911882E+01
 0.2502732044183E+01
 0.2718916115334E+01
 0.2969031696430E+01
 0.3261098056810E+01
 0.3605874642817E+01
 0.4013954609134E+01
 0.4495917209776E+01
 0.5059985938581E+01
 0.5715567150634E+01
 0.2198892611884E+01
 0.2371390211659E+01
 0.2571394876863E+01
 0.2804283251762E+01
 0.3078208995591E+01
 0.3402882911524E+01
 0.3790234875083E+01
 0.4253731221818E+01
 0.4807231170100E+01
 0.5462228206949E+01
 0.2063348020773E+01
 0.2209099564349E+01
 0.2377982629792E+01
 0.2574356686401E+01
 0.2804206896614E+01
 0.3075597333177E+01
 0.3399219278809E+01
 0.3790205902765E+01
 0.4268762388616E+01
 0.4852961271496E+01
 0.1911846537263E+01
 0.2023515485727E+01
 0.2150515295217E+01
 0.2295115037845E+01
 0.2460490259692E+01
 0.2650916248727E+01
 0.2872705657052E+01
 0.3136281385885E+01
 0.3463298719173E+01
 0.3892919930848E+01
 0.1751501074203E+01
 0.1825411717645E+01
 0.1904852491111E+01
 0.1989755407286E+01
 0.2079718353549E+01
 0.2173956484017E+01
 0.2271332452091E+01
 0.2371169933187E+01
 0.2476024837046E+01
 0.2623663007148E+01
 0.1589773216301E+01
 0.1625756871744E+01
 0.1657748587001E+01
 0.1683496617652E+01
 0.1699285923436E+01
 0.1699492296910E+01
 0.1675579144103E+01
 0.1613956364669E+01
 0.1491286824932E+01
 0.1258365274630E+01
 0.1433110862536E+01
 0.1433956111349E+01
 0.1423765080669E+01
 0.1398815398970E+01
 0.1353525222599E+01
 0.1279792133129E+01
 0.1165587754064E+01
 0.9919176382699E+00
 0.7251929002921E+00
 0.2791320982636E+00
 0.1285929160685E+01
 0.1256721794251E+01
 0.1212776310673E+01
 0.1150083269919E+01
 0.1063151157177E+01
 0.9445715545357E+00
 0.7842878529947E+00
 0.5684328793383E+00
 0.2774461291739E+00
-0.1018630904691E+00
 0.1151020683586E+01
 0.1098008894559E+01
 0.1029475216685E+01
 0.9420786953150E+00
 0.8318021848325E+00
 0.6939518795756E+00
 0.5234640659275E+00
 0.3162073545159E+00
 0.7401010361818E-01
-0.1719960852188E+00
 0.1029326456233E+01
 0.9587899684086E+00
 0.8738166925789E+00
 0.7722943790212E+00
 0.6521393073827E+00
 0.5116528003180E+00
 0.3504222012641E+00
 0.1711658435452E+00
-0.1585644932962E-01
-0.1992267994717E+00
 0.9208520018932E+00
 0.8383111941199E+00
 0.7434757462613E+00
 0.6356011506389E+00
 0.5143538166489E+00
 0.3802440615169E+00
 0.2353386432713E+00
 0.8433840882914E-01
-0.6659409391081E-01
-0.2118865537122E+00
 0.8250197292796E+00
 0.7348649058388E+00
 0.6349754718760E+00
 0.5259015234236E+00
 0.4085971444869E+00
 0.2845785614342E+00
 0.1563726303528E+00
 0.2733386843808E-01
-0.9882876633348E-01
-0.2190348628107E+00
 0.7409603981394E+00
 0.6461675910010E+00
 0.5441215563110E+00
 0.4369248415670E+00
 0.3260914885204E+00
 0.2131716835526E+00
 0.9984178514652E-01
-0.1207000626358E-01
-0.1210972875253E+00
-0.2254118245112E+00
 0.6678950422362E+00
 0.5687193991639E+00
 0.4656564260437E+00
 0.3617164449837E+00
 0.2586789099703E+00
 0.1569316004974E+00
 0.5689610282945E-01
-0.4102783743832E-01
-0.1367878621151E+00
-0.2320909231832E+00
 0.6032234722028E+00
 0.4977885826009E+00
 0.3923533544640E+00
 0.2935246049078E+00
 0.1996472813630E+00
 0.1093376485855E+00
 0.2171768012899E-01
-0.6395390536385E-01
-0.1482705399822E+00
-0.2325363155325E+00
 0.5467570626644E+00
 0.4212192624337E+00
 0.3185429301330E+00
 0.2292538298448E+00
 0.1473635587203E+00
 0.6969896536096E-01
-0.5635231402372E-02
-0.7960485345019E-01
-0.1535704017539E+00
-0.2258710388465E+00
 0.4532731338711E+00
 0.3286606731301E+00
 0.2425734331911E+00
 0.1704332908399E+00
 0.1048690853413E+00
 0.4165047405286E-01
-0.2101987987089E-01
-0.8394881232996E-01
-0.1462766859151E+00
-0.2126589257781E+00
</DataArray>
<DataArray type="Float64" Name="S_Oct" NumberOfComponents="1" ComponentName0="S_Oct" format="ascii">
 0.2484970931952E+01
 0.2191743313910E+01
 0.1884409457720E+01
 0.1677917955043E+01
 0.1473494385563E+01
 0.1271108985996E+01
 0.1061761006279E+01
 0.8411209422285E+00
 0.6036164572385E+00
 0.3411884569576E+00
 0.3961475054553E-01
 0.3101234641310E+00
 0.6902406255250E+00
 0.1072011347009E+01
 0.1432661419880E+01
 0.1751055020278E+01
 0.2019309615590E+01
 0.2226393238078E+01
 0.2447286994426E+01
 0.2188694168348E+01
 0.3936341424628E+01
 0.1937341455851E+01
 0.1953549254336E+01
 0.1713284545019E+01
 0.1504361513968E+01
 0.1312075319790E+01
 0.1117876603256E+01
 0.9178117862791E+00
 0.7068776571809E+00
 0.4802435396393E+00
 0.2322551241851E+00
 0.4193624542098E-01
 0.3337620152889E+00
 0.6353892178095E+00
 0.9294016850715E+00
 0.1197121607246E+01
 0.1421991512132E+01
 0.1583616033648E+01
 0.1666068407514E+01
 0.1554604643014E+01
 0.1258252190488E+01
 0.3463127941366E+01
 0.1571123295956E+01
 0.1647234540662E+01
 0.1516341269864E+01
 0.1329864348392E+01
 0.1150664298476E+01
 0.9685284754804E+00
 0.7797896829659E+00
 0.5811474550835E+00
 0.3692058174292E+00
 0.1425855265195E+00
 0.9982068245704E-01
 0.3417019054295E+00
 0.5797764345352E+00
 0.8030038804774E+00
 0.9979658314160E+00
 0.1149452666571E+01
 0.1238834542408E+01
 0.1233187894376E+01
 0.1083838184279E+01
 0.1207896574775E+01
 0.3247060896672E+01
 0.1289241654320E+01
 0.1364331413457E+01
 0.1300038834051E+01
 0.1152675587107E+01
 0.9905816435082E+00
 0.8227548154663E+00
 0.6475428218475E+00
 0.4635353171444E+00
 0.2696679394346E+00
 0.7046598233153E-01
 0.1435689448981E+00
 0.3415662001059E+00
 0.5278051339306E+00
 0.6952379969686E+00
 0.8346524730793E+00
 0.9345536830368E+00
 0.9802810663966E+00
 0.9535971505443E+00
 0.9158727526013E+00
 0.1396325814879E+01
 0.3038369879803E+01
 0.1055031873475E+01
 0.1113614809156E+01
 0.1084149572970E+01
 0.9733449751527E+00
 0.8325011046965E+00
 0.6806532136496E+00
 0.5207542788694E+00
 0.3534303935722E+00
 0.1803989157060E+00
 0.3509915638434E-01
 0.1785677316666E+00
 0.3386045788374E+00
 0.4827755227564E+00
 0.6070491322477E+00
 0.7060597729652E+00
 0.7731013968112E+00
 0.8017586091012E+00
 0.8042121532690E+00
 0.9169026504973E+00
 0.1570066340729E+01
 0.2862807547619E+01
 0.8512005262294E+00
 0.8910305854174E+00
 0.8779035110740E+00
 0.7957136901603E+00
 0.6769013935965E+00
 0.5423584127715E+00
 0.3990789148588E+00
 0.2501386646757E+00
 0.1015167908415E+00
 0.7289508508483E-01
 0.2087216941331E+00
 0.3363323764066E+00
 0.4466596423648E+00
 0.5382647497994E+00
 0.6093812217193E+00
 0.6586310530626E+00
 0.6911748890536E+00
 0.7487738584015E+00
 0.9948883584105E+00
 0.1691466512152E+01
 0.2722383810362E+01
 0.6683802651683E+00
 0.6912145538428E+00
 0.6843434947357E+00
 0.6229536208331E+00
 0.5246382936877E+00
 0.4079267611218E+00
 0.2822275867593E+00
 0.1535170852160E+00
 0.4716473492086E-01
 0.1233069142768E+00
 0.2368087433997E+00
 0.3369539788265E+00
 0.4202846925495E+00
 0.4876696436239E+00
 0.5406658039612E+00
 0.5836611020866E+00
 0.6344457731356E+00
 0.7566894188551E+00
 0.1095872884700E+01
 0.1771976829033E+01
 0.2611584559826E+01
 0.5009673278521E+00
 0.5095674090300E+00
 0.5036713864985E+00
 0.4568601443342E+00
 0.3765396894166E+00
 0.2774783804060E+00
 0.1703519729130E+00
 0.6847708302448E-01
 0.7676383914331E-01
 0.1733536696408E+00
 0.2648039362132E+00
 0.3417400003177E+00
 0.4036306761158E+00
 0.4533712399440E+00
 0.4956616244826E+00
 0.5410244280637E+00
 0.6192050928464E+00
 0.8026965567677E+00
 0.1196351559141E+01
 0.1827515558848E+01
 0.2523752267996E+01
 0.3453412981912E+00
 0.3424687613904E+00
 0.3349048873451E+00
 0.2981203637851E+00
 0.2332282090347E+00
 0.1516130656140E+00
 0.6811639229746E-01
 0.6054342526495E-01
 0.1412798354352E+00
 0.2230374227079E+00
 0.2941229912317E+00
 0.3513639871176E+00
 0.3961949633569E+00
 0.4333049999307E+00
 0.4705257063314E+00
 0.5247013175571E+00
 0.6345420957290E+00
 0.8678142241062E+00
 0.1287815872624E+01
 0.1871120680869E+01
 0.2453143549853E+01
 0.1990357462883E+00
 0.1871854941423E+00
 0.1766439926028E+00
 0.1467539953775E+00
 0.9581311234038E-01
 0.4050001363973E-01
 0.6624296611802E-01
 0.1380069887709E+00
 0.2094622201440E+00
 0.2732685599680E+00
 0.3257946208750E+00
 0.3661658712806E+00
 0.3973202401084E+00
 0.4256173945276E+00
 0.4621138945406E+00
 0.5295227545495E+00
 0.6705229113155E+00
 0.9398678886957E+00
 0.1367323935125E+01
 0.1909952936363E+01
 0.2396620882261E+01
 0.6068116938286E-01
 0.4331053940863E-01
 0.2776664746230E-01
 0.1066321902474E-01
 0.4727754836052E-01
 0.1023273675643E+00
 0.1631466859628E+00
 0.2234506400755E+00
 0.2784438978591E+00
 0.3246904336062E+00
 0.3603845225942E+00
 0.3861804463892E+00
 0.4062878482284E+00
 0.4286992244430E+00
 0.4676640199295E+00
 0.5503390874412E+00
 0.7183702123048E+00
 0.1010975395565E+01
 0.1435487069086E+01
 0.1937398572405E+01
 0.2386650364559E+01
 0.7390703006534E-01
 0.9917922863682E-01
 0.1140058567833E+00
 0.1370631346563E+00
 0.1728590322157E+00
 0.2174170731016E+00
 0.2648173829119E+00
 0.3097706722679E+00
 0.3482917504569E+00
 0.3779955669929E+00
 0.3983837188320E+00
 0.4114085257526E+00
 0.4224534840308E+00
 0.4411357959479E+00
 0.4845845989093E+00
 0.5824147572253E+00
 0.7717722023025E+00
 0.1077827371176E+01
 0.1492501594472E+01
 0.1959652850135E+01
 0.2373701452869E+01
 0.2015338046345E+00
 0.2308350287023E+00
 0.2491987836444E+00
 0.2702553724839E+00
 0.2987775859403E+00
 0.3325230154935E+00
 0.3667288301845E+00
 0.3968653890826E+00
 0.4197361772947E+00
 0.4339812788866E+00
 0.4403261576283E+00
 0.4419310886726E+00
 0.4453219121202E+00
 0.4616914908272E+00
 0.5104718931991E+00
 0.6218113450079E+00
 0.8268439440807E+00
 0.1139117236529E+01
 0.1540984864477E+01
 0.1976399085638E+01
 0.2360761789677E+01
 0.3255838478870E+00
 0.3581701624730E+00
 0.3794492498765E+00
 0.3994617576536E+00
 0.4223062921354E+00
 0.4466272561563E+00
 0.4687338089505E+00
 0.4850250579966E+00
 0.4932357588152E+00
 0.4930723975801E+00
 0.4864399889264E+00
 0.4776506963949E+00
 0.4743437159886E+00
 0.4891412944259E+00
 0.5430387079613E+00
 0.6652807862419E+00
 0.8808347012293E+00
 0.1194361847569E+01
 0.1582109545704E+01
 0.1990688520600E+01
 0.2351459506290E+01
 0.4465463418575E+00
 0.4818398053376E+00
 0.5058411992524E+00
 0.5255031649387E+00
 0.5438864634566E+00
 0.5600466221572E+00
 0.5711867656450E+00
 0.5746635027774E+00
 0.5692050214478E+00
 0.5555895888593E+00
 0.5368499526042E+00
 0.5183959226060E+00
 0.5089247496179E+00
 0.5222541955252E+00
 0.5802181368200E+00
 0.7103348038708E+00
 0.9320665597312E+00
 0.1243518332584E+01
 0.1617374829501E+01
 0.2003864873091E+01
 0.2345090180539E+01
 0.5650776033326E+00
 0.6027125764331E+00
 0.6293776656930E+00
 0.6492566291174E+00
 0.6641807751339E+00
 0.6732997947397E+00
 0.6745443060129E+00
 0.6662026397465E+00
 0.6480052535390E+00
 0.6217751469122E+00
 0.5916075123258E+00
 0.5639448732221E+00
 0.5484532799281E+00
 0.5598668507184E+00
 0.6202705196619E+00
 0.7551728983605E+00
 0.9795415737981E+00
 0.1286842168023E+01
 0.1647901392431E+01
 0.2016283643865E+01
 0.2341244498565E+01
 0.6817863949190E+00
 0.7215985157715E+00
 0.7509794896464E+00
 0.7715766471012E+00
 0.7838912903960E+00
 0.7869524380380E+00
 0.7792793368646E+00
 0.7600428368450E+00
 0.7299501363533E+00
 0.6918168361161E+00
 0.6507213338992E+00
 0.6140590805833E+00
 0.5923481213229E+00
 0.6009595448260E+00
 0.6618261758149E+00
 0.7985462520943E+00
 0.1022703106755E+01
 0.1324665253211E+01
 0.1674402763732E+01
 0.2028104883508E+01
 0.2339711592043E+01
 0.7972322943559E+00
 0.8392410288397E+00
 0.8714976102631E+00
 0.8932814075234E+00
 0.9037164325262E+00
 0.9015726717841E+00
 0.8858529962881E+00
 0.8565549033674E+00
 0.8153147209725E+00
 0.7658687861001E+00
 0.7141858528807E+00
 0.6685197672062E+00
 0.6401077169802E+00
 0.6447092755061E+00
 0.7038762481817E+00
 0.8396292646257E+00
 0.1061264659435E+01
 0.1357280389805E+01
 0.1697340300125E+01
 0.2039463162732E+01
 0.2340459715746E+01
 0.9119360009469E+00
 0.9563292948411E+00
 0.9917263069857E+00
 0.1015150630041E+01
 0.1024333943408E+01
 0.1017711267179E+01
 0.9947017744491E+00
 0.9560778751996E+00
 0.9043437667993E+00
 0.8440686792369E+00
 0.7820058670464E+00
 0.7271601589671E+00
 0.6913492379208E+00
 0.6905166415687E+00
 0.7457396451420E+00
 0.8779160641704E+00
 0.1095095747019E+01
 0.1384908969878E+01
 0.1717015561056E+01
 0.2050501739522E+01
 0.2343607942244E+01
 0.1026390044491E+01
 0.1073512662654E+01
 0.1112416279523E+01
 0.1137927654516E+01
 0.1146392242313E+01
 0.1135889737845E+01
 0.1106229229706E+01
 0.1058917708615E+01
 0.9972579752224E+00
 0.9265508810887E+00
 0.8542159927291E+00
 0.7898908220356E+00
 0.7458351010929E+00
 0.7380141701139E+00
 0.7870261114738E+00
 0.9131454910562E+00
 0.1124155328002E+01
 0.1407694475435E+01
 0.1733613423244E+01
 0.2061368459944E+01
 0.2349397840983E+01
 0.1141069008220E+01
 0.1191414907893E+01
 0.1234287620704E+01
 0.1262323491490E+01
 0.1270505129152E+01
 0.1256591163780E+01
 0.1220798689060E+01
 0.1165345005660E+01
 0.1094257473204E+01
 0.1013455330651E+01
 0.9308945295995E+00
 0.8567173932249E+00
 0.8034887525534E+00
 0.7870652061967E+00
 0.8276058933482E+00
 0.9452537891555E+00
 0.1148456794970E+01
 0.1425701680500E+01
 0.1747216573358E+01
 0.2072200293355E+01
 0.2358164421890E+01
 0.1256439753722E+01
 0.1310648678984E+01
 0.1358043032156E+01
 0.1389021725748E+01
 0.1397247519306E+01
 0.1380251428404E+01
 0.1338725310552E+01
 0.1275590927576E+01
 0.1195522268021E+01
 0.1104932157303E+01
 0.1012171754562E+01
 0.9277513104856E+00
 0.8644028811026E+00
 0.8377601199143E+00
 0.8675907274779E+00
 0.9743515448773E+00
 0.1168054114232E+01
 0.1438916228296E+01
 0.1757803896930E+01
 0.2083102911886E+01
 0.2370307731453E+01
 0.1372972401021E+01
 0.1431831018405E+01
 0.1484381772070E+01
 0.1518683571828E+01
 0.1527150728828E+01
 0.1507249471056E+01
 0.1460266630841E+01
 0.1389840932195E+01
 0.1301209643616E+01
 0.1201142149854E+01
 0.1098232924135E+01
 0.1003214519527E+01
 0.9288428224596E+00
 0.8904138846230E+00
 0.9073275675764E+00
 0.1000721738178E+01
 0.1183044264081E+01
 0.1447244456547E+01
 0.1765239120041E+01
 0.2094126456248E+01
 0.2386266865227E+01
 0.1491152964214E+01
 0.1555601082084E+01
 0.1614014863009E+01
 0.1651952413282E+01
 0.1660695996991E+01
 0.1637895421766E+01
 0.1585610976170E+01
 0.1508226141375E+01
 0.1411448543601E+01
 0.1302253219395E+01
 0.1189316237856E+01
 0.1083438868810E+01
 0.9972467981862E+00
 0.9455668082695E+00
 0.9474047961309E+00
 0.1024837121247E+01
 0.1193585096377E+01
 0.1450515225099E+01
 0.1769252976841E+01
 0.2105237316994E+01
 0.2406497337435E+01
 0.1611498776711E+01
 0.1682641473291E+01
 0.1747682125528E+01
 0.1789457022741E+01
 0.1798304900941E+01
 0.1772415642448E+01
 0.1714863354540E+01
 0.1630812356828E+01
 0.1526331145211E+01
 0.1408433108579E+01
 0.1285706007182E+01
 0.1168860522829E+01
 0.1070223509685E+01
 0.1003988582432E+01
 0.9886699602598E+00
 0.1047396660043E+01
 0.1199930801874E+01
 0.1448486584580E+01
 0.1769421117220E+01
 0.2116285696767E+01
 0.2431451171864E+01
 0.1734578242894E+01
 0.1813705018236E+01
 0.1886171522287E+01
 0.1931812201559E+01
 0.1940325002176E+01
 0.1910933696429E+01
 0.1848028569819E+01
 0.1757586821217E+01
 0.1645901847994E+01
 0.1519838584361E+01
 0.1387721138748E+01
 0.1260009193942E+01
 0.1148546443849E+01
 0.1066684398547E+01
 0.1032257445344E+01
 0.1069381975345E+01
 0.1202490035807E+01
 0.1440860925973E+01
 0.1765140011467E+01
 0.2126970083084E+01
 0.2461555197615E+01
 0.1861037149102E+01
 0.1949649465860E+01
 0.2030341085457E+01
 0.2079614793067E+01
 0.2087008619487E+01
 0.2053446363622E+01
 0.1984991559544E+01
 0.1888442983915E+01
 0.1770143985809E+01
 0.1636601438901E+01
 0.1495699068647E+01
 0.1357491686157E+01
 0.1233143266570E+01
 0.1134900672157E+01
 0.1079623446603E+01
 0.1092135608540E+01
 0.1201915756443E+01
 0.1427312790378E+01
 0.1755602643806E+01
 0.2136806347667E+01
 0.2497174434666E+01
 0.1991634950750E+01
 0.2091483582883E+01
 0.2181143162774E+01
 0.2233431699732E+01
 0.2238482047977E+01
 0.2199794122793E+01
 0.2125495415643E+01
 0.2023163761596E+01
 0.1898964680446E+01
 0.1758811800160E+01
 0.1609975516340E+01
 0.1461969268583E+01
 0.1325077955032E+01
 0.1210126409434E+01
 0.1132584498083E+01
 0.1117460270474E+01
 0.1199246772515E+01
 0.1407529636785E+01
 0.1739773008993E+01
 0.2145127708853E+01
 0.2538517559165E+01
 0.2127296503288E+01
 0.2240429447671E+01
 0.2339649375055E+01
 0.2393774146397E+01
 0.2394701662404E+01
 0.2349625965031E+01
 0.2269117964020E+01
 0.2161403703893E+01
 0.2032177961649E+01
 0.1886499090238E+01
 0.1730860523293E+01
 0.1574128435873E+01
 0.1425522826927E+01
 0.1294083688987E+01
 0.1193354291008E+01
 0.1147732812295E+01
 0.1196125614127E+01
 0.1381308879853E+01
 0.1716245322474E+01
 0.2151329751494E+01
 0.2585217694733E+01
 0.2269188503267E+01
 0.2398007311407E+01
 0.2507072371457E+01
 0.2561048622843E+01
 0.2555392936685E+01
 0.2502359880339E+01
 0.2415248901929E+01
 0.2302670748113E+01
 0.2169486260995E+01
 0.2019611253999E+01
 0.1858611965205E+01
 0.1694645898655E+01
 0.1535717724786E+01
 0.1388700453660E+01
 0.1264563661707E+01
 0.1186041349889E+01
 0.1195052320913E+01
 0.1348955073095E+01
 0.1682622213075E+01
 0.2155564382550E+01
 0.2635674872991E+01
 0.2418855595711E+01
 0.2566284067239E+01
 0.2684997928765E+01
 0.2735774429659E+01
 0.2720335035371E+01
 0.2657561622407E+01
 0.2563543788918E+01
 0.2446841788258E+01
 0.2311059715350E+01
 0.2158659924547E+01
 0.1994139366205E+01
 0.1824935151890E+01
 0.1657736457622E+01
 0.1496868892470E+01
 0.1349992527054E+01
 0.1236832491629E+01
 0.1200053372837E+01
 0.1311234624354E+01
 0.1636552553482E+01
 0.2152366841378E+01
 0.2707701410553E+01
 0.2578355665541E+01
 0.2747794353301E+01
 0.2874922831731E+01
 0.2917835042889E+01
 0.2888524205903E+01
 0.2814068012420E+01
 0.2712960773416E+01
 0.2593078425181E+01
 0.2456328818245E+01
 0.2303401234364E+01
 0.2137583100695E+01
 0.1965635928548E+01
 0.1792916159770E+01
 0.1620899357724E+01
 0.1453236671915E+01
 0.1305141052057E+01
 0.1216763201532E+01
 0.1270886038143E+01
 0.1573824868219E+01
 0.2139838324736E+01
 0.2787652026762E+01
 0.2750565006860E+01
 0.2945794652415E+01
 0.3078154021578E+01
 0.3106231675186E+01
 0.3058057017209E+01
 0.2969983302257E+01
 0.2861765856273E+01
 0.2739796828688E+01
 0.2603924236542E+01
 0.2452762557551E+01
 0.2288233338619E+01
 0.2116513549770E+01
 0.1941713952911E+01
 0.1762325048874E+01
 0.1577550700980E+01
 0.1396704419645E+01
 0.1253447978339E+01
 0.1234541497383E+01
 0.1492285261254E+01
 0.2109659686583E+01
 0.2879378406248E+01
 0.2939730674566E+01
 0.3164781822411E+01
 0.3295874852210E+01
 0.3299223583307E+01
 0.3226707794041E+01
 0.3123530199494E+01
 0.3008487862862E+01
 0.2885694037789E+01
 0.2752796457401E+01
 0.2606081947337E+01
 0.2445881882508E+01
 0.2277860657197E+01
 0.2105040524048E+01
 0.1922992334336E+01
 0.1726492501673E+01
 0.1518154952258E+01
 0.1320948801278E+01
 0.1214239088402E+01
 0.1391524550771E+01
 0.2051225669502E+01
 0.2988442723208E+01
 0.3152395126103E+01
 0.3410763268766E+01
 0.3528210008534E+01
 0.3493447384438E+01
 0.3391556641351E+01
 0.3272763432071E+01
 0.3151510809807E+01
 0.3029208377381E+01
 0.2901571086572E+01
 0.2762430512733E+01
 0.2610169632611E+01
 0.2449857097962E+01
 0.2283570507178E+01
 0.2104269613789E+01
 0.1902994181773E+01
 0.1676122174628E+01
 0.1432723963083E+01
 0.1230377640092E+01
 0.1279206104220E+01
 0.1949813680987E+01
 0.3121780841890E+01
 0.3399229533889E+01
 0.3691533073791E+01
 0.3772537063773E+01
 0.3683146174063E+01
 0.3549201881023E+01
 0.3415770261062E+01
 0.3289152574916E+01
 0.3168502020898E+01
 0.3048424328015E+01
 0.2920496995485E+01
 0.2780596919228E+01
 0.2632668652345E+01
 0.2477764733500E+01
 0.2306848560557E+01
 0.2108799301073E+01
 0.1875957281346E+01
 0.1603709133602E+01
 0.1313563441515E+01
 0.1183778808431E+01
 0.1785523157813E+01
 0.3289206130822E+01
 0.3698915883818E+01
 0.4016076517254E+01
 0.4019801561933E+01
 0.3859701375999E+01
 0.3696461975478E+01
 0.3550868971583E+01
 0.3419793084063E+01
 0.3301483741989E+01
 0.3190882007654E+01
 0.3078355200318E+01
 0.2956543712794E+01
 0.2826676376931E+01
 0.2688005401842E+01
 0.2530543671926E+01
 0.2343927182528E+01
 0.2120098811518E+01
 0.1846754563713E+01
 0.1504084162414E+01
 0.1174881674108E+01
 0.1543988081397E+01
 0.3502849429905E+01
 0.4087334756406E+01
 0.4389662366020E+01
 0.4247060938636E+01
 0.4013415003453E+01
 0.3831469882109E+01
 0.3676591045217E+01
 0.3542150748470E+01
 0.3425923673491E+01
 0.3325530681633E+01
 0.3232959822565E+01
 0.3137276419309E+01
 0.3032970862174E+01
 0.2914886375795E+01
 0.2774141914692E+01
 0.2606009496317E+01
 0.2407155445578E+01
 0.2165759410539E+01
 0.1844666851603E+01
 0.1375213015610E+01
 0.1281870770531E+01
 0.3773925254775E+01
 0.4643167373263E+01
 0.4787335012184E+01
 0.4407864088577E+01
 0.4142770117162E+01
 0.3952515496483E+01
 0.3792082087085E+01
 0.3655550004094E+01
 0.3539842703298E+01
 0.3447733631529E+01
 0.3378993029431E+01
 0.3321835058736E+01
 0.3254480507252E+01
 0.3159653756211E+01
 0.3035269319142E+01
 0.2889659921906E+01
 0.2731070077799E+01
 0.2552827310303E+01
 0.2347365088243E+01
 0.1957686041012E+01
 0.1372849646730E+01
 0.4103628605535E+01
 0.5580672671764E+01
 0.4994174892844E+01
 0.4487089750157E+01
 0.4252603027996E+01
 0.4057048218924E+01
 0.3898037679891E+01
 0.3759783722854E+01
 0.3642441753194E+01
 0.3552017602187E+01
 0.3506062381196E+01
 0.3508366353319E+01
 0.3498780985294E+01
 0.3424852351498E+01
 0.3309220963974E+01
 0.3188037493194E+01
 0.3076494067735E+01
 0.2996912037585E+01
 0.2952186292538E+01
 0.3055922170662E+01
 0.2624836194455E+01
 0.4989878133979E+01
 0.3504861617297E+00
 0.7090377085357E+00
 0.9639176253098E+00
 0.1156316243922E+01
 0.1309272406923E+01
 0.1436521527520E+01
 0.1548582210097E+01
 0.1650278603322E+01
 0.1729346256635E+01
 0.1755016259923E+01
 0.3305562976629E+00
 0.6979311868299E+00
 0.9585385322864E+00
 0.1152071610534E+01
 0.1302454723227E+01
 0.1424279663373E+01
 0.1528327554831E+01
 0.1616829117430E+01
 0.1675240292716E+01
 0.1676745273863E+01
 0.3141135299094E+00
 0.6843946029411E+00
 0.9463780256828E+00
 0.1138209375603E+01
 0.1283777241067E+01
 0.1397849789310E+01
 0.1489675009861E+01
 0.1559328084794E+01
 0.1593122777685E+01
 0.1571535062804E+01
 0.3006568222198E+00
 0.6684530502978E+00
 0.9278903199431E+00
 0.1115326143255E+01
 0.1253914843836E+01
 0.1357644092704E+01
 0.1434036142847E+01
 0.1481877386248E+01
 0.1489479673416E+01
 0.1443488381107E+01
 0.2900243201432E+00
 0.6501767574800E+00
 0.9035814837910E+00
 0.1084211267927E+01
 0.1213832831547E+01
 0.1305166141306E+01
 0.1364170880500E+01
 0.1389016175124E+01
 0.1370159130716E+01
 0.1298748368497E+01
 0.2821360889902E+00
 0.6298161876090E+00
 0.8740876324674E+00
 0.1045845910532E+01
 0.1164926378172E+01
 0.1242549646200E+01
 0.1283369128609E+01
 0.1285322653326E+01
 0.1240731348215E+01
 0.1143965281761E+01
 0.2769476730798E+00
 0.6077631235225E+00
 0.8402025076778E+00
 0.1001418409804E+01
 0.1108886733798E+01
 0.1172234052054E+01
 0.1195054689103E+01
 0.1175277097639E+01
 0.1106751575218E+01
 0.9860960628120E+00
 0.2744266968606E+00
 0.5845231986463E+00
 0.8028607125971E+00
 0.9522742149075E+00
 0.1047560146794E+01
 0.1096732417431E+01
 0.1102555717531E+01
 0.1063133238844E+01
 0.9736165848463E+00
 0.8322667325257E+00
 0.2745404042561E+00
 0.5606858128668E+00
 0.7630984077800E+00
 0.8998455392029E+00
 0.9828258313916E+00
 0.1018470739211E+01
 0.1008937547668E+01
 0.9527174245968E+00
 0.8462509558912E+00
 0.6892700672853E+00
 0.2772471230991E+00
 0.5368919224662E+00
 0.7220055805618E+00
 0.8455813518309E+00
 0.9164996621768E+00
 0.9396746070087E+00
 0.9168700151254E+00
 0.8472134886078E+00
 0.7286376847292E+00
 0.5625802312430E+00
 0.2824898061284E+00
 0.5138020540465E+00
 0.6806786501069E+00
 0.7908861155687E+00
 0.8502614906130E+00
 0.8622909026238E+00
 0.8285367930284E+00
 0.7489963117665E+00
 0.6233482392618E+00
 0.4550998964732E+00
 0.2901918692633E+00
 0.4920672655616E+00
 0.6401782167994E+00
 0.7370699460083E+00
 0.7856028203691E+00
 0.7879397963238E+00
 0.7455928173327E+00
 0.6595817481560E+00
 0.5314243719633E+00
 0.3668651404071E+00
 0.3002561595554E+00
 0.4723053032711E+00
 0.6014946139901E+00
 0.6853106563999E+00
 0.7237922319220E+00
 0.7178936020405E+00
 0.6691725378909E+00
 0.5797076088206E+00
 0.4527315338772E+00
 0.2961277385926E+00
 0.3125676305561E+00
 0.4550836173416E+00
 0.5655230145709E+00
 0.6366277887643E+00
 0.6658558106194E+00
 0.6530785767200E+00
 0.5999414184018E+00
 0.5095029083144E+00
 0.3864129974730E+00
 0.2404312352288E+00
 0.3269995962487E+00
 0.4409100367720E+00
 0.5330498059324E+00
 0.5918690046984E+00
 0.6125696894086E+00
 0.5940905187480E+00
 0.5381733563368E+00
 0.4486820548920E+00
 0.3312324996133E+00
 0.1970998901299E+00
 0.3434224789167E+00
 0.4302311560853E+00
 0.5047513760651E+00
 0.5517120966735E+00
 0.5644614686456E+00
 0.5412109666664E+00
 0.4838209673812E+00
 0.3967283261626E+00
 0.2858578806954E+00
 0.1635516303465E+00
 0.3617127234958E+00
 0.4234366638838E+00
 0.4812071984487E+00
 0.5166842835520E+00
 0.5218313422623E+00
 0.4944008944550E+00
 0.4365423206827E+00
 0.3530252911809E+00
 0.2491580687597E+00
 0.1375882928119E+00
 0.3817516383996E+00
 0.4208787073806E+00
 0.4629274688520E+00
 0.4871963397066E+00
 0.4847997083064E+00
 0.4533297213919E+00
 0.3955512578511E+00
 0.3169062502817E+00
 0.2204898225841E+00
 0.1178001268983E+00
 0.4034093396835E+00
 0.4228491728899E+00
 0.4504871906545E+00
 0.4635537533430E+00
 0.4533126668410E+00
 0.4175690100750E+00
 0.3595775149392E+00
 0.2866938077380E+00
 0.2004015403740E+00
 0.1041941996574E+00
 0.4260921715727E+00
 0.4302810098235E+00
 0.4445664459333E+00
 0.4459423332408E+00
 0.4271449343586E+00
 0.3865302817624E+00
 0.3278614062332E+00
 0.2589688424807E+00
 0.1854245392874E+00
 0.1040619014605E+00
 0.6091504367262E+00
 0.2921543999420E+00
 0.1620851514466E+00
 0.1355247013922E+00
 0.9600957850481E-01
 0.4485109665874E-01
 0.1803892327157E-01
 0.6459987205810E-01
 0.3277669371121E+00
 0.5585481210757E+00
 0.6579933969711E+00
 0.5535116630651E+00
 0.3831766249581E+00
 0.3286057547409E+00
 0.2980177127972E+00
 0.2722162970085E+00
 0.2822455421977E+00
 0.3918762418379E+00
 0.7083153944792E+00
 0.9881457927306E+00
 0.6293917875927E+00
 0.6662412551331E+00
 0.5848029626729E+00
 0.5368582882917E+00
 0.5214951928127E+00
 0.5274378254097E+00
 0.5734199337427E+00
 0.7187967780627E+00
 0.1048107154939E+01
 0.1327687331452E+01
 0.5933985669834E+00
 0.7245455296373E+00
 0.7286461007803E+00
 0.7261470733830E+00
 0.7404538332173E+00
 0.7783047312955E+00
 0.8537957776208E+00
 0.1019180966686E+01
 0.1332376552159E+01
 0.1582478224198E+01
 0.5571042988845E+00
 0.7570769356860E+00
 0.8327723688898E+00
 0.8810691400329E+00
 0.9329527422397E+00
 0.1002012853999E+01
 0.1100912826177E+01
 0.1273456661666E+01
 0.1553963941587E+01
 0.1760727528415E+01
 0.5220534271558E+00
 0.7740338056876E+00
 0.9067778183058E+00
 0.1000937247289E+01
 0.1088239692035E+01
 0.1184471354929E+01
 0.1300375578129E+01
 0.1470536585313E+01
 0.1710691232315E+01
 0.1871523488201E+01
 0.4879980808482E+00
 0.7791428151342E+00
 0.9557051576899E+00
 0.1086996599055E+01
 0.1203028607410E+01
 0.1319423258857E+01
 0.1445174290825E+01
 0.1605867526953E+01
 0.1804661681601E+01
 0.1924880882875E+01
 0.4543433688799E+00
 0.7735733406208E+00
 0.9821554581358E+00
 0.1141083318152E+01
 0.1277596603737E+01
 0.1406234973096E+01
 0.1534523052949E+01
 0.1680572989573E+01
 0.1841517638156E+01
 0.1930995893792E+01
 0.4203952245399E+00
 0.7573606667289E+00
 0.9879274248657E+00
 0.1165489097391E+01
 0.1314233642528E+01
 0.1447889721228E+01
 0.1572988597768E+01
 0.1701225170419E+01
 0.1829425740661E+01
 0.1899254165210E+01
 0.3842743270990E+00
 0.7309319818690E+00
 0.9756147254003E+00
 0.1163236900131E+01
 0.1316361226381E+01
 0.1448833584816E+01
 0.1568279273706E+01
 0.1681517452694E+01
 0.1782006041418E+01
 0.1836198307113E+01
 0.4502607658498E+00
 0.4447881563745E+00
 0.4432792508458E+00
 0.4283388055963E+00
 0.3953169209516E+00
 0.3450304456755E+00
 0.2822771388582E+00
 0.2141013478583E+00
 0.1503017864793E+00
 0.1038961714510E+00
 0.4806617989415E+00
 0.4649506837697E+00
 0.4455982708201E+00
 0.4100231158684E+00
 0.3591056303900E+00
 0.2973412558297E+00
 0.2307802024732E+00
 0.1654242251736E+00
 0.1128233881001E+00
 0.6884248930397E-01
 0.5158162542625E+00
 0.4920876655423E+00
 0.4537226802614E+00
 0.3965255573718E+00
 0.3278266554565E+00
 0.2554460500792E+00
 0.1861463753268E+00
 0.1252781773550E+00
 0.7887091285027E-01
 0.3685191089900E-01
 0.5567238996434E+00
 0.5261268183776E+00
 0.4648414544882E+00
 0.3832480948004E+00
 0.2962797390917E+00
 0.2145346756412E+00
 0.1445814963904E+00
 0.8929553235426E-01
 0.4956054393794E-01
 0.1625829789622E-01
 0.6048654590403E+00
 0.5653904341794E+00
 0.4737572839625E+00
 0.3636921098397E+00
 0.2584568492029E+00
 0.1699860634725E+00
 0.1028503573421E+00
 0.5672211155061E-01
 0.2754687772653E-01
 0.6799996598188E-02
 0.6617686222575E+00
 0.6059054736819E+00
 0.4717238605115E+00
 0.3289695080719E+00
 0.2079336341062E+00
 0.1180874445699E+00
 0.5938823459753E-01
 0.2740928156901E-01
 0.1284913069301E-01
 0.6072181953450E-02
 0.7285548205006E+00
 0.6389037068085E+00
 0.4440680404726E+00
 0.2678280418269E+00
 0.1393473384118E+00
 0.5788054656315E-01
 0.1476895259235E-01
 0.1919358092759E-02
 0.4704536719355E-02
 0.1418074399502E-01
 0.8036737441675E+00
 0.6444055269769E+00
 0.3666470227962E+00
 0.1685229505485E+00
 0.5389163549292E-01
 0.6554458396942E-02
 0.2813887966015E-01
 0.1985193834268E-01
 0.2923699079762E-02
 0.2908659262499E-01
 0.8771605074485E+00
 0.5712608762756E+00
 0.1992679465192E+00
 0.4014259648478E-01
 0.3533417999570E-01
 0.6694795372914E-01
 0.6461229486472E-01
 0.3539854323934E-01
 0.6444329139873E-02
 0.4896803390095E-01
 0.8374306356363E+00
 0.2586107610239E+00
 0.9599541116647E-02
 0.7869822120456E-01
 0.1123958436322E+00
 0.1152550052181E+00
 0.9078599090233E-01
 0.4351977826172E-01
 0.1357623771816E-01
 0.7201791681549E-01
 0.1792299634948E+01
 0.1843807546717E+01
 0.1865097091875E+01
 0.1860247976878E+01
 0.1821798219927E+01
 0.1740624484507E+01
 0.1604784870168E+01
 0.1398526189020E+01
 0.1101143559198E+01
 0.6755828785350E+00
 0.1679384784560E+01
 0.1740906524125E+01
 0.1774472210077E+01
 0.1781862600890E+01
 0.1757239514893E+01
 0.1689062750383E+01
 0.1561758256159E+01
 0.1355911502635E+01
 0.1048318201832E+01
 0.6205197148682E+00
 0.1549908371310E+01
 0.1594615464116E+01
 0.1627222292109E+01
 0.1637749235988E+01
 0.1619317800331E+01
 0.1560964668654E+01
 0.1447496821633E+01
 0.1260127040951E+01
 0.9790564783141E+00
 0.5919629127114E+00
 0.1402189033879E+01
 0.1424642527605E+01
 0.1441638964889E+01
 0.1444050871275E+01
 0.1423773107388E+01
 0.1371255935200E+01
 0.1273767207314E+01
 0.1115390938816E+01
 0.8786358759521E+00
 0.5493249687928E+00
 0.1237856338266E+01
 0.1235813772891E+01
 0.1231181375000E+01
 0.1217628184936E+01
 0.1189071882185E+01
 0.1138547344870E+01
 0.1057019788889E+01
 0.9322729972271E+00
 0.7483012303857E+00
 0.4888054829639E+00
 0.1062399261590E+01
 0.1034571629287E+01
 0.1005009703419E+01
 0.9704948573022E+00
 0.9279997832668E+00
 0.8744192574489E+00
 0.8057154271756E+00
 0.7153773811063E+00
 0.5916836428550E+00
 0.4164549007954E+00
 0.8833263016604E+00
 0.8296698963774E+00
 0.7739427350492E+00
 0.7153357159892E+00
 0.6538381145069E+00
 0.5904338284096E+00
 0.5268898266902E+00
 0.4648482640105E+00
 0.4028654002594E+00
 0.3281677029956E+00
 0.7096948734037E+00
 0.6325980409621E+00
 0.5525261912884E+00
 0.4701394761328E+00
 0.3876525508641E+00
 0.3093789958128E+00
 0.2422778820285E+00
 0.1961562409008E+00
 0.1829149101456E+00
 0.2128402027848E+00
 0.5511842996518E+00
 0.4565721549475E+00
 0.3586622891063E+00
 0.2592072465128E+00
 0.1626403962177E+00
 0.7981836593424E-01
 0.4973814686712E-01
 0.7019669330267E-01
 0.5414306910119E-01
 0.1030796412026E+00
 0.4159306654650E+00
 0.3128567985444E+00
 0.2080834273281E+00
 0.1059653036025E+00
 0.3919762957222E-01
 0.9909999053912E-01
 0.1598546366658E+00
 0.1796144291361E+00
 0.1256386014738E+00
 0.6439416909437E-01
 0.3076429519475E+00
 0.2056096905451E+00
 0.1059200187942E+00
 0.3324663783454E-01
 0.9128421902764E-01
 0.1573770504145E+00
 0.1942559754104E+00
 0.1830845032365E+00
 0.9849082476588E-01
 0.9382352032522E-01
 0.2251775906229E+00
 0.1315270144307E+00
 0.4729729936058E-01
 0.5270127066613E-01
 0.1142683643650E+00
 0.1557652138169E+00
 0.1635216216395E+00
 0.1245141087903E+00
 0.2561166090576E-01
 0.1379211496976E+00
 0.1647284094628E+00
 0.8369749804700E-01
 0.2542261567942E-01
 0.6441601540916E-01
 0.1075165779540E+00
 0.1268990825806E+00
 0.1140542514625E+00
 0.6231136427787E-01
 0.3080479305972E-01
 0.1582802971067E+00
 0.1220176564252E+00
 0.5530388010886E-01
 0.2390004950004E-01
 0.6012755573849E-01
 0.8665198184778E-01
 0.9043303858134E-01
 0.6668182749875E-01
 0.1363311380684E-01
 0.6628916181722E-01
 0.1645967574712E+00
 0.9300205288631E-01
 0.4031508330590E-01
 0.2183904386464E-01
 0.4739698610415E-01
 0.6180947201994E-01
 0.5639245287463E-01
 0.2888198118893E-01
 0.2026372919341E-01
 0.8649938346418E-01
 0.1630925949900E+00
 0.7425835727910E-01
 0.3390754830260E-01
 0.1694459964123E-01
 0.3214339505660E-01
 0.3887355052108E-01
 0.2916311417353E-01
 0.3283895898915E-02
 0.4128178771202E-01
 0.9632341145428E-01
 0.1580623934950E+00
 0.6312638884049E-01
 0.3263690487654E-01
 0.1352132421759E-01
 0.1893427431495E-01
 0.2129690474483E-01
 0.1040503434934E-01
 0.1563535089515E-01
 0.5287524893606E-01
 0.9970111605735E-01
 0.1527723556783E+00
 0.5772304605395E-01
 0.3369253234820E-01
 0.1367458471690E-01
 0.1058530288801E-01
 0.9971149906414E-02
 0.4285113281458E-02
 0.2578832047423E-01
 0.5872998469933E-01
 0.9972563066251E-01
 0.1472668330063E+00
 0.5582694539314E-01
 0.3248748517675E-01
 0.1351329672306E-01
 0.6616893164430E-02
 0.4415017556248E-02
 0.1306944518688E-01
 0.3375639254891E-01
 0.6225919469657E-01
 0.9727023739187E-01
 0.1380582080518E+00
 0.4947349227019E-01
 0.2483410550162E-01
 0.1424442101831E-01
 0.1156335572884E-01
 0.1582041311624E-01
 0.2675397344409E-01
 0.4334297641552E-01
 0.6478940829866E-01
 0.9056073956252E-01
 0.1212521401990E+00
</DataArray>
<DataArray type="Float64" Name="OI" NumberOfComponents="1" ComponentName0="OI" format="ascii">
 0.2484970931952E+01
 0.2191743313910E+01
 0.1884409457720E+01
 0.1677917955043E+01
 0.1473494385563E+01
 0.1271108985996E+01
 0.1061761006279E+01
 0.8411209422285E+00
 0.6036164572385E+00
 0.3411884569576E+00
 0.3961475054553E-01
 0.3101234641310E+00
 0.6902406255250E+00
 0.1072011347009E+01
 0.1432661419880E+01
 0.1751055020278E+01
 0.2019309615590E+01
 0.2226393238078E+01
 0.2447286994426E+01
 0.2188694168348E+01
 0.3936341424628E+01
 0.1937341455851E+01
 0.1953549254336E+01
 0.1713284545019E+01
 0.1504361513968E+01
 0.1312075319790E+01
 0.1117876603256E+01
 0.9178117862791E+00
 0.7068776571809E+00
 0.4802435396393E+00
 0.2322551241851E+00
 0.4193624542098E-01
 0.3337620152889E+00
 0.6353892178095E+00
 0.9294016850715E+00
 0.1197121607246E+01
 0.1421991512132E+01
 0.1583616033648E+01
 0.1666068407514E+01
 0.1554604643014E+01
 0.1258252190488E+01
 0.3463127941366E+01
 0.1571123295956E+01
 0.1647234540662E+01
 0.1516341269864E+01
 0.1329864348392E+01
 0.1150664298476E+01
 0.9685284754804E+00
 0.7797896829659E+00
 0.5811474550835E+00
 0.3692058174292E+00
 0.1425855265195E+00
 0.9982068245704E-01
 0.3417019054295E+00
 0.5797764345352E+00
 0.8030038804774E+00
 0.9979658314160E+00
 0.1149452666571E+01
 0.1238834542408E+01
 0.1233187894376E+01
 0.1083838184279E+01
 0.1207896574775E+01
 0.3247060896672E+01
 0.1289241654320E+01
 0.1364331413457E+01
 0.1300038834051E+01
 0.1152675587107E+01
 0.9905816435082E+00
 0.8227548154663E+00
 0.6475428218475E+00
 0.4635353171444E+00
 0.2696679394346E+00
 0.7046598233153E-01
 0.1435689448981E+00
 0.3415662001059E+00
 0.5278051339306E+00
 0.6952379969686E+00
 0.8346524730793E+00
 0.9345536830368E+00
 0.9802810663966E+00
 0.9535971505443E+00
 0.9158727526013E+00
 0.1396325814879E+01
 0.3038369879803E+01
 0.1055031873475E+01
 0.1113614809156E+01
 0.1084149572970E+01
 0.9733449751527E+00
 0.8325011046965E+00
 0.6806532136496E+00
 0.5207542788694E+00
 0.3534303935722E+00
 0.1803989157060E+00
 0.3509915638434E-01
 0.1785677316666E+00
 0.3386045788374E+00
 0.4827755227564E+00
 0.6070491322477E+00
 0.7060597729652E+00
 0.7731013968112E+00
 0.8017586091012E+00
 0.8042121532690E+00
 0.9169026504973E+00
 0.1570066340729E+01
 0.2862807547619E+01
 0.8512005262294E+00
 0.8910305854174E+00
 0.8779035110740E+00
 0.7957136901603E+00
 0.6769013935965E+00
 0.5423584127715E+00
 0.3990789148588E+00
 0.2501386646757E+00
 0.1015167908415E+00
 0.7289508508483E-01
 0.2087216941331E+00
 0.3363323764066E+00
 0.4466596423648E+00
 0.5382647497994E+00
 0.6093812217193E+00
 0.6586310530626E+00
 0.6911748890536E+00
 0.7487738584015E+00
 0.9948883584105E+00
 0.1691466512152E+01
 0.2722383810362E+01
 0.6683802651683E+00
 0.6912145538428E+00
 0.6843434947357E+00
 0.6229536208331E+00
 0.5246382936877E+00
 0.4079267611218E+00
 0.2822275867593E+00
 0.1535170852160E+00
 0.4716473492086E-01
 0.1233069142768E+00
 0.2368087433997E+00
 0.3369539788265E+00
 0.4202846925495E+00
 0.4876696436239E+00
 0.5406658039612E+00
 0.5836611020866E+00
 0.6344457731356E+00
 0.7566894188551E+00
 0.1095872884700E+01
 0.1771976829033E+01
 0.2611584559826E+01
 0.5009673278521E+00
 0.5095674090300E+00
 0.5036713864985E+00
 0.4568601443342E+00
 0.3765396894166E+00
 0.2774783804060E+00
 0.1703519729130E+00
 0.6847708302448E-01
 0.7676383914331E-01
 0.1733536696408E+00
 0.2648039362132E+00
 0.3417400003177E+00
 0.4036306761158E+00
 0.4533712399440E+00
 0.4956616244826E+00
 0.5410244280637E+00
 0.6192050928464E+00
 0.8026965567677E+00
 0.1196351559141E+01
 0.1827515558848E+01
 0.2523752267996E+01
 0.3453412981912E+00
 0.3424687613904E+00
 0.3349048873451E+00
 0.2981203637851E+00
 0.2332282090347E+00
 0.1516130656140E+00
 0.6811639229746E-01
 0.6054342526495E-01
 0.1412798354352E+00
 0.2230374227079E+00
 0.2941229912317E+00
 0.3513639871176E+00
 0.3961949633569E+00
 0.4333049999307E+00
 0.4705257063314E+00
 0.5247013175571E+00
 0.6345420957290E+00
 0.8678142241062E+00
 0.1287815872624E+01
 0.1871120680869E+01
 0.2453143549853E+01
 0.1990357462883E+00
 0.1871854941423E+00
 0.1766439926028E+00
 0.1467539953775E+00
 0.9581311234038E-01
 0.4050001363973E-01
 0.6624296611802E-01
 0.1380069887709E+00
 0.2094622201440E+00
 0.2732685599680E+00
 0.3257946208750E+00
 0.3661658712806E+00
 0.3973202401084E+00
 0.4256173945276E+00
 0.4621138945406E+00
 0.5295227545495E+00
 0.6705229113155E+00
 0.9398678886957E+00
 0.1367323935125E+01
 0.1909952936363E+01
 0.2396620882261E+01
 0.6068116938286E-01
 0.4331053940863E-01
 0.2776664746230E-01
 0.1066321902474E-01
 0.4727754836052E-01
 0.1023273675643E+00
 0.1631466859628E+00
 0.2234506400755E+00
 0.2784438978591E+00
 0.3246904336062E+00
 0.3603845225942E+00
 0.3861804463892E+00
 0.4062878482284E+00
 0.4286992244430E+00
 0.4676640199295E+00
 0.5503390874412E+00
 0.7183702123048E+00
 0.1010975395565E+01
 0.1435487069086E+01
 0.1937398572405E+01
 0.2386650364559E+01
 0.7390703006534E-01
 0.9917922863682E-01
 0.1140058567833E+00
 0.1370631346563E+00
 0.1728590322157E+00
 0.2174170731016E+00
 0.2648173829119E+00
 0.3097706722679E+00
 0.3482917504569E+00
 0.3779955669929E+00
 0.3983837188320E+00
 0.4114085257526E+00
 0.4224534840308E+00
 0.4411357959479E+00
 0.4845845989093E+00
 0.5824147572253E+00
 0.7717722023025E+00
 0.1077827371176E+01
 0.1492501594472E+01
 0.1959652850135E+01
 0.2373701452869E+01
 0.2015338046345E+00
 0.2308350287023E+00
 0.2491987836444E+00
 0.2702553724839E+00
 0.2987775859403E+00
 0.3325230154935E+00
 0.3667288301845E+00
 0.3968653890826E+00
 0.4197361772947E+00
 0.4339812788866E+00
 0.4403261576283E+00
 0.4419310886726E+00
 0.4453219121202E+00
 0.4616914908272E+00
 0.5104718931991E+00
 0.6218113450079E+00
 0.8268439440807E+00
 0.1139117236529E+01
 0.1540984864477E+01
 0.1976399085638E+01
 0.2360761789677E+01
 0.3255838478870E+00
 0.3581701624730E+00
 0.3794492498765E+00
 0.3994617576536E+00
 0.4223062921354E+00
 0.4466272561563E+00
 0.4687338089505E+00
 0.4850250579966E+00
 0.4932357588152E+00
 0.4930723975801E+00
 0.4864399889264E+00
 0.4776506963949E+00
 0.4743437159886E+00
 0.4891412944259E+00
 0.5430387079613E+00
 0.6652807862419E+00
 0.8808347012293E+00
 0.1194361847569E+01
 0.1582109545704E+01
 0.1990688520600E+01
 0.2351459506290E+01
 0.4465463418575E+00
 0.4818398053376E+00
 0.5058411992524E+00
 0.5255031649387E+00
 0.5438864634566E+00
 0.5600466221572E+00
 0.5711867656450E+00
 0.5746635027774E+00
 0.5692050214478E+00
 0.5555895888593E+00
 0.5368499526042E+00
 0.5183959226060E+00
 0.5089247496179E+00
 0.5222541955252E+00
 0.5802181368200E+00
 0.7103348038708E+00
 0.9320665597312E+00
 0.1243518332584E+01
 0.1617374829501E+01
 0.2003864873091E+01
 0.2345090180539E+01
 0.5650776033326E+00
 0.6027125764331E+00
 0.6293776656930E+00
 0.6492566291174E+00
 0.6641807751339E+00
 0.6732997947397E+00
 0.6745443060129E+00
 0.6662026397465E+00
 0.6480052535390E+00
 0.6217751469122E+00
 0.5916075123258E+00
 0.5639448732221E+00
 0.5484532799281E+00
 0.5598668507184E+00
 0.6202705196619E+00
 0.7551728983605E+00
 0.9795415737981E+00
 0.1286842168023E+01
 0.1647901392431E+01
 0.2016283643865E+01
 0.2341244498565E+01
 0.6817863949190E+00
 0.7215985157715E+00
 0.7509794896464E+00
 0.7715766471012E+00
 0.7838912903960E+00
 0.7869524380380E+00
 0.7792793368646E+00
 0.7600428368450E+00
 0.7299501363533E+00
 0.6918168361161E+00
 0.6507213338992E+00
 0.6140590805833E+00
 0.5923481213229E+00
 0.6009595448260E+00
 0.6618261758149E+00
 0.7985462520943E+00
 0.1022703106755E+01
 0.1324665253211E+01
 0.1674402763732E+01
 0.2028104883508E+01
 0.2339711592043E+01
 0.7972322943559E+00
 0.8392410288397E+00
 0.8714976102631E+00
 0.8932814075234E+00
 0.9037164325262E+00
 0.9015726717841E+00
 0.8858529962881E+00
 0.8565549033674E+00
 0.8153147209725E+00
 0.7658687861001E+00
 0.7141858528807E+00
 0.6685197672062E+00
 0.6401077169802E+00
 0.6447092755061E+00
 0.7038762481817E+00
 0.8396292646257E+00
 0.1061264659435E+01
 0.1357280389805E+01
 0.1697340300125E+01
 0.2039463162732E+01
 0.2340459715746E+01
 0.9119360009469E+00
 0.9563292948411E+00
 0.9917263069857E+00
 0.1015150630041E+01
 0.1024333943408E+01
 0.1017711267179E+01
 0.9947017744491E+00
 0.9560778751996E+00
 0.9043437667993E+00
 0.8440686792369E+00
 0.7820058670464E+00
 0.7271601589671E+00
 0.6913492379208E+00
 0.6905166415687E+00
 0.7457396451420E+00
 0.8779160641704E+00
 0.1095095747019E+01
 0.1384908969878E+01
 0.1717015561056E+01
 0.2050501739522E+01
 0.2343607942244E+01
 0.1026390044491E+01
 0.1073512662654E+01
 0.1112416279523E+01
 0.1137927654516E+01
 0.1146392242313E+01
 0.1135889737845E+01
 0.1106229229706E+01
 0.1058917708615E+01
 0.9972579752224E+00
 0.9265508810887E+00
 0.8542159927291E+00
 0.7898908220356E+00
 0.7458351010929E+00
 0.7380141701139E+00
 0.7870261114738E+00
 0.9131454910562E+00
 0.1124155328002E+01
 0.1407694475435E+01
 0.1733613423244E+01
 0.2061368459944E+01
 0.2349397840983E+01
 0.1141069008220E+01
 0.1191414907893E+01
 0.1234287620704E+01
 0.1262323491490E+01
 0.1270505129152E+01
 0.1256591163780E+01
 0.1220798689060E+01
 0.1165345005660E+01
 0.1094257473204E+01
 0.1013455330651E+01
 0.9308945295995E+00
 0.8567173932249E+00
 0.8034887525534E+00
 0.7870652061967E+00
 0.8276058933482E+00
 0.9452537891555E+00
 0.1148456794970E+01
 0.1425701680500E+01
 0.1747216573358E+01
 0.2072200293355E+01
 0.2358164421890E+01
 0.1256439753722E+01
 0.1310648678984E+01
 0.1358043032156E+01
 0.1389021725748E+01
 0.1397247519306E+01
 0.1380251428404E+01
 0.1338725310552E+01
 0.1275590927576E+01
 0.1195522268021E+01
 0.1104932157303E+01
 0.1012171754562E+01
 0.9277513104856E+00
 0.8644028811026E+00
 0.8377601199143E+00
 0.8675907274779E+00
 0.9743515448773E+00
 0.1168054114232E+01
 0.1438916228296E+01
 0.1757803896930E+01
 0.2083102911886E+01
 0.2370307731453E+01
 0.1372972401021E+01
 0.1431831018405E+01
 0.1484381772070E+01
 0.1518683571828E+01
 0.1527150728828E+01
 0.1507249471056E+01
 0.1460266630841E+01
 0.1389840932195E+01
 0.1301209643616E+01
 0.1201142149854E+01
 0.1098232924135E+01
 0.1003214519527E+01
 0.9288428224596E+00
 0.8904138846230E+00
 0.9073275675764E+00
 0.1000721738178E+01
 0.1183044264081E+01
 0.1447244456547E+01
 0.1765239120041E+01
 0.2094126456248E+01
 0.2386266865227E+01
 0.1491152964214E+01
 0.1555601082084E+01
 0.1614014863009E+01
 0.1651952413282E+01
 0.1660695996991E+01
 0.1637895421766E+01
 0.1585610976170E+01
 0.1508226141375E+01
 0.1411448543601E+01
 0.1302253219395E+01
 0.1189316237856E+01
 0.1083438868810E+01
 0.9972467981862E+00
 0.9455668082695E+00
 0.9474047961309E+00
 0.1024837121247E+01
 0.1193585096377E+01
 0.1450515225099E+01
 0.1769252976841E+01
 0.2105237316994E+01
 0.2406497337435E+01
 0.1611498776711E+01
 0.1682641473291E+01
 0.1747682125528E+01
 0.1789457022741E+01
 0.1798304900941E+01
 0.1772415642448E+01
 0.1714863354540E+01
 0.1630812356828E+01
 0.1526331145211E+01
 0.1408433108579E+01
 0.1285706007182E+01
 0.1168860522829E+01
 0.1070223509685E+01
 0.1003988582432E+01
 0.9886699602598E+00
 0.1047396660043E+01
 0.1199930801874E+01
 0.1448486584580E+01
 0.1769421117220E+01
 0.2116285696767E+01
 0.2431451171864E+01
 0.1734578242894E+01
 0.1813705018236E+01
 0.1886171522287E+01
 0.1931812201559E+01
 0.1940325002176E+01
 0.1910933696429E+01
 0.1848028569819E+01
 0.1757586821217E+01
 0.1645901847994E+01
 0.1519838584361E+01
 0.1387721138748E+01
 0.1260009193942E+01
 0.1148546443849E+01
 0.1066684398547E+01
 0.1032257445344E+01
 0.1069381975345E+01
 0.1202490035807E+01
 0.1440860925973E+01
 0.1765140011467E+01
 0.2126970083084E+01
 0.2461555197615E+01
 0.1861037149102E+01
 0.1949649465860E+01
 0.2030341085457E+01
 0.2079614793067E+01
 0.2087008619487E+01
 0.2053446363622E+01
 0.1984991559544E+01
 0.1888442983915E+01
 0.1770143985809E+01
 0.1636601438901E+01
 0.1495699068647E+01
 0.1357491686157E+01
 0.1233143266570E+01
 0.1134900672157E+01
 0.1079623446603E+01
 0.1092135608540E+01
 0.1201915756443E+01
 0.1427312790378E+01
 0.1755602643806E+01
 0.2136806347667E+01
 0.2497174434666E+01
 0.1991634950750E+01
 0.2091483582883E+01
 0.2181143162774E+01
 0.2233431699732E+01
 0.2238482047977E+01
 0.2199794122793E+01
 0.2125495415643E+01
 0.2023163761596E+01
 0.1898964680446E+01
 0.1758811800160E+01
 0.1609975516340E+01
 0.1461969268583E+01
 0.1325077955032E+01
 0.1210126409434E+01
 0.1132584498083E+01
 0.1117460270474E+01
 0.1199246772515E+01
 0.1407529636785E+01
 0.1739773008993E+01
 0.2145127708853E+01
 0.2538517559165E+01
 0.2127296503288E+01
 0.2240429447671E+01
 0.2339649375055E+01
 0.2393774146397E+01
 0.2394701662404E+01
 0.2349625965031E+01
 0.2269117964020E+01
 0.2161403703893E+01
 0.2032177961649E+01
 0.1886499090238E+01
 0.1730860523293E+01
 0.1574128435873E+01
 0.1425522826927E+01
 0.1294083688987E+01
 0.1193354291008E+01
 0.1147732812295E+01
 0.1196125614127E+01
 0.1381308879853E+01
 0.1716245322474E+01
 0.2151329751494E+01
 0.2585217694733E+01
 0.2269188503267E+01
 0.2398007311407E+01
 0.2507072371457E+01
 0.2561048622843E+01
 0.2555392936685E+01
 0.2502359880339E+01
 0.2415248901929E+01
 0.2302670748113E+01
 0.2169486260995E+01
 0.2019611253999E+01
 0.1858611965205E+01
 0.1694645898655E+01
 0.1535717724786E+01
 0.1388700453660E+01
 0.1264563661707E+01
 0.1186041349889E+01
 0.1195052320913E+01
 0.1348955073095E+01
 0.1682622213075E+01
 0.2155564382550E+01
 0.2635674872991E+01
 0.2418855595711E+01
 0.2566284067239E+01
 0.2684997928765E+01
 0.2735774429659E+01
 0.2720335035371E+01
 0.2657561622407E+01
 0.2563543788918E+01
 0.2446841788258E+01
 0.2311059715350E+01
 0.2158659924547E+01
 0.1994139366205E+01
 0.1824935151890E+01
 0.1657736457622E+01
 0.1496868892470E+01
 0.1349992527054E+01
 0.1236832491629E+01
 0.1200053372837E+01
 0.1311234624354E+01
 0.1636552553482E+01
 0.2152366841378E+01
 0.2707701410553E+01
 0.2578355665541E+01
 0.2747794353301E+01
 0.2874922831731E+01
 0.2917835042889E+01
 0.2888524205903E+01
 0.2814068012420E+01
 0.2712960773416E+01
 0.2593078425181E+01
 0.2456328818245E+01
 0.2303401234364E+01
 0.2137583100695E+01
 0.1965635928548E+01
 0.1792916159770E+01
 0.1620899357724E+01
 0.1453236671915E+01
 0.1305141052057E+01
 0.1216763201532E+01
 0.1270886038143E+01
 0.1573824868219E+01
 0.2139838324736E+01
 0.2787652026762E+01
 0.2750565006860E+01
 0.2945794652415E+01
 0.3078154021578E+01
 0.3106231675186E+01
 0.3058057017209E+01
 0.2969983302257E+01
 0.2861765856273E+01
 0.2739796828688E+01
 0.2603924236542E+01
 0.2452762557551E+01
 0.2288233338619E+01
 0.2116513549770E+01
 0.1941713952911E+01
 0.1762325048874E+01
 0.1577550700980E+01
 0.1396704419645E+01
 0.1253447978339E+01
 0.1234541497383E+01
 0.1492285261254E+01
 0.2109659686583E+01
 0.2879378406248E+01
 0.2939730674566E+01
 0.3164781822411E+01
 0.3295874852210E+01
 0.3299223583307E+01
 0.3226707794041E+01
 0.3123530199494E+01
 0.3008487862862E+01
 0.2885694037789E+01
 0.2752796457401E+01
 0.2606081947337E+01
 0.2445881882508E+01
 0.2277860657197E+01
 0.2105040524048E+01
 0.1922992334336E+01
 0.1726492501673E+01
 0.1518154952258E+01
 0.1320948801278E+01
 0.1214239088402E+01
 0.1391524550771E+01
 0.2051225669502E+01
 0.2988442723208E+01
 0.3152395126103E+01
 0.3410763268766E+01
 0.3528210008534E+01
 0.3493447384438E+01
 0.3391556641351E+01
 0.3272763432071E+01
 0.3151510809807E+01
 0.3029208377381E+01
 0.2901571086572E+01
 0.2762430512733E+01
 0.2610169632611E+01
 0.2449857097962E+01
 0.2283570507178E+01
 0.2104269613789E+01
 0.1902994181773E+01
 0.1676122174628E+01
 0.1432723963083E+01
 0.1230377640092E+01
 0.1279206104220E+01
 0.1949813680987E+01
 0.3121780841890E+01
 0.3399229533889E+01
 0.3691533073791E+01
 0.3772537063773E+01
 0.3683146174063E+01
 0.3549201881023E+01
 0.3415770261062E+01
 0.3289152574916E+01
 0.3168502020898E+01
 0.3048424328015E+01
 0.2920496995485E+01
 0.2780596919228E+01
 0.2632668652345E+01
 0.2477764733500E+01
 0.2306848560557E+01
 0.2108799301073E+01
 0.1875957281346E+01
 0.1603709133602E+01
 0.1313563441515E+01
 0.1183778808431E+01
 0.1785523157813E+01
 0.3289206130822E+01
 0.3698915883818E+01
 0.4016076517254E+01
 0.4019801561933E+01
 0.3859701375999E+01
 0.3696461975478E+01
 0.3550868971583E+01
 0.3419793084063E+01
 0.3301483741989E+01
 0.3190882007654E+01
 0.3078355200318E+01
 0.2956543712794E+01
 0.2826676376931E+01
 0.2688005401842E+01
 0.2530543671926E+01
 0.2343927182528E+01
 0.2120098811518E+01
 0.1846754563713E+01
 0.1504084162414E+01
 0.1174881674108E+01
 0.1543988081397E+01
 0.3502849429905E+01
 0.4087334756406E+01
 0.4389662366020E+01
 0.4247060938636E+01
 0.4013415003453E+01
 0.3831469882109E+01
 0.3676591045217E+01
 0.3542150748470E+01
 0.3425923673491E+01
 0.3325530681633E+01
 0.3232959822565E+01
 0.3137276419309E+01
 0.3032970862174E+01
 0.2914886375795E+01
 0.2774141914692E+01
 0.2606009496317E+01
 0.2407155445578E+01
 0.2165759410539E+01
 0.1844666851603E+01
 0.1375213015610E+01
 0.1281870770531E+01
 0.3773925254775E+01
 0.4643167373263E+01
 0.4787335012184E+01
 0.4407864088577E+01
 0.4142770117162E+01
 0.3952515496483E+01
 0.3792082087085E+01
 0.3655550004094E+01
 0.3539842703298E+01
 0.3447733631529E+01
 0.3378993029431E+01
 0.3321835058736E+01
 0.3254480507252E+01
 0.3159653756211E+01
 0.3035269319142E+01
 0.2889659921906E+01
 0.2731070077799E+01
 0.2552827310303E+01
 0.2347365088243E+01
 0.1957686041012E+01
 0.1372849646730E+01
 0.4103628605535E+01
 0.5580672671764E+01
 0.4994174892844E+01
 0.4487089750157E+01
 0.4252603027996E+01
 0.4057048218924E+01
 0.3898037679891E+01
 0.3759783722854E+01
 0.3642441753194E+01
 0.3552017602187E+01
 0.3506062381196E+01
 0.3508366353319E+01
 0.3498780985294E+01
 0.3424852351498E+01
 0.3309220963974E+01
 0.3188037493194E+01
 0.3076494067735E+01
 0.2996912037585E+01
 0.2952186292538E+01
 0.3055922170662E+01
 0.2624836194455E+01
 0.4989878133979E+01
 0.3504861617297E+00
 0.7090377085357E+00
 0.9639176253098E+00
 0.1156316243922E+01
 0.1309272406923E+01
 0.1436521527520E+01
 0.1548582210097E+01
 0.1650278603322E+01
 0.1729346256635E+01
 0.1755016259923E+01
 0.3305562976629E+00
 0.6979311868299E+00
 0.9585385322864E+00
 0.1152071610534E+01
 0.1302454723227E+01
 0.1424279663373E+01
 0.1528327554831E+01
 0.1616829117430E+01
 0.1675240292716E+01
 0.1676745273863E+01
 0.3141135299094E+00
 0.6843946029411E+00
 0.9463780256828E+00
 0.1138209375603E+01
 0.1283777241067E+01
 0.1397849789310E+01
 0.1489675009861E+01
 0.1559328084794E+01
 0.1593122777685E+01
 0.1571535062804E+01
 0.3006568222198E+00
 0.6684530502978E+00
 0.9278903199431E+00
 0.1115326143255E+01
 0.1253914843836E+01
 0.1357644092704E+01
 0.1434036142847E+01
 0.1481877386248E+01
 0.1489479673416E+01
 0.1443488381107E+01
 0.2900243201432E+00
 0.6501767574800E+00
 0.9035814837910E+00
 0.1084211267927E+01
 0.1213832831547E+01
 0.1305166141306E+01
 0.1364170880500E+01
 0.1389016175124E+01
 0.1370159130716E+01
 0.1298748368497E+01
 0.2821360889902E+00
 0.6298161876090E+00
 0.8740876324674E+00
 0.1045845910532E+01
 0.1164926378172E+01
 0.1242549646200E+01
 0.1283369128609E+01
 0.1285322653326E+01
 0.1240731348215E+01
 0.1143965281761E+01
 0.2769476730798E+00
 0.6077631235225E+00
 0.8402025076778E+00
 0.1001418409804E+01
 0.1108886733798E+01
 0.1172234052054E+01
 0.1195054689103E+01
 0.1175277097639E+01
 0.1106751575218E+01
 0.9860960628120E+00
 0.2744266968606E+00
 0.5845231986463E+00
 0.8028607125971E+00
 0.9522742149075E+00
 0.1047560146794E+01
 0.1096732417431E+01
 0.1102555717531E+01
 0.1063133238844E+01
 0.9736165848463E+00
 0.8322667325257E+00
 0.2745404042561E+00
 0.5606858128668E+00
 0.7630984077800E+00
 0.8998455392029E+00
 0.9828258313916E+00
 0.1018470739211E+01
 0.1008937547668E+01
 0.9527174245968E+00
 0.8462509558912E+00
 0.6892700672853E+00
 0.2772471230991E+00
 0.5368919224662E+00
 0.7220055805618E+00
 0.8455813518309E+00
 0.9164996621768E+00
 0.9396746070087E+00
 0.9168700151254E+00
 0.8472134886078E+00
 0.7286376847292E+00
 0.5625802312430E+00
 0.2824898061284E+00
 0.5138020540465E+00
 0.6806786501069E+00
 0.7908861155687E+00
 0.8502614906130E+00
 0.8622909026238E+00
 0.8285367930284E+00
 0.7489963117665E+00
 0.6233482392618E+00
 0.4550998964732E+00
 0.2901918692633E+00
 0.4920672655616E+00
 0.6401782167994E+00
 0.7370699460083E+00
 0.7856028203691E+00
 0.7879397963238E+00
 0.7455928173327E+00
 0.6595817481560E+00
 0.5314243719633E+00
 0.3668651404071E+00
 0.3002561595554E+00
 0.4723053032711E+00
 0.6014946139901E+00
 0.6853106563999E+00
 0.7237922319220E+00
 0.7178936020405E+00
 0.6691725378909E+00
 0.5797076088206E+00
 0.4527315338772E+00
 0.2961277385926E+00
 0.3125676305561E+00
 0.4550836173416E+00
 0.5655230145709E+00
 0.6366277887643E+00
 0.6658558106194E+00
 0.6530785767200E+00
 0.5999414184018E+00
 0.5095029083144E+00
 0.3864129974730E+00
 0.2404312352288E+00
 0.3269995962487E+00
 0.4409100367720E+00
 0.5330498059324E+00
 0.5918690046984E+00
 0.6125696894086E+00
 0.5940905187480E+00
 0.5381733563368E+00
 0.4486820548920E+00
 0.3312324996133E+00
 0.1970998901299E+00
 0.3434224789167E+00
 0.4302311560853E+00
 0.5047513760651E+00
 0.5517120966735E+00
 0.5644614686456E+00
 0.5412109666664E+00
 0.4838209673812E+00
 0.3967283261626E+00
 0.2858578806954E+00
 0.1635516303465E+00
 0.3617127234958E+00
 0.4234366638838E+00
 0.4812071984487E+00
 0.5166842835520E+00
 0.5218313422623E+00
 0.4944008944550E+00
 0.4365423206827E+00
 0.3530252911809E+00
 0.2491580687597E+00
 0.1375882928119E+00
 0.3817516383996E+00
 0.4208787073806E+00
 0.4629274688520E+00
 0.4871963397066E+00
 0.4847997083064E+00
 0.4533297213919E+00
 0.3955512578511E+00
 0.3169062502817E+00
 0.2204898225841E+00
 0.1178001268983E+00
 0.4034093396835E+00
 0.4228491728899E+00
 0.4504871906545E+00
 0.4635537533430E+00
 0.4533126668410E+00
 0.4175690100750E+00
 0.3595775149392E+00
 0.2866938077380E+00
 0.2004015403740E+00
 0.1041941996574E+00
 0.4260921715727E+00
 0.4302810098235E+00
 0.4445664459333E+00
 0.4459423332408E+00
 0.4271449343586E+00
 0.3865302817624E+00
 0.3278614062332E+00
 0.2589688424807E+00
 0.1854245392874E+00
 0.1040619014605E+00
 0.6091504367262E+00
 0.2921543999420E+00
 0.1620851514466E+00
 0.1355247013922E+00
 0.9600957850481E-01
 0.4485109665874E-01
 0.1803892327157E-01
 0.6459987205810E-01
 0.3277669371121E+00
 0.5585481210757E+00
 0.6579933969711E+00
 0.5535116630651E+00
 0.3831766249581E+00
 0.3286057547409E+00
 0.2980177127972E+00
 0.2722162970085E+00
 0.2822455421977E+00
 0.3918762418379E+00
 0.7083153944792E+00
 0.9881457927306E+00
 0.6293917875927E+00
 0.6662412551331E+00
 0.5848029626729E+00
 0.5368582882917E+00
 0.5214951928127E+00
 0.5274378254097E+00
 0.5734199337427E+00
 0.7187967780627E+00
 0.1048107154939E+01
 0.1327687331452E+01
 0.5933985669834E+00
 0.7245455296373E+00
 0.7286461007803E+00
 0.7261470733830E+00
 0.7404538332173E+00
 0.7783047312955E+00
 0.8537957776208E+00
 0.1019180966686E+01
 0.1332376552159E+01
 0.1582478224198E+01
 0.5571042988845E+00
 0.7570769356860E+00
 0.8327723688898E+00
 0.8810691400329E+00
 0.9329527422397E+00
 0.1002012853999E+01
 0.1100912826177E+01
 0.1273456661666E+01
 0.1553963941587E+01
 0.1760727528415E+01
 0.5220534271558E+00
 0.7740338056876E+00
 0.9067778183058E+00
 0.1000937247289E+01
 0.1088239692035E+01
 0.1184471354929E+01
 0.1300375578129E+01
 0.1470536585313E+01
 0.1710691232315E+01
 0.1871523488201E+01
 0.4879980808482E+00
 0.7791428151342E+00
 0.9557051576899E+00
 0.1086996599055E+01
 0.1203028607410E+01
 0.1319423258857E+01
 0.1445174290825E+01
 0.1605867526953E+01
 0.1804661681601E+01
 0.1924880882875E+01
 0.4543433688799E+00
 0.7735733406208E+00
 0.9821554581358E+00
 0.1141083318152E+01
 0.1277596603737E+01
 0.1406234973096E+01
 0.1534523052949E+01
 0.1680572989573E+01
 0.1841517638156E+01
 0.1930995893792E+01
 0.4203952245399E+00
 0.7573606667289E+00
 0.9879274248657E+00
 0.1165489097391E+01
 0.1314233642528E+01
 0.1447889721228E+01
 0.1572988597768E+01
 0.1701225170419E+01
 0.1829425740661E+01
 0.1899254165210E+01
 0.3842743270990E+00
 0.7309319818690E+00
 0.9756147254003E+00
 0.1163236900131E+01
 0.1316361226381E+01
 0.1448833584816E+01
 0.1568279273706E+01
 0.1681517452694E+01
 0.1782006041418E+01
 0.1836198307113E+01
 0.4502607658498E+00
 0.4447881563745E+00
 0.4432792508458E+00
 0.4283388055963E+00
 0.3953169209516E+00
 0.3450304456755E+00
 0.2822771388582E+00
 0.2141013478583E+00
 0.1503017864793E+00
 0.1038961714510E+00
 0.4806617989415E+00
 0.4649506837697E+00
 0.4455982708201E+00
 0.4100231158684E+00
 0.3591056303900E+00
 0.2973412558297E+00
 0.2307802024732E+00
 0.1654242251736E+00
 0.1128233881001E+00
 0.6884248930397E-01
 0.5158162542625E+00
 0.4920876655423E+00
 0.4537226802614E+00
 0.3965255573718E+00
 0.3278266554565E+00
 0.2554460500792E+00
 0.1861463753268E+00
 0.1252781773550E+00
 0.7887091285027E-01
 0.3685191089900E-01
 0.5567238996434E+00
 0.5261268183776E+00
 0.4648414544882E+00
 0.3832480948004E+00
 0.2962797390917E+00
 0.2145346756412E+00
 0.1445814963904E+00
 0.8929553235426E-01
 0.4956054393794E-01
 0.1625829789622E-01
 0.6048654590403E+00
 0.5653904341794E+00
 0.4737572839625E+00
 0.3636921098397E+00
 0.2584568492029E+00
 0.1699860634725E+00
 0.1028503573421E+00
 0.5672211155061E-01
 0.2754687772653E-01
 0.6799996598188E-02
 0.6617686222575E+00
 0.6059054736819E+00
 0.4717238605115E+00
 0.3289695080719E+00
 0.2079336341062E+00
 0.1180874445699E+00
 0.5938823459753E-01
 0.2740928156901E-01
 0.1284913069301E-01
 0.6072181953450E-02
 0.7285548205006E+00
 0.6389037068085E+00
 0.4440680404726E+00
 0.2678280418269E+00
 0.1393473384118E+00
 0.5788054656315E-01
 0.1476895259235E-01
 0.1919358092759E-02
 0.4704536719355E-02
 0.1418074399502E-01
 0.8036737441675E+00
 0.6444055269769E+00
 0.3666470227962E+00
 0.1685229505485E+00
 0.5389163549292E-01
 0.6554458396942E-02
 0.2813887966015E-01
 0.1985193834268E-01
 0.2923699079762E-02
 0.2908659262499E-01
 0.8771605074485E+00
 0.5712608762756E+00
 0.1992679465192E+00
 0.4014259648478E-01
 0.3533417999570E-01
 0.6694795372914E-01
 0.6461229486472E-01
 0.3539854323934E-01
 0.6444329139873E-02
 0.4896803390095E-01
 0.8374306356363E+00
 0.2586107610239E+00
 0.9599541116647E-02
 0.7869822120456E-01
 0.1123958436322E+00
 0.1152550052181E+00
 0.9078599090233E-01
 0.4351977826172E-01
 0.1357623771816E-01
 0.7201791681549E-01
 0.1792299634948E+01
 0.1843807546717E+01
 0.1865097091875E+01
 0.1860247976878E+01
 0.1821798219927E+01
 0.1740624484507E+01
 0.1604784870168E+01
 0.1398526189020E+01
 0.1101143559198E+01
 0.6755828785350E+00
 0.1679384784560E+01
 0.1740906524125E+01
 0.1774472210077E+01
 0.1781862600890E+01
 0.1757239514893E+01
 0.1689062750383E+01
 0.1561758256159E+01
 0.1355911502635E+01
 0.1048318201832E+01
 0.6205197148682E+00
 0.1549908371310E+01
 0.1594615464116E+01
 0.1627222292109E+01
 0.1637749235988E+01
 0.1619317800331E+01
 0.1560964668654E+01
 0.1447496821633E+01
 0.1260127040951E+01
 0.9790564783141E+00
 0.5919629127114E+00
 0.1402189033879E+01
 0.1424642527605E+01
 0.1441638964889E+01
 0.1444050871275E+01
 0.1423773107388E+01
 0.1371255935200E+01
 0.1273767207314E+01
 0.1115390938816E+01
 0.8786358759521E+00
 0.5493249687928E+00
 0.1237856338266E+01
 0.1235813772891E+01
 0.1231181375000E+01
 0.1217628184936E+01
 0.1189071882185E+01
 0.1138547344870E+01
 0.1057019788889E+01
 0.9322729972271E+00
 0.7483012303857E+00
 0.4888054829639E+00
 0.1062399261590E+01
 0.1034571629287E+01
 0.1005009703419E+01
 0.9704948573022E+00
 0.9279997832668E+00
 0.8744192574489E+00
 0.8057154271756E+00
 0.7153773811063E+00
 0.5916836428550E+00
 0.4164549007954E+00
 0.8833263016604E+00
 0.8296698963774E+00
 0.7739427350492E+00
 0.7153357159892E+00
 0.6538381145069E+00
 0.5904338284096E+00
 0.5268898266902E+00
 0.4648482640105E+00
 0.4028654002594E+00
 0.3281677029956E+00
 0.7096948734037E+00
 0.6325980409621E+00
 0.5525261912884E+00
 0.4701394761328E+00
 0.3876525508641E+00
 0.3093789958128E+00
 0.2422778820285E+00
 0.1961562409008E+00
 0.1829149101456E+00
 0.2128402027848E+00
 0.5511842996518E+00
 0.4565721549475E+00
 0.3586622891063E+00
 0.2592072465128E+00
 0.1626403962177E+00
 0.7981836593424E-01
 0.4973814686712E-01
 0.7019669330267E-01
 0.5414306910119E-01
 0.1030796412026E+00
 0.4159306654650E+00
 0.3128567985444E+00
 0.2080834273281E+00
 0.1059653036025E+00
 0.3919762957222E-01
 0.9909999053912E-01
 0.1598546366658E+00
 0.1796144291361E+00
 0.1256386014738E+00
 0.6439416909437E-01
 0.3076429519475E+00
 0.2056096905451E+00
 0.1059200187942E+00
 0.3324663783454E-01
 0.9128421902764E-01
 0.1573770504145E+00
 0.1942559754104E+00
 0.1830845032365E+00
 0.9849082476588E-01
 0.9382352032522E-01
 0.2251775906229E+00
 0.1315270144307E+00
 0.4729729936058E-01
 0.5270127066613E-01
 0.1142683643650E+00
 0.1557652138169E+00
 0.1635216216395E+00
 0.1245141087903E+00
 0.2561166090576E-01
 0.1379211496976E+00
 0.1647284094628E+00
 0.8369749804700E-01
 0.2542261567942E-01
 0.6441601540916E-01
 0.1075165779540E+00
 0.1268990825806E+00
 0.1140542514625E+00
 0.6231136427787E-01
 0.3080479305972E-01
 0.1582802971067E+00
 0.1220176564252E+00
 0.5530388010886E-01
 0.2390004950004E-01
 0.6012755573849E-01
 0.8665198184778E-01
 0.9043303858134E-01
 0.6668182749875E-01
 0.1363311380684E-01
 0.6628916181722E-01
 0.1645967574712E+00
 0.9300205288631E-01
 0.4031508330590E-01
 0.2183904386464E-01
 0.4739698610415E-01
 0.6180947201994E-01
 0.5639245287463E-01
 0.2888198118893E-01
 0.2026372919341E-01
 0.8649938346418E-01
 0.1630925949900E+00
 0.7425835727910E-01
 0.3390754830260E-01
 0.1694459964123E-01
 0.3214339505660E-01
 0.3887355052108E-01
 0.2916311417353E-01
 0.3283895898915E-02
 0.4128178771202E-01
 0.9632341145428E-01
 0.1580623934950E+00
 0.6312638884049E-01
 0.3263690487654E-01
 0.1352132421759E-01
 0.1893427431495E-01
 0.2129690474483E-01
 0.1040503434934E-01
 0.1563535089515E-01
 0.5287524893606E-01
 0.9970111605735E-01
 0.1527723556783E+00
 0.5772304605395E-01
 0.3369253234820E-01
 0.1367458471690E-01
 0.1058530288801E-01
 0.9971149906414E-02
 0.4285113281458E-02
 0.2578832047423E-01
 0.5872998469933E-01
 0.9972563066251E-01
 0.1472668330063E+00
 0.5582694539314E-01
 0.3248748517675E-01
 0.1351329672306E-01
 0.6616893164430E-02
 0.4415017556248E-02
 0.1306944518688E-01
 0.3375639254891E-01
 0.6225919469657E-01
 0.9727023739187E-01
 0.1380582080518E+00
 0.4947349227019E-01
 0.2483410550162E-01
 0.1424442101831E-01
 0.1156335572884E-01
 0.1582041311624E-01
 0.2675397344409E-01
 0.4334297641552E-01
 0.6478940829866E-01
 0.9056073956252E-01
 0.1212521401990E+00
</DataArray>
<DataArray type="Float64" Name="CK" NumberOfComponents="1" ComponentName0="CK" format="ascii">
 0.0000000000000E+00
 0.0000000000000E+00
 0.0000000000000E+00
 0.0000000000000E+00
 0.0000000000000E+00
 0.0000000000000E+00
 0.0000000000000E+00
 0.0000000000000E+00
 0.0000000000000E+00
 0.0000000000000E+00
 0.0000000000000E+00
 0.0000000000000E+00
 0.0000000000000E+00
 0.0000000000000E+00
 0.0000000000000E+00
 0.0000000000000E+00
 0.0000000000000E+00
 0.0000000000000E+00
 0.0000000000000E+00
 0.0000000000000E+00
 0.0000000000000E+00
 0.0000000000000E+00
 0.0000000000000E+00
 0.0000000000000E+00
 0.0000000000000E+00
 0.0000000000000E+00
 0.0000000000000E+00
 0.0000000000000E+00
 0.0000000000000E+00
 0.0000000000000E+00
 0.0000000000000E+00
 0.0000000000000E+00
 0.0000000000000E+00
 0.0000000000000E+00
 0.0000000000000E+00
 0.0000000000000E+00
 0.0000000000000E+00
 0.0000000000000E+00
 0.0000000000000E+00
 0.0000000000000E+00
 0.0000000000000E+00
 0.0000000000000E+00
 0.0000000000000E+00
 0.0000000000000E+00
 0.0000000000000E+00
 0.0000000000000E+00
 0.0000000000000E+00
 0.0000000000000E+00
 0.0000000000000E+00
 0.0000000000000E+00
 0.0000000000000E+00
 0.0000000000000E+00
 0.0000000000000E+00
 0.0000000000000E+00
 0.0000000000000E+00
 0.0000000000000E+00
 0.0000000000000E+00
 0.0000000000000E+00
 0.0000000000000E+00
 0.0000000000000E+00
 0.0000000000000E+00
 0.0000000000000E+00
 0.0000000000000E+00
 0.0000000000000E+00
 0.0000000000000E+00
 0.0000000000000E+00
 0.0000000000000E+00
 0.0000000000000E+00
 0.0000000000000E+00
 0.0000000000000E+00
 0.0000000000000E+00
 0.0000000000000E+00
 0.0000000000000E+00
 0.0000000000000E+00
 0.0000000000000E+00
 0.0000000000000E+00
 0.0000000000000E+00
 0.0000000000000E+00
 0.0000000000000E+00
 0.0000000000000E+00
 0.0000000000000E+00
 0.0000000000000E+00
 0.0000000000000E+00
 0.0000000000000E+00
 0.0000000000000E+00
 0.0000000000000E+00
 0.0000000000000E+00
 0.0000000000000E+00
 0.0000000000000E+00
 0.0000000000000E+00
 0.0000000000000E+00
 0.0000000000000E+00
 0.0000000000000E+00
 0.0000000000000E+00
 0.0000000000000E+00
 0.0000000000000E+00
 0.0000000000000E+00
 0.0000000000000E+00
 0.0000000000000E+00
 0.0000000000000E+00
 0.0000000000000E+00
 0.0000000000000E+00
 0.0000000000000E+00
 0.0000000000000E+00
 0.0000000000000E+00
 0.0000000000000E+00
 0.0000000000000E+00
 0.0000000000000E+00
 0.0000000000000E+00
 0.0000000000000E+00
 0.0000000000000E+00
 0.0000000000000E+00
 0.0000000000000E+00
 0.0000000000000E+00
 0.0000000000000E+00
 0.0000000000000E+00
 0.0000000000000E+00
 0.0000000000000E+00
 0.0000000000000E+00
 0.0000000000000E+00
 0.0000000000000E+00
 0.0000000000000E+00
 0.0000000000000E+00
 0.0000000000000E+00
 0.0000000000000E+00
 0.0000000000000E+00
 0.0000000000000E+00
 0.0000000000000E+00
 0.0000000000000E+00
 0.0000000000000E+00
 0.0000000000000E+00
 0.0000000000000E+00
 0.0000000000000E+00
 0.0000000000000E+00
 0.0000000000000E+00
 0.0000000000000E+00
 0.0000000000000E+00
 0.0000000000000E+00
 0.0000000000000E+00
 0.0000000000000E+00
 0.0000000000000E+00
 0.0000000000000E+00
 0.0000000000000E+00
 0.0000000000000E+00
 0.0000000000000E+00
 0.0000000000000E+00
 0.0000000000000E+00
 0.0000000000000E+00
 0.0000000000000E+00
 0.0000000000000E+00
 0.0000000000000E+00
 0.0000000000000E+00
 0.0000000000000E+00
 0.0000000000000E+00
 0.0000000000000E+00
 0.0000000000000E+00
 0.0000000000000E+00
 0.0000000000000E+00
 0.0000000000000E+00
 0.0000000000000E+00
 0.0000000000000E+00
 0.0000000000000E+00
 0.0000000000000E+00
 0.0000000000000E+00
 0.0000000000000E+00
 0.0000000000000E+00
 0.0000000000000E+00
 0.0000000000000E+00
 0.0000000000000E+00
 0.0000000000000E+00
 0.0000000000000E+00
 0.0000000000000E+00
 0.0000000000000E+00
 0.0000000000000E+00
 0.0000000000000E+00
 0.0000000000000E+00
 0.0000000000000E+00
 0.0000000000000E+00
 0.0000000000000E+00
 0.0000000000000E+00
 0.0000000000000E+00
 0.0000000000000E+00
 0.0000000000000E+00
 0.0000000000000E+00
 0.0000000000000E+00
 0.0000000000000E+00
 0.0000000000000E+00
 0.0000000000000E+00
 0.0000000000000E+00
 0.0000000000000E+00
 0.0000000000000E+00
 0.0000000000000E+00
 0.0000000000000E+00
 0.0000000000000E+00
 0.0000000000000E+00
 0.0000000000000E+00
 0.0000000000000E+00
 0.0000000000000E+00
 0.0000000000000E+00
 0.0000000000000E+00
 0.0000000000000E+00
 0.0000000000000E+00
 0.0000000000000E+00
 0.0000000000000E+00
 0.0000000000000E+00
 0.0000000000000E+00
 0.0000000000000E+00
 0.0000000000000E+00
 0.0000000000000E+00
 0.0000000000000E+00
 0.0000000000000E+00
 0.0000000000000E+00
 0.0000000000000E+00
 0.0000000000000E+00
 0.0000000000000E+00
 0.0000000000000E+00
 0.0000000000000E+00
 0.0000000000000E+00
 0.0000000000000E+00
 0.0000000000000E+00
 0.0000000000000E+00
 0.0000000000000E+00
 0.0000000000000E+00
 0.0000000000000E+00
 0.0000000000000E+00
 0.0000000000000E+00
 0.0000000000000E+00
 0.0000000000000E+00
 0.0000000000000E+00
 0.0000000000000E+00
 0.0000000000000E+00
 0.0000000000000E+00
 0.0000000000000E+00
 0.0000000000000E+00
 0.0000000000000E+00
 0.0000000000000E+00
 0.0000000000000E+00
 0.0000000000000E+00
 0.0000000000000E+00
 0.0000000000000E+00
 0.0000000000000E+00
 0.0000000000000E+00
 0.0000000000000E+00
 0.0000000000000E+00
 0.0000000000000E+00
 0.0000000000000E+00
 0.0000000000000E+00
 0.0000000000000E+00
 0.0000000000000E+00
 0.0000000000000E+00
 0.0000000000000E+00
 0.0000000000000E+00
 0.0000000000000E+00
 0.0000000000000E+00
 0.0000000000000E+00
 0.0000000000000E+00
 0.0000000000000E+00
 0.0000000000000E+00
 0.0000000000000E+00
 0.0000000000000E+00
 0.0000000000000E+00
 0.0000000000000E+00
 0.0000000000000E+00
 0.0000000000000E+00
 0.0000000000000E+00
 0.0000000000000E+00
 0.0000000000000E+00
 0.0000000000000E+00
 0.0000000000000E+00
 0.0000000000000E+00
 0.0000000000000E+00
 0.0000000000000E+00
 0.0000000000000E+00
 0.0000000000000E+00
 0.0000000000000E+00
 0.0000000000000E+00
 0.0000000000000E+00
 0.0000000000000E+00
 0.0000000000000E+00
 0.0000000000000E+00
 0.0000000000000E+00
 0.0000000000000E+00
 0.0000000000000E+00
 0.0000000000000E+00
 0.0000000000000E+00
 0.0000000000000E+00
 0.0000000000000E+00
 0.0000000000000E+00
 0.0000000000000E+00
 0.0000000000000E+00
 0.0000000000000E+00
 0.0000000000000E+00
 0.0000000000000E+00
 0.0000000000000E+00
 0.0000000000000E+00
 0.0000000000000E+00
 0.0000000000000E+00
 0.0000000000000E+00
 0.0000000000000E+00
 0.0000000000000E+00
 0.0000000000000E+00
 0.0000000000000E+00
 0.0000000000000E+00
 0.0000000000000E+00
 0.0000000000000E+00
 0.0000000000000E+00
 0.0000000000000E+00
 0.0000000000000E+00
 0.0000000000000E+00
 0.0000000000000E+00
 0.0000000000000E+00
 0.0000000000000E+00
 0.0000000000000E+00
 0.0000000000000E+00
 0.0000000000000E+00
 0.0000000000000E+00
 0.0000000000000E+00
 0.0000000000000E+00
 0.0000000000000E+00
 0.0000000000000E+00
 0.0000000000000E+00
 0.0000000000000E+00
 0.0000000000000E+00
 0.0000000000000E+00
 0.0000000000000E+00
 0.0000000000000E+00
 0.0000000000000E+00
 0.0000000000000E+00
 0.0000000000000E+00
 0.0000000000000E+00
 0.0000000000000E+00
 0.0000000000000E+00
 0.0000000000000E+00
 0.0000000000000E+00
 0.0000000000000E+00
 0.0000000000000E+00
 0.0000000000000E+00
 0.0000000000000E+00
 0.0000000000000E+00
 0.0000000000000E+00
 0.0000000000000E+00
 0.0000000000000E+00
 0.0000000000000E+00
 0.0000000000000E+00
 0.0000000000000E+00
 0.0000000000000E+00
 0.0000000000000E+00
 0.0000000000000E+00
 0.0000000000000E+00
 0.0000000000000E+00
 0.0000000000000E+00
 0.0000000000000E+00
 0.0000000000000E+00
 0.0000000000000E+00
 0.0000000000000E+00
 0.0000000000000E+00
 0.0000000000000E+00
 0.0000000000000E+00
 0.0000000000000E+00
 0.0000000000000E+00
 0.0000000000000E+00
 0.0000000000000E+00
 0.0000000000000E+00
 0.0000000000000E+00
 0.0000000000000E+00
 0.0000000000000E+00
 0.0000000000000E+00
 0.0000000000000E+00
 0.0000000000000E+00
 0.0000000000000E+00
 0.0000000000000E+00
 0.0000000000000E+00
 0.0000000000000E+00
 0.0000000000000E+00
 0.0000000000000E+00
 0.0000000000000E+00
 0.0000000000000E+00
 0.0000000000000E+00
 0.0000000000000E+00
 0.0000000000000E+00
 0.0000000000000E+00
 0.0000000000000E+00
 0.0000000000000E+00
 0.0000000000000E+00
 0.0000000000000E+00
 0.0000000000000E+00
 0.0000000000000E+00
 0.0000000000000E+00
 0.0000000000000E+00
 0.0000000000000E+00
 0.0000000000000E+00
 0.0000000000000E+00
 0.0000000000000E+00
 0.0000000000000E+00
 0.0000000000000E+00
 0.0000000000000E+00
 0.0000000000000E+00
 0.0000000000000E+00
 0.0000000000000E+00
 0.0000000000000E+00
 0.0000000000000E+00
 0.0000000000000E+00
 0.0000000000000E+00
 0.0000000000000E+00
 0.0000000000000E+00
 0.0000000000000E+00
 0.0000000000000E+00
 0.0000000000000E+00
 0.0000000000000E+00
 0.0000000000000E+00
 0.0000000000000E+00
 0.0000000000000E+00
 0.0000000000000E+00
 0.0000000000000E+00
 0.0000000000000E+00
 0.0000000000000E+00
 0.0000000000000E+00
 0.0000000000000E+00
 0.0000000000000E+00
 0.0000000000000E+00
 0.0000000000000E+00
 0.0000000000000E+00
 0.0000000000000E+00
 0.0000000000000E+00
 0.0000000000000E+00
 0.0000000000000E+00
 0.0000000000000E+00
 0.0000000000000E+00
 0.0000000000000E+00
 0.0000000000000E+00
 0.0000000000000E+00
 0.0000000000000E+00
 0.0000000000000E+00
 0.0000000000000E+00
 0.0000000000000E+00
 0.0000000000000E+00
 0.0000000000000E+00
 0.0000000000000E+00
 0.0000000000000E+00
 0.0000000000000E+00
 0.0000000000000E+00
 0.0000000000000E+00
 0.0000000000000E+00
 0.0000000000000E+00
 0.0000000000000E+00
 0.0000000000000E+00
 0.0000000000000E+00
 0.0000000000000E+00
 0.0000000000000E+00
 0.0000000000000E+00
 0.0000000000000E+00
 0.0000000000000E+00
 0.0000000000000E+00
 0.0000000000000E+00
 0.0000000000000E+00
 0.0000000000000E+00
 0.0000000000000E+00
 0.0000000000000E+00
 0.0000000000000E+00
 0.0000000000000E+00
 0.0000000000000E+00
 0.0000000000000E+00
 0.0000000000000E+00
 0.0000000000000E+00
 0.0000000000000E+00
 0.0000000000000E+00
 0.0000000000000E+00
 0.0000000000000E+00
 0.0000000000000E+00
 0.0000000000000E+00
 0.0000000000000E+00
 0.0000000000000E+00
 0.0000000000000E+00
 0.0000000000000E+00
 0.0000000000000E+00
 0.0000000000000E+00
 0.0000000000000E+00
 0.0000000000000E+00
 0.0000000000000E+00
 0.0000000000000E+00
 0.0000000000000E+00
 0.0000000000000E+00
 0.0000000000000E+00
 0.0000000000000E+00
 0.0000000000000E+00
 0.0000000000000E+00
 0.0000000000000E+00
 0.0000000000000E+00
 0.0000000000000E+00
 0.0000000000000E+00
 0.0000000000000E+00
 0.0000000000000E+00
 0.0000000000000E+00
 0.0000000000000E+00
 0.0000000000000E+00
 0.0000000000000E+00
 0.0000000000000E+00
 0.0000000000000E+00
 0.0000000000000E+00
 0.0000000000000E+00
 0.0000000000000E+00
 0.0000000000000E+00
 0.0000000000000E+00
 0.0000000000000E+00
 0.0000000000000E+00
 0.0000000000000E+00
 0.0000000000000E+00
 0.0000000000000E+00
 0.0000000000000E+00
 0.0000000000000E+00
 0.0000000000000E+00
 0.0000000000000E+00
 0.0000000000000E+00
 0.0000000000000E+00
 0.0000000000000E+00
 0.0000000000000E+00
 0.0000000000000E+00
 0.0000000000000E+00
 0.0000000000000E+00
 0.0000000000000E+00
 0.0000000000000E+00
 0.0000000000000E+00
 0.0000000000000E+00
 0.0000000000000E+00
 0.0000000000000E+00
 0.0000000000000E+00
 0.0000000000000E+00
 0.0000000000000E+00
 0.0000000000000E+00
 0.0000000000000E+00
 0.0000000000000E+00
 0.0000000000000E+00
 0.0000000000000E+00
 0.0000000000000E+00
 0.0000000000000E+00
 0.0000000000000E+00
 0.0000000000000E+00
 0.0000000000000E+00
 0.0000000000000E+00
 0.0000000000000E+00
 0.0000000000000E+00
 0.0000000000000E+00
 0.0000000000000E+00
 0.0000000000000E+00
 0.0000000000000E+00
 0.0000000000000E+00
 0.0000000000000E+00
 0.0000000000000E+00
 0.0000000000000E+00
 0.0000000000000E+00
 0.0000000000000E+00
 0.0000000000000E+00
 0.0000000000000E+00
 0.0000000000000E+00
 0.0000000000000E+00
 0.0000000000000E+00
 0.0000000000000E+00
 0.0000000000000E+00
 0.0000000000000E+00
 0.0000000000000E+00
 0.0000000000000E+00
 0.0000000000000E+00
 0.0000000000000E+00
 0.0000000000000E+00
 0.0000000000000E+00
 0.0000000000000E+00
 0.0000000000000E+00
 0.0000000000000E+00
 0.0000000000000E+00
 0.0000000000000E+00
 0.0000000000000E+00
 0.0000000000000E+00
 0.0000000000000E+00
 0.0000000000000E+00
 0.0000000000000E+00
 0.0000000000000E+00
 0.0000000000000E+00
 0.0000000000000E+00
 0.0000000000000E+00
 0.0000000000000E+00
 0.0000000000000E+00
 0.0000000000000E+00
 0.0000000000000E+00
 0.0000000000000E+00
 0.0000000000000E+00
 0.0000000000000E+00
 0.0000000000000E+00
 0.0000000000000E+00
 0.0000000000000E+00
 0.0000000000000E+00
 0.0000000000000E+00
 0.0000000000000E+00
 0.0000000000000E+00
 0.0000000000000E+00
 0.0000000000000E+00
 0.0000000000000E+00
 0.0000000000000E+00
 0.0000000000000E+00
 0.0000000000000E+00
 0.0000000000000E+00
 0.0000000000000E+00
 0.0000000000000E+00
 0.0000000000000E+00
 0.0000000000000E+00
 0.0000000000000E+00
 0.0000000000000E+00
 0.0000000000000E+00
 0.0000000000000E+00
 0.0000000000000E+00
 0.0000000000000E+00
 0.0000000000000E+00
 0.0000000000000E+00
 0.0000000000000E+00
 0.0000000000000E+00
 0.0000000000000E+00
 0.0000000000000E+00
 0.0000000000000E+00
 0.0000000000000E+00
 0.0000000000000E+00
 0.0000000000000E+00
 0.0000000000000E+00
 0.0000000000000E+00
 0.0000000000000E+00
 0.0000000000000E+00
 0.0000000000000E+00
 0.0000000000000E+00
 0.0000000000000E+00
 0.0000000000000E+00
 0.0000000000000E+00
 0.0000000000000E+00
 0.0000000000000E+00
 0.0000000000000E+00
 0.0000000000000E+00
 0.0000000000000E+00
 0.0000000000000E+00
 0.0000000000000E+00
 0.0000000000000E+00
 0.0000000000000E+00
 0.0000000000000E+00
 0.0000000000000E+00
 0.0000000000000E+00
 0.0000000000000E+00
 0.0000000000000E+00
 0.0000000000000E+00
 0.0000000000000E+00
 0.0000000000000E+00
 0.0000000000000E+00
 0.0000000000000E+00
 0.0000000000000E+00
 0.0000000000000E+00
 0.0000000000000E+00
 0.0000000000000E+00
 0.0000000000000E+00
 0.0000000000000E+00
 0.0000000000000E+00
 0.0000000000000E+00
 0.0000000000000E+00
 0.0000000000000E+00
 0.0000000000000E+00
 0.0000000000000E+00
 0.0000000000000E+00
 0.0000000000000E+00
 0.0000000000000E+00
 0.0000000000000E+00
 0.0000000000000E+00
 0.0000000000000E+00
 0.0000000000000E+00
 0.0000000000000E+00
 0.0000000000000E+00
 0.0000000000000E+00
 0.0000000000000E+00
 0.0000000000000E+00
 0.0000000000000E+00
 0.0000000000000E+00
 0.0000000000000E+00
 0.0000000000000E+00
 0.0000000000000E+00
 0.0000000000000E+00
 0.0000000000000E+00
 0.0000000000000E+00
 0.0000000000000E+00
 0.0000000000000E+00
 0.0000000000000E+00
 0.0000000000000E+00
 0.0000000000000E+00
 0.0000000000000E+00
 0.0000000000000E+00
 0.0000000000000E+00
 0.0000000000000E+00
 0.0000000000000E+00
 0.0000000000000E+00
 0.0000000000000E+00
 0.0000000000000E+00
 0.0000000000000E+00
 0.0000000000000E+00
 0.0000000000000E+00
 0.0000000000000E+00
 0.0000000000000E+00
 0.0000000000000E+00
 0.0000000000000E+00
 0.0000000000000E+00
 0.0000000000000E+00
 0.0000000000000E+00
 0.0000000000000E+00
 0.0000000000000E+00
 0.0000000000000E+00
 0.0000000000000E+00
 0.0000000000000E+00
 0.0000000000000E+00
 0.0000000000000E+00
 0.0000000000000E+00
 0.0000000000000E+00
 0.0000000000000E+00
 0.0000000000000E+00
 0.0000000000000E+00
 0.0000000000000E+00
 0.0000000000000E+00
 0.0000000000000E+00
 0.0000000000000E+00
 0.0000000000000E+00
 0.0000000000000E+00
 0.0000000000000E+00
 0.0000000000000E+00
 0.0000000000000E+00
 0.0000000000000E+00
 0.0000000000000E+00
 0.0000000000000E+00
 0.0000000000000E+00
 0.0000000000000E+00
 0.0000000000000E+00
 0.0000000000000E+00
 0.0000000000000E+00
 0.0000000000000E+00
 0.0000000000000E+00
 0.0000000000000E+00
 0.0000000000000E+00
 0.0000000000000E+00
 0.0000000000000E+00
 0.0000000000000E+00
 0.0000000000000E+00
 0.0000000000000E+00
 0.0000000000000E+00
 0.0000000000000E+00
 0.0000000000000E+00
 0.0000000000000E+00
 0.0000000000000E+00
 0.0000000000000E+00
 0.0000000000000E+00
 0.0000000000000E+00
 0.0000000000000E+00
 0.0000000000000E+00
 0.0000000000000E+00
 0.0000000000000E+00
 0.0000000000000E+00
 0.0000000000000E+00
 0.0000000000000E+00
 0.0000000000000E+00
 0.0000000000000E+00
 0.0000000000000E+00
 0.0000000000000E+00
 0.0000000000000E+00
 0.0000000000000E+00
 0.0000000000000E+00
 0.0000000000000E+00
 0.0000000000000E+00
 0.0000000000000E+00
 0.0000000000000E+00
 0.0000000000000E+00
 0.0000000000000E+00
 0.0000000000000E+00
 0.0000000000000E+00
 0.0000000000000E+00
 0.0000000000000E+00
 0.0000000000000E+00
 0.0000000000000E+00
 0.0000000000000E+00
 0.0000000000000E+00
 0.0000000000000E+00
 0.0000000000000E+00
 0.0000000000000E+00
 0.0000000000000E+00
 0.0000000000000E+00
 0.0000000000000E+00
 0.0000000000000E+00
 0.0000000000000E+00
 0.0000000000000E+00
 0.0000000000000E+00
 0.0000000000000E+00
 0.0000000000000E+00
 0.0000000000000E+00
 0.0000000000000E+00
 0.0000000000000E+00
 0.0000000000000E+00
 0.0000000000000E+00
 0.0000000000000E+00
 0.0000000000000E+00
 0.0000000000000E+00
 0.0000000000000E+00
 0.0000000000000E+00
 0.0000000000000E+00
 0.0000000000000E+00
 0.0000000000000E+00
 0.0000000000000E+00
 0.0000000000000E+00
 0.0000000000000E+00
 0.0000000000000E+00
 0.0000000000000E+00
 0.0000000000000E+00
 0.0000000000000E+00
 0.0000000000000E+00
 0.0000000000000E+00
 0.0000000000000E+00
 0.0000000000000E+00
 0.0000000000000E+00
 0.0000000000000E+00
 0.0000000000000E+00
 0.0000000000000E+00
 0.0000000000000E+00
 0.0000000000000E+00
 0.0000000000000E+00
 0.0000000000000E+00
 0.0000000000000E+00
 0.0000000000000E+00
 0.0000000000000E+00
 0.0000000000000E+00
 0.0000000000000E+00
 0.0000000000000E+00
 0.0000000000000E+00
 0.0000000000000E+00
 0.0000000000000E+00
 0.0000000000000E+00
 0.0000000000000E+00
 0.0000000000000E+00
 0.0000000000000E+00
 0.0000000000000E+00
 0.0000000000000E+00
 0.0000000000000E+00
 0.0000000000000E+00
 0.0000000000000E+00
 0.0000000000000E+00
 0.0000000000000E+00
 0.0000000000000E+00
 0.0000000000000E+00
 0.0000000000000E+00
 0.0000000000000E+00
 0.0000000000000E+00
 0.0000000000000E+00
 0.0000000000000E+00
 0.0000000000000E+00
 0.0000000000000E+00
 0.0000000000000E+00
 0.0000000000000E+00
 0.0000000000000E+00
 0.0000000000000E+00
 0.0000000000000E+00
 0.0000000000000E+00
 0.0000000000000E+00
 0.0000000000000E+00
 0.0000000000000E+00
 0.0000000000000E+00
 0.0000000000000E+00
 0.0000000000000E+00
 0.0000000000000E+00
 0.0000000000000E+00
 0.0000000000000E+00
 0.0000000000000E+00
 0.0000000000000E+00
 0.0000000000000E+00
 0.0000000000000E+00
 0.0000000000000E+00
 0.0000000000000E+00
 0.0000000000000E+00
 0.0000000000000E+00
 0.0000000000000E+00
 0.0000000000000E+00
 0.0000000000000E+00
 0.0000000000000E+00
 0.0000000000000E+00
 0.0000000000000E+00
 0.0000000000000E+00
 0.0000000000000E+00
 0.0000000000000E+00
 0.0000000000000E+00
 0.0000000000000E+00
 0.0000000000000E+00
 0.0000000000000E+00
 0.0000000000000E+00
 0.0000000000000E+00
 0.0000000000000E+00
 0.0000000000000E+00
 0.0000000000000E+00
 0.0000000000000E+00
 0.0000000000000E+00
 0.0000000000000E+00
 0.0000000000000E+00
 0.0000000000000E+00
 0.0000000000000E+00
 0.0000000000000E+00
 0.0000000000000E+00
 0.0000000000000E+00
 0.0000000000000E+00
 0.0000000000000E+00
 0.0000000000000E+00
 0.0000000000000E+00
 0.0000000000000E+00
 0.0000000000000E+00
 0.0000000000000E+00
 0.0000000000000E+00
 0.0000000000000E+00
 0.0000000000000E+00
 0.0000000000000E+00
 0.0000000000000E+00
 0.0000000000000E+00
 0.0000000000000E+00
 0.0000000000000E+00
 0.0000000000000E+00
 0.0000000000000E+00
 0.0000000000000E+00
 0.0000000000000E+00
 0.0000000000000E+00
 0.0000000000000E+00
 0.0000000000000E+00
 0.0000000000000E+00
 0.0000000000000E+00
 0.0000000000000E+00
 0.0000000000000E+00
 0.0000000000000E+00
 0.0000000000000E+00
 0.0000000000000E+00
 0.0000000000000E+00
 0.0000000000000E+00
 0.0000000000000E+00
 0.0000000000000E+00
 0.0000000000000E+00
 0.0000000000000E+00
 0.0000000000000E+00
 0.0000000000000E+00
 0.0000000000000E+00
 0.0000000000000E+00
 0.0000000000000E+00
 0.0000000000000E+00
 0.0000000000000E+00
 0.0000000000000E+00
 0.0000000000000E+00
 0.0000000000000E+00
 0.0000000000000E+00
 0.0000000000000E+00
 0.0000000000000E+00
 0.0000000000000E+00
 0.0000000000000E+00
 0.0000000000000E+00
 0.0000000000000E+00
 0.0000000000000E+00
 0.0000000000000E+00
 0.0000000000000E+00
 0.0000000000000E+00
 0.0000000000000E+00
 0.0000000000000E+00
 0.0000000000000E+00
 0.0000000000000E+00
 0.0000000000000E+00
 0.0000000000000E+00
 0.0000000000000E+00
 0.0000000000000E+00
 0.0000000000000E+00
 0.0000000000000E+00
 0.0000000000000E+00
 0.0000000000000E+00
 0.0000000000000E+00
 0.0000000000000E+00
 0.0000000000000E+00
 0.0000000000000E+00
 0.0000000000000E+00
 0.0000000000000E+00
 0.0000000000000E+00
 0.0000000000000E+00
 0.0000000000000E+00
 0.0000000000000E+00
 0.0000000000000E+00
 0.0000000000000E+00
 0.0000000000000E+00
 0.0000000000000E+00
 0.0000000000000E+00
 0.0000000000000E+00
 0.0000000000000E+00
 0.0000000000000E+00
 0.0000000000000E+00
 0.0000000000000E+00
 0.0000000000000E+00
 0.0000000000000E+00
 0.0000000000000E+00
 0.0000000000000E+00
 0.0000000000000E+00
 0.0000000000000E+00
 0.0000000000000E+00
 0.0000000000000E+00
 0.0000000000000E+00
 0.0000000000000E+00
 0.0000000000000E+00
 0.0000000000000E+00
 0.0000000000000E+00
 0.0000000000000E+00
 0.0000000000000E+00
 0.0000000000000E+00
 0.0000000000000E+00
 0.0000000000000E+00
 0.0000000000000E+00
 0.0000000000000E+00
 0.0000000000000E+00
 0.0000000000000E+00
 0.0000000000000E+00
 0.0000000000000E+00
 0.0000000000000E+00
 0.0000000000000E+00
 0.0000000000000E+00
 0.0000000000000E+00
 0.0000000000000E+00
 0.0000000000000E+00
 0.0000000000000E+00
 0.0000000000000E+00
 0.0000000000000E+00
 0.0000000000000E+00
 0.0000000000000E+00
 0.0000000000000E+00
 0.0000000000000E+00
 0.0000000000000E+00
 0.0000000000000E+00
 0.0000000000000E+00
 0.0000000000000E+00
 0.0000000000000E+00
 0.0000000000000E+00
 0.0000000000000E+00
 0.0000000000000E+00
 0.0000000000000E+00
 0.0000000000000E+00
 0.0000000000000E+00
 0.0000000000000E+00
 0.0000000000000E+00
 0.0000000000000E+00
 0.0000000000000E+00
 0.0000000000000E+00
 0.0000000000000E+00
 0.0000000000000E+00
 0.0000000000000E+00
 0.0000000000000E+00
 0.0000000000000E+00
 0.0000000000000E+00
 0.0000000000000E+00
 0.0000000000000E+00
 0.0000000000000E+00
 0.0000000000000E+00
 0.0000000000000E+00
 0.0000000000000E+00
 0.0000000000000E+00
 0.0000000000000E+00
 0.0000000000000E+00
 0.0000000000000E+00
 0.0000000000000E+00
 0.0000000000000E+00
 0.0000000000000E+00
 0.0000000000000E+00
 0.0000000000000E+00
 0.0000000000000E+00
 0.0000000000000E+00
 0.0000000000000E+00
 0.0000000000000E+00
 0.0000000000000E+00
 0.0000000000000E+00
 0.0000000000000E+00
 0.0000000000000E+00
 0.0000000000000E+00
 0.0000000000000E+00
 0.0000000000000E+00
 0.0000000000000E+00
 0.0000000000000E+00
 0.0000000000000E+00
 0.0000000000000E+00
 0.0000000000000E+00
 0.0000000000000E+00
 0.0000000000000E+00
 0.0000000000000E+00
 0.0000000000000E+00
 0.0000000000000E+00
 0.0000000000000E+00
 0.0000000000000E+00
 0.0000000000000E+00
 0.0000000000000E+00
 0.0000000000000E+00
 0.0000000000000E+00
 0.0000000000000E+00
 0.0000000000000E+00
 0.0000000000000E+00
 0.0000000000000E+00
 0.0000000000000E+00
 0.0000000000000E+00
 0.0000000000000E+00
 0.0000000000000E+00
 0.0000000000000E+00
 0.0000000000000E+00
 0.0000000000000E+00
 0.0000000000000E+00
 0.0000000000000E+00
 0.0000000000000E+00
 0.0000000000000E+00
 0.0000000000000E+00
 0.0000000000000E+00
 0.0000000000000E+00
 0.0000000000000E+00
 0.0000000000000E+00
 0.0000000000000E+00
 0.0000000000000E+00
 0.0000000000000E+00
 0.0000000000000E+00
 0.0000000000000E+00
 0.0000000000000E+00
 0.0000000000000E+00
 0.0000000000000E+00
 0.0000000000000E+00
 0.0000000000000E+00
 0.0000000000000E+00
 0.0000000000000E+00
 0.0000000000000E+00
 0.0000000000000E+00
 0.0000000000000E+00
 0.0000000000000E+00
 0.0000000000000E+00
 0.0000000000000E+00
 0.0000000000000E+00
 0.0000000000000E+00
 0.0000000000000E+00
 0.0000000000000E+00
 0.0000000000000E+00
 0.0000000000000E+00
 0.0000000000000E+00
 0.0000000000000E+00
 0.0000000000000E+00
 0.0000000000000E+00
 0.0000000000000E+00
 0.0000000000000E+00
 0.0000000000000E+00
 0.0000000000000E+00
 0.0000000000000E+00
 0.0000000000000E+00
 0.0000000000000E+00
 0.0000000000000E+00
 0.0000000000000E+00
 0.0000000000000E+00
 0.0000000000000E+00
 0.0000000000000E+00
 0.0000000000000E+00
 0.0000000000000E+00
 0.0000000000000E+00
 0.0000000000000E+00
 0.0000000000000E+00
 0.0000000000000E+00
 0.0000000000000E+00
 0.0000000000000E+00
 0.0000000000000E+00
 0.0000000000000E+00
 0.0000000000000E+00
 0.0000000000000E+00
 0.0000000000000E+00
 0.0000000000000E+00
 0.0000000000000E+00
 0.0000000000000E+00
 0.0000000000000E+00
 0.0000000000000E+00
 0.0000000000000E+00
 0.0000000000000E+00
 0.0000000000000E+00
 0.0000000000000E+00
 0.0000000000000E+00
 0.0000000000000E+00
 0.0000000000000E+00
 0.0000000000000E+00
 0.0000000000000E+00
 0.0000000000000E+00
 0.0000000000000E+00
 0.0000000000000E+00
 0.0000000000000E+00
 0.0000000000000E+00
 0.0000000000000E+00
 0.0000000000000E+00
 0.0000000000000E+00
 0.0000000000000E+00
 0.0000000000000E+00
 0.0000000000000E+00
 0.0000000000000E+00
 0.0000000000000E+00
 0.0000000000000E+00
 0.0000000000000E+00
 0.0000000000000E+00
 0.0000000000000E+00
 0.0000000000000E+00
 0.0000000000000E+00
 0.0000000000000E+00
 0.0000000000000E+00
 0.0000000000000E+00
 0.0000000000000E+00
 0.0000000000000E+00
 0.0000000000000E+00
 0.0000000000000E+00
 0.0000000000000E+00
 0.0000000000000E+00
 0.0000000000000E+00
 0.0000000000000E+00
 0.0000000000000E+00
 0.0000000000000E+00
 0.0000000000000E+00
 0.0000000000000E+00
 0.0000000000000E+00
 0.0000000000000E+00
 0.0000000000000E+00
 0.0000000000000E+00
 0.0000000000000E+00
 0.0000000000000E+00
 0.0000000000000E+00
 0.0000000000000E+00
 0.0000000000000E+00
 0.0000000000000E+00
 0.0000000000000E+00
 0.0000000000000E+00
 0.0000000000000E+00
 0.0000000000000E+00
 0.0000000000000E+00
 0.0000000000000E+00
 0.0000000000000E+00
 0.0000000000000E+00
 0.0000000000000E+00
 0.0000000000000E+00
 0.0000000000000E+00
 0.0000000000000E+00
 0.0000000000000E+00
 0.0000000000000E+00
 0.0000000000000E+00
 0.0000000000000E+00
 0.0000000000000E+00
 0.0000000000000E+00
 0.0000000000000E+00
 0.0000000000000E+00
 0.0000000000000E+00
 0.0000000000000E+00
 0.0000000000000E+00
 0.0000000000000E+00
 0.0000000000000E+00
 0.0000000000000E+00
 0.0000000000000E+00
 0.0000000000000E+00
 0.0000000000000E+00
 0.0000000000000E+00
 0.0000000000000E+00
 0.0000000000000E+00
 0.0000000000000E+00
 0.0000000000000E+00
 0.0000000000000E+00
 0.0000000000000E+00
 0.0000000000000E+00
 0.0000000000000E+00
 0.0000000000000E+00
 0.0000000000000E+00
 0.0000000000000E+00
 0.0000000000000E+00
 0.0000000000000E+00
 0.0000000000000E+00
 0.0000000000000E+00
 0.0000000000000E+00
 0.0000000000000E+00
 0.0000000000000E+00
 0.0000000000000E+00
 0.0000000000000E+00
 0.0000000000000E+00
 0.0000000000000E+00
 0.0000000000000E+00
 0.0000000000000E+00
 0.0000000000000E+00
 0.0000000000000E+00
 0.0000000000000E+00
 0.0000000000000E+00
 0.0000000000000E+00
 0.0000000000000E+00
 0.0000000000000E+00
 0.0000000000000E+00
 0.0000000000000E+00
 0.0000000000000E+00
 0.0000000000000E+00
 0.0000000000000E+00
 0.0000000000000E+00
 0.0000000000000E+00
 0.0000000000000E+00
 0.0000000000000E+00
 0.0000000000000E+00
 0.0000000000000E+00
 0.0000000000000E+00
 0.0000000000000E+00
 0.0000000000000E+00
 0.0000000000000E+00
 0.0000000000000E+00
 0.0000000000000E+00
 0.0000000000000E+00
 0.0000000000000E+00
 0.0000000000000E+00
 0.0000000000000E+00
 0.0000000000000E+00
 0.0000000000000E+00
 0.0000000000000E+00
 0.0000000000000E+00
 0.0000000000000E+00
 0.0000000000000E+00
 0.0000000000000E+00
 0.0000000000000E+00
 0.0000000000000E+00
 0.0000000000000E+00
 0.0000000000000E+00
 0.0000000000000E+00
 0.0000000000000E+00
 0.0000000000000E+00
 0.0000000000000E+00
 0.0000000000000E+00
 0.0000000000000E+00
 0.0000000000000E+00
 0.0000000000000E+00
 0.0000000000000E+00
 0.0000000000000E+00
 0.0000000000000E+00
 0.0000000000000E+00
 0.0000000000000E+00
 0.0000000000000E+00
 0.0000000000000E+00
 0.0000000000000E+00
 0.0000000000000E+00
 0.0000000000000E+00
 0.0000000000000E+00
 0.0000000000000E+00
 0.0000000000000E+00
 0.0000000000000E+00
 0.0000000000000E+00
 0.0000000000000E+00
 0.0000000000000E+00
 0.0000000000000E+00
 0.0000000000000E+00
 0.0000000000000E+00
 0.0000000000000E+00
 0.0000000000000E+00
 0.0000000000000E+00
 0.0000000000000E+00
 0.0000000000000E+00
 0.0000000000000E+00
 0.0000000000000E+00
 0.0000000000000E+00
 0.0000000000000E+00
 0.0000000000000E+00
 0.0000000000000E+00
 0.0000000000000E+00
 0.0000000000000E+00
 0.0000000000000E+00
 0.0000000000000E+00
 0.0000000000000E+00
 0.0000000000000E+00
 0.0000000000000E+00
 0.0000000000000E+00
 0.0000000000000E+00
 0.0000000000000E+00
 0.0000000000000E+00
 0.0000000000000E+00
 0.0000000000000E+00
 0.0000000000000E+00
 0.0000000000000E+00
 0.0000000000000E+00
 0.0000000000000E+00
 0.0000000000000E+00
 0.0000000000000E+00
 0.0000000000000E+00
 0.0000000000000E+00
 0.0000000000000E+00
 0.0000000000000E+00
 0.0000000000000E+00
 0.0000000000000E+00
 0.0000000000000E+00
 0.0000000000000E+00
 0.0000000000000E+00
 0.0000000000000E+00
 0.0000000000000E+00
 0.0000000000000E+00
 0.0000000000000E+00
 0.0000000000000E+00
 0.0000000000000E+00
 0.0000000000000E+00
 0.0000000000000E+00
 0.0000000000000E+00
 0.0000000000000E+00
 0.0000000000000E+00
 0.0000000000000E+00
 0.0000000000000E+00
 0.0000000000000E+00
 0.0000000000000E+00
 0.0000000000000E+00
 0.0000000000000E+00
 0.0000000000000E+00
 0.0000000000000E+00
 0.0000000000000E+00
 0.0000000000000E+00
 0.0000000000000E+00
 0.0000000000000E+00
 0.0000000000000E+00
 0.0000000000000E+00
 0.0000000000000E+00
 0.0000000000000E+00
 0.0000000000000E+00
 0.0000000000000E+00
 0.0000000000000E+00
 0.0000000000000E+00
 0.0000000000000E+00
 0.0000000000000E+00
 0.0000000000000E+00
 0.0000000000000E+00
 0.0000000000000E+00
 0.0000000000000E+00
 0.0000000000000E+00
 0.0000000000000E+00
 0.0000000000000E+00
 0.0000000000000E+00
 0.0000000000000E+00
 0.0000000000000E+00
 0.0000000000000E+00
 0.0000000000000E+00
 0.0000000000000E+00
 0.0000000000000E+00
 0.0000000000000E+00
 0.0000000000000E+00
 0.0000000000000E+00
 0.0000000000000E+00
 0.0000000000000E+00
 0.0000000000000E+00
 0.0000000000000E+00
 0.0000000000000E+00
 0.0000000000000E+00
 0.0000000000000E+00
 0.0000000000000E+00
 0.0000000000000E+00
 0.0000000000000E+00
</DataArray>
<DataArray type="Int32" Name="Region" format="ascii">
           1
           1
           1
           1
           1
           1
           1
           1
           1
           1
           1
           1
           1
           1
           1
           1
           1
           1
           1
           1
           1
           1
           1
           1
           1
           1
           1
           1
           1
           1
           1
           1
           1
           1
           1
           1
           1
           1
           1
           1
           1
           1
           1
           1
           1
           1
           1
           1
           1
           1
           1
           1
           1
           1
           1
           1
           1
           1
           1
           1
           1
           1
           1
           1
           1
           1
           1
           1
           1
           1
           1
           1
           1
           1
           1
           1
           1
           1
           1
           1
           1
           1
           1
           1
           1
           1
           1
           1
           1
           1
           1
           1
           1
           1
           1
           1
           1
           1
           1
           1
           1
           1
           1
           1
           1
           1
           1
           1
           1
           1
           1
           1
           1
           1
           1
           1
           1
           1
           1
           1
           1
           1
           1
           1
           1
           1
           1
           1
           1
           1
           1
           1
           1
           1
           1
           1
           1
           1
           1
           1
           1
           1
           1
           1
           1
           1
           1
           1
           1
           1
           1
           1
           1
           1
           1
           1
           1
           1
           1
           1
           1
           1
           1
           1
           1
           1
           1
           1
           1
           1
           1
           1
           1
           1
           1
           1
           1
           1
           1
           1
           1
           1
           1
           1
           1
           1
           1
           1
           1
           1
           1
           1
           1
           1
           1
           1
           1
           1
           1
           1
           1
           1
           1
           1
           1
           1
           1
           1
           1
           1
           1
           1
           1
           1
           1
           1
           1
           1
           1
           1
           1
           1
           1
           1
           1
           1
           1
           1
           1
           1
           1
           1
           1
           1
           1
           1
           1
           1
           1
           1
           1
           1
           1
           1
           1
           1
           1
           1
           1
           1
           1
           1
           1
           1
           1
           1
           1
           1
           1
           1
           1
           1
           1
           1
           1
           1
           1
           1
           1
           1
           1
           1
           1
           1
           1
           1
           1
           1
           1
           1
           1
           1
           1
           1
           1
           1
           1
           1
           1
           1
           1
           1
           1
           1
           1
           1
           1
           1
           1
           1
           1
           1
           1
           1
           1
           1
           1
           1
           1
           1
           1
           1
           1
           1
           1
           1
           1
           1
           1
           1
           1
           1
           1
           1
           1
           1
           1
           1
           1
           1
           1
           1
           1
           1
           1
           1
           1
           1
           1
           1
           1
           1
           1
           1
           1
           1
           1
           1
           1
           1
           1
           1
           1
           1
           1
           1
           1
           1
           1
           1
           1
           1
           1
           1
           1
           1
           1
           1
           1
           1
           1
           1
           1
           1
           1
           1
           1
           1
           1
           1
           1
           1
           1
           1
           1
           1
           1
           1
           1
           1
           1
           1
           1
           1
           1
           1
           1
           1
           1
           1
           1
           1
           1
           1
           1
           1
           1
           1
           1
           1
           1
           1
           1
           1
           1
           1
           1
           1
           1
           1
           1
           1
           1
           1
           1
           1
           1
           1
           1
           1
           1
           1
           1
           1
           1
           1
           1
           1
           1
           1
           1
           1
           1
           1
           1
           1
           1
           1
           1
           1
           1
           1
           1
           1
           1
           1
           1
           1
           1
           1
           1
           1
           1
           1
           1
           1
           1
           1
           1
           1
           1
           1
           1
           1
           1
           1
           1
           1
           1
           1
           1
           1
           1
           1
           1
           1
           1
           1
           1
           1
           1
           1
           1
           1
           1
           1
           1
           1
           1
           1
           1
           1
           1
           1
           1
           1
           1
           1
           1
           1
           1
           1
           1
           1
           1
           1
           1
           1
           1
           1
           1
           1
           1
           1
           1
           1
           1
           1
           1
           1
           1
           1
           1
           1
           1
           1
           1
           1
           1
           1
           1
           1
           1
           1
           1
           1
           1
           1
           1
           1
           1
           1
           1
           1
           1
           1
           1
           1
           1
           1
           1
           1
           1
           1
           1
           1
           1
           1
           1
           1
           1
           1
           1
           1
           1
           1
           1
           1
           1
           1
           1
           1
           1
           1
           1
           1
           1
           1
           1
           1
           1
           1
           1
           1
           1
           1
           1
           1
           1
           1
           1
           1
           1
           1
           1
           1
           1
           1
           1
           1
           1
           1
           1
           1
           1
           1
           1
           1
           1
           1
           1
           1
           1
           1
           1
           1
           1
           1
           1
           1
           1
           1
           1
           1
           1
           1
           1
           1
           1
           1
           1
           1
           1
           1
           1
           1
           1
           1
           1
           1
           1
           1
           1
           1
           1
           1
           1
           1
           1
           1
           1
           1
           1
           1
           1
           1
           1
           1
           1
           1
           1
           1
           1
           1
           1
           1
           1
           1
           1
           1
           1
           1
           1
           1
           1
           1
           1
           1
           1
           1
           1
           1
           1
           1
           1
           1
           1
           1
           1
           1
           1
           1
           1
           1
           1
           1
           1
           1
           1
           1
           1
           1
           1
           1
           1
           1
           1
           1
           1
           1
           1
           1
           1
           1
           1
           1
           1
           1
           1
           1
           1
           1
           1
           1
           1
           1
           1
           1
           1
           1
           1
           1
           1
           1
           1
           1
           1
           1
           1
           1
           1
           1
           1
           1
           1
           1
           1
           1
           1
           1
           1
           1
           1
           1
           1
           1
           1
           1
           1
           1
           1
           1
           1
           1
           1
           1
           1
           1
           1
           1
           1
           1
           1
           1
           1
           1
           1
           1
           1
           1
           1
           1
           1
           1
           1
           1
           1
           1
           1
           1
           1
           1
           1
           1
           1
           1
           1
           1
           1
           1
           1
           1
           1
           1
           1
           1
           1
           1
           1
           1
           1
           1
           1
           1
           1
           1
           1
           1
           1
           1
           1
           1
           1
           1
           1
           1
           1
           1
           1
           1
           2
           2
           2
           2
           2
           2
           2
           2
           2
           2
           2
           2
           2
           2
           2
           2
           2
           2
           2
           2
           2
           2
           2
           2
           2
           2
           2
           2
           2
           2
           2
           2
           2
           2
           2
           2
           2
           2
           2
           2
           2
           2
           2
           2
           2
           2
           2
           2
           2
           2
           2
           2
           2
           2
           2
           2
           2
           2
           2
           2
           2
           2
           2
           2
           2
           2
           2
           2
           2
           2
           2
           2
           2
           2
           2
           2
           2
           2
           2
           2
           2
           2
           2
           2
           2
           2
           2
           2
           2
           2
           2
           2
           2
           2
           2
           2
           2
           2
           2
           2
           2
           2
           2
           2
           2
           2
           2
           2
           2
           2
           2
           2
           2
           2
           2
           2
           2
           2
           2
           2
           2
           2
           2
           2
           2
           2
           2
           2
           2
           2
           2
           2
           2
           2
           2
           2
           2
           2
           2
           2
           2
           2
           2
           2
           2
           2
           2
           2
           2
           2
           2
           2
           2
           2
           2
           2
           2
           2
           2
           2
           2
           2
           2
           2
           2
           2
           2
           2
           2
           2
           2
           2
           2
           2
           2
           2
           2
           2
           2
           2
           2
           2
           2
           2
           2
           2
           2
           2
           2
           2
           2
           2
           2
           2
           2
           2
           2
           2
           2
           2
           2
           2
           2
           2
           2
           2
           2
           2
           2
           2
           2
           2
           2
           2
           2
           2
           2
           2
           2
           2
           2
           2
           2
           2
           2
           2
           2
           2
           2
           2
           2
           2
           2
           2
           2
           2
           2
           2
           2
           2
           2
           2
           2
           2
           2
           2
           2
           2
           2
           2
           2
           2
           2
           2
           2
           2
           2
           2
           2
           2
           2
           2
           2
           2
           2
           2
           2
           2
           2
           2
           2
           2
           2
           2
           2
           2
           2
           2
           2
           2
           2
           2
           2
           2
           2
           2
           2
           2
           2
           2
           2
           2
           2
           2
           2
           2
           2
           2
           2
           2
           2
           2
           2
           2
           2
           2
           2
           2
           2
           2
           2
           2
           2
           2
           2
           2
           2
           2
           2
           2
           2
           2
           2
           2
           2
           2
           2
           2
           2
           2
           2
           2
           2
           2
           2
           2
           2
           2
           2
           2
           2
           2
           2
           2
           2
           2
           2
           2
           2
           2
           2
           2
           2
           2
           2
           2
           2
           2
           2
           2
           2
           2
           2
           2
           2
           2
           2
           2
           2
           2
           2
           2
           2
           2
           2
           2
           2
           2
           2
           2
           2
           2
           2
           2
           2
           2
           2
           2
           2
           2
           2
           2
           2
           2
           2
           2
           2
           2
           2
           2
           2
           2
           2
           2
           2
           2
           2
           2
           2
           2
           2
           2
           2
           2
           2
           2
           2
           2
           2
           2
           2
           2
           2
           2
           2
           2
           2
           2
           2
           2
           2
           2
           2
           2
           2
           2
           2
           2
           2
           2
           2
           2
           2
           2
           2
           2
           2
           2
           2
           2
           2
           2
           2
           2
           2
           2
           2
           2
           2
           2
           2
           2
           2
           2
           2
           2
           2
           2
           2
           2
           2
           2
           2
           2
           2
           2
           2
           2
           2
           2
           2
           2
           2
           2
           2
           2
           2
           2
           2
           2
           2
           2
           2
           2
           2
           2
           2
           2
           2
           2
           2
           2
           2
           2
           2
           2
           2
           2
           2
           2
           2
           2
           2
           2
           2
           2
           2
           2
           2
           2
           2
           2
           2
           2
           2
           2
           2
           2
           2
           2
           2
           2
           2
           2
           2
           2
           2
           2
           2
           2
           2
           2
           2
           2
           2
           2
           2
           2
           2
           2
           2
           2
           2
           2
           2
           2
           2
           2
           2
           2
           2
           2
           2
           2
           2
           2
           2
           2
           2
           2
           2
           2
           2
           2
           2
           2
           2
           2
           2
           2
           2
           2
           2
           2
           2
           2
           2
           2
           2
           2
           2
           2
           2
           2
           2
           2
           2
           2
           2
           2
</DataArray>
</CellData>
</Piece>
</UnstructuredGrid>
</VTKFile>
