<VTKFile type="UnstructuredGrid" version="1,0" byte_order="LittleEndian">
<UnstructuredGrid>
<Piece NumberOfPoints="5802" NumberOfCells="5680">
<Points>
<DataArray type="Float64" NumberOfComponents="3" format="ascii">
-0.1100000000000E+01 -0.4304044648606E+01  0.0000000000000E+00
 0.0000000000000E+00 -0.4304044648606E+01  0.0000000000000E+00
 0.1100000000000E+01 -0.4304044648606E+01  0.0000000000000E+00
-0.1426338184892E+01 -0.1495137730994E+01  0.0000000000000E+00
-0.7131690856113E+00 -0.1351817918288E+01  0.0000000000000E+00
 0.7131690992823E+00 -0.1351817920119E+01  0.0000000000000E+00
 0.1426338184892E+01 -0.1495137730994E+01  0.0000000000000E+00
-0.1297471036855E+01  0.8924645033579E+00  0.0000000000000E+00
 0.1297471037589E+01  0.8924645030013E+00  0.0000000000000E+00
-0.7500000000000E+00  0.3449934570704E+00  0.0000000000000E+00
 0.7500000000000E+00  0.3449934570704E+00  0.0000000000000E+00
-0.1072500000000E+01 -0.4304044648606E+01  0.0000000000000E+00
-0.1045000000000E+01 -0.4304044648606E+01  0.0000000000000E+00
-0.1017500000000E+01 -0.4304044648606E+01  0.0000000000000E+00
-0.9900000000000E+00 -0.4304044648606E+01  0.0000000000000E+00
-0.9625000000000E+00 -0.4304044648606E+01  0.0000000000000E+00
-0.9350000000000E+00 -0.4304044648606E+01  0.0000000000000E+00
-0.9075000000000E+00 -0.4304044648606E+01  0.0000000000000E+00
-0.8800000000000E+00 -0.4304044648606E+01  0.0000000000000E+00
-0.8525000000000E+00 -0.4304044648606E+01  0.0000000000000E+00
-0.8250000000000E+00 -0.4304044648606E+01  0.0000000000000E+00
-0.7975000000000E+00 -0.4304044648606E+01  0.0000000000000E+00
-0.7700000000000E+00 -0.4304044648606E+01  0.0000000000000E+00
-0.7425000000000E+00 -0.4304044648606E+01  0.0000000000000E+00
-0.7150000000000E+00 -0.4304044648606E+01  0.0000000000000E+00
-0.6875000000000E+00 -0.4304044648606E+01  0.0000000000000E+00
-0.6600000000000E+00 -0.4304044648606E+01  0.0000000000000E+00
-0.6325000000000E+00 -0.4304044648606E+01  0.0000000000000E+00
-0.6050000000000E+00 -0.4304044648606E+01  0.0000000000000E+00
-0.5775000000000E+00 -0.4304044648606E+01  0.0000000000000E+00
-0.5500000000000E+00 -0.4304044648606E+01  0.0000000000000E+00
-0.5225000000000E+00 -0.4304044648606E+01  0.0000000000000E+00
-0.4950000000000E+00 -0.4304044648606E+01  0.0000000000000E+00
-0.4675000000000E+00 -0.4304044648606E+01  0.0000000000000E+00
-0.4400000000000E+00 -0.4304044648606E+01  0.0000000000000E+00
-0.4125000000000E+00 -0.4304044648606E+01  0.0000000000000E+00
-0.3850000000000E+00 -0.4304044648606E+01  0.0000000000000E+00
-0.3575000000000E+00 -0.4304044648606E+01  0.0000000000000E+00
-0.3300000000000E+00 -0.4304044648606E+01  0.0000000000000E+00
-0.3025000000000E+00 -0.4304044648606E+01  0.0000000000000E+00
-0.2750000000000E+00 -0.4304044648606E+01  0.0000000000000E+00
-0.2475000000000E+00 -0.4304044648606E+01  0.0000000000000E+00
-0.2200000000000E+00 -0.4304044648606E+01  0.0000000000000E+00
-0.1925000000000E+00 -0.4304044648606E+01  0.0000000000000E+00
-0.1650000000000E+00 -0.4304044648606E+01  0.0000000000000E+00
-0.1375000000000E+00 -0.4304044648606E+01  0.0000000000000E+00
-0.1100000000000E+00 -0.4304044648606E+01  0.0000000000000E+00
-0.8250000000000E-01 -0.4304044648606E+01  0.0000000000000E+00
-0.5500000000000E-01 -0.4304044648606E+01  0.0000000000000E+00
-0.2750000000000E-01 -0.4304044648606E+01  0.0000000000000E+00
 0.2750000000000E-01 -0.4304044648606E+01  0.0000000000000E+00
 0.5500000000000E-01 -0.4304044648606E+01  0.0000000000000E+00
 0.8250000000000E-01 -0.4304044648606E+01  0.0000000000000E+00
 0.1100000000000E+00 -0.4304044648606E+01  0.0000000000000E+00
 0.1375000000000E+00 -0.4304044648606E+01  0.0000000000000E+00
 0.1650000000000E+00 -0.4304044648606E+01  0.0000000000000E+00
 0.1925000000000E+00 -0.4304044648606E+01  0.0000000000000E+00
 0.2200000000000E+00 -0.4304044648606E+01  0.0000000000000E+00
 0.2475000000000E+00 -0.4304044648606E+01  0.0000000000000E+00
 0.2750000000000E+00 -0.4304044648606E+01  0.0000000000000E+00
 0.3025000000000E+00 -0.4304044648606E+01  0.0000000000000E+00
 0.3300000000000E+00 -0.4304044648606E+01  0.0000000000000E+00
 0.3575000000000E+00 -0.4304044648606E+01  0.0000000000000E+00
 0.3850000000000E+00 -0.4304044648606E+01  0.0000000000000E+00
 0.4125000000000E+00 -0.4304044648606E+01  0.0000000000000E+00
 0.4400000000000E+00 -0.4304044648606E+01  0.0000000000000E+00
 0.4675000000000E+00 -0.4304044648606E+01  0.0000000000000E+00
 0.4950000000000E+00 -0.4304044648606E+01  0.0000000000000E+00
 0.5225000000000E+00 -0.4304044648606E+01  0.0000000000000E+00
 0.5500000000000E+00 -0.4304044648606E+01  0.0000000000000E+00
 0.5775000000000E+00 -0.4304044648606E+01  0.0000000000000E+00
 0.6050000000000E+00 -0.4304044648606E+01  0.0000000000000E+00
 0.6325000000000E+00 -0.4304044648606E+01  0.0000000000000E+00
 0.6600000000000E+00 -0.4304044648606E+01  0.0000000000000E+00
 0.6875000000000E+00 -0.4304044648606E+01  0.0000000000000E+00
 0.7150000000000E+00 -0.4304044648606E+01  0.0000000000000E+00
 0.7425000000000E+00 -0.4304044648606E+01  0.0000000000000E+00
 0.7700000000000E+00 -0.4304044648606E+01  0.0000000000000E+00
 0.7975000000000E+00 -0.4304044648606E+01  0.0000000000000E+00
 0.8250000000000E+00 -0.4304044648606E+01  0.0000000000000E+00
 0.8525000000000E+00 -0.4304044648606E+01  0.0000000000000E+00
 0.8800000000000E+00 -0.4304044648606E+01  0.0000000000000E+00
 0.9075000000000E+00 -0.4304044648606E+01  0.0000000000000E+00
 0.9350000000000E+00 -0.4304044648606E+01  0.0000000000000E+00
 0.9625000000000E+00 -0.4304044648606E+01  0.0000000000000E+00
 0.9900000000000E+00 -0.4304044648606E+01  0.0000000000000E+00
 0.1017500000000E+01 -0.4304044648606E+01  0.0000000000000E+00
 0.1045000000000E+01 -0.4304044648606E+01  0.0000000000000E+00
 0.1072500000000E+01 -0.4304044648606E+01  0.0000000000000E+00
-0.1391152984612E+01 -0.1485826169004E+01  0.0000000000000E+00
-0.1355910848380E+01 -0.1476732672072E+01  0.0000000000000E+00
-0.1320612835817E+01 -0.1467858633912E+01  0.0000000000000E+00
-0.1285259981017E+01 -0.1459205415754E+01  0.0000000000000E+00
-0.1249853511796E+01 -0.1450774398559E+01  0.0000000000000E+00
-0.1214394584761E+01 -0.1442566916018E+01  0.0000000000000E+00
-0.1178884329493E+01 -0.1434584266595E+01  0.0000000000000E+00
-0.1143323993112E+01 -0.1426827745365E+01  0.0000000000000E+00
-0.1107714835036E+01 -0.1419298618073E+01  0.0000000000000E+00
-0.1072058114862E+01 -0.1411998118171E+01  0.0000000000000E+00
-0.1036355114016E+01 -0.1404927450906E+01  0.0000000000000E+00
-0.1000607103274E+01 -0.1398087786375E+01  0.0000000000000E+00
-0.9648154637952E+00 -0.1391480281711E+01  0.0000000000000E+00
-0.9289815514207E+00 -0.1385106053576E+01  0.0000000000000E+00
-0.8931067449032E+00 -0.1378966186997E+01  0.0000000000000E+00
-0.8571924453329E+00 -0.1373061734396E+01  0.0000000000000E+00
-0.8212400755349E+00 -0.1367393714636E+01  0.0000000000000E+00
-0.7852510794390E+00 -0.1361963112090E+01  0.0000000000000E+00
-0.7492269214199E+00 -0.1356770875739E+01  0.0000000000000E+00
-0.6777056485815E+00 -0.1347184849055E+01  0.0000000000000E+00
-0.6422126030433E+00 -0.1342784468384E+01  0.0000000000000E+00
-0.6066914054888E+00 -0.1338617534531E+01  0.0000000000000E+00
-0.5711435255488E+00 -0.1334684768748E+01  0.0000000000000E+00
-0.5355704233029E+00 -0.1330986852489E+01  0.0000000000000E+00
-0.4999736369017E+00 -0.1327524435880E+01  0.0000000000000E+00
-0.4643546817971E+00 -0.1324298126257E+01  0.0000000000000E+00
-0.4287150862649E+00 -0.1321308491716E+01  0.0000000000000E+00
-0.3930563807228E+00 -0.1318556059836E+01  0.0000000000000E+00
-0.3573801183139E+00 -0.1316041318931E+01  0.0000000000000E+00
-0.3216878730590E+00 -0.1313764717124E+01  0.0000000000000E+00
-0.2859812157621E+00 -0.1311726660302E+01  0.0000000000000E+00
-0.2502617257092E+00 -0.1309927512732E+01  0.0000000000000E+00
-0.2145309892672E+00 -0.1308367596678E+01  0.0000000000000E+00
-0.1787905926666E+00 -0.1307047191884E+01  0.0000000000000E+00
-0.1430421463503E+00 -0.1305966536203E+01  0.0000000000000E+00
-0.1072872541886E+00 -0.1305125824139E+01  0.0000000000000E+00
-0.7152752388590E-01 -0.1304525207180E+01  0.0000000000000E+00
-0.3576456602431E-01 -0.1304164793652E+01  0.0000000000000E+00
 0.6896563736758E-08 -0.1304044648606E+01  0.0000000000000E+00
 0.3576457981713E-01 -0.1304164793745E+01  0.0000000000000E+00
 0.7152753767778E-01 -0.1304525207365E+01  0.0000000000000E+00
 0.1072872679789E+00 -0.1305125824417E+01  0.0000000000000E+00
 0.1430421601384E+00 -0.1305966536574E+01  0.0000000000000E+00
 0.1787906064519E+00 -0.1307047192347E+01  0.0000000000000E+00
 0.2145310030492E+00 -0.1308367597233E+01  0.0000000000000E+00
 0.2502617394871E+00 -0.1309927513380E+01  0.0000000000000E+00
 0.2859812295354E+00 -0.1311726661042E+01  0.0000000000000E+00
 0.3216878868270E+00 -0.1313764717956E+01  0.0000000000000E+00
 0.3573801320760E+00 -0.1316041319855E+01  0.0000000000000E+00
 0.3930563944785E+00 -0.1318556060852E+01  0.0000000000000E+00
 0.4287151000135E+00 -0.1321308492824E+01  0.0000000000000E+00
 0.4643546955381E+00 -0.1324298127456E+01  0.0000000000000E+00
 0.4999736506343E+00 -0.1327524437170E+01  0.0000000000000E+00
 0.5355704370268E+00 -0.1330986853870E+01  0.0000000000000E+00
 0.5711435392633E+00 -0.1334684770220E+01  0.0000000000000E+00
 0.6066914191932E+00 -0.1338617536093E+01  0.0000000000000E+00
 0.6422126167371E+00 -0.1342784470036E+01  0.0000000000000E+00
 0.6777056622642E+00 -0.1347184850797E+01  0.0000000000000E+00
 0.7492269343955E+00 -0.1356770877566E+01  0.0000000000000E+00
 0.7852510917199E+00 -0.1361963113902E+01  0.0000000000000E+00
 0.8212400871220E+00 -0.1367393716423E+01  0.0000000000000E+00
 0.8571924562271E+00 -0.1373061736151E+01  0.0000000000000E+00
 0.8931067551055E+00 -0.1378966188709E+01  0.0000000000000E+00
 0.9289815609321E+00 -0.1385106055236E+01  0.0000000000000E+00
 0.9648154726170E+00 -0.1391480283310E+01  0.0000000000000E+00
 0.1000607111408E+01 -0.1398087787904E+01  0.0000000000000E+00
 0.1036355121463E+01 -0.1404927452356E+01  0.0000000000000E+00
 0.1072058121623E+01 -0.1411998119533E+01  0.0000000000000E+00
 0.1107714841113E+01 -0.1419298619338E+01  0.0000000000000E+00
 0.1143323998507E+01 -0.1426827746523E+01  0.0000000000000E+00
 0.1178884334206E+01 -0.1434584267638E+01  0.0000000000000E+00
 0.1214394588795E+01 -0.1442566916938E+01  0.0000000000000E+00
 0.1249853515153E+01 -0.1450774399347E+01  0.0000000000000E+00
 0.1285259983698E+01 -0.1459205416402E+01  0.0000000000000E+00
 0.1320612837825E+01 -0.1467858634410E+01  0.0000000000000E+00
 0.1355910849717E+01 -0.1476732672412E+01  0.0000000000000E+00
 0.1391152985279E+01 -0.1485826169179E+01  0.0000000000000E+00
-0.1500282641368E+01 -0.1374379525622E+01  0.0000000000000E+00
-0.1579712636672E+01 -0.1257117726587E+01  0.0000000000000E+00
-0.1659629531058E+01 -0.1140189019983E+01  0.0000000000000E+00
-0.1733164540211E+01 -0.1019175933670E+01  0.0000000000000E+00
-0.1798046249351E+01 -0.8933073152546E+00  0.0000000000000E+00
-0.1854662117542E+01 -0.7635066404071E+00  0.0000000000000E+00
-0.1902918776519E+01 -0.6303741789607E+00  0.0000000000000E+00
-0.1941975481337E+01 -0.4942606593644E+00  0.0000000000000E+00
-0.1971769159893E+01 -0.3558234883184E+00  0.0000000000000E+00
-0.1991516502432E+01 -0.2156092846034E+00  0.0000000000000E+00
-0.1999617540933E+01 -0.7424989119446E-01  0.0000000000000E+00
-0.1998781287050E+01  0.6736447573279E-01  0.0000000000000E+00
-0.1977369471108E+01  0.2070661279160E+00  0.0000000000000E+00
-0.1925316867218E+01  0.3385059547416E+00  0.0000000000000E+00
-0.1849365860808E+01  0.4578477771193E+00  0.0000000000000E+00
-0.1756248887890E+01  0.5644442091257E+00  0.0000000000000E+00
-0.1652195200841E+01  0.6604571002421E+00  0.0000000000000E+00
-0.1540277150090E+01  0.7471961778048E+00  0.0000000000000E+00
-0.1421865714943E+01  0.8248395163169E+00  0.0000000000000E+00
-0.1236157917423E+01  0.9206126839211E+00  0.0000000000000E+00
-0.1173981215584E+01  0.9468055532948E+00  0.0000000000000E+00
-0.1111281399127E+01  0.9717225607392E+00  0.0000000000000E+00
-0.1048246390832E+01  0.9957805369659E+00  0.0000000000000E+00
-0.9850026878781E+00  0.1019284763872E+01  0.0000000000000E+00
-0.9216449825030E+00  0.1042480347406E+01  0.0000000000000E+00
-0.8582438511844E+00  0.1065556940867E+01  0.0000000000000E+00
-0.7946812217419E+00  0.1088183183765E+01  0.0000000000000E+00
-0.7306767253970E+00  0.1109523680148E+01  0.0000000000000E+00
-0.6661180574429E+00  0.1129122063103E+01  0.0000000000000E+00
-0.6010093404920E+00  0.1146807084276E+01  0.0000000000000E+00
-0.5354041844713E+00  0.1162549250252E+01  0.0000000000000E+00
-0.4693692539535E+00  0.1176378185166E+01  0.0000000000000E+00
-0.4029695874389E+00  0.1188340213072E+01  0.0000000000000E+00
-0.3362668810131E+00  0.1198477309315E+01  0.0000000000000E+00
-0.2693161135181E+00  0.1206817739605E+01  0.0000000000000E+00
-0.2021667219355E+00  0.1213370604034E+01  0.0000000000000E+00
-0.1348660417516E+00  0.1218121850014E+01  0.0000000000000E+00
-0.6746061515966E-01  0.1221030416244E+01  0.0000000000000E+00
 0.4058847535558E-09  0.1222022719718E+01  0.0000000000000E+00
 0.6746061597099E-01  0.1221030416217E+01  0.0000000000000E+00
 0.1348660425620E+00  0.1218121849962E+01  0.0000000000000E+00
 0.2021667227442E+00  0.1213370603957E+01  0.0000000000000E+00
 0.2693161143243E+00  0.1206817739504E+01  0.0000000000000E+00
 0.3362668818164E+00  0.1198477309191E+01  0.0000000000000E+00
 0.4029695882387E+00  0.1188340212925E+01  0.0000000000000E+00
 0.4693692547501E+00  0.1176378184996E+01  0.0000000000000E+00
 0.5354041852619E+00  0.1162549250060E+01  0.0000000000000E+00
 0.6010093412774E+00  0.1146807084062E+01  0.0000000000000E+00
 0.6661180582227E+00  0.1129122062868E+01  0.0000000000000E+00
 0.7306767261711E+00  0.1109523679893E+01  0.0000000000000E+00
 0.7946812225112E+00  0.1088183183495E+01  0.0000000000000E+00
 0.8582438519506E+00  0.1065556940589E+01  0.0000000000000E+00
 0.9216449832687E+00  0.1042480347127E+01  0.0000000000000E+00
 0.9850026886429E+00  0.1019284763591E+01  0.0000000000000E+00
 0.1048246391595E+01  0.9957805366789E+00  0.0000000000000E+00
 0.1111281399886E+01  0.9717225604423E+00  0.0000000000000E+00
 0.1173981216337E+01  0.9468055529829E+00  0.0000000000000E+00
 0.1236157918167E+01  0.9206126835887E+00  0.0000000000000E+00
 0.1421865715609E+01  0.8248395159258E+00  0.0000000000000E+00
 0.1540277150686E+01  0.7471961773831E+00  0.0000000000000E+00
 0.1652195201364E+01  0.6604570997956E+00  0.0000000000000E+00
 0.1756248888337E+01  0.5644442086587E+00  0.0000000000000E+00
 0.1849365861169E+01  0.4578477766335E+00  0.0000000000000E+00
 0.1925316867476E+01  0.3385059542402E+00  0.0000000000000E+00
 0.1977369471244E+01  0.2070661274129E+00  0.0000000000000E+00
 0.1998781287072E+01  0.6736447525390E-01  0.0000000000000E+00
 0.1999617540926E+01 -0.7424989163157E-01  0.0000000000000E+00
 0.1991516502379E+01 -0.2156092849952E+00  0.0000000000000E+00
 0.1971769159793E+01 -0.3558234886609E+00  0.0000000000000E+00
 0.1941975481197E+01 -0.4942606596555E+00  0.0000000000000E+00
 0.1902918776353E+01 -0.6303741792004E+00  0.0000000000000E+00
 0.1854662117367E+01 -0.7635066405985E+00  0.0000000000000E+00
 0.1798046249184E+01 -0.8933073154033E+00  0.0000000000000E+00
 0.1733164540072E+01 -0.1019175933786E+01  0.0000000000000E+00
 0.1659629530969E+01 -0.1140189020080E+01  0.0000000000000E+00
 0.1579712636620E+01 -0.1257117726658E+01  0.0000000000000E+00
 0.1500282641316E+01 -0.1374379525643E+01  0.0000000000000E+00
-0.1100000000000E+01 -0.4234290980465E+01  0.0000000000000E+00
-0.1100000000000E+01 -0.4164537374556E+01  0.0000000000000E+00
-0.1100000000000E+01 -0.4094783637185E+01  0.0000000000000E+00
-0.1100000000000E+01 -0.4025029839181E+01  0.0000000000000E+00
-0.1100000000000E+01 -0.3955276133193E+01  0.0000000000000E+00
-0.1100000000000E+01 -0.3885522440291E+01  0.0000000000000E+00
-0.1100000000000E+01 -0.3815768738526E+01  0.0000000000000E+00
-0.1100000000000E+01 -0.3746015026237E+01  0.0000000000000E+00
-0.1100000000000E+01 -0.3676261319430E+01  0.0000000000000E+00
-0.1100000000000E+01 -0.3606507611668E+01  0.0000000000000E+00
-0.1100000000000E+01 -0.3536753776913E+01  0.0000000000000E+00
-0.1100000000000E+01 -0.3467000160269E+01  0.0000000000000E+00
-0.1100000000000E+01 -0.3397246335911E+01  0.0000000000000E+00
-0.1100000000000E+01 -0.3327491483183E+01  0.0000000000000E+00
-0.1100000000000E+01 -0.3257738937264E+01  0.0000000000000E+00
-0.1100000000000E+01 -0.3187985423319E+01  0.0000000000000E+00
-0.1100000000000E+01 -0.3118231710338E+01  0.0000000000000E+00
-0.1100000000000E+01 -0.3048478034801E+01  0.0000000000000E+00
-0.1100000000000E+01 -0.2978724449557E+01  0.0000000000000E+00
-0.1100081949193E+01 -0.2908970897701E+01  0.0000000000000E+00
-0.1100742728942E+01 -0.2839220824704E+01  0.0000000000000E+00
-0.1102521741007E+01 -0.2769490993372E+01  0.0000000000000E+00
-0.1105743074114E+01 -0.2699813216018E+01  0.0000000000000E+00
-0.1110533766938E+01 -0.2630225810104E+01  0.0000000000000E+00
-0.1116908162342E+01 -0.2560765504263E+01  0.0000000000000E+00
-0.1124837122290E+01 -0.2491465260483E+01  0.0000000000000E+00
-0.1134287691960E+01 -0.2422356178019E+01  0.0000000000000E+00
-0.1145243591943E+01 -0.2353469532743E+01  0.0000000000000E+00
-0.1157716694154E+01 -0.2284841544654E+01  0.0000000000000E+00
-0.1171756578450E+01 -0.2216517038769E+01  0.0000000000000E+00
-0.1187382332609E+01 -0.2148537564097E+01  0.0000000000000E+00
-0.1204496719736E+01 -0.2080917362614E+01  0.0000000000000E+00
-0.1223027229037E+01 -0.2013671356569E+01  0.0000000000000E+00
-0.1242939072837E+01 -0.1946821322119E+01  0.0000000000000E+00
-0.1264231112750E+01 -0.1880397992225E+01  0.0000000000000E+00
-0.1286935945292E+01 -0.1814444247962E+01  0.0000000000000E+00
-0.1311124079738E+01 -0.1749020523908E+01  0.0000000000000E+00
-0.1336914565389E+01 -0.1684211332234E+01  0.0000000000000E+00
-0.1364492429937E+01 -0.1620144016975E+01  0.0000000000000E+00
-0.1394146623869E+01 -0.1557011712595E+01  0.0000000000000E+00
 0.1394146623938E+01 -0.1557011712631E+01  0.0000000000000E+00
 0.1364492430018E+01 -0.1620144017018E+01  0.0000000000000E+00
 0.1336914565463E+01 -0.1684211332275E+01  0.0000000000000E+00
 0.1311124079803E+01 -0.1749020523939E+01  0.0000000000000E+00
 0.1286935945344E+01 -0.1814444247990E+01  0.0000000000000E+00
 0.1264231112793E+01 -0.1880397992249E+01  0.0000000000000E+00
 0.1242939072872E+01 -0.1946821322142E+01  0.0000000000000E+00
 0.1223027229066E+01 -0.2013671356589E+01  0.0000000000000E+00
 0.1204496719761E+01 -0.2080917362633E+01  0.0000000000000E+00
 0.1187382332630E+01 -0.2148537564113E+01  0.0000000000000E+00
 0.1171756578464E+01 -0.2216517038784E+01  0.0000000000000E+00
 0.1157716694160E+01 -0.2284841544667E+01  0.0000000000000E+00
 0.1145243591945E+01 -0.2353469532755E+01  0.0000000000000E+00
 0.1134287691960E+01 -0.2422356178030E+01  0.0000000000000E+00
 0.1124837122289E+01 -0.2491465260492E+01  0.0000000000000E+00
 0.1116908162341E+01 -0.2560765504273E+01  0.0000000000000E+00
 0.1110533766937E+01 -0.2630225810113E+01  0.0000000000000E+00
 0.1105743074114E+01 -0.2699813216027E+01  0.0000000000000E+00
 0.1102521741008E+01 -0.2769490993381E+01  0.0000000000000E+00
 0.1100742728943E+01 -0.2839220824713E+01  0.0000000000000E+00
 0.1100081949193E+01 -0.2908970897709E+01  0.0000000000000E+00
 0.1100000000000E+01 -0.2978724449564E+01  0.0000000000000E+00
 0.1100000000000E+01 -0.3048478034808E+01  0.0000000000000E+00
 0.1100000000000E+01 -0.3118231710345E+01  0.0000000000000E+00
 0.1100000000000E+01 -0.3187985423326E+01  0.0000000000000E+00
 0.1100000000000E+01 -0.3257738937270E+01  0.0000000000000E+00
 0.1100000000000E+01 -0.3327491483189E+01  0.0000000000000E+00
 0.1100000000000E+01 -0.3397246335917E+01  0.0000000000000E+00
 0.1100000000000E+01 -0.3467000160274E+01  0.0000000000000E+00
 0.1100000000000E+01 -0.3536753776917E+01  0.0000000000000E+00
 0.1100000000000E+01 -0.3606507611672E+01  0.0000000000000E+00
 0.1100000000000E+01 -0.3676261319434E+01  0.0000000000000E+00
 0.1100000000000E+01 -0.3746015026240E+01  0.0000000000000E+00
 0.1100000000000E+01 -0.3815768738529E+01  0.0000000000000E+00
 0.1100000000000E+01 -0.3885522440293E+01  0.0000000000000E+00
 0.1100000000000E+01 -0.3955276133195E+01  0.0000000000000E+00
 0.1100000000000E+01 -0.4025029839183E+01  0.0000000000000E+00
 0.1100000000000E+01 -0.4094783637186E+01  0.0000000000000E+00
 0.1100000000000E+01 -0.4164537374557E+01  0.0000000000000E+00
 0.1100000000000E+01 -0.4234290980466E+01  0.0000000000000E+00
-0.7132895388975E+00  0.3545892595695E+00  0.0000000000000E+00
-0.6764636662017E+00  0.3637314849837E+00  0.0000000000000E+00
-0.6395267434147E+00  0.3724145815178E+00  0.0000000000000E+00
-0.6024837198702E+00  0.3806330875003E+00  0.0000000000000E+00
-0.5653396500945E+00  0.3883817695657E+00  0.0000000000000E+00
-0.5280996171512E+00  0.3956556459469E+00  0.0000000000000E+00
-0.4907691319433E+00  0.4024499201459E+00  0.0000000000000E+00
-0.4533537451325E+00  0.4087600740826E+00  0.0000000000000E+00
-0.4158592885785E+00  0.4145818366128E+00  0.0000000000000E+00
-0.3782916751723E+00  0.4199112310808E+00  0.0000000000000E+00
-0.3406570303206E+00  0.4247445663511E+00  0.0000000000000E+00
-0.3029616164712E+00  0.4290784607705E+00  0.0000000000000E+00
-0.2652118192254E+00  0.4329098541257E+00  0.0000000000000E+00
-0.2274141490083E+00  0.4362360171118E+00  0.0000000000000E+00
-0.1895752452634E+00  0.4390545606537E+00  0.0000000000000E+00
-0.1517018295911E+00  0.4413634482121E+00  0.0000000000000E+00
-0.1138007051193E+00  0.4431610022710E+00  0.0000000000000E+00
-0.7587874076696E-01  0.4444459110349E+00  0.0000000000000E+00
-0.3794285511804E-01  0.4452172336970E+00  0.0000000000000E+00
-0.3330669073875E-15  0.4454744042321E+00  0.0000000000000E+00
 0.3794285511804E-01  0.4452172336970E+00  0.0000000000000E+00
 0.7587874076696E-01  0.4444459110349E+00  0.0000000000000E+00
 0.1138007051193E+00  0.4431610022710E+00  0.0000000000000E+00
 0.1517018295911E+00  0.4413634482121E+00  0.0000000000000E+00
 0.1895752452634E+00  0.4390545606537E+00  0.0000000000000E+00
 0.2274141490083E+00  0.4362360171118E+00  0.0000000000000E+00
 0.2652118192254E+00  0.4329098541257E+00  0.0000000000000E+00
 0.3029616164712E+00  0.4290784607705E+00  0.0000000000000E+00
 0.3406570303206E+00  0.4247445663511E+00  0.0000000000000E+00
 0.3782916751723E+00  0.4199112310808E+00  0.0000000000000E+00
 0.4158592885785E+00  0.4145818366128E+00  0.0000000000000E+00
 0.4533537451325E+00  0.4087600740826E+00  0.0000000000000E+00
 0.4907691319433E+00  0.4024499201459E+00  0.0000000000000E+00
 0.5280996171512E+00  0.3956556459469E+00  0.0000000000000E+00
 0.5653396500945E+00  0.3883817695657E+00  0.0000000000000E+00
 0.6024837198702E+00  0.3806330875003E+00  0.0000000000000E+00
 0.6395267434147E+00  0.3724145815178E+00  0.0000000000000E+00
 0.6764636662017E+00  0.3637314849837E+00  0.0000000000000E+00
 0.7132895388975E+00  0.3545892595695E+00  0.0000000000000E+00
-0.7498714525667E+00  0.2601244253178E+00  0.0000000000000E+00
-0.7494610908407E+00  0.1752564208624E+00  0.0000000000000E+00
-0.7487273443814E+00  0.9039062493678E-01  0.0000000000000E+00
-0.7476230150202E+00  0.5528898378488E-02  0.0000000000000E+00
-0.7460974662219E+00 -0.7932632445184E-01  0.0000000000000E+00
-0.7441028539882E+00 -0.1641717347835E+00  0.0000000000000E+00
-0.7416076935207E+00 -0.2490040130765E+00  0.0000000000000E+00
-0.7386208425271E+00 -0.3338203224162E+00  0.0000000000000E+00
-0.7352226651418E+00 -0.4186212392773E+00  0.0000000000000E+00
-0.7315845453817E+00 -0.5034122306519E+00  0.0000000000000E+00
-0.7279464255305E+00 -0.5882032220226E+00  0.0000000000000E+00
-0.7245482478836E+00 -0.6730041388732E+00  0.0000000000000E+00
-0.7215613964884E+00 -0.7578204481989E+00  0.0000000000000E+00
-0.7190662355151E+00 -0.8426527264768E+00  0.0000000000000E+00
-0.7170716227036E+00 -0.9274981367952E+00  0.0000000000000E+00
-0.7155460732803E+00 -0.1012353359614E+01  0.0000000000000E+00
-0.7144417432648E+00 -0.1097215086164E+01  0.0000000000000E+00
-0.7137079961342E+00 -0.1182080882084E+01  0.0000000000000E+00
-0.7132976337280E+00 -0.1266948886536E+01  0.0000000000000E+00
 0.7498714525670E+00  0.2601244252411E+00  0.0000000000000E+00
 0.7494610908447E+00  0.1752564207090E+00  0.0000000000000E+00
 0.7487273443980E+00  0.9039062470648E-01  0.0000000000000E+00
 0.7476230150664E+00  0.5528898070996E-02  0.0000000000000E+00
 0.7460974663270E+00 -0.7932632483698E-01  0.0000000000000E+00
 0.7441028541992E+00 -0.1641717352482E+00  0.0000000000000E+00
 0.7416076939094E+00 -0.2490040136230E+00  0.0000000000000E+00
 0.7386208431973E+00 -0.3338203230495E+00  0.0000000000000E+00
 0.7352226662333E+00 -0.4186212400042E+00  0.0000000000000E+00
 0.7315845470645E+00 -0.5034122314810E+00  0.0000000000000E+00
 0.7279464279870E+00 -0.5882032229617E+00  0.0000000000000E+00
 0.7245482512846E+00 -0.6730041399270E+00  0.0000000000000E+00
 0.7215614009742E+00 -0.7578204493675E+00  0.0000000000000E+00
 0.7190662411903E+00 -0.8426527277573E+00  0.0000000000000E+00
 0.7170716296405E+00 -0.9274981381818E+00  0.0000000000000E+00
 0.7155460815261E+00 -0.1012353361101E+01  0.0000000000000E+00
 0.7144417528489E+00 -0.1097215087745E+01  0.0000000000000E+00
 0.7137080070737E+00 -0.1182080883753E+01  0.0000000000000E+00
 0.7132976460316E+00 -0.1266948888289E+01  0.0000000000000E+00
-0.7773735518427E+00  0.3723670093848E+00  0.0000000000000E+00
-0.8047471036855E+00  0.3997405616991E+00  0.0000000000000E+00
-0.8321206555283E+00  0.4271141140135E+00  0.0000000000000E+00
-0.8594942073710E+00  0.4544876663279E+00  0.0000000000000E+00
-0.8868677592138E+00  0.4818612186423E+00  0.0000000000000E+00
-0.9142413110566E+00  0.5092347709566E+00  0.0000000000000E+00
-0.9416148628994E+00  0.5366083232710E+00  0.0000000000000E+00
-0.9689884147421E+00  0.5639818755854E+00  0.0000000000000E+00
-0.9963619665849E+00  0.5913554278998E+00  0.0000000000000E+00
-0.1023735518428E+01  0.6187289802141E+00  0.0000000000000E+00
-0.1051109070270E+01  0.6461025325285E+00  0.0000000000000E+00
-0.1078482622113E+01  0.6734760848429E+00  0.0000000000000E+00
-0.1105856173956E+01  0.7008496371573E+00  0.0000000000000E+00
-0.1133229725799E+01  0.7282231894716E+00  0.0000000000000E+00
-0.1160603277642E+01  0.7555967417860E+00  0.0000000000000E+00
-0.1187976829484E+01  0.7829702941004E+00  0.0000000000000E+00
-0.1215350381327E+01  0.8103438464148E+00  0.0000000000000E+00
-0.1242723933170E+01  0.8377173987291E+00  0.0000000000000E+00
-0.1270097485013E+01  0.8650909510435E+00  0.0000000000000E+00
 0.7773735518794E+00  0.3723670093669E+00  0.0000000000000E+00
 0.8047471037588E+00  0.3997405616635E+00  0.0000000000000E+00
 0.8321206556383E+00  0.4271141139600E+00  0.0000000000000E+00
 0.8594942075177E+00  0.4544876662566E+00  0.0000000000000E+00
 0.8868677593971E+00  0.4818612185531E+00  0.0000000000000E+00
 0.9142413112766E+00  0.5092347708497E+00  0.0000000000000E+00
 0.9416148631560E+00  0.5366083231462E+00  0.0000000000000E+00
 0.9689884150354E+00  0.5639818754428E+00  0.0000000000000E+00
 0.9963619669149E+00  0.5913554277393E+00  0.0000000000000E+00
 0.1023735518794E+01  0.6187289800359E+00  0.0000000000000E+00
 0.1051109070674E+01  0.6461025323324E+00  0.0000000000000E+00
 0.1078482622553E+01  0.6734760846289E+00  0.0000000000000E+00
 0.1105856174433E+01  0.7008496369255E+00  0.0000000000000E+00
 0.1133229726312E+01  0.7282231892220E+00  0.0000000000000E+00
 0.1160603278191E+01  0.7555967415186E+00  0.0000000000000E+00
 0.1187976830071E+01  0.7829702938151E+00  0.0000000000000E+00
 0.1215350381950E+01  0.8103438461117E+00  0.0000000000000E+00
 0.1242723933830E+01  0.8377173984082E+00  0.0000000000000E+00
 0.1270097485709E+01  0.8650909507048E+00  0.0000000000000E+00
-0.1072512531531E+01 -0.4234063866316E+01  0.0000000000000E+00
-0.1072525063052E+01 -0.4164083146461E+01  0.0000000000000E+00
-0.1072537594596E+01 -0.4094102294716E+01  0.0000000000000E+00
-0.1072550126150E+01 -0.4024121382140E+01  0.0000000000000E+00
-0.1072562657689E+01 -0.3954140561879E+01  0.0000000000000E+00
-0.1072575189225E+01 -0.3884159754748E+01  0.0000000000000E+00
-0.1072587720762E+01 -0.3814178938725E+01  0.0000000000000E+00
-0.1072600252302E+01 -0.3744198112143E+01  0.0000000000000E+00
-0.1072612783840E+01 -0.3674217291062E+01  0.0000000000000E+00
-0.1072625315378E+01 -0.3604236469021E+01  0.0000000000000E+00
-0.1072637846940E+01 -0.3534255519575E+01  0.0000000000000E+00
-0.1072650378462E+01 -0.3464274788950E+01  0.0000000000000E+00
-0.1072662910022E+01 -0.3394293849935E+01  0.0000000000000E+00
-0.1072675441766E+01 -0.3324311879201E+01  0.0000000000000E+00
-0.1072687973096E+01 -0.3254332222786E+01  0.0000000000000E+00
-0.1072700504600E+01 -0.3184351595195E+01  0.0000000000000E+00
-0.1072713036139E+01 -0.3114370767918E+01  0.0000000000000E+00
-0.1072725567672E+01 -0.3044389978209E+01  0.0000000000000E+00
-0.1072738099188E+01 -0.2974409279085E+01  0.0000000000000E+00
-0.1072830520992E+01 -0.2904428613303E+01  0.0000000000000E+00
-0.1073487230625E+01 -0.2834451427672E+01  0.0000000000000E+00
-0.1075234077757E+01 -0.2764494485924E+01  0.0000000000000E+00
-0.1078387008707E+01 -0.2694589599196E+01  0.0000000000000E+00
-0.1083069870449E+01 -0.2624775084183E+01  0.0000000000000E+00
-0.1089296645518E+01 -0.2555087669031E+01  0.0000000000000E+00
-0.1097038927970E+01 -0.2485560315349E+01  0.0000000000000E+00
-0.1106264590896E+01 -0.2416224123304E+01  0.0000000000000E+00
-0.1116957763942E+01 -0.2347110367907E+01  0.0000000000000E+00
-0.1129130020690E+01 -0.2278255270224E+01  0.0000000000000E+00
-0.1142829695345E+01 -0.2209703655273E+01  0.0000000000000E+00
-0.1158075396169E+01 -0.2141497071144E+01  0.0000000000000E+00
-0.1174772329272E+01 -0.2073649759721E+01  0.0000000000000E+00
-0.1192849805623E+01 -0.2006176643474E+01  0.0000000000000E+00
-0.1212273911551E+01 -0.1939099498740E+01  0.0000000000000E+00
-0.1233043537267E+01 -0.1872449058536E+01  0.0000000000000E+00
-0.1255190460318E+01 -0.1806268204055E+01  0.0000000000000E+00
-0.1278783418399E+01 -0.1740617371563E+01  0.0000000000000E+00
-0.1303938469955E+01 -0.1675581070262E+01  0.0000000000000E+00
-0.1330835993654E+01 -0.1611286650534E+01  0.0000000000000E+00
-0.1359757680489E+01 -0.1547927244028E+01  0.0000000000000E+00
-0.1045023674207E+01 -0.4233842070895E+01  0.0000000000000E+00
-0.1045047348392E+01 -0.4163639555816E+01  0.0000000000000E+00
-0.1045071022622E+01 -0.4093436908429E+01  0.0000000000000E+00
-0.1045094696873E+01 -0.4023234200019E+01  0.0000000000000E+00
-0.1045118371092E+01 -0.3953031584216E+01  0.0000000000000E+00
-0.1045142045307E+01 -0.3882828981585E+01  0.0000000000000E+00
-0.1045165719525E+01 -0.3812626370033E+01  0.0000000000000E+00
-0.1045189393746E+01 -0.3742423747889E+01  0.0000000000000E+00
-0.1045213067966E+01 -0.3672221131264E+01  0.0000000000000E+00
-0.1045236742186E+01 -0.3602018513676E+01  0.0000000000000E+00
-0.1045260416449E+01 -0.3531815768278E+01  0.0000000000000E+00
-0.1045284090638E+01 -0.3461613242396E+01  0.0000000000000E+00
-0.1045307764898E+01 -0.3391410507462E+01  0.0000000000000E+00
-0.1045331439506E+01 -0.3321206737540E+01  0.0000000000000E+00
-0.1045355113332E+01 -0.3251005289272E+01  0.0000000000000E+00
-0.1045378787486E+01 -0.3180802866750E+01  0.0000000000000E+00
-0.1045402461708E+01 -0.3110600243909E+01  0.0000000000000E+00
-0.1045426135917E+01 -0.3040397658755E+01  0.0000000000000E+00
-0.1045449810095E+01 -0.2970195164473E+01  0.0000000000000E+00
-0.1045551315657E+01 -0.2899992703486E+01  0.0000000000000E+00
-0.1046202566339E+01 -0.2829793723913E+01  0.0000000000000E+00
-0.1047915859739E+01 -0.2759614990390E+01  0.0000000000000E+00
-0.1050998999770E+01 -0.2689488312903E+01  0.0000000000000E+00
-0.1055572641697E+01 -0.2619452007401E+01  0.0000000000000E+00
-0.1061650407731E+01 -0.2549542801550E+01  0.0000000000000E+00
-0.1069204624013E+01 -0.2479793656596E+01  0.0000000000000E+00
-0.1078203991553E+01 -0.2410235673589E+01  0.0000000000000E+00
-0.1088633049045E+01 -0.2340900126704E+01  0.0000000000000E+00
-0.1100503071749E+01 -0.2271823238048E+01  0.0000000000000E+00
-0.1113861148214E+01 -0.2203049832639E+01  0.0000000000000E+00
-0.1128725407183E+01 -0.2134621457671E+01  0.0000000000000E+00
-0.1145003497769E+01 -0.2066552354937E+01  0.0000000000000E+00
-0.1162626552704E+01 -0.1998857447123E+01  0.0000000000000E+00
-0.1181561532320E+01 -0.1931558510742E+01  0.0000000000000E+00
-0.1201807355426E+01 -0.1864686278866E+01  0.0000000000000E+00
-0.1223394980603E+01 -0.1798283632802E+01  0.0000000000000E+00
-0.1246391373975E+01 -0.1732411010466E+01  0.0000000000000E+00
-0.1270909603116E+01 -0.1667152918159E+01  0.0000000000000E+00
-0.1297125397712E+01 -0.1602636712462E+01  0.0000000000000E+00
-0.1325313189253E+01 -0.1539055522277E+01  0.0000000000000E+00
-0.1017533453958E+01 -0.4233625628194E+01  0.0000000000000E+00
-0.1017566907886E+01 -0.4163206670607E+01  0.0000000000000E+00
-0.1017600361877E+01 -0.4092787580305E+01  0.0000000000000E+00
-0.1017633815897E+01 -0.4022368428792E+01  0.0000000000000E+00
-0.1017667269873E+01 -0.3951949370171E+01  0.0000000000000E+00
-0.1017700723842E+01 -0.3881530324762E+01  0.0000000000000E+00
-0.1017734177816E+01 -0.3811111270406E+01  0.0000000000000E+00
-0.1017767631795E+01 -0.3740692205424E+01  0.0000000000000E+00
-0.1017801085772E+01 -0.3670273145978E+01  0.0000000000000E+00
-0.1017834539748E+01 -0.3599854085567E+01  0.0000000000000E+00
-0.1017867993786E+01 -0.3529434896952E+01  0.0000000000000E+00
-0.1017901447719E+01 -0.3459015928528E+01  0.0000000000000E+00
-0.1017934901752E+01 -0.3388596750409E+01  0.0000000000000E+00
-0.1017968356278E+01 -0.3318176534111E+01  0.0000000000000E+00
-0.1018001809697E+01 -0.3247758646625E+01  0.0000000000000E+00
-0.1018035263581E+01 -0.3177339781880E+01  0.0000000000000E+00
-0.1018068717560E+01 -0.3106920716200E+01  0.0000000000000E+00
-0.1018102171522E+01 -0.3036501688322E+01  0.0000000000000E+00
-0.1018135625440E+01 -0.2966082751597E+01  0.0000000000000E+00
-0.1018244851837E+01 -0.2895663848120E+01  0.0000000000000E+00
-0.1018889280661E+01 -0.2825248427290E+01  0.0000000000000E+00
-0.1020567657443E+01 -0.2754853254624E+01  0.0000000000000E+00
-0.1023579643686E+01 -0.2684510138987E+01  0.0000000000000E+00
-0.1028042702948E+01 -0.2614257395599E+01  0.0000000000000E+00
-0.1033970097107E+01 -0.2544131751656E+01  0.0000000000000E+00
-0.1041334884389E+01 -0.2474166168050E+01  0.0000000000000E+00
-0.1050106593729E+01 -0.2404391746694E+01  0.0000000000000E+00
-0.1060270172863E+01 -0.2334839760947E+01  0.0000000000000E+00
-0.1071836598734E+01 -0.2265546433933E+01  0.0000000000000E+00
-0.1084851714238E+01 -0.2196556590667E+01  0.0000000000000E+00
-0.1099333168593E+01 -0.2127911777470E+01  0.0000000000000E+00
-0.1115191053912E+01 -0.2059626236046E+01  0.0000000000000E+00
-0.1132358324692E+01 -0.1991714889293E+01  0.0000000000000E+00
-0.1150802815268E+01 -0.1924199513894E+01  0.0000000000000E+00
-0.1170523473049E+01 -0.1857110842977E+01  0.0000000000000E+00
-0.1191550437648E+01 -0.1790491757958E+01  0.0000000000000E+00
-0.1213948903631E+01 -0.1724402698364E+01  0.0000000000000E+00
-0.1237828947684E+01 -0.1658928167667E+01  0.0000000000000E+00
-0.1263361650553E+01 -0.1594195528494E+01  0.0000000000000E+00
-0.1290814184204E+01 -0.1530397907066E+01  0.0000000000000E+00
-0.9900418962607E+00 -0.4233414571416E+01  0.0000000000000E+00
-0.9900837924840E+00 -0.4162784557239E+01  0.0000000000000E+00
-0.9901256887862E+00 -0.4092154409949E+01  0.0000000000000E+00
-0.9901675851249E+00 -0.4021524201263E+01  0.0000000000000E+00
-0.9902094814083E+00 -0.3950894085750E+01  0.0000000000000E+00
-0.9902513776839E+00 -0.3880263983487E+01  0.0000000000000E+00
-0.9902932739648E+00 -0.3809633872251E+01  0.0000000000000E+00
-0.9903351702520E+00 -0.3739003750357E+01  0.0000000000000E+00
-0.9903770665359E+00 -0.3668373634015E+01  0.0000000000000E+00
-0.9904189628203E+00 -0.3597743516705E+01  0.0000000000000E+00
-0.9904608591811E+00 -0.3527113270807E+01  0.0000000000000E+00
-0.9905027554109E+00 -0.3456483245761E+01  0.0000000000000E+00
-0.9905446517654E+00 -0.3385853010391E+01  0.0000000000000E+00
-0.9905865487375E+00 -0.3315221733730E+01  0.0000000000000E+00
-0.9906284443242E+00 -0.3244592792861E+01  0.0000000000000E+00
-0.9906703404922E+00 -0.3173962871804E+01  0.0000000000000E+00
-0.9907122367799E+00 -0.3103332749209E+01  0.0000000000000E+00
-0.9907541330450E+00 -0.3032702664530E+01  0.0000000000000E+00
-0.9907960292559E+00 -0.2962072671278E+01  0.0000000000000E+00
-0.9909116390403E+00 -0.2891442711229E+01  0.0000000000000E+00
-0.9915479085496E+00 -0.2820816235028E+01  0.0000000000000E+00
-0.9931900312463E+00 -0.2750210009053E+01  0.0000000000000E+00
-0.9961295262075E+00 -0.2679655841074E+01  0.0000000000000E+00
-0.1000480665275E+01 -0.2609192045601E+01  0.0000000000000E+00
-0.1006256349991E+01 -0.2538855349374E+01  0.0000000000000E+00
-0.1013430370667E+01 -0.2468678712937E+01  0.0000000000000E+00
-0.1021973084167E+01 -0.2398693239047E+01  0.0000000000000E+00
-0.1031869847265E+01 -0.2328930200265E+01  0.0000000000000E+00
-0.1043131338593E+01 -0.2259425820705E+01  0.0000000000000E+00
-0.1055802155392E+01 -0.2190224925383E+01  0.0000000000000E+00
-0.1069899467351E+01 -0.2121369059769E+01  0.0000000000000E+00
-0.1085335809584E+01 -0.2052872465477E+01  0.0000000000000E+00
-0.1102045958354E+01 -0.1984750065613E+01  0.0000000000000E+00
-0.1119998622005E+01 -0.1917023637028E+01  0.0000000000000E+00
-0.1139192776541E+01 -0.1849723912900E+01  0.0000000000000E+00
-0.1159657742613E+01 -0.1782893774755E+01  0.0000000000000E+00
-0.1181456943232E+01 -0.1716593663690E+01  0.0000000000000E+00
-0.1204697464179E+01 -0.1650908080416E+01  0.0000000000000E+00
-0.1229545737291E+01 -0.1585964393460E+01  0.0000000000000E+00
-0.1256261674990E+01 -0.1521955726426E+01  0.0000000000000E+00
-0.9625490307744E+00 -0.4233208934242E+01  0.0000000000000E+00
-0.9625980615051E+00 -0.4162373283074E+01  0.0000000000000E+00
-0.9626470923282E+00 -0.4091537498405E+01  0.0000000000000E+00
-0.9626961231939E+00 -0.4020701652163E+01  0.0000000000000E+00
-0.9627451539950E+00 -0.3949865899364E+01  0.0000000000000E+00
-0.9627941847868E+00 -0.3879030159854E+01  0.0000000000000E+00
-0.9628432155849E+00 -0.3808194411344E+01  0.0000000000000E+00
-0.9628922463903E+00 -0.3737358652146E+01  0.0000000000000E+00
-0.9629412771919E+00 -0.3666522898516E+01  0.0000000000000E+00
-0.9629903079942E+00 -0.3595687143916E+01  0.0000000000000E+00
-0.9630393388858E+00 -0.3524851260352E+01  0.0000000000000E+00
-0.9630883696240E+00 -0.3454015598284E+01  0.0000000000000E+00
-0.9631374005082E+00 -0.3383179725279E+01  0.0000000000000E+00
-0.9631864321153E+00 -0.3312342807951E+01  0.0000000000000E+00
-0.9632354621009E+00 -0.3241508233216E+01  0.0000000000000E+00
-0.9632844927670E+00 -0.3170672675440E+01  0.0000000000000E+00
-0.9633335235729E+00 -0.3099836915539E+01  0.0000000000000E+00
-0.9633825543526E+00 -0.3029001193664E+01  0.0000000000000E+00
-0.9634315850687E+00 -0.2958165563482E+01  0.0000000000000E+00
-0.9635522704534E+00 -0.2887329966460E+01  0.0000000000000E+00
-0.9641790728768E+00 -0.2816497854456E+01  0.0000000000000E+00
-0.9657836337437E+00 -0.2745685994687E+01  0.0000000000000E+00
-0.9686493297033E+00 -0.2674926193857E+01  0.0000000000000E+00
-0.9728872408782E+00 -0.2604256765783E+01  0.0000000000000E+00
-0.9785099084739E+00 -0.2533714436761E+01  0.0000000000000E+00
-0.9854918548825E+00 -0.2463332166997E+01  0.0000000000000E+00
-0.9938042649014E+00 -0.2393141060067E+01  0.0000000000000E+00
-0.1003432904341E+01 -0.2323172387757E+01  0.0000000000000E+00
-0.1014388153526E+01 -0.2253462375149E+01  0.0000000000000E+00
-0.1026713364044E+01 -0.2184055847255E+01  0.0000000000000E+00
-0.1040425226048E+01 -0.2114994348714E+01  0.0000000000000E+00
-0.1055438717652E+01 -0.2046292121059E+01  0.0000000000000E+00
-0.1071690436889E+01 -0.1977964087595E+01  0.0000000000000E+00
-0.1089149966106E+01 -0.1910032025335E+01  0.0000000000000E+00
-0.1107816309908E+01 -0.1842526667508E+01  0.0000000000000E+00
-0.1127717969982E+01 -0.1775490895749E+01  0.0000000000000E+00
-0.1148916597798E+01 -0.1708985152681E+01  0.0000000000000E+00
-0.1171516288212E+01 -0.1643093936327E+01  0.0000000000000E+00
-0.1195678824192E+01 -0.1577944620960E+01  0.0000000000000E+00
-0.1221656858605E+01 -0.1513730327639E+01  0.0000000000000E+00
-0.9350548857341E+00 -0.4233008749201E+01  0.0000000000000E+00
-0.9351097714192E+00 -0.4161972913172E+01  0.0000000000000E+00
-0.9351646572077E+00 -0.4090936943265E+01  0.0000000000000E+00
-0.9352195430440E+00 -0.4019900911610E+01  0.0000000000000E+00
-0.9352744288078E+00 -0.3948864973661E+01  0.0000000000000E+00
-0.9353293145614E+00 -0.3877829049040E+01  0.0000000000000E+00
-0.9353842003219E+00 -0.3806793115393E+01  0.0000000000000E+00
-0.9354390860907E+00 -0.3735757171028E+01  0.0000000000000E+00
-0.9354939718552E+00 -0.3664721232247E+01  0.0000000000000E+00
-0.9355488576204E+00 -0.3593685292493E+01  0.0000000000000E+00
-0.9356037434856E+00 -0.3522649223411E+01  0.0000000000000E+00
-0.9356586291791E+00 -0.3451613376450E+01  0.0000000000000E+00
-0.9357135150361E+00 -0.3380577317956E+01  0.0000000000000E+00
-0.9357684017023E+00 -0.3309540212189E+01  0.0000000000000E+00
-0.9358232865533E+00 -0.3238505455634E+01  0.0000000000000E+00
-0.9358781721661E+00 -0.3167469713260E+01  0.0000000000000E+00
-0.9359330579354E+00 -0.3096433768190E+01  0.0000000000000E+00
-0.9359879436753E+00 -0.3025397861254E+01  0.0000000000000E+00
-0.9360428293441E+00 -0.2954362046269E+01  0.0000000000000E+00
-0.9361673107769E+00 -0.2883326264402E+01  0.0000000000000E+00
-0.9367833665756E+00 -0.2812293968694E+01  0.0000000000000E+00
-0.9383490860972E+00 -0.2741281927175E+01  0.0000000000000E+00
-0.9411397035599E+00 -0.2670321945513E+01  0.0000000000000E+00
-0.9452631073643E+00 -0.2599452336852E+01  0.0000000000000E+00
-0.9507314783757E+00 -0.2528709827051E+01  0.0000000000000E+00
-0.9575200710652E+00 -0.2458127375992E+01  0.0000000000000E+00
-0.9656008981693E+00 -0.2387736088047E+01  0.0000000000000E+00
-0.9749601345276E+00 -0.2317567234247E+01  0.0000000000000E+00
-0.9856078621643E+00 -0.2247657040614E+01  0.0000000000000E+00
-0.9975861870151E+00 -0.2178050332159E+01  0.0000000000000E+00
-0.1010911319691E+01 -0.2108788652715E+01  0.0000000000000E+00
-0.1025500681307E+01 -0.2039886243729E+01  0.0000000000000E+00
-0.1041292691662E+01 -0.1971358028703E+01  0.0000000000000E+00
-0.1058257807111E+01 -0.1903225784809E+01  0.0000000000000E+00
-0.1076395060859E+01 -0.1835520245327E+01  0.0000000000000E+00
-0.1095732135628E+01 -0.1768284291992E+01  0.0000000000000E+00
-0.1116328911357E+01 -0.1701578368917E+01  0.0000000000000E+00
-0.1138286491965E+01 -0.1635486971509E+01  0.0000000000000E+00
-0.1161762011589E+01 -0.1570137479634E+01  0.0000000000000E+00
-0.1187000863524E+01 -0.1505723011870E+01  0.0000000000000E+00
-0.9075594888834E+00 -0.4232814047965E+01  0.0000000000000E+00
-0.9076189777137E+00 -0.4161583510873E+01  0.0000000000000E+00
-0.9076784666562E+00 -0.4090352839537E+01  0.0000000000000E+00
-0.9077379556503E+00 -0.4019122106283E+01  0.0000000000000E+00
-0.9077974445660E+00 -0.3947891466993E+01  0.0000000000000E+00
-0.9078569334706E+00 -0.3876660841067E+01  0.0000000000000E+00
-0.9079164223826E+00 -0.3805430206090E+01  0.0000000000000E+00
-0.9079759113037E+00 -0.3734199560366E+01  0.0000000000000E+00
-0.9080354002201E+00 -0.3662968920241E+01  0.0000000000000E+00
-0.9080948891373E+00 -0.3591738279139E+01  0.0000000000000E+00
-0.9081543781628E+00 -0.3520507508356E+01  0.0000000000000E+00
-0.9082138670023E+00 -0.3449276960303E+01  0.0000000000000E+00
-0.9082733560189E+00 -0.3378046200137E+01  0.0000000000000E+00
-0.9083328459126E+00 -0.3306814389827E+01  0.0000000000000E+00
-0.9083923338389E+00 -0.3235584935169E+01  0.0000000000000E+00
-0.9084518225908E+00 -0.3164354491989E+01  0.0000000000000E+00
-0.9085113115124E+00 -0.3093123845558E+01  0.0000000000000E+00
-0.9085708004021E+00 -0.3021893237364E+01  0.0000000000000E+00
-0.9086302892149E+00 -0.2950662721375E+01  0.0000000000000E+00
-0.9087573148855E+00 -0.2879432238462E+01  0.0000000000000E+00
-0.9093613722480E+00 -0.2808205242816E+01  0.0000000000000E+00
-0.9108869986093E+00 -0.2736998503262E+01  0.0000000000000E+00
-0.9136012857450E+00 -0.2665843824457E+01  0.0000000000000E+00
-0.9176089303279E+00 -0.2594779518890E+01  0.0000000000000E+00
-0.9229217528804E+00 -0.2523842311999E+01  0.0000000000000E+00
-0.9295157399506E+00 -0.2453065163345E+01  0.0000000000000E+00
-0.9373637322199E+00 -0.2382479178080E+01  0.0000000000000E+00
-0.9464523135519E+00 -0.2312115626497E+01  0.0000000000000E+00
-0.9567912676773E+00 -0.2242010735533E+01  0.0000000000000E+00
-0.9684214548780E+00 -0.2172209330199E+01  0.0000000000000E+00
-0.9813586062191E+00 -0.2102752953541E+01  0.0000000000000E+00
-0.9955225858144E+00 -0.2033655846927E+01  0.0000000000000E+00
-0.1010853635234E+01 -0.1964932934049E+01  0.0000000000000E+00
-0.1027323084841E+01 -0.1896605992232E+01  0.0000000000000E+00
-0.1044929996441E+01 -0.1828705754805E+01  0.0000000000000E+00
-0.1063701233792E+01 -0.1761275103603E+01  0.0000000000000E+00
-0.1083694905311E+01 -0.1694374484189E+01  0.0000000000000E+00
-0.1105009123960E+01 -0.1628088389422E+01  0.0000000000000E+00
-0.1127796375076E+01 -0.1562544204608E+01  0.0000000000000E+00
-0.1152294792365E+01 -0.1497935045915E+01  0.0000000000000E+00
-0.8800628705364E+00 -0.4232624862121E+01  0.0000000000000E+00
-0.8801257410166E+00 -0.4161205139353E+01  0.0000000000000E+00
-0.8801886116154E+00 -0.4089785281985E+01  0.0000000000000E+00
-0.8802514822688E+00 -0.4018365362534E+01  0.0000000000000E+00
-0.8803143528392E+00 -0.3946945537297E+01  0.0000000000000E+00
-0.8803772233979E+00 -0.3875525725460E+01  0.0000000000000E+00
-0.8804400939646E+00 -0.3804105904547E+01  0.0000000000000E+00
-0.8805029645407E+00 -0.3732686072859E+01  0.0000000000000E+00
-0.8805658351119E+00 -0.3661266246784E+01  0.0000000000000E+00
-0.8806287056840E+00 -0.3589846419731E+01  0.0000000000000E+00
-0.8806915763705E+00 -0.3518426462652E+01  0.0000000000000E+00
-0.8807544468605E+00 -0.3447006728894E+01  0.0000000000000E+00
-0.8808173175376E+00 -0.3375586782460E+01  0.0000000000000E+00
-0.8808801891417E+00 -0.3304165783093E+01  0.0000000000000E+00
-0.8809430586665E+00 -0.3232747145634E+01  0.0000000000000E+00
-0.8810059290639E+00 -0.3161327517028E+01  0.0000000000000E+00
-0.8810687996407E+00 -0.3089907684630E+01  0.0000000000000E+00
-0.8811316701837E+00 -0.3018487890573E+01  0.0000000000000E+00
-0.8811945406453E+00 -0.2947068188964E+01  0.0000000000000E+00
-0.8813228890586E+00 -0.2875648520392E+01  0.0000000000000E+00
-0.8819137264959E+00 -0.2804232340163E+01  0.0000000000000E+00
-0.8833980382182E+00 -0.2732836417874E+01  0.0000000000000E+00
-0.8860347735525E+00 -0.2661492557202E+01  0.0000000000000E+00
-0.8899254374389E+00 -0.2590239069998E+01  0.0000000000000E+00
-0.8950814900544E+00 -0.2519112681292E+01  0.0000000000000E+00
-0.9014796500221E+00 -0.2448146350332E+01  0.0000000000000E+00
-0.9090935859732E+00 -0.2377371183027E+01  0.0000000000000E+00
-0.9179102907911E+00 -0.2306818448954E+01  0.0000000000000E+00
-0.9279392499182E+00 -0.2236524375941E+01  0.0000000000000E+00
-0.9392200779827E+00 -0.2166533788996E+01  0.0000000000000E+00
-0.9517680264986E+00 -0.2096888230403E+01  0.0000000000000E+00
-0.9655054025790E+00 -0.2027601941450E+01  0.0000000000000E+00
-0.9803742695659E+00 -0.1958689846016E+01  0.0000000000000E+00
-0.9963468318319E+00 -0.1890173721573E+01  0.0000000000000E+00
-0.1013422179782E+01 -0.1822084301500E+01  0.0000000000000E+00
-0.1031626358213E+01 -0.1754464467729E+01  0.0000000000000E+00
-0.1051015704027E+01 -0.1687374667227E+01  0.0000000000000E+00
-0.1071685339213E+01 -0.1620899390382E+01  0.0000000000000E+00
-0.1093783100342E+01 -0.1555166027787E+01  0.0000000000000E+00
-0.1117539861519E+01 -0.1490367693265E+01  0.0000000000000E+00
-0.8525650613475E+00 -0.4232441222540E+01  0.0000000000000E+00
-0.8526301226369E+00 -0.4160837860356E+01  0.0000000000000E+00
-0.8526951840489E+00 -0.4089234363225E+01  0.0000000000000E+00
-0.8527602455175E+00 -0.4017630803852E+01  0.0000000000000E+00
-0.8528253069002E+00 -0.3946027338935E+01  0.0000000000000E+00
-0.8528903682708E+00 -0.3874423887452E+01  0.0000000000000E+00
-0.8529554296496E+00 -0.3802820426871E+01  0.0000000000000E+00
-0.8530204910382E+00 -0.3731216955486E+01  0.0000000000000E+00
-0.8530855524217E+00 -0.3659613489729E+01  0.0000000000000E+00
-0.8531506138061E+00 -0.3588010022991E+01  0.0000000000000E+00
-0.8532156753090E+00 -0.3516406425893E+01  0.0000000000000E+00
-0.8532807366084E+00 -0.3444803052690E+01  0.0000000000000E+00
-0.8533457981016E+00 -0.3373199466264E+01  0.0000000000000E+00
-0.8534108605539E+00 -0.3301594824198E+01  0.0000000000000E+00
-0.8534759208546E+00 -0.3229992550113E+01  0.0000000000000E+00
-0.8535409820583E+00 -0.3158389282333E+01  0.0000000000000E+00
-0.8536060434475E+00 -0.3086785810237E+01  0.0000000000000E+00
-0.8536711048019E+00 -0.3015182376580E+01  0.0000000000000E+00
-0.8537361660720E+00 -0.2943579035609E+01  0.0000000000000E+00
-0.8538646463877E+00 -0.2871975727635E+01  0.0000000000000E+00
-0.8544410730703E+00 -0.2800375909051E+01  0.0000000000000E+00
-0.8558828793436E+00 -0.2728796350200E+01  0.0000000000000E+00
-0.8584408720812E+00 -0.2657268853809E+01  0.0000000000000E+00
-0.8622133644880E+00 -0.2585831731108E+01  0.0000000000000E+00
-0.8672114563930E+00 -0.2514521706732E+01  0.0000000000000E+00
-0.8734125984922E+00 -0.2443371739627E+01  0.0000000000000E+00
-0.8807912873710E+00 -0.2372412936434E+01  0.0000000000000E+00
-0.8893349249278E+00 -0.2301676566038E+01  0.0000000000000E+00
-0.8990526983227E+00 -0.2231198857128E+01  0.0000000000000E+00
-0.9099829765306E+00 -0.2161024634712E+01  0.0000000000000E+00
-0.9221405315093E+00 -0.2091195440332E+01  0.0000000000000E+00
-0.9354501133705E+00 -0.2021725515203E+01  0.0000000000000E+00
-0.9498556072284E+00 -0.1952629783379E+01  0.0000000000000E+00
-0.9653300914659E+00 -0.1883930022482E+01  0.0000000000000E+00
-0.9818726850887E+00 -0.1815656965932E+01  0.0000000000000E+00
-0.9995086139303E+00 -0.1747853495759E+01  0.0000000000000E+00
-0.1018292443390E+01 -0.1680580060295E+01  0.0000000000000E+00
-0.1038316304469E+01 -0.1613921147526E+01  0.0000000000000E+00
-0.1059723385008E+01 -0.1548004153177E+01  0.0000000000000E+00
-0.1082737299492E+01 -0.1483022188796E+01  0.0000000000000E+00
-0.8250660920538E+00 -0.4232263159309E+01  0.0000000000000E+00
-0.8251321840486E+00 -0.4160481734051E+01  0.0000000000000E+00
-0.8251982761680E+00 -0.4088700173511E+01  0.0000000000000E+00
-0.8252643683448E+00 -0.4016918550576E+01  0.0000000000000E+00
-0.8253304604344E+00 -0.3945137022330E+01  0.0000000000000E+00
-0.8253965525117E+00 -0.3873355507552E+01  0.0000000000000E+00
-0.8254626445973E+00 -0.3801573983653E+01  0.0000000000000E+00
-0.8255287366929E+00 -0.3729792448923E+01  0.0000000000000E+00
-0.8255948287833E+00 -0.3658010919836E+01  0.0000000000000E+00
-0.8256609208746E+00 -0.3586229389765E+01  0.0000000000000E+00
-0.8257270130863E+00 -0.3514447729009E+01  0.0000000000000E+00
-0.8257931050913E+00 -0.3442666292706E+01  0.0000000000000E+00
-0.8258591972930E+00 -0.3370884642650E+01  0.0000000000000E+00
-0.8259252904692E+00 -0.3299101934328E+01  0.0000000000000E+00
-0.8259913814597E+00 -0.3227321599875E+01  0.0000000000000E+00
-0.8260574733674E+00 -0.3155540269257E+01  0.0000000000000E+00
-0.8261235654636E+00 -0.3083758733815E+01  0.0000000000000E+00
-0.8261896575244E+00 -0.3011977236907E+01  0.0000000000000E+00
-0.8262557494996E+00 -0.2940195832915E+01  0.0000000000000E+00
-0.8263832016146E+00 -0.2868414461884E+01  0.0000000000000E+00
-0.8269440574487E+00 -0.2796636581256E+01  0.0000000000000E+00
-0.8283421981958E+00 -0.2724878962100E+01  0.0000000000000E+00
-0.8308202882722E+00 -0.2653173406220E+01  0.0000000000000E+00
-0.8344734491439E+00 -0.2581558224248E+01  0.0000000000000E+00
-0.8393124202894E+00 -0.2510070140431E+01  0.0000000000000E+00
-0.8453153844756E+00 -0.2438742113425E+01  0.0000000000000E+00
-0.8524576662468E+00 -0.2367605250581E+01  0.0000000000000E+00
-0.8607270765120E+00 -0.2296690820111E+01  0.0000000000000E+00
-0.8701325041541E+00 -0.2226035051540E+01  0.0000000000000E+00
-0.8807110724950E+00 -0.2155682769878E+01  0.0000000000000E+00
-0.8924770739321E+00 -0.2085675515945E+01  0.0000000000000E+00
-0.9053577015745E+00 -0.2016027530883E+01  0.0000000000000E+00
-0.9192986623094E+00 -0.1946753738922E+01  0.0000000000000E+00
-0.9342739085305E+00 -0.1877875917823E+01  0.0000000000000E+00
-0.9502825878444E+00 -0.1809424801052E+01  0.0000000000000E+00
-0.9673491071235E+00 -0.1741443270728E+01  0.0000000000000E+00
-0.9855262602718E+00 -0.1673991776510E+01  0.0000000000000E+00
-0.1004903187288E+01 -0.1607154804054E+01  0.0000000000000E+00
-0.1025618427315E+01 -0.1541059754062E+01  0.0000000000000E+00
-0.1047888335209E+01 -0.1475899735876E+01  0.0000000000000E+00
-0.7975659939323E+00 -0.4232090701822E+01  0.0000000000000E+00
-0.7976319878057E+00 -0.4160136819232E+01  0.0000000000000E+00
-0.7976979818034E+00 -0.4088182801034E+01  0.0000000000000E+00
-0.7977639758586E+00 -0.4016228720290E+01  0.0000000000000E+00
-0.7978299698266E+00 -0.3944274734464E+01  0.0000000000000E+00
-0.7978959637823E+00 -0.3872320762138E+01  0.0000000000000E+00
-0.7979619577464E+00 -0.3800366780669E+01  0.0000000000000E+00
-0.7980279517205E+00 -0.3728412788344E+01  0.0000000000000E+00
-0.7980939456893E+00 -0.3656458801674E+01  0.0000000000000E+00
-0.7981599396591E+00 -0.3584504814019E+01  0.0000000000000E+00
-0.7982259337490E+00 -0.3512550695365E+01  0.0000000000000E+00
-0.7982919276325E+00 -0.3440596801702E+01  0.0000000000000E+00
-0.7983579217126E+00 -0.3368642693773E+01  0.0000000000000E+00
-0.7984239167656E+00 -0.3296687525035E+01  0.0000000000000E+00
-0.7984899096361E+00 -0.3224734735871E+01  0.0000000000000E+00
-0.7985559034225E+00 -0.3152780948147E+01  0.0000000000000E+00
-0.7986218973972E+00 -0.3080826955107E+01  0.0000000000000E+00
-0.7986878913365E+00 -0.3008873000694E+01  0.0000000000000E+00
-0.7987538851903E+00 -0.2936919139421E+01  0.0000000000000E+00
-0.7988791802779E+00 -0.2864965311072E+01  0.0000000000000E+00
-0.7994233364446E+00 -0.2793014974107E+01  0.0000000000000E+00
-0.8007766828600E+00 -0.2721084900299E+01  0.0000000000000E+00
-0.8031737414778E+00 -0.2649206890558E+01  0.0000000000000E+00
-0.8067064420217E+00 -0.2577419254934E+01  0.0000000000000E+00
-0.8113851636173E+00 -0.2505758717304E+01  0.0000000000000E+00
-0.8171888211005E+00 -0.2434258236037E+01  0.0000000000000E+00
-0.8240935669787E+00 -0.2362948919174E+01  0.0000000000000E+00
-0.8320876211673E+00 -0.2291862034276E+01  0.0000000000000E+00
-0.8411795742777E+00 -0.2221033811677E+01  0.0000000000000E+00
-0.8514053039785E+00 -0.2150509076388E+01  0.0000000000000E+00
-0.8627786231021E+00 -0.2080329368531E+01  0.0000000000000E+00
-0.8752291677545E+00 -0.2010508929178E+01  0.0000000000000E+00
-0.8887044665969E+00 -0.1941062682728E+01  0.0000000000000E+00
-0.9031793460348E+00 -0.1872012407076E+01  0.0000000000000E+00
-0.9186529822757E+00 -0.1803388835734E+01  0.0000000000000E+00
-0.9351489632314E+00 -0.1735234850908E+01  0.0000000000000E+00
-0.9527183113194E+00 -0.1667610903540E+01  0.0000000000000E+00
-0.9714471755213E+00 -0.1600601477032E+01  0.0000000000000E+00
-0.9914694463155E+00 -0.1534333976903E+01  0.0000000000000E+00
-0.1012994218913E+01 -0.1469001510359E+01  0.0000000000000E+00
-0.7700647981096E+00 -0.4231923878620E+01  0.0000000000000E+00
-0.7701295961614E+00 -0.4159803172976E+01  0.0000000000000E+00
-0.7701943943354E+00 -0.4087682331411E+01  0.0000000000000E+00
-0.7702591925656E+00 -0.4015561427154E+01  0.0000000000000E+00
-0.7703239907104E+00 -0.3943440618035E+01  0.0000000000000E+00
-0.7703887888430E+00 -0.3871319822448E+01  0.0000000000000E+00
-0.7704535869839E+00 -0.3799199017697E+01  0.0000000000000E+00
-0.7705183851345E+00 -0.3727078202063E+01  0.0000000000000E+00
-0.7705831832801E+00 -0.3654957392099E+01  0.0000000000000E+00
-0.7706479814265E+00 -0.3582836581146E+01  0.0000000000000E+00
-0.7707127796909E+00 -0.3510715638892E+01  0.0000000000000E+00
-0.7707775777527E+00 -0.3438594922150E+01  0.0000000000000E+00
-0.7708423760074E+00 -0.3366473990645E+01  0.0000000000000E+00
-0.7709071752175E+00 -0.3294351995872E+01  0.0000000000000E+00
-0.7709719722846E+00 -0.3222232386190E+01  0.0000000000000E+00
-0.7710367702510E+00 -0.3150111775632E+01  0.0000000000000E+00
-0.7711015684022E+00 -0.3077990959283E+01  0.0000000000000E+00
-0.7711663665187E+00 -0.3005870181650E+01  0.0000000000000E+00
-0.7712311645513E+00 -0.2933749497373E+01  0.0000000000000E+00
-0.7713532049104E+00 -0.2861628845984E+01  0.0000000000000E+00
-0.7718795637062E+00 -0.2789511686930E+01  0.0000000000000E+00
-0.7731870180811E+00 -0.2717414792663E+01  0.0000000000000E+00
-0.7755019475157E+00 -0.2645369963226E+01  0.0000000000000E+00
-0.7789130899857E+00 -0.2573415508111E+01  0.0000000000000E+00
-0.7834304642614E+00 -0.2501588150830E+01  0.0000000000000E+00
-0.7890337172463E+00 -0.2429920849482E+01  0.0000000000000E+00
-0.7956998294157E+00 -0.2358444712771E+01  0.0000000000000E+00
-0.8034174296876E+00 -0.2287191007629E+01  0.0000000000000E+00
-0.8121948104066E+00 -0.2216195965175E+01  0.0000000000000E+00
-0.8220666035875E+00 -0.2145504410416E+01  0.0000000000000E+00
-0.8330461424932E+00 -0.2075157882804E+01  0.0000000000000E+00
-0.8450655062273E+00 -0.2005170623341E+01  0.0000000000000E+00
-0.8580740452271E+00 -0.1935557556587E+01  0.0000000000000E+00
-0.8720474599112E+00 -0.1866340460572E+01  0.0000000000000E+00
-0.8869849550885E+00 -0.1797550068848E+01  0.0000000000000E+00
-0.9029092997104E+00 -0.1729229263707E+01  0.0000000000000E+00
-0.9198697447146E+00 -0.1661438497332E+01  0.0000000000000E+00
-0.9379494480500E+00 -0.1594262250943E+01  0.0000000000000E+00
-0.9572776515575E+00 -0.1527827934722E+01  0.0000000000000E+00
-0.9780561907860E+00 -0.1462328653807E+01  0.0000000000000E+00
-0.7425625381275E+00 -0.4231762717925E+01  0.0000000000000E+00
-0.7426250761992E+00 -0.4159480851731E+01  0.0000000000000E+00
-0.7426876143887E+00 -0.4087198849311E+01  0.0000000000000E+00
-0.7427501526326E+00 -0.4014916784060E+01  0.0000000000000E+00
-0.7428126907940E+00 -0.3942634814159E+01  0.0000000000000E+00
-0.7428752289437E+00 -0.3870352857819E+01  0.0000000000000E+00
-0.7429377671013E+00 -0.3798070892296E+01  0.0000000000000E+00
-0.7430003052684E+00 -0.3725788915866E+01  0.0000000000000E+00
-0.7430628434305E+00 -0.3653506945118E+01  0.0000000000000E+00
-0.7431253815935E+00 -0.3581224973379E+01  0.0000000000000E+00
-0.7431879198704E+00 -0.3508942870045E+01  0.0000000000000E+00
-0.7432504579517E+00 -0.3436660992727E+01  0.0000000000000E+00
-0.7433129962192E+00 -0.3364378900167E+01  0.0000000000000E+00
-0.7433755354087E+00 -0.3292095741962E+01  0.0000000000000E+00
-0.7434380725301E+00 -0.3219814974178E+01  0.0000000000000E+00
-0.7435006105193E+00 -0.3147533203282E+01  0.0000000000000E+00
-0.7435631486870E+00 -0.3075251226135E+01  0.0000000000000E+00
-0.7436256868211E+00 -0.3002969287790E+01  0.0000000000000E+00
-0.7436882248742E+00 -0.2930687443010E+01  0.0000000000000E+00
-0.7438059463465E+00 -0.2858405631084E+01  0.0000000000000E+00
-0.7443134436217E+00 -0.2786127312410E+01  0.0000000000000E+00
-0.7455739418209E+00 -0.2713869260097E+01  0.0000000000000E+00
-0.7478056779474E+00 -0.2641663273355E+01  0.0000000000000E+00
-0.7510941982260E+00 -0.2569547661129E+01  0.0000000000000E+00
-0.7554491610694E+00 -0.2497559146585E+01  0.0000000000000E+00
-0.7608509454467E+00 -0.2425730687557E+01  0.0000000000000E+00
-0.7672773598055E+00 -0.2354093393392E+01  0.0000000000000E+00
-0.7747174420619E+00 -0.2282678530414E+01  0.0000000000000E+00
-0.7831791862991E+00 -0.2211522330498E+01  0.0000000000000E+00
-0.7926959788783E+00 -0.2140669618651E+01  0.0000000000000E+00
-0.8032806734883E+00 -0.2070161933674E+01  0.0000000000000E+00
-0.8148677922298E+00 -0.2000013516502E+01  0.0000000000000E+00
-0.8274085073170E+00 -0.1930239291855E+01  0.0000000000000E+00
-0.8408793931821E+00 -0.1860861037888E+01  0.0000000000000E+00
-0.8552796832357E+00 -0.1791909488193E+01  0.0000000000000E+00
-0.8706313274695E+00 -0.1723427525147E+01  0.0000000000000E+00
-0.8869818053497E+00 -0.1655475602130E+01  0.0000000000000E+00
-0.9044112837790E+00 -0.1588138198255E+01  0.0000000000000E+00
-0.9230443559913E+00 -0.1521542728208E+01  0.0000000000000E+00
-0.9430755978615E+00 -0.1455882295130E+01  0.0000000000000E+00
-0.7150592470639E+00 -0.4231607246974E+01  0.0000000000000E+00
-0.7151184940750E+00 -0.4159169909968E+01  0.0000000000000E+00
-0.7151777411977E+00 -0.4086732436442E+01  0.0000000000000E+00
-0.7152369883719E+00 -0.4014294899951E+01  0.0000000000000E+00
-0.7152962354680E+00 -0.3941857459014E+01  0.0000000000000E+00
-0.7153554825529E+00 -0.3869420031669E+01  0.0000000000000E+00
-0.7154147296454E+00 -0.3796982595119E+01  0.0000000000000E+00
-0.7154739767468E+00 -0.3724545147640E+01  0.0000000000000E+00
-0.7155332238436E+00 -0.3652107705855E+01  0.0000000000000E+00
-0.7155924709412E+00 -0.3579670263077E+01  0.0000000000000E+00
-0.7156517181466E+00 -0.3507232688420E+01  0.0000000000000E+00
-0.7157109651668E+00 -0.3434795340266E+01  0.0000000000000E+00
-0.7157702123634E+00 -0.3362357776407E+01  0.0000000000000E+00
-0.7158294604335E+00 -0.3289919144611E+01  0.0000000000000E+00
-0.7158887065442E+00 -0.3217482908377E+01  0.0000000000000E+00
-0.7159479534771E+00 -0.3145045666874E+01  0.0000000000000E+00
-0.7160072005791E+00 -0.3072608218676E+01  0.0000000000000E+00
-0.7160664476493E+00 -0.3000170809363E+01  0.0000000000000E+00
-0.7161256946429E+00 -0.2927733493817E+01  0.0000000000000E+00
-0.7162380661482E+00 -0.2855296211092E+01  0.0000000000000E+00
-0.7167256708301E+00 -0.2782862422504E+01  0.0000000000000E+00
-0.7179381817940E+00 -0.2710448901796E+01  0.0000000000000E+00
-0.7200856935616E+00 -0.2638087447371E+01  0.0000000000000E+00
-0.7232505606037E+00 -0.2565816367651E+01  0.0000000000000E+00
-0.7274420809730E+00 -0.2493672385468E+01  0.0000000000000E+00
-0.7326413657027E+00 -0.2421688458397E+01  0.0000000000000E+00
-0.7388270512163E+00 -0.2349895696407E+01  0.0000000000000E+00
-0.7459885844246E+00 -0.2278325365235E+01  0.0000000000000E+00
-0.7541336611539E+00 -0.2207013697486E+01  0.0000000000000E+00
-0.7632944221120E+00 -0.2136005518168E+01  0.0000000000000E+00
-0.7734832414096E+00 -0.2065342365452E+01  0.0000000000000E+00
-0.7846370841437E+00 -0.1995038480210E+01  0.0000000000000E+00
-0.7967089443062E+00 -0.1925108787314E+01  0.0000000000000E+00
-0.8096762703438E+00 -0.1855575065041E+01  0.0000000000000E+00
-0.8235383242689E+00 -0.1786468047024E+01  0.0000000000000E+00
-0.8383162371141E+00 -0.1717830615718E+01  0.0000000000000E+00
-0.8540557168821E+00 -0.1649723225659E+01  0.0000000000000E+00
-0.8708339394160E+00 -0.1582230353929E+01  0.0000000000000E+00
-0.8887708493720E+00 -0.1515479419557E+01  0.0000000000000E+00
-0.9080537629396E+00 -0.1449663523759E+01  0.0000000000000E+00
-0.6875549585543E+00 -0.4231457492231E+01  0.0000000000000E+00
-0.6876099170595E+00 -0.4158870400615E+01  0.0000000000000E+00
-0.6876648756684E+00 -0.4086283172198E+01  0.0000000000000E+00
-0.6877198343249E+00 -0.4013695880685E+01  0.0000000000000E+00
-0.6877747929090E+00 -0.3941108684925E+01  0.0000000000000E+00
-0.6878297514828E+00 -0.3868521502783E+01  0.0000000000000E+00
-0.6878847100636E+00 -0.3795934311418E+01  0.0000000000000E+00
-0.6879396686527E+00 -0.3723347109101E+01  0.0000000000000E+00
-0.6879946272374E+00 -0.3650759912490E+01  0.0000000000000E+00
-0.6880495858229E+00 -0.3578172714884E+01  0.0000000000000E+00
-0.6881045445085E+00 -0.3505585385126E+01  0.0000000000000E+00
-0.6881595030222E+00 -0.3432998282340E+01  0.0000000000000E+00
-0.6882144616995E+00 -0.3360410963403E+01  0.0000000000000E+00
-0.6882694211871E+00 -0.3287822574321E+01  0.0000000000000E+00
-0.6883243788572E+00 -0.3215236585753E+01  0.0000000000000E+00
-0.6883793372900E+00 -0.3142649589838E+01  0.0000000000000E+00
-0.6884342958796E+00 -0.3070062386801E+01  0.0000000000000E+00
-0.6884892544397E+00 -0.2997475222730E+01  0.0000000000000E+00
-0.6885442129287E+00 -0.2924888152618E+01  0.0000000000000E+00
-0.6886502370222E+00 -0.2852301115297E+01  0.0000000000000E+00
-0.6891169516725E+00 -0.2779717572965E+01  0.0000000000000E+00
-0.6902804779749E+00 -0.2707154299975E+01  0.0000000000000E+00
-0.6923427679648E+00 -0.2634643093955E+01  0.0000000000000E+00
-0.6953829843556E+00 -0.2562222262823E+01  0.0000000000000E+00
-0.6994100648383E+00 -0.2489928529086E+01  0.0000000000000E+00
-0.7044058525081E+00 -0.2417794850073E+01  0.0000000000000E+00
-0.7103498117688E+00 -0.2345852336351E+01  0.0000000000000E+00
-0.7172317985216E+00 -0.2274132253092E+01  0.0000000000000E+00
-0.7250592103409E+00 -0.2202670833605E+01  0.0000000000000E+00
-0.7338629422812E+00 -0.2131512902894E+01  0.0000000000000E+00
-0.7436548888710E+00 -0.2060699998530E+01  0.0000000000000E+00
-0.7543744582030E+00 -0.1990246361320E+01  0.0000000000000E+00
-0.7659764660477E+00 -0.1920166916283E+01  0.0000000000000E+00
-0.7784392348670E+00 -0.1850483441816E+01  0.0000000000000E+00
-0.7917620552753E+00 -0.1781226671587E+01  0.0000000000000E+00
-0.8059652393467E+00 -0.1712439488130E+01  0.0000000000000E+00
-0.8210927236280E+00 -0.1644182347095E+01  0.0000000000000E+00
-0.8372186928899E+00 -0.1576539723603E+01  0.0000000000000E+00
-0.8544584432393E+00 -0.1509639040870E+01  0.0000000000000E+00
-0.8729920311679E+00 -0.1443673398257E+01  0.0000000000000E+00
-0.6600497067773E+00 -0.4231313479365E+01  0.0000000000000E+00
-0.6600994135103E+00 -0.4158582375012E+01  0.0000000000000E+00
-0.6601491203370E+00 -0.4085851133586E+01  0.0000000000000E+00
-0.6601988272069E+00 -0.4013119828939E+01  0.0000000000000E+00
-0.6602485340112E+00 -0.3940388620235E+01  0.0000000000000E+00
-0.6602982408062E+00 -0.3867657425176E+01  0.0000000000000E+00
-0.6603479476074E+00 -0.3794926220876E+01  0.0000000000000E+00
-0.6603976544162E+00 -0.3722195005602E+01  0.0000000000000E+00
-0.6604473612211E+00 -0.3649463796046E+01  0.0000000000000E+00
-0.6604970680267E+00 -0.3576732585492E+01  0.0000000000000E+00
-0.6605467749228E+00 -0.3504001242525E+01  0.0000000000000E+00
-0.6605964816634E+00 -0.3431270126979E+01  0.0000000000000E+00
-0.6606461885521E+00 -0.3358538794853E+01  0.0000000000000E+00
-0.6606958961735E+00 -0.3285806390460E+01  0.0000000000000E+00
-0.6607456021512E+00 -0.3213076391343E+01  0.0000000000000E+00
-0.6607953088186E+00 -0.3140345382881E+01  0.0000000000000E+00
-0.6608450156279E+00 -0.3067614166885E+01  0.0000000000000E+00
-0.6608947224105E+00 -0.2994882989933E+01  0.0000000000000E+00
-0.6609444291288E+00 -0.2922151907127E+01  0.0000000000000E+00
-0.6610431425442E+00 -0.2849420857080E+01  0.0000000000000E+00
-0.6614880039029E+00 -0.2776693302843E+01  0.0000000000000E+00
-0.6626015822945E+00 -0.2703986019355E+01  0.0000000000000E+00
-0.6645776872636E+00 -0.2631330803497E+01  0.0000000000000E+00
-0.6674922897633E+00 -0.2558765962702E+01  0.0000000000000E+00
-0.6713539671204E+00 -0.2486328219165E+01  0.0000000000000E+00
-0.6761452944910E+00 -0.2414050529980E+01  0.0000000000000E+00
-0.6818465642625E+00 -0.2341964006289E+01  0.0000000000000E+00
-0.6884480413232E+00 -0.2270099912718E+01  0.0000000000000E+00
-0.6959568250001E+00 -0.2198494483253E+01  0.0000000000000E+00
-0.7044025646942E+00 -0.2127192542900E+01  0.0000000000000E+00
-0.7137966753483E+00 -0.2056235628645E+01  0.0000000000000E+00
-0.7240810080500E+00 -0.1985637981238E+01  0.0000000000000E+00
-0.7352122003494E+00 -0.1915414525839E+01  0.0000000000000E+00
-0.7471694487241E+00 -0.1845587040956E+01  0.0000000000000E+00
-0.7599520723911E+00 -0.1776186260296E+01  0.0000000000000E+00
-0.7735795644664E+00 -0.1707255066466E+01  0.0000000000000E+00
-0.7880940900479E+00 -0.1638853916186E+01  0.0000000000000E+00
-0.8035668428218E+00 -0.1571067282696E+01  0.0000000000000E+00
-0.8201084703724E+00 -0.1504022593235E+01  0.0000000000000E+00
-0.8378917694826E+00 -0.1437912945380E+01  0.0000000000000E+00
-0.6325435264408E+00 -0.4231175233227E+01  0.0000000000000E+00
-0.6325870528428E+00 -0.4158305882860E+01  0.0000000000000E+00
-0.6326305793268E+00 -0.4085436395159E+01  0.0000000000000E+00
-0.6326741058486E+00 -0.4012566844116E+01  0.0000000000000E+00
-0.6327176323130E+00 -0.3939697389199E+01  0.0000000000000E+00
-0.6327611587693E+00 -0.3866827947953E+01  0.0000000000000E+00
-0.6328046852310E+00 -0.3793958497448E+01  0.0000000000000E+00
-0.6328482116994E+00 -0.3721089035949E+01  0.0000000000000E+00
-0.6328917381643E+00 -0.3648219580177E+01  0.0000000000000E+00
-0.6329352646298E+00 -0.3575350123407E+01  0.0000000000000E+00
-0.6329787911746E+00 -0.3502480533972E+01  0.0000000000000E+00
-0.6330223175833E+00 -0.3429611172390E+01  0.0000000000000E+00
-0.6330658441215E+00 -0.3356741593817E+01  0.0000000000000E+00
-0.6331093713015E+00 -0.3283870940938E+01  0.0000000000000E+00
-0.6331528970420E+00 -0.3211002697907E+01  0.0000000000000E+00
-0.6331964233866E+00 -0.3138133443612E+01  0.0000000000000E+00
-0.6332399498554E+00 -0.3065263981390E+01  0.0000000000000E+00
-0.6332834763008E+00 -0.2992394558285E+01  0.0000000000000E+00
-0.6333270026899E+00 -0.2919525229505E+01  0.0000000000000E+00
-0.6334174768685E+00 -0.2846655933456E+01  0.0000000000000E+00
-0.6338395563828E+00 -0.2773790134003E+01  0.0000000000000E+00
-0.6349022583205E+00 -0.2700944606649E+01  0.0000000000000E+00
-0.6367912497310E+00 -0.2628151147559E+01  0.0000000000000E+00
-0.6395793098040E+00 -0.2555448063701E+01  0.0000000000000E+00
-0.6432746555003E+00 -0.2482872076970E+01  0.0000000000000E+00
-0.6478605940350E+00 -0.2410456144233E+01  0.0000000000000E+00
-0.6533182457832E+00 -0.2338231377183E+01  0.0000000000000E+00
-0.6596382846166E+00 -0.2266229039926E+01  0.0000000000000E+00
-0.6668275116189E+00 -0.2194485367097E+01  0.0000000000000E+00
-0.6749143305382E+00 -0.2123045183699E+01  0.0000000000000E+00
-0.6839096767271E+00 -0.2051950026162E+01  0.0000000000000E+00
-0.6937578442685E+00 -0.1981214135179E+01  0.0000000000000E+00
-0.7044172924922E+00 -0.1910852436044E+01  0.0000000000000E+00
-0.7158680918929E+00 -0.1840886707377E+01  0.0000000000000E+00
-0.7281095902899E+00 -0.1771347682916E+01  0.0000000000000E+00
-0.7411604618417E+00 -0.1702278245340E+01  0.0000000000000E+00
-0.7550611002044E+00 -0.1633738852398E+01  0.0000000000000E+00
-0.7698797079675E+00 -0.1565813975523E+01  0.0000000000000E+00
-0.7857222842192E+00 -0.1498631045816E+01  0.0000000000000E+00
-0.8027543660217E+00 -0.1432383159141E+01  0.0000000000000E+00
-0.6050364527661E+00 -0.4231042777827E+01  0.0000000000000E+00
-0.6050729054997E+00 -0.4158040972176E+01  0.0000000000000E+00
-0.6051093583019E+00 -0.4085039028943E+01  0.0000000000000E+00
-0.6051458111359E+00 -0.4012037022253E+01  0.0000000000000E+00
-0.6051822639217E+00 -0.3939035111863E+01  0.0000000000000E+00
-0.6052187167008E+00 -0.3866033215170E+01  0.0000000000000E+00
-0.6052551694844E+00 -0.3793031309200E+01  0.0000000000000E+00
-0.6052916222736E+00 -0.3720029392216E+01  0.0000000000000E+00
-0.6053280750599E+00 -0.3647027480971E+01  0.0000000000000E+00
-0.6053645278467E+00 -0.3574025568724E+01  0.0000000000000E+00
-0.6054009806998E+00 -0.3501023523572E+01  0.0000000000000E+00
-0.6054374334390E+00 -0.3428021706688E+01  0.0000000000000E+00
-0.6054738862868E+00 -0.3355019672416E+01  0.0000000000000E+00
-0.6055103396719E+00 -0.3282016561887E+01  0.0000000000000E+00
-0.6055467918515E+00 -0.3209015865587E+01  0.0000000000000E+00
-0.6055832445370E+00 -0.3136014156184E+01  0.0000000000000E+00
-0.6056196973266E+00 -0.3063012238476E+01  0.0000000000000E+00
-0.6056561500965E+00 -0.2990010359956E+01  0.0000000000000E+00
-0.6056926028193E+00 -0.2917008575933E+01  0.0000000000000E+00
-0.6057739444239E+00 -0.2844006824612E+01  0.0000000000000E+00
-0.6061723487616E+00 -0.2771008570642E+01  0.0000000000000E+00
-0.6071832809226E+00 -0.2698030590064E+01  0.0000000000000E+00
-0.6089842654561E+00 -0.2625104678358E+01  0.0000000000000E+00
-0.6116448897857E+00 -0.2552269142045E+01  0.0000000000000E+00
-0.6151730105041E+00 -0.2479560702734E+01  0.0000000000000E+00
-0.6195526668839E+00 -0.2407012317074E+01  0.0000000000000E+00
-0.6247658072915E+00 -0.2334655097287E+01  0.0000000000000E+00
-0.6308035145786E+00 -0.2262520306978E+01  0.0000000000000E+00
-0.6376722915901E+00 -0.2190644181405E+01  0.0000000000000E+00
-0.6453992964206E+00 -0.2119071545571E+01  0.0000000000000E+00
-0.6539949848298E+00 -0.2047843935370E+01  0.0000000000000E+00
-0.6634060938944E+00 -0.1976975591441E+01  0.0000000000000E+00
-0.6735929047258E+00 -0.1906481439207E+01  0.0000000000000E+00
-0.6845363618356E+00 -0.1836383257392E+01  0.0000000000000E+00
-0.6962358416462E+00 -0.1766711779769E+01  0.0000000000000E+00
-0.7087091993589E+00 -0.1697509889085E+01  0.0000000000000E+00
-0.7219950571948E+00 -0.1628838044074E+01  0.0000000000000E+00
-0.7361586266348E+00 -0.1560780714435E+01  0.0000000000000E+00
-0.7513012582960E+00 -0.1493465334972E+01  0.0000000000000E+00
-0.7675812295093E+00 -0.1427084999909E+01  0.0000000000000E+00
-0.5775285214724E+00 -0.4230916136309E+01  0.0000000000000E+00
-0.5775570429194E+00 -0.4157787689254E+01  0.0000000000000E+00
-0.5775855644201E+00 -0.4084659104378E+01  0.0000000000000E+00
-0.5776140859456E+00 -0.4011530455935E+01  0.0000000000000E+00
-0.5776426074335E+00 -0.3938401903959E+01  0.0000000000000E+00
-0.5776711289161E+00 -0.3865273365703E+01  0.0000000000000E+00
-0.5776996504022E+00 -0.3792144818156E+01  0.0000000000000E+00
-0.5777281718927E+00 -0.3719016259574E+01  0.0000000000000E+00
-0.5777566933810E+00 -0.3645887706741E+01  0.0000000000000E+00
-0.5777852148696E+00 -0.3572759152905E+01  0.0000000000000E+00
-0.5778137364101E+00 -0.3499630465933E+01  0.0000000000000E+00
-0.5778422578615E+00 -0.3426502007624E+01  0.0000000000000E+00
-0.5778707793978E+00 -0.3353373331552E+01  0.0000000000000E+00
-0.5778993013546E+00 -0.3280243577355E+01  0.0000000000000E+00
-0.5779278223681E+00 -0.3207116241575E+01  0.0000000000000E+00
-0.5779563437775E+00 -0.3133987890935E+01  0.0000000000000E+00
-0.5779848652682E+00 -0.3060859331627E+01  0.0000000000000E+00
-0.5780133867437E+00 -0.2987730811577E+01  0.0000000000000E+00
-0.5780419081822E+00 -0.2914602386187E+01  0.0000000000000E+00
-0.5781132595947E+00 -0.2841473993472E+01  0.0000000000000E+00
-0.5784871311427E+00 -0.2768349098829E+01  0.0000000000000E+00
-0.5794454359221E+00 -0.2695244478816E+01  0.0000000000000E+00
-0.5811575559778E+00 -0.2622191928255E+01  0.0000000000000E+00
-0.5836898869641E+00 -0.2549229753241E+01  0.0000000000000E+00
-0.5870499251040E+00 -0.2476394675110E+01  0.0000000000000E+00
-0.5912224417263E+00 -0.2403719650301E+01  0.0000000000000E+00
-0.5961902131919E+00 -0.2331235791543E+01  0.0000000000000E+00
-0.6019447313292E+00 -0.2258974361963E+01  0.0000000000000E+00
-0.6084922007484E+00 -0.2186971597412E+01  0.0000000000000E+00
-0.6158585338908E+00 -0.2115272322895E+01  0.0000000000000E+00
-0.6240537069192E+00 -0.2043918073793E+01  0.0000000000000E+00
-0.6330268999046E+00 -0.1972923090693E+01  0.0000000000000E+00
-0.6427402157399E+00 -0.1902302299143E+01  0.0000000000000E+00
-0.6531754729551E+00 -0.1832077477966E+01  0.0000000000000E+00
-0.6643320765753E+00 -0.1762279360967E+01  0.0000000000000E+00
-0.6762270628454E+00 -0.1692950830957E+01  0.0000000000000E+00
-0.6888972825577E+00 -0.1624152347613E+01  0.0000000000000E+00
-0.7024049560735E+00 -0.1555968378978E+01  0.0000000000000E+00
-0.7168467855624E+00 -0.1488526363395E+01  0.0000000000000E+00
-0.7323737886136E+00 -0.1422019393519E+01  0.0000000000000E+00
-0.5500197687602E+00 -0.4230795330937E+01  0.0000000000000E+00
-0.5500395375027E+00 -0.4157546078617E+01  0.0000000000000E+00
-0.5500593062825E+00 -0.4084296688248E+01  0.0000000000000E+00
-0.5500790750795E+00 -0.4011047234207E+01  0.0000000000000E+00
-0.5500988438504E+00 -0.3937797876793E+01  0.0000000000000E+00
-0.5501186126176E+00 -0.3864548533122E+01  0.0000000000000E+00
-0.5501383813873E+00 -0.3791299180143E+01  0.0000000000000E+00
-0.5501581501600E+00 -0.3718049816112E+01  0.0000000000000E+00
-0.5501779189312E+00 -0.3644800457840E+01  0.0000000000000E+00
-0.5501976877026E+00 -0.3571551098563E+01  0.0000000000000E+00
-0.5502174565100E+00 -0.3498301605929E+01  0.0000000000000E+00
-0.5502372252556E+00 -0.3425052342338E+01  0.0000000000000E+00
-0.5502569940600E+00 -0.3351802860622E+01  0.0000000000000E+00
-0.5502767631559E+00 -0.3278552299001E+01  0.0000000000000E+00
-0.5502965315980E+00 -0.3205304159791E+01  0.0000000000000E+00
-0.5503163003145E+00 -0.3132055004046E+01  0.0000000000000E+00
-0.5503360690874E+00 -0.3058805639288E+01  0.0000000000000E+00
-0.5503558378497E+00 -0.2985556313852E+01  0.0000000000000E+00
-0.5503756065864E+00 -0.2912307083233E+01  0.0000000000000E+00
-0.5504361463889E+00 -0.2839057885264E+01  0.0000000000000E+00
-0.5507846637340E+00 -0.2765812186054E+01  0.0000000000000E+00
-0.5516895197264E+00 -0.2692586762654E+01  0.0000000000000E+00
-0.5533119539024E+00 -0.2619413409260E+01  0.0000000000000E+00
-0.5557151701444E+00 -0.2546330431560E+01  0.0000000000000E+00
-0.5589063043036E+00 -0.2473374550628E+01  0.0000000000000E+00
-0.5628708597639E+00 -0.2400578722707E+01  0.0000000000000E+00
-0.5675924408837E+00 -0.2327974061005E+01  0.0000000000000E+00
-0.5730629484655E+00 -0.2255591828195E+01  0.0000000000000E+00
-0.5792882888882E+00 -0.2183468260695E+01  0.0000000000000E+00
-0.5862931289399E+00 -0.2111648183508E+01  0.0000000000000E+00
-0.5940869651833E+00 -0.2040173131530E+01  0.0000000000000E+00
-0.6026214206831E+00 -0.1969057345296E+01  0.0000000000000E+00
-0.6118604201151E+00 -0.1898315750472E+01  0.0000000000000E+00
-0.6217866560276E+00 -0.1827970125978E+01  0.0000000000000E+00
-0.6323995620492E+00 -0.1758051205649E+01  0.0000000000000E+00
-0.6437153554685E+00 -0.1688601872357E+01  0.0000000000000E+00
-0.6557691156551E+00 -0.1619682586678E+01  0.0000000000000E+00
-0.6686200718399E+00 -0.1551377815076E+01  0.0000000000000E+00
-0.6823602777685E+00 -0.1483814999269E+01  0.0000000000000E+00
-0.6971334912775E+00 -0.1417187230416E+01  0.0000000000000E+00
-0.5225235369655E+00 -0.4230682327815E+01  0.0000000000000E+00
-0.5225470739100E+00 -0.4157320072474E+01  0.0000000000000E+00
-0.5225706108988E+00 -0.4083957678871E+01  0.0000000000000E+00
-0.5225941479082E+00 -0.4010595221498E+01  0.0000000000000E+00
-0.5226176848864E+00 -0.3937232860900E+01  0.0000000000000E+00
-0.5226412218603E+00 -0.3863870514067E+01  0.0000000000000E+00
-0.5226647588371E+00 -0.3790508157912E+01  0.0000000000000E+00
-0.5226882958175E+00 -0.3717145790687E+01  0.0000000000000E+00
-0.5227118327961E+00 -0.3643783429230E+01  0.0000000000000E+00
-0.5227353697749E+00 -0.3570421066767E+01  0.0000000000000E+00
-0.5227589067966E+00 -0.3497058570741E+01  0.0000000000000E+00
-0.5227824437448E+00 -0.3423696304111E+01  0.0000000000000E+00
-0.5228059807630E+00 -0.3350333819021E+01  0.0000000000000E+00
-0.5228295181282E+00 -0.3276970252358E+01  0.0000000000000E+00
-0.5228530547150E+00 -0.3203609111845E+01  0.0000000000000E+00
-0.5228765916285E+00 -0.3130246953227E+01  0.0000000000000E+00
-0.5229001286091E+00 -0.3056884585275E+01  0.0000000000000E+00
-0.5229236655771E+00 -0.2983522256705E+01  0.0000000000000E+00
-0.5229472025146E+00 -0.2910160023098E+01  0.0000000000000E+00
-0.5230094719650E+00 -0.2836797822117E+01  0.0000000000000E+00
-0.5233453200490E+00 -0.2763439120539E+01  0.0000000000000E+00
-0.5242096897925E+00 -0.2690100695875E+01  0.0000000000000E+00
-0.5257557587769E+00 -0.2616814341734E+01  0.0000000000000E+00
-0.5280435707054E+00 -0.2543618363426E+01  0.0000000000000E+00
-0.5310799046469E+00 -0.2470549481778E+01  0.0000000000000E+00
-0.5348509888241E+00 -0.2397640652849E+01  0.0000000000000E+00
-0.5393412473588E+00 -0.2324922990298E+01  0.0000000000000E+00
-0.5445429860314E+00 -0.2252427756369E+01  0.0000000000000E+00
-0.5504618158794E+00 -0.2180191188014E+01  0.0000000000000E+00
-0.5571211703511E+00 -0.2108258110234E+01  0.0000000000000E+00
-0.5645300712003E+00 -0.2036670057468E+01  0.0000000000000E+00
-0.5726425603411E+00 -0.1965441270206E+01  0.0000000000000E+00
-0.5814243662114E+00 -0.1894586674225E+01  0.0000000000000E+00
-0.5908590467288E+00 -0.1824128048532E+01  0.0000000000000E+00
-0.6009460638389E+00 -0.1754096126991E+01  0.0000000000000E+00
-0.6117008239636E+00 -0.1684533792533E+01  0.0000000000000E+00
-0.6231566524677E+00 -0.1615501506574E+01  0.0000000000000E+00
-0.6353698171822E+00 -0.1547083734099E+01  0.0000000000000E+00
-0.6484277690306E+00 -0.1479407919987E+01  0.0000000000000E+00
-0.6624670780150E+00 -0.1412667153993E+01  0.0000000000000E+00
-0.4950265829563E+00 -0.4230575000095E+01  0.0000000000000E+00
-0.4950531658889E+00 -0.4157105417131E+01  0.0000000000000E+00
-0.4950797488716E+00 -0.4083635695702E+01  0.0000000000000E+00
-0.4951063318774E+00 -0.4010165910410E+01  0.0000000000000E+00
-0.4951329148482E+00 -0.3936696222035E+01  0.0000000000000E+00
-0.4951594978139E+00 -0.3863226547444E+01  0.0000000000000E+00
-0.4951860807830E+00 -0.3789756863518E+01  0.0000000000000E+00
-0.4952126637562E+00 -0.3716287168507E+01  0.0000000000000E+00
-0.4952392467272E+00 -0.3642817479271E+01  0.0000000000000E+00
-0.4952658296986E+00 -0.3569347789027E+01  0.0000000000000E+00
-0.4952924127185E+00 -0.3495877965026E+01  0.0000000000000E+00
-0.4953189956551E+00 -0.3422408370756E+01  0.0000000000000E+00
-0.4953455786710E+00 -0.3348938557706E+01  0.0000000000000E+00
-0.4953721620788E+00 -0.3275467661502E+01  0.0000000000000E+00
-0.4953987446074E+00 -0.3201999194996E+01  0.0000000000000E+00
-0.4954253275049E+00 -0.3128529708896E+01  0.0000000000000E+00
-0.4954519104783E+00 -0.3055060013155E+01  0.0000000000000E+00
-0.4954784934375E+00 -0.2981590356855E+01  0.0000000000000E+00
-0.4955050763622E+00 -0.2908120795657E+01  0.0000000000000E+00
-0.4955683532472E+00 -0.2834651267061E+01  0.0000000000000E+00
-0.4958908098644E+00 -0.2761185238480E+01  0.0000000000000E+00
-0.4967139711667E+00 -0.2687739487860E+01  0.0000000000000E+00
-0.4981829527790E+00 -0.2614345808257E+01  0.0000000000000E+00
-0.5003546382236E+00 -0.2541042504616E+01  0.0000000000000E+00
-0.5032354497856E+00 -0.2467866297535E+01  0.0000000000000E+00
-0.5068123405251E+00 -0.2394850142894E+01  0.0000000000000E+00
-0.5110705543301E+00 -0.2322025154781E+01  0.0000000000000E+00
-0.5160028019559E+00 -0.2249422595037E+01  0.0000000000000E+00
-0.5216143991022E+00 -0.2177078701116E+01  0.0000000000000E+00
-0.5279275458778E+00 -0.2105038298018E+01  0.0000000000000E+00
-0.5349507892246E+00 -0.2033342919751E+01  0.0000000000000E+00
-0.5426405899055E+00 -0.1962006806759E+01  0.0000000000000E+00
-0.5509644801207E+00 -0.1891044884923E+01  0.0000000000000E+00
-0.5599068831572E+00 -0.1820478933337E+01  0.0000000000000E+00
-0.5694672892784E+00 -0.1750339685891E+01  0.0000000000000E+00
-0.5796602940392E+00 -0.1680670025571E+01  0.0000000000000E+00
-0.5905174688062E+00 -0.1611530414592E+01  0.0000000000000E+00
-0.6020921200010E+00 -0.1543005316536E+01  0.0000000000000E+00
-0.6144670957471E+00 -0.1475222179278E+01  0.0000000000000E+00
-0.6277717782043E+00 -0.1408374091247E+01  0.0000000000000E+00
-0.4675289422681E+00 -0.4230473366273E+01  0.0000000000000E+00
-0.4675578845103E+00 -0.4156902149577E+01  0.0000000000000E+00
-0.4675868268072E+00 -0.4083330794226E+01  0.0000000000000E+00
-0.4676157691291E+00 -0.4009759374922E+01  0.0000000000000E+00
-0.4676447114129E+00 -0.3936188052670E+01  0.0000000000000E+00
-0.4676736536913E+00 -0.3862616744221E+01  0.0000000000000E+00
-0.4677025959733E+00 -0.3789045426423E+01  0.0000000000000E+00
-0.4677315382597E+00 -0.3715474097525E+01  0.0000000000000E+00
-0.4677604805438E+00 -0.3641902774411E+01  0.0000000000000E+00
-0.4677894228283E+00 -0.3568331450288E+01  0.0000000000000E+00
-0.4678183651656E+00 -0.3494759992222E+01  0.0000000000000E+00
-0.4678473074123E+00 -0.3421188764204E+01  0.0000000000000E+00
-0.4678762497452E+00 -0.3347617317104E+01  0.0000000000000E+00
-0.4679051925048E+00 -0.3274044785352E+01  0.0000000000000E+00
-0.4679341343072E+00 -0.3200474686659E+01  0.0000000000000E+00
-0.4679630765113E+00 -0.3126903566961E+01  0.0000000000000E+00
-0.4679920187980E+00 -0.3053332237333E+01  0.0000000000000E+00
-0.4680209610692E+00 -0.2979760947200E+01  0.0000000000000E+00
-0.4680499033029E+00 -0.2906189752300E+01  0.0000000000000E+00
-0.4681135009444E+00 -0.2832618589982E+01  0.0000000000000E+00
-0.4684218794232E+00 -0.2759050928256E+01  0.0000000000000E+00
-0.4692031456246E+00 -0.2685503545485E+01  0.0000000000000E+00
-0.4705943532147E+00 -0.2612008234196E+01  0.0000000000000E+00
-0.4726492255332E+00 -0.2538603298994E+01  0.0000000000000E+00
-0.4753738280800E+00 -0.2465325460254E+01  0.0000000000000E+00
-0.4787558387513E+00 -0.2392207673692E+01  0.0000000000000E+00
-0.4827813212037E+00 -0.2319281053801E+01  0.0000000000000E+00
-0.4874433911652E+00 -0.2246576862038E+01  0.0000000000000E+00
-0.4927470690006E+00 -0.2174131336332E+01  0.0000000000000E+00
-0.4987133214795E+00 -0.2101989301687E+01  0.0000000000000E+00
-0.5053502207294E+00 -0.2030192291697E+01  0.0000000000000E+00
-0.5126166463610E+00 -0.1958754546766E+01  0.0000000000000E+00
-0.5204819343374E+00 -0.1887690992875E+01  0.0000000000000E+00
-0.5289313733153E+00 -0.1817023409196E+01  0.0000000000000E+00
-0.5379644818757E+00 -0.1746782529646E+01  0.0000000000000E+00
-0.5475950447077E+00 -0.1677011237263E+01  0.0000000000000E+00
-0.5578528791844E+00 -0.1607769995018E+01  0.0000000000000E+00
-0.5687883303103E+00 -0.1539143265162E+01  0.0000000000000E+00
-0.5804796434283E+00 -0.1471258498414E+01  0.0000000000000E+00
-0.5930490128488E+00 -0.1404308781941E+01  0.0000000000000E+00
-0.4400306507643E+00 -0.4230377443940E+01  0.0000000000000E+00
-0.4400613015012E+00 -0.4156710304996E+01  0.0000000000000E+00
-0.4400919522959E+00 -0.4083043027216E+01  0.0000000000000E+00
-0.4401226031172E+00 -0.4009375685400E+01  0.0000000000000E+00
-0.4401532538981E+00 -0.3935708440762E+01  0.0000000000000E+00
-0.4401839046733E+00 -0.3862041209946E+01  0.0000000000000E+00
-0.4402145554523E+00 -0.3788373969769E+01  0.0000000000000E+00
-0.4402452062360E+00 -0.3714706718477E+01  0.0000000000000E+00
-0.4402758570172E+00 -0.3641039472976E+01  0.0000000000000E+00
-0.4403065077989E+00 -0.3567372226465E+01  0.0000000000000E+00
-0.4403371586364E+00 -0.3493704845836E+01  0.0000000000000E+00
-0.4403678093781E+00 -0.3420037695556E+01  0.0000000000000E+00
-0.4403984602110E+00 -0.3346370325908E+01  0.0000000000000E+00
-0.4404291114958E+00 -0.3272701870193E+01  0.0000000000000E+00
-0.4404597617669E+00 -0.3199035850710E+01  0.0000000000000E+00
-0.4404904124634E+00 -0.3125368808892E+01  0.0000000000000E+00
-0.4405210632474E+00 -0.3051701556869E+01  0.0000000000000E+00
-0.4405517140149E+00 -0.2978034344391E+01  0.0000000000000E+00
-0.4405823647428E+00 -0.2904367227272E+01  0.0000000000000E+00
-0.4406456323261E+00 -0.2830700142715E+01  0.0000000000000E+00
-0.4409392818568E+00 -0.2757036559295E+01  0.0000000000000E+00
-0.4416780021563E+00 -0.2683393255768E+01  0.0000000000000E+00
-0.4429907849293E+00 -0.2609802024162E+01  0.0000000000000E+00
-0.4449281933311E+00 -0.2536301168759E+01  0.0000000000000E+00
-0.4474959360748E+00 -0.2462927409729E+01  0.0000000000000E+00
-0.4506824158919E+00 -0.2389713702628E+01  0.0000000000000E+00
-0.4544745162100E+00 -0.2316691162333E+01  0.0000000000000E+00
-0.4588657577271E+00 -0.2243891049936E+01  0.0000000000000E+00
-0.4638608654765E+00 -0.2171349603822E+01  0.0000000000000E+00
-0.4694795728885E+00 -0.2099111648990E+01  0.0000000000000E+00
-0.4757294772735E+00 -0.2027218718648E+01  0.0000000000000E+00
-0.4825718770898E+00 -0.1955685053162E+01  0.0000000000000E+00
-0.4899779120636E+00 -0.1884525578604E+01  0.0000000000000E+00
-0.4979337362219E+00 -0.1813762074224E+01  0.0000000000000E+00
-0.5064388964637E+00 -0.1743425273962E+01  0.0000000000000E+00
-0.5155063666123E+00 -0.1673558060906E+01  0.0000000000000E+00
-0.5251642100526E+00 -0.1604220898739E+01  0.0000000000000E+00
-0.5354598103634E+00 -0.1535498248461E+01  0.0000000000000E+00
-0.5464668101259E+00 -0.1467517563467E+01  0.0000000000000E+00
-0.5583002157936E+00 -0.1400471929739E+01  0.0000000000000E+00
-0.4125317441520E+00 -0.4230287249716E+01  0.0000000000000E+00
-0.4125634882758E+00 -0.4156529916629E+01  0.0000000000000E+00
-0.4125952324593E+00 -0.4082772444536E+01  0.0000000000000E+00
-0.4126269766705E+00 -0.4009014908329E+01  0.0000000000000E+00
-0.4126587208397E+00 -0.3935257469419E+01  0.0000000000000E+00
-0.4126904650030E+00 -0.3861500044347E+01  0.0000000000000E+00
-0.4127222091704E+00 -0.3787742609903E+01  0.0000000000000E+00
-0.4127539533425E+00 -0.3713985164330E+01  0.0000000000000E+00
-0.4127856975121E+00 -0.3640227724555E+01  0.0000000000000E+00
-0.4128174416822E+00 -0.3566470283769E+01  0.0000000000000E+00
-0.4128491859101E+00 -0.3492712708702E+01  0.0000000000000E+00
-0.4128809300387E+00 -0.3418955364265E+01  0.0000000000000E+00
-0.4129126742618E+00 -0.3345197800191E+01  0.0000000000000E+00
-0.4129444189530E+00 -0.3271439148721E+01  0.0000000000000E+00
-0.4129761625943E+00 -0.3197682936466E+01  0.0000000000000E+00
-0.4130079066762E+00 -0.3123925700623E+01  0.0000000000000E+00
-0.4130396508486E+00 -0.3050168254318E+01  0.0000000000000E+00
-0.4130713950040E+00 -0.2976410847608E+01  0.0000000000000E+00
-0.4131031391183E+00 -0.2902653536372E+01  0.0000000000000E+00
-0.4131654615348E+00 -0.2828896257679E+01  0.0000000000000E+00
-0.4134437670066E+00 -0.2755142480638E+01  0.0000000000000E+00
-0.4141393262886E+00 -0.2681408984369E+01  0.0000000000000E+00
-0.4153730691176E+00 -0.2607727560436E+01  0.0000000000000E+00
-0.4171923984613E+00 -0.2534136512816E+01  0.0000000000000E+00
-0.4196026662446E+00 -0.2460672561482E+01  0.0000000000000E+00
-0.4225930000332E+00 -0.2387368661845E+01  0.0000000000000E+00
-0.4261511030289E+00 -0.2314255929140E+01  0.0000000000000E+00
-0.4302709008973E+00 -0.2241365624120E+01  0.0000000000000E+00
-0.4349568233429E+00 -0.2168733985590E+01  0.0000000000000E+00
-0.4402273704565E+00 -0.2096405838553E+01  0.0000000000000E+00
-0.4460896647286E+00 -0.2024422715852E+01  0.0000000000000E+00
-0.4525074234658E+00 -0.1952798857813E+01  0.0000000000000E+00
-0.4594535901587E+00 -0.1881549190599E+01  0.0000000000000E+00
-0.4669151842055E+00 -0.1810695493531E+01  0.0000000000000E+00
-0.4748917808231E+00 -0.1740268500570E+01  0.0000000000000E+00
-0.4833955429692E+00 -0.1670311094851E+01  0.0000000000000E+00
-0.4924527800443E+00 -0.1600883740729E+01  0.0000000000000E+00
-0.5021079141925E+00 -0.1532070898023E+01  0.0000000000000E+00
-0.5124299852484E+00 -0.1464000022650E+01  0.0000000000000E+00
-0.5235268117985E+00 -0.1396864199472E+01  0.0000000000000E+00
-0.3850322598414E+00 -0.4230202799459E+01  0.0000000000000E+00
-0.3850645196540E+00 -0.4156361016191E+01  0.0000000000000E+00
-0.3850967795275E+00 -0.4082519093757E+01  0.0000000000000E+00
-0.3851290394289E+00 -0.4008677107136E+01  0.0000000000000E+00
-0.3851612992878E+00 -0.3934835217923E+01  0.0000000000000E+00
-0.3851935591407E+00 -0.3860993342564E+01  0.0000000000000E+00
-0.3852258189976E+00 -0.3787151457823E+01  0.0000000000000E+00
-0.3852580788595E+00 -0.3713309561940E+01  0.0000000000000E+00
-0.3852903387188E+00 -0.3639467671862E+01  0.0000000000000E+00
-0.3853225985785E+00 -0.3565625780771E+01  0.0000000000000E+00
-0.3853548584969E+00 -0.3491783755245E+01  0.0000000000000E+00
-0.3853871183145E+00 -0.3417941960614E+01  0.0000000000000E+00
-0.3854193782282E+00 -0.3344099946094E+01  0.0000000000000E+00
-0.3854516386174E+00 -0.3270256842933E+01  0.0000000000000E+00
-0.3854838979398E+00 -0.3196416181779E+01  0.0000000000000E+00
-0.3855161577099E+00 -0.3122574495866E+01  0.0000000000000E+00
-0.3855484175721E+00 -0.3048732599250E+01  0.0000000000000E+00
-0.3855806774169E+00 -0.2974890742274E+01  0.0000000000000E+00
-0.3856129372200E+00 -0.2901048980883E+01  0.0000000000000E+00
-0.3856737367721E+00 -0.2827207252015E+01  0.0000000000000E+00
-0.3859361204928E+00 -0.2753369025280E+01  0.0000000000000E+00
-0.3865879410748E+00 -0.2679551080143E+01  0.0000000000000E+00
-0.3877420662852E+00 -0.2605785207729E+01  0.0000000000000E+00
-0.3894427389025E+00 -0.2532109711729E+01  0.0000000000000E+00
-0.3916949540622E+00 -0.2458561311938E+01  0.0000000000000E+00
-0.3944885641635E+00 -0.2385172963623E+01  0.0000000000000E+00
-0.3978120921840E+00 -0.2311975782359E+01  0.0000000000000E+00
-0.4016598687551E+00 -0.2239001028580E+01  0.0000000000000E+00
-0.4060360282553E+00 -0.2166284941488E+01  0.0000000000000E+00
-0.4109578374357E+00 -0.2093872346084E+01  0.0000000000000E+00
-0.4164319439649E+00 -0.2021804774870E+01  0.0000000000000E+00
-0.4224244839971E+00 -0.1950096468140E+01  0.0000000000000E+00
-0.4289102047877E+00 -0.1878762352137E+01  0.0000000000000E+00
-0.4358769911063E+00 -0.1807824206249E+01  0.0000000000000E+00
-0.4433244464880E+00 -0.1737312764459E+01  0.0000000000000E+00
-0.4512639230252E+00 -0.1667270909945E+01  0.0000000000000E+00
-0.4597199761387E+00 -0.1597759107689E+01  0.0000000000000E+00
-0.4687340665305E+00 -0.1528861816408E+01  0.0000000000000E+00
-0.4783706313056E+00 -0.1460706494377E+01  0.0000000000000E+00
-0.4887303011774E+00 -0.1393486225414E+01  0.0000000000000E+00
-0.3575322348022E+00 -0.4230124107983E+01  0.0000000000000E+00
-0.3575644695756E+00 -0.4156203633308E+01  0.0000000000000E+00
-0.3575967044098E+00 -0.4082283019319E+01  0.0000000000000E+00
-0.3576289392720E+00 -0.4008362341075E+01  0.0000000000000E+00
-0.3576611740917E+00 -0.3934441760342E+01  0.0000000000000E+00
-0.3576934089054E+00 -0.3860521193479E+01  0.0000000000000E+00
-0.3577256437231E+00 -0.3786600617223E+01  0.0000000000000E+00
-0.3577578785457E+00 -0.3712680029813E+01  0.0000000000000E+00
-0.3577901133658E+00 -0.3638759448214E+01  0.0000000000000E+00
-0.3578223481863E+00 -0.3564838865602E+01  0.0000000000000E+00
-0.3578545830655E+00 -0.3490918148411E+01  0.0000000000000E+00
-0.3578868178439E+00 -0.3416997662361E+01  0.0000000000000E+00
-0.3579190527183E+00 -0.3343076956189E+01  0.0000000000000E+00
-0.3579512880679E+00 -0.3269155160214E+01  0.0000000000000E+00
-0.3579835223515E+00 -0.3195235808850E+01  0.0000000000000E+00
-0.3580157570825E+00 -0.3121315431634E+01  0.0000000000000E+00
-0.3580479919054E+00 -0.3047394843491E+01  0.0000000000000E+00
-0.3580802267110E+00 -0.2973474295030E+01  0.0000000000000E+00
-0.3581124614749E+00 -0.2899553842255E+01  0.0000000000000E+00
-0.3581711974348E+00 -0.2825633421987E+01  0.0000000000000E+00
-0.3584171186813E+00 -0.2751716504300E+01  0.0000000000000E+00
-0.3590246598484E+00 -0.2677819868980E+01  0.0000000000000E+00
-0.3600986267318E+00 -0.2603975306743E+01  0.0000000000000E+00
-0.3616801019192E+00 -0.2530221121018E+01  0.0000000000000E+00
-0.3637737237556E+00 -0.2456594031425E+01  0.0000000000000E+00
-0.3663700694726E+00 -0.2383126993105E+01  0.0000000000000E+00
-0.3694584818260E+00 -0.2309851121947E+01  0.0000000000000E+00
-0.3730336964106E+00 -0.2236797678087E+01  0.0000000000000E+00
-0.3770995522815E+00 -0.2164002901096E+01  0.0000000000000E+00
-0.3816720828503E+00 -0.2091511615977E+01  0.0000000000000E+00
-0.3867574609618E+00 -0.2019365354912E+01  0.0000000000000E+00
-0.3923242416169E+00 -0.1947578358163E+01  0.0000000000000E+00
-0.3983489758364E+00 -0.1876165552051E+01  0.0000000000000E+00
-0.4048204137615E+00 -0.1805148716025E+01  0.0000000000000E+00
-0.4117381872457E+00 -0.1734558584088E+01  0.0000000000000E+00
-0.4191128375166E+00 -0.1664438039460E+01  0.0000000000000E+00
-0.4269671660192E+00 -0.1594847547706E+01  0.0000000000000E+00
-0.4353396720069E+00 -0.1525871566515E+01  0.0000000000000E+00
-0.4442901898707E+00 -0.1457637556361E+01  0.0000000000000E+00
-0.4539121624448E+00 -0.1390338600087E+01  0.0000000000000E+00
-0.3300317063161E+00 -0.4230051189142E+01  0.0000000000000E+00
-0.3300634126040E+00 -0.4156057795692E+01  0.0000000000000E+00
-0.3300951189516E+00 -0.4082064262790E+01  0.0000000000000E+00
-0.3301268253268E+00 -0.4008070665569E+01  0.0000000000000E+00
-0.3301585316601E+00 -0.3934077165957E+01  0.0000000000000E+00
-0.3301902379875E+00 -0.3860083680227E+01  0.0000000000000E+00
-0.3302219443189E+00 -0.3786090185095E+01  0.0000000000000E+00
-0.3302536506551E+00 -0.3712096678799E+01  0.0000000000000E+00
-0.3302853569888E+00 -0.3638103178319E+01  0.0000000000000E+00
-0.3303170633230E+00 -0.3564109676825E+01  0.0000000000000E+00
-0.3303487697148E+00 -0.3490116040619E+01  0.0000000000000E+00
-0.3303804760076E+00 -0.3416122635783E+01  0.0000000000000E+00
-0.3304121823947E+00 -0.3342129010606E+01  0.0000000000000E+00
-0.3304438892493E+00 -0.3268134294553E+01  0.0000000000000E+00
-0.3304755950553E+00 -0.3194142025521E+01  0.0000000000000E+00
-0.3305073013014E+00 -0.3120148729626E+01  0.0000000000000E+00
-0.3305390076379E+00 -0.3046155222595E+01  0.0000000000000E+00
-0.3305707139574E+00 -0.2972161755286E+01  0.0000000000000E+00
-0.3306024202359E+00 -0.2898168383757E+01  0.0000000000000E+00
-0.3306585891574E+00 -0.2824175044720E+01  0.0000000000000E+00
-0.3308875444874E+00 -0.2750185208679E+01  0.0000000000000E+00
-0.3314503028045E+00 -0.2676215655717E+01  0.0000000000000E+00
-0.3324436079309E+00 -0.2602298176172E+01  0.0000000000000E+00
-0.3339053822620E+00 -0.2528471073228E+01  0.0000000000000E+00
-0.3358399073513E+00 -0.2454771066347E+01  0.0000000000000E+00
-0.3382384852618E+00 -0.2381231110551E+01  0.0000000000000E+00
-0.3410912785297E+00 -0.2307882322018E+01  0.0000000000000E+00
-0.3443934277111E+00 -0.2234755960610E+01  0.0000000000000E+00
-0.3481484765401E+00 -0.2161888266242E+01  0.0000000000000E+00
-0.3523712250890E+00 -0.2089324063914E+01  0.0000000000000E+00
-0.3570673713764E+00 -0.2017104885515E+01  0.0000000000000E+00
-0.3622078892501E+00 -0.1945244971277E+01  0.0000000000000E+00
-0.3677711334962E+00 -0.1873759247591E+01  0.0000000000000E+00
-0.3737467196281E+00 -0.1802669493966E+01  0.0000000000000E+00
-0.3801343078177E+00 -0.1732006444421E+01  0.0000000000000E+00
-0.3869436284280E+00 -0.1661812982214E+01  0.0000000000000E+00
-0.3941957289323E+00 -0.1592149573454E+01  0.0000000000000E+00
-0.4019261471290E+00 -0.1523100674874E+01  0.0000000000000E+00
-0.4101901147095E+00 -0.1454793748987E+01  0.0000000000000E+00
-0.4190738866231E+00 -0.1387421877732E+01  0.0000000000000E+00
-0.3025307117473E+00 -0.4229984055806E+01  0.0000000000000E+00
-0.3025614234671E+00 -0.4155923529079E+01  0.0000000000000E+00
-0.3025921352449E+00 -0.4081862862774E+01  0.0000000000000E+00
-0.3026228470493E+00 -0.4007802132092E+01  0.0000000000000E+00
-0.3026535588133E+00 -0.3933741499106E+01  0.0000000000000E+00
-0.3026842705714E+00 -0.3859680880016E+01  0.0000000000000E+00
-0.3027149823335E+00 -0.3785620251516E+01  0.0000000000000E+00
-0.3027456941002E+00 -0.3711559611840E+01  0.0000000000000E+00
-0.3027764058645E+00 -0.3637498977987E+01  0.0000000000000E+00
-0.3028071176292E+00 -0.3563438343118E+01  0.0000000000000E+00
-0.3028378294498E+00 -0.3489377573416E+01  0.0000000000000E+00
-0.3028685411744E+00 -0.3415317035292E+01  0.0000000000000E+00
-0.3028992529905E+00 -0.3341256276629E+01  0.0000000000000E+00
-0.3029299652593E+00 -0.3267194426099E+01  0.0000000000000E+00
-0.3029606765125E+00 -0.3193135024811E+01  0.0000000000000E+00
-0.3029913881918E+00 -0.3119074595728E+01  0.0000000000000E+00
-0.3030220999588E+00 -0.3045013955318E+01  0.0000000000000E+00
-0.3030528117094E+00 -0.2970953354665E+01  0.0000000000000E+00
-0.3030835234201E+00 -0.2896892849879E+01  0.0000000000000E+00
-0.3031366592207E+00 -0.2822832377572E+01  0.0000000000000E+00
-0.3033481825528E+00 -0.2748775408642E+01  0.0000000000000E+00
-0.3038656919401E+00 -0.2674738723447E+01  0.0000000000000E+00
-0.3047778692279E+00 -0.2600754111977E+01  0.0000000000000E+00
-0.3061194766177E+00 -0.2526859877189E+01  0.0000000000000E+00
-0.3078944388703E+00 -0.2453092738402E+01  0.0000000000000E+00
-0.3100947828795E+00 -0.2379485650525E+01  0.0000000000000E+00
-0.3127114909635E+00 -0.2306069730006E+01  0.0000000000000E+00
-0.3157401086385E+00 -0.2232876236452E+01  0.0000000000000E+00
-0.3191838843193E+00 -0.2159941410094E+01  0.0000000000000E+00
-0.3230563847390E+00 -0.2087310075932E+01  0.0000000000000E+00
-0.3273628330882E+00 -0.2015023765584E+01  0.0000000000000E+00
-0.3320766220613E+00 -0.1943096719253E+01  0.0000000000000E+00
-0.3371779102106E+00 -0.1871543863397E+01  0.0000000000000E+00
-0.3426571784222E+00 -0.1800386977578E+01  0.0000000000000E+00
-0.3485141151863E+00 -0.1729656795832E+01  0.0000000000000E+00
-0.3547576400016E+00 -0.1659396201451E+01  0.0000000000000E+00
-0.3614070463731E+00 -0.1589665661042E+01  0.0000000000000E+00
-0.3684949106376E+00 -0.1520549630462E+01  0.0000000000000E+00
-0.3760718617994E+00 -0.1452175574100E+01  0.0000000000000E+00
-0.3842169669163E+00 -0.1384736573063E+01  0.0000000000000E+00
-0.2750292889768E+00 -0.4229922719884E+01  0.0000000000000E+00
-0.2750585779274E+00 -0.4155800857289E+01  0.0000000000000E+00
-0.2750878669333E+00 -0.4081678855002E+01  0.0000000000000E+00
-0.2751171559646E+00 -0.4007556788283E+01  0.0000000000000E+00
-0.2751464449573E+00 -0.3933434819343E+01  0.0000000000000E+00
-0.2751757339445E+00 -0.3859312864309E+01  0.0000000000000E+00
-0.2752050229354E+00 -0.3785190899856E+01  0.0000000000000E+00
-0.2752343119307E+00 -0.3711068924220E+01  0.0000000000000E+00
-0.2752636009237E+00 -0.3636946954411E+01  0.0000000000000E+00
-0.2752928899171E+00 -0.3562824983585E+01  0.0000000000000E+00
-0.2753221789639E+00 -0.3488702877815E+01  0.0000000000000E+00
-0.2753514679190E+00 -0.3414581003814E+01  0.0000000000000E+00
-0.2753807569614E+00 -0.3340458909091E+01  0.0000000000000E+00
-0.2754100464356E+00 -0.3266335721598E+01  0.0000000000000E+00
-0.2754393349412E+00 -0.3192214985375E+01  0.0000000000000E+00
-0.2754686238532E+00 -0.3118093220505E+01  0.0000000000000E+00
-0.2754979128488E+00 -0.3043971244133E+01  0.0000000000000E+00
-0.2755272018287E+00 -0.2969849307552E+01  0.0000000000000E+00
-0.2755564907707E+00 -0.2895727466917E+01  0.0000000000000E+00
-0.2756061652489E+00 -0.2821605658747E+01  0.0000000000000E+00
-0.2757998283827E+00 -0.2747487354304E+01  0.0000000000000E+00
-0.2762716606411E+00 -0.2673389334195E+01  0.0000000000000E+00
-0.2771022818897E+00 -0.2599343388093E+01  0.0000000000000E+00
-0.2783232941339E+00 -0.2525387818747E+01  0.0000000000000E+00
-0.2799382653412E+00 -0.2451559345344E+01  0.0000000000000E+00
-0.2819399472355E+00 -0.2377890922692E+01  0.0000000000000E+00
-0.2843201419189E+00 -0.2304413667485E+01  0.0000000000000E+00
-0.2870747998656E+00 -0.2231158839097E+01  0.0000000000000E+00
-0.2902068741738E+00 -0.2158162678047E+01  0.0000000000000E+00
-0.2937286982369E+00 -0.2085470009335E+01  0.0000000000000E+00
-0.2976450204157E+00 -0.2013122364332E+01  0.0000000000000E+00
-0.3019316522513E+00 -0.1941133983216E+01  0.0000000000000E+00
-0.3065705560629E+00 -0.1869519792505E+01  0.0000000000000E+00
-0.3115530781095E+00 -0.1798301571807E+01  0.0000000000000E+00
-0.3168789352001E+00 -0.1727510055176E+01  0.0000000000000E+00
-0.3225562359690E+00 -0.1657188125934E+01  0.0000000000000E+00
-0.3286025199556E+00 -0.1587396251146E+01  0.0000000000000E+00
-0.3350474020297E+00 -0.1518218885865E+01  0.0000000000000E+00
-0.3419369085198E+00 -0.1449783496195E+01  0.0000000000000E+00
-0.3493429185865E+00 -0.1382283162483E+01  0.0000000000000E+00
-0.2475274763612E+00 -0.4229867192306E+01  0.0000000000000E+00
-0.2475549526979E+00 -0.4155689802184E+01  0.0000000000000E+00
-0.2475824290864E+00 -0.4081512272263E+01  0.0000000000000E+00
-0.2476099054988E+00 -0.4007334677864E+01  0.0000000000000E+00
-0.2476373818750E+00 -0.3933157181315E+01  0.0000000000000E+00
-0.2476648582459E+00 -0.3858979698684E+01  0.0000000000000E+00
-0.2476923346204E+00 -0.3784802206627E+01  0.0000000000000E+00
-0.2477198109990E+00 -0.3710624703378E+01  0.0000000000000E+00
-0.2477472873755E+00 -0.3636447205960E+01  0.0000000000000E+00
-0.2477747637523E+00 -0.3562269707525E+01  0.0000000000000E+00
-0.2478022401792E+00 -0.3488092074044E+01  0.0000000000000E+00
-0.2478297165201E+00 -0.3413914672507E+01  0.0000000000000E+00
-0.2478571929429E+00 -0.3339737050082E+01  0.0000000000000E+00
-0.2478846697707E+00 -0.3265558334068E+01  0.0000000000000E+00
-0.2479121456899E+00 -0.3191382071160E+01  0.0000000000000E+00
-0.2479396219904E+00 -0.3117204778836E+01  0.0000000000000E+00
-0.2479670983693E+00 -0.3043027274851E+01  0.0000000000000E+00
-0.2479945747334E+00 -0.2968849810686E+01  0.0000000000000E+00
-0.2480220510620E+00 -0.2894672442539E+01  0.0000000000000E+00
-0.2480678743733E+00 -0.2820495106846E+01  0.0000000000000E+00
-0.2482432874676E+00 -0.2746321275196E+01  0.0000000000000E+00
-0.2486690527616E+00 -0.2672167728422E+01  0.0000000000000E+00
-0.2494177281399E+00 -0.2598066255909E+01  0.0000000000000E+00
-0.2505177554111E+00 -0.2524055160221E+01  0.0000000000000E+00
-0.2519723457481E+00 -0.2450171160422E+01  0.0000000000000E+00
-0.2537749757042E+00 -0.2376447211231E+01  0.0000000000000E+00
-0.2559182671670E+00 -0.2302914429563E+01  0.0000000000000E+00
-0.2583985755675E+00 -0.2229604074582E+01  0.0000000000000E+00
-0.2612185586887E+00 -0.2156552387068E+01  0.0000000000000E+00
-0.2643893165847E+00 -0.2083804192021E+01  0.0000000000000E+00
-0.2679151227846E+00 -0.2011401020588E+01  0.0000000000000E+00
-0.2717742076764E+00 -0.1939357112923E+01  0.0000000000000E+00
-0.2759503373461E+00 -0.1867687395599E+01  0.0000000000000E+00
-0.2804357234259E+00 -0.1796413648268E+01  0.0000000000000E+00
-0.2852301110435E+00 -0.1725566604998E+01  0.0000000000000E+00
-0.2903407979693E+00 -0.1655189149140E+01  0.0000000000000E+00
-0.2957835697803E+00 -0.1585341748170E+01  0.0000000000000E+00
-0.3015850798740E+00 -0.1516108856418E+01  0.0000000000000E+00
-0.3077867519147E+00 -0.1447617941537E+01  0.0000000000000E+00
-0.3144532771611E+00 -0.1380062083186E+01  0.0000000000000E+00
-0.2200253122177E+00 -0.4229817482972E+01  0.0000000000000E+00
-0.2200506244127E+00 -0.4155590383561E+01  0.0000000000000E+00
-0.2200759366555E+00 -0.4081363144257E+01  0.0000000000000E+00
-0.2201012489203E+00 -0.4007135840432E+01  0.0000000000000E+00
-0.2201265611517E+00 -0.3932908634523E+01  0.0000000000000E+00
-0.2201518733783E+00 -0.3858681442540E+01  0.0000000000000E+00
-0.2201771856082E+00 -0.3784454241126E+01  0.0000000000000E+00
-0.2202024978419E+00 -0.3710227028512E+01  0.0000000000000E+00
-0.2202278100736E+00 -0.3635999821733E+01  0.0000000000000E+00
-0.2202531223056E+00 -0.3561772613937E+01  0.0000000000000E+00
-0.2202784345837E+00 -0.3487545271003E+01  0.0000000000000E+00
-0.2203037467827E+00 -0.3413318160169E+01  0.0000000000000E+00
-0.2203290590570E+00 -0.3339090828300E+01  0.0000000000000E+00
-0.2203543717045E+00 -0.3264862402108E+01  0.0000000000000E+00
-0.2203796835150E+00 -0.3190636430667E+01  0.0000000000000E+00
-0.2204049956767E+00 -0.3116409429118E+01  0.0000000000000E+00
-0.2204303079106E+00 -0.3042182215768E+01  0.0000000000000E+00
-0.2204556201309E+00 -0.2967955042264E+01  0.0000000000000E+00
-0.2204809323185E+00 -0.2893727964843E+01  0.0000000000000E+00
-0.2205225529353E+00 -0.2819500919865E+01  0.0000000000000E+00
-0.2206793644652E+00 -0.2745277379213E+01  0.0000000000000E+00
-0.2210587112750E+00 -0.2671074123923E+01  0.0000000000000E+00
-0.2217250892667E+00 -0.2596922943121E+01  0.0000000000000E+00
-0.2227037800508E+00 -0.2522862139205E+01  0.0000000000000E+00
-0.2239976380052E+00 -0.2448928431131E+01  0.0000000000000E+00
-0.2256008645120E+00 -0.2375154773537E+01  0.0000000000000E+00
-0.2275069012456E+00 -0.2301572283534E+01  0.0000000000000E+00
-0.2297125085923E+00 -0.2228212220101E+01  0.0000000000000E+00
-0.2322200490218E+00 -0.2155110824251E+01  0.0000000000000E+00
-0.2350393892486E+00 -0.2082312920983E+01  0.0000000000000E+00
-0.2381743279693E+00 -0.2009860041244E+01  0.0000000000000E+00
-0.2416055144180E+00 -0.1937766425166E+01  0.0000000000000E+00
-0.2453185184479E+00 -0.1866046999373E+01  0.0000000000000E+00
-0.2493064170647E+00 -0.1794723543554E+01  0.0000000000000E+00
-0.2535689837149E+00 -0.1723826791791E+01  0.0000000000000E+00
-0.2581127053052E+00 -0.1653399627459E+01  0.0000000000000E+00
-0.2629516134529E+00 -0.1583502518406E+01  0.0000000000000E+00
-0.2681094000786E+00 -0.1514219918310E+01  0.0000000000000E+00
-0.2736228861926E+00 -0.1445679296214E+01  0.0000000000000E+00
-0.2795495751478E+00 -0.1378073731162E+01  0.0000000000000E+00
-0.1925228350695E+00 -0.4229773600768E+01  0.0000000000000E+00
-0.1925456701187E+00 -0.4155502619191E+01  0.0000000000000E+00
-0.1925685052109E+00 -0.4081231497639E+01  0.0000000000000E+00
-0.1925913403229E+00 -0.4006960311527E+01  0.0000000000000E+00
-0.1926141754049E+00 -0.3932689223390E+01  0.0000000000000E+00
-0.1926370104825E+00 -0.3858418149187E+01  0.0000000000000E+00
-0.1926598455630E+00 -0.3784147065547E+01  0.0000000000000E+00
-0.1926826806470E+00 -0.3709875970701E+01  0.0000000000000E+00
-0.1927055157292E+00 -0.3635604881693E+01  0.0000000000000E+00
-0.1927283508117E+00 -0.3561333791667E+01  0.0000000000000E+00
-0.1927511859358E+00 -0.3487062566424E+01  0.0000000000000E+00
-0.1927740209885E+00 -0.3412791573417E+01  0.0000000000000E+00
-0.1927968561092E+00 -0.3338520359245E+01  0.0000000000000E+00
-0.1928196915665E+00 -0.3264248050103E+01  0.0000000000000E+00
-0.1928425262686E+00 -0.3189978197163E+01  0.0000000000000E+00
-0.1928653612877E+00 -0.3115707313507E+01  0.0000000000000E+00
-0.1928881963719E+00 -0.3041436217924E+01  0.0000000000000E+00
-0.1929110314439E+00 -0.2967165162210E+01  0.0000000000000E+00
-0.1929338664863E+00 -0.2892894202637E+01  0.0000000000000E+00
-0.1929709714044E+00 -0.2818623275497E+01  0.0000000000000E+00
-0.1931088683680E+00 -0.2744355852933E+01  0.0000000000000E+00
-0.1934414836956E+00 -0.2670108716159E+01  0.0000000000000E+00
-0.1940252513053E+00 -0.2595913654076E+01  0.0000000000000E+00
-0.1948822926087E+00 -0.2521808968931E+01  0.0000000000000E+00
-0.1960151051878E+00 -0.2447831379587E+01  0.0000000000000E+00
-0.1974186152532E+00 -0.2374013840609E+01  0.0000000000000E+00
-0.1990870842670E+00 -0.2300387469284E+01  0.0000000000000E+00
-0.2010176775699E+00 -0.2226983524425E+01  0.0000000000000E+00
-0.2032124623196E+00 -0.2153838247250E+01  0.0000000000000E+00
-0.2056800718913E+00 -0.2080996462759E+01  0.0000000000000E+00
-0.2084238301475E+00 -0.2008499701722E+01  0.0000000000000E+00
-0.2114268051683E+00 -0.1936362204253E+01  0.0000000000000E+00
-0.2146763705746E+00 -0.1864598897017E+01  0.0000000000000E+00
-0.2181664687455E+00 -0.1793231559741E+01  0.0000000000000E+00
-0.2218969014465E+00 -0.1722290926515E+01  0.0000000000000E+00
-0.2258733447208E+00 -0.1651819880738E+01  0.0000000000000E+00
-0.2301080762283E+00 -0.1581878890584E+01  0.0000000000000E+00
-0.2346218264090E+00 -0.1512552409157E+01  0.0000000000000E+00
-0.2394468136277E+00 -0.1443967906727E+01  0.0000000000000E+00
-0.2446333533281E+00 -0.1376318461792E+01  0.0000000000000E+00
-0.1650200836141E+00 -0.4229735553552E+01  0.0000000000000E+00
-0.1650401672104E+00 -0.4155426524793E+01  0.0000000000000E+00
-0.1650602508445E+00 -0.4081117355988E+01  0.0000000000000E+00
-0.1650803344960E+00 -0.4006808122590E+01  0.0000000000000E+00
-0.1651004181210E+00 -0.3932498987216E+01  0.0000000000000E+00
-0.1651205017423E+00 -0.3858189865784E+01  0.0000000000000E+00
-0.1651405853662E+00 -0.3783880734910E+01  0.0000000000000E+00
-0.1651606689930E+00 -0.3709571592824E+01  0.0000000000000E+00
-0.1651807526183E+00 -0.3635262456580E+01  0.0000000000000E+00
-0.1652008362438E+00 -0.3560953319316E+01  0.0000000000000E+00
-0.1652209199060E+00 -0.3486644046767E+01  0.0000000000000E+00
-0.1652410035053E+00 -0.3412335006573E+01  0.0000000000000E+00
-0.1652610871644E+00 -0.3338025745100E+01  0.0000000000000E+00
-0.1652811711196E+00 -0.3263715388096E+01  0.0000000000000E+00
-0.1653012544107E+00 -0.3189407488552E+01  0.0000000000000E+00
-0.1653213379804E+00 -0.3115098557765E+01  0.0000000000000E+00
-0.1653414216075E+00 -0.3040789414941E+01  0.0000000000000E+00
-0.1653615052238E+00 -0.2966480312009E+01  0.0000000000000E+00
-0.1653815888140E+00 -0.2892171305265E+01  0.0000000000000E+00
-0.1654139037265E+00 -0.2817862330946E+01  0.0000000000000E+00
-0.1655326118186E+00 -0.2743556861420E+01  0.0000000000000E+00
-0.1658182213616E+00 -0.2669271678057E+01  0.0000000000000E+00
-0.1663191042885E+00 -0.2595038569558E+01  0.0000000000000E+00
-0.1670542218109E+00 -0.2520895838043E+01  0.0000000000000E+00
-0.1680257147146E+00 -0.2446880202293E+01  0.0000000000000E+00
-0.1692292340380E+00 -0.2373024616811E+01  0.0000000000000E+00
-0.1706598610322E+00 -0.2299360199036E+01  0.0000000000000E+00
-0.1723151659912E+00 -0.2225918207636E+01  0.0000000000000E+00
-0.1741969207619E+00 -0.2152734884009E+01  0.0000000000000E+00
-0.1763125253801E+00 -0.2079855053154E+01  0.0000000000000E+00
-0.1786648288734E+00 -0.2007320245687E+01  0.0000000000000E+00
-0.1812393181677E+00 -0.1935144701707E+01  0.0000000000000E+00
-0.1840251706515E+00 -0.1863343347917E+01  0.0000000000000E+00
-0.1870171940779E+00 -0.1791937964073E+01  0.0000000000000E+00
-0.1902152185315E+00 -0.1720959284274E+01  0.0000000000000E+00
-0.1936241091919E+00 -0.1650450191940E+01  0.0000000000000E+00
-0.1972543897637E+00 -0.1580471155527E+01  0.0000000000000E+00
-0.2011238292027E+00 -0.1511106627642E+01  0.0000000000000E+00
-0.2052600432362E+00 -0.1442484079618E+01  0.0000000000000E+00
-0.2097061593950E+00 -0.1374796589482E+01  0.0000000000000E+00
-0.1375170965664E+00 -0.4229703348149E+01  0.0000000000000E+00
-0.1375341931175E+00 -0.4155362114015E+01  0.0000000000000E+00
-0.1375512897008E+00 -0.4081020739775E+01  0.0000000000000E+00
-0.1375683862990E+00 -0.4006679300913E+01  0.0000000000000E+00
-0.1375854828746E+00 -0.3932337960118E+01  0.0000000000000E+00
-0.1376025794470E+00 -0.3857996633271E+01  0.0000000000000E+00
-0.1376196760216E+00 -0.3783655296978E+01  0.0000000000000E+00
-0.1376367725988E+00 -0.3709313949468E+01  0.0000000000000E+00
-0.1376538691746E+00 -0.3634972607802E+01  0.0000000000000E+00
-0.1376709657507E+00 -0.3560631265117E+01  0.0000000000000E+00
-0.1376880623579E+00 -0.3486289787087E+01  0.0000000000000E+00
-0.1377051589116E+00 -0.3411948541514E+01  0.0000000000000E+00
-0.1377222555162E+00 -0.3337607074565E+01  0.0000000000000E+00
-0.1377393523729E+00 -0.3263264511611E+01  0.0000000000000E+00
-0.1377564486642E+00 -0.3188924407182E+01  0.0000000000000E+00
-0.1377735451928E+00 -0.3114583271062E+01  0.0000000000000E+00
-0.1377906417701E+00 -0.3040241922814E+01  0.0000000000000E+00
-0.1378077383383E+00 -0.2965900614475E+01  0.0000000000000E+00
-0.1378248348843E+00 -0.2891559402366E+01  0.0000000000000E+00
-0.1378521241988E+00 -0.2817218222675E+01  0.0000000000000E+00
-0.1379514078263E+00 -0.2742880547961E+01  0.0000000000000E+00
-0.1381897759909E+00 -0.2668563159723E+01  0.0000000000000E+00
-0.1386075386376E+00 -0.2594297846497E+01  0.0000000000000E+00
-0.1392204967773E+00 -0.2520122910295E+01  0.0000000000000E+00
-0.1400304343989E+00 -0.2446075069828E+01  0.0000000000000E+00
-0.1410337273682E+00 -0.2372187279545E+01  0.0000000000000E+00
-0.1422262767265E+00 -0.2298490657014E+01  0.0000000000000E+00
-0.1436060577199E+00 -0.2225016460781E+01  0.0000000000000E+00
-0.1451745468860E+00 -0.2151800932397E+01  0.0000000000000E+00
-0.1469379109210E+00 -0.2078888896859E+01  0.0000000000000E+00
-0.1488985240163E+00 -0.2006321884654E+01  0.0000000000000E+00
-0.1510442919439E+00 -0.1934114135868E+01  0.0000000000000E+00
-0.1533661958606E+00 -0.1862280577234E+01  0.0000000000000E+00
-0.1558599088936E+00 -0.1790842988534E+01  0.0000000000000E+00
-0.1585252894466E+00 -0.1719832103876E+01  0.0000000000000E+00
-0.1613663918356E+00 -0.1649290806696E+01  0.0000000000000E+00
-0.1643919858117E+00 -0.1579279565690E+01  0.0000000000000E+00
-0.1676168788429E+00 -0.1509882833043E+01  0.0000000000000E+00
-0.1710640840249E+00 -0.1441228080987E+01  0.0000000000000E+00
-0.1747695409720E+00 -0.1373508387153E+01  0.0000000000000E+00
-0.1100139131733E+00 -0.4229676990359E+01  0.0000000000000E+00
-0.1100278263343E+00 -0.4155309398459E+01  0.0000000000000E+00
-0.1100417395214E+00 -0.4080941666402E+01  0.0000000000000E+00
-0.1100556527207E+00 -0.4006573869701E+01  0.0000000000000E+00
-0.1100695659016E+00 -0.3932206171102E+01  0.0000000000000E+00
-0.1100834790799E+00 -0.3857838486456E+01  0.0000000000000E+00
-0.1100973922599E+00 -0.3783470792361E+01  0.0000000000000E+00
-0.1101113054421E+00 -0.3709103087044E+01  0.0000000000000E+00
-0.1101252186231E+00 -0.3634735387573E+01  0.0000000000000E+00
-0.1101391318044E+00 -0.3560367687083E+01  0.0000000000000E+00
-0.1101530450109E+00 -0.3485999851201E+01  0.0000000000000E+00
-0.1101669581740E+00 -0.3411632247857E+01  0.0000000000000E+00
-0.1101808713785E+00 -0.3337264423059E+01  0.0000000000000E+00
-0.1101947847881E+00 -0.3262895501867E+01  0.0000000000000E+00
-0.1102086977376E+00 -0.3188529040072E+01  0.0000000000000E+00
-0.1102226108802E+00 -0.3114161546221E+01  0.0000000000000E+00
-0.1102365240625E+00 -0.3039793840166E+01  0.0000000000000E+00
-0.1102504372373E+00 -0.2965426174034E+01  0.0000000000000E+00
-0.1102643503941E+00 -0.2891058604166E+01  0.0000000000000E+00
-0.1102864177656E+00 -0.2816691066711E+01  0.0000000000000E+00
-0.1103660805855E+00 -0.2742327034383E+01  0.0000000000000E+00
-0.1105570110314E+00 -0.2667983288788E+01  0.0000000000000E+00
-0.1108914570603E+00 -0.2593691618327E+01  0.0000000000000E+00
-0.1113820594814E+00 -0.2519490324921E+01  0.0000000000000E+00
-0.1120302454863E+00 -0.2445416127225E+01  0.0000000000000E+00
-0.1128331157681E+00 -0.2371501979645E+01  0.0000000000000E+00
-0.1137873911589E+00 -0.2297778999854E+01  0.0000000000000E+00
-0.1148914518564E+00 -0.2224278446299E+01  0.0000000000000E+00
-0.1161464790893E+00 -0.2151036560653E+01  0.0000000000000E+00
-0.1175574062147E+00 -0.2078098167915E+01  0.0000000000000E+00
-0.1191261325870E+00 -0.2005504798465E+01  0.0000000000000E+00
-0.1208429828240E+00 -0.1933270692377E+01  0.0000000000000E+00
-0.1227007418508E+00 -0.1861410776411E+01  0.0000000000000E+00
-0.1246959481691E+00 -0.1789946830370E+01  0.0000000000000E+00
-0.1268284885014E+00 -0.1718909588368E+01  0.0000000000000E+00
-0.1291016063007E+00 -0.1648341933855E+01  0.0000000000000E+00
-0.1315223173657E+00 -0.1578304335721E+01  0.0000000000000E+00
-0.1341024676744E+00 -0.1508881245808E+01  0.0000000000000E+00
-0.1368604676965E+00 -0.1440200137086E+01  0.0000000000000E+00
-0.1398250691276E+00 -0.1372454086857E+01  0.0000000000000E+00
-0.8251057255733E-01 -0.4229656484926E+01  0.0000000000000E+00
-0.8252114510523E-01 -0.4155268387612E+01  0.0000000000000E+00
-0.8253171767305E-01 -0.4080880150103E+01  0.0000000000000E+00
-0.8254229025007E-01 -0.4006491847932E+01  0.0000000000000E+00
-0.8255286281313E-01 -0.3932103643889E+01  0.0000000000000E+00
-0.8256343537422E-01 -0.3857715453803E+01  0.0000000000000E+00
-0.8257400793664E-01 -0.3783327254265E+01  0.0000000000000E+00
-0.8258458050067E-01 -0.3708939043503E+01  0.0000000000000E+00
-0.8259515306386E-01 -0.3634550838589E+01  0.0000000000000E+00
-0.8260572562719E-01 -0.3560162632655E+01  0.0000000000000E+00
-0.8261629820978E-01 -0.3485774291291E+01  0.0000000000000E+00
-0.8262687075930E-01 -0.3411386182529E+01  0.0000000000000E+00
-0.8263744334031E-01 -0.3336997852253E+01  0.0000000000000E+00
-0.8264801607719E-01 -0.3262608425281E+01  0.0000000000000E+00
-0.8265858846443E-01 -0.3188221458384E+01  0.0000000000000E+00
-0.8266916099838E-01 -0.3113833459145E+01  0.0000000000000E+00
-0.8267973356251E-01 -0.3039445247645E+01  0.0000000000000E+00
-0.8269030612096E-01 -0.2965057076078E+01  0.0000000000000E+00
-0.8270087866573E-01 -0.2890669000802E+01  0.0000000000000E+00
-0.8271756687138E-01 -0.2816280957935E+01  0.0000000000000E+00
-0.8277745166208E-01 -0.2741896420311E+01  0.0000000000000E+00
-0.8292078717006E-01 -0.2667532169621E+01  0.0000000000000E+00
-0.8317175936353E-01 -0.2593219994158E+01  0.0000000000000E+00
-0.8353984884971E-01 -0.2518998195776E+01  0.0000000000000E+00
-0.8402612602254E-01 -0.2444903493085E+01  0.0000000000000E+00
-0.8462841640204E-01 -0.2370968840455E+01  0.0000000000000E+00
-0.8534426061171E-01 -0.2297225355644E+01  0.0000000000000E+00
-0.8617244380030E-01 -0.2223704297020E+01  0.0000000000000E+00
-0.8711385188860E-01 -0.2150441906354E+01  0.0000000000000E+00
-0.8817218489417E-01 -0.2077483008642E+01  0.0000000000000E+00
-0.8934886733396E-01 -0.2004869134183E+01  0.0000000000000E+00
-0.9063664267160E-01 -0.1932614523043E+01  0.0000000000000E+00
-0.9203009960065E-01 -0.1860734102001E+01  0.0000000000000E+00
-0.9352664199702E-01 -0.1789249650877E+01  0.0000000000000E+00
-0.9512618490244E-01 -0.1718191903789E+01  0.0000000000000E+00
-0.9683116090668E-01 -0.1647603744198E+01  0.0000000000000E+00
-0.9864683185755E-01 -0.1577545641147E+01  0.0000000000000E+00
-0.1005820822409E+00 -0.1508102046211E+01  0.0000000000000E+00
-0.1026507199050E+00 -0.1439400432931E+01  0.0000000000000E+00
-0.1048743086251E+00 -0.1371633878354E+01  0.0000000000000E+00
-0.5500711393383E-01 -0.4229641835546E+01  0.0000000000000E+00
-0.5501422786132E-01 -0.4155239088865E+01  0.0000000000000E+00
-0.5502134180221E-01 -0.4080836201962E+01  0.0000000000000E+00
-0.5502845574929E-01 -0.4006433250383E+01  0.0000000000000E+00
-0.5503556968698E-01 -0.3932030396953E+01  0.0000000000000E+00
-0.5504268362334E-01 -0.3857627557482E+01  0.0000000000000E+00
-0.5504979756060E-01 -0.3783224708557E+01  0.0000000000000E+00
-0.5505691149894E-01 -0.3708821848406E+01  0.0000000000000E+00
-0.5506402543671E-01 -0.3634418994103E+01  0.0000000000000E+00
-0.5507113937459E-01 -0.3560016138781E+01  0.0000000000000E+00
-0.5507825332541E-01 -0.3485613148002E+01  0.0000000000000E+00
-0.5508536725399E-01 -0.3411210389871E+01  0.0000000000000E+00
-0.5509248120376E-01 -0.3336807410182E+01  0.0000000000000E+00
-0.5509959525840E-01 -0.3262403333581E+01  0.0000000000000E+00
-0.5510670907779E-01 -0.3188001717540E+01  0.0000000000000E+00
-0.5511382299589E-01 -0.3113599068954E+01  0.0000000000000E+00
-0.5512093693430E-01 -0.3039196208064E+01  0.0000000000000E+00
-0.5512805086889E-01 -0.2964793387116E+01  0.0000000000000E+00
-0.5513516479427E-01 -0.2890390662477E+01  0.0000000000000E+00
-0.5514635582678E-01 -0.2815987970245E+01  0.0000000000000E+00
-0.5518634458180E-01 -0.2741588783338E+01  0.0000000000000E+00
-0.5528196714690E-01 -0.2667209883509E+01  0.0000000000000E+00
-0.5544934750096E-01 -0.2592883058975E+01  0.0000000000000E+00
-0.5569480604889E-01 -0.2518646611538E+01  0.0000000000000E+00
-0.5601905638671E-01 -0.2444537259779E+01  0.0000000000000E+00
-0.5642064886117E-01 -0.2370587958044E+01  0.0000000000000E+00
-0.5689794388766E-01 -0.2296829824147E+01  0.0000000000000E+00
-0.5745013156543E-01 -0.2223294116403E+01  0.0000000000000E+00
-0.5807780250795E-01 -0.2150017076651E+01  0.0000000000000E+00
-0.5878342339336E-01 -0.2077043529887E+01  0.0000000000000E+00
-0.5956794390064E-01 -0.2004415006351E+01  0.0000000000000E+00
-0.6042652633910E-01 -0.1932145746102E+01  0.0000000000000E+00
-0.6135556317081E-01 -0.1860250675935E+01  0.0000000000000E+00
-0.6235332364616E-01 -0.1788751575680E+01  0.0000000000000E+00
-0.6341975112603E-01 -0.1717679179460E+01  0.0000000000000E+00
-0.6455646733708E-01 -0.1647076370742E+01  0.0000000000000E+00
-0.6576698017705E-01 -0.1577003618680E+01  0.0000000000000E+00
-0.6705721263822E-01 -0.1507545374656E+01  0.0000000000000E+00
-0.6843636995069E-01 -0.1438829112620E+01  0.0000000000000E+00
-0.6991882796803E-01 -0.1371047909439E+01  0.0000000000000E+00
-0.2750357658843E-01 -0.4229633044861E+01  0.0000000000000E+00
-0.2750715317366E-01 -0.4155221507503E+01  0.0000000000000E+00
-0.2751072976564E-01 -0.4080809829905E+01  0.0000000000000E+00
-0.2751430636072E-01 -0.4006398087624E+01  0.0000000000000E+00
-0.2751788295109E-01 -0.3931986443504E+01  0.0000000000000E+00
-0.2752145954079E-01 -0.3857574813344E+01  0.0000000000000E+00
-0.2752503613094E-01 -0.3783163173730E+01  0.0000000000000E+00
-0.2752861272163E-01 -0.3708751522888E+01  0.0000000000000E+00
-0.2753218931203E-01 -0.3634339877895E+01  0.0000000000000E+00
-0.2753576590249E-01 -0.3559928231882E+01  0.0000000000000E+00
-0.2753934249946E-01 -0.3485516450397E+01  0.0000000000000E+00
-0.2754291908525E-01 -0.3411104901588E+01  0.0000000000000E+00
-0.2754649568168E-01 -0.3336693131194E+01  0.0000000000000E+00
-0.2755007233085E-01 -0.3262280263758E+01  0.0000000000000E+00
-0.2755364886173E-01 -0.3187869857173E+01  0.0000000000000E+00
-0.2755722544225E-01 -0.3113458417920E+01  0.0000000000000E+00
-0.2756080203298E-01 -0.3039046766340E+01  0.0000000000000E+00
-0.2756437862178E-01 -0.2964635154705E+01  0.0000000000000E+00
-0.2756795520596E-01 -0.2890223639392E+01  0.0000000000000E+00
-0.2757357034351E-01 -0.2815812156483E+01  0.0000000000000E+00
-0.2759358434146E-01 -0.2741404178949E+01  0.0000000000000E+00
-0.2764141524306E-01 -0.2667016488579E+01  0.0000000000000E+00
-0.2772512503744E-01 -0.2592680873544E+01  0.0000000000000E+00
-0.2784787392694E-01 -0.2518435635618E+01  0.0000000000000E+00
-0.2801001870949E-01 -0.2444317493361E+01  0.0000000000000E+00
-0.2821083455843E-01 -0.2370359401105E+01  0.0000000000000E+00
-0.2844950168136E-01 -0.2296592476699E+01  0.0000000000000E+00
-0.2872561512776E-01 -0.2223047978426E+01  0.0000000000000E+00
-0.2903947020410E-01 -0.2149762148164E+01  0.0000000000000E+00
-0.2939230024913E-01 -0.2076779810912E+01  0.0000000000000E+00
-0.2978458010354E-01 -0.2004142496872E+01  0.0000000000000E+00
-0.3021389092229E-01 -0.1931864446101E+01  0.0000000000000E+00
-0.3067842893605E-01 -0.1859960585402E+01  0.0000000000000E+00
-0.3117732876971E-01 -0.1788452694611E+01  0.0000000000000E+00
-0.3171056210335E-01 -0.1717371507854E+01  0.0000000000000E+00
-0.3227893980056E-01 -0.1646759908603E+01  0.0000000000000E+00
-0.3288421580958E-01 -0.1576678366077E+01  0.0000000000000E+00
-0.3352935162807E-01 -0.1507211331542E+01  0.0000000000000E+00
-0.3421894987024E-01 -0.1438486279195E+01  0.0000000000000E+00
-0.3496019846693E-01 -0.1370696285795E+01  0.0000000000000E+00
 0.1466269727017E-09 -0.4229630114457E+01  0.0000000000000E+00
 0.2932532055263E-09 -0.4155215646697E+01  0.0000000000000E+00
 0.4398803798697E-09 -0.4080801038692E+01  0.0000000000000E+00
 0.5865072632801E-09 -0.4006386366002E+01  0.0000000000000E+00
 0.7331339456125E-09 -0.3931971791476E+01  0.0000000000000E+00
 0.8797607629187E-09 -0.3857557230911E+01  0.0000000000000E+00
 0.1026387601599E-08 -0.3783142660891E+01  0.0000000000000E+00
 0.1173014146470E-08 -0.3708728079643E+01  0.0000000000000E+00
 0.1319641038940E-08 -0.3634313504245E+01  0.0000000000000E+00
 0.1466267822695E-08 -0.3559898927826E+01  0.0000000000000E+00
 0.1612894884936E-08 -0.3485484215930E+01  0.0000000000000E+00
 0.1759521559980E-08 -0.3411069736718E+01  0.0000000000000E+00
 0.1906148624904E-08 -0.3336655035914E+01  0.0000000000000E+00
 0.2052777753410E-08 -0.3262239238024E+01  0.0000000000000E+00
 0.2199402290491E-08 -0.3187825901082E+01  0.0000000000000E+00
 0.2346028468075E-08 -0.3113411531432E+01  0.0000000000000E+00
 0.2492655403194E-08 -0.3038996949445E+01  0.0000000000000E+00
 0.2639282414546E-08 -0.2964582407406E+01  0.0000000000000E+00
 0.2785908708559E-08 -0.2890167961692E+01  0.0000000000000E+00
 0.2932963750762E-08 -0.2815753548382E+01  0.0000000000000E+00
 0.3081668126355E-08 -0.2741342640464E+01  0.0000000000000E+00
 0.3233148692405E-08 -0.2666952019738E+01  0.0000000000000E+00
 0.3388282564229E-08 -0.2592613474360E+01  0.0000000000000E+00
 0.3547520115210E-08 -0.2518365306095E+01  0.0000000000000E+00
 0.3711086251809E-08 -0.2444244233496E+01  0.0000000000000E+00
 0.3879109370085E-08 -0.2370283210891E+01  0.0000000000000E+00
 0.4051601455226E-08 -0.2296513356140E+01  0.0000000000000E+00
 0.4229037818245E-08 -0.2222965927515E+01  0.0000000000000E+00
 0.4411708547429E-08 -0.2149677166908E+01  0.0000000000000E+00
 0.4600299816833E-08 -0.2076691899317E+01  0.0000000000000E+00
 0.4792582977744E-08 -0.2004051654933E+01  0.0000000000000E+00
 0.4987928936109E-08 -0.1931770673812E+01  0.0000000000000E+00
 0.5187018094136E-08 -0.1859863882760E+01  0.0000000000000E+00
 0.5390384780373E-08 -0.1788353061614E+01  0.0000000000000E+00
 0.5598754705489E-08 -0.1717268944503E+01  0.0000000000000E+00
 0.5811610974171E-08 -0.1646654414899E+01  0.0000000000000E+00
 0.6029914565701E-08 -0.1576569942042E+01  0.0000000000000E+00
 0.6251219526846E-08 -0.1507099977162E+01  0.0000000000000E+00
 0.6476122786694E-08 -0.1438371994536E+01  0.0000000000000E+00
 0.6697123319916E-08 -0.1370579070886E+01  0.0000000000000E+00
 0.2750357688167E-01 -0.4229633044863E+01  0.0000000000000E+00
 0.2750715376015E-01 -0.4155221507507E+01  0.0000000000000E+00
 0.2751073064538E-01 -0.4080809829911E+01  0.0000000000000E+00
 0.2751430753371E-01 -0.4006398087633E+01  0.0000000000000E+00
 0.2751788441732E-01 -0.3931986443515E+01  0.0000000000000E+00
 0.2752146130026E-01 -0.3857574813358E+01  0.0000000000000E+00
 0.2752503818366E-01 -0.3783163173746E+01  0.0000000000000E+00
 0.2752861506759E-01 -0.3708751522906E+01  0.0000000000000E+00
 0.2753219195125E-01 -0.3634339877916E+01  0.0000000000000E+00
 0.2753576883495E-01 -0.3559928231905E+01  0.0000000000000E+00
 0.2753934572517E-01 -0.3485516450422E+01  0.0000000000000E+00
 0.2754292260420E-01 -0.3411104901615E+01  0.0000000000000E+00
 0.2754649949388E-01 -0.3336693131223E+01  0.0000000000000E+00
 0.2755007643630E-01 -0.3262280263790E+01  0.0000000000000E+00
 0.2755365326042E-01 -0.3187869857207E+01  0.0000000000000E+00
 0.2755723013419E-01 -0.3113458417957E+01  0.0000000000000E+00
 0.2756080701816E-01 -0.3039046766379E+01  0.0000000000000E+00
 0.2756438390021E-01 -0.2964635154746E+01  0.0000000000000E+00
 0.2756796077763E-01 -0.2890223639435E+01  0.0000000000000E+00
 0.2757357620929E-01 -0.2815812156528E+01  0.0000000000000E+00
 0.2759359050464E-01 -0.2741404178997E+01  0.0000000000000E+00
 0.2764142170919E-01 -0.2667016488629E+01  0.0000000000000E+00
 0.2772513181383E-01 -0.2592680873597E+01  0.0000000000000E+00
 0.2784788102180E-01 -0.2518435635673E+01  0.0000000000000E+00
 0.2801002613147E-01 -0.2444317493417E+01  0.0000000000000E+00
 0.2821084231645E-01 -0.2370359401164E+01  0.0000000000000E+00
 0.2844950978436E-01 -0.2296592476761E+01  0.0000000000000E+00
 0.2872562358562E-01 -0.2223047978490E+01  0.0000000000000E+00
 0.2903947902730E-01 -0.2149762148230E+01  0.0000000000000E+00
 0.2939230944951E-01 -0.2076779810981E+01  0.0000000000000E+00
 0.2978458968848E-01 -0.2004142496943E+01  0.0000000000000E+00
 0.3021390089791E-01 -0.1931864446174E+01  0.0000000000000E+00
 0.3067843930983E-01 -0.1859960585477E+01  0.0000000000000E+00
 0.3117733955022E-01 -0.1788452694688E+01  0.0000000000000E+00
 0.3171057330060E-01 -0.1717371507933E+01  0.0000000000000E+00
 0.3227895142350E-01 -0.1646759908685E+01  0.0000000000000E+00
 0.3288422786913E-01 -0.1576678366161E+01  0.0000000000000E+00
 0.3352936413022E-01 -0.1507211331629E+01  0.0000000000000E+00
 0.3421896282219E-01 -0.1438486279285E+01  0.0000000000000E+00
 0.3496021186087E-01 -0.1370696285886E+01  0.0000000000000E+00
 0.5500711422706E-01 -0.4229641835551E+01  0.0000000000000E+00
 0.5501422844776E-01 -0.4155239088874E+01  0.0000000000000E+00
 0.5502134268188E-01 -0.4080836201975E+01  0.0000000000000E+00
 0.5502845692218E-01 -0.4006433250401E+01  0.0000000000000E+00
 0.5503557115310E-01 -0.3932030396975E+01  0.0000000000000E+00
 0.5504268538268E-01 -0.3857627557509E+01  0.0000000000000E+00
 0.5504979961317E-01 -0.3783224708589E+01  0.0000000000000E+00
 0.5505691384472E-01 -0.3708821848442E+01  0.0000000000000E+00
 0.5506402807572E-01 -0.3634418994144E+01  0.0000000000000E+00
 0.5507114230682E-01 -0.3560016138826E+01  0.0000000000000E+00
 0.5507825655087E-01 -0.3485613148052E+01  0.0000000000000E+00
 0.5508537077267E-01 -0.3411210389926E+01  0.0000000000000E+00
 0.5509248501566E-01 -0.3336807410241E+01  0.0000000000000E+00
 0.5509959936354E-01 -0.3262403333645E+01  0.0000000000000E+00
 0.5510671347613E-01 -0.3188001717608E+01  0.0000000000000E+00
 0.5511382768746E-01 -0.3113599069026E+01  0.0000000000000E+00
 0.5512094191909E-01 -0.3039196208141E+01  0.0000000000000E+00
 0.5512805614690E-01 -0.2964793387197E+01  0.0000000000000E+00
 0.5513517036551E-01 -0.2890390662564E+01  0.0000000000000E+00
 0.5514636169210E-01 -0.2815987970336E+01  0.0000000000000E+00
 0.5518635074450E-01 -0.2741588783433E+01  0.0000000000000E+00
 0.5528197361253E-01 -0.2667209883609E+01  0.0000000000000E+00
 0.5544935427683E-01 -0.2592883059079E+01  0.0000000000000E+00
 0.5569481314320E-01 -0.2518646611647E+01  0.0000000000000E+00
 0.5601906380812E-01 -0.2444537259892E+01  0.0000000000000E+00
 0.5642065661860E-01 -0.2370587958162E+01  0.0000000000000E+00
 0.5689795199004E-01 -0.2296829824270E+01  0.0000000000000E+00
 0.5745014002266E-01 -0.2223294116531E+01  0.0000000000000E+00
 0.5807781133049E-01 -0.2150017076782E+01  0.0000000000000E+00
 0.5878343259305E-01 -0.2077043530024E+01  0.0000000000000E+00
 0.5956795348486E-01 -0.2004415006491E+01  0.0000000000000E+00
 0.6042653631398E-01 -0.1932145746248E+01  0.0000000000000E+00
 0.6135557354385E-01 -0.1860250676085E+01  0.0000000000000E+00
 0.6235333442590E-01 -0.1788751575835E+01  0.0000000000000E+00
 0.6341976232248E-01 -0.1717679179619E+01  0.0000000000000E+00
 0.6455647895921E-01 -0.1647076370906E+01  0.0000000000000E+00
 0.6576699223576E-01 -0.1577003618849E+01  0.0000000000000E+00
 0.6705722513951E-01 -0.1507545374830E+01  0.0000000000000E+00
 0.6843638290175E-01 -0.1438829112798E+01  0.0000000000000E+00
 0.6991884136106E-01 -0.1371047909622E+01  0.0000000000000E+00
 0.8251057285052E-01 -0.4229656484933E+01  0.0000000000000E+00
 0.8252114569160E-01 -0.4155268387626E+01  0.0000000000000E+00
 0.8253171855261E-01 -0.4080880150123E+01  0.0000000000000E+00
 0.8254229142281E-01 -0.4006491847959E+01  0.0000000000000E+00
 0.8255286427906E-01 -0.3932103643923E+01  0.0000000000000E+00
 0.8256343713333E-01 -0.3857715453844E+01  0.0000000000000E+00
 0.8257400998894E-01 -0.3783327254313E+01  0.0000000000000E+00
 0.8258458284615E-01 -0.3708939043558E+01  0.0000000000000E+00
 0.8259515570252E-01 -0.3634550838650E+01  0.0000000000000E+00
 0.8260572855905E-01 -0.3560162632723E+01  0.0000000000000E+00
 0.8261630143482E-01 -0.3485774291366E+01  0.0000000000000E+00
 0.8262687427753E-01 -0.3411386182611E+01  0.0000000000000E+00
 0.8263744715172E-01 -0.3336997852342E+01  0.0000000000000E+00
 0.8264802018179E-01 -0.3262608425376E+01  0.0000000000000E+00
 0.8265859286221E-01 -0.3188221458486E+01  0.0000000000000E+00
 0.8266916568935E-01 -0.3113833459254E+01  0.0000000000000E+00
 0.8267973854666E-01 -0.3039445247761E+01  0.0000000000000E+00
 0.8269031139830E-01 -0.2965057076200E+01  0.0000000000000E+00
 0.8270088423625E-01 -0.2890669000931E+01  0.0000000000000E+00
 0.8271757273595E-01 -0.2816280958071E+01  0.0000000000000E+00
 0.8277745782398E-01 -0.2741896420454E+01  0.0000000000000E+00
 0.8292079363485E-01 -0.2667532169771E+01  0.0000000000000E+00
 0.8317176613852E-01 -0.2593219994315E+01  0.0000000000000E+00
 0.8353985594311E-01 -0.2518998195939E+01  0.0000000000000E+00
 0.8402613344300E-01 -0.2444903493255E+01  0.0000000000000E+00
 0.8462842415848E-01 -0.2370968840632E+01  0.0000000000000E+00
 0.8534426871307E-01 -0.2297225355828E+01  0.0000000000000E+00
 0.8617245225646E-01 -0.2223704297211E+01  0.0000000000000E+00
 0.8711386071004E-01 -0.2150441906551E+01  0.0000000000000E+00
 0.8817219409272E-01 -0.2077483008847E+01  0.0000000000000E+00
 0.8934887691701E-01 -0.2004869134394E+01  0.0000000000000E+00
 0.9063665264527E-01 -0.1932614523261E+01  0.0000000000000E+00
 0.9203010997243E-01 -0.1860734102227E+01  0.0000000000000E+00
 0.9352665277546E-01 -0.1789249651109E+01  0.0000000000000E+00
 0.9512619609756E-01 -0.1718191904028E+01  0.0000000000000E+00
 0.9683117252744E-01 -0.1647603744444E+01  0.0000000000000E+00
 0.9864684391485E-01 -0.1577545641400E+01  0.0000000000000E+00
 0.1005820947408E+00 -0.1508102046472E+01  0.0000000000000E+00
 0.1026507328546E+00 -0.1439400433198E+01  0.0000000000000E+00
 0.1048743220166E+00 -0.1371633878628E+01  0.0000000000000E+00
 0.1100139134665E+00 -0.4229676990368E+01  0.0000000000000E+00
 0.1100278269205E+00 -0.4155309398477E+01  0.0000000000000E+00
 0.1100417404008E+00 -0.4080941666429E+01  0.0000000000000E+00
 0.1100556538932E+00 -0.4006573869738E+01  0.0000000000000E+00
 0.1100695673672E+00 -0.3932206171148E+01  0.0000000000000E+00
 0.1100834808386E+00 -0.3857838486511E+01  0.0000000000000E+00
 0.1100973943118E+00 -0.3783470792424E+01  0.0000000000000E+00
 0.1101113077871E+00 -0.3709103087117E+01  0.0000000000000E+00
 0.1101252212613E+00 -0.3634735387655E+01  0.0000000000000E+00
 0.1101391347357E+00 -0.3560367687174E+01  0.0000000000000E+00
 0.1101530482354E+00 -0.3485999851300E+01  0.0000000000000E+00
 0.1101669616916E+00 -0.3411632247966E+01  0.0000000000000E+00
 0.1101808751892E+00 -0.3337264423177E+01  0.0000000000000E+00
 0.1101947888920E+00 -0.3262895501994E+01  0.0000000000000E+00
 0.1102087021346E+00 -0.3188529040208E+01  0.0000000000000E+00
 0.1102226155703E+00 -0.3114161546366E+01  0.0000000000000E+00
 0.1102365290458E+00 -0.3039793840320E+01  0.0000000000000E+00
 0.1102504425137E+00 -0.2965426174197E+01  0.0000000000000E+00
 0.1102643559636E+00 -0.2891058604338E+01  0.0000000000000E+00
 0.1102864236291E+00 -0.2816691066893E+01  0.0000000000000E+00
 0.1103660867463E+00 -0.2742327034573E+01  0.0000000000000E+00
 0.1105570174950E+00 -0.2667983288988E+01  0.0000000000000E+00
 0.1108914638340E+00 -0.2593691618536E+01  0.0000000000000E+00
 0.1113820665735E+00 -0.2519490325139E+01  0.0000000000000E+00
 0.1120302529054E+00 -0.2445416127452E+01  0.0000000000000E+00
 0.1128331235231E+00 -0.2371501979881E+01  0.0000000000000E+00
 0.1137873992588E+00 -0.2297779000099E+01  0.0000000000000E+00
 0.1148914603110E+00 -0.2224278446553E+01  0.0000000000000E+00
 0.1161464879092E+00 -0.2151036560917E+01  0.0000000000000E+00
 0.1175574154117E+00 -0.2078098168188E+01  0.0000000000000E+00
 0.1191261421684E+00 -0.2005504798746E+01  0.0000000000000E+00
 0.1208429927959E+00 -0.1933270692668E+01  0.0000000000000E+00
 0.1227007522209E+00 -0.1861410776712E+01  0.0000000000000E+00
 0.1246959589458E+00 -0.1789946830680E+01  0.0000000000000E+00
 0.1268284996947E+00 -0.1718909588687E+01  0.0000000000000E+00
 0.1291016179195E+00 -0.1648341934183E+01  0.0000000000000E+00
 0.1315223294210E+00 -0.1578304336058E+01  0.0000000000000E+00
 0.1341024801722E+00 -0.1508881246156E+01  0.0000000000000E+00
 0.1368604806440E+00 -0.1440200137443E+01  0.0000000000000E+00
 0.1398250825170E+00 -0.1372454087222E+01  0.0000000000000E+00
 0.1375170968594E+00 -0.4229703348160E+01  0.0000000000000E+00
 0.1375341937036E+00 -0.4155362114038E+01  0.0000000000000E+00
 0.1375512905800E+00 -0.4081020739809E+01  0.0000000000000E+00
 0.1375683874712E+00 -0.4006679300958E+01  0.0000000000000E+00
 0.1375854843399E+00 -0.3932337960175E+01  0.0000000000000E+00
 0.1376025812054E+00 -0.3857996633339E+01  0.0000000000000E+00
 0.1376196780730E+00 -0.3783655297058E+01  0.0000000000000E+00
 0.1376367749433E+00 -0.3709313949559E+01  0.0000000000000E+00
 0.1376538718122E+00 -0.3634972607904E+01  0.0000000000000E+00
 0.1376709686813E+00 -0.3560631265231E+01  0.0000000000000E+00
 0.1376880655816E+00 -0.3486289787212E+01  0.0000000000000E+00
 0.1377051624283E+00 -0.3411948541650E+01  0.0000000000000E+00
 0.1377222593261E+00 -0.3337607074712E+01  0.0000000000000E+00
 0.1377393564758E+00 -0.3263264511770E+01  0.0000000000000E+00
 0.1377564530602E+00 -0.3188924407352E+01  0.0000000000000E+00
 0.1377735498818E+00 -0.3114583271243E+01  0.0000000000000E+00
 0.1377906467522E+00 -0.3040241923007E+01  0.0000000000000E+00
 0.1378077436134E+00 -0.2965900614679E+01  0.0000000000000E+00
 0.1378248404525E+00 -0.2891559402581E+01  0.0000000000000E+00
 0.1378521300609E+00 -0.2817218222902E+01  0.0000000000000E+00
 0.1379514139857E+00 -0.2742880548199E+01  0.0000000000000E+00
 0.1381897824530E+00 -0.2668563159972E+01  0.0000000000000E+00
 0.1386075454098E+00 -0.2594297846758E+01  0.0000000000000E+00
 0.1392205038678E+00 -0.2520122910568E+01  0.0000000000000E+00
 0.1400304418163E+00 -0.2446075070112E+01  0.0000000000000E+00
 0.1410337351215E+00 -0.2372187279840E+01  0.0000000000000E+00
 0.1422262848245E+00 -0.2298490657320E+01  0.0000000000000E+00
 0.1436060661727E+00 -0.2225016461099E+01  0.0000000000000E+00
 0.1451745557039E+00 -0.2151800932726E+01  0.0000000000000E+00
 0.1469379201159E+00 -0.2078888897200E+01  0.0000000000000E+00
 0.1488985335956E+00 -0.2006321885006E+01  0.0000000000000E+00
 0.1510443019137E+00 -0.1934114136231E+01  0.0000000000000E+00
 0.1533662062284E+00 -0.1862280577609E+01  0.0000000000000E+00
 0.1558599196680E+00 -0.1790842988921E+01  0.0000000000000E+00
 0.1585253006374E+00 -0.1719832104274E+01  0.0000000000000E+00
 0.1613664034520E+00 -0.1649290807107E+01  0.0000000000000E+00
 0.1643919978645E+00 -0.1579279566112E+01  0.0000000000000E+00
 0.1676168913382E+00 -0.1509882833477E+01  0.0000000000000E+00
 0.1710640969698E+00 -0.1441228081433E+01  0.0000000000000E+00
 0.1747695543587E+00 -0.1373508387609E+01  0.0000000000000E+00
 0.1650200839071E+00 -0.4229735553566E+01  0.0000000000000E+00
 0.1650401677963E+00 -0.4155426524821E+01  0.0000000000000E+00
 0.1650602517234E+00 -0.4081117356029E+01  0.0000000000000E+00
 0.1650803356679E+00 -0.4006808122644E+01  0.0000000000000E+00
 0.1651004195859E+00 -0.3932498987284E+01  0.0000000000000E+00
 0.1651205035002E+00 -0.3858189865866E+01  0.0000000000000E+00
 0.1651405874170E+00 -0.3783880735006E+01  0.0000000000000E+00
 0.1651606713369E+00 -0.3709571592933E+01  0.0000000000000E+00
 0.1651807552551E+00 -0.3635262456702E+01  0.0000000000000E+00
 0.1652008391737E+00 -0.3560953319452E+01  0.0000000000000E+00
 0.1652209231288E+00 -0.3486644046916E+01  0.0000000000000E+00
 0.1652410070211E+00 -0.3412335006736E+01  0.0000000000000E+00
 0.1652610909732E+00 -0.3338025745277E+01  0.0000000000000E+00
 0.1652811752214E+00 -0.3263715388287E+01  0.0000000000000E+00
 0.1653012588054E+00 -0.3189407488756E+01  0.0000000000000E+00
 0.1653213426681E+00 -0.3115098557982E+01  0.0000000000000E+00
 0.1653414265882E+00 -0.3040789415173E+01  0.0000000000000E+00
 0.1653615104974E+00 -0.2966480312253E+01  0.0000000000000E+00
 0.1653815943807E+00 -0.2892171305523E+01  0.0000000000000E+00
 0.1654139095870E+00 -0.2817862331218E+01  0.0000000000000E+00
 0.1655326179762E+00 -0.2743556861706E+01  0.0000000000000E+00
 0.1658182278219E+00 -0.2669271678356E+01  0.0000000000000E+00
 0.1663191110588E+00 -0.2595038569871E+01  0.0000000000000E+00
 0.1670542288993E+00 -0.2520895838369E+01  0.0000000000000E+00
 0.1680257221299E+00 -0.2446880202634E+01  0.0000000000000E+00
 0.1692292417891E+00 -0.2373024617165E+01  0.0000000000000E+00
 0.1706598691281E+00 -0.2299360199403E+01  0.0000000000000E+00
 0.1723151744417E+00 -0.2225918208017E+01  0.0000000000000E+00
 0.1741969295774E+00 -0.2152734884404E+01  0.0000000000000E+00
 0.1763125345726E+00 -0.2079855053562E+01  0.0000000000000E+00
 0.1786648384501E+00 -0.2007320246109E+01  0.0000000000000E+00
 0.1812393281348E+00 -0.1935144702143E+01  0.0000000000000E+00
 0.1840251810165E+00 -0.1863343348367E+01  0.0000000000000E+00
 0.1870172048494E+00 -0.1791937964537E+01  0.0000000000000E+00
 0.1902152297195E+00 -0.1720959284752E+01  0.0000000000000E+00
 0.1936241208052E+00 -0.1650450192432E+01  0.0000000000000E+00
 0.1972544018134E+00 -0.1580471156033E+01  0.0000000000000E+00
 0.2011238416948E+00 -0.1511106628163E+01  0.0000000000000E+00
 0.2052600561778E+00 -0.1442484080152E+01  0.0000000000000E+00
 0.2097061727783E+00 -0.1374796590029E+01  0.0000000000000E+00
 0.1925228353624E+00 -0.4229773600784E+01  0.0000000000000E+00
 0.1925456707045E+00 -0.4155502619222E+01  0.0000000000000E+00
 0.1925685060895E+00 -0.4081231497687E+01  0.0000000000000E+00
 0.1925913414945E+00 -0.4006960311591E+01  0.0000000000000E+00
 0.1926141768693E+00 -0.3932689223469E+01  0.0000000000000E+00
 0.1926370122398E+00 -0.3858418149282E+01  0.0000000000000E+00
 0.1926598476132E+00 -0.3784147065658E+01  0.0000000000000E+00
 0.1926826829901E+00 -0.3709875970828E+01  0.0000000000000E+00
 0.1927055183652E+00 -0.3635604881835E+01  0.0000000000000E+00
 0.1927283537406E+00 -0.3561333791825E+01  0.0000000000000E+00
 0.1927511891575E+00 -0.3487062566598E+01  0.0000000000000E+00
 0.1927740245031E+00 -0.3412791573608E+01  0.0000000000000E+00
 0.1927968599166E+00 -0.3338520359451E+01  0.0000000000000E+00
 0.1928196956668E+00 -0.3264248050325E+01  0.0000000000000E+00
 0.1928425306619E+00 -0.3189978197401E+01  0.0000000000000E+00
 0.1928653659738E+00 -0.3115707313761E+01  0.0000000000000E+00
 0.1928882013509E+00 -0.3041436218193E+01  0.0000000000000E+00
 0.1929110367158E+00 -0.2967165162496E+01  0.0000000000000E+00
 0.1929338720510E+00 -0.2892894202938E+01  0.0000000000000E+00
 0.1929709772629E+00 -0.2818623275814E+01  0.0000000000000E+00
 0.1931088745236E+00 -0.2744355853266E+01  0.0000000000000E+00
 0.1934414901538E+00 -0.2670108716509E+01  0.0000000000000E+00
 0.1940252580734E+00 -0.2595913654441E+01  0.0000000000000E+00
 0.1948822996948E+00 -0.2521808969312E+01  0.0000000000000E+00
 0.1960151126007E+00 -0.2447831379984E+01  0.0000000000000E+00
 0.1974186230017E+00 -0.2374013841021E+01  0.0000000000000E+00
 0.1990870923602E+00 -0.2300387469712E+01  0.0000000000000E+00
 0.2010176860176E+00 -0.2226983524869E+01  0.0000000000000E+00
 0.2032124711323E+00 -0.2153838247711E+01  0.0000000000000E+00
 0.2056800810808E+00 -0.2080996463236E+01  0.0000000000000E+00
 0.2084238397212E+00 -0.2008499702214E+01  0.0000000000000E+00
 0.2114268151323E+00 -0.1936362204762E+01  0.0000000000000E+00
 0.2146763809363E+00 -0.1864598897542E+01  0.0000000000000E+00
 0.2181664795136E+00 -0.1793231560282E+01  0.0000000000000E+00
 0.2218969126310E+00 -0.1722290927072E+01  0.0000000000000E+00
 0.2258733563306E+00 -0.1651819881312E+01  0.0000000000000E+00
 0.2301080882744E+00 -0.1581878891174E+01  0.0000000000000E+00
 0.2346218388973E+00 -0.1512552409764E+01  0.0000000000000E+00
 0.2394468265655E+00 -0.1443967907350E+01  0.0000000000000E+00
 0.2446333667075E+00 -0.1376318462430E+01  0.0000000000000E+00
 0.2200253125104E+00 -0.4229817482990E+01  0.0000000000000E+00
 0.2200506249983E+00 -0.4155590383597E+01  0.0000000000000E+00
 0.2200759375338E+00 -0.4081363144312E+01  0.0000000000000E+00
 0.2201012500914E+00 -0.4007135840505E+01  0.0000000000000E+00
 0.2201265626155E+00 -0.3932908634614E+01  0.0000000000000E+00
 0.2201518751349E+00 -0.3858681442649E+01  0.0000000000000E+00
 0.2201771876576E+00 -0.3784454241253E+01  0.0000000000000E+00
 0.2202025001840E+00 -0.3710227028657E+01  0.0000000000000E+00
 0.2202278127085E+00 -0.3635999821897E+01  0.0000000000000E+00
 0.2202531252333E+00 -0.3561772614118E+01  0.0000000000000E+00
 0.2202784378042E+00 -0.3487545271203E+01  0.0000000000000E+00
 0.2203037502959E+00 -0.3413318160387E+01  0.0000000000000E+00
 0.2203290628630E+00 -0.3339090828536E+01  0.0000000000000E+00
 0.2203543758033E+00 -0.3264862402362E+01  0.0000000000000E+00
 0.2203796879065E+00 -0.3190636430938E+01  0.0000000000000E+00
 0.2204050003610E+00 -0.3116409429408E+01  0.0000000000000E+00
 0.2204303128877E+00 -0.3042182216076E+01  0.0000000000000E+00
 0.2204556254008E+00 -0.2967955042590E+01  0.0000000000000E+00
 0.2204809378811E+00 -0.2893727965187E+01  0.0000000000000E+00
 0.2205225587916E+00 -0.2819500920227E+01  0.0000000000000E+00
 0.2206793706184E+00 -0.2745277379593E+01  0.0000000000000E+00
 0.2210587177307E+00 -0.2671074124321E+01  0.0000000000000E+00
 0.2217250960322E+00 -0.2596922943538E+01  0.0000000000000E+00
 0.2227037871342E+00 -0.2522862139640E+01  0.0000000000000E+00
 0.2239976454152E+00 -0.2448928431584E+01  0.0000000000000E+00
 0.2256008722577E+00 -0.2375154774008E+01  0.0000000000000E+00
 0.2275069093357E+00 -0.2301572284024E+01  0.0000000000000E+00
 0.2297125170368E+00 -0.2228212220609E+01  0.0000000000000E+00
 0.2322200578312E+00 -0.2155110824777E+01  0.0000000000000E+00
 0.2350393984347E+00 -0.2082312921528E+01  0.0000000000000E+00
 0.2381743375395E+00 -0.2009860041806E+01  0.0000000000000E+00
 0.2416055243783E+00 -0.1937766425747E+01  0.0000000000000E+00
 0.2453185288059E+00 -0.1866046999972E+01  0.0000000000000E+00
 0.2493064278290E+00 -0.1794723544173E+01  0.0000000000000E+00
 0.2535689948955E+00 -0.1723826792427E+01  0.0000000000000E+00
 0.2581127169110E+00 -0.1653399628115E+01  0.0000000000000E+00
 0.2629516254948E+00 -0.1583502519080E+01  0.0000000000000E+00
 0.2681094125627E+00 -0.1514219919004E+01  0.0000000000000E+00
 0.2736228991260E+00 -0.1445679296927E+01  0.0000000000000E+00
 0.2795495885227E+00 -0.1378073731891E+01  0.0000000000000E+00
 0.2475274766539E+00 -0.4229867192326E+01  0.0000000000000E+00
 0.2475549532832E+00 -0.4155689802224E+01  0.0000000000000E+00
 0.2475824299644E+00 -0.4081512272324E+01  0.0000000000000E+00
 0.2476099066694E+00 -0.4007334677945E+01  0.0000000000000E+00
 0.2476373833382E+00 -0.3933157181417E+01  0.0000000000000E+00
 0.2476648600018E+00 -0.3858979698806E+01  0.0000000000000E+00
 0.2476923366689E+00 -0.3784802206770E+01  0.0000000000000E+00
 0.2477198133402E+00 -0.3710624703541E+01  0.0000000000000E+00
 0.2477472900093E+00 -0.3636447206144E+01  0.0000000000000E+00
 0.2477747666787E+00 -0.3562269707729E+01  0.0000000000000E+00
 0.2478022433982E+00 -0.3488092074268E+01  0.0000000000000E+00
 0.2478297200318E+00 -0.3413914672752E+01  0.0000000000000E+00
 0.2478571967472E+00 -0.3339737050347E+01  0.0000000000000E+00
 0.2478846738677E+00 -0.3265558334353E+01  0.0000000000000E+00
 0.2479121500795E+00 -0.3191382071466E+01  0.0000000000000E+00
 0.2479396266726E+00 -0.3117204779162E+01  0.0000000000000E+00
 0.2479671033442E+00 -0.3043027275197E+01  0.0000000000000E+00
 0.2479945800010E+00 -0.2968849811053E+01  0.0000000000000E+00
 0.2480220566222E+00 -0.2894672442926E+01  0.0000000000000E+00
 0.2480678802269E+00 -0.2820495107254E+01  0.0000000000000E+00
 0.2482432936180E+00 -0.2746321275624E+01  0.0000000000000E+00
 0.2486690592144E+00 -0.2672167728870E+01  0.0000000000000E+00
 0.2494177349024E+00 -0.2598066256378E+01  0.0000000000000E+00
 0.2505177624914E+00 -0.2524055160710E+01  0.0000000000000E+00
 0.2519723531549E+00 -0.2450171160932E+01  0.0000000000000E+00
 0.2537749834465E+00 -0.2376447211761E+01  0.0000000000000E+00
 0.2559182752537E+00 -0.2302914430113E+01  0.0000000000000E+00
 0.2583985840084E+00 -0.2229604075153E+01  0.0000000000000E+00
 0.2612185674944E+00 -0.2156552387660E+01  0.0000000000000E+00
 0.2643893257669E+00 -0.2083804192633E+01  0.0000000000000E+00
 0.2679151323508E+00 -0.2011401021221E+01  0.0000000000000E+00
 0.2717742176326E+00 -0.1939357113576E+01  0.0000000000000E+00
 0.2759503476999E+00 -0.1867687396273E+01  0.0000000000000E+00
 0.2804357341858E+00 -0.1796413648963E+01  0.0000000000000E+00
 0.2852301222195E+00 -0.1725566605714E+01  0.0000000000000E+00
 0.2903408095704E+00 -0.1655189149877E+01  0.0000000000000E+00
 0.2957835818175E+00 -0.1585341748928E+01  0.0000000000000E+00
 0.3015850923532E+00 -0.1516108857198E+01  0.0000000000000E+00
 0.3077867648430E+00 -0.1447617942338E+01  0.0000000000000E+00
 0.3144532905308E+00 -0.1380062084006E+01  0.0000000000000E+00
 0.2750292892693E+00 -0.4229922719906E+01  0.0000000000000E+00
 0.2750585785124E+00 -0.4155800857335E+01  0.0000000000000E+00
 0.2750878678108E+00 -0.4081678855069E+01  0.0000000000000E+00
 0.2751171571346E+00 -0.4007556788374E+01  0.0000000000000E+00
 0.2751464464198E+00 -0.3933434819456E+01  0.0000000000000E+00
 0.2751757356995E+00 -0.3859312864444E+01  0.0000000000000E+00
 0.2752050249829E+00 -0.3785190900015E+01  0.0000000000000E+00
 0.2752343142707E+00 -0.3711068924401E+01  0.0000000000000E+00
 0.2752636035562E+00 -0.3636946954615E+01  0.0000000000000E+00
 0.2752928928421E+00 -0.3562824983812E+01  0.0000000000000E+00
 0.2753221821814E+00 -0.3488702878064E+01  0.0000000000000E+00
 0.2753514714290E+00 -0.3414581004086E+01  0.0000000000000E+00
 0.2753807607639E+00 -0.3340458909386E+01  0.0000000000000E+00
 0.2754100505306E+00 -0.3266335721915E+01  0.0000000000000E+00
 0.2754393393287E+00 -0.3192214985714E+01  0.0000000000000E+00
 0.2754686285332E+00 -0.3118093220867E+01  0.0000000000000E+00
 0.2754979178213E+00 -0.3043971244518E+01  0.0000000000000E+00
 0.2755272070937E+00 -0.2969849307959E+01  0.0000000000000E+00
 0.2755564963282E+00 -0.2895727467347E+01  0.0000000000000E+00
 0.2756061710997E+00 -0.2821605659200E+01  0.0000000000000E+00
 0.2757998345302E+00 -0.2747487354780E+01  0.0000000000000E+00
 0.2762716670907E+00 -0.2673389334693E+01  0.0000000000000E+00
 0.2771022886488E+00 -0.2599343388614E+01  0.0000000000000E+00
 0.2783233012108E+00 -0.2525387819291E+01  0.0000000000000E+00
 0.2799382727445E+00 -0.2451559345910E+01  0.0000000000000E+00
 0.2819399549741E+00 -0.2377890923281E+01  0.0000000000000E+00
 0.2843201500017E+00 -0.2304413668096E+01  0.0000000000000E+00
 0.2870748083025E+00 -0.2231158839731E+01  0.0000000000000E+00
 0.2902068829753E+00 -0.2158162678704E+01  0.0000000000000E+00
 0.2937287074149E+00 -0.2085470010015E+01  0.0000000000000E+00
 0.2976450299774E+00 -0.2013122365035E+01  0.0000000000000E+00
 0.3019316622029E+00 -0.1941133983942E+01  0.0000000000000E+00
 0.3065705664120E+00 -0.1869519793253E+01  0.0000000000000E+00
 0.3115530888646E+00 -0.1798301572579E+01  0.0000000000000E+00
 0.3168789463712E+00 -0.1727510055970E+01  0.0000000000000E+00
 0.3225562475650E+00 -0.1657188126752E+01  0.0000000000000E+00
 0.3286025319875E+00 -0.1587396251987E+01  0.0000000000000E+00
 0.3350474145034E+00 -0.1518218886732E+01  0.0000000000000E+00
 0.3419369214426E+00 -0.1449783497085E+01  0.0000000000000E+00
 0.3493429319505E+00 -0.1382283163393E+01  0.0000000000000E+00
 0.3025307120396E+00 -0.4229984055830E+01  0.0000000000000E+00
 0.3025614240518E+00 -0.4155923529129E+01  0.0000000000000E+00
 0.3025921361219E+00 -0.4081862862849E+01  0.0000000000000E+00
 0.3026228482187E+00 -0.4007802132191E+01  0.0000000000000E+00
 0.3026535602750E+00 -0.3933741499231E+01  0.0000000000000E+00
 0.3026842723255E+00 -0.3859680880166E+01  0.0000000000000E+00
 0.3027149843799E+00 -0.3785620251690E+01  0.0000000000000E+00
 0.3027456964389E+00 -0.3711559612040E+01  0.0000000000000E+00
 0.3027764084955E+00 -0.3637498978211E+01  0.0000000000000E+00
 0.3028071205526E+00 -0.3563438343367E+01  0.0000000000000E+00
 0.3028378326656E+00 -0.3489377573690E+01  0.0000000000000E+00
 0.3028685446825E+00 -0.3415317035591E+01  0.0000000000000E+00
 0.3028992567909E+00 -0.3341256276953E+01  0.0000000000000E+00
 0.3029299693521E+00 -0.3267194426448E+01  0.0000000000000E+00
 0.3029606808976E+00 -0.3193135025185E+01  0.0000000000000E+00
 0.3029913928693E+00 -0.3119074596126E+01  0.0000000000000E+00
 0.3030221049286E+00 -0.3045013955741E+01  0.0000000000000E+00
 0.3030528169715E+00 -0.2970953355113E+01  0.0000000000000E+00
 0.3030835289746E+00 -0.2896892850352E+01  0.0000000000000E+00
 0.3031366650683E+00 -0.2822832378069E+01  0.0000000000000E+00
 0.3033481886970E+00 -0.2748775409164E+01  0.0000000000000E+00
 0.3038656983863E+00 -0.2674738723994E+01  0.0000000000000E+00
 0.3047778759835E+00 -0.2600754112549E+01  0.0000000000000E+00
 0.3061194836908E+00 -0.2526859877786E+01  0.0000000000000E+00
 0.3078944462696E+00 -0.2453092739024E+01  0.0000000000000E+00
 0.3100947906140E+00 -0.2379485651171E+01  0.0000000000000E+00
 0.3127114990421E+00 -0.2306069730678E+01  0.0000000000000E+00
 0.3157401170710E+00 -0.2232876237149E+01  0.0000000000000E+00
 0.3191838931162E+00 -0.2159941410816E+01  0.0000000000000E+00
 0.3230563939122E+00 -0.2087310076679E+01  0.0000000000000E+00
 0.3273628426451E+00 -0.2015023766356E+01  0.0000000000000E+00
 0.3320766320079E+00 -0.1943096720051E+01  0.0000000000000E+00
 0.3371779205545E+00 -0.1871543864221E+01  0.0000000000000E+00
 0.3426571891719E+00 -0.1800386978427E+01  0.0000000000000E+00
 0.3485141263518E+00 -0.1729656796705E+01  0.0000000000000E+00
 0.3547576515920E+00 -0.1659396202350E+01  0.0000000000000E+00
 0.3614070583991E+00 -0.1589665661967E+01  0.0000000000000E+00
 0.3684949231053E+00 -0.1520549631415E+01  0.0000000000000E+00
 0.3760718747160E+00 -0.1452175575078E+01  0.0000000000000E+00
 0.3842169802741E+00 -0.1384736574064E+01  0.0000000000000E+00
 0.3300317066083E+00 -0.4230051189169E+01  0.0000000000000E+00
 0.3300634131883E+00 -0.4156057795746E+01  0.0000000000000E+00
 0.3300951198281E+00 -0.4082064262871E+01  0.0000000000000E+00
 0.3301268264954E+00 -0.4008070665678E+01  0.0000000000000E+00
 0.3301585331209E+00 -0.3934077166092E+01  0.0000000000000E+00
 0.3301902397405E+00 -0.3860083680390E+01  0.0000000000000E+00
 0.3302219463641E+00 -0.3786090185285E+01  0.0000000000000E+00
 0.3302536529925E+00 -0.3712096679016E+01  0.0000000000000E+00
 0.3302853596183E+00 -0.3638103178563E+01  0.0000000000000E+00
 0.3303170662447E+00 -0.3564109677096E+01  0.0000000000000E+00
 0.3303487729287E+00 -0.3490116040918E+01  0.0000000000000E+00
 0.3303804795136E+00 -0.3416122636108E+01  0.0000000000000E+00
 0.3304121861929E+00 -0.3342129010959E+01  0.0000000000000E+00
 0.3304438933397E+00 -0.3268134294932E+01  0.0000000000000E+00
 0.3304755994379E+00 -0.3194142025928E+01  0.0000000000000E+00
 0.3305073059761E+00 -0.3120148730060E+01  0.0000000000000E+00
 0.3305390126048E+00 -0.3046155223056E+01  0.0000000000000E+00
 0.3305707192164E+00 -0.2972161755774E+01  0.0000000000000E+00
 0.3306024257871E+00 -0.2898168384272E+01  0.0000000000000E+00
 0.3306585950016E+00 -0.2824175045263E+01  0.0000000000000E+00
 0.3308875506280E+00 -0.2750185209249E+01  0.0000000000000E+00
 0.3314503092469E+00 -0.2676215656314E+01  0.0000000000000E+00
 0.3324436146825E+00 -0.2602298176796E+01  0.0000000000000E+00
 0.3339053893309E+00 -0.2528471073879E+01  0.0000000000000E+00
 0.3358399147463E+00 -0.2454771067025E+01  0.0000000000000E+00
 0.3382384929918E+00 -0.2381231111256E+01  0.0000000000000E+00
 0.3410912866036E+00 -0.2307882322751E+01  0.0000000000000E+00
 0.3443934361388E+00 -0.2234755961370E+01  0.0000000000000E+00
 0.3481484853320E+00 -0.2161888267029E+01  0.0000000000000E+00
 0.3523712342570E+00 -0.2089324064728E+01  0.0000000000000E+00
 0.3570673809279E+00 -0.2017104886358E+01  0.0000000000000E+00
 0.3622078991912E+00 -0.1945244972146E+01  0.0000000000000E+00
 0.3677711438344E+00 -0.1873759248489E+01  0.0000000000000E+00
 0.3737467303719E+00 -0.1802669494891E+01  0.0000000000000E+00
 0.3801343189772E+00 -0.1732006445373E+01  0.0000000000000E+00
 0.3869436400121E+00 -0.1661812983195E+01  0.0000000000000E+00
 0.3941957409519E+00 -0.1592149574463E+01  0.0000000000000E+00
 0.4019261595902E+00 -0.1523100675912E+01  0.0000000000000E+00
 0.4101901276194E+00 -0.1454793750053E+01  0.0000000000000E+00
 0.4190738999739E+00 -0.1387421878824E+01  0.0000000000000E+00
 0.3575322350942E+00 -0.4230124108012E+01  0.0000000000000E+00
 0.3575644701596E+00 -0.4156203633367E+01  0.0000000000000E+00
 0.3575967052858E+00 -0.4082283019407E+01  0.0000000000000E+00
 0.3576289404400E+00 -0.4008362341192E+01  0.0000000000000E+00
 0.3576611755516E+00 -0.3934441760489E+01  0.0000000000000E+00
 0.3576934106573E+00 -0.3860521193655E+01  0.0000000000000E+00
 0.3577256457670E+00 -0.3786600617428E+01  0.0000000000000E+00
 0.3577578808816E+00 -0.3712680030048E+01  0.0000000000000E+00
 0.3577901159936E+00 -0.3638759448479E+01  0.0000000000000E+00
 0.3578223511061E+00 -0.3564838865896E+01  0.0000000000000E+00
 0.3578545862773E+00 -0.3490918148735E+01  0.0000000000000E+00
 0.3578868213477E+00 -0.3416997662714E+01  0.0000000000000E+00
 0.3579190565140E+00 -0.3343076956571E+01  0.0000000000000E+00
 0.3579512921557E+00 -0.3269155160625E+01  0.0000000000000E+00
 0.3579835267312E+00 -0.3195235809291E+01  0.0000000000000E+00
 0.3580157617542E+00 -0.3121315432104E+01  0.0000000000000E+00
 0.3580479968691E+00 -0.3047394843990E+01  0.0000000000000E+00
 0.3580802319667E+00 -0.2973474295559E+01  0.0000000000000E+00
 0.3581124670225E+00 -0.2899553842813E+01  0.0000000000000E+00
 0.3581712032753E+00 -0.2825633422575E+01  0.0000000000000E+00
 0.3584171248179E+00 -0.2751716504917E+01  0.0000000000000E+00
 0.3590246662867E+00 -0.2677819869626E+01  0.0000000000000E+00
 0.3600986334791E+00 -0.2603975307419E+01  0.0000000000000E+00
 0.3616801089837E+00 -0.2530221121722E+01  0.0000000000000E+00
 0.3637737311460E+00 -0.2456594032159E+01  0.0000000000000E+00
 0.3663700771977E+00 -0.2383126993868E+01  0.0000000000000E+00
 0.3694584898948E+00 -0.2309851122740E+01  0.0000000000000E+00
 0.3730337048331E+00 -0.2236797678909E+01  0.0000000000000E+00
 0.3770995610680E+00 -0.2164002901948E+01  0.0000000000000E+00
 0.3816720920128E+00 -0.2091511616858E+01  0.0000000000000E+00
 0.3867574705075E+00 -0.2019365355824E+01  0.0000000000000E+00
 0.3923242515520E+00 -0.1947578359104E+01  0.0000000000000E+00
 0.3983489861684E+00 -0.1876165553022E+01  0.0000000000000E+00
 0.4048204244990E+00 -0.1805148717026E+01  0.0000000000000E+00
 0.4117381983987E+00 -0.1734558585119E+01  0.0000000000000E+00
 0.4191128490940E+00 -0.1664438040521E+01  0.0000000000000E+00
 0.4269671780319E+00 -0.1594847548798E+01  0.0000000000000E+00
 0.4353396844610E+00 -0.1525871567639E+01  0.0000000000000E+00
 0.4442902027733E+00 -0.1457637557515E+01  0.0000000000000E+00
 0.4539121757881E+00 -0.1390338601268E+01  0.0000000000000E+00
 0.3850322601332E+00 -0.4230202799491E+01  0.0000000000000E+00
 0.3850645202376E+00 -0.4156361016254E+01  0.0000000000000E+00
 0.3850967804028E+00 -0.4082519093852E+01  0.0000000000000E+00
 0.3851290405960E+00 -0.4008677107263E+01  0.0000000000000E+00
 0.3851613007467E+00 -0.3934835218081E+01  0.0000000000000E+00
 0.3851935608914E+00 -0.3860993342754E+01  0.0000000000000E+00
 0.3852258210401E+00 -0.3787151458044E+01  0.0000000000000E+00
 0.3852580811937E+00 -0.3713309562193E+01  0.0000000000000E+00
 0.3852903413448E+00 -0.3639467672146E+01  0.0000000000000E+00
 0.3853226014963E+00 -0.3565625781087E+01  0.0000000000000E+00
 0.3853548617065E+00 -0.3491783755593E+01  0.0000000000000E+00
 0.3853871218159E+00 -0.3417941960993E+01  0.0000000000000E+00
 0.3854193820213E+00 -0.3344099946505E+01  0.0000000000000E+00
 0.3854516427024E+00 -0.3270256843375E+01  0.0000000000000E+00
 0.3854839023165E+00 -0.3196416182253E+01  0.0000000000000E+00
 0.3855161623784E+00 -0.3122574496372E+01  0.0000000000000E+00
 0.3855484225323E+00 -0.3048732599788E+01  0.0000000000000E+00
 0.3855806826689E+00 -0.2974890742843E+01  0.0000000000000E+00
 0.3856129427638E+00 -0.2901048981483E+01  0.0000000000000E+00
 0.3856737426085E+00 -0.2827207252647E+01  0.0000000000000E+00
 0.3859361266252E+00 -0.2753369025944E+01  0.0000000000000E+00
 0.3865879475086E+00 -0.2679551080838E+01  0.0000000000000E+00
 0.3877420730279E+00 -0.2605785208455E+01  0.0000000000000E+00
 0.3894427459622E+00 -0.2532109712488E+01  0.0000000000000E+00
 0.3916949614475E+00 -0.2458561312728E+01  0.0000000000000E+00
 0.3944885718833E+00 -0.2385172964444E+01  0.0000000000000E+00
 0.3978121002474E+00 -0.2311975783213E+01  0.0000000000000E+00
 0.4016598771719E+00 -0.2239001029465E+01  0.0000000000000E+00
 0.4060360370360E+00 -0.2166284942405E+01  0.0000000000000E+00
 0.4109578465920E+00 -0.2093872347033E+01  0.0000000000000E+00
 0.4164319535044E+00 -0.2021804775852E+01  0.0000000000000E+00
 0.4224244939258E+00 -0.1950096469153E+01  0.0000000000000E+00
 0.4289102151131E+00 -0.1878762353182E+01  0.0000000000000E+00
 0.4358770018369E+00 -0.1807824207326E+01  0.0000000000000E+00
 0.4433244576339E+00 -0.1737312765568E+01  0.0000000000000E+00
 0.4512639345954E+00 -0.1667270911087E+01  0.0000000000000E+00
 0.4597199881440E+00 -0.1597759108864E+01  0.0000000000000E+00
 0.4687340789769E+00 -0.1528861817618E+01  0.0000000000000E+00
 0.4783706442004E+00 -0.1460706495619E+01  0.0000000000000E+00
 0.4887303145127E+00 -0.1393486226685E+01  0.0000000000000E+00
 0.4125317444436E+00 -0.4230287249750E+01  0.0000000000000E+00
 0.4125634888589E+00 -0.4156529916697E+01  0.0000000000000E+00
 0.4125952333340E+00 -0.4082772444637E+01  0.0000000000000E+00
 0.4126269778367E+00 -0.4009014908464E+01  0.0000000000000E+00
 0.4126587222975E+00 -0.3935257469588E+01  0.0000000000000E+00
 0.4126904667524E+00 -0.3861500044550E+01  0.0000000000000E+00
 0.4127222112113E+00 -0.3787742610140E+01  0.0000000000000E+00
 0.4127539556750E+00 -0.3713985164601E+01  0.0000000000000E+00
 0.4127857001362E+00 -0.3640227724860E+01  0.0000000000000E+00
 0.4128174445979E+00 -0.3566470284108E+01  0.0000000000000E+00
 0.4128491891173E+00 -0.3492712709074E+01  0.0000000000000E+00
 0.4128809335375E+00 -0.3418955364671E+01  0.0000000000000E+00
 0.4129126780522E+00 -0.3345197800631E+01  0.0000000000000E+00
 0.4129444230349E+00 -0.3271439149195E+01  0.0000000000000E+00
 0.4129761669678E+00 -0.3197682936973E+01  0.0000000000000E+00
 0.4130079113412E+00 -0.3123925701164E+01  0.0000000000000E+00
 0.4130396558052E+00 -0.3050168254893E+01  0.0000000000000E+00
 0.4130714002522E+00 -0.2976410848217E+01  0.0000000000000E+00
 0.4131031446580E+00 -0.2902653537015E+01  0.0000000000000E+00
 0.4131654673669E+00 -0.2828896258356E+01  0.0000000000000E+00
 0.4134437731345E+00 -0.2755142481348E+01  0.0000000000000E+00
 0.4141393327177E+00 -0.2681408985113E+01  0.0000000000000E+00
 0.4153730758553E+00 -0.2607727561214E+01  0.0000000000000E+00
 0.4171924055158E+00 -0.2534136513627E+01  0.0000000000000E+00
 0.4196026736245E+00 -0.2460672562328E+01  0.0000000000000E+00
 0.4225930077475E+00 -0.2387368662724E+01  0.0000000000000E+00
 0.4261511110864E+00 -0.2314255930053E+01  0.0000000000000E+00
 0.4302709093080E+00 -0.2241365625067E+01  0.0000000000000E+00
 0.4349568321173E+00 -0.2168733986572E+01  0.0000000000000E+00
 0.4402273796064E+00 -0.2096405839569E+01  0.0000000000000E+00
 0.4460896742614E+00 -0.2024422716902E+01  0.0000000000000E+00
 0.4525074333876E+00 -0.1952798858897E+01  0.0000000000000E+00
 0.4594536004770E+00 -0.1881549191718E+01  0.0000000000000E+00
 0.4669151949288E+00 -0.1810695494684E+01  0.0000000000000E+00
 0.4748917919615E+00 -0.1740268501757E+01  0.0000000000000E+00
 0.4833955545316E+00 -0.1670311096074E+01  0.0000000000000E+00
 0.4924527920416E+00 -0.1600883741987E+01  0.0000000000000E+00
 0.5021079266308E+00 -0.1532070899318E+01  0.0000000000000E+00
 0.5124299981347E+00 -0.1464000023979E+01  0.0000000000000E+00
 0.5235268251251E+00 -0.1396864200833E+01  0.0000000000000E+00
 0.4400306510556E+00 -0.4230377443976E+01  0.0000000000000E+00
 0.4400613020839E+00 -0.4156710305068E+01  0.0000000000000E+00
 0.4400919531699E+00 -0.4083043027324E+01  0.0000000000000E+00
 0.4401226042826E+00 -0.4009375685544E+01  0.0000000000000E+00
 0.4401532553548E+00 -0.3935708440943E+01  0.0000000000000E+00
 0.4401839064213E+00 -0.3862041210162E+01  0.0000000000000E+00
 0.4402145574917E+00 -0.3788373970022E+01  0.0000000000000E+00
 0.4402452085667E+00 -0.3714706718766E+01  0.0000000000000E+00
 0.4402758596393E+00 -0.3641039473300E+01  0.0000000000000E+00
 0.4403065107123E+00 -0.3567372226825E+01  0.0000000000000E+00
 0.4403371618411E+00 -0.3493704846233E+01  0.0000000000000E+00
 0.4403678128741E+00 -0.3420037695989E+01  0.0000000000000E+00
 0.4403984639983E+00 -0.3346370326377E+01  0.0000000000000E+00
 0.4404291155744E+00 -0.3272701870698E+01  0.0000000000000E+00
 0.4404597661369E+00 -0.3199035851251E+01  0.0000000000000E+00
 0.4404904171248E+00 -0.3125368809468E+01  0.0000000000000E+00
 0.4405210682001E+00 -0.3051701557481E+01  0.0000000000000E+00
 0.4405517192589E+00 -0.2978034345040E+01  0.0000000000000E+00
 0.4405823702781E+00 -0.2904367227957E+01  0.0000000000000E+00
 0.4406456381536E+00 -0.2830700143436E+01  0.0000000000000E+00
 0.4409392879798E+00 -0.2757036560052E+01  0.0000000000000E+00
 0.4416780085804E+00 -0.2683393256561E+01  0.0000000000000E+00
 0.4429907916617E+00 -0.2609802024991E+01  0.0000000000000E+00
 0.4449282003801E+00 -0.2536301169624E+01  0.0000000000000E+00
 0.4474959434490E+00 -0.2462927410630E+01  0.0000000000000E+00
 0.4506824236002E+00 -0.2389713703565E+01  0.0000000000000E+00
 0.4544745242614E+00 -0.2316691163306E+01  0.0000000000000E+00
 0.4588657661314E+00 -0.2243891050946E+01  0.0000000000000E+00
 0.4638608742442E+00 -0.2171349604868E+01  0.0000000000000E+00
 0.4694795820315E+00 -0.2099111650073E+01  0.0000000000000E+00
 0.4757294867991E+00 -0.2027218719768E+01  0.0000000000000E+00
 0.4825718870042E+00 -0.1955685054318E+01  0.0000000000000E+00
 0.4899779223743E+00 -0.1884525579796E+01  0.0000000000000E+00
 0.4979337469374E+00 -0.1813762075454E+01  0.0000000000000E+00
 0.5064389075941E+00 -0.1743425275228E+01  0.0000000000000E+00
 0.5155063781664E+00 -0.1673558062210E+01  0.0000000000000E+00
 0.5251642220414E+00 -0.1604220900080E+01  0.0000000000000E+00
 0.5354598227929E+00 -0.1535498249841E+01  0.0000000000000E+00
 0.5464668230032E+00 -0.1467517564884E+01  0.0000000000000E+00
 0.5583002291111E+00 -0.1400471931189E+01  0.0000000000000E+00
 0.4675289425592E+00 -0.4230473366311E+01  0.0000000000000E+00
 0.4675578850925E+00 -0.4156902149654E+01  0.0000000000000E+00
 0.4675868276804E+00 -0.4083330794340E+01  0.0000000000000E+00
 0.4676157702935E+00 -0.4009759375075E+01  0.0000000000000E+00
 0.4676447128684E+00 -0.3936188052861E+01  0.0000000000000E+00
 0.4676736554378E+00 -0.3862616744450E+01  0.0000000000000E+00
 0.4677025980109E+00 -0.3789045426691E+01  0.0000000000000E+00
 0.4677315405884E+00 -0.3715474097832E+01  0.0000000000000E+00
 0.4677604831636E+00 -0.3641902774755E+01  0.0000000000000E+00
 0.4677894257392E+00 -0.3568331450670E+01  0.0000000000000E+00
 0.4678183683676E+00 -0.3494759992643E+01  0.0000000000000E+00
 0.4678473109054E+00 -0.3421188764663E+01  0.0000000000000E+00
 0.4678762535293E+00 -0.3347617317602E+01  0.0000000000000E+00
 0.4679051965800E+00 -0.3274044785887E+01  0.0000000000000E+00
 0.4679341386736E+00 -0.3200474687233E+01  0.0000000000000E+00
 0.4679630811688E+00 -0.3126903567574E+01  0.0000000000000E+00
 0.4679920237465E+00 -0.3053332237984E+01  0.0000000000000E+00
 0.4680209663088E+00 -0.2979760947889E+01  0.0000000000000E+00
 0.4680499088336E+00 -0.2906189753027E+01  0.0000000000000E+00
 0.4681135067670E+00 -0.2832618590747E+01  0.0000000000000E+00
 0.4684218855411E+00 -0.2759050929060E+01  0.0000000000000E+00
 0.4692031520433E+00 -0.2685503546327E+01  0.0000000000000E+00
 0.4705943599415E+00 -0.2612008235077E+01  0.0000000000000E+00
 0.4726492325763E+00 -0.2538603299912E+01  0.0000000000000E+00
 0.4753738354481E+00 -0.2465325461211E+01  0.0000000000000E+00
 0.4787558464532E+00 -0.2392207674687E+01  0.0000000000000E+00
 0.4827813292485E+00 -0.2319281054835E+01  0.0000000000000E+00
 0.4874433995627E+00 -0.2246576863109E+01  0.0000000000000E+00
 0.4927470777613E+00 -0.2174131337442E+01  0.0000000000000E+00
 0.4987133306152E+00 -0.2101989302836E+01  0.0000000000000E+00
 0.5053502302475E+00 -0.2030192292885E+01  0.0000000000000E+00
 0.5126166562676E+00 -0.1958754547993E+01  0.0000000000000E+00
 0.5204819446400E+00 -0.1887690994141E+01  0.0000000000000E+00
 0.5289313840225E+00 -0.1817023410501E+01  0.0000000000000E+00
 0.5379644929975E+00 -0.1746782530989E+01  0.0000000000000E+00
 0.5475950562530E+00 -0.1677011238647E+01  0.0000000000000E+00
 0.5578528911642E+00 -0.1607769996440E+01  0.0000000000000E+00
 0.5687883427305E+00 -0.1539143266628E+01  0.0000000000000E+00
 0.5804796562961E+00 -0.1471258499918E+01  0.0000000000000E+00
 0.5930490261565E+00 -0.1404308783480E+01  0.0000000000000E+00
 0.4950265832471E+00 -0.4230575000136E+01  0.0000000000000E+00
 0.4950531664706E+00 -0.4157105417212E+01  0.0000000000000E+00
 0.4950797497441E+00 -0.4083635695824E+01  0.0000000000000E+00
 0.4951063330407E+00 -0.4010165910572E+01  0.0000000000000E+00
 0.4951329163023E+00 -0.3936696222237E+01  0.0000000000000E+00
 0.4951594995589E+00 -0.3863226547687E+01  0.0000000000000E+00
 0.4951860828189E+00 -0.3789756863802E+01  0.0000000000000E+00
 0.4952126660828E+00 -0.3716287168831E+01  0.0000000000000E+00
 0.4952392493447E+00 -0.3642817479635E+01  0.0000000000000E+00
 0.4952658326070E+00 -0.3569347789432E+01  0.0000000000000E+00
 0.4952924159176E+00 -0.3495877965472E+01  0.0000000000000E+00
 0.4953189991451E+00 -0.3422408371242E+01  0.0000000000000E+00
 0.4953455824518E+00 -0.3348938558232E+01  0.0000000000000E+00
 0.4953721661504E+00 -0.3275467662068E+01  0.0000000000000E+00
 0.4953987489699E+00 -0.3201999195603E+01  0.0000000000000E+00
 0.4954253321582E+00 -0.3128529709543E+01  0.0000000000000E+00
 0.4954519154225E+00 -0.3055060013843E+01  0.0000000000000E+00
 0.4954784986724E+00 -0.2981590357583E+01  0.0000000000000E+00
 0.4955050818880E+00 -0.2908120796426E+01  0.0000000000000E+00
 0.4955683590647E+00 -0.2834651267871E+01  0.0000000000000E+00
 0.4958908159768E+00 -0.2761185239330E+01  0.0000000000000E+00
 0.4967139775797E+00 -0.2687739488751E+01  0.0000000000000E+00
 0.4981829594999E+00 -0.2614345809188E+01  0.0000000000000E+00
 0.5003546452605E+00 -0.2541042505588E+01  0.0000000000000E+00
 0.5032354571473E+00 -0.2467866298547E+01  0.0000000000000E+00
 0.5068123482204E+00 -0.2394850143946E+01  0.0000000000000E+00
 0.5110705623679E+00 -0.2322025155875E+01  0.0000000000000E+00
 0.5160028103462E+00 -0.2249422596171E+01  0.0000000000000E+00
 0.5216144078554E+00 -0.2177078702290E+01  0.0000000000000E+00
 0.5279275550057E+00 -0.2105038299234E+01  0.0000000000000E+00
 0.5349507987347E+00 -0.2033342921007E+01  0.0000000000000E+00
 0.5426405998039E+00 -0.1962006808056E+01  0.0000000000000E+00
 0.5509644904148E+00 -0.1891044886262E+01  0.0000000000000E+00
 0.5599068938557E+00 -0.1820478934717E+01  0.0000000000000E+00
 0.5694673003911E+00 -0.1750339687312E+01  0.0000000000000E+00
 0.5796603055753E+00 -0.1680670027035E+01  0.0000000000000E+00
 0.5905174807764E+00 -0.1611530416097E+01  0.0000000000000E+00
 0.6020921324114E+00 -0.1543005318085E+01  0.0000000000000E+00
 0.6144671086049E+00 -0.1475222180869E+01  0.0000000000000E+00
 0.6277717915016E+00 -0.1408374092875E+01  0.0000000000000E+00
 0.5225235372561E+00 -0.4230682327857E+01  0.0000000000000E+00
 0.5225470744911E+00 -0.4157320072559E+01  0.0000000000000E+00
 0.5225706117705E+00 -0.4083957678999E+01  0.0000000000000E+00
 0.5225941490704E+00 -0.4010595221668E+01  0.0000000000000E+00
 0.5226176863392E+00 -0.3937232861114E+01  0.0000000000000E+00
 0.5226412236036E+00 -0.3863870514323E+01  0.0000000000000E+00
 0.5226647608710E+00 -0.3790508158210E+01  0.0000000000000E+00
 0.5226882981420E+00 -0.3717145791029E+01  0.0000000000000E+00
 0.5227118354111E+00 -0.3643783429614E+01  0.0000000000000E+00
 0.5227353726805E+00 -0.3570421067194E+01  0.0000000000000E+00
 0.5227589099928E+00 -0.3497058571211E+01  0.0000000000000E+00
 0.5227824472315E+00 -0.3423696304623E+01  0.0000000000000E+00
 0.5228059845402E+00 -0.3350333819576E+01  0.0000000000000E+00
 0.5228295221960E+00 -0.3276970252956E+01  0.0000000000000E+00
 0.5228530590734E+00 -0.3203609112485E+01  0.0000000000000E+00
 0.5228765962774E+00 -0.3130246953910E+01  0.0000000000000E+00
 0.5229001335486E+00 -0.3056884586000E+01  0.0000000000000E+00
 0.5229236708072E+00 -0.2983522257473E+01  0.0000000000000E+00
 0.5229472080352E+00 -0.2910160023909E+01  0.0000000000000E+00
 0.5230094777771E+00 -0.2836797822971E+01  0.0000000000000E+00
 0.5233453261558E+00 -0.2763439121435E+01  0.0000000000000E+00
 0.5242096961996E+00 -0.2690100696814E+01  0.0000000000000E+00
 0.5257557654915E+00 -0.2616814342716E+01  0.0000000000000E+00
 0.5280435777358E+00 -0.2543618364450E+01  0.0000000000000E+00
 0.5310799120018E+00 -0.2470549482845E+01  0.0000000000000E+00
 0.5348509965123E+00 -0.2397640653958E+01  0.0000000000000E+00
 0.5393412553893E+00 -0.2324922991450E+01  0.0000000000000E+00
 0.5445429944141E+00 -0.2252427757564E+01  0.0000000000000E+00
 0.5504618246247E+00 -0.2180191189252E+01  0.0000000000000E+00
 0.5571211794709E+00 -0.2108258111516E+01  0.0000000000000E+00
 0.5645300807020E+00 -0.2036670058793E+01  0.0000000000000E+00
 0.5726425702308E+00 -0.1965441271575E+01  0.0000000000000E+00
 0.5814243764965E+00 -0.1894586675636E+01  0.0000000000000E+00
 0.5908590574180E+00 -0.1824128049987E+01  0.0000000000000E+00
 0.6009460749422E+00 -0.1754096128489E+01  0.0000000000000E+00
 0.6117008354898E+00 -0.1684533794076E+01  0.0000000000000E+00
 0.6231566644279E+00 -0.1615501508160E+01  0.0000000000000E+00
 0.6353698295822E+00 -0.1547083735733E+01  0.0000000000000E+00
 0.6484277818778E+00 -0.1479407921664E+01  0.0000000000000E+00
 0.6624670913015E+00 -0.1412667155710E+01  0.0000000000000E+00
 0.5500197690505E+00 -0.4230795330981E+01  0.0000000000000E+00
 0.5500395380833E+00 -0.4157546078707E+01  0.0000000000000E+00
 0.5500593071533E+00 -0.4084296688383E+01  0.0000000000000E+00
 0.5500790762406E+00 -0.4011047234387E+01  0.0000000000000E+00
 0.5500988453018E+00 -0.3937797877017E+01  0.0000000000000E+00
 0.5501186143593E+00 -0.3864548533391E+01  0.0000000000000E+00
 0.5501383834192E+00 -0.3791299180457E+01  0.0000000000000E+00
 0.5501581524822E+00 -0.3718049816471E+01  0.0000000000000E+00
 0.5501779215436E+00 -0.3644800458244E+01  0.0000000000000E+00
 0.5501976906053E+00 -0.3571551099011E+01  0.0000000000000E+00
 0.5502174597030E+00 -0.3498301606423E+01  0.0000000000000E+00
 0.5502372287388E+00 -0.3425052342876E+01  0.0000000000000E+00
 0.5502569978336E+00 -0.3351802861205E+01  0.0000000000000E+00
 0.5502767672198E+00 -0.3278552299629E+01  0.0000000000000E+00
 0.5502965359522E+00 -0.3205304160464E+01  0.0000000000000E+00
 0.5503163049589E+00 -0.3132055004764E+01  0.0000000000000E+00
 0.5503360740221E+00 -0.3058805640051E+01  0.0000000000000E+00
 0.5503558430746E+00 -0.2985556314660E+01  0.0000000000000E+00
 0.5503756121016E+00 -0.2912307084086E+01  0.0000000000000E+00
 0.5504361521952E+00 -0.2839057886161E+01  0.0000000000000E+00
 0.5507846698348E+00 -0.2765812186996E+01  0.0000000000000E+00
 0.5516895261272E+00 -0.2692586763641E+01  0.0000000000000E+00
 0.5533119606105E+00 -0.2619413410292E+01  0.0000000000000E+00
 0.5557151771680E+00 -0.2546330432637E+01  0.0000000000000E+00
 0.5589063116513E+00 -0.2473374551750E+01  0.0000000000000E+00
 0.5628708674447E+00 -0.2400578723873E+01  0.0000000000000E+00
 0.5675924489065E+00 -0.2327974062217E+01  0.0000000000000E+00
 0.5730629568402E+00 -0.2255591829452E+01  0.0000000000000E+00
 0.5792882976252E+00 -0.2183468261997E+01  0.0000000000000E+00
 0.5862931380511E+00 -0.2111648184856E+01  0.0000000000000E+00
 0.5940869746762E+00 -0.2040173132923E+01  0.0000000000000E+00
 0.6026214305636E+00 -0.1969057346735E+01  0.0000000000000E+00
 0.6118604303908E+00 -0.1898315751957E+01  0.0000000000000E+00
 0.6217866667071E+00 -0.1827970127509E+01  0.0000000000000E+00
 0.6323995731424E+00 -0.1758051207224E+01  0.0000000000000E+00
 0.6437153669844E+00 -0.1688601873979E+01  0.0000000000000E+00
 0.6557691276047E+00 -0.1619682588347E+01  0.0000000000000E+00
 0.6686200842292E+00 -0.1551377816794E+01  0.0000000000000E+00
 0.6823602906046E+00 -0.1483815001033E+01  0.0000000000000E+00
 0.6971335045526E+00 -0.1417187232221E+01  0.0000000000000E+00
 0.5775285217479E+00 -0.4230916136354E+01  0.0000000000000E+00
 0.5775570434703E+00 -0.4157787689344E+01  0.0000000000000E+00
 0.5775855652465E+00 -0.4084659104512E+01  0.0000000000000E+00
 0.5776140870475E+00 -0.4011530456114E+01  0.0000000000000E+00
 0.5776426088109E+00 -0.3938401904183E+01  0.0000000000000E+00
 0.5776711305689E+00 -0.3865273365972E+01  0.0000000000000E+00
 0.5776996523305E+00 -0.3792144818469E+01  0.0000000000000E+00
 0.5777281740965E+00 -0.3719016259932E+01  0.0000000000000E+00
 0.5777566958602E+00 -0.3645887707143E+01  0.0000000000000E+00
 0.5777852176243E+00 -0.3572759153353E+01  0.0000000000000E+00
 0.5778137394403E+00 -0.3499630466425E+01  0.0000000000000E+00
 0.5778422611671E+00 -0.3426502008162E+01  0.0000000000000E+00
 0.5778707829789E+00 -0.3353373332134E+01  0.0000000000000E+00
 0.5778993052112E+00 -0.3280243577982E+01  0.0000000000000E+00
 0.5779278265002E+00 -0.3207116242246E+01  0.0000000000000E+00
 0.5779563481850E+00 -0.3133987891651E+01  0.0000000000000E+00
 0.5779848699513E+00 -0.3060859332388E+01  0.0000000000000E+00
 0.5780133917022E+00 -0.2987730812382E+01  0.0000000000000E+00
 0.5780419134162E+00 -0.2914602387037E+01  0.0000000000000E+00
 0.5781132651049E+00 -0.2841473994368E+01  0.0000000000000E+00
 0.5784871369324E+00 -0.2768349099769E+01  0.0000000000000E+00
 0.5794454419965E+00 -0.2695244479801E+01  0.0000000000000E+00
 0.5811575623438E+00 -0.2622191929285E+01  0.0000000000000E+00
 0.5836898936295E+00 -0.2549229754315E+01  0.0000000000000E+00
 0.5870499320770E+00 -0.2476394676228E+01  0.0000000000000E+00
 0.5912224490155E+00 -0.2403719651464E+01  0.0000000000000E+00
 0.5961902208056E+00 -0.2331235792752E+01  0.0000000000000E+00
 0.6019447392772E+00 -0.2258974363216E+01  0.0000000000000E+00
 0.6084922090405E+00 -0.2186971598711E+01  0.0000000000000E+00
 0.6158585425385E+00 -0.2115272324239E+01  0.0000000000000E+00
 0.6240537159295E+00 -0.2043918075183E+01  0.0000000000000E+00
 0.6330269092831E+00 -0.1972923092128E+01  0.0000000000000E+00
 0.6427402254938E+00 -0.1902302300624E+01  0.0000000000000E+00
 0.6531754830925E+00 -0.1832077479492E+01  0.0000000000000E+00
 0.6643320871059E+00 -0.1762279362538E+01  0.0000000000000E+00
 0.6762270737778E+00 -0.1692950832575E+01  0.0000000000000E+00
 0.6888972939023E+00 -0.1624152349277E+01  0.0000000000000E+00
 0.7024049678359E+00 -0.1555968380692E+01  0.0000000000000E+00
 0.7168467977495E+00 -0.1488526365155E+01  0.0000000000000E+00
 0.7323738012168E+00 -0.1422019395320E+01  0.0000000000000E+00
 0.6050364530268E+00 -0.4231042777871E+01  0.0000000000000E+00
 0.6050729060210E+00 -0.4158040972265E+01  0.0000000000000E+00
 0.6051093590840E+00 -0.4085039029076E+01  0.0000000000000E+00
 0.6051458121786E+00 -0.4012037022431E+01  0.0000000000000E+00
 0.6051822652252E+00 -0.3939035112085E+01  0.0000000000000E+00
 0.6052187182649E+00 -0.3866033215436E+01  0.0000000000000E+00
 0.6052551713092E+00 -0.3793031309511E+01  0.0000000000000E+00
 0.6052916243591E+00 -0.3720029392571E+01  0.0000000000000E+00
 0.6053280774061E+00 -0.3647027481370E+01  0.0000000000000E+00
 0.6053645304536E+00 -0.3574025569168E+01  0.0000000000000E+00
 0.6054009835674E+00 -0.3501023524060E+01  0.0000000000000E+00
 0.6054374365673E+00 -0.3428021707220E+01  0.0000000000000E+00
 0.6054738896757E+00 -0.3355019672994E+01  0.0000000000000E+00
 0.6055103433215E+00 -0.3282016562509E+01  0.0000000000000E+00
 0.6055467957618E+00 -0.3209015866253E+01  0.0000000000000E+00
 0.6055832487080E+00 -0.3136014156895E+01  0.0000000000000E+00
 0.6056197017582E+00 -0.3063012239231E+01  0.0000000000000E+00
 0.6056561547889E+00 -0.2990010360755E+01  0.0000000000000E+00
 0.6056926077723E+00 -0.2917008576777E+01  0.0000000000000E+00
 0.6057739496384E+00 -0.2844006825500E+01  0.0000000000000E+00
 0.6061723542407E+00 -0.2771008571574E+01  0.0000000000000E+00
 0.6071832866711E+00 -0.2698030591041E+01  0.0000000000000E+00
 0.6089842714805E+00 -0.2625104679380E+01  0.0000000000000E+00
 0.6116448960934E+00 -0.2552269143111E+01  0.0000000000000E+00
 0.6151730171029E+00 -0.2479560703844E+01  0.0000000000000E+00
 0.6195526737819E+00 -0.2407012318228E+01  0.0000000000000E+00
 0.6247658144968E+00 -0.2334655098486E+01  0.0000000000000E+00
 0.6308035221003E+00 -0.2262520308222E+01  0.0000000000000E+00
 0.6376722994378E+00 -0.2190644182693E+01  0.0000000000000E+00
 0.6453993046053E+00 -0.2119071546904E+01  0.0000000000000E+00
 0.6539949933580E+00 -0.2047843936749E+01  0.0000000000000E+00
 0.6634061027715E+00 -0.1976975592865E+01  0.0000000000000E+00
 0.6735929139584E+00 -0.1906481440676E+01  0.0000000000000E+00
 0.6845363714316E+00 -0.1836383258907E+01  0.0000000000000E+00
 0.6962358516148E+00 -0.1766711781329E+01  0.0000000000000E+00
 0.7087092097083E+00 -0.1697509890691E+01  0.0000000000000E+00
 0.7219950679352E+00 -0.1628838045726E+01  0.0000000000000E+00
 0.7361586377713E+00 -0.1560780716136E+01  0.0000000000000E+00
 0.7513012698347E+00 -0.1493465336719E+01  0.0000000000000E+00
 0.7675812414413E+00 -0.1427085001696E+01  0.0000000000000E+00
 0.6325435266867E+00 -0.4231175233271E+01  0.0000000000000E+00
 0.6325870533346E+00 -0.4158305882947E+01  0.0000000000000E+00
 0.6326305800645E+00 -0.4085436395290E+01  0.0000000000000E+00
 0.6326741068323E+00 -0.4012566844291E+01  0.0000000000000E+00
 0.6327176335426E+00 -0.3939697389418E+01  0.0000000000000E+00
 0.6327611602448E+00 -0.3866827948216E+01  0.0000000000000E+00
 0.6328046869525E+00 -0.3793958497755E+01  0.0000000000000E+00
 0.6328482136668E+00 -0.3721089036299E+01  0.0000000000000E+00
 0.6328917403776E+00 -0.3648219580572E+01  0.0000000000000E+00
 0.6329352670890E+00 -0.3575350123845E+01  0.0000000000000E+00
 0.6329787938797E+00 -0.3502480534454E+01  0.0000000000000E+00
 0.6330223205343E+00 -0.3429611172916E+01  0.0000000000000E+00
 0.6330658473185E+00 -0.3356741594387E+01  0.0000000000000E+00
 0.6331093747444E+00 -0.3283870941551E+01  0.0000000000000E+00
 0.6331529007309E+00 -0.3211002698565E+01  0.0000000000000E+00
 0.6331964273214E+00 -0.3138133444314E+01  0.0000000000000E+00
 0.6332399540361E+00 -0.3065263982135E+01  0.0000000000000E+00
 0.6332834807274E+00 -0.2992394559074E+01  0.0000000000000E+00
 0.6333270073624E+00 -0.2919525230338E+01  0.0000000000000E+00
 0.6334174817877E+00 -0.2846655934332E+01  0.0000000000000E+00
 0.6338395615515E+00 -0.2773790134923E+01  0.0000000000000E+00
 0.6349022637435E+00 -0.2700944607613E+01  0.0000000000000E+00
 0.6367912554143E+00 -0.2628151148567E+01  0.0000000000000E+00
 0.6395793157545E+00 -0.2555448064753E+01  0.0000000000000E+00
 0.6432746617255E+00 -0.2482872078066E+01  0.0000000000000E+00
 0.6478606005424E+00 -0.2410456145372E+01  0.0000000000000E+00
 0.6533182525806E+00 -0.2338231378367E+01  0.0000000000000E+00
 0.6596382917126E+00 -0.2266229041154E+01  0.0000000000000E+00
 0.6668275190228E+00 -0.2194485368369E+01  0.0000000000000E+00
 0.6749143382604E+00 -0.2123045185016E+01  0.0000000000000E+00
 0.6839096847739E+00 -0.2051950027523E+01  0.0000000000000E+00
 0.6937578526447E+00 -0.1981214136585E+01  0.0000000000000E+00
 0.7044173012042E+00 -0.1910852437495E+01  0.0000000000000E+00
 0.7158681009481E+00 -0.1840886708872E+01  0.0000000000000E+00
 0.7281095996972E+00 -0.1771347684455E+01  0.0000000000000E+00
 0.7411604716089E+00 -0.1702278246925E+01  0.0000000000000E+00
 0.7550611103412E+00 -0.1633738854029E+01  0.0000000000000E+00
 0.7698797184786E+00 -0.1565813977203E+01  0.0000000000000E+00
 0.7857222951103E+00 -0.1498631047541E+01  0.0000000000000E+00
 0.8027543772834E+00 -0.1432383160906E+01  0.0000000000000E+00
 0.6600497070085E+00 -0.4231313479408E+01  0.0000000000000E+00
 0.6600994139727E+00 -0.4158582375098E+01  0.0000000000000E+00
 0.6601491210305E+00 -0.4085851133716E+01  0.0000000000000E+00
 0.6601988281316E+00 -0.4013119829111E+01  0.0000000000000E+00
 0.6602485351671E+00 -0.3940388620450E+01  0.0000000000000E+00
 0.6602982421932E+00 -0.3867657425435E+01  0.0000000000000E+00
 0.6603479492257E+00 -0.3794926221178E+01  0.0000000000000E+00
 0.6603976562657E+00 -0.3722195005947E+01  0.0000000000000E+00
 0.6604473633017E+00 -0.3649463796433E+01  0.0000000000000E+00
 0.6604970703385E+00 -0.3576732585922E+01  0.0000000000000E+00
 0.6605467774657E+00 -0.3504001242998E+01  0.0000000000000E+00
 0.6605964844376E+00 -0.3431270127496E+01  0.0000000000000E+00
 0.6606461915574E+00 -0.3358538795412E+01  0.0000000000000E+00
 0.6606958994101E+00 -0.3285806391062E+01  0.0000000000000E+00
 0.6607456056189E+00 -0.3213076391989E+01  0.0000000000000E+00
 0.6607953125175E+00 -0.3140345383569E+01  0.0000000000000E+00
 0.6608450195580E+00 -0.3067614167617E+01  0.0000000000000E+00
 0.6608947265717E+00 -0.2994882990707E+01  0.0000000000000E+00
 0.6609444335212E+00 -0.2922151907945E+01  0.0000000000000E+00
 0.6610431471685E+00 -0.2849420857941E+01  0.0000000000000E+00
 0.6614880087619E+00 -0.2776693303747E+01  0.0000000000000E+00
 0.6626015873924E+00 -0.2703986020302E+01  0.0000000000000E+00
 0.6645776926062E+00 -0.2631330804486E+01  0.0000000000000E+00
 0.6674922953571E+00 -0.2558765963735E+01  0.0000000000000E+00
 0.6713539729724E+00 -0.2486328220241E+01  0.0000000000000E+00
 0.6761453006083E+00 -0.2414050531099E+01  0.0000000000000E+00
 0.6818465706525E+00 -0.2341964007451E+01  0.0000000000000E+00
 0.6884480479942E+00 -0.2270099913923E+01  0.0000000000000E+00
 0.6959568319607E+00 -0.2198494484502E+01  0.0000000000000E+00
 0.7044025719548E+00 -0.2127192544193E+01  0.0000000000000E+00
 0.7137966829144E+00 -0.2056235629981E+01  0.0000000000000E+00
 0.7240810159262E+00 -0.1985637982619E+01  0.0000000000000E+00
 0.7352122085415E+00 -0.1915414527263E+01  0.0000000000000E+00
 0.7471694572393E+00 -0.1845587042425E+01  0.0000000000000E+00
 0.7599520812379E+00 -0.1776186261808E+01  0.0000000000000E+00
 0.7735795736522E+00 -0.1707255068023E+01  0.0000000000000E+00
 0.7880940995820E+00 -0.1638853917788E+01  0.0000000000000E+00
 0.8035668527085E+00 -0.1571067284346E+01  0.0000000000000E+00
 0.8201084806169E+00 -0.1504022594929E+01  0.0000000000000E+00
 0.8378917800749E+00 -0.1437912947113E+01  0.0000000000000E+00
 0.6875549587707E+00 -0.4231457492273E+01  0.0000000000000E+00
 0.6876099174925E+00 -0.4158870400699E+01  0.0000000000000E+00
 0.6876648763177E+00 -0.4086283172324E+01  0.0000000000000E+00
 0.6877198351908E+00 -0.4013695880853E+01  0.0000000000000E+00
 0.6877747939914E+00 -0.3941108685135E+01  0.0000000000000E+00
 0.6878297527816E+00 -0.3868521503035E+01  0.0000000000000E+00
 0.6878847115788E+00 -0.3795934311712E+01  0.0000000000000E+00
 0.6879396703844E+00 -0.3723347109437E+01  0.0000000000000E+00
 0.6879946291856E+00 -0.3650759912868E+01  0.0000000000000E+00
 0.6880495879875E+00 -0.3578172715304E+01  0.0000000000000E+00
 0.6881045468895E+00 -0.3505585385588E+01  0.0000000000000E+00
 0.6881595056197E+00 -0.3432998282844E+01  0.0000000000000E+00
 0.6882144645135E+00 -0.3360410963949E+01  0.0000000000000E+00
 0.6882694242176E+00 -0.3287822574909E+01  0.0000000000000E+00
 0.6883243821042E+00 -0.3215236586383E+01  0.0000000000000E+00
 0.6883793407534E+00 -0.3142649590510E+01  0.0000000000000E+00
 0.6884342995595E+00 -0.3070062387515E+01  0.0000000000000E+00
 0.6884892583360E+00 -0.2997475223486E+01  0.0000000000000E+00
 0.6885442170415E+00 -0.2924888153416E+01  0.0000000000000E+00
 0.6886502413522E+00 -0.2852301116137E+01  0.0000000000000E+00
 0.6891169562223E+00 -0.2779717573847E+01  0.0000000000000E+00
 0.6902804827484E+00 -0.2707154300899E+01  0.0000000000000E+00
 0.6923427729674E+00 -0.2634643094921E+01  0.0000000000000E+00
 0.6953829895934E+00 -0.2562222263831E+01  0.0000000000000E+00
 0.6994100703178E+00 -0.2489928530135E+01  0.0000000000000E+00
 0.7044058582361E+00 -0.2417794851164E+01  0.0000000000000E+00
 0.7103498177522E+00 -0.2345852337485E+01  0.0000000000000E+00
 0.7172318047682E+00 -0.2274132254268E+01  0.0000000000000E+00
 0.7250592168591E+00 -0.2202670834823E+01  0.0000000000000E+00
 0.7338629490808E+00 -0.2131512904156E+01  0.0000000000000E+00
 0.7436548959572E+00 -0.2060699999834E+01  0.0000000000000E+00
 0.7543744655799E+00 -0.1990246362667E+01  0.0000000000000E+00
 0.7659764737208E+00 -0.1920166917674E+01  0.0000000000000E+00
 0.7784392428430E+00 -0.1850483443250E+01  0.0000000000000E+00
 0.7917620635625E+00 -0.1781226673063E+01  0.0000000000000E+00
 0.8059652479520E+00 -0.1712439489651E+01  0.0000000000000E+00
 0.8210927325603E+00 -0.1644182348659E+01  0.0000000000000E+00
 0.8372187021531E+00 -0.1576539725215E+01  0.0000000000000E+00
 0.8544584528381E+00 -0.1509639042525E+01  0.0000000000000E+00
 0.8729920410917E+00 -0.1443673399950E+01  0.0000000000000E+00
 0.7150592472657E+00 -0.4231607247015E+01  0.0000000000000E+00
 0.7151184944785E+00 -0.4159169910049E+01  0.0000000000000E+00
 0.7151777418030E+00 -0.4086732436564E+01  0.0000000000000E+00
 0.7152369891790E+00 -0.4014294900114E+01  0.0000000000000E+00
 0.7152962364768E+00 -0.3941857459218E+01  0.0000000000000E+00
 0.7153554837636E+00 -0.3869420031913E+01  0.0000000000000E+00
 0.7154147310578E+00 -0.3796982595404E+01  0.0000000000000E+00
 0.7154739783610E+00 -0.3724545147966E+01  0.0000000000000E+00
 0.7155332256595E+00 -0.3652107706221E+01  0.0000000000000E+00
 0.7155924729589E+00 -0.3579670263484E+01  0.0000000000000E+00
 0.7156517203661E+00 -0.3507232688868E+01  0.0000000000000E+00
 0.7157109675880E+00 -0.3434795340755E+01  0.0000000000000E+00
 0.7157702149864E+00 -0.3362357776937E+01  0.0000000000000E+00
 0.7158294632583E+00 -0.3289919145182E+01  0.0000000000000E+00
 0.7158887095708E+00 -0.3217482908988E+01  0.0000000000000E+00
 0.7159479567055E+00 -0.3145045667526E+01  0.0000000000000E+00
 0.7160072040093E+00 -0.3072608219369E+01  0.0000000000000E+00
 0.7160664512812E+00 -0.3000170810097E+01  0.0000000000000E+00
 0.7161256984765E+00 -0.2927733494591E+01  0.0000000000000E+00
 0.7162380701844E+00 -0.2855296211907E+01  0.0000000000000E+00
 0.7167256750711E+00 -0.2782862423360E+01  0.0000000000000E+00
 0.7179381862435E+00 -0.2710448902693E+01  0.0000000000000E+00
 0.7200856982247E+00 -0.2638087448308E+01  0.0000000000000E+00
 0.7232505654860E+00 -0.2565816368629E+01  0.0000000000000E+00
 0.7274420860806E+00 -0.2493672386486E+01  0.0000000000000E+00
 0.7326413710420E+00 -0.2421688459455E+01  0.0000000000000E+00
 0.7388270567937E+00 -0.2349895697507E+01  0.0000000000000E+00
 0.7459885902476E+00 -0.2278325366376E+01  0.0000000000000E+00
 0.7541336672304E+00 -0.2207013698669E+01  0.0000000000000E+00
 0.7632944284514E+00 -0.2136005519392E+01  0.0000000000000E+00
 0.7734832480167E+00 -0.2065342366718E+01  0.0000000000000E+00
 0.7846370910221E+00 -0.1995038481518E+01  0.0000000000000E+00
 0.7967089514612E+00 -0.1925108788663E+01  0.0000000000000E+00
 0.8096762777816E+00 -0.1855575066432E+01  0.0000000000000E+00
 0.8235383319973E+00 -0.1786468048456E+01  0.0000000000000E+00
 0.8383162451398E+00 -0.1717830617193E+01  0.0000000000000E+00
 0.8540557252136E+00 -0.1649723227177E+01  0.0000000000000E+00
 0.8708339480567E+00 -0.1582230355494E+01  0.0000000000000E+00
 0.8887708583262E+00 -0.1515479421163E+01  0.0000000000000E+00
 0.9080537721960E+00 -0.1449663525402E+01  0.0000000000000E+00
 0.7425625383146E+00 -0.4231762717964E+01  0.0000000000000E+00
 0.7426250765734E+00 -0.4159480851809E+01  0.0000000000000E+00
 0.7426876149500E+00 -0.4087198849429E+01  0.0000000000000E+00
 0.7427501533810E+00 -0.4014916784217E+01  0.0000000000000E+00
 0.7428126917296E+00 -0.3942634814355E+01  0.0000000000000E+00
 0.7428752300663E+00 -0.3870352858055E+01  0.0000000000000E+00
 0.7429377684111E+00 -0.3798070892571E+01  0.0000000000000E+00
 0.7430003067652E+00 -0.3725788916180E+01  0.0000000000000E+00
 0.7430628451145E+00 -0.3653506945471E+01  0.0000000000000E+00
 0.7431253834646E+00 -0.3581224973772E+01  0.0000000000000E+00
 0.7431879219286E+00 -0.3508942870477E+01  0.0000000000000E+00
 0.7432504601970E+00 -0.3436660993198E+01  0.0000000000000E+00
 0.7433129986516E+00 -0.3364378900677E+01  0.0000000000000E+00
 0.7433755380283E+00 -0.3292095742512E+01  0.0000000000000E+00
 0.7434380753367E+00 -0.3219814974767E+01  0.0000000000000E+00
 0.7435006135130E+00 -0.3147533203911E+01  0.0000000000000E+00
 0.7435631518678E+00 -0.3075251226803E+01  0.0000000000000E+00
 0.7436256901890E+00 -0.3002969288497E+01  0.0000000000000E+00
 0.7436882284293E+00 -0.2930687443756E+01  0.0000000000000E+00
 0.7438059500894E+00 -0.2858405631870E+01  0.0000000000000E+00
 0.7443134475546E+00 -0.2786127313235E+01  0.0000000000000E+00
 0.7455739459472E+00 -0.2713869260962E+01  0.0000000000000E+00
 0.7478056822717E+00 -0.2641663274258E+01  0.0000000000000E+00
 0.7510942027536E+00 -0.2569547662071E+01  0.0000000000000E+00
 0.7554491658059E+00 -0.2497559147567E+01  0.0000000000000E+00
 0.7608509503981E+00 -0.2425730688578E+01  0.0000000000000E+00
 0.7672773649777E+00 -0.2354093394452E+01  0.0000000000000E+00
 0.7747174474621E+00 -0.2282678531514E+01  0.0000000000000E+00
 0.7831791919347E+00 -0.2211522331637E+01  0.0000000000000E+00
 0.7926959847584E+00 -0.2140669619831E+01  0.0000000000000E+00
 0.8032806796171E+00 -0.2070161934894E+01  0.0000000000000E+00
 0.8148677986107E+00 -0.2000013517763E+01  0.0000000000000E+00
 0.8274085139547E+00 -0.1930239293156E+01  0.0000000000000E+00
 0.8408794000826E+00 -0.1860861039229E+01  0.0000000000000E+00
 0.8552796904064E+00 -0.1791909489574E+01  0.0000000000000E+00
 0.8706313349167E+00 -0.1723427526570E+01  0.0000000000000E+00
 0.8869818130815E+00 -0.1655475603594E+01  0.0000000000000E+00
 0.9044112917983E+00 -0.1588138199765E+01  0.0000000000000E+00
 0.9230443643019E+00 -0.1521542729758E+01  0.0000000000000E+00
 0.9430756064517E+00 -0.1455882296715E+01  0.0000000000000E+00
 0.7700647982821E+00 -0.4231923878657E+01  0.0000000000000E+00
 0.7701295965064E+00 -0.4159803173051E+01  0.0000000000000E+00
 0.7701943948528E+00 -0.4087682331523E+01  0.0000000000000E+00
 0.7702591932555E+00 -0.4015561427305E+01  0.0000000000000E+00
 0.7703239915728E+00 -0.3943440618223E+01  0.0000000000000E+00
 0.7703887898779E+00 -0.3871319822673E+01  0.0000000000000E+00
 0.7704535881912E+00 -0.3799199017960E+01  0.0000000000000E+00
 0.7705183865143E+00 -0.3727078202364E+01  0.0000000000000E+00
 0.7705831848324E+00 -0.3654957392437E+01  0.0000000000000E+00
 0.7706479831513E+00 -0.3582836581522E+01  0.0000000000000E+00
 0.7707127815881E+00 -0.3510715639305E+01  0.0000000000000E+00
 0.7707775798224E+00 -0.3438594922601E+01  0.0000000000000E+00
 0.7708423782496E+00 -0.3366473991133E+01  0.0000000000000E+00
 0.7709071776321E+00 -0.3294351996398E+01  0.0000000000000E+00
 0.7709719748717E+00 -0.3222232386753E+01  0.0000000000000E+00
 0.7710367730106E+00 -0.3150111776233E+01  0.0000000000000E+00
 0.7711015713344E+00 -0.3077990959922E+01  0.0000000000000E+00
 0.7711663696233E+00 -0.3005870182326E+01  0.0000000000000E+00
 0.7712311678284E+00 -0.2933749498087E+01  0.0000000000000E+00
 0.7713532083606E+00 -0.2861628846736E+01  0.0000000000000E+00
 0.7718795673317E+00 -0.2789511687719E+01  0.0000000000000E+00
 0.7731870218849E+00 -0.2717414793489E+01  0.0000000000000E+00
 0.7755019515019E+00 -0.2645369964090E+01  0.0000000000000E+00
 0.7789130941592E+00 -0.2573415509012E+01  0.0000000000000E+00
 0.7834304686275E+00 -0.2501588151769E+01  0.0000000000000E+00
 0.7890337218105E+00 -0.2429920850458E+01  0.0000000000000E+00
 0.7956998341836E+00 -0.2358444713785E+01  0.0000000000000E+00
 0.8034174346658E+00 -0.2287191008681E+01  0.0000000000000E+00
 0.8121948156023E+00 -0.2216195966265E+01  0.0000000000000E+00
 0.8220666090092E+00 -0.2145504411545E+01  0.0000000000000E+00
 0.8330461481448E+00 -0.2075157883972E+01  0.0000000000000E+00
 0.8450655121117E+00 -0.2005170624547E+01  0.0000000000000E+00
 0.8580740513487E+00 -0.1935557557832E+01  0.0000000000000E+00
 0.8720474662756E+00 -0.1866340461856E+01  0.0000000000000E+00
 0.8869849617026E+00 -0.1797550070169E+01  0.0000000000000E+00
 0.9029093065802E+00 -0.1729229265069E+01  0.0000000000000E+00
 0.9198697518478E+00 -0.1661438498734E+01  0.0000000000000E+00
 0.9379494554491E+00 -0.1594262252389E+01  0.0000000000000E+00
 0.9572776592258E+00 -0.1527827936206E+01  0.0000000000000E+00
 0.9780561987112E+00 -0.1462328655324E+01  0.0000000000000E+00
 0.7975659940902E+00 -0.4232090701858E+01  0.0000000000000E+00
 0.7976319881214E+00 -0.4160136819303E+01  0.0000000000000E+00
 0.7976979822771E+00 -0.4088182801141E+01  0.0000000000000E+00
 0.7977639764901E+00 -0.4016228720433E+01  0.0000000000000E+00
 0.7978299706160E+00 -0.3944274734643E+01  0.0000000000000E+00
 0.7978959647296E+00 -0.3872320762352E+01  0.0000000000000E+00
 0.7979619588516E+00 -0.3800366780919E+01  0.0000000000000E+00
 0.7980279529835E+00 -0.3728412788629E+01  0.0000000000000E+00
 0.7980939471102E+00 -0.3656458801995E+01  0.0000000000000E+00
 0.7981599412379E+00 -0.3584504814375E+01  0.0000000000000E+00
 0.7982259354857E+00 -0.3512550695757E+01  0.0000000000000E+00
 0.7982919295271E+00 -0.3440596802130E+01  0.0000000000000E+00
 0.7983579237650E+00 -0.3368642694236E+01  0.0000000000000E+00
 0.7984239189759E+00 -0.3296687525534E+01  0.0000000000000E+00
 0.7984899120043E+00 -0.3224734736406E+01  0.0000000000000E+00
 0.7985559059486E+00 -0.3152780948717E+01  0.0000000000000E+00
 0.7986219000812E+00 -0.3080826955713E+01  0.0000000000000E+00
 0.7986878941783E+00 -0.3008873001336E+01  0.0000000000000E+00
 0.7987538881900E+00 -0.2936919140098E+01  0.0000000000000E+00
 0.7988791834362E+00 -0.2864965311785E+01  0.0000000000000E+00
 0.7994233397633E+00 -0.2793014974856E+01  0.0000000000000E+00
 0.8007766863419E+00 -0.2721084901084E+01  0.0000000000000E+00
 0.8031737451268E+00 -0.2649206891378E+01  0.0000000000000E+00
 0.8067064458421E+00 -0.2577419255790E+01  0.0000000000000E+00
 0.8113851676139E+00 -0.2505758718195E+01  0.0000000000000E+00
 0.8171888252784E+00 -0.2434258236964E+01  0.0000000000000E+00
 0.8240935713432E+00 -0.2362948920137E+01  0.0000000000000E+00
 0.8320876257245E+00 -0.2291862035274E+01  0.0000000000000E+00
 0.8411795790344E+00 -0.2221033812712E+01  0.0000000000000E+00
 0.8514053089427E+00 -0.2150509077459E+01  0.0000000000000E+00
 0.8627786282774E+00 -0.2080329369639E+01  0.0000000000000E+00
 0.8752291731434E+00 -0.2010508930323E+01  0.0000000000000E+00
 0.8887044722034E+00 -0.1941062683910E+01  0.0000000000000E+00
 0.9031793518640E+00 -0.1872012408295E+01  0.0000000000000E+00
 0.9186529883343E+00 -0.1803388836989E+01  0.0000000000000E+00
 0.9351489695250E+00 -0.1735234852202E+01  0.0000000000000E+00
 0.9527183178552E+00 -0.1667610904871E+01  0.0000000000000E+00
 0.9714471823014E+00 -0.1600601478405E+01  0.0000000000000E+00
 0.9914694533427E+00 -0.1534333978313E+01  0.0000000000000E+00
 0.1012994226174E+01 -0.1469001511800E+01  0.0000000000000E+00
 0.8250660921971E+00 -0.4232263159342E+01  0.0000000000000E+00
 0.8251321843352E+00 -0.4160481734118E+01  0.0000000000000E+00
 0.8251982765979E+00 -0.4088700173612E+01  0.0000000000000E+00
 0.8252643689180E+00 -0.4016918550710E+01  0.0000000000000E+00
 0.8253304611510E+00 -0.3945137022497E+01  0.0000000000000E+00
 0.8253965533715E+00 -0.3873355507753E+01  0.0000000000000E+00
 0.8254626456005E+00 -0.3801573983887E+01  0.0000000000000E+00
 0.8255287378394E+00 -0.3729792449191E+01  0.0000000000000E+00
 0.8255948300731E+00 -0.3658010920137E+01  0.0000000000000E+00
 0.8256609223078E+00 -0.3586229390100E+01  0.0000000000000E+00
 0.8257270146627E+00 -0.3514447729378E+01  0.0000000000000E+00
 0.8257931068110E+00 -0.3442666293108E+01  0.0000000000000E+00
 0.8258591991561E+00 -0.3370884643085E+01  0.0000000000000E+00
 0.8259252924756E+00 -0.3299101934797E+01  0.0000000000000E+00
 0.8259913836094E+00 -0.3227321600378E+01  0.0000000000000E+00
 0.8260574756604E+00 -0.3155540269793E+01  0.0000000000000E+00
 0.8261235679000E+00 -0.3083758734385E+01  0.0000000000000E+00
 0.8261896601041E+00 -0.3011977237510E+01  0.0000000000000E+00
 0.8262557522226E+00 -0.2940195833552E+01  0.0000000000000E+00
 0.8263832044815E+00 -0.2868414462554E+01  0.0000000000000E+00
 0.8269440604613E+00 -0.2796636581959E+01  0.0000000000000E+00
 0.8283422013566E+00 -0.2724878962837E+01  0.0000000000000E+00
 0.8308202915846E+00 -0.2653173406991E+01  0.0000000000000E+00
 0.8344734526118E+00 -0.2581558225052E+01  0.0000000000000E+00
 0.8393124239173E+00 -0.2510070141269E+01  0.0000000000000E+00
 0.8453153882681E+00 -0.2438742114296E+01  0.0000000000000E+00
 0.8524576702087E+00 -0.2367605251486E+01  0.0000000000000E+00
 0.8607270806491E+00 -0.2296690821050E+01  0.0000000000000E+00
 0.8701325084729E+00 -0.2226035052513E+01  0.0000000000000E+00
 0.8807110770029E+00 -0.2155682770885E+01  0.0000000000000E+00
 0.8924770786323E+00 -0.2085675516987E+01  0.0000000000000E+00
 0.9053577064690E+00 -0.2016027531960E+01  0.0000000000000E+00
 0.9192986674019E+00 -0.1946753740033E+01  0.0000000000000E+00
 0.9342739138258E+00 -0.1877875918969E+01  0.0000000000000E+00
 0.9502825933488E+00 -0.1809424802232E+01  0.0000000000000E+00
 0.9673491128421E+00 -0.1741443271944E+01  0.0000000000000E+00
 0.9855262662115E+00 -0.1673991777762E+01  0.0000000000000E+00
 0.1004903193450E+01 -0.1607154805347E+01  0.0000000000000E+00
 0.1025618433703E+01 -0.1541059755389E+01  0.0000000000000E+00
 0.1047888341808E+01 -0.1475899737231E+01  0.0000000000000E+00
 0.8525650614762E+00 -0.4232441222572E+01  0.0000000000000E+00
 0.8526301228944E+00 -0.4160837860419E+01  0.0000000000000E+00
 0.8526951844352E+00 -0.4089234363318E+01  0.0000000000000E+00
 0.8527602460326E+00 -0.4017630803977E+01  0.0000000000000E+00
 0.8528253075442E+00 -0.3946027339091E+01  0.0000000000000E+00
 0.8528903690435E+00 -0.3874423887639E+01  0.0000000000000E+00
 0.8529554305511E+00 -0.3802820427089E+01  0.0000000000000E+00
 0.8530204920685E+00 -0.3731216955735E+01  0.0000000000000E+00
 0.8530855535808E+00 -0.3659613490009E+01  0.0000000000000E+00
 0.8531506150940E+00 -0.3588010023303E+01  0.0000000000000E+00
 0.8532156767257E+00 -0.3516406426235E+01  0.0000000000000E+00
 0.8532807381539E+00 -0.3444803053064E+01  0.0000000000000E+00
 0.8533457997758E+00 -0.3373199466669E+01  0.0000000000000E+00
 0.8534108623570E+00 -0.3301594824634E+01  0.0000000000000E+00
 0.8534759227865E+00 -0.3229992550580E+01  0.0000000000000E+00
 0.8535409841189E+00 -0.3158389282831E+01  0.0000000000000E+00
 0.8536060456369E+00 -0.3086785810767E+01  0.0000000000000E+00
 0.8536711071201E+00 -0.3015182377140E+01  0.0000000000000E+00
 0.8537361685190E+00 -0.2943579036201E+01  0.0000000000000E+00
 0.8538646489641E+00 -0.2871975728258E+01  0.0000000000000E+00
 0.8544410757777E+00 -0.2800375909705E+01  0.0000000000000E+00
 0.8558828821841E+00 -0.2728796350886E+01  0.0000000000000E+00
 0.8584408750580E+00 -0.2657268854525E+01  0.0000000000000E+00
 0.8622133676045E+00 -0.2585831731856E+01  0.0000000000000E+00
 0.8672114596532E+00 -0.2514521707511E+01  0.0000000000000E+00
 0.8734126019002E+00 -0.2443371740437E+01  0.0000000000000E+00
 0.8807912909314E+00 -0.2372412937276E+01  0.0000000000000E+00
 0.8893349286460E+00 -0.2301676566911E+01  0.0000000000000E+00
 0.8990527022045E+00 -0.2231198858032E+01  0.0000000000000E+00
 0.9099829805832E+00 -0.2161024635649E+01  0.0000000000000E+00
 0.9221405357354E+00 -0.2091195441301E+01  0.0000000000000E+00
 0.9354501177719E+00 -0.2021725516204E+01  0.0000000000000E+00
 0.9498556118082E+00 -0.1952629784413E+01  0.0000000000000E+00
 0.9653300962285E+00 -0.1883930023548E+01  0.0000000000000E+00
 0.9818726900401E+00 -0.1815656967030E+01  0.0000000000000E+00
 0.9995086190752E+00 -0.1747853496891E+01  0.0000000000000E+00
 0.1018292448735E+01 -0.1680580061460E+01  0.0000000000000E+00
 0.1038316310015E+01 -0.1613921148730E+01  0.0000000000000E+00
 0.1059723390757E+01 -0.1548004154413E+01  0.0000000000000E+00
 0.1082737305430E+01 -0.1483022190057E+01  0.0000000000000E+00
 0.8800628706507E+00 -0.4232624862149E+01  0.0000000000000E+00
 0.8801257412452E+00 -0.4161205139410E+01  0.0000000000000E+00
 0.8801886119583E+00 -0.4089785282070E+01  0.0000000000000E+00
 0.8802514827260E+00 -0.4018365362649E+01  0.0000000000000E+00
 0.8803143534107E+00 -0.3946945537440E+01  0.0000000000000E+00
 0.8803772240837E+00 -0.3875525725631E+01  0.0000000000000E+00
 0.8804400947647E+00 -0.3804105904747E+01  0.0000000000000E+00
 0.8805029654551E+00 -0.3732686073087E+01  0.0000000000000E+00
 0.8805658361406E+00 -0.3661266247042E+01  0.0000000000000E+00
 0.8806287068270E+00 -0.3589846420017E+01  0.0000000000000E+00
 0.8806915776278E+00 -0.3518426462966E+01  0.0000000000000E+00
 0.8807544482321E+00 -0.3447006729237E+01  0.0000000000000E+00
 0.8808173190235E+00 -0.3375586782831E+01  0.0000000000000E+00
 0.8808801907419E+00 -0.3304165783493E+01  0.0000000000000E+00
 0.8809430603810E+00 -0.3232747146062E+01  0.0000000000000E+00
 0.8810059308927E+00 -0.3161327517485E+01  0.0000000000000E+00
 0.8810688015838E+00 -0.3089907685116E+01  0.0000000000000E+00
 0.8811316722411E+00 -0.3018487891087E+01  0.0000000000000E+00
 0.8811945428171E+00 -0.2947068189507E+01  0.0000000000000E+00
 0.8813228913452E+00 -0.2875648520963E+01  0.0000000000000E+00
 0.8819137288988E+00 -0.2804232340763E+01  0.0000000000000E+00
 0.8833980407394E+00 -0.2732836418503E+01  0.0000000000000E+00
 0.8860347761945E+00 -0.2661492557860E+01  0.0000000000000E+00
 0.8899254402048E+00 -0.2590239070684E+01  0.0000000000000E+00
 0.8950814929478E+00 -0.2519112682006E+01  0.0000000000000E+00
 0.9014796530467E+00 -0.2448146351075E+01  0.0000000000000E+00
 0.9090935891332E+00 -0.2377371183799E+01  0.0000000000000E+00
 0.9179102940913E+00 -0.2306818449755E+01  0.0000000000000E+00
 0.9279392533642E+00 -0.2236524376770E+01  0.0000000000000E+00
 0.9392200815813E+00 -0.2166533789856E+01  0.0000000000000E+00
 0.9517680302519E+00 -0.2096888231292E+01  0.0000000000000E+00
 0.9655054064884E+00 -0.2027601942369E+01  0.0000000000000E+00
 0.9803742736342E+00 -0.1958689846964E+01  0.0000000000000E+00
 0.9963468360632E+00 -0.1890173722552E+01  0.0000000000000E+00
 0.1013422184182E+01 -0.1822084302508E+01  0.0000000000000E+00
 0.1031626362785E+01 -0.1754464468768E+01  0.0000000000000E+00
 0.1051015708778E+01 -0.1687374668298E+01  0.0000000000000E+00
 0.1071685344144E+01 -0.1620899391489E+01  0.0000000000000E+00
 0.1093783105455E+01 -0.1555166028923E+01  0.0000000000000E+00
 0.1117539866798E+01 -0.1490367694424E+01  0.0000000000000E+00
 0.9075594889833E+00 -0.4232814047991E+01  0.0000000000000E+00
 0.9076189779134E+00 -0.4161583510925E+01  0.0000000000000E+00
 0.9076784669557E+00 -0.4090352839614E+01  0.0000000000000E+00
 0.9077379560498E+00 -0.4019122106386E+01  0.0000000000000E+00
 0.9077974450653E+00 -0.3947891467122E+01  0.0000000000000E+00
 0.9078569340697E+00 -0.3876660841222E+01  0.0000000000000E+00
 0.9079164230816E+00 -0.3805430206271E+01  0.0000000000000E+00
 0.9079759121025E+00 -0.3734199560572E+01  0.0000000000000E+00
 0.9080354011187E+00 -0.3662968920473E+01  0.0000000000000E+00
 0.9080948901358E+00 -0.3591738279397E+01  0.0000000000000E+00
 0.9081543792612E+00 -0.3520507508640E+01  0.0000000000000E+00
 0.9082138682005E+00 -0.3449276960612E+01  0.0000000000000E+00
 0.9082733573170E+00 -0.3378046200472E+01  0.0000000000000E+00
 0.9083328473105E+00 -0.3306814390188E+01  0.0000000000000E+00
 0.9083923353367E+00 -0.3235584935555E+01  0.0000000000000E+00
 0.9084518241884E+00 -0.3164354492402E+01  0.0000000000000E+00
 0.9085113132099E+00 -0.3093123845996E+01  0.0000000000000E+00
 0.9085708021995E+00 -0.3021893237829E+01  0.0000000000000E+00
 0.9086302911121E+00 -0.2950662721865E+01  0.0000000000000E+00
 0.9087573168832E+00 -0.2879432238978E+01  0.0000000000000E+00
 0.9093613743473E+00 -0.2808205243358E+01  0.0000000000000E+00
 0.9108870008119E+00 -0.2736998503829E+01  0.0000000000000E+00
 0.9136012880531E+00 -0.2665843825050E+01  0.0000000000000E+00
 0.9176089327442E+00 -0.2594779519508E+01  0.0000000000000E+00
 0.9229217554080E+00 -0.2523842312644E+01  0.0000000000000E+00
 0.9295157425928E+00 -0.2453065164015E+01  0.0000000000000E+00
 0.9373637349804E+00 -0.2382479178777E+01  0.0000000000000E+00
 0.9464523164353E+00 -0.2312115627219E+01  0.0000000000000E+00
 0.9567912706887E+00 -0.2242010736282E+01  0.0000000000000E+00
 0.9684214580236E+00 -0.2172209330975E+01  0.0000000000000E+00
 0.9813586095009E+00 -0.2102752954344E+01  0.0000000000000E+00
 0.9955225892331E+00 -0.2033655847757E+01  0.0000000000000E+00
 0.1010853638792E+01 -0.1964932934906E+01  0.0000000000000E+00
 0.1027323088543E+01 -0.1896605993116E+01  0.0000000000000E+00
 0.1044930000291E+01 -0.1828705755716E+01  0.0000000000000E+00
 0.1063701237794E+01 -0.1761275104543E+01  0.0000000000000E+00
 0.1083694909471E+01 -0.1694374485157E+01  0.0000000000000E+00
 0.1105009128278E+01 -0.1628088390423E+01  0.0000000000000E+00
 0.1127796379553E+01 -0.1562544205636E+01  0.0000000000000E+00
 0.1152294796986E+01 -0.1497935046963E+01  0.0000000000000E+00
 0.9350548858195E+00 -0.4233008749224E+01  0.0000000000000E+00
 0.9351097715901E+00 -0.4161972913217E+01  0.0000000000000E+00
 0.9351646574641E+00 -0.4090936943333E+01  0.0000000000000E+00
 0.9352195433858E+00 -0.4019900911701E+01  0.0000000000000E+00
 0.9352744292350E+00 -0.3948864973775E+01  0.0000000000000E+00
 0.9353293150740E+00 -0.3877829049177E+01  0.0000000000000E+00
 0.9353842009200E+00 -0.3806793115553E+01  0.0000000000000E+00
 0.9354390867743E+00 -0.3735757171211E+01  0.0000000000000E+00
 0.9354939726242E+00 -0.3664721232452E+01  0.0000000000000E+00
 0.9355488584749E+00 -0.3593685292720E+01  0.0000000000000E+00
 0.9356037444255E+00 -0.3522649223661E+01  0.0000000000000E+00
 0.9356586302045E+00 -0.3451613376723E+01  0.0000000000000E+00
 0.9357135161469E+00 -0.3380577318253E+01  0.0000000000000E+00
 0.9357684028986E+00 -0.3309540212508E+01  0.0000000000000E+00
 0.9358232878350E+00 -0.3238505455976E+01  0.0000000000000E+00
 0.9358781735332E+00 -0.3167469713625E+01  0.0000000000000E+00
 0.9359330593880E+00 -0.3096433768578E+01  0.0000000000000E+00
 0.9359879452134E+00 -0.3025397861664E+01  0.0000000000000E+00
 0.9360428309677E+00 -0.2954362046702E+01  0.0000000000000E+00
 0.9361673124864E+00 -0.2883326264858E+01  0.0000000000000E+00
 0.9367833683722E+00 -0.2812293969172E+01  0.0000000000000E+00
 0.9383490879822E+00 -0.2741281927676E+01  0.0000000000000E+00
 0.9411397055351E+00 -0.2670321946037E+01  0.0000000000000E+00
 0.9452631094320E+00 -0.2599452337398E+01  0.0000000000000E+00
 0.9507314805386E+00 -0.2528709827621E+01  0.0000000000000E+00
 0.9575200733262E+00 -0.2458127376583E+01  0.0000000000000E+00
 0.9656009005317E+00 -0.2387736088663E+01  0.0000000000000E+00
 0.9749601369954E+00 -0.2317567234886E+01  0.0000000000000E+00
 0.9856078647423E+00 -0.2247657041276E+01  0.0000000000000E+00
 0.9975861897091E+00 -0.2178050332845E+01  0.0000000000000E+00
 0.1010911322503E+01 -0.2108788653425E+01  0.0000000000000E+00
 0.1025500684237E+01 -0.2039886244463E+01  0.0000000000000E+00
 0.1041292694711E+01 -0.1971358029462E+01  0.0000000000000E+00
 0.1058257810283E+01 -0.1903225785592E+01  0.0000000000000E+00
 0.1076395064160E+01 -0.1835520246133E+01  0.0000000000000E+00
 0.1095732139060E+01 -0.1768284292824E+01  0.0000000000000E+00
 0.1116328914927E+01 -0.1701578369774E+01  0.0000000000000E+00
 0.1138286495672E+01 -0.1635486972397E+01  0.0000000000000E+00
 0.1161762015432E+01 -0.1570137480546E+01  0.0000000000000E+00
 0.1187000867489E+01 -0.1505723012798E+01  0.0000000000000E+00
 0.9625490308455E+00 -0.4233208934261E+01  0.0000000000000E+00
 0.9625980616473E+00 -0.4162373283113E+01  0.0000000000000E+00
 0.9626470925415E+00 -0.4091537498464E+01  0.0000000000000E+00
 0.9626961234783E+00 -0.4020701652242E+01  0.0000000000000E+00
 0.9627451543504E+00 -0.3949865899462E+01  0.0000000000000E+00
 0.9627941852133E+00 -0.3879030159972E+01  0.0000000000000E+00
 0.9628432160825E+00 -0.3808194411481E+01  0.0000000000000E+00
 0.9628922469590E+00 -0.3737358652303E+01  0.0000000000000E+00
 0.9629412778317E+00 -0.3666522898693E+01  0.0000000000000E+00
 0.9629903087051E+00 -0.3595687144111E+01  0.0000000000000E+00
 0.9630393396677E+00 -0.3524851260568E+01  0.0000000000000E+00
 0.9630883704770E+00 -0.3454015598519E+01  0.0000000000000E+00
 0.9631374014324E+00 -0.3383179725533E+01  0.0000000000000E+00
 0.9631864331105E+00 -0.3312342808225E+01  0.0000000000000E+00
 0.9632354631672E+00 -0.3241508233510E+01  0.0000000000000E+00
 0.9632844939044E+00 -0.3170672675753E+01  0.0000000000000E+00
 0.9633335247814E+00 -0.3099836915872E+01  0.0000000000000E+00
 0.9633825556321E+00 -0.3029001194016E+01  0.0000000000000E+00
 0.9634315864194E+00 -0.2958165563854E+01  0.0000000000000E+00
 0.9635522718756E+00 -0.2887329966851E+01  0.0000000000000E+00
 0.9641790743716E+00 -0.2816497854867E+01  0.0000000000000E+00
 0.9657836353121E+00 -0.2745685995118E+01  0.0000000000000E+00
 0.9686493313466E+00 -0.2674926194307E+01  0.0000000000000E+00
 0.9728872425984E+00 -0.2604256766253E+01  0.0000000000000E+00
 0.9785099102731E+00 -0.2533714437250E+01  0.0000000000000E+00
 0.9854918567633E+00 -0.2463332167505E+01  0.0000000000000E+00
 0.9938042668667E+00 -0.2393141060596E+01  0.0000000000000E+00
 0.1003432906395E+01 -0.2323172388306E+01  0.0000000000000E+00
 0.1014388155672E+01 -0.2253462375718E+01  0.0000000000000E+00
 0.1026713366288E+01 -0.2184055847844E+01  0.0000000000000E+00
 0.1040425228390E+01 -0.2114994349325E+01  0.0000000000000E+00
 0.1055438720094E+01 -0.2046292121691E+01  0.0000000000000E+00
 0.1071690439431E+01 -0.1977964088247E+01  0.0000000000000E+00
 0.1089149968751E+01 -0.1910032026008E+01  0.0000000000000E+00
 0.1107816312662E+01 -0.1842526668202E+01  0.0000000000000E+00
 0.1127717972847E+01 -0.1775490896466E+01  0.0000000000000E+00
 0.1148916600779E+01 -0.1708985153419E+01  0.0000000000000E+00
 0.1171516291308E+01 -0.1643093937094E+01  0.0000000000000E+00
 0.1195678827404E+01 -0.1577944621747E+01  0.0000000000000E+00
 0.1221656861916E+01 -0.1513730328440E+01  0.0000000000000E+00
 0.9900418963175E+00 -0.4233414571432E+01  0.0000000000000E+00
 0.9900837925975E+00 -0.4162784557271E+01  0.0000000000000E+00
 0.9901256889566E+00 -0.4092154409997E+01  0.0000000000000E+00
 0.9901675853520E+00 -0.4021524201328E+01  0.0000000000000E+00
 0.9902094816922E+00 -0.3950894085830E+01  0.0000000000000E+00
 0.9902513780245E+00 -0.3880263983584E+01  0.0000000000000E+00
 0.9902932743622E+00 -0.3809633872364E+01  0.0000000000000E+00
 0.9903351707061E+00 -0.3739003750486E+01  0.0000000000000E+00
 0.9903770670468E+00 -0.3668373634161E+01  0.0000000000000E+00
 0.9904189633881E+00 -0.3597743516867E+01  0.0000000000000E+00
 0.9904608598056E+00 -0.3527113270985E+01  0.0000000000000E+00
 0.9905027560921E+00 -0.3456483245955E+01  0.0000000000000E+00
 0.9905446525034E+00 -0.3385853010601E+01  0.0000000000000E+00
 0.9905865495323E+00 -0.3315221733956E+01  0.0000000000000E+00
 0.9906284451757E+00 -0.3244592793103E+01  0.0000000000000E+00
 0.9906703414006E+00 -0.3173962872062E+01  0.0000000000000E+00
 0.9907122377450E+00 -0.3103332749484E+01  0.0000000000000E+00
 0.9907541340669E+00 -0.3032702664821E+01  0.0000000000000E+00
 0.9907960303345E+00 -0.2962072671585E+01  0.0000000000000E+00
 0.9909116401763E+00 -0.2891442711552E+01  0.0000000000000E+00
 0.9915479097436E+00 -0.2820816235367E+01  0.0000000000000E+00
 0.9931900324991E+00 -0.2750210009408E+01  0.0000000000000E+00
 0.9961295275201E+00 -0.2679655841445E+01  0.0000000000000E+00
 0.1000480666649E+01 -0.2609192045989E+01  0.0000000000000E+00
 0.1006256351428E+01 -0.2538855349777E+01  0.0000000000000E+00
 0.1013430372169E+01 -0.2468678713357E+01  0.0000000000000E+00
 0.1021973085736E+01 -0.2398693239484E+01  0.0000000000000E+00
 0.1031869848906E+01 -0.2328930200717E+01  0.0000000000000E+00
 0.1043131340308E+01 -0.2259425821175E+01  0.0000000000000E+00
 0.1055802157187E+01 -0.2190224925870E+01  0.0000000000000E+00
 0.1069899469226E+01 -0.2121369060273E+01  0.0000000000000E+00
 0.1085335811539E+01 -0.2052872465999E+01  0.0000000000000E+00
 0.1102045960391E+01 -0.1984750066153E+01  0.0000000000000E+00
 0.1119998624125E+01 -0.1917023637585E+01  0.0000000000000E+00
 0.1139192778749E+01 -0.1849723913474E+01  0.0000000000000E+00
 0.1159657744912E+01 -0.1782893775349E+01  0.0000000000000E+00
 0.1181456945627E+01 -0.1716593664302E+01  0.0000000000000E+00
 0.1204697466668E+01 -0.1650908081054E+01  0.0000000000000E+00
 0.1229545739873E+01 -0.1585964394114E+01  0.0000000000000E+00
 0.1256261677649E+01 -0.1521955727091E+01  0.0000000000000E+00
 0.1017533454000E+01 -0.4233625628207E+01  0.0000000000000E+00
 0.1017566907971E+01 -0.4163206670632E+01  0.0000000000000E+00
 0.1017600362004E+01 -0.4092787580343E+01  0.0000000000000E+00
 0.1017633816067E+01 -0.4022368428842E+01  0.0000000000000E+00
 0.1017667270085E+01 -0.3951949370234E+01  0.0000000000000E+00
 0.1017700724097E+01 -0.3881530324838E+01  0.0000000000000E+00
 0.1017734178114E+01 -0.3811111270494E+01  0.0000000000000E+00
 0.1017767632135E+01 -0.3740692205524E+01  0.0000000000000E+00
 0.1017801086154E+01 -0.3670273146091E+01  0.0000000000000E+00
 0.1017834540173E+01 -0.3599854085692E+01  0.0000000000000E+00
 0.1017867994254E+01 -0.3529434897089E+01  0.0000000000000E+00
 0.1017901448229E+01 -0.3459015928678E+01  0.0000000000000E+00
 0.1017934902304E+01 -0.3388596750572E+01  0.0000000000000E+00
 0.1017968356873E+01 -0.3318176534286E+01  0.0000000000000E+00
 0.1018001810335E+01 -0.3247758646812E+01  0.0000000000000E+00
 0.1018035264261E+01 -0.3177339782080E+01  0.0000000000000E+00
 0.1018068718283E+01 -0.3106920716413E+01  0.0000000000000E+00
 0.1018102172287E+01 -0.3036501688547E+01  0.0000000000000E+00
 0.1018135626247E+01 -0.2966082751835E+01  0.0000000000000E+00
 0.1018244852688E+01 -0.2895663848371E+01  0.0000000000000E+00
 0.1018889281555E+01 -0.2825248427553E+01  0.0000000000000E+00
 0.1020567658381E+01 -0.2754853254900E+01  0.0000000000000E+00
 0.1023579644669E+01 -0.2684510139275E+01  0.0000000000000E+00
 0.1028042703977E+01 -0.2614257395899E+01  0.0000000000000E+00
 0.1033970098182E+01 -0.2544131751969E+01  0.0000000000000E+00
 0.1041334885514E+01 -0.2474166168375E+01  0.0000000000000E+00
 0.1050106594904E+01 -0.2404391747033E+01  0.0000000000000E+00
 0.1060270174092E+01 -0.2334839761298E+01  0.0000000000000E+00
 0.1071836600020E+01 -0.2265546434297E+01  0.0000000000000E+00
 0.1084851715585E+01 -0.2196556591045E+01  0.0000000000000E+00
 0.1099333170002E+01 -0.2127911777862E+01  0.0000000000000E+00
 0.1115191055382E+01 -0.2059626236452E+01  0.0000000000000E+00
 0.1132358326224E+01 -0.1991714889712E+01  0.0000000000000E+00
 0.1150802816865E+01 -0.1924199514328E+01  0.0000000000000E+00
 0.1170523474713E+01 -0.1857110843424E+01  0.0000000000000E+00
 0.1191550439383E+01 -0.1790491758421E+01  0.0000000000000E+00
 0.1213948905440E+01 -0.1724402698843E+01  0.0000000000000E+00
 0.1237828949566E+01 -0.1658928168167E+01  0.0000000000000E+00
 0.1263361652507E+01 -0.1594195529007E+01  0.0000000000000E+00
 0.1290814186213E+01 -0.1530397907585E+01  0.0000000000000E+00
 0.1045023674235E+01 -0.4233842070904E+01  0.0000000000000E+00
 0.1045047348449E+01 -0.4163639555833E+01  0.0000000000000E+00
 0.1045071022707E+01 -0.4093436908455E+01  0.0000000000000E+00
 0.1045094696986E+01 -0.4023234200054E+01  0.0000000000000E+00
 0.1045118371233E+01 -0.3953031584260E+01  0.0000000000000E+00
 0.1045142045477E+01 -0.3882828981637E+01  0.0000000000000E+00
 0.1045165719723E+01 -0.3812626370094E+01  0.0000000000000E+00
 0.1045189393973E+01 -0.3742423747959E+01  0.0000000000000E+00
 0.1045213068221E+01 -0.3672221131342E+01  0.0000000000000E+00
 0.1045236742469E+01 -0.3602018513763E+01  0.0000000000000E+00
 0.1045260416760E+01 -0.3531815768374E+01  0.0000000000000E+00
 0.1045284090977E+01 -0.3461613242500E+01  0.0000000000000E+00
 0.1045307765265E+01 -0.3391410507575E+01  0.0000000000000E+00
 0.1045331439902E+01 -0.3321206737662E+01  0.0000000000000E+00
 0.1045355113756E+01 -0.3251005289403E+01  0.0000000000000E+00
 0.1045378787939E+01 -0.3180802866889E+01  0.0000000000000E+00
 0.1045402462189E+01 -0.3110600244057E+01  0.0000000000000E+00
 0.1045426136426E+01 -0.3040397658911E+01  0.0000000000000E+00
 0.1045449810633E+01 -0.2970195164638E+01  0.0000000000000E+00
 0.1045551316223E+01 -0.2899992703660E+01  0.0000000000000E+00
 0.1046202566935E+01 -0.2829793724095E+01  0.0000000000000E+00
 0.1047915860364E+01 -0.2759614990581E+01  0.0000000000000E+00
 0.1050999000424E+01 -0.2689488313102E+01  0.0000000000000E+00
 0.1055572642382E+01 -0.2619452007610E+01  0.0000000000000E+00
 0.1061650408446E+01 -0.2549542801767E+01  0.0000000000000E+00
 0.1069204624761E+01 -0.2479793656821E+01  0.0000000000000E+00
 0.1078203992335E+01 -0.2410235673824E+01  0.0000000000000E+00
 0.1088633049863E+01 -0.2340900126947E+01  0.0000000000000E+00
 0.1100503072607E+01 -0.2271823238302E+01  0.0000000000000E+00
 0.1113861149115E+01 -0.2203049832902E+01  0.0000000000000E+00
 0.1128725408128E+01 -0.2134621457944E+01  0.0000000000000E+00
 0.1145003498756E+01 -0.2066552355220E+01  0.0000000000000E+00
 0.1162626553734E+01 -0.1998857447416E+01  0.0000000000000E+00
 0.1181561533394E+01 -0.1931558511045E+01  0.0000000000000E+00
 0.1201807356548E+01 -0.1864686279179E+01  0.0000000000000E+00
 0.1223394981775E+01 -0.1798283633127E+01  0.0000000000000E+00
 0.1246391375200E+01 -0.1732411010803E+01  0.0000000000000E+00
 0.1270909604393E+01 -0.1667152918514E+01  0.0000000000000E+00
 0.1297125399040E+01 -0.1602636712827E+01  0.0000000000000E+00
 0.1325313190613E+01 -0.1539055522643E+01  0.0000000000000E+00
 0.1072512531546E+01 -0.4234063866321E+01  0.0000000000000E+00
 0.1072525063080E+01 -0.4164083146470E+01  0.0000000000000E+00
 0.1072537594638E+01 -0.4094102294730E+01  0.0000000000000E+00
 0.1072550126207E+01 -0.4024121382159E+01  0.0000000000000E+00
 0.1072562657759E+01 -0.3954140561902E+01  0.0000000000000E+00
 0.1072575189309E+01 -0.3884159754776E+01  0.0000000000000E+00
 0.1072587720861E+01 -0.3814178938758E+01  0.0000000000000E+00
 0.1072600252414E+01 -0.3744198112180E+01  0.0000000000000E+00
 0.1072612783967E+01 -0.3674217291104E+01  0.0000000000000E+00
 0.1072625315520E+01 -0.3604236469068E+01  0.0000000000000E+00
 0.1072637847095E+01 -0.3534255519626E+01  0.0000000000000E+00
 0.1072650378631E+01 -0.3464274789006E+01  0.0000000000000E+00
 0.1072662910205E+01 -0.3394293849995E+01  0.0000000000000E+00
 0.1072675441964E+01 -0.3324311879266E+01  0.0000000000000E+00
 0.1072687973307E+01 -0.3254332222856E+01  0.0000000000000E+00
 0.1072700504825E+01 -0.3184351595269E+01  0.0000000000000E+00
 0.1072713036379E+01 -0.3114370767997E+01  0.0000000000000E+00
 0.1072725567926E+01 -0.3044389978293E+01  0.0000000000000E+00
 0.1072738099457E+01 -0.2974409279174E+01  0.0000000000000E+00
 0.1072830521275E+01 -0.2904428613396E+01  0.0000000000000E+00
 0.1073487230923E+01 -0.2834451427769E+01  0.0000000000000E+00
 0.1075234078069E+01 -0.2764494486027E+01  0.0000000000000E+00
 0.1078387009034E+01 -0.2694589599303E+01  0.0000000000000E+00
 0.1083069870790E+01 -0.2624775084295E+01  0.0000000000000E+00
 0.1089296645875E+01 -0.2555087669146E+01  0.0000000000000E+00
 0.1097038928343E+01 -0.2485560315469E+01  0.0000000000000E+00
 0.1106264591286E+01 -0.2416224123429E+01  0.0000000000000E+00
 0.1116957764351E+01 -0.2347110368037E+01  0.0000000000000E+00
 0.1129130021121E+01 -0.2278255270360E+01  0.0000000000000E+00
 0.1142829695801E+01 -0.2209703655415E+01  0.0000000000000E+00
 0.1158075396650E+01 -0.2141497071292E+01  0.0000000000000E+00
 0.1174772329777E+01 -0.2073649759875E+01  0.0000000000000E+00
 0.1192849806151E+01 -0.2006176643634E+01  0.0000000000000E+00
 0.1212273912104E+01 -0.1939099498907E+01  0.0000000000000E+00
 0.1233043537849E+01 -0.1872449058708E+01  0.0000000000000E+00
 0.1255190460929E+01 -0.1806268204236E+01  0.0000000000000E+00
 0.1278783419043E+01 -0.1740617371751E+01  0.0000000000000E+00
 0.1303938470630E+01 -0.1675581070464E+01  0.0000000000000E+00
 0.1330835994357E+01 -0.1611286650742E+01  0.0000000000000E+00
 0.1359757681202E+01 -0.1547927244234E+01  0.0000000000000E+00
-0.6778574956198E+00 -0.1262067680153E+01  0.0000000000000E+00
-0.6782770661586E+00 -0.1176951538939E+01  0.0000000000000E+00
-0.6790038521434E+00 -0.1091837606340E+01  0.0000000000000E+00
-0.6800826918120E+00 -0.1006727743275E+01  0.0000000000000E+00
-0.6815616898838E+00 -0.9216243838726E+00  0.0000000000000E+00
-0.6834862980979E+00 -0.8365308372119E+00  0.0000000000000E+00
-0.6858864270538E+00 -0.7514504222619E+00  0.0000000000000E+00
-0.6887536618310E+00 -0.6663859764994E+00  0.0000000000000E+00
-0.6920116565350E+00 -0.5813369229450E+00  0.0000000000000E+00
-0.6954975963156E+00 -0.4962977947840E+00  0.0000000000000E+00
-0.6989835360050E+00 -0.4112586666193E+00  0.0000000000000E+00
-0.7022415304475E+00 -0.3262096130549E+00  0.0000000000000E+00
-0.7051087648230E+00 -0.2411451672791E+00  0.0000000000000E+00
-0.7075088932732E+00 -0.1560647523149E+00  0.0000000000000E+00
-0.7094335009094E+00 -0.7097120564155E-01  0.0000000000000E+00
-0.7109124983562E+00  0.1413215377165E-01  0.0000000000000E+00
-0.7119913373706E+00  0.9924201684453E-01  0.0000000000000E+00
-0.7127181226840E+00  0.1843559494488E+00  0.0000000000000E+00
-0.7131376925427E+00  0.2694720906668E+00  0.0000000000000E+00
-0.6423834586364E+00 -0.1257430206780E+01  0.0000000000000E+00
-0.6428079469815E+00 -0.1172076973233E+01  0.0000000000000E+00
-0.6435234815340E+00 -0.1086725948382E+01  0.0000000000000E+00
-0.6445725406163E+00 -0.1001378993222E+01  0.0000000000000E+00
-0.6460006971461E+00 -0.9160385416585E+00  0.0000000000000E+00
-0.6478510106322E+00 -0.8307079030675E+00  0.0000000000000E+00
-0.6501518174942E+00 -0.7453903958721E+00  0.0000000000000E+00
-0.6528951456395E+00 -0.6600888580888E+00  0.0000000000000E+00
-0.6560086674312E+00 -0.5748027122585E+00  0.0000000000000E+00
-0.6593381371986E+00 -0.4895264917391E+00  0.0000000000000E+00
-0.6626676068748E+00 -0.4042502712162E+00  0.0000000000000E+00
-0.6657811284050E+00 -0.3189641253765E+00  0.0000000000000E+00
-0.6685244561486E+00 -0.2336625875806E+00  0.0000000000000E+00
-0.6708252625048E+00 -0.1483450803717E+00  0.0000000000000E+00
-0.6726755754131E+00 -0.6301444176865E-01  0.0000000000000E+00
-0.6741037313179E+00  0.2232600980478E-01  0.0000000000000E+00
-0.6751527897460E+00  0.1076729649727E+00  0.0000000000000E+00
-0.6758683236271E+00  0.1930239898287E+00  0.0000000000000E+00
-0.6762928112920E+00  0.2783772233786E+00  0.0000000000000E+00
-0.6068771248225E+00 -0.1253037464350E+01  0.0000000000000E+00
-0.6073023861501E+00 -0.1167458422578E+01  0.0000000000000E+00
-0.6080025244294E+00 -0.1081881589579E+01  0.0000000000000E+00
-0.6090176580661E+00 -0.9963088264196E+00  0.0000000000000E+00
-0.6103908281695E+00 -0.9107425667951E+00  0.0000000000000E+00
-0.6121627020206E+00 -0.8251861203621E+00  0.0000000000000E+00
-0.6143600418475E+00 -0.7396428050247E+00  0.0000000000000E+00
-0.6169753183957E+00 -0.6541154593135E+00  0.0000000000000E+00
-0.6199402222819E+00 -0.5686035053123E+00  0.0000000000000E+00
-0.6231090770279E+00 -0.4831014765433E+00  0.0000000000000E+00
-0.6262779316826E+00 -0.3975994477710E+00  0.0000000000000E+00
-0.6292428353073E+00 -0.3120874937608E+00  0.0000000000000E+00
-0.6318581114538E+00 -0.2265601480377E+00  0.0000000000000E+00
-0.6340554507749E+00 -0.1410168326875E+00  0.0000000000000E+00
-0.6358273240482E+00 -0.5546038624327E-01  0.0000000000000E+00
-0.6372004935266E+00  0.3010587339095E-01  0.0000000000000E+00
-0.6382156265091E+00  0.1156786365575E+00  0.0000000000000E+00
-0.6389157641170E+00  0.2012554695615E+00  0.0000000000000E+00
-0.6393410247644E+00  0.2868345113357E+00  0.0000000000000E+00
-0.5713401376445E+00 -0.1248890411137E+01  0.0000000000000E+00
-0.5717622009905E+00 -0.1163097082270E+01  0.0000000000000E+00
-0.5724429720439E+00 -0.1077305962247E+01  0.0000000000000E+00
-0.5734202092963E+00 -0.9915189122057E+00  0.0000000000000E+00
-0.5747344220463E+00 -0.9057383656401E+00  0.0000000000000E+00
-0.5764238853537E+00 -0.8199676324743E+00  0.0000000000000E+00
-0.5785137872467E+00 -0.7342100301194E+00  0.0000000000000E+00
-0.5809970413178E+00 -0.6484683975936E+00  0.0000000000000E+00
-0.5838093564268E+00 -0.5627421565474E+00  0.0000000000000E+00
-0.5868136252857E+00 -0.4770258406587E+00  0.0000000000000E+00
-0.5898178940533E+00 -0.3913095247669E+00  0.0000000000000E+00
-0.5926302089008E+00 -0.3055832837122E+00  0.0000000000000E+00
-0.5951134625703E+00 -0.2198416511753E+00  0.0000000000000E+00
-0.5972033639575E+00 -0.1340840488083E+00  0.0000000000000E+00
-0.5988928266870E+00 -0.4831331563190E-01  0.0000000000000E+00
-0.6002070388120E+00  0.3746723094278E-01  0.0000000000000E+00
-0.6011842754101E+00  0.1232542809908E+00  0.0000000000000E+00
-0.6018650457922E+00  0.2090454010180E+00  0.0000000000000E+00
-0.6022871084581E+00  0.2948387298880E+00  0.0000000000000E+00
-0.5357741369022E+00 -0.1244989956190E+01  0.0000000000000E+00
-0.5361892110234E+00 -0.1158994088951E+01  0.0000000000000E+00
-0.5368468236192E+00 -0.1073000430625E+01  0.0000000000000E+00
-0.5377823732698E+00 -0.9870108424148E+00  0.0000000000000E+00
-0.5390338374614E+00 -0.9010277576241E+00  0.0000000000000E+00
-0.5406370990385E+00 -0.8150544864300E+00  0.0000000000000E+00
-0.5426157718221E+00 -0.7290943457776E+00  0.0000000000000E+00
-0.5449632122597E+00 -0.6431501751464E+00  0.0000000000000E+00
-0.5476191474442E+00 -0.5572213957766E+00  0.0000000000000E+00
-0.5504550392749E+00 -0.4713025414940E+00  0.0000000000000E+00
-0.5532909310144E+00 -0.3853836872084E+00  0.0000000000000E+00
-0.5559468659374E+00 -0.2994549078308E+00  0.0000000000000E+00
-0.5582943059733E+00 -0.2135107371891E+00  0.0000000000000E+00
-0.5602729782511E+00 -0.1275505965254E+00  0.0000000000000E+00
-0.5618762392504E+00 -0.4157732532137E-01  0.0000000000000E+00
-0.5631277028170E+00  0.4440575947785E-01  0.0000000000000E+00
-0.5640632518133E+00  0.1303953476947E+00  0.0000000000000E+00
-0.5647208637377E+00  0.2163890060246E+00  0.0000000000000E+00
-0.5651359371787E+00  0.3023848732658E+00  0.0000000000000E+00
-0.5001808381180E+00 -0.1241336966218E+01  0.0000000000000E+00
-0.5005853091216E+00 -0.1155150525915E+01  0.0000000000000E+00
-0.5012161493549E+00 -0.1068966294589E+01  0.0000000000000E+00
-0.5021063974859E+00 -0.9827861335033E+00  0.0000000000000E+00
-0.5032914991826E+00 -0.8966124757853E+00  0.0000000000000E+00
-0.5048049450772E+00 -0.8104486318491E+00  0.0000000000000E+00
-0.5066687747735E+00 -0.7242979182013E+00  0.0000000000000E+00
-0.5088767875828E+00 -0.6381631747553E+00  0.0000000000000E+00
-0.5113727288271E+00 -0.5520438223657E+00  0.0000000000000E+00
-0.5140366296026E+00 -0.4659343949968E+00  0.0000000000000E+00
-0.5167005302870E+00 -0.3798249676253E+00  0.0000000000000E+00
-0.5191964712696E+00 -0.2937056152283E+00  0.0000000000000E+00
-0.5214044836774E+00 -0.2075708717725E+00  0.0000000000000E+00
-0.5232683128678E+00 -0.1214201581142E+00  0.0000000000000E+00
-0.5247817581846E+00 -0.3525631416868E-01  0.0000000000000E+00
-0.5259668592563E+00  0.5091734355727E-01  0.0000000000000E+00
-0.5268571067330E+00  0.1370975046484E+00  0.0000000000000E+00
-0.5274879462949E+00  0.2232817359786E+00  0.0000000000000E+00
-0.5278924166184E+00  0.3094681762846E+00  0.0000000000000E+00
-0.4645619564064E+00 -0.1237932258017E+01  0.0000000000000E+00
-0.4649524100802E+00 -0.1151567419413E+01  0.0000000000000E+00
-0.4655530637473E+00 -0.1065204789847E+01  0.0000000000000E+00
-0.4663945961656E+00 -0.9788462306392E+00  0.0000000000000E+00
-0.4675099211833E+00 -0.8924941747498E+00  0.0000000000000E+00
-0.4689301372252E+00 -0.8061519328155E+00  0.0000000000000E+00
-0.4706757096711E+00 -0.7198228209325E+00  0.0000000000000E+00
-0.4727408807035E+00 -0.6335096794204E+00  0.0000000000000E+00
-0.4750734138646E+00 -0.5472119287727E+00  0.0000000000000E+00
-0.4775619094464E+00 -0.4609241030837E+00  0.0000000000000E+00
-0.4800504049371E+00 -0.3746362773921E+00  0.0000000000000E+00
-0.4823829378366E+00 -0.2883385267376E+00  0.0000000000000E+00
-0.4844481084674E+00 -0.2020253852164E+00  0.0000000000000E+00
-0.4861936804074E+00 -0.1156962733237E+00  0.0000000000000E+00
-0.4876138958714E+00 -0.2935403138074E-01  0.0000000000000E+00
-0.4887292202642E+00  0.5699802451606E-01  0.0000000000000E+00
-0.4895707520282E+00  0.1433565837290E+00  0.0000000000000E+00
-0.4901714050239E+00  0.2297192132988E+00  0.0000000000000E+00
-0.4905618580176E+00  0.3160840519049E+00  0.0000000000000E+00
-0.4289192212257E+00 -0.1234776597180E+01  0.0000000000000E+00
-0.4292924445295E+00 -0.1148245732540E+01  0.0000000000000E+00
-0.4298596985868E+00 -0.1061717076994E+01  0.0000000000000E+00
-0.4306493022459E+00 -0.9751924919160E+00  0.0000000000000E+00
-0.4316916375313E+00 -0.8886744101102E+00  0.0000000000000E+00
-0.4330154106638E+00 -0.8021661424208E+00  0.0000000000000E+00
-0.4346395127912E+00 -0.7156710045621E+00  0.0000000000000E+00
-0.4365586289750E+00 -0.6291918372315E+00  0.0000000000000E+00
-0.4387245409721E+00 -0.5427280605867E+00  0.0000000000000E+00
-0.4410344182749E+00 -0.4562742088428E+00  0.0000000000000E+00
-0.4433442954865E+00 -0.3698203570966E+00  0.0000000000000E+00
-0.4455102072220E+00 -0.2833565804456E+00  0.0000000000000E+00
-0.4474293230042E+00 -0.1968774131066E+00  0.0000000000000E+00
-0.4490534246258E+00 -0.1103822752388E+00  0.0000000000000E+00
-0.4503771971804E+00 -0.2387400754147E-01  0.0000000000000E+00
-0.4514195318408E+00  0.6264407427117E-01  0.0000000000000E+00
-0.4522091348456E+00  0.1491686593542E+00  0.0000000000000E+00
-0.4527763882315E+00  0.2356973149040E+00  0.0000000000000E+00
-0.4531496108551E+00  0.3222281795461E+00  0.0000000000000E+00
-0.3932543780196E+00 -0.1231870698467E+01  0.0000000000000E+00
-0.3936073729461E+00 -0.1145186367233E+01  0.0000000000000E+00
-0.3941382293917E+00 -0.1058504245145E+01  0.0000000000000E+00
-0.3948729062967E+00 -0.9718261936258E+00  0.0000000000000E+00
-0.3958392538597E+00 -0.8851546453368E+00  0.0000000000000E+00
-0.3970635861021E+00 -0.7984929113133E+00  0.0000000000000E+00
-0.3985632199332E+00 -0.7118443069165E+00  0.0000000000000E+00
-0.4003332833000E+00 -0.6252116731933E+00  0.0000000000000E+00
-0.4023295761670E+00 -0.5385944299907E+00  0.0000000000000E+00
-0.4044578372269E+00 -0.4519871116356E+00  0.0000000000000E+00
-0.4065860981956E+00 -0.3653797932784E+00  0.0000000000000E+00
-0.4085823908010E+00 -0.2787625500701E+00  0.0000000000000E+00
-0.4103524537661E+00 -0.1921299163392E+00  0.0000000000000E+00
-0.4118520870914E+00 -0.1054813119341E+00  0.0000000000000E+00
-0.4130764187560E+00 -0.1881957790332E-01  0.0000000000000E+00
-0.4140427656940E+00  0.6785197039194E-01  0.0000000000000E+00
-0.4147774419447E+00  0.1545300219154E+00  0.0000000000000E+00
-0.4153082977189E+00  0.2412121440070E+00  0.0000000000000E+00
-0.4156612919653E+00  0.3278964752429E+00  0.0000000000000E+00
-0.3575691979619E+00 -0.1229215224608E+01  0.0000000000000E+00
-0.3578991845277E+00 -0.1142390160639E+01  0.0000000000000E+00
-0.3583908633752E+00 -0.1055567305864E+01  0.0000000000000E+00
-0.3590678335372E+00 -0.9687485217511E+00  0.0000000000000E+00
-0.3599554133833E+00 -0.8819362408292E+00  0.0000000000000E+00
-0.3610775247381E+00 -0.7951337743095E+00  0.0000000000000E+00
-0.3624499102658E+00 -0.7083444372294E+00  0.0000000000000E+00
-0.3640681408054E+00 -0.6215710709562E+00  0.0000000000000E+00
-0.3658920345241E+00 -0.5348130950523E+00  0.0000000000000E+00
-0.3678358993193E+00 -0.4480650439469E+00  0.0000000000000E+00
-0.3697797640233E+00 -0.3613169928396E+00  0.0000000000000E+00
-0.3716036574805E+00 -0.2745590169304E+00  0.0000000000000E+00
-0.3732218876184E+00 -0.1877856506502E+00  0.0000000000000E+00
-0.3745942726403E+00 -0.1009963135626E+00  0.0000000000000E+00
-0.3757163834173E+00 -0.1419384703630E-01  0.0000000000000E+00
-0.3766039626383E+00  0.7261843389131E-01  0.0000000000000E+00
-0.3772809321460E+00  0.1594372180084E+00  0.0000000000000E+00
-0.3777726103222E+00  0.2462600727866E+00  0.0000000000000E+00
-0.3781025962077E+00  0.3330851367569E+00  0.0000000000000E+00
-0.3218654826118E+00 -0.1226810785876E+01  0.0000000000000E+00
-0.3221699083761E+00 -0.1139857885184E+01  0.0000000000000E+00
-0.3226198571880E+00 -0.1052907193727E+01  0.0000000000000E+00
-0.3232365681736E+00 -0.9659605730175E+00  0.0000000000000E+00
-0.3240428278714E+00 -0.8790204554635E+00  0.0000000000000E+00
-0.3250601659129E+00 -0.7920901524360E+00  0.0000000000000E+00
-0.3263027507117E+00 -0.7051729786780E+00  0.0000000000000E+00
-0.3277665960040E+00 -0.6182717758481E+00  0.0000000000000E+00
-0.3294155381548E+00 -0.5313859632499E+00  0.0000000000000E+00
-0.3311724542660E+00 -0.4445100754058E+00  0.0000000000000E+00
-0.3329293702861E+00 -0.3576341875599E+00  0.0000000000000E+00
-0.3345783121753E+00 -0.2707483749570E+00  0.0000000000000E+00
-0.3360421570660E+00 -0.1838471721208E+00  0.0000000000000E+00
-0.3372847413589E+00 -0.9692999835613E-01  0.0000000000000E+00
-0.3383020788226E+00 -0.9999695322564E-02  0.0000000000000E+00
-0.3391083378954E+00  0.7694042223655E-01  0.0000000000000E+00
-0.3397250482267E+00  0.1638870429499E+00  0.0000000000000E+00
-0.3401749963672E+00  0.2508377344090E+00  0.0000000000000E+00
-0.3404794214513E+00  0.3377906351034E+00  0.0000000000000E+00
-0.2861450373520E+00 -0.1224657936950E+01  0.0000000000000E+00
-0.2864215844532E+00 -0.1137590244331E+01  0.0000000000000E+00
-0.2868274853715E+00 -0.1050524760987E+01  0.0000000000000E+00
-0.2873816193277E+00 -0.9634633484665E+00  0.0000000000000E+00
-0.2881042410273E+00 -0.8764084390695E+00  0.0000000000000E+00
-0.2890144879123E+00 -0.7893633443104E+00  0.0000000000000E+00
-0.2901249541400E+00 -0.7023313786683E+00  0.0000000000000E+00
-0.2914320963498E+00 -0.6153153840630E+00  0.0000000000000E+00
-0.2929037690984E+00 -0.5283147795659E+00  0.0000000000000E+00
-0.2944714186929E+00 -0.4413240997829E+00  0.0000000000000E+00
-0.2960390681962E+00 -0.3543334199984E+00  0.0000000000000E+00
-0.2975107406832E+00 -0.2673328154971E+00  0.0000000000000E+00
-0.2988178824914E+00 -0.1803168208862E+00  0.0000000000000E+00
-0.2999283482133E+00 -0.9328485523812E-01  0.0000000000000E+00
-0.3008385945204E+00 -0.6239760473675E-02  0.0000000000000E+00
-0.3015612155950E+00  0.8081514892790E-01  0.0000000000000E+00
-0.3021153488969E+00  0.1678765614522E+00  0.0000000000000E+00
-0.3025212491438E+00  0.2549420447980E+00  0.0000000000000E+00
-0.3027977955648E+00  0.3420097374179E+00  0.0000000000000E+00
-0.2504096817960E+00 -0.1222757176891E+01  0.0000000000000E+00
-0.2506562726981E+00 -0.1135587871943E+01  0.0000000000000E+00
-0.2510160481881E+00 -0.1048420776304E+01  0.0000000000000E+00
-0.2515055275823E+00 -0.9612577515542E+00  0.0000000000000E+00
-0.2521424337517E+00 -0.8741012299005E+00  0.0000000000000E+00
-0.2529435119511E+00 -0.7869545229834E+00  0.0000000000000E+00
-0.2539197820773E+00 -0.6998209450482E+00  0.0000000000000E+00
-0.2550681436771E+00 -0.6127033382460E+00  0.0000000000000E+00
-0.2563604694946E+00 -0.5256011214427E+00  0.0000000000000E+00
-0.2577367750435E+00 -0.4385088293183E+00  0.0000000000000E+00
-0.2591130805012E+00 -0.3514165371924E+00  0.0000000000000E+00
-0.2604054060573E+00 -0.2643143203854E+00  0.0000000000000E+00
-0.2615537672554E+00 -0.1771967135784E+00  0.0000000000000E+00
-0.2625300368757E+00 -0.9006313563793E-01  0.0000000000000E+00
-0.2633311144972E+00 -0.2916428716145E-02  0.0000000000000E+00
-0.2639680200416E+00  0.8424009294153E-01  0.0000000000000E+00
-0.2644574987815E+00  0.1714031176939E+00  0.0000000000000E+00
-0.2648172736002E+00  0.2585702133351E+00  0.0000000000000E+00
-0.2650638638220E+00  0.3457395182847E+00  0.0000000000000E+00
-0.2146612485249E+00 -0.1221108948317E+01  0.0000000000000E+00
-0.2148760519034E+00 -0.1133851330987E+01  0.0000000000000E+00
-0.2151878706402E+00 -0.1046595922996E+01  0.0000000000000E+00
-0.2156108641473E+00 -0.9593445859525E+00  0.0000000000000E+00
-0.2161602234591E+00 -0.8720997519805E+00  0.0000000000000E+00
-0.2168503016456E+00 -0.7848647328308E+00  0.0000000000000E+00
-0.2176905443385E+00 -0.6976428425456E+00  0.0000000000000E+00
-0.2186782939965E+00 -0.6104369234771E+00  0.0000000000000E+00
-0.2197894415477E+00 -0.5232463943124E+00  0.0000000000000E+00
-0.2209725717140E+00 -0.4360657897959E+00  0.0000000000000E+00
-0.2221557017892E+00 -0.3488851852782E+00  0.0000000000000E+00
-0.2232668490789E+00 -0.2616946561104E+00  0.0000000000000E+00
-0.2242545983352E+00 -0.1744887370377E+00  0.0000000000000E+00
-0.2250948405222E+00 -0.8726684674795E-01  0.0000000000000E+00
-0.2257849181308E+00 -0.3182759427317E-04  0.0000000000000E+00
-0.2263342768177E+00  0.8721300638113E-01  0.0000000000000E+00
-0.2267572696704E+00  0.1744643434270E+00  0.0000000000000E+00
-0.2270690877358E+00  0.2617197514199E+00  0.0000000000000E+00
-0.2272838904341E+00  0.3489773687512E+00  0.0000000000000E+00
-0.1789015764263E+00 -0.1219713636439E+01  0.0000000000000E+00
-0.1790830136144E+00 -0.1132381112142E+01  0.0000000000000E+00
-0.1793452969311E+00 -0.1045050797208E+01  0.0000000000000E+00
-0.1797002258847E+00 -0.9577245532724E+00  0.0000000000000E+00
-0.1801604596716E+00 -0.8704048123869E+00  0.0000000000000E+00
-0.1807379591784E+00 -0.7830948863965E+00  0.0000000000000E+00
-0.1814405957685E+00 -0.6957980891710E+00  0.0000000000000E+00
-0.1822661548159E+00 -0.6085172632330E+00  0.0000000000000E+00
-0.1831945454296E+00 -0.5212518271183E+00  0.0000000000000E+00
-0.1841829215412E+00 -0.4339963156258E+00  0.0000000000000E+00
-0.1851712975617E+00 -0.3467408041322E+00  0.0000000000000E+00
-0.1860996879139E+00 -0.2594753680149E+00  0.0000000000000E+00
-0.1869252465596E+00 -0.1721945420735E+00  0.0000000000000E+00
-0.1876278826438E+00 -0.8489774484416E-01  0.0000000000000E+00
-0.1882053815728E+00  0.2412181149585E-02  0.0000000000000E+00
-0.1886656147347E+00  0.8973192203785E-01  0.0000000000000E+00
-0.1890205430340E+00  0.1770581659759E+00  0.0000000000000E+00
-0.1892828256793E+00  0.2643884809106E+00  0.0000000000000E+00
-0.1894642621872E+00  0.3517210052090E+00  0.0000000000000E+00
-0.1431325314919E+00 -0.1218571569045E+01  0.0000000000000E+00
-0.1432792793728E+00 -0.1131177633129E+01  0.0000000000000E+00
-0.1434907041544E+00 -0.1043785906598E+01  0.0000000000000E+00
-0.1437762454418E+00 -0.9563982511045E+00  0.0000000000000E+00
-0.1441460305922E+00 -0.8690170986448E+00  0.0000000000000E+00
-0.1446096283113E+00 -0.7816457611397E+00  0.0000000000000E+00
-0.1451733356905E+00 -0.6942875523177E+00  0.0000000000000E+00
-0.1458353810224E+00 -0.6069453148415E+00  0.0000000000000E+00
-0.1465796915941E+00 -0.5196184671224E+00  0.0000000000000E+00
-0.1473719905470E+00 -0.4323015440042E+00  0.0000000000000E+00
-0.1481642894086E+00 -0.3449846208852E+00  0.0000000000000E+00
-0.1489085997188E+00 -0.2576577731640E+00  0.0000000000000E+00
-0.1495706446490E+00 -0.1703155356850E+00  0.0000000000000E+00
-0.1501343515224E+00 -0.8295732686004E-01  0.0000000000000E+00
-0.1505979486635E+00  0.4414010647753E-02  0.0000000000000E+00
-0.1509677331890E+00  0.9179516310974E-01  0.0000000000000E+00
-0.1512532738221E+00  0.1791828186046E+00  0.0000000000000E+00
-0.1514646979322E+00  0.2665745451367E+00  0.0000000000000E+00
-0.1516114451329E+00  0.3539684810533E+00  0.0000000000000E+00
-0.1073559775584E+00 -0.1217683014787E+01  0.0000000000000E+00
-0.1074669729805E+00 -0.1130241236752E+01  0.0000000000000E+00
-0.1076264760765E+00 -0.1042801668119E+01  0.0000000000000E+00
-0.1078415665488E+00 -0.9553661705542E+00  0.0000000000000E+00
-0.1081198399148E+00 -0.8679371760100E+00  0.0000000000000E+00
-0.1084684727000E+00 -0.7805179964667E+00  0.0000000000000E+00
-0.1088921877222E+00 -0.6931119455429E+00  0.0000000000000E+00
-0.1093896561947E+00 -0.6057218660102E+00  0.0000000000000E+00
-0.1099488235801E+00 -0.5183471761831E+00  0.0000000000000E+00
-0.1105439822303E+00 -0.4309824109404E+00  0.0000000000000E+00
-0.1111391407892E+00 -0.3436176456970E+00  0.0000000000000E+00
-0.1116983079131E+00 -0.2562429558684E+00  0.0000000000000E+00
-0.1121957759839E+00 -0.1688528763335E+00  0.0000000000000E+00
-0.1126194905003E+00 -0.8144682540749E-01  0.0000000000000E+00
-0.1129681227076E+00  0.5972354137743E-02  0.0000000000000E+00
-0.1132463954486E+00  0.9340134868365E-01  0.0000000000000E+00
-0.1134614852666E+00  0.1808368462493E+00  0.0000000000000E+00
-0.1136209876912E+00  0.2682764148838E+00  0.0000000000000E+00
-0.1137319824330E+00  0.3557181929189E+00  0.0000000000000E+00
-0.7157378539324E-01 -0.1217048183171E+01  0.0000000000000E+00
-0.7164822826765E-01 -0.1129572190533E+01  0.0000000000000E+00
-0.7175500958976E-01 -0.1042098407307E+01  0.0000000000000E+00
-0.7189884915972E-01 -0.9546286951723E+00  0.0000000000000E+00
-0.7208481065407E-01 -0.8671654860487E+00  0.0000000000000E+00
-0.7231767841974E-01 -0.7797120919591E+00  0.0000000000000E+00
-0.7260060099874E-01 -0.6922718264434E+00  0.0000000000000E+00
-0.7293269252678E-01 -0.6048475323512E+00  0.0000000000000E+00
-0.7330591664062E-01 -0.5174386279278E+00  0.0000000000000E+00
-0.7370313490275E-01 -0.4300396480768E+00  0.0000000000000E+00
-0.7410035307365E-01 -0.3426406682255E+00  0.0000000000000E+00
-0.7447357692595E-01 -0.2552317638011E+00  0.0000000000000E+00
-0.7480566805232E-01 -0.1678074697074E+00  0.0000000000000E+00
-0.7508859012547E-01 -0.8036720419022E-01  0.0000000000000E+00
-0.7532145731324E-01  0.7086189900652E-02  0.0000000000000E+00
-0.7550741818259E-01  0.9454939902542E-01  0.0000000000000E+00
-0.7565125709823E-01  0.1820191111605E+00  0.0000000000000E+00
-0.7575803774893E-01  0.2694928943870E+00  0.0000000000000E+00
-0.7583247994311E-01  0.3569688870258E+00  0.0000000000000E+00
-0.3578783098112E-01 -0.1216667224146E+01  0.0000000000000E+00
-0.3582518662058E-01 -0.1129170686043E+01  0.0000000000000E+00
-0.3587871148179E-01 -0.1041676357359E+01  0.0000000000000E+00
-0.3595076546273E-01 -0.9541860997805E+00  0.0000000000000E+00
-0.3604388039874E-01 -0.8667023452065E+00  0.0000000000000E+00
-0.3616044845866E-01 -0.7792284056865E+00  0.0000000000000E+00
-0.3630204390757E-01 -0.6917675947129E+00  0.0000000000000E+00
-0.3646822380494E-01 -0.6043227551822E+00  0.0000000000000E+00
-0.3665496996040E-01 -0.5168933052982E+00  0.0000000000000E+00
-0.3685371314750E-01 -0.4294737799797E+00  0.0000000000000E+00
-0.3705245624338E-01 -0.3420542546609E+00  0.0000000000000E+00
-0.3723920213730E-01 -0.2546248047764E+00  0.0000000000000E+00
-0.3740538163300E-01 -0.1671799652449E+00  0.0000000000000E+00
-0.3754697657605E-01 -0.7971915427061E-01  0.0000000000000E+00
-0.3766354405808E-01  0.7754785250058E-02  0.0000000000000E+00
-0.3775665836908E-01  0.9523853982455E-01  0.0000000000000E+00
-0.3782871169569E-01  0.1827287974037E+00  0.0000000000000E+00
-0.3788223588549E-01  0.2702231260879E+00  0.0000000000000E+00
-0.3791959084473E-01  0.3577196641912E+00  0.0000000000000E+00
 0.6209850736676E-08 -0.1216540227813E+01  0.0000000000000E+00
 0.5524735811083E-08 -0.1129036838433E+01  0.0000000000000E+00
 0.4843998396465E-08 -0.1041535658474E+01  0.0000000000000E+00
 0.4171790525972E-08 -0.9540385496249E+00  0.0000000000000E+00
 0.3514266425853E-08 -0.8665479437785E+00  0.0000000000000E+00
 0.2880364529407E-08 -0.7790671529925E+00  0.0000000000000E+00
 0.2282599226633E-08 -0.6915994907437E+00  0.0000000000000E+00
 0.1737109434959E-08 -0.6041477999442E+00  0.0000000000000E+00
 0.1261877266097E-08 -0.5167114987841E+00  0.0000000000000E+00
 0.8719449662753E-09 -0.4292851221871E+00  0.0000000000000E+00
 0.5732300334473E-09 -0.3418587455901E+00  0.0000000000000E+00
 0.3595447320818E-09 -0.2544224444300E+00  0.0000000000000E+00
 0.2157243325992E-09 -0.1669707536305E+00  0.0000000000000E+00
 0.1238229916565E-09 -0.7950309138169E-01  0.0000000000000E+00
 0.6781348193177E-10  0.7977699404264E-02  0.0000000000000E+00
 0.3529812102035E-10  0.9546830525066E-01  0.0000000000000E+00
 0.1742641910935E-10  0.1829654140998E+00  0.0000000000000E+00
 0.8104205705961E-11  0.2704665940585E+00  0.0000000000000E+00
 0.3215440234396E-11  0.3579699834387E+00  0.0000000000000E+00
 0.3578784340053E-01 -0.1216667224235E+01  0.0000000000000E+00
 0.3582519766977E-01 -0.1129170686128E+01  0.0000000000000E+00
 0.3587872116953E-01 -0.1041676357439E+01  0.0000000000000E+00
 0.3595077380607E-01 -0.9541860998557E+00  0.0000000000000E+00
 0.3604388742704E-01 -0.8667023452767E+00  0.0000000000000E+00
 0.3616045421917E-01 -0.7792284057513E+00  0.0000000000000E+00
 0.3630204847257E-01 -0.6917675947721E+00  0.0000000000000E+00
 0.3646822727897E-01 -0.6043227552356E+00  0.0000000000000E+00
 0.3665497248399E-01 -0.5168933053458E+00  0.0000000000000E+00
 0.3685371489124E-01 -0.4294737800217E+00  0.0000000000000E+00
 0.3705245738970E-01 -0.3420542546977E+00  0.0000000000000E+00
 0.3723920285627E-01 -0.2546248048085E+00  0.0000000000000E+00
 0.3740538206434E-01 -0.1671799652727E+00  0.0000000000000E+00
 0.3754697682360E-01 -0.7971915429417E-01  0.0000000000000E+00
 0.3766354419363E-01  0.7754785230528E-02  0.0000000000000E+00
 0.3775665843962E-01  0.9523853980896E-01  0.0000000000000E+00
 0.3782871173050E-01  0.1827287973920E+00  0.0000000000000E+00
 0.3788223590167E-01  0.2702231260801E+00  0.0000000000000E+00
 0.3791959085114E-01  0.3577196641874E+00  0.0000000000000E+00
 0.7157379781176E-01 -0.1217048183348E+01  0.0000000000000E+00
 0.7164823931600E-01 -0.1129572190701E+01  0.0000000000000E+00
 0.7175501927670E-01 -0.1042098407466E+01  0.0000000000000E+00
 0.7189885750231E-01 -0.9546286953227E+00  0.0000000000000E+00
 0.7208481768167E-01 -0.8671654861889E+00  0.0000000000000E+00
 0.7231768417959E-01 -0.7797120920887E+00  0.0000000000000E+00
 0.7260060556313E-01 -0.6922718265617E+00  0.0000000000000E+00
 0.7293269600025E-01 -0.6048475324578E+00  0.0000000000000E+00
 0.7330591916369E-01 -0.5174386280229E+00  0.0000000000000E+00
 0.7370313664601E-01 -0.4300396481608E+00  0.0000000000000E+00
 0.7410035421955E-01 -0.3426406682992E+00  0.0000000000000E+00
 0.7447357764454E-01 -0.2552317638653E+00  0.0000000000000E+00
 0.7480566848334E-01 -0.1678074697628E+00  0.0000000000000E+00
 0.7508859037274E-01 -0.8036720423734E-01  0.0000000000000E+00
 0.7532145744856E-01  0.7086189861597E-02  0.0000000000000E+00
 0.7550741825294E-01  0.9454939899424E-01  0.0000000000000E+00
 0.7565125713289E-01  0.1820191111371E+00  0.0000000000000E+00
 0.7575803776501E-01  0.2694928943715E+00  0.0000000000000E+00
 0.7583247994948E-01  0.3569688870181E+00  0.0000000000000E+00
 0.1073559899754E+00 -0.1217683015053E+01  0.0000000000000E+00
 0.1074669840274E+00 -0.1130241237005E+01  0.0000000000000E+00
 0.1076264857621E+00 -0.1042801668358E+01  0.0000000000000E+00
 0.1078415748901E+00 -0.9553661707798E+00  0.0000000000000E+00
 0.1081198469412E+00 -0.8679371762203E+00  0.0000000000000E+00
 0.1084684784588E+00 -0.7805179966610E+00  0.0000000000000E+00
 0.1088921922856E+00 -0.6931119457203E+00  0.0000000000000E+00
 0.1093896596672E+00 -0.6057218661702E+00  0.0000000000000E+00
 0.1099488261023E+00 -0.5183471763258E+00  0.0000000000000E+00
 0.1105439839728E+00 -0.4309824110663E+00  0.0000000000000E+00
 0.1111391419344E+00 -0.3436176458075E+00  0.0000000000000E+00
 0.1116983086311E+00 -0.2562429559646E+00  0.0000000000000E+00
 0.1121957764143E+00 -0.1688528764166E+00  0.0000000000000E+00
 0.1126194907471E+00 -0.8144682547815E-01  0.0000000000000E+00
 0.1129681228425E+00  0.5972354079172E-02  0.0000000000000E+00
 0.1132463955186E+00  0.9340134863688E-01  0.0000000000000E+00
 0.1134614853010E+00  0.1808368462143E+00  0.0000000000000E+00
 0.1136209877071E+00  0.2682764148604E+00  0.0000000000000E+00
 0.1137319824393E+00  0.3557181929073E+00  0.0000000000000E+00
 0.1431325439069E+00 -0.1218571569399E+01  0.0000000000000E+00
 0.1432792904178E+00 -0.1131177633466E+01  0.0000000000000E+00
 0.1434907138381E+00 -0.1043785906917E+01  0.0000000000000E+00
 0.1437762537814E+00 -0.9563982514053E+00  0.0000000000000E+00
 0.1441460376170E+00 -0.8690170989253E+00  0.0000000000000E+00
 0.1446096340685E+00 -0.7816457613987E+00  0.0000000000000E+00
 0.1451733402525E+00 -0.6942875525541E+00  0.0000000000000E+00
 0.1458353844936E+00 -0.6069453150547E+00  0.0000000000000E+00
 0.1465796941151E+00 -0.5196184673125E+00  0.0000000000000E+00
 0.1473719922884E+00 -0.4323015441721E+00  0.0000000000000E+00
 0.1481642905529E+00 -0.3449846210325E+00  0.0000000000000E+00
 0.1489086004358E+00 -0.2576577732924E+00  0.0000000000000E+00
 0.1495706450787E+00 -0.1703155357958E+00  0.0000000000000E+00
 0.1501343517685E+00 -0.8295732695422E-01  0.0000000000000E+00
 0.1505979487979E+00  0.4414010569677E-02  0.0000000000000E+00
 0.1509677332586E+00  0.9179516304740E-01  0.0000000000000E+00
 0.1512532738562E+00  0.1791828185579E+00  0.0000000000000E+00
 0.1514646979479E+00  0.2665745451056E+00  0.0000000000000E+00
 0.1516114451391E+00  0.3539684810378E+00  0.0000000000000E+00
 0.1789015888386E+00 -0.1219713636882E+01  0.0000000000000E+00
 0.1790830246568E+00 -0.1132381112564E+01  0.0000000000000E+00
 0.1793453066125E+00 -0.1045050797608E+01  0.0000000000000E+00
 0.1797002342220E+00 -0.9577245536482E+00  0.0000000000000E+00
 0.1801604666943E+00 -0.8704048127374E+00  0.0000000000000E+00
 0.1807379649337E+00 -0.7830948867202E+00  0.0000000000000E+00
 0.1814406003287E+00 -0.6957980894664E+00  0.0000000000000E+00
 0.1822661582854E+00 -0.6085172634995E+00  0.0000000000000E+00
 0.1831945479491E+00 -0.5212518273559E+00  0.0000000000000E+00
 0.1841829232813E+00 -0.4339963158356E+00  0.0000000000000E+00
 0.1851712987046E+00 -0.3467408043163E+00  0.0000000000000E+00
 0.1860996886299E+00 -0.2594753681753E+00  0.0000000000000E+00
 0.1869252469883E+00 -0.1721945422119E+00  0.0000000000000E+00
 0.1876278828891E+00 -0.8489774496185E-01  0.0000000000000E+00
 0.1882053817065E+00  0.2412181052021E-02  0.0000000000000E+00
 0.1886656148037E+00  0.8973192195995E-01  0.0000000000000E+00
 0.1890205430676E+00  0.1770581659176E+00  0.0000000000000E+00
 0.1892828256947E+00  0.2643884808718E+00  0.0000000000000E+00
 0.1894642621932E+00  0.3517210051896E+00  0.0000000000000E+00
 0.2146612609340E+00 -0.1221108948849E+01  0.0000000000000E+00
 0.2148760629428E+00 -0.1133851331493E+01  0.0000000000000E+00
 0.2151878803187E+00 -0.1046595923475E+01  0.0000000000000E+00
 0.2156108724819E+00 -0.9593445864034E+00  0.0000000000000E+00
 0.2161602304793E+00 -0.8720997524010E+00  0.0000000000000E+00
 0.2168503073985E+00 -0.7848647332192E+00  0.0000000000000E+00
 0.2176905488964E+00 -0.6976428429001E+00  0.0000000000000E+00
 0.2186782974640E+00 -0.6104369237968E+00  0.0000000000000E+00
 0.2197894440653E+00 -0.5232463945975E+00  0.0000000000000E+00
 0.2209725734523E+00 -0.4360657900476E+00  0.0000000000000E+00
 0.2221557029306E+00 -0.3488851854990E+00  0.0000000000000E+00
 0.2232668497935E+00 -0.2616946563028E+00  0.0000000000000E+00
 0.2242545987627E+00 -0.1744887372037E+00  0.0000000000000E+00
 0.2250948407665E+00 -0.8726684688914E-01  0.0000000000000E+00
 0.2257849182636E+00 -0.3182771130406E-04  0.0000000000000E+00
 0.2263342768860E+00  0.8721300628769E-01  0.0000000000000E+00
 0.2267572697036E+00  0.1744643433570E+00  0.0000000000000E+00
 0.2270690877509E+00  0.2617197513733E+00  0.0000000000000E+00
 0.2272838904400E+00  0.3489773687279E+00  0.0000000000000E+00
 0.2504096942013E+00 -0.1222757177511E+01  0.0000000000000E+00
 0.2506562837339E+00 -0.1135587872533E+01  0.0000000000000E+00
 0.2510160578632E+00 -0.1048420776863E+01  0.0000000000000E+00
 0.2515055359137E+00 -0.9612577520800E+00  0.0000000000000E+00
 0.2521424407689E+00 -0.8741012303908E+00  0.0000000000000E+00
 0.2529435177012E+00 -0.7869545234362E+00  0.0000000000000E+00
 0.2539197866326E+00 -0.6998209454615E+00  0.0000000000000E+00
 0.2550681471422E+00 -0.6127033386189E+00  0.0000000000000E+00
 0.2563604720100E+00 -0.5256011217751E+00  0.0000000000000E+00
 0.2577367767798E+00 -0.4385088296118E+00  0.0000000000000E+00
 0.2591130816408E+00 -0.3514165374499E+00  0.0000000000000E+00
 0.2604054067703E+00 -0.2643143206098E+00  0.0000000000000E+00
 0.2615537676815E+00 -0.1771967137720E+00  0.0000000000000E+00
 0.2625300371188E+00 -0.9006313580257E-01  0.0000000000000E+00
 0.2633311146290E+00 -0.2916428852618E-02  0.0000000000000E+00
 0.2639680201092E+00  0.8424009283257E-01  0.0000000000000E+00
 0.2644574988141E+00  0.1714031176123E+00  0.0000000000000E+00
 0.2648172736148E+00  0.2585702132807E+00  0.0000000000000E+00
 0.2650638638277E+00  0.3457395182575E+00  0.0000000000000E+00
 0.2861450497528E+00 -0.1224657937658E+01  0.0000000000000E+00
 0.2864215954848E+00 -0.1137590245005E+01  0.0000000000000E+00
 0.2868274950427E+00 -0.1050524761626E+01  0.0000000000000E+00
 0.2873816276554E+00 -0.9634633490672E+00  0.0000000000000E+00
 0.2881042480409E+00 -0.8764084396296E+00  0.0000000000000E+00
 0.2890144936591E+00 -0.7893633448277E+00  0.0000000000000E+00
 0.2901249586923E+00 -0.7023313791405E+00  0.0000000000000E+00
 0.2914320998121E+00 -0.6153153844889E+00  0.0000000000000E+00
 0.2929037716112E+00 -0.5283147799456E+00  0.0000000000000E+00
 0.2944714204269E+00 -0.4413241001183E+00  0.0000000000000E+00
 0.2960390693338E+00 -0.3543334202925E+00  0.0000000000000E+00
 0.2975107413944E+00 -0.2673328157534E+00  0.0000000000000E+00
 0.2988178829159E+00 -0.1803168211074E+00  0.0000000000000E+00
 0.2999283484550E+00 -0.9328485542617E-01  0.0000000000000E+00
 0.3008385946511E+00 -0.6239760629561E-02  0.0000000000000E+00
 0.3015612156617E+00  0.8081514880343E-01  0.0000000000000E+00
 0.3021153489287E+00  0.1678765613589E+00  0.0000000000000E+00
 0.3025212491580E+00  0.2549420447359E+00  0.0000000000000E+00
 0.3027977955703E+00  0.3420097373869E+00  0.0000000000000E+00
 0.3218654950076E+00 -0.1226810786673E+01  0.0000000000000E+00
 0.3221699194030E+00 -0.1139857885942E+01  0.0000000000000E+00
 0.3226198668546E+00 -0.1052907194445E+01  0.0000000000000E+00
 0.3232365764971E+00 -0.9659605736929E+00  0.0000000000000E+00
 0.3240428348810E+00 -0.8790204560934E+00  0.0000000000000E+00
 0.3250601716561E+00 -0.7920901530176E+00  0.0000000000000E+00
 0.3263027552606E+00 -0.7051729792090E+00  0.0000000000000E+00
 0.3277665994632E+00 -0.6182717763270E+00  0.0000000000000E+00
 0.3294155406647E+00 -0.5313859636768E+00  0.0000000000000E+00
 0.3311724559974E+00 -0.4445100757828E+00  0.0000000000000E+00
 0.3329293714212E+00 -0.3576341878906E+00  0.0000000000000E+00
 0.3345783128843E+00 -0.2707483752451E+00  0.0000000000000E+00
 0.3360421574886E+00 -0.1838471723695E+00  0.0000000000000E+00
 0.3372847415990E+00 -0.9692999856756E-01  0.0000000000000E+00
 0.3383020789519E+00 -0.9999695497830E-02  0.0000000000000E+00
 0.3391083379610E+00  0.7694042209661E-01  0.0000000000000E+00
 0.3397250482577E+00  0.1638870428451E+00  0.0000000000000E+00
 0.3401749963809E+00  0.2508377343392E+00  0.0000000000000E+00
 0.3404794214564E+00  0.3377906350684E+00  0.0000000000000E+00
 0.3575692103522E+00 -0.1229215225492E+01  0.0000000000000E+00
 0.3578991955492E+00 -0.1142390161481E+01  0.0000000000000E+00
 0.3583908730369E+00 -0.1055567306661E+01  0.0000000000000E+00
 0.3590678418560E+00 -0.9687485225011E+00  0.0000000000000E+00
 0.3599554203886E+00 -0.8819362415286E+00  0.0000000000000E+00
 0.3610775304771E+00 -0.7951337749554E+00  0.0000000000000E+00
 0.3624499148109E+00 -0.7083444378190E+00  0.0000000000000E+00
 0.3640681442610E+00 -0.6215710714880E+00  0.0000000000000E+00
 0.3658920370309E+00 -0.5348130955263E+00  0.0000000000000E+00
 0.3678359010477E+00 -0.4480650443656E+00  0.0000000000000E+00
 0.3697797651558E+00 -0.3613169932067E+00  0.0000000000000E+00
 0.3716036581872E+00 -0.2745590172503E+00  0.0000000000000E+00
 0.3732218880390E+00 -0.1877856509263E+00  0.0000000000000E+00
 0.3745942728787E+00 -0.1009963137974E+00  0.0000000000000E+00
 0.3757163835452E+00 -0.1419384723091E-01  0.0000000000000E+00
 0.3766039627027E+00  0.7261843373593E-01  0.0000000000000E+00
 0.3772809321762E+00  0.1594372178920E+00  0.0000000000000E+00
 0.3777726103353E+00  0.2462600727091E+00  0.0000000000000E+00
 0.3781025962126E+00  0.3330851367181E+00  0.0000000000000E+00
 0.3932543904037E+00 -0.1231870699439E+01  0.0000000000000E+00
 0.3936073839619E+00 -0.1145186368159E+01  0.0000000000000E+00
 0.3941382390479E+00 -0.1058504246021E+01  0.0000000000000E+00
 0.3948729146103E+00 -0.9718261944503E+00  0.0000000000000E+00
 0.3958392608602E+00 -0.8851546461056E+00  0.0000000000000E+00
 0.3970635918366E+00 -0.7984929120234E+00  0.0000000000000E+00
 0.3985632244741E+00 -0.7118443075646E+00  0.0000000000000E+00
 0.4003332867518E+00 -0.6252116737778E+00  0.0000000000000E+00
 0.4023295786701E+00 -0.5385944305118E+00  0.0000000000000E+00
 0.4044578389521E+00 -0.4519871120958E+00  0.0000000000000E+00
 0.4065860993252E+00 -0.3653797936820E+00  0.0000000000000E+00
 0.4085823915051E+00 -0.2787625504218E+00  0.0000000000000E+00
 0.4103524541845E+00 -0.1921299166427E+00  0.0000000000000E+00
 0.4118520873278E+00 -0.1054813121922E+00  0.0000000000000E+00
 0.4130764188822E+00 -0.1881957811723E-01  0.0000000000000E+00
 0.4140427657571E+00  0.6785197022115E-01  0.0000000000000E+00
 0.4147774419739E+00  0.1545300217875E+00  0.0000000000000E+00
 0.4153082977314E+00  0.2412121439217E+00  0.0000000000000E+00
 0.4156612919698E+00  0.3278964752003E+00  0.0000000000000E+00
 0.4289192336032E+00 -0.1234776598240E+01  0.0000000000000E+00
 0.4292924555389E+00 -0.1148245733549E+01  0.0000000000000E+00
 0.4298597082370E+00 -0.1061717077950E+01  0.0000000000000E+00
 0.4306493105539E+00 -0.9751924928149E+00  0.0000000000000E+00
 0.4316916445264E+00 -0.8886744109484E+00  0.0000000000000E+00
 0.4330154163933E+00 -0.8021661431949E+00  0.0000000000000E+00
 0.4346395173275E+00 -0.7156710052686E+00  0.0000000000000E+00
 0.4365586324225E+00 -0.6291918378687E+00  0.0000000000000E+00
 0.4387245434713E+00 -0.5427280611548E+00  0.0000000000000E+00
 0.4410344199965E+00 -0.4562742093445E+00  0.0000000000000E+00
 0.4433442966129E+00 -0.3698203575366E+00  0.0000000000000E+00
 0.4455102079233E+00 -0.2833565808289E+00  0.0000000000000E+00
 0.4474293234200E+00 -0.1968774134374E+00  0.0000000000000E+00
 0.4490534248601E+00 -0.1103822755201E+00  0.0000000000000E+00
 0.4503771973049E+00 -0.2387400777464E-01  0.0000000000000E+00
 0.4514195319025E+00  0.6264407408500E-01  0.0000000000000E+00
 0.4522091348738E+00  0.1491686592148E+00  0.0000000000000E+00
 0.4527763882432E+00  0.2356973148111E+00  0.0000000000000E+00
 0.4531496108593E+00  0.3222281794997E+00  0.0000000000000E+00
 0.4645619687765E+00 -0.1237932259164E+01  0.0000000000000E+00
 0.4649524210827E+00 -0.1151567420505E+01  0.0000000000000E+00
 0.4655530733909E+00 -0.1065204790881E+01  0.0000000000000E+00
 0.4663946044674E+00 -0.9788462316122E+00  0.0000000000000E+00
 0.4675099281727E+00 -0.8924941756571E+00  0.0000000000000E+00
 0.4689301429494E+00 -0.8061519336535E+00  0.0000000000000E+00
 0.4706757142023E+00 -0.7198228216974E+00  0.0000000000000E+00
 0.4727408841464E+00 -0.6335096801102E+00  0.0000000000000E+00
 0.4750734163596E+00 -0.5472119293876E+00  0.0000000000000E+00
 0.4775619111642E+00 -0.4609241036267E+00  0.0000000000000E+00
 0.4800504060600E+00 -0.3746362778683E+00  0.0000000000000E+00
 0.4823829385348E+00 -0.2883385271526E+00  0.0000000000000E+00
 0.4844481088806E+00 -0.2020253855745E+00  0.0000000000000E+00
 0.4861936806394E+00 -0.1156962736281E+00  0.0000000000000E+00
 0.4876138959940E+00 -0.2935403163311E-01  0.0000000000000E+00
 0.4887292203243E+00  0.5699802431457E-01  0.0000000000000E+00
 0.4895707520552E+00  0.1433565835781E+00  0.0000000000000E+00
 0.4901714050349E+00  0.2297192131983E+00  0.0000000000000E+00
 0.4905618580214E+00  0.3160840518546E+00  0.0000000000000E+00
 0.5001808504803E+00 -0.1241336967453E+01  0.0000000000000E+00
 0.5005853201167E+00 -0.1155150527090E+01  0.0000000000000E+00
 0.5012161589915E+00 -0.1068966295702E+01  0.0000000000000E+00
 0.5021064057811E+00 -0.9827861345503E+00  0.0000000000000E+00
 0.5032915061658E+00 -0.8966124767617E+00  0.0000000000000E+00
 0.5048049507956E+00 -0.8104486327508E+00  0.0000000000000E+00
 0.5066687792994E+00 -0.7242979190243E+00  0.0000000000000E+00
 0.5088767910208E+00 -0.6381631754975E+00  0.0000000000000E+00
 0.5113727313176E+00 -0.5520438230273E+00  0.0000000000000E+00
 0.5140366313163E+00 -0.4659343955811E+00  0.0000000000000E+00
 0.5167005314062E+00 -0.3798249681376E+00  0.0000000000000E+00
 0.5191964719646E+00 -0.2937056156747E+00  0.0000000000000E+00
 0.5214044840877E+00 -0.2075708721577E+00  0.0000000000000E+00
 0.5232683130974E+00 -0.1214201584418E+00  0.0000000000000E+00
 0.5247817583051E+00 -0.3525631444021E-01  0.0000000000000E+00
 0.5259668593148E+00  0.5091734334048E-01  0.0000000000000E+00
 0.5268571067588E+00  0.1370975044860E+00  0.0000000000000E+00
 0.5274879463051E+00  0.2232817358704E+00  0.0000000000000E+00
 0.5278924166218E+00  0.3094681762305E+00  0.0000000000000E+00
 0.5357741492561E+00 -0.1244989957511E+01  0.0000000000000E+00
 0.5361892220105E+00 -0.1158994090209E+01  0.0000000000000E+00
 0.5368468332483E+00 -0.1073000431817E+01  0.0000000000000E+00
 0.5377823815580E+00 -0.9870108435357E+00  0.0000000000000E+00
 0.5390338444379E+00 -0.9010277586693E+00  0.0000000000000E+00
 0.5406371047507E+00 -0.8150544873953E+00  0.0000000000000E+00
 0.5426157763422E+00 -0.7290943466587E+00  0.0000000000000E+00
 0.5449632156924E+00 -0.6431501759410E+00  0.0000000000000E+00
 0.5476191499298E+00 -0.5572213964849E+00  0.0000000000000E+00
 0.5504550409842E+00 -0.4713025421194E+00  0.0000000000000E+00
 0.5532909321297E+00 -0.3853836877569E+00  0.0000000000000E+00
 0.5559468666287E+00 -0.2994549083086E+00  0.0000000000000E+00
 0.5582943063805E+00 -0.2135107376014E+00  0.0000000000000E+00
 0.5602729784780E+00 -0.1275505968760E+00  0.0000000000000E+00
 0.5618762393687E+00 -0.4157732561200E-01  0.0000000000000E+00
 0.5631277028737E+00  0.4440575924581E-01  0.0000000000000E+00
 0.5640632518377E+00  0.1303953475209E+00  0.0000000000000E+00
 0.5647208637470E+00  0.2163890059088E+00  0.0000000000000E+00
 0.5651359371817E+00  0.3023848732079E+00  0.0000000000000E+00
 0.5713401499894E+00 -0.1248890412545E+01  0.0000000000000E+00
 0.5717622119691E+00 -0.1163097083611E+01  0.0000000000000E+00
 0.5724429816650E+00 -0.1077305963517E+01  0.0000000000000E+00
 0.5734202175769E+00 -0.9915189134002E+00  0.0000000000000E+00
 0.5747344290158E+00 -0.9057383667540E+00  0.0000000000000E+00
 0.5764238910593E+00 -0.8199676335031E+00  0.0000000000000E+00
 0.5785137917608E+00 -0.7342100310583E+00  0.0000000000000E+00
 0.5809970447448E+00 -0.6484683984404E+00  0.0000000000000E+00
 0.5838093589073E+00 -0.5627421573021E+00  0.0000000000000E+00
 0.5868136269902E+00 -0.4770258413251E+00  0.0000000000000E+00
 0.5898178951644E+00 -0.3913095253513E+00  0.0000000000000E+00
 0.5926302095884E+00 -0.3055832842213E+00  0.0000000000000E+00
 0.5951134629742E+00 -0.2198416516146E+00  0.0000000000000E+00
 0.5972033641815E+00 -0.1340840491819E+00  0.0000000000000E+00
 0.5988928268029E+00 -0.4831331594156E-01  0.0000000000000E+00
 0.6002070388669E+00  0.3746723069555E-01  0.0000000000000E+00
 0.6011842754332E+00  0.1232542808057E+00  0.0000000000000E+00
 0.6018650458005E+00  0.2090454008946E+00  0.0000000000000E+00
 0.6022871084605E+00  0.2948387298263E+00  0.0000000000000E+00
 0.6068771371579E+00 -0.1253037465844E+01  0.0000000000000E+00
 0.6073023971197E+00 -0.1167458424002E+01  0.0000000000000E+00
 0.6080025340419E+00 -0.1081881590927E+01  0.0000000000000E+00
 0.6090176663387E+00 -0.9963088276876E+00  0.0000000000000E+00
 0.6103908351315E+00 -0.9107425679775E+00  0.0000000000000E+00
 0.6121627077193E+00 -0.8251861214541E+00  0.0000000000000E+00
 0.6143600463551E+00 -0.7396428060213E+00  0.0000000000000E+00
 0.6169753218167E+00 -0.6541154602123E+00  0.0000000000000E+00
 0.6199402247568E+00 -0.5686035061133E+00  0.0000000000000E+00
 0.6231090787274E+00 -0.4831014772506E+00  0.0000000000000E+00
 0.6262779327892E+00 -0.3975994483912E+00  0.0000000000000E+00
 0.6292428359909E+00 -0.3120874943012E+00  0.0000000000000E+00
 0.6318581118542E+00 -0.2265601485040E+00  0.0000000000000E+00
 0.6340554509959E+00 -0.1410168330840E+00  0.0000000000000E+00
 0.6358273241616E+00 -0.5546038657190E-01  0.0000000000000E+00
 0.6372004935795E+00  0.3010587312856E-01  0.0000000000000E+00
 0.6382156265306E+00  0.1156786363610E+00  0.0000000000000E+00
 0.6389157641243E+00  0.2012554694305E+00  0.0000000000000E+00
 0.6393410247663E+00  0.2868345112703E+00  0.0000000000000E+00
 0.6423834709618E+00 -0.1257430208361E+01  0.0000000000000E+00
 0.6428079579416E+00 -0.1172076974739E+01  0.0000000000000E+00
 0.6435234911376E+00 -0.1086725949808E+01  0.0000000000000E+00
 0.6445725488804E+00 -0.1001378994563E+01  0.0000000000000E+00
 0.6460007041001E+00 -0.9160385429092E+00  0.0000000000000E+00
 0.6478510163235E+00 -0.8307079042225E+00  0.0000000000000E+00
 0.6501518219949E+00 -0.7453903969262E+00  0.0000000000000E+00
 0.6528951490542E+00 -0.6600888590394E+00  0.0000000000000E+00
 0.6560086699003E+00 -0.5748027131058E+00  0.0000000000000E+00
 0.6593381388929E+00 -0.4895264924872E+00  0.0000000000000E+00
 0.6626676079766E+00 -0.4042502718721E+00  0.0000000000000E+00
 0.6657811290843E+00 -0.3189641259479E+00  0.0000000000000E+00
 0.6685244565453E+00 -0.2336625880737E+00  0.0000000000000E+00
 0.6708252627226E+00 -0.1483450807910E+00  0.0000000000000E+00
 0.6726755755239E+00 -0.6301444211619E-01  0.0000000000000E+00
 0.6741037313687E+00  0.2232600952730E-01  0.0000000000000E+00
 0.6751527897659E+00  0.1076729647648E+00  0.0000000000000E+00
 0.6758683236333E+00  0.1930239896902E+00  0.0000000000000E+00
 0.6762928112935E+00  0.2783772233094E+00  0.0000000000000E+00
 0.6778575079345E+00 -0.1262067681820E+01  0.0000000000000E+00
 0.6782770771087E+00 -0.1176951540526E+01  0.0000000000000E+00
 0.6790038617375E+00 -0.1091837607843E+01  0.0000000000000E+00
 0.6800827000673E+00 -0.1006727744689E+01  0.0000000000000E+00
 0.6815616968295E+00 -0.9216243851913E+00  0.0000000000000E+00
 0.6834863037813E+00 -0.8365308384297E+00  0.0000000000000E+00
 0.6858864315472E+00 -0.7514504233734E+00  0.0000000000000E+00
 0.6887536652390E+00 -0.6663859775017E+00  0.0000000000000E+00
 0.6920116589981E+00 -0.5813369238382E+00  0.0000000000000E+00
 0.6954975980043E+00 -0.4962977955727E+00  0.0000000000000E+00
 0.6989835371017E+00 -0.4112586673108E+00  0.0000000000000E+00
 0.7022415311224E+00 -0.3262096136574E+00  0.0000000000000E+00
 0.7051087652158E+00 -0.2411451677989E+00  0.0000000000000E+00
 0.7075088934877E+00 -0.1560647527569E+00  0.0000000000000E+00
 0.7094335010174E+00 -0.7097120600793E-01  0.0000000000000E+00
 0.7109124984047E+00  0.1413215347913E-01  0.0000000000000E+00
 0.7119913373889E+00  0.9924201662545E-01  0.0000000000000E+00
 0.7127181226891E+00  0.1843559493029E+00  0.0000000000000E+00
 0.7131376925436E+00  0.2694720905938E+00  0.0000000000000E+00
-0.1461382977135E+01 -0.1366969715354E+01  0.0000000000000E+00
-0.1536838318740E+01 -0.1251434914183E+01  0.0000000000000E+00
-0.1612772383862E+01 -0.1136216660518E+01  0.0000000000000E+00
-0.1682662190134E+01 -0.1017118437211E+01  0.0000000000000E+00
-0.1744352422289E+01 -0.8934077853993E+00  0.0000000000000E+00
-0.1798213558619E+01 -0.7659621724060E+00  0.0000000000000E+00
-0.1844158474103E+01 -0.6353520178781E+00  0.0000000000000E+00
-0.1881388018209E+01 -0.5019106555406E+00  0.0000000000000E+00
-0.1909838253907E+01 -0.3662625943974E+00  0.0000000000000E+00
-0.1928756468757E+01 -0.2289268443260E+00  0.0000000000000E+00
-0.1936610695830E+01 -0.9050316094402E-01  0.0000000000000E+00
-0.1935962495635E+01  0.4816323147748E-01  0.0000000000000E+00
-0.1915746975476E+01  0.1850134490903E+00  0.0000000000000E+00
-0.1866398119172E+01  0.3140157130469E+00  0.0000000000000E+00
-0.1794320744535E+01  0.4315254877347E+00  0.0000000000000E+00
-0.1705912240744E+01  0.5369275948221E+00  0.0000000000000E+00
-0.1607092793437E+01  0.6322756433932E+00  0.0000000000000E+00
-0.1500783670345E+01  0.7188137666816E+00  0.0000000000000E+00
-0.1388289662873E+01  0.7967110478414E+00  0.0000000000000E+00
-0.1422429226874E+01 -0.1359767065380E+01  0.0000000000000E+00
-0.1493912765281E+01 -0.1245948355879E+01  0.0000000000000E+00
-0.1565866851627E+01 -0.1132429649044E+01  0.0000000000000E+00
-0.1632114304946E+01 -0.1015235383770E+01  0.0000000000000E+00
-0.1690615909786E+01 -0.8936717932586E+00  0.0000000000000E+00
-0.1741725163678E+01 -0.7685703365138E+00  0.0000000000000E+00
-0.1785361184768E+01 -0.6404715832861E+00  0.0000000000000E+00
-0.1820766416911E+01 -0.5096914726017E+00  0.0000000000000E+00
-0.1847876058184E+01 -0.3768216156395E+00  0.0000000000000E+00
-0.1865967993324E+01 -0.2423534138595E+00  0.0000000000000E+00
-0.1873578256475E+01 -0.1068545354329E+00  0.0000000000000E+00
-0.1873120957503E+01  0.2887478878923E-01  0.0000000000000E+00
-0.1854104576422E+01  0.1628844644037E+00  0.0000000000000E+00
-0.1807462310472E+01  0.2894600596444E+00  0.0000000000000E+00
-0.1739261410714E+01  0.4051486846621E+00  0.0000000000000E+00
-0.1655564219598E+01  0.5093673682636E+00  0.0000000000000E+00
-0.1561981855766E+01  0.6040614774211E+00  0.0000000000000E+00
-0.1461284503982E+01  0.6904095498839E+00  0.0000000000000E+00
-0.1354710767645E+01  0.7685716769124E+00  0.0000000000000E+00
-0.1383422395682E+01 -0.1352772899744E+01  0.0000000000000E+00
-0.1450936926762E+01 -0.1240659305974E+01  0.0000000000000E+00
-0.1518913830188E+01 -0.1128829170111E+01  0.0000000000000E+00
-0.1581521725986E+01 -0.1013527888229E+01  0.0000000000000E+00
-0.1636837498850E+01 -0.8941003841387E+00  0.0000000000000E+00
-0.1685197665562E+01 -0.7713321085327E+00  0.0000000000000E+00
-0.1726527587358E+01 -0.6457337815459E+00  0.0000000000000E+00
-0.1760111302466E+01 -0.5176039475250E+00  0.0000000000000E+00
-0.1785883144110E+01 -0.3875013196816E+00  0.0000000000000E+00
-0.1803151594074E+01 -0.2558896915364E+00  0.0000000000000E+00
-0.1810520687586E+01 -0.1233046437126E+00  0.0000000000000E+00
-0.1810257084305E+01  0.9498587900696E-02  0.0000000000000E+00
-0.1792442632968E+01  0.1406786833209E+00  0.0000000000000E+00
-0.1748509748075E+01  0.2648385733975E+00  0.0000000000000E+00
-0.1684188114646E+01  0.3787170164180E+00  0.0000000000000E+00
-0.1605205028395E+01  0.4817632478827E+00  0.0000000000000E+00
-0.1516862540600E+01  0.5758143908855E+00  0.0000000000000E+00
-0.1421779752733E+01  0.6619833862764E+00  0.0000000000000E+00
-0.1321129080072E+01  0.7404213328697E+00  0.0000000000000E+00
-0.1344363461517E+01 -0.1345988511677E+01  0.0000000000000E+00
-0.1407911724722E+01 -0.1235568989505E+01  0.0000000000000E+00
-0.1471914184652E+01 -0.1125416380539E+01  0.0000000000000E+00
-0.1530885262298E+01 -0.1011997039425E+01  0.0000000000000E+00
-0.1583017942955E+01 -0.8946945791509E+00  0.0000000000000E+00
-0.1628631762636E+01 -0.7742484420609E+00  0.0000000000000E+00
-0.1667658325614E+01 -0.6511394989236E+00  0.0000000000000E+00
-0.1699423264513E+01 -0.5256488994063E+00  0.0000000000000E+00
-0.1723860047741E+01 -0.3983024585749E+00  0.0000000000000E+00
-0.1740307754039E+01 -0.2695363624626E+00  0.0000000000000E+00
-0.1747438419795E+01 -0.1398541040076E+00  0.0000000000000E+00
-0.1747371254740E+01 -0.9965922536359E-02  0.0000000000000E+00
-0.1730761473034E+01  0.1183956213862E+00  0.0000000000000E+00
-0.1689540710730E+01  0.2401508372010E+00  0.0000000000000E+00
-0.1629101087155E+01  0.3522301339270E+00  0.0000000000000E+00
-0.1554834850913E+01  0.4541149533462E+00  0.0000000000000E+00
-0.1471734985227E+01  0.5475341727792E+00  0.0000000000000E+00
-0.1382269507802E+01  0.6335351346815E+00  0.0000000000000E+00
-0.1287544645600E+01  0.7122599448561E+00  0.0000000000000E+00
-0.1305253595826E+01 -0.1339415213000E+01  0.0000000000000E+00
-0.1364838274543E+01 -0.1230678649356E+01  0.0000000000000E+00
-0.1424868974351E+01 -0.1122192454299E+01  0.0000000000000E+00
-0.1480205916758E+01 -0.1010643942172E+01  0.0000000000000E+00
-0.1529158187961E+01 -0.8954554136531E+00  0.0000000000000E+00
-0.1572028343215E+01 -0.7773203027582E+00  0.0000000000000E+00
-0.1608754229756E+01 -0.6566896311765E+00  0.0000000000000E+00
-0.1638703074586E+01 -0.5338271539178E+00  0.0000000000000E+00
-0.1661807481336E+01 -0.4092257877632E+00  0.0000000000000E+00
-0.1677437125571E+01 -0.2832941117465E+00  0.0000000000000E+00
-0.1684332044841E+01 -0.1565035310225E+00  0.0000000000000E+00
-0.1684463999390E+01 -0.2951928680034E-01  0.0000000000000E+00
-0.1669061564887E+01  0.9603480454536E-01  0.0000000000000E+00
-0.1630555602536E+01  0.2153964467291E+00  0.0000000000000E+00
-0.1574000666711E+01  0.3256877018770E+00  0.0000000000000E+00
-0.1504453958951E+01  0.4264222175976E+00  0.0000000000000E+00
-0.1426599394119E+01  0.5192206236651E+00  0.0000000000000E+00
-0.1342753905869E+01  0.6050646627177E+00  0.0000000000000E+00
-0.1253957532744E+01  0.6840874469890E+00  0.0000000000000E+00
-0.1266093896943E+01 -0.1333054270719E+01  0.0000000000000E+00
-0.1321717616255E+01 -0.1225989485819E+01  0.0000000000000E+00
-0.1377779181010E+01 -0.1119158524968E+01  0.0000000000000E+00
-0.1429484612826E+01 -0.1009469663358E+01  0.0000000000000E+00
-0.1475259099109E+01 -0.8963838878734E+00  0.0000000000000E+00
-0.1515388214367E+01 -0.7805486242106E+00  0.0000000000000E+00
-0.1549816048729E+01 -0.6623850452667E+00  0.0000000000000E+00
-0.1577951423558E+01 -0.5421395114141E+00  0.0000000000000E+00
-0.1599726077743E+01 -0.4202720410058E+00  0.0000000000000E+00
-0.1614540283554E+01 -0.2971636065640E+00  0.0000000000000E+00
-0.1621202079703E+01 -0.1732535253581E+00  0.0000000000000E+00
-0.1621535777370E+01 -0.4916203891051E-01  0.0000000000000E+00
-0.1607343309956E+01  0.7359576528685E-01  0.0000000000000E+00
-0.1571554767384E+01  0.1905750010332E+00  0.0000000000000E+00
-0.1518887139772E+01  0.2990893859719E+00  0.0000000000000E+00
-0.1454062581599E+01  0.3986847730844E+00  0.0000000000000E+00
-0.1381455939042E+01  0.4908735428029E+00  0.0000000000000E+00
-0.1303233061414E+01  0.5765718365090E+00  0.0000000000000E+00
-0.1220367798727E+01  0.6559037723053E+00  0.0000000000000E+00
-0.1226885434598E+01 -0.1326906918420E+01  0.0000000000000E+00
-0.1278550759514E+01 -0.1221502667451E+01  0.0000000000000E+00
-0.1330645754203E+01 -0.1116315696059E+01  0.0000000000000E+00
-0.1378722240279E+01 -0.1008475241632E+01  0.0000000000000E+00
-0.1421321506754E+01 -0.8974809757901E+00  0.0000000000000E+00
-0.1458712147377E+01 -0.7839343158880E+00  0.0000000000000E+00
-0.1490844495113E+01 -0.6682265862935E+00  0.0000000000000E+00
-0.1517168965702E+01 -0.5505867527475E+00  0.0000000000000E+00
-0.1537616433326E+01 -0.4314419350033E+00  0.0000000000000E+00
-0.1551617766864E+01 -0.3111454995403E+00  0.0000000000000E+00
-0.1558049006250E+01 -0.1901046756128E+00  0.0000000000000E+00
-0.1558587013893E+01 -0.6889470344107E-01  0.0000000000000E+00
-0.1545607077695E+01  0.5107804305651E-01  0.0000000000000E+00
-0.1512538520197E+01  0.1656861039298E+00  0.0000000000000E+00
-0.1463760767663E+01  0.2724348549213E+00  0.0000000000000E+00
-0.1403660927249E+01  0.3709023539556E+00  0.0000000000000E+00
-0.1336304775877E+01  0.4624927302273E+00  0.0000000000000E+00
-0.1263707078111E+01  0.5480565223604E+00  0.0000000000000E+00
-0.1186775495267E+01  0.6277088537534E+00  0.0000000000000E+00
-0.1187629395366E+01 -0.1320974386387E+01  0.0000000000000E+00
-0.1235338830454E+01 -0.1217219359810E+01  0.0000000000000E+00
-0.1283469759628E+01 -0.1113665068416E+01  0.0000000000000E+00
-0.1327919804237E+01 -0.1007661713037E+01  0.0000000000000E+00
-0.1367346355235E+01 -0.8987476485388E+00  0.0000000000000E+00
-0.1402001025609E+01 -0.7874782839299E+00  0.0000000000000E+00
-0.1431840391102E+01 -0.6742150953269E+00  0.0000000000000E+00
-0.1456356461827E+01 -0.5591696538526E+00  0.0000000000000E+00
-0.1475479247296E+01 -0.4427361805032E+00  0.0000000000000E+00
-0.1488670212889E+01 -0.3252404361983E+00  0.0000000000000E+00
-0.1494873399790E+01 -0.2070575620616E+00  0.0000000000000E+00
-0.1495618221986E+01 -0.8871779540677E-01  0.0000000000000E+00
-0.1483853318484E+01  0.2848118797714E-01  0.0000000000000E+00
-0.1453507248027E+01  0.1407293705068E+00  0.0000000000000E+00
-0.1408621873567E+01  0.2457237885353E+00  0.0000000000000E+00
-0.1353249254825E+01  0.3430747044833E+00  0.0000000000000E+00
-0.1291146099045E+01  0.4340779944504E+00  0.0000000000000E+00
-0.1224176085705E+01  0.5195185928221E+00  0.0000000000000E+00
-0.1153180687300E+01  0.5995026277207E+00  0.0000000000000E+00
-0.1148326976788E+01 -0.1315257877050E+01  0.0000000000000E+00
-0.1192082964804E+01 -0.1213140702054E+01  0.0000000000000E+00
-0.1236252271205E+01 -0.1111207717923E+01  0.0000000000000E+00
-0.1277078316727E+01 -0.1007030090139E+01  0.0000000000000E+00
-0.1313334594560E+01 -0.9001848553013E+00  0.0000000000000E+00
-0.1345255736939E+01 -0.7911814140789E+00  0.0000000000000E+00
-0.1372804562317E+01 -0.6803513946257E+00  0.0000000000000E+00
-0.1395514675171E+01 -0.5678889734651E+00  0.0000000000000E+00
-0.1413315220375E+01 -0.4541554726861E+00  0.0000000000000E+00
-0.1425698259699E+01 -0.3394490481422E+00  0.0000000000000E+00
-0.1431675835588E+01 -0.2241127527187E+00  0.0000000000000E+00
-0.1432629913986E+01 -0.1086318192211E+00  0.0000000000000E+00
-0.1422082481537E+01  0.5804759131052E-02  0.0000000000000E+00
-0.1394461336550E+01  0.1157044232416E+00  0.0000000000000E+00
-0.1353470779282E+01  0.2189558725478E+00  0.0000000000000E+00
-0.1302827821999E+01  0.3152015735085E+00  0.0000000000000E+00
-0.1245980101937E+01  0.4056291472893E+00  0.0000000000000E+00
-0.1184640213205E+01  0.4909579225658E+00  0.0000000000000E+00
-0.1119583439366E+01  0.5712850316116E+00  0.0000000000000E+00
-0.1108979375216E+01 -0.1309758562184E+01  0.0000000000000E+00
-0.1148784295643E+01 -0.1209267804259E+01  0.0000000000000E+00
-0.1188994358740E+01 -0.1108944692962E+01  0.0000000000000E+00
-0.1226198784311E+01 -0.1006581359642E+01  0.0000000000000E+00
-0.1259287168077E+01 -0.9017935211183E+00  0.0000000000000E+00
-0.1288477161522E+01 -0.7950445697246E+00  0.0000000000000E+00
-0.1313737825754E+01 -0.6866362859398E+00  0.0000000000000E+00
-0.1334644359599E+01 -0.5767454517047E+00  0.0000000000000E+00
-0.1351125043330E+01 -0.4657004900490E+00  0.0000000000000E+00
-0.1362702534998E+01 -0.3537719522543E+00  0.0000000000000E+00
-0.1368456878322E+01 -0.2412708028569E+00  0.0000000000000E+00
-0.1369622591563E+01 -0.1286372685415E+00  0.0000000000000E+00
-0.1360295005660E+01 -0.1695167559519E-01  0.0000000000000E+00
-0.1335401161793E+01  0.9061089160135E-01  0.0000000000000E+00
-0.1298307798104E+01  0.1921307980690E+00  0.0000000000000E+00
-0.1252396879368E+01  0.2872827138462E+00  0.0000000000000E+00
-0.1200806972471E+01  0.3771460033088E+00  0.0000000000000E+00
-0.1145099585870E+01  0.4623743879392E+00  0.0000000000000E+00
-0.1085983814086E+01  0.5430560035856E+00  0.0000000000000E+00
-0.1069587807609E+01 -0.1304477586773E+01  0.0000000000000E+00
-0.1105443975430E+01 -0.1205601751120E+01  0.0000000000000E+00
-0.1141697110190E+01 -0.1106877017936E+01  0.0000000000000E+00
-0.1175282230482E+01 -0.1006316485686E+01  0.0000000000000E+00
-0.1205205034859E+01 -0.9035745498883E+00  0.0000000000000E+00
-0.1231666194052E+01 -0.7990685945414E+00  0.0000000000000E+00
-0.1254641011766E+01 -0.6930705527353E+00  0.0000000000000E+00
-0.1273746281175E+01 -0.5857398118447E+00  0.0000000000000E+00
-0.1288909417977E+01 -0.4773718956829E+00  0.0000000000000E+00
-0.1299683676407E+01 -0.3682097514539E+00  0.0000000000000E+00
-0.1305217101473E+01 -0.2585322552314E+00  0.0000000000000E+00
-0.1306596764096E+01 -0.1487346259530E+00  0.0000000000000E+00
-0.1298491336305E+01 -0.3978853868330E-01  0.0000000000000E+00
-0.1276327105409E+01  0.6544841325714E-01  0.0000000000000E+00
-0.1243133247977E+01  0.1652482630036E+00  0.0000000000000E+00
-0.1201956681219E+01  0.2593178837163E+00  0.0000000000000E+00
-0.1155626901319E+01  0.3486283811055E+00  0.0000000000000E+00
-0.1105554330784E+01  0.4337678679626E+00  0.0000000000000E+00
-0.1052381874987E+01  0.5148154831302E+00  0.0000000000000E+00
-0.1030153478891E+01 -0.1299416062439E+01  0.0000000000000E+00
-0.1062063143085E+01 -0.1202143595677E+01  0.0000000000000E+00
-0.1094361598468E+01 -0.1105005687296E+01  0.0000000000000E+00
-0.1124329662344E+01 -0.1006236404253E+01  0.0000000000000E+00
-0.1151089136449E+01 -0.9055288192595E+00  0.0000000000000E+00
-0.1174823710759E+01 -0.8032543079536E+00  0.0000000000000E+00
-0.1195514931520E+01 -0.6996549563073E+00  0.0000000000000E+00
-0.1212821186271E+01 -0.5948727571351E+00  0.0000000000000E+00
-0.1226669026167E+01 -0.4891703348581E+00  0.0000000000000E+00
-0.1236642301545E+01 -0.3827630330845E+00  0.0000000000000E+00
-0.1241957058761E+01 -0.2758976392924E+00  0.0000000000000E+00
-0.1243552921638E+01 -0.1689243630130E+00  0.0000000000000E+00
-0.1236671900503E+01 -0.6270624381806E-01  0.0000000000000E+00
-0.1217239532245E+01  0.4021663263883E-01  0.0000000000000E+00
-0.1187947432191E+01  0.1383079702589E+00  0.0000000000000E+00
-0.1151507469733E+01  0.2313068448822E+00  0.0000000000000E+00
-0.1110440069832E+01  0.3200761016069E+00  0.0000000000000E+00
-0.1066004568682E+01  0.4051382429913E+00  0.0000000000000E+00
-0.1018777682354E+01  0.4865634102839E+00  0.0000000000000E+00
-0.9906777036991E+00 -0.1294575088408E+01  0.0000000000000E+00
-0.1018643046870E+01 -0.1198894379352E+01  0.0000000000000E+00
-0.1046989005467E+01 -0.1103331684666E+01  0.0000000000000E+00
-0.1073342195220E+01 -0.1006342041053E+01  0.0000000000000E+00
-0.1096940521322E+01 -0.9076571968749E+00  0.0000000000000E+00
-0.1117950692994E+01 -0.8076025194146E+00  0.0000000000000E+00
-0.1136360498971E+01 -0.7063902478163E+00  0.0000000000000E+00
-0.1151869921146E+01 -0.6041449803516E+00  0.0000000000000E+00
-0.1164404646165E+01 -0.5010964418930E+00  0.0000000000000E+00
-0.1173579120367E+01 -0.3974323729538E+00  0.0000000000000E+00
-0.1178677391469E+01 -0.2933674723030E+00  0.0000000000000E+00
-0.1180491636525E+01 -0.1892069384262E+00  0.0000000000000E+00
-0.1174837201104E+01 -0.8570519127675E-01  0.0000000000000E+00
-0.1158138874721E+01  0.1491520765000E-01  0.0000000000000E+00
-0.1132750711982E+01  0.1113096355665E+00  0.0000000000000E+00
-0.1101049534424E+01  0.2032493705286E+00  0.0000000000000E+00
-0.1065246695464E+01  0.2914889951333E+00  0.0000000000000E+00
-0.1026450444716E+01  0.3764854001971E+00  0.0000000000000E+00
-0.9851713088512E+00  0.4582997287889E+00  0.0000000000000E+00
-0.9511617699266E+00 -0.1289955725504E+01  0.0000000000000E+00
-0.9751849067139E+00 -0.1195855107115E+01  0.0000000000000E+00
-0.9995804831506E+00 -0.1101855959167E+01  0.0000000000000E+00
-0.1022320913129E+01 -0.1006634289366E+01  0.0000000000000E+00
-0.1042760205564E+01 -0.9099605201844E+00  0.0000000000000E+00
-0.1061048088928E+01 -0.8121140105493E+00  0.0000000000000E+00
-0.1077178594388E+01 -0.7132771530690E+00  0.0000000000000E+00
-0.1090893298189E+01 -0.6135571514881E+00  0.0000000000000E+00
-0.1102117022494E+01 -0.5131508309729E+00  0.0000000000000E+00
-0.1110494809551E+01 -0.4122183294437E+00  0.0000000000000E+00
-0.1115378708452E+01 -0.3109422568459E+00  0.0000000000000E+00
-0.1117413449799E+01 -0.2095827989697E+00  0.0000000000000E+00
-0.1112987711460E+01 -0.1087857720977E+00  0.0000000000000E+00
-0.1099025538536E+01 -0.1045619698468E-01  0.0000000000000E+00
-0.1077543425416E+01  0.8425297945760E-01  0.0000000000000E+00
-0.1050583145725E+01  0.1751452370352E+00  0.0000000000000E+00
-0.1020046981025E+01  0.2628668939426E+00  0.0000000000000E+00
-0.9868920940821E+00  0.3478092277359E+00  0.0000000000000E+00
-0.9515628220696E+00  0.4300243827152E+00  0.0000000000000E+00
-0.9116069872608E+00 -0.1285559004498E+01  0.0000000000000E+00
-0.9316899632209E+00 -0.1193026755469E+01  0.0000000000000E+00
-0.9521372030405E+00 -0.1100579433030E+01  0.0000000000000E+00
-0.9712669185257E+00 -0.1007114017167E+01  0.0000000000000E+00
-0.9885492225798E+00 -0.9124396029110E+00  0.0000000000000E+00
-0.1004116862923E+01 -0.8167895408345E+00  0.0000000000000E+00
-0.1017970113108E+01 -0.7203163773010E+00  0.0000000000000E+00
-0.1029892143722E+01 -0.6231099215445E+00  0.0000000000000E+00
-0.1039806912476E+01 -0.5253340988647E+00  0.0000000000000E+00
-0.1047390057437E+01 -0.4271214450931E+00  0.0000000000000E+00
-0.1052061629091E+01 -0.3286224812346E+00  0.0000000000000E+00
-0.1054318911882E+01 -0.2300523787265E+00  0.0000000000000E+00
-0.1051123913148E+01 -0.1319483661985E+00  0.0000000000000E+00
-0.1039899936456E+01 -0.3589790699629E-01  0.0000000000000E+00
-0.1022325916455E+01  0.5713773042639E-01  0.0000000000000E+00
-0.1000108578797E+01  0.1469942271592E+00  0.0000000000000E+00
-0.9748411328702E+00  0.2342096350805E+00  0.0000000000000E+00
-0.9473296543422E+00  0.3191096169583E+00  0.0000000000000E+00
-0.9179522907849E+00  0.4017373177321E+00  0.0000000000000E+00
-0.8720146866331E+00 -0.1281385925185E+01  0.0000000000000E+00
-0.8881594771479E+00 -0.1190410271569E+01  0.0000000000000E+00
-0.9046603557195E+00 -0.1099503000773E+01  0.0000000000000E+00
-0.9201813318361E+00 -0.1007782066347E+01  0.0000000000000E+00
-0.9343086226444E+00 -0.9150952343233E+00  0.0000000000000E+00
-0.9471579951153E+00 -0.8216298469200E+00  0.0000000000000E+00
-0.9587359651358E+00 -0.7275086045478E+00  0.0000000000000E+00
-0.9688672976347E+00 -0.6328039219456E+00  0.0000000000000E+00
-0.9774750858942E+00 -0.5376468243853E+00  0.0000000000000E+00
-0.9842655637184E+00 -0.4421422461151E+00  0.0000000000000E+00
-0.9887267829990E+00 -0.3464086190817E+00  0.0000000000000E+00
-0.9912085823139E+00 -0.2506160987026E+00  0.0000000000000E+00
-0.9892462957472E+00 -0.1551933420424E+00  0.0000000000000E+00
-0.9807624881220E+00 -0.6141023828673E-01  0.0000000000000E+00
-0.9670985347967E+00  0.2996362516681E-01  0.0000000000000E+00
-0.9496261133913E+00  0.1187961302237E+00  0.0000000000000E+00
-0.9296293608063E+00  0.2055170605213E+00  0.0000000000000E+00
-0.9077632653588E+00  0.2903864625034E+00  0.0000000000000E+00
-0.8843397849235E+00  0.3734384811542E+00  0.0000000000000E+00
-0.8323862196444E+00 -0.1277437455478E+01  0.0000000000000E+00
-0.8445947288565E+00 -0.1188006572371E+01  0.0000000000000E+00
-0.8571511503101E+00 -0.1098627528392E+01  0.0000000000000E+00
-0.8690652909581E+00 -0.1008639251951E+01  0.0000000000000E+00
-0.8800394724388E+00 -0.9179281785215E+00  0.0000000000000E+00
-0.8901724809746E+00 -0.8266356419629E+00  0.0000000000000E+00
-0.8994770747405E+00 -0.7348544970267E+00  0.0000000000000E+00
-0.9078196130017E+00 -0.6426397639724E+00  0.0000000000000E+00
-0.9151223246404E+00 -0.5500895678812E+00  0.0000000000000E+00
-0.9211220391125E+00 -0.4572812419253E+00  0.0000000000000E+00
-0.9253748097363E+00 -0.3643011288742E+00  0.0000000000000E+00
-0.9280830294945E+00 -0.2712743664508E+00  0.0000000000000E+00
-0.9273553566028E+00 -0.1785210563106E+00  0.0000000000000E+00
-0.9216136198406E+00 -0.8699349664939E-01  0.0000000000000E+00
-0.9118616357056E+00  0.2730408804202E-02  0.0000000000000E+00
-0.8991360337160E+00  0.9055074230215E-01  0.0000000000000E+00
-0.8844118779828E+00  0.1767890173054E+00  0.0000000000000E+00
-0.8681930692261E+00  0.2616396623902E+00  0.0000000000000E+00
-0.8507253755287E+00  0.3451278219878E+00  0.0000000000000E+00
-0.7927229579626E+00 -0.1273714530528E+01  0.0000000000000E+00
-0.8009970177392E+00 -0.1185816543790E+01  0.0000000000000E+00
-0.8096108139298E+00 -0.1097953852569E+01  0.0000000000000E+00
-0.8179199507468E+00 -0.1009686361438E+01  0.0000000000000E+00
-0.8257428545609E+00 -0.9209391737407E+00  0.0000000000000E+00
-0.8331613308469E+00 -0.8318076149775E+00  0.0000000000000E+00
-0.8401943800219E+00 -0.7423546945341E+00  0.0000000000000E+00
-0.8467499556851E+00 -0.6526180382057E+00  0.0000000000000E+00
-0.8527494223438E+00 -0.5626628707190E+00  0.0000000000000E+00
-0.8579602050271E+00 -0.4725389246792E+00  0.0000000000000E+00
-0.8620063584978E+00 -0.3823004535589E+00  0.0000000000000E+00
-0.8649428304042E+00 -0.2920275757042E+00  0.0000000000000E+00
-0.8654516005855E+00 -0.2019318535823E+00  0.0000000000000E+00
-0.8624537643804E+00 -0.1126479774958E+00  0.0000000000000E+00
-0.8566155798348E+00 -0.2456216487784E-01  0.0000000000000E+00
-0.8486386282961E+00  0.6225786639916E-01  0.0000000000000E+00
-0.8391889007890E+00  0.1480253576752E+00  0.0000000000000E+00
-0.8286192101987E+00  0.2328691181076E+00  0.0000000000000E+00
-0.8171091347244E+00  0.3168052909748E+00  0.0000000000000E+00
-0.7530262926939E+00 -0.1270218051859E+01  0.0000000000000E+00
-0.7573676616205E+00 -0.1183841039890E+01  0.0000000000000E+00
-0.7620405911220E+00 -0.1097482779905E+01  0.0000000000000E+00
-0.7667464824764E+00 -0.1010924153951E+01  0.0000000000000E+00
-0.7714198670190E+00 -0.9241289316708E+00  0.0000000000000E+00
-0.7761255694772E+00 -0.8371464302010E+00  0.0000000000000E+00
-0.7808888324672E+00 -0.7500098138566E+00  0.0000000000000E+00
-0.7856592039196E+00 -0.6627393139834E+00  0.0000000000000E+00
-0.7903571839912E+00 -0.5753672547891E+00  0.0000000000000E+00
-0.7947807932090E+00 -0.4879157688224E+00  0.0000000000000E+00
-0.7986220877978E+00 -0.4004070201384E+00  0.0000000000000E+00
-0.8017885703212E+00 -0.3128761060169E+00  0.0000000000000E+00
-0.8035355398389E+00 -0.2254260660222E+00  0.0000000000000E+00
-0.8032833607526E+00 -0.1383739655889E+00  0.0000000000000E+00
-0.8013607330460E+00 -0.5191433321603E-01  0.0000000000000E+00
-0.7981341898262E+00  0.3391731262723E-01  0.0000000000000E+00
-0.7939606487436E+00  0.1192259392064E+00  0.0000000000000E+00
-0.7890418346189E+00  0.2040747347020E+00  0.0000000000000E+00
-0.7834911356789E+00  0.2884708406368E+00  0.0000000000000E+00
 0.7530263043685E+00 -0.1270218053608E+01  0.0000000000000E+00
 0.7573676719998E+00 -0.1183841041557E+01  0.0000000000000E+00
 0.7620406002124E+00 -0.1097482781485E+01  0.0000000000000E+00
 0.7667464902935E+00 -0.1010924155438E+01  0.0000000000000E+00
 0.7714198735918E+00 -0.9241289330601E+00  0.0000000000000E+00
 0.7761255748516E+00 -0.8371464314874E+00  0.0000000000000E+00
 0.7808888367128E+00 -0.7500098150348E+00  0.0000000000000E+00
 0.7856592071364E+00 -0.6627393150508E+00  0.0000000000000E+00
 0.7903571863134E+00 -0.5753672557459E+00  0.0000000000000E+00
 0.7947807947991E+00 -0.4879157696728E+00  0.0000000000000E+00
 0.7986220888290E+00 -0.4004070208897E+00  0.0000000000000E+00
 0.8017885709542E+00 -0.3128761066771E+00  0.0000000000000E+00
 0.8035355402108E+00 -0.2254260665967E+00  0.0000000000000E+00
 0.8032833609624E+00 -0.1383739660813E+00  0.0000000000000E+00
 0.8013607331609E+00 -0.5191433362778E-01  0.0000000000000E+00
 0.7981341898900E+00  0.3391731229450E-01  0.0000000000000E+00
 0.7939606487837E+00  0.1192259389523E+00  0.0000000000000E+00
 0.7890418346513E+00  0.2040747345265E+00  0.0000000000000E+00
 0.7834911357119E+00  0.2884708405401E+00  0.0000000000000E+00
 0.7927229690089E+00 -0.1273714532262E+01  0.0000000000000E+00
 0.8009970275589E+00 -0.1185816545447E+01  0.0000000000000E+00
 0.8096108225272E+00 -0.1097953854141E+01  0.0000000000000E+00
 0.8179199581358E+00 -0.1009686362918E+01  0.0000000000000E+00
 0.8257428607702E+00 -0.9209391751259E+00  0.0000000000000E+00
 0.8331613359210E+00 -0.8318076162633E+00  0.0000000000000E+00
 0.8401943840277E+00 -0.7423546957159E+00  0.0000000000000E+00
 0.8467499587182E+00 -0.6526180392811E+00  0.0000000000000E+00
 0.8527494245320E+00 -0.5626628716882E+00  0.0000000000000E+00
 0.8579602065249E+00 -0.4725389255462E+00  0.0000000000000E+00
 0.8620063594690E+00 -0.3823004543303E+00  0.0000000000000E+00
 0.8649428310004E+00 -0.2920275763873E+00  0.0000000000000E+00
 0.8654516009409E+00 -0.2019318541816E+00  0.0000000000000E+00
 0.8624537645892E+00 -0.1126479780131E+00  0.0000000000000E+00
 0.8566155799597E+00 -0.2456216531384E-01  0.0000000000000E+00
 0.8486386283778E+00  0.6225786604307E-01  0.0000000000000E+00
 0.8391889008528E+00  0.1480253573988E+00  0.0000000000000E+00
 0.8286192102596E+00  0.2328691179110E+00  0.0000000000000E+00
 0.8171091347902E+00  0.3168052908585E+00  0.0000000000000E+00
 0.8323862300631E+00 -0.1277437457190E+01  0.0000000000000E+00
 0.8445947381175E+00 -0.1188006574008E+01  0.0000000000000E+00
 0.8571511584150E+00 -0.1098627529947E+01  0.0000000000000E+00
 0.8690652979196E+00 -0.1008639253417E+01  0.0000000000000E+00
 0.8800394782851E+00 -0.9179281798955E+00  0.0000000000000E+00
 0.8901724857490E+00 -0.8266356432415E+00  0.0000000000000E+00
 0.8994770785070E+00 -0.7348544982060E+00  0.0000000000000E+00
 0.9078196158517E+00 -0.6426397650503E+00  0.0000000000000E+00
 0.9151223266951E+00 -0.5500895688577E+00  0.0000000000000E+00
 0.9211220405183E+00 -0.4572812428042E+00  0.0000000000000E+00
 0.9253748106480E+00 -0.3643011296615E+00  0.0000000000000E+00
 0.9280830300542E+00 -0.2712743671533E+00  0.0000000000000E+00
 0.9273553569420E+00 -0.1785210569313E+00  0.0000000000000E+00
 0.9216136200487E+00 -0.8699349718877E-01  0.0000000000000E+00
 0.9118616358407E+00  0.2730408346272E-02  0.0000000000000E+00
 0.8991360338156E+00  0.9055074192457E-01  0.0000000000000E+00
 0.8844118780703E+00  0.1767890170080E+00  0.0000000000000E+00
 0.8681930693155E+00  0.2616396621734E+00  0.0000000000000E+00
 0.8507253756273E+00  0.3451278218524E+00  0.0000000000000E+00
 0.8720146964251E+00 -0.1281385926866E+01  0.0000000000000E+00
 0.8881594858509E+00 -0.1190410273179E+01  0.0000000000000E+00
 0.9046603633328E+00 -0.1099503002303E+01  0.0000000000000E+00
 0.9201813383709E+00 -0.1007782067791E+01  0.0000000000000E+00
 0.9343086281286E+00 -0.9150952356790E+00  0.0000000000000E+00
 0.9471579995906E+00 -0.8216298481850E+00  0.0000000000000E+00
 0.9587359686636E+00 -0.7275086057185E+00  0.0000000000000E+00
 0.9688673003020E+00 -0.6328039230203E+00  0.0000000000000E+00
 0.9774750878159E+00 -0.5376468253640E+00  0.0000000000000E+00
 0.9842655650327E+00 -0.4421422470013E+00  0.0000000000000E+00
 0.9887267838514E+00 -0.3464086198808E+00  0.0000000000000E+00
 0.9912085828374E+00 -0.2506160994206E+00  0.0000000000000E+00
 0.9892462960706E+00 -0.1551933426814E+00  0.0000000000000E+00
 0.9807624883295E+00 -0.6141023884543E-01  0.0000000000000E+00
 0.9670985349422E+00  0.2996362468928E-01  0.0000000000000E+00
 0.9496261135090E+00  0.1187961298265E+00  0.0000000000000E+00
 0.9296293609177E+00  0.2055170602043E+00  0.0000000000000E+00
 0.9077632654769E+00  0.2903864622674E+00  0.0000000000000E+00
 0.8843397850549E+00  0.3734384810002E+00  0.0000000000000E+00
 0.9116069964270E+00 -0.1285559006139E+01  0.0000000000000E+00
 0.9316899713668E+00 -0.1193026757043E+01  0.0000000000000E+00
 0.9521372101630E+00 -0.1100579434527E+01  0.0000000000000E+00
 0.9712669246345E+00 -0.1007114018582E+01  0.0000000000000E+00
 0.9885492277025E+00 -0.9124396042416E+00  0.0000000000000E+00
 0.1004116867100E+01 -0.8167895420793E+00  0.0000000000000E+00
 0.1017970116397E+01 -0.7203163784571E+00  0.0000000000000E+00
 0.1029892146207E+01 -0.6231099226104E+00  0.0000000000000E+00
 0.1039806914265E+01 -0.5253340998405E+00  0.0000000000000E+00
 0.1047390058661E+01 -0.4271214459819E+00  0.0000000000000E+00
 0.1052061629884E+01 -0.3286224820412E+00  0.0000000000000E+00
 0.1054318912369E+01 -0.2300523794564E+00  0.0000000000000E+00
 0.1051123913456E+01 -0.1319483668524E+00  0.0000000000000E+00
 0.1039899936664E+01 -0.3589790757152E-01  0.0000000000000E+00
 0.1022325916611E+01  0.5713772993158E-01  0.0000000000000E+00
 0.1000108578933E+01  0.1469942267442E+00  0.0000000000000E+00
 0.9748411330057E+00  0.2342096347455E+00  0.0000000000000E+00
 0.9473296544890E+00  0.3191096167040E+00  0.0000000000000E+00
 0.9179522909491E+00  0.4017373175599E+00  0.0000000000000E+00
 0.9511617784682E+00 -0.1289955727096E+01  0.0000000000000E+00
 0.9751849143037E+00 -0.1195855108645E+01  0.0000000000000E+00
 0.9995804897833E+00 -0.1101855960624E+01  0.0000000000000E+00
 0.1022320918812E+01 -0.1006634290744E+01  0.0000000000000E+00
 0.1042760210326E+01 -0.9099605214829E+00  0.0000000000000E+00
 0.1061048092807E+01 -0.8121140117675E+00  0.0000000000000E+00
 0.1077178597441E+01 -0.7132771542044E+00  0.0000000000000E+00
 0.1090893300493E+01 -0.6135571525397E+00  0.0000000000000E+00
 0.1102117024151E+01 -0.5131508319408E+00  0.0000000000000E+00
 0.1110494810684E+01 -0.4122183303305E+00  0.0000000000000E+00
 0.1115378709188E+01 -0.3109422576558E+00  0.0000000000000E+00
 0.1117413450252E+01 -0.2095827997078E+00  0.0000000000000E+00
 0.1112987711753E+01 -0.1087857727634E+00  0.0000000000000E+00
 0.1099025538743E+01 -0.1045619757369E-01  0.0000000000000E+00
 0.1077543425583E+01  0.8425297894781E-01  0.0000000000000E+00
 0.1050583145880E+01  0.1751452366042E+00  0.0000000000000E+00
 0.1020046981184E+01  0.2628668935907E+00  0.0000000000000E+00
 0.9868920942577E+00  0.3478092274642E+00  0.0000000000000E+00
 0.9515628222668E+00  0.4300243825253E+00  0.0000000000000E+00
 0.9906777116171E+00 -0.1294575089943E+01  0.0000000000000E+00
 0.1018643053905E+01 -0.1198894380829E+01  0.0000000000000E+00
 0.1046989011611E+01 -0.1103331686075E+01  0.0000000000000E+00
 0.1073342200480E+01 -0.1006342042387E+01  0.0000000000000E+00
 0.1096940525724E+01 -0.9076571981345E+00  0.0000000000000E+00
 0.1117950696577E+01 -0.8076025205997E+00  0.0000000000000E+00
 0.1136360501787E+01 -0.7063902489253E+00  0.0000000000000E+00
 0.1151869923269E+01 -0.6041449813834E+00  0.0000000000000E+00
 0.1164404647691E+01 -0.5010964428479E+00  0.0000000000000E+00
 0.1173579121410E+01 -0.3974323738340E+00  0.0000000000000E+00
 0.1178677392146E+01 -0.2933674731123E+00  0.0000000000000E+00
 0.1180491636942E+01 -0.1892069391688E+00  0.0000000000000E+00
 0.1174837201382E+01 -0.8570519195099E-01  0.0000000000000E+00
 0.1158138874929E+01  0.1491520704997E-01  0.0000000000000E+00
 0.1132750712161E+01  0.1113096350441E+00  0.0000000000000E+00
 0.1101049534597E+01  0.2032493700836E+00  0.0000000000000E+00
 0.1065246695648E+01  0.2914889947660E+00  0.0000000000000E+00
 0.1026450444921E+01  0.3764853999090E+00  0.0000000000000E+00
 0.9851713090814E+00  0.4582997285817E+00  0.0000000000000E+00
 0.1030153486187E+01 -0.1299416063908E+01  0.0000000000000E+00
 0.1062063149566E+01 -0.1202143597094E+01  0.0000000000000E+00
 0.1094361604124E+01 -0.1105005688649E+01  0.0000000000000E+00
 0.1124329667181E+01 -0.1006236405536E+01  0.0000000000000E+00
 0.1151089140492E+01 -0.9055288204733E+00  0.0000000000000E+00
 0.1174823714046E+01 -0.8032543090994E+00  0.0000000000000E+00
 0.1195514934100E+01 -0.6996549573837E+00  0.0000000000000E+00
 0.1212821188214E+01 -0.5948727581417E+00  0.0000000000000E+00
 0.1226669027563E+01 -0.4891703357950E+00  0.0000000000000E+00
 0.1236642302499E+01 -0.3827630339536E+00  0.0000000000000E+00
 0.1241957059382E+01 -0.2758976400968E+00  0.0000000000000E+00
 0.1243552922021E+01 -0.1689243637565E+00  0.0000000000000E+00
 0.1236671900766E+01 -0.6270624449766E-01  0.0000000000000E+00
 0.1217239532454E+01  0.4021663203052E-01  0.0000000000000E+00
 0.1187947432381E+01  0.1383079697260E+00  0.0000000000000E+00
 0.1151507469925E+01  0.2313068444249E+00  0.0000000000000E+00
 0.1110440070041E+01  0.3200761012256E+00  0.0000000000000E+00
 0.1066004568916E+01  0.4051382426875E+00  0.0000000000000E+00
 0.1018777682617E+01  0.4865634100600E+00  0.0000000000000E+00
 0.1069587814283E+01 -0.1304477588167E+01  0.0000000000000E+00
 0.1105443981358E+01 -0.1205601752468E+01  0.0000000000000E+00
 0.1141697115360E+01 -0.1106877019225E+01  0.0000000000000E+00
 0.1175282234897E+01 -0.1006316486910E+01  0.0000000000000E+00
 0.1205205038544E+01 -0.9035745510495E+00  0.0000000000000E+00
 0.1231666197044E+01 -0.7990685956414E+00  0.0000000000000E+00
 0.1254641014112E+01 -0.6930705537734E+00  0.0000000000000E+00
 0.1273746282939E+01 -0.5857398128207E+00  0.0000000000000E+00
 0.1288909419242E+01 -0.4773718965968E+00  0.0000000000000E+00
 0.1299683677272E+01 -0.3682097523073E+00  0.0000000000000E+00
 0.1305217102037E+01 -0.2585322560269E+00  0.0000000000000E+00
 0.1306596764446E+01 -0.1487346266938E+00  0.0000000000000E+00
 0.1298491336554E+01 -0.3978853936507E-01  0.0000000000000E+00
 0.1276327105619E+01  0.6544841264325E-01  0.0000000000000E+00
 0.1243133248179E+01  0.1652482624626E+00  0.0000000000000E+00
 0.1201956681431E+01  0.2593178832485E+00  0.0000000000000E+00
 0.1155626901552E+01  0.3486283807115E+00  0.0000000000000E+00
 0.1105554331047E+01  0.4337678676442E+00  0.0000000000000E+00
 0.1052381875283E+01  0.5148154828900E+00  0.0000000000000E+00
 0.1108979381271E+01 -0.1309758563495E+01  0.0000000000000E+00
 0.1148784301020E+01 -0.1209267805530E+01  0.0000000000000E+00
 0.1188994363424E+01 -0.1108944694180E+01  0.0000000000000E+00
 0.1226198788305E+01 -0.1006581360800E+01  0.0000000000000E+00
 0.1259287171406E+01 -0.9017935222202E+00  0.0000000000000E+00
 0.1288477164220E+01 -0.7950445707726E+00  0.0000000000000E+00
 0.1313737827865E+01 -0.6866362869336E+00  0.0000000000000E+00
 0.1334644361185E+01 -0.5767454526446E+00  0.0000000000000E+00
 0.1351125044467E+01 -0.4657004909350E+00  0.0000000000000E+00
 0.1362702535776E+01 -0.3537719530876E+00  0.0000000000000E+00
 0.1368456878830E+01 -0.2412708036395E+00  0.0000000000000E+00
 0.1369622591879E+01 -0.1286372692759E+00  0.0000000000000E+00
 0.1360295005896E+01 -0.1695167627600E-01  0.0000000000000E+00
 0.1335401162004E+01  0.9061089098460E-01  0.0000000000000E+00
 0.1298307798319E+01  0.1921307975221E+00  0.0000000000000E+00
 0.1252396879599E+01  0.2872827133698E+00  0.0000000000000E+00
 0.1200806972730E+01  0.3771460029035E+00  0.0000000000000E+00
 0.1145099586162E+01  0.4623743876070E+00  0.0000000000000E+00
 0.1085983814416E+01  0.5430560033294E+00  0.0000000000000E+00
 0.1148326982225E+01 -0.1315257878269E+01  0.0000000000000E+00
 0.1192082969631E+01 -0.1213140703241E+01  0.0000000000000E+00
 0.1236252275405E+01 -0.1111207719063E+01  0.0000000000000E+00
 0.1277078320301E+01 -0.1007030091224E+01  0.0000000000000E+00
 0.1313334597533E+01 -0.9001848563373E+00  0.0000000000000E+00
 0.1345255739343E+01 -0.7911814150685E+00  0.0000000000000E+00
 0.1372804564196E+01 -0.6803513955696E+00  0.0000000000000E+00
 0.1395514676580E+01 -0.5678889743635E+00  0.0000000000000E+00
 0.1413315221384E+01 -0.4541554735392E+00  0.0000000000000E+00
 0.1425698260390E+01 -0.3394490489509E+00  0.0000000000000E+00
 0.1431675836041E+01 -0.2241127534843E+00  0.0000000000000E+00
 0.1432629914269E+01 -0.1086318199455E+00  0.0000000000000E+00
 0.1422082481760E+01  0.5804758454327E-02  0.0000000000000E+00
 0.1394461336764E+01  0.1157044226246E+00  0.0000000000000E+00
 0.1353470779509E+01  0.2189558719973E+00  0.0000000000000E+00
 0.1302827822250E+01  0.3152015730252E+00  0.0000000000000E+00
 0.1245980102221E+01  0.4056291468740E+00  0.0000000000000E+00
 0.1184640213527E+01  0.4909579222208E+00  0.0000000000000E+00
 0.1119583439729E+01  0.5712850313400E+00  0.0000000000000E+00
 0.1187629400186E+01 -0.1320974387505E+01  0.0000000000000E+00
 0.1235338834732E+01 -0.1217219360904E+01  0.0000000000000E+00
 0.1283469763345E+01 -0.1113665069469E+01  0.0000000000000E+00
 0.1327919807393E+01 -0.1007661714042E+01  0.0000000000000E+00
 0.1367346357854E+01 -0.8987476495021E+00  0.0000000000000E+00
 0.1402001027722E+01 -0.7874782848550E+00  0.0000000000000E+00
 0.1431840392749E+01 -0.6742150962150E+00  0.0000000000000E+00
 0.1456356463060E+01 -0.5591696547043E+00  0.0000000000000E+00
 0.1475479248178E+01 -0.4427361813186E+00  0.0000000000000E+00
 0.1488670213493E+01 -0.3252404369779E+00  0.0000000000000E+00
 0.1494873400188E+01 -0.2070575628063E+00  0.0000000000000E+00
 0.1495618222237E+01 -0.8871779611777E-01  0.0000000000000E+00
 0.1483853318695E+01  0.2848118730761E-01  0.0000000000000E+00
 0.1453507248244E+01  0.1407293698923E+00  0.0000000000000E+00
 0.1408621873807E+01  0.2457237879833E+00  0.0000000000000E+00
 0.1353249255096E+01  0.3430747039949E+00  0.0000000000000E+00
 0.1291146099354E+01  0.4340779940265E+00  0.0000000000000E+00
 0.1224176086056E+01  0.5195185924651E+00  0.0000000000000E+00
 0.1153180687696E+01  0.5995026274340E+00  0.0000000000000E+00
 0.1226885438803E+01 -0.1326906919430E+01  0.0000000000000E+00
 0.1278550763245E+01 -0.1221502668444E+01  0.0000000000000E+00
 0.1330645757439E+01 -0.1116315697018E+01  0.0000000000000E+00
 0.1378722243017E+01 -0.1008475242550E+01  0.0000000000000E+00
 0.1421321509020E+01 -0.8974809766741E+00  0.0000000000000E+00
 0.1458712149199E+01 -0.7839343167424E+00  0.0000000000000E+00
 0.1490844496529E+01 -0.6682265871201E+00  0.0000000000000E+00
 0.1517168966759E+01 -0.5505867535472E+00  0.0000000000000E+00
 0.1537616434081E+01 -0.4314419357761E+00  0.0000000000000E+00
 0.1551617767383E+01 -0.3111455002865E+00  0.0000000000000E+00
 0.1558049006595E+01 -0.1901046763326E+00  0.0000000000000E+00
 0.1558587014113E+01 -0.6889470413509E-01  0.0000000000000E+00
 0.1545607077895E+01  0.5107804239726E-01  0.0000000000000E+00
 0.1512538520417E+01  0.1656861033204E+00  0.0000000000000E+00
 0.1463760767916E+01  0.2724348543701E+00  0.0000000000000E+00
 0.1403660927541E+01  0.3709023534638E+00  0.0000000000000E+00
 0.1336304776212E+01  0.4624927297960E+00  0.0000000000000E+00
 0.1263707078492E+01  0.5480565219923E+00  0.0000000000000E+00
 0.1186775495697E+01  0.6277088534522E+00  0.0000000000000E+00
 0.1266093900534E+01 -0.1333054271612E+01  0.0000000000000E+00
 0.1321717619441E+01 -0.1225989486703E+01  0.0000000000000E+00
 0.1377779183766E+01 -0.1119158525826E+01  0.0000000000000E+00
 0.1429484615149E+01 -0.1009469664182E+01  0.0000000000000E+00
 0.1475259101023E+01 -0.8963838886716E+00  0.0000000000000E+00
 0.1515388215900E+01 -0.7805486249883E+00  0.0000000000000E+00
 0.1549816049915E+01 -0.6623850460261E+00  0.0000000000000E+00
 0.1577951424441E+01 -0.5421395121565E+00  0.0000000000000E+00
 0.1599726078373E+01 -0.4202720417312E+00  0.0000000000000E+00
 0.1614540283988E+01 -0.2971636072724E+00  0.0000000000000E+00
 0.1621202079995E+01 -0.1732535260491E+00  0.0000000000000E+00
 0.1621535777559E+01 -0.4916203958404E-01  0.0000000000000E+00
 0.1607343310144E+01  0.7359576464093E-01  0.0000000000000E+00
 0.1571554767608E+01  0.1905750004316E+00  0.0000000000000E+00
 0.1518887140039E+01  0.2990893854236E+00  0.0000000000000E+00
 0.1454062581912E+01  0.3986847725911E+00  0.0000000000000E+00
 0.1381455939403E+01  0.4908735423656E+00  0.0000000000000E+00
 0.1303233061826E+01  0.5765718361307E+00  0.0000000000000E+00
 0.1220367799190E+01  0.6559037719900E+00  0.0000000000000E+00
 0.1305253598805E+01 -0.1339415213768E+01  0.0000000000000E+00
 0.1364838277184E+01 -0.1230678650124E+01  0.0000000000000E+00
 0.1424868976629E+01 -0.1122192455048E+01  0.0000000000000E+00
 0.1480205918667E+01 -0.1010643942895E+01  0.0000000000000E+00
 0.1529158189524E+01 -0.8954554143590E+00  0.0000000000000E+00
 0.1572028344460E+01 -0.7773203034531E+00  0.0000000000000E+00
 0.1608754230714E+01 -0.6566896318631E+00  0.0000000000000E+00
 0.1638703075296E+01 -0.5338271545977E+00  0.0000000000000E+00
 0.1661807481841E+01 -0.4092257884365E+00  0.0000000000000E+00
 0.1677437125922E+01 -0.2832941124128E+00  0.0000000000000E+00
 0.1684332045081E+01 -0.1565035316807E+00  0.0000000000000E+00
 0.1684463999550E+01 -0.2951928744993E-01  0.0000000000000E+00
 0.1669061565065E+01  0.9603480391581E-01  0.0000000000000E+00
 0.1630555602763E+01  0.2153964461378E+00  0.0000000000000E+00
 0.1574000666993E+01  0.3256877013338E+00  0.0000000000000E+00
 0.1504453959286E+01  0.4264222171044E+00  0.0000000000000E+00
 0.1426599394506E+01  0.5192206232231E+00  0.0000000000000E+00
 0.1342753906311E+01  0.6050646623300E+00  0.0000000000000E+00
 0.1253957533241E+01  0.6840874466600E+00  0.0000000000000E+00
 0.1344363463886E+01 -0.1345988512312E+01  0.0000000000000E+00
 0.1407911726821E+01 -0.1235568990149E+01  0.0000000000000E+00
 0.1471914186453E+01 -0.1125416381172E+01  0.0000000000000E+00
 0.1530885263794E+01 -0.1011997040041E+01  0.0000000000000E+00
 0.1583017944169E+01 -0.8946945797580E+00  0.0000000000000E+00
 0.1628631763594E+01 -0.7742484426668E+00  0.0000000000000E+00
 0.1667658326345E+01 -0.6511394995318E+00  0.0000000000000E+00
 0.1699423265050E+01 -0.5256489000186E+00  0.0000000000000E+00
 0.1723860048123E+01 -0.3983024591913E+00  0.0000000000000E+00
 0.1740307754306E+01 -0.2695363630824E+00  0.0000000000000E+00
 0.1747438419983E+01 -0.1398541046292E+00  0.0000000000000E+00
 0.1747371254871E+01 -0.9965923158563E-02  0.0000000000000E+00
 0.1730761473203E+01  0.1183956207761E+00  0.0000000000000E+00
 0.1689540710963E+01  0.2401508366226E+00  0.0000000000000E+00
 0.1629101087451E+01  0.3522301333911E+00  0.0000000000000E+00
 0.1554834851269E+01  0.4541149528549E+00  0.0000000000000E+00
 0.1471734985641E+01  0.5475341723337E+00  0.0000000000000E+00
 0.1382269508274E+01  0.6335351342853E+00  0.0000000000000E+00
 0.1287544646131E+01  0.7122599445139E+00  0.0000000000000E+00
 0.1383422397442E+01 -0.1352772900237E+01  0.0000000000000E+00
 0.1450936928321E+01 -0.1240659306487E+01  0.0000000000000E+00
 0.1518913831514E+01 -0.1128829170621E+01  0.0000000000000E+00
 0.1581521727071E+01 -0.1013527888730E+01  0.0000000000000E+00
 0.1636837499717E+01 -0.8941003846407E+00  0.0000000000000E+00
 0.1685197666234E+01 -0.7713321090438E+00  0.0000000000000E+00
 0.1726527587863E+01 -0.6457337820702E+00  0.0000000000000E+00
 0.1760111302833E+01 -0.5176039480646E+00  0.0000000000000E+00
 0.1785883144369E+01 -0.3875013202364E+00  0.0000000000000E+00
 0.1803151594260E+01 -0.2558896921055E+00  0.0000000000000E+00
 0.1810520687724E+01 -0.1233046442937E+00  0.0000000000000E+00
 0.1810257084407E+01  0.9498587309285E-02  0.0000000000000E+00
 0.1792442633128E+01  0.1406786827331E+00  0.0000000000000E+00
 0.1748509748313E+01  0.2648385728346E+00  0.0000000000000E+00
 0.1684188114957E+01  0.3787170158914E+00  0.0000000000000E+00
 0.1605205028773E+01  0.4817632473949E+00  0.0000000000000E+00
 0.1516862541040E+01  0.5758143904379E+00  0.0000000000000E+00
 0.1421779753236E+01  0.6619833858726E+00  0.0000000000000E+00
 0.1321129080636E+01  0.7404213325146E+00  0.0000000000000E+00
 0.1422429228029E+01 -0.1359767065724E+01  0.0000000000000E+00
 0.1493912766301E+01 -0.1245948356251E+01  0.0000000000000E+00
 0.1565866852479E+01 -0.1132429649424E+01  0.0000000000000E+00
 0.1632114305621E+01 -0.1015235384149E+01  0.0000000000000E+00
 0.1690615910306E+01 -0.8936717936491E+00  0.0000000000000E+00
 0.1741725164067E+01 -0.7685703369241E+00  0.0000000000000E+00
 0.1785361185048E+01 -0.6404715837209E+00  0.0000000000000E+00
 0.1820766417108E+01 -0.5096914730635E+00  0.0000000000000E+00
 0.1847876058322E+01 -0.3768216161282E+00  0.0000000000000E+00
 0.1865967993429E+01 -0.2423534143737E+00  0.0000000000000E+00
 0.1873578256564E+01 -0.1068545359697E+00  0.0000000000000E+00
 0.1873120957578E+01  0.2887478823199E-01  0.0000000000000E+00
 0.1854104576573E+01  0.1628844638412E+00  0.0000000000000E+00
 0.1807462310716E+01  0.2894600590995E+00  0.0000000000000E+00
 0.1739261411041E+01  0.4051486841471E+00  0.0000000000000E+00
 0.1655564219998E+01  0.5093673677810E+00  0.0000000000000E+00
 0.1561981856234E+01  0.6040614769726E+00  0.0000000000000E+00
 0.1461284504515E+01  0.6904095494733E+00  0.0000000000000E+00
 0.1354710768243E+01  0.7685716765449E+00  0.0000000000000E+00
 0.1461382977685E+01 -0.1366969715541E+01  0.0000000000000E+00
 0.1536838319223E+01 -0.1251434914409E+01  0.0000000000000E+00
 0.1612772384243E+01 -0.1136216660760E+01  0.0000000000000E+00
 0.1682662190401E+01 -0.1017118437462E+01  0.0000000000000E+00
 0.1744352422465E+01 -0.8934077856720E+00  0.0000000000000E+00
 0.1798213558725E+01 -0.7659621727097E+00  0.0000000000000E+00
 0.1844158474159E+01 -0.6353520182180E+00  0.0000000000000E+00
 0.1881388018237E+01 -0.5019106559195E+00  0.0000000000000E+00
 0.1909838253925E+01 -0.3662625948152E+00  0.0000000000000E+00
 0.1928756468782E+01 -0.2289268447810E+00  0.0000000000000E+00
 0.1936610695870E+01 -0.9050316143287E-01  0.0000000000000E+00
 0.1935962495682E+01  0.4816323095776E-01  0.0000000000000E+00
 0.1915746975620E+01  0.1850134485560E+00  0.0000000000000E+00
 0.1866398119422E+01  0.3140157125225E+00  0.0000000000000E+00
 0.1794320744879E+01  0.4315254872332E+00  0.0000000000000E+00
 0.1705912241167E+01  0.5369275943465E+00  0.0000000000000E+00
 0.1607092793932E+01  0.6322756429451E+00  0.0000000000000E+00
 0.1500783670909E+01  0.7188137662650E+00  0.0000000000000E+00
 0.1388289663505E+01  0.7967110474620E+00  0.0000000000000E+00
-0.7394329578238E+00  0.3828904307871E+00  0.0000000000000E+00
-0.7655763767500E+00  0.4111916020047E+00  0.0000000000000E+00
-0.7917197956763E+00  0.4394927732223E+00  0.0000000000000E+00
-0.8178632146026E+00  0.4677939444398E+00  0.0000000000000E+00
-0.8440066335289E+00  0.4960951156574E+00  0.0000000000000E+00
-0.8701500524552E+00  0.5243962868750E+00  0.0000000000000E+00
-0.8962934713814E+00  0.5526974580926E+00  0.0000000000000E+00
-0.9224368903077E+00  0.5809986293101E+00  0.0000000000000E+00
-0.9485803092340E+00  0.6092998005277E+00  0.0000000000000E+00
-0.9747237281603E+00  0.6376009717453E+00  0.0000000000000E+00
-0.1000867147087E+01  0.6659021429629E+00  0.0000000000000E+00
-0.1027010566013E+01  0.6942033141804E+00  0.0000000000000E+00
-0.1053153984939E+01  0.7225044853980E+00  0.0000000000000E+00
-0.1079297403865E+01  0.7508056566156E+00  0.0000000000000E+00
-0.1105440822792E+01  0.7791068278332E+00  0.0000000000000E+00
-0.1131584241718E+01  0.8074079990507E+00  0.0000000000000E+00
-0.1157727660644E+01  0.8357091702683E+00  0.0000000000000E+00
-0.1183871079571E+01  0.8640103414859E+00  0.0000000000000E+00
-0.1210014498497E+01  0.8923115127035E+00  0.0000000000000E+00
-0.7013395436708E+00  0.3928851883992E+00  0.0000000000000E+00
-0.7262154211400E+00  0.4220388918148E+00  0.0000000000000E+00
-0.7510912986091E+00  0.4511925952303E+00  0.0000000000000E+00
-0.7759671760782E+00  0.4803462986459E+00  0.0000000000000E+00
-0.8008430535474E+00  0.5095000020614E+00  0.0000000000000E+00
-0.8257189310165E+00  0.5386537054770E+00  0.0000000000000E+00
-0.8505948084856E+00  0.5678074088926E+00  0.0000000000000E+00
-0.8754706859548E+00  0.5969611123081E+00  0.0000000000000E+00
-0.9003465634239E+00  0.6261148157237E+00  0.0000000000000E+00
-0.9252224408930E+00  0.6552685191392E+00  0.0000000000000E+00
-0.9500983183622E+00  0.6844222225548E+00  0.0000000000000E+00
-0.9749741958313E+00  0.7135759259704E+00  0.0000000000000E+00
-0.9998500733004E+00  0.7427296293859E+00  0.0000000000000E+00
-0.1024725950770E+01  0.7718833328015E+00  0.0000000000000E+00
-0.1049601828239E+01  0.8010370362170E+00  0.0000000000000E+00
-0.1074477705708E+01  0.8301907396326E+00  0.0000000000000E+00
-0.1099353583177E+01  0.8593444430482E+00  0.0000000000000E+00
-0.1124229460646E+01  0.8884981464637E+00  0.0000000000000E+00
-0.1149105338115E+01  0.9176518498793E+00  0.0000000000000E+00
-0.6631144762003E+00  0.4023799804788E+00  0.0000000000000E+00
-0.6867022089859E+00  0.4323453794399E+00  0.0000000000000E+00
-0.7102899417715E+00  0.4623107784010E+00  0.0000000000000E+00
-0.7338776745571E+00  0.4922761773621E+00  0.0000000000000E+00
-0.7574654073427E+00  0.5222415763231E+00  0.0000000000000E+00
-0.7810531401284E+00  0.5522069752842E+00  0.0000000000000E+00
-0.8046408729140E+00  0.5821723742453E+00  0.0000000000000E+00
-0.8282286056996E+00  0.6121377732064E+00  0.0000000000000E+00
-0.8518163384852E+00  0.6421031721674E+00  0.0000000000000E+00
-0.8754040712708E+00  0.6720685711285E+00  0.0000000000000E+00
-0.8989918040564E+00  0.7020339700896E+00  0.0000000000000E+00
-0.9225795368421E+00  0.7319993690506E+00  0.0000000000000E+00
-0.9461672696277E+00  0.7619647680117E+00  0.0000000000000E+00
-0.9697550024133E+00  0.7919301669728E+00  0.0000000000000E+00
-0.9933427351989E+00  0.8218955659339E+00  0.0000000000000E+00
-0.1016930467985E+01  0.8518609648949E+00  0.0000000000000E+00
-0.1040518200770E+01  0.8818263638560E+00  0.0000000000000E+00
-0.1064105933556E+01  0.9117917628171E+00  0.0000000000000E+00
-0.1087693666341E+01  0.9417571617782E+00  0.0000000000000E+00
-0.6247718534183E+00  0.4113904599736E+00  0.0000000000000E+00
-0.6470599869664E+00  0.4421478324469E+00  0.0000000000000E+00
-0.6693481205145E+00  0.4729052049202E+00  0.0000000000000E+00
-0.6916362540626E+00  0.5036625773935E+00  0.0000000000000E+00
-0.7139243876107E+00  0.5344199498667E+00  0.0000000000000E+00
-0.7362125211588E+00  0.5651773223400E+00  0.0000000000000E+00
-0.7585006547069E+00  0.5959346948133E+00  0.0000000000000E+00
-0.7807887882550E+00  0.6266920672866E+00  0.0000000000000E+00
-0.8030769218031E+00  0.6574494397599E+00  0.0000000000000E+00
-0.8253650553512E+00  0.6882068122331E+00  0.0000000000000E+00
-0.8476531888993E+00  0.7189641847064E+00  0.0000000000000E+00
-0.8699413224474E+00  0.7497215571797E+00  0.0000000000000E+00
-0.8922294559955E+00  0.7804789296530E+00  0.0000000000000E+00
-0.9145175895436E+00  0.8112363021263E+00  0.0000000000000E+00
-0.9368057230917E+00  0.8419936745995E+00  0.0000000000000E+00
-0.9590938566398E+00  0.8727510470728E+00  0.0000000000000E+00
-0.9813819901879E+00  0.9035084195461E+00  0.0000000000000E+00
-0.1003670123736E+01  0.9342657920194E+00  0.0000000000000E+00
-0.1025958257284E+01  0.9650231644927E+00  0.0000000000000E+00
-0.5863228019837E+00  0.4199269192811E+00  0.0000000000000E+00
-0.6073059538729E+00  0.4514720689964E+00  0.0000000000000E+00
-0.6282891057621E+00  0.4830172187117E+00  0.0000000000000E+00
-0.6492722576512E+00  0.5145623684270E+00  0.0000000000000E+00
-0.6702554095404E+00  0.5461075181424E+00  0.0000000000000E+00
-0.6912385614296E+00  0.5776526678577E+00  0.0000000000000E+00
-0.7122217133188E+00  0.6091978175730E+00  0.0000000000000E+00
-0.7332048652079E+00  0.6407429672884E+00  0.0000000000000E+00
-0.7541880170971E+00  0.6722881170037E+00  0.0000000000000E+00
-0.7751711689863E+00  0.7038332667190E+00  0.0000000000000E+00
-0.7961543208755E+00  0.7353784164343E+00  0.0000000000000E+00
-0.8171374727647E+00  0.7669235661497E+00  0.0000000000000E+00
-0.8381206246538E+00  0.7984687158650E+00  0.0000000000000E+00
-0.8591037765430E+00  0.8300138655803E+00  0.0000000000000E+00
-0.8800869284322E+00  0.8615590152956E+00  0.0000000000000E+00
-0.9010700803214E+00  0.8931041650110E+00  0.0000000000000E+00
-0.9220532322105E+00  0.9246493147263E+00  0.0000000000000E+00
-0.9430363840997E+00  0.9561944644416E+00  0.0000000000000E+00
-0.9640195359889E+00  0.9877396141569E+00  0.0000000000000E+00
-0.5477768854188E+00  0.4279968810199E+00  0.0000000000000E+00
-0.5674541536864E+00  0.4603381160929E+00  0.0000000000000E+00
-0.5871314219540E+00  0.4926793511658E+00  0.0000000000000E+00
-0.6068086902216E+00  0.5250205862388E+00  0.0000000000000E+00
-0.6264859584892E+00  0.5573618213118E+00  0.0000000000000E+00
-0.6461632267567E+00  0.5897030563848E+00  0.0000000000000E+00
-0.6658404950243E+00  0.6220442914577E+00  0.0000000000000E+00
-0.6855177632919E+00  0.6543855265307E+00  0.0000000000000E+00
-0.7051950315595E+00  0.6867267616037E+00  0.0000000000000E+00
-0.7248722998271E+00  0.7190679966767E+00  0.0000000000000E+00
-0.7445495680947E+00  0.7514092317496E+00  0.0000000000000E+00
-0.7642268363623E+00  0.7837504668226E+00  0.0000000000000E+00
-0.7839041046299E+00  0.8160917018956E+00  0.0000000000000E+00
-0.8035813728974E+00  0.8484329369686E+00  0.0000000000000E+00
-0.8232586411650E+00  0.8807741720415E+00  0.0000000000000E+00
-0.8429359094326E+00  0.9131154071145E+00  0.0000000000000E+00
-0.8626131777002E+00  0.9454566421875E+00  0.0000000000000E+00
-0.8822904459678E+00  0.9777978772605E+00  0.0000000000000E+00
-0.9019677142354E+00  0.1010139112333E+01  0.0000000000000E+00
-0.5091428679054E+00  0.4356052711820E+00  0.0000000000000E+00
-0.5275166038674E+00  0.4687606222180E+00  0.0000000000000E+00
-0.5458903398295E+00  0.5019159732541E+00  0.0000000000000E+00
-0.5642640757915E+00  0.5350713242901E+00  0.0000000000000E+00
-0.5826378117536E+00  0.5682266753261E+00  0.0000000000000E+00
-0.6010115477157E+00  0.6013820263622E+00  0.0000000000000E+00
-0.6193852836777E+00  0.6345373773982E+00  0.0000000000000E+00
-0.6377590196398E+00  0.6676927284343E+00  0.0000000000000E+00
-0.6561327556018E+00  0.7008480794703E+00  0.0000000000000E+00
-0.6745064915639E+00  0.7340034305064E+00  0.0000000000000E+00
-0.6928802275259E+00  0.7671587815424E+00  0.0000000000000E+00
-0.7112539634880E+00  0.8003141325785E+00  0.0000000000000E+00
-0.7296276994500E+00  0.8334694836145E+00  0.0000000000000E+00
-0.7480014354121E+00  0.8666248346506E+00  0.0000000000000E+00
-0.7663751713741E+00  0.8997801856866E+00  0.0000000000000E+00
-0.7847489073362E+00  0.9329355367227E+00  0.0000000000000E+00
-0.8031226432983E+00  0.9660908877587E+00  0.0000000000000E+00
-0.8214963792603E+00  0.9992462387948E+00  0.0000000000000E+00
-0.8398701152224E+00  0.1032401589831E+01  0.0000000000000E+00
-0.4704201189630E+00  0.4427312295667E+00  0.0000000000000E+00
-0.4874864927934E+00  0.4767023850508E+00  0.0000000000000E+00
-0.5045528666239E+00  0.5106735405349E+00  0.0000000000000E+00
-0.5216192404544E+00  0.5446446960190E+00  0.0000000000000E+00
-0.5386856142848E+00  0.5786158515031E+00  0.0000000000000E+00
-0.5557519881153E+00  0.6125870069873E+00  0.0000000000000E+00
-0.5728183619458E+00  0.6465581624714E+00  0.0000000000000E+00
-0.5898847357762E+00  0.6805293179555E+00  0.0000000000000E+00
-0.6069511096067E+00  0.7145004734396E+00  0.0000000000000E+00
-0.6240174834372E+00  0.7484716289237E+00  0.0000000000000E+00
-0.6410838572677E+00  0.7824427844079E+00  0.0000000000000E+00
-0.6581502310981E+00  0.8164139398920E+00  0.0000000000000E+00
-0.6752166049286E+00  0.8503850953761E+00  0.0000000000000E+00
-0.6922829787591E+00  0.8843562508602E+00  0.0000000000000E+00
-0.7093493525895E+00  0.9183274063443E+00  0.0000000000000E+00
-0.7264157264200E+00  0.9522985618284E+00  0.0000000000000E+00
-0.7434821002505E+00  0.9862697173126E+00  0.0000000000000E+00
-0.7605484740810E+00  0.1020240872797E+01  0.0000000000000E+00
-0.7776148479114E+00  0.1054212028281E+01  0.0000000000000E+00
-0.4316001604194E+00  0.4493289287895E+00  0.0000000000000E+00
-0.4473410322604E+00  0.4840760209663E+00  0.0000000000000E+00
-0.4630819041013E+00  0.5188231131430E+00  0.0000000000000E+00
-0.4788227759422E+00  0.5535702053198E+00  0.0000000000000E+00
-0.4945636477831E+00  0.5883172974965E+00  0.0000000000000E+00
-0.5103045196240E+00  0.6230643896733E+00  0.0000000000000E+00
-0.5260453914650E+00  0.6578114818500E+00  0.0000000000000E+00
-0.5417862633059E+00  0.6925585740268E+00  0.0000000000000E+00
-0.5575271351468E+00  0.7273056662035E+00  0.0000000000000E+00
-0.5732680069877E+00  0.7620527583802E+00  0.0000000000000E+00
-0.5890088788287E+00  0.7967998505570E+00  0.0000000000000E+00
-0.6047497506696E+00  0.8315469427337E+00  0.0000000000000E+00
-0.6204906225105E+00  0.8662940349105E+00  0.0000000000000E+00
-0.6362314943514E+00  0.9010411270872E+00  0.0000000000000E+00
-0.6519723661924E+00  0.9357882192640E+00  0.0000000000000E+00
-0.6677132380333E+00  0.9705353114407E+00  0.0000000000000E+00
-0.6834541098742E+00  0.1005282403617E+01  0.0000000000000E+00
-0.6991949817151E+00  0.1040029495794E+01  0.0000000000000E+00
-0.7149358535560E+00  0.1074776587971E+01  0.0000000000000E+00
-0.3926829942859E+00  0.4553717726819E+00  0.0000000000000E+00
-0.4070743133994E+00  0.4908323142830E+00  0.0000000000000E+00
-0.4214656325129E+00  0.5262928558841E+00  0.0000000000000E+00
-0.4358569516264E+00  0.5617533974853E+00  0.0000000000000E+00
-0.4502482707400E+00  0.5972139390864E+00  0.0000000000000E+00
-0.4646395898535E+00  0.6326744806875E+00  0.0000000000000E+00
-0.4790309089670E+00  0.6681350222886E+00  0.0000000000000E+00
-0.4934222280806E+00  0.7035955638897E+00  0.0000000000000E+00
-0.5078135471941E+00  0.7390561054908E+00  0.0000000000000E+00
-0.5222048663076E+00  0.7745166470919E+00  0.0000000000000E+00
-0.5365961854212E+00  0.8099771886930E+00  0.0000000000000E+00
-0.5509875045347E+00  0.8454377302941E+00  0.0000000000000E+00
-0.5653788236482E+00  0.8808982718952E+00  0.0000000000000E+00
-0.5797701427618E+00  0.9163588134963E+00  0.0000000000000E+00
-0.5941614618753E+00  0.9518193550975E+00  0.0000000000000E+00
-0.6085527809888E+00  0.9872798966986E+00  0.0000000000000E+00
-0.6229441001024E+00  0.1022740438300E+01  0.0000000000000E+00
-0.6373354192159E+00  0.1058200979901E+01  0.0000000000000E+00
-0.6517267383294E+00  0.1093661521502E+01  0.0000000000000E+00
-0.3536746458292E+00  0.4608476922473E+00  0.0000000000000E+00
-0.3666922613378E+00  0.4969508181436E+00  0.0000000000000E+00
-0.3797098768463E+00  0.5330539440399E+00  0.0000000000000E+00
-0.3927274923549E+00  0.5691570699361E+00  0.0000000000000E+00
-0.4057451078635E+00  0.6052601958324E+00  0.0000000000000E+00
-0.4187627233720E+00  0.6413633217287E+00  0.0000000000000E+00
-0.4317803388806E+00  0.6774664476250E+00  0.0000000000000E+00
-0.4447979543892E+00  0.7135695735212E+00  0.0000000000000E+00
-0.4578155698977E+00  0.7496726994175E+00  0.0000000000000E+00
-0.4708331854063E+00  0.7857758253138E+00  0.0000000000000E+00
-0.4838508009149E+00  0.8218789512100E+00  0.0000000000000E+00
-0.4968684164235E+00  0.8579820771063E+00  0.0000000000000E+00
-0.5098860319320E+00  0.8940852030026E+00  0.0000000000000E+00
-0.5229036474406E+00  0.9301883288989E+00  0.0000000000000E+00
-0.5359212629492E+00  0.9662914547951E+00  0.0000000000000E+00
-0.5489388784577E+00  0.1002394580691E+01  0.0000000000000E+00
-0.5619564939663E+00  0.1038497706588E+01  0.0000000000000E+00
-0.5749741094749E+00  0.1074600832484E+01  0.0000000000000E+00
-0.5879917249834E+00  0.1110703958380E+01  0.0000000000000E+00
-0.3145837448712E+00  0.4657520002446E+00  0.0000000000000E+00
-0.3262058732712E+00  0.5024255397187E+00  0.0000000000000E+00
-0.3378280016712E+00  0.5390990791928E+00  0.0000000000000E+00
-0.3494501300712E+00  0.5757726186668E+00  0.0000000000000E+00
-0.3610722584712E+00  0.6124461581409E+00  0.0000000000000E+00
-0.3726943868712E+00  0.6491196976150E+00  0.0000000000000E+00
-0.3843165152712E+00  0.6857932370891E+00  0.0000000000000E+00
-0.3959386436712E+00  0.7224667765632E+00  0.0000000000000E+00
-0.4075607720712E+00  0.7591403160373E+00  0.0000000000000E+00
-0.4191829004712E+00  0.7958138555114E+00  0.0000000000000E+00
-0.4308050288712E+00  0.8324873949855E+00  0.0000000000000E+00
-0.4424271572712E+00  0.8691609344596E+00  0.0000000000000E+00
-0.4540492856712E+00  0.9058344739336E+00  0.0000000000000E+00
-0.4656714140712E+00  0.9425080134077E+00  0.0000000000000E+00
-0.4772935424712E+00  0.9791815528818E+00  0.0000000000000E+00
-0.4889156708713E+00  0.1015855092356E+01  0.0000000000000E+00
-0.5005377992713E+00  0.1052528631830E+01  0.0000000000000E+00
-0.5121599276713E+00  0.1089202171304E+01  0.0000000000000E+00
-0.5237820560713E+00  0.1125875710778E+01  0.0000000000000E+00
-0.2754196909618E+00  0.4700832706777E+00  0.0000000000000E+00
-0.2856275626982E+00  0.5072566872297E+00  0.0000000000000E+00
-0.2958354344346E+00  0.5444301037817E+00  0.0000000000000E+00
-0.3060433061710E+00  0.5816035203337E+00  0.0000000000000E+00
-0.3162511779074E+00  0.6187769368857E+00  0.0000000000000E+00
-0.3264590496438E+00  0.6559503534378E+00  0.0000000000000E+00
-0.3366669213802E+00  0.6931237699898E+00  0.0000000000000E+00
-0.3468747931166E+00  0.7302971865418E+00  0.0000000000000E+00
-0.3570826648530E+00  0.7674706030938E+00  0.0000000000000E+00
-0.3672905365894E+00  0.8046440196458E+00  0.0000000000000E+00
-0.3774984083258E+00  0.8418174361978E+00  0.0000000000000E+00
-0.3877062800623E+00  0.8789908527498E+00  0.0000000000000E+00
-0.3979141517987E+00  0.9161642693018E+00  0.0000000000000E+00
-0.4081220235351E+00  0.9533376858538E+00  0.0000000000000E+00
-0.4183298952715E+00  0.9905111024059E+00  0.0000000000000E+00
-0.4285377670079E+00  0.1027684518958E+01  0.0000000000000E+00
-0.4387456387443E+00  0.1064857935510E+01  0.0000000000000E+00
-0.4489535104807E+00  0.1102031352062E+01  0.0000000000000E+00
-0.4591613822171E+00  0.1139204768614E+01  0.0000000000000E+00
-0.2361919209299E+00  0.4738412269098E+00  0.0000000000000E+00
-0.2449696928514E+00  0.5114464367078E+00  0.0000000000000E+00
-0.2537474647729E+00  0.5490516465058E+00  0.0000000000000E+00
-0.2625252366944E+00  0.5866568563038E+00  0.0000000000000E+00
-0.2713030086160E+00  0.6242620661018E+00  0.0000000000000E+00
-0.2800807805375E+00  0.6618672758998E+00  0.0000000000000E+00
-0.2888585524590E+00  0.6994724856977E+00  0.0000000000000E+00
-0.2976363243805E+00  0.7370776954957E+00  0.0000000000000E+00
-0.3064140963021E+00  0.7746829052937E+00  0.0000000000000E+00
-0.3151918682236E+00  0.8122881150917E+00  0.0000000000000E+00
-0.3239696401451E+00  0.8498933248897E+00  0.0000000000000E+00
-0.3327474120667E+00  0.8874985346877E+00  0.0000000000000E+00
-0.3415251839882E+00  0.9251037444857E+00  0.0000000000000E+00
-0.3503029559097E+00  0.9627089542837E+00  0.0000000000000E+00
-0.3590807278312E+00  0.1000314164082E+01  0.0000000000000E+00
-0.3678584997528E+00  0.1037919373880E+01  0.0000000000000E+00
-0.3766362716743E+00  0.1075524583678E+01  0.0000000000000E+00
-0.3854140435958E+00  0.1113129793476E+01  0.0000000000000E+00
-0.3941918155173E+00  0.1150735003274E+01  0.0000000000000E+00
-0.1969098270509E+00  0.4770256980868E+00  0.0000000000000E+00
-0.2042444088384E+00  0.5149968355198E+00  0.0000000000000E+00
-0.2115789906258E+00  0.5529679729529E+00  0.0000000000000E+00
-0.2189135724133E+00  0.5909391103860E+00  0.0000000000000E+00
-0.2262481542008E+00  0.6289102478191E+00  0.0000000000000E+00
-0.2335827359883E+00  0.6668813852521E+00  0.0000000000000E+00
-0.2409173177758E+00  0.7048525226852E+00  0.0000000000000E+00
-0.2482518995633E+00  0.7428236601183E+00  0.0000000000000E+00
-0.2555864813508E+00  0.7807947975513E+00  0.0000000000000E+00
-0.2629210631383E+00  0.8187659349844E+00  0.0000000000000E+00
-0.2702556449257E+00  0.8567370724175E+00  0.0000000000000E+00
-0.2775902267132E+00  0.8947082098506E+00  0.0000000000000E+00
-0.2849248085007E+00  0.9326793472836E+00  0.0000000000000E+00
-0.2922593902882E+00  0.9706504847167E+00  0.0000000000000E+00
-0.2995939720757E+00  0.1008621622150E+01  0.0000000000000E+00
-0.3069285538632E+00  0.1046592759583E+01  0.0000000000000E+00
-0.3142631356507E+00  0.1084563897016E+01  0.0000000000000E+00
-0.3215977174382E+00  0.1122535034449E+01  0.0000000000000E+00
-0.3289322992256E+00  0.1160506171882E+01  0.0000000000000E+00
-0.1575825437874E+00  0.4796361627817E+00  0.0000000000000E+00
-0.1634632579838E+00  0.5179088773513E+00  0.0000000000000E+00
-0.1693439721801E+00  0.5561815919210E+00  0.0000000000000E+00
-0.1752246863765E+00  0.5944543064906E+00  0.0000000000000E+00
-0.1811054005728E+00  0.6327270210602E+00  0.0000000000000E+00
-0.1869861147692E+00  0.6709997356298E+00  0.0000000000000E+00
-0.1928668289655E+00  0.7092724501995E+00  0.0000000000000E+00
-0.1987475431619E+00  0.7475451647691E+00  0.0000000000000E+00
-0.2046282573582E+00  0.7858178793387E+00  0.0000000000000E+00
-0.2105089715546E+00  0.8240905939083E+00  0.0000000000000E+00
-0.2163896857509E+00  0.8623633084779E+00  0.0000000000000E+00
-0.2222703999473E+00  0.9006360230476E+00  0.0000000000000E+00
-0.2281511141436E+00  0.9389087376172E+00  0.0000000000000E+00
-0.2340318283400E+00  0.9771814521868E+00  0.0000000000000E+00
-0.2399125425363E+00  0.1015454166756E+01  0.0000000000000E+00
-0.2457932567327E+00  0.1053726881326E+01  0.0000000000000E+00
-0.2516739709290E+00  0.1091999595896E+01  0.0000000000000E+00
-0.2575546851254E+00  0.1130272310465E+01  0.0000000000000E+00
-0.2634353993217E+00  0.1168545025035E+01  0.0000000000000E+00
-0.1182190059601E+00  0.4816714823591E+00  0.0000000000000E+00
-0.1226373068009E+00  0.5201819624472E+00  0.0000000000000E+00
-0.1270556076417E+00  0.5586924425354E+00  0.0000000000000E+00
-0.1314739084825E+00  0.5972029226235E+00  0.0000000000000E+00
-0.1358922093234E+00  0.6357134027116E+00  0.0000000000000E+00
-0.1403105101642E+00  0.6742238827997E+00  0.0000000000000E+00
-0.1447288110050E+00  0.7127343628879E+00  0.0000000000000E+00
-0.1491471118458E+00  0.7512448429760E+00  0.0000000000000E+00
-0.1535654126866E+00  0.7897553230641E+00  0.0000000000000E+00
-0.1579837135274E+00  0.8282658031523E+00  0.0000000000000E+00
-0.1624020143682E+00  0.8667762832404E+00  0.0000000000000E+00
-0.1668203152090E+00  0.9052867633285E+00  0.0000000000000E+00
-0.1712386160498E+00  0.9437972434166E+00  0.0000000000000E+00
-0.1756569168906E+00  0.9823077235048E+00  0.0000000000000E+00
-0.1800752177314E+00  0.1020818203593E+01  0.0000000000000E+00
-0.1844935185722E+00  0.1059328683681E+01  0.0000000000000E+00
-0.1889118194131E+00  0.1097839163769E+01  0.0000000000000E+00
-0.1933301202539E+00  0.1136349643857E+01  0.0000000000000E+00
-0.1977484210947E+00  0.1174860123945E+01  0.0000000000000E+00
-0.7882810581620E-01  0.4831297079839E+00  0.0000000000000E+00
-0.8177747086543E-01  0.5218135049328E+00  0.0000000000000E+00
-0.8472683591466E-01  0.5604973018818E+00  0.0000000000000E+00
-0.8767620096390E-01  0.5991810988308E+00  0.0000000000000E+00
-0.9062556601313E-01  0.6378648957797E+00  0.0000000000000E+00
-0.9357493106237E-01  0.6765486927287E+00  0.0000000000000E+00
-0.9652429611160E-01  0.7152324896776E+00  0.0000000000000E+00
-0.9947366116083E-01  0.7539162866266E+00  0.0000000000000E+00
-0.1024230262101E+00  0.7926000835756E+00  0.0000000000000E+00
-0.1053723912593E+00  0.8312838805245E+00  0.0000000000000E+00
-0.1083217563085E+00  0.8699676774735E+00  0.0000000000000E+00
-0.1112711213578E+00  0.9086514744224E+00  0.0000000000000E+00
-0.1142204864070E+00  0.9473352713714E+00  0.0000000000000E+00
-0.1171698514562E+00  0.9860190683204E+00  0.0000000000000E+00
-0.1201192165055E+00  0.1024702865269E+01  0.0000000000000E+00
-0.1230685815547E+00  0.1063386662218E+01  0.0000000000000E+00
-0.1260179466039E+00  0.1102070459167E+01  0.0000000000000E+00
-0.1289673116532E+00  0.1140754256116E+01  0.0000000000000E+00
-0.1319166767024E+00  0.1179438053065E+01  0.0000000000000E+00
-0.3941874312013E-01  0.4840078928243E+00  0.0000000000000E+00
-0.4089463112221E-01  0.5227985519517E+00  0.0000000000000E+00
-0.4237051912429E-01  0.5615892110790E+00  0.0000000000000E+00
-0.4384640712637E-01  0.6003798702064E+00  0.0000000000000E+00
-0.4532229512845E-01  0.6391705293337E+00  0.0000000000000E+00
-0.4679818313053E-01  0.6779611884610E+00  0.0000000000000E+00
-0.4827407113261E-01  0.7167518475884E+00  0.0000000000000E+00
-0.4974995913469E-01  0.7555425067157E+00  0.0000000000000E+00
-0.5122584713677E-01  0.7943331658430E+00  0.0000000000000E+00
-0.5270173513885E-01  0.8331238249704E+00  0.0000000000000E+00
-0.5417762314093E-01  0.8719144840977E+00  0.0000000000000E+00
-0.5565351114301E-01  0.9107051432250E+00  0.0000000000000E+00
-0.5712939914509E-01  0.9494958023524E+00  0.0000000000000E+00
-0.5860528714717E-01  0.9882864614797E+00  0.0000000000000E+00
-0.6008117514925E-01  0.1027077120607E+01  0.0000000000000E+00
-0.6155706315133E-01  0.1065867779734E+01  0.0000000000000E+00
-0.6303295115341E-01  0.1104658438862E+01  0.0000000000000E+00
-0.6450883915549E-01  0.1143449097989E+01  0.0000000000000E+00
-0.6598472715757E-01  0.1182239757116E+01  0.0000000000000E+00
 0.2029389626142E-10  0.4843018200064E+00  0.0000000000000E+00
 0.4058818043640E-10  0.5231292357807E+00  0.0000000000000E+00
 0.6088245073360E-10  0.5619566515550E+00  0.0000000000000E+00
 0.8117677654195E-10  0.6007840673293E+00  0.0000000000000E+00
 0.1014709774502E-09  0.6396114831037E+00  0.0000000000000E+00
 0.1217652893808E-09  0.6784388988780E+00  0.0000000000000E+00
 0.1420595458002E-09  0.7172663146523E+00  0.0000000000000E+00
 0.1623538299752E-09  0.7560937304266E+00  0.0000000000000E+00
 0.1826479198611E-09  0.7949211462009E+00  0.0000000000000E+00
 0.2029422873028E-09  0.8337485619753E+00  0.0000000000000E+00
 0.2232365992334E-09  0.8725759777496E+00  0.0000000000000E+00
 0.2435308556528E-09  0.9114033935239E+00  0.0000000000000E+00
 0.2638250010499E-09  0.9502308092982E+00  0.0000000000000E+00
 0.2841192574693E-09  0.9890582250725E+00  0.0000000000000E+00
 0.3044134583776E-09  0.1027885640847E+01  0.0000000000000E+00
 0.3247076037747E-09  0.1066713056621E+01  0.0000000000000E+00
 0.3450020822387E-09  0.1105540472396E+01  0.0000000000000E+00
 0.3652963386581E-09  0.1144367888170E+01  0.0000000000000E+00
 0.3855903730329E-09  0.1183195303944E+01  0.0000000000000E+00
 0.3941874316069E-01  0.4840078928230E+00  0.0000000000000E+00
 0.4089463120334E-01  0.5227985519491E+00  0.0000000000000E+00
 0.4237051924599E-01  0.5615892110751E+00  0.0000000000000E+00
 0.4384640728863E-01  0.6003798702011E+00  0.0000000000000E+00
 0.4532229533128E-01  0.6391705293271E+00  0.0000000000000E+00
 0.4679818337393E-01  0.6779611884531E+00  0.0000000000000E+00
 0.4827407141658E-01  0.7167518475791E+00  0.0000000000000E+00
 0.4974995945922E-01  0.7555425067052E+00  0.0000000000000E+00
 0.5122584750187E-01  0.7943331658312E+00  0.0000000000000E+00
 0.5270173554452E-01  0.8331238249572E+00  0.0000000000000E+00
 0.5417762358717E-01  0.8719144840832E+00  0.0000000000000E+00
 0.5565351162981E-01  0.9107051432092E+00  0.0000000000000E+00
 0.5712939967246E-01  0.9494958023353E+00  0.0000000000000E+00
 0.5860528771511E-01  0.9882864614613E+00  0.0000000000000E+00
 0.6008117575775E-01  0.1027077120587E+01  0.0000000000000E+00
 0.6155706380040E-01  0.1065867779713E+01  0.0000000000000E+00
 0.6303295184305E-01  0.1104658438839E+01  0.0000000000000E+00
 0.6450883988570E-01  0.1143449097965E+01  0.0000000000000E+00
 0.6598472792834E-01  0.1182239757091E+01  0.0000000000000E+00
 0.7882810585671E-01  0.4831297079813E+00  0.0000000000000E+00
 0.8177747094646E-01  0.5218135049277E+00  0.0000000000000E+00
 0.8472683603621E-01  0.5604973018741E+00  0.0000000000000E+00
 0.8767620112596E-01  0.5991810988204E+00  0.0000000000000E+00
 0.9062556621572E-01  0.6378648957668E+00  0.0000000000000E+00
 0.9357493130547E-01  0.6765486927132E+00  0.0000000000000E+00
 0.9652429639522E-01  0.7152324896596E+00  0.0000000000000E+00
 0.9947366148497E-01  0.7539162866059E+00  0.0000000000000E+00
 0.1024230265747E+00  0.7926000835523E+00  0.0000000000000E+00
 0.1053723916645E+00  0.8312838804987E+00  0.0000000000000E+00
 0.1083217567542E+00  0.8699676774451E+00  0.0000000000000E+00
 0.1112711218440E+00  0.9086514743914E+00  0.0000000000000E+00
 0.1142204869337E+00  0.9473352713378E+00  0.0000000000000E+00
 0.1171698520235E+00  0.9860190682842E+00  0.0000000000000E+00
 0.1201192171132E+00  0.1024702865231E+01  0.0000000000000E+00
 0.1230685822030E+00  0.1063386662177E+01  0.0000000000000E+00
 0.1260179472927E+00  0.1102070459123E+01  0.0000000000000E+00
 0.1289673123825E+00  0.1140754256070E+01  0.0000000000000E+00
 0.1319166774722E+00  0.1179438053016E+01  0.0000000000000E+00
 0.1182190060006E+00  0.4816714823553E+00  0.0000000000000E+00
 0.1226373068818E+00  0.5201819624396E+00  0.0000000000000E+00
 0.1270556077630E+00  0.5586924425239E+00  0.0000000000000E+00
 0.1314739086443E+00  0.5972029226082E+00  0.0000000000000E+00
 0.1358922095255E+00  0.6357134026926E+00  0.0000000000000E+00
 0.1403105104068E+00  0.6742238827769E+00  0.0000000000000E+00
 0.1447288112880E+00  0.7127343628612E+00  0.0000000000000E+00
 0.1491471121693E+00  0.7512448429455E+00  0.0000000000000E+00
 0.1535654130505E+00  0.7897553230298E+00  0.0000000000000E+00
 0.1579837139318E+00  0.8282658031141E+00  0.0000000000000E+00
 0.1624020148130E+00  0.8667762831985E+00  0.0000000000000E+00
 0.1668203156943E+00  0.9052867632828E+00  0.0000000000000E+00
 0.1712386165755E+00  0.9437972433671E+00  0.0000000000000E+00
 0.1756569174567E+00  0.9823077234514E+00  0.0000000000000E+00
 0.1800752183380E+00  0.1020818203536E+01  0.0000000000000E+00
 0.1844935192192E+00  0.1059328683620E+01  0.0000000000000E+00
 0.1889118201005E+00  0.1097839163704E+01  0.0000000000000E+00
 0.1933301209817E+00  0.1136349643789E+01  0.0000000000000E+00
 0.1977484218630E+00  0.1174860123873E+01  0.0000000000000E+00
 0.1575825438277E+00  0.4796361627767E+00  0.0000000000000E+00
 0.1634632580644E+00  0.5179088773413E+00  0.0000000000000E+00
 0.1693439723011E+00  0.5561815919059E+00  0.0000000000000E+00
 0.1752246865377E+00  0.5944543064706E+00  0.0000000000000E+00
 0.1811054007744E+00  0.6327270210352E+00  0.0000000000000E+00
 0.1869861150110E+00  0.6709997355998E+00  0.0000000000000E+00
 0.1928668292477E+00  0.7092724501644E+00  0.0000000000000E+00
 0.1987475434844E+00  0.7475451647290E+00  0.0000000000000E+00
 0.2046282577210E+00  0.7858178792936E+00  0.0000000000000E+00
 0.2105089719577E+00  0.8240905938582E+00  0.0000000000000E+00
 0.2163896861943E+00  0.8623633084229E+00  0.0000000000000E+00
 0.2222704004310E+00  0.9006360229875E+00  0.0000000000000E+00
 0.2281511146677E+00  0.9389087375521E+00  0.0000000000000E+00
 0.2340318289043E+00  0.9771814521167E+00  0.0000000000000E+00
 0.2399125431410E+00  0.1015454166681E+01  0.0000000000000E+00
 0.2457932573776E+00  0.1053726881246E+01  0.0000000000000E+00
 0.2516739716143E+00  0.1091999595811E+01  0.0000000000000E+00
 0.2575546858510E+00  0.1130272310375E+01  0.0000000000000E+00
 0.2634354000876E+00  0.1168545024940E+01  0.0000000000000E+00
 0.1969098270910E+00  0.4770256980806E+00  0.0000000000000E+00
 0.2042444089187E+00  0.5149968355075E+00  0.0000000000000E+00
 0.2115789907463E+00  0.5529679729344E+00  0.0000000000000E+00
 0.2189135725740E+00  0.5909391103613E+00  0.0000000000000E+00
 0.2262481544016E+00  0.6289102477881E+00  0.0000000000000E+00
 0.2335827362293E+00  0.6668813852150E+00  0.0000000000000E+00
 0.2409173180569E+00  0.7048525226419E+00  0.0000000000000E+00
 0.2482518998846E+00  0.7428236600688E+00  0.0000000000000E+00
 0.2555864817122E+00  0.7807947974957E+00  0.0000000000000E+00
 0.2629210635399E+00  0.8187659349226E+00  0.0000000000000E+00
 0.2702556453675E+00  0.8567370723495E+00  0.0000000000000E+00
 0.2775902271952E+00  0.8947082097764E+00  0.0000000000000E+00
 0.2849248090228E+00  0.9326793472033E+00  0.0000000000000E+00
 0.2922593908505E+00  0.9706504846302E+00  0.0000000000000E+00
 0.2995939726781E+00  0.1008621622057E+01  0.0000000000000E+00
 0.3069285545058E+00  0.1046592759484E+01  0.0000000000000E+00
 0.3142631363334E+00  0.1084563896911E+01  0.0000000000000E+00
 0.3215977181611E+00  0.1122535034338E+01  0.0000000000000E+00
 0.3289322999887E+00  0.1160506171765E+01  0.0000000000000E+00
 0.2361919209698E+00  0.4738412269025E+00  0.0000000000000E+00
 0.2449696929314E+00  0.5114464366931E+00  0.0000000000000E+00
 0.2537474648929E+00  0.5490516464838E+00  0.0000000000000E+00
 0.2625252368544E+00  0.5866568562744E+00  0.0000000000000E+00
 0.2713030088159E+00  0.6242620660651E+00  0.0000000000000E+00
 0.2800807807774E+00  0.6618672758557E+00  0.0000000000000E+00
 0.2888585527389E+00  0.6994724856464E+00  0.0000000000000E+00
 0.2976363247005E+00  0.7370776954370E+00  0.0000000000000E+00
 0.3064140966620E+00  0.7746829052277E+00  0.0000000000000E+00
 0.3151918686235E+00  0.8122881150183E+00  0.0000000000000E+00
 0.3239696405850E+00  0.8498933248090E+00  0.0000000000000E+00
 0.3327474125465E+00  0.8874985345996E+00  0.0000000000000E+00
 0.3415251845080E+00  0.9251037443903E+00  0.0000000000000E+00
 0.3503029564696E+00  0.9627089541809E+00  0.0000000000000E+00
 0.3590807284311E+00  0.1000314163972E+01  0.0000000000000E+00
 0.3678585003926E+00  0.1037919373762E+01  0.0000000000000E+00
 0.3766362723541E+00  0.1075524583553E+01  0.0000000000000E+00
 0.3854140443156E+00  0.1113129793344E+01  0.0000000000000E+00
 0.3941918162772E+00  0.1150735003134E+01  0.0000000000000E+00
 0.2754196910016E+00  0.4700832706692E+00  0.0000000000000E+00
 0.2856275627779E+00  0.5072566872127E+00  0.0000000000000E+00
 0.2958354345541E+00  0.5444301037562E+00  0.0000000000000E+00
 0.3060433063303E+00  0.5816035202998E+00  0.0000000000000E+00
 0.3162511781066E+00  0.6187769368433E+00  0.0000000000000E+00
 0.3264590498828E+00  0.6559503533868E+00  0.0000000000000E+00
 0.3366669216591E+00  0.6931237699303E+00  0.0000000000000E+00
 0.3468747934353E+00  0.7302971864738E+00  0.0000000000000E+00
 0.3570826652115E+00  0.7674706030173E+00  0.0000000000000E+00
 0.3672905369878E+00  0.8046440195609E+00  0.0000000000000E+00
 0.3774984087640E+00  0.8418174361044E+00  0.0000000000000E+00
 0.3877062805402E+00  0.8789908526479E+00  0.0000000000000E+00
 0.3979141523165E+00  0.9161642691914E+00  0.0000000000000E+00
 0.4081220240927E+00  0.9533376857349E+00  0.0000000000000E+00
 0.4183298958690E+00  0.9905111022785E+00  0.0000000000000E+00
 0.4285377676452E+00  0.1027684518822E+01  0.0000000000000E+00
 0.4387456394214E+00  0.1064857935365E+01  0.0000000000000E+00
 0.4489535111977E+00  0.1102031351909E+01  0.0000000000000E+00
 0.4591613829739E+00  0.1139204768453E+01  0.0000000000000E+00
 0.3145837449108E+00  0.4657520002350E+00  0.0000000000000E+00
 0.3262058733503E+00  0.5024255396995E+00  0.0000000000000E+00
 0.3378280017898E+00  0.5390990791639E+00  0.0000000000000E+00
 0.3494501302294E+00  0.5757726186284E+00  0.0000000000000E+00
 0.3610722586689E+00  0.6124461580929E+00  0.0000000000000E+00
 0.3726943871084E+00  0.6491196975574E+00  0.0000000000000E+00
 0.3843165155480E+00  0.6857932370219E+00  0.0000000000000E+00
 0.3959386439875E+00  0.7224667764863E+00  0.0000000000000E+00
 0.4075607724270E+00  0.7591403159508E+00  0.0000000000000E+00
 0.4191829008666E+00  0.7958138554153E+00  0.0000000000000E+00
 0.4308050293061E+00  0.8324873948798E+00  0.0000000000000E+00
 0.4424271577456E+00  0.8691609343443E+00  0.0000000000000E+00
 0.4540492861852E+00  0.9058344738087E+00  0.0000000000000E+00
 0.4656714146247E+00  0.9425080132732E+00  0.0000000000000E+00
 0.4772935430642E+00  0.9791815527377E+00  0.0000000000000E+00
 0.4889156715038E+00  0.1015855092202E+01  0.0000000000000E+00
 0.5005377999433E+00  0.1052528631667E+01  0.0000000000000E+00
 0.5121599283828E+00  0.1089202171131E+01  0.0000000000000E+00
 0.5237820568224E+00  0.1125875710596E+01  0.0000000000000E+00
 0.3536746458685E+00  0.4608476922366E+00  0.0000000000000E+00
 0.3666922614163E+00  0.4969508181222E+00  0.0000000000000E+00
 0.3797098769641E+00  0.5330539440077E+00  0.0000000000000E+00
 0.3927274925120E+00  0.5691570698933E+00  0.0000000000000E+00
 0.4057451080598E+00  0.6052601957789E+00  0.0000000000000E+00
 0.4187627236076E+00  0.6413633216644E+00  0.0000000000000E+00
 0.4317803391555E+00  0.6774664475500E+00  0.0000000000000E+00
 0.4447979547033E+00  0.7135695734356E+00  0.0000000000000E+00
 0.4578155702512E+00  0.7496726993211E+00  0.0000000000000E+00
 0.4708331857990E+00  0.7857758252067E+00  0.0000000000000E+00
 0.4838508013468E+00  0.8218789510922E+00  0.0000000000000E+00
 0.4968684168947E+00  0.8579820769778E+00  0.0000000000000E+00
 0.5098860324425E+00  0.8940852028634E+00  0.0000000000000E+00
 0.5229036479903E+00  0.9301883287489E+00  0.0000000000000E+00
 0.5359212635382E+00  0.9662914546345E+00  0.0000000000000E+00
 0.5489388790860E+00  0.1002394580520E+01  0.0000000000000E+00
 0.5619564946338E+00  0.1038497706406E+01  0.0000000000000E+00
 0.5749741101817E+00  0.1074600832291E+01  0.0000000000000E+00
 0.5879917257295E+00  0.1110703958177E+01  0.0000000000000E+00
 0.3926829943248E+00  0.4553717726702E+00  0.0000000000000E+00
 0.4070743134774E+00  0.4908323142595E+00  0.0000000000000E+00
 0.4214656326299E+00  0.5262928558488E+00  0.0000000000000E+00
 0.4358569517824E+00  0.5617533974382E+00  0.0000000000000E+00
 0.4502482709349E+00  0.5972139390275E+00  0.0000000000000E+00
 0.4646395900874E+00  0.6326744806169E+00  0.0000000000000E+00
 0.4790309092400E+00  0.6681350222062E+00  0.0000000000000E+00
 0.4934222283925E+00  0.7035955637956E+00  0.0000000000000E+00
 0.5078135475450E+00  0.7390561053849E+00  0.0000000000000E+00
 0.5222048666975E+00  0.7745166469743E+00  0.0000000000000E+00
 0.5365961858501E+00  0.8099771885636E+00  0.0000000000000E+00
 0.5509875050026E+00  0.8454377301529E+00  0.0000000000000E+00
 0.5653788241551E+00  0.8808982717423E+00  0.0000000000000E+00
 0.5797701433076E+00  0.9163588133316E+00  0.0000000000000E+00
 0.5941614624601E+00  0.9518193549210E+00  0.0000000000000E+00
 0.6085527816127E+00  0.9872798965103E+00  0.0000000000000E+00
 0.6229441007652E+00  0.1022740438100E+01  0.0000000000000E+00
 0.6373354199177E+00  0.1058200979689E+01  0.0000000000000E+00
 0.6517267390702E+00  0.1093661521278E+01  0.0000000000000E+00
 0.4316001604581E+00  0.4493289287768E+00  0.0000000000000E+00
 0.4473410323378E+00  0.4840760209408E+00  0.0000000000000E+00
 0.4630819042174E+00  0.5188231131049E+00  0.0000000000000E+00
 0.4788227760970E+00  0.5535702052689E+00  0.0000000000000E+00
 0.4945636479767E+00  0.5883172974329E+00  0.0000000000000E+00
 0.5103045198563E+00  0.6230643895969E+00  0.0000000000000E+00
 0.5260453917359E+00  0.6578114817609E+00  0.0000000000000E+00
 0.5417862636155E+00  0.6925585739250E+00  0.0000000000000E+00
 0.5575271354952E+00  0.7273056660890E+00  0.0000000000000E+00
 0.5732680073748E+00  0.7620527582530E+00  0.0000000000000E+00
 0.5890088792544E+00  0.7967998504170E+00  0.0000000000000E+00
 0.6047497511341E+00  0.8315469425810E+00  0.0000000000000E+00
 0.6204906230137E+00  0.8662940347451E+00  0.0000000000000E+00
 0.6362314948933E+00  0.9010411269091E+00  0.0000000000000E+00
 0.6519723667730E+00  0.9357882190731E+00  0.0000000000000E+00
 0.6677132386526E+00  0.9705353112371E+00  0.0000000000000E+00
 0.6834541105322E+00  0.1005282403401E+01  0.0000000000000E+00
 0.6991949824118E+00  0.1040029495565E+01  0.0000000000000E+00
 0.7149358542915E+00  0.1074776587729E+01  0.0000000000000E+00
 0.4704201190014E+00  0.4427312295532E+00  0.0000000000000E+00
 0.4874864928703E+00  0.4767023850238E+00  0.0000000000000E+00
 0.5045528667393E+00  0.5106735404944E+00  0.0000000000000E+00
 0.5216192406082E+00  0.5446446959651E+00  0.0000000000000E+00
 0.5386856144772E+00  0.5786158514357E+00  0.0000000000000E+00
 0.5557519883461E+00  0.6125870069063E+00  0.0000000000000E+00
 0.5728183622150E+00  0.6465581623769E+00  0.0000000000000E+00
 0.5898847360840E+00  0.6805293178476E+00  0.0000000000000E+00
 0.6069511099529E+00  0.7145004733182E+00  0.0000000000000E+00
 0.6240174838218E+00  0.7484716287888E+00  0.0000000000000E+00
 0.6410838576908E+00  0.7824427842594E+00  0.0000000000000E+00
 0.6581502315597E+00  0.8164139397300E+00  0.0000000000000E+00
 0.6752166054286E+00  0.8503850952007E+00  0.0000000000000E+00
 0.6922829792976E+00  0.8843562506713E+00  0.0000000000000E+00
 0.7093493531665E+00  0.9183274061419E+00  0.0000000000000E+00
 0.7264157270354E+00  0.9522985616125E+00  0.0000000000000E+00
 0.7434821009044E+00  0.9862697170832E+00  0.0000000000000E+00
 0.7605484747733E+00  0.1020240872554E+01  0.0000000000000E+00
 0.7776148486422E+00  0.1054212028024E+01  0.0000000000000E+00
 0.5091428679437E+00  0.4356052711680E+00  0.0000000000000E+00
 0.5275166039441E+00  0.4687606221902E+00  0.0000000000000E+00
 0.5458903399444E+00  0.5019159732123E+00  0.0000000000000E+00
 0.5642640759448E+00  0.5350713242345E+00  0.0000000000000E+00
 0.5826378119451E+00  0.5682266752566E+00  0.0000000000000E+00
 0.6010115479455E+00  0.6013820262787E+00  0.0000000000000E+00
 0.6193852839459E+00  0.6345373773009E+00  0.0000000000000E+00
 0.6377590199462E+00  0.6676927283230E+00  0.0000000000000E+00
 0.6561327559466E+00  0.7008480793452E+00  0.0000000000000E+00
 0.6745064919470E+00  0.7340034303673E+00  0.0000000000000E+00
 0.6928802279473E+00  0.7671587813894E+00  0.0000000000000E+00
 0.7112539639477E+00  0.8003141324116E+00  0.0000000000000E+00
 0.7296276999480E+00  0.8334694834337E+00  0.0000000000000E+00
 0.7480014359484E+00  0.8666248344558E+00  0.0000000000000E+00
 0.7663751719488E+00  0.8997801854780E+00  0.0000000000000E+00
 0.7847489079491E+00  0.9329355365001E+00  0.0000000000000E+00
 0.8031226439495E+00  0.9660908875223E+00  0.0000000000000E+00
 0.8214963799499E+00  0.9992462385444E+00  0.0000000000000E+00
 0.8398701159502E+00  0.1032401589567E+01  0.0000000000000E+00
 0.5477768854571E+00  0.4279968810059E+00  0.0000000000000E+00
 0.5674541537630E+00  0.4603381160649E+00  0.0000000000000E+00
 0.5871314220688E+00  0.4926793511240E+00  0.0000000000000E+00
 0.6068086903747E+00  0.5250205861830E+00  0.0000000000000E+00
 0.6264859586806E+00  0.5573618212420E+00  0.0000000000000E+00
 0.6461632269865E+00  0.5897030563010E+00  0.0000000000000E+00
 0.6658404952923E+00  0.6220442913601E+00  0.0000000000000E+00
 0.6855177635982E+00  0.6543855264191E+00  0.0000000000000E+00
 0.7051950319041E+00  0.6867267614781E+00  0.0000000000000E+00
 0.7248723002099E+00  0.7190679965371E+00  0.0000000000000E+00
 0.7445495685158E+00  0.7514092315961E+00  0.0000000000000E+00
 0.7642268368217E+00  0.7837504666552E+00  0.0000000000000E+00
 0.7839041051276E+00  0.8160917017142E+00  0.0000000000000E+00
 0.8035813734334E+00  0.8484329367732E+00  0.0000000000000E+00
 0.8232586417393E+00  0.8807741718322E+00  0.0000000000000E+00
 0.8429359100452E+00  0.9131154068912E+00  0.0000000000000E+00
 0.8626131783511E+00  0.9454566419503E+00  0.0000000000000E+00
 0.8822904466569E+00  0.9777978770093E+00  0.0000000000000E+00
 0.9019677149628E+00  0.1010139112068E+01  0.0000000000000E+00
 0.5863228020220E+00  0.4199269192670E+00  0.0000000000000E+00
 0.6073059539494E+00  0.4514720689682E+00  0.0000000000000E+00
 0.6282891058768E+00  0.4830172186695E+00  0.0000000000000E+00
 0.6492722578042E+00  0.5145623683708E+00  0.0000000000000E+00
 0.6702554097316E+00  0.5461075180720E+00  0.0000000000000E+00
 0.6912385616590E+00  0.5776526677733E+00  0.0000000000000E+00
 0.7122217135865E+00  0.6091978174745E+00  0.0000000000000E+00
 0.7332048655139E+00  0.6407429671758E+00  0.0000000000000E+00
 0.7541880174413E+00  0.6722881168770E+00  0.0000000000000E+00
 0.7751711693687E+00  0.7038332665783E+00  0.0000000000000E+00
 0.7961543212961E+00  0.7353784162796E+00  0.0000000000000E+00
 0.8171374732236E+00  0.7669235659808E+00  0.0000000000000E+00
 0.8381206251510E+00  0.7984687156821E+00  0.0000000000000E+00
 0.8591037770784E+00  0.8300138653833E+00  0.0000000000000E+00
 0.8800869290058E+00  0.8615590150846E+00  0.0000000000000E+00
 0.9010700809332E+00  0.8931041647858E+00  0.0000000000000E+00
 0.9220532328607E+00  0.9246493144871E+00  0.0000000000000E+00
 0.9430363847881E+00  0.9561944641884E+00  0.0000000000000E+00
 0.9640195367155E+00  0.9877396138896E+00  0.0000000000000E+00
 0.6247718534565E+00  0.4113904599593E+00  0.0000000000000E+00
 0.6470599870427E+00  0.4421478324182E+00  0.0000000000000E+00
 0.6693481206289E+00  0.4729052048771E+00  0.0000000000000E+00
 0.6916362542152E+00  0.5036625773361E+00  0.0000000000000E+00
 0.7139243878014E+00  0.5344199497950E+00  0.0000000000000E+00
 0.7362125213877E+00  0.5651773222539E+00  0.0000000000000E+00
 0.7585006549739E+00  0.5959346947128E+00  0.0000000000000E+00
 0.7807887885601E+00  0.6266920671718E+00  0.0000000000000E+00
 0.8030769221464E+00  0.6574494396307E+00  0.0000000000000E+00
 0.8253650557326E+00  0.6882068120896E+00  0.0000000000000E+00
 0.8476531893188E+00  0.7189641845486E+00  0.0000000000000E+00
 0.8699413229051E+00  0.7497215570075E+00  0.0000000000000E+00
 0.8922294564913E+00  0.7804789294664E+00  0.0000000000000E+00
 0.9145175900776E+00  0.8112363019254E+00  0.0000000000000E+00
 0.9368057236638E+00  0.8419936743843E+00  0.0000000000000E+00
 0.9590938572500E+00  0.8727510468432E+00  0.0000000000000E+00
 0.9813819908363E+00  0.9035084193021E+00  0.0000000000000E+00
 0.1003670124423E+01  0.9342657917611E+00  0.0000000000000E+00
 0.1025958258009E+01  0.9650231642200E+00  0.0000000000000E+00
 0.6631144762382E+00  0.4023799804640E+00  0.0000000000000E+00
 0.6867022090618E+00  0.4323453794102E+00  0.0000000000000E+00
 0.7102899418854E+00  0.4623107783564E+00  0.0000000000000E+00
 0.7338776747089E+00  0.4922761773027E+00  0.0000000000000E+00
 0.7574654075325E+00  0.5222415762489E+00  0.0000000000000E+00
 0.7810531403561E+00  0.5522069751951E+00  0.0000000000000E+00
 0.8046408731796E+00  0.5821723741413E+00  0.0000000000000E+00
 0.8282286060032E+00  0.6121377730876E+00  0.0000000000000E+00
 0.8518163388268E+00  0.6421031720338E+00  0.0000000000000E+00
 0.8754040716504E+00  0.6720685709800E+00  0.0000000000000E+00
 0.8989918044739E+00  0.7020339699262E+00  0.0000000000000E+00
 0.9225795372975E+00  0.7319993688725E+00  0.0000000000000E+00
 0.9461672701211E+00  0.7619647678187E+00  0.0000000000000E+00
 0.9697550029446E+00  0.7919301667649E+00  0.0000000000000E+00
 0.9933427357682E+00  0.8218955657111E+00  0.0000000000000E+00
 0.1016930468592E+01  0.8518609646574E+00  0.0000000000000E+00
 0.1040518201415E+01  0.8818263636036E+00  0.0000000000000E+00
 0.1064105934239E+01  0.9117917625498E+00  0.0000000000000E+00
 0.1087693667062E+01  0.9417571614961E+00  0.0000000000000E+00
 0.7013395437085E+00  0.3928851883836E+00  0.0000000000000E+00
 0.7262154212153E+00  0.4220388917836E+00  0.0000000000000E+00
 0.7510912987220E+00  0.4511925951835E+00  0.0000000000000E+00
 0.7759671762288E+00  0.4803462985835E+00  0.0000000000000E+00
 0.8008430537356E+00  0.5095000019835E+00  0.0000000000000E+00
 0.8257189312424E+00  0.5386537053834E+00  0.0000000000000E+00
 0.8505948087492E+00  0.5678074087834E+00  0.0000000000000E+00
 0.8754706862560E+00  0.5969611121833E+00  0.0000000000000E+00
 0.9003465637627E+00  0.6261148155833E+00  0.0000000000000E+00
 0.9252224412695E+00  0.6552685189833E+00  0.0000000000000E+00
 0.9500983187763E+00  0.6844222223832E+00  0.0000000000000E+00
 0.9749741962831E+00  0.7135759257832E+00  0.0000000000000E+00
 0.9998500737899E+00  0.7427296291831E+00  0.0000000000000E+00
 0.1024725951297E+01  0.7718833325831E+00  0.0000000000000E+00
 0.1049601828803E+01  0.8010370359831E+00  0.0000000000000E+00
 0.1074477706310E+01  0.8301907393830E+00  0.0000000000000E+00
 0.1099353583817E+01  0.8593444427830E+00  0.0000000000000E+00
 0.1124229461324E+01  0.8884981461829E+00  0.0000000000000E+00
 0.1149105338831E+01  0.9176518495829E+00  0.0000000000000E+00
 0.7394329578610E+00  0.3828904307705E+00  0.0000000000000E+00
 0.7655763768245E+00  0.4111916019715E+00  0.0000000000000E+00
 0.7917197957880E+00  0.4394927731724E+00  0.0000000000000E+00
 0.8178632147515E+00  0.4677939443734E+00  0.0000000000000E+00
 0.8440066337150E+00  0.4960951155743E+00  0.0000000000000E+00
 0.8701500526785E+00  0.5243962867753E+00  0.0000000000000E+00
 0.8962934716420E+00  0.5526974579763E+00  0.0000000000000E+00
 0.9224368906055E+00  0.5809986291772E+00  0.0000000000000E+00
 0.9485803095690E+00  0.6092998003782E+00  0.0000000000000E+00
 0.9747237285325E+00  0.6376009715791E+00  0.0000000000000E+00
 0.1000867147496E+01  0.6659021427801E+00  0.0000000000000E+00
 0.1027010566459E+01  0.6942033139810E+00  0.0000000000000E+00
 0.1053153985423E+01  0.7225044851820E+00  0.0000000000000E+00
 0.1079297404386E+01  0.7508056563830E+00  0.0000000000000E+00
 0.1105440823350E+01  0.7791068275839E+00  0.0000000000000E+00
 0.1131584242313E+01  0.8074079987849E+00  0.0000000000000E+00
 0.1157727661277E+01  0.8357091699858E+00  0.0000000000000E+00
 0.1183871080240E+01  0.8640103411868E+00  0.0000000000000E+00
 0.1210014499204E+01  0.8923115123877E+00  0.0000000000000E+00
</DataArray>
</Points>
<Cells>
<DataArray type="Int64" Name="connectivity" format="ascii">
0 11 438 243
243 438 439 244
244 439 440 245
245 440 441 246
246 441 442 247
247 442 443 248
248 443 444 249
249 444 445 250
250 445 446 251
251 446 447 252
252 447 448 253
253 448 449 254
254 449 450 255
255 450 451 256
256 451 452 257
257 452 453 258
258 453 454 259
259 454 455 260
260 455 456 261
261 456 457 262
262 457 458 263
263 458 459 264
264 459 460 265
265 460 461 266
266 461 462 267
267 462 463 268
268 463 464 269
269 464 465 270
270 465 466 271
271 466 467 272
272 467 468 273
273 468 469 274
274 469 470 275
275 470 471 276
276 471 472 277
277 472 473 278
278 473 474 279
279 474 475 280
280 475 476 281
281 476 477 282
282 477 89 3
11 12 478 438
438 478 479 439
439 479 480 440
440 480 481 441
441 481 482 442
442 482 483 443
443 483 484 444
444 484 485 445
445 485 486 446
446 486 487 447
447 487 488 448
448 488 489 449
449 489 490 450
450 490 491 451
451 491 492 452
452 492 493 453
453 493 494 454
454 494 495 455
455 495 496 456
456 496 497 457
457 497 498 458
458 498 499 459
459 499 500 460
460 500 501 461
461 501 502 462
462 502 503 463
463 503 504 464
464 504 505 465
465 505 506 466
466 506 507 467
467 507 508 468
468 508 509 469
469 509 510 470
470 510 511 471
471 511 512 472
472 512 513 473
473 513 514 474
474 514 515 475
475 515 516 476
476 516 517 477
477 517 90 89
12 13 518 478
478 518 519 479
479 519 520 480
480 520 521 481
481 521 522 482
482 522 523 483
483 523 524 484
484 524 525 485
485 525 526 486
486 526 527 487
487 527 528 488
488 528 529 489
489 529 530 490
490 530 531 491
491 531 532 492
492 532 533 493
493 533 534 494
494 534 535 495
495 535 536 496
496 536 537 497
497 537 538 498
498 538 539 499
499 539 540 500
500 540 541 501
501 541 542 502
502 542 543 503
503 543 544 504
504 544 545 505
505 545 546 506
506 546 547 507
507 547 548 508
508 548 549 509
509 549 550 510
510 550 551 511
511 551 552 512
512 552 553 513
513 553 554 514
514 554 555 515
515 555 556 516
516 556 557 517
517 557 91 90
13 14 558 518
518 558 559 519
519 559 560 520
520 560 561 521
521 561 562 522
522 562 563 523
523 563 564 524
524 564 565 525
525 565 566 526
526 566 567 527
527 567 568 528
528 568 569 529
529 569 570 530
530 570 571 531
531 571 572 532
532 572 573 533
533 573 574 534
534 574 575 535
535 575 576 536
536 576 577 537
537 577 578 538
538 578 579 539
539 579 580 540
540 580 581 541
541 581 582 542
542 582 583 543
543 583 584 544
544 584 585 545
545 585 586 546
546 586 587 547
547 587 588 548
548 588 589 549
549 589 590 550
550 590 591 551
551 591 592 552
552 592 593 553
553 593 594 554
554 594 595 555
555 595 596 556
556 596 597 557
557 597 92 91
14 15 598 558
558 598 599 559
559 599 600 560
560 600 601 561
561 601 602 562
562 602 603 563
563 603 604 564
564 604 605 565
565 605 606 566
566 606 607 567
567 607 608 568
568 608 609 569
569 609 610 570
570 610 611 571
571 611 612 572
572 612 613 573
573 613 614 574
574 614 615 575
575 615 616 576
576 616 617 577
577 617 618 578
578 618 619 579
579 619 620 580
580 620 621 581
581 621 622 582
582 622 623 583
583 623 624 584
584 624 625 585
585 625 626 586
586 626 627 587
587 627 628 588
588 628 629 589
589 629 630 590
590 630 631 591
591 631 632 592
592 632 633 593
593 633 634 594
594 634 635 595
595 635 636 596
596 636 637 597
597 637 93 92
15 16 638 598
598 638 639 599
599 639 640 600
600 640 641 601
601 641 642 602
602 642 643 603
603 643 644 604
604 644 645 605
605 645 646 606
606 646 647 607
607 647 648 608
608 648 649 609
609 649 650 610
610 650 651 611
611 651 652 612
612 652 653 613
613 653 654 614
614 654 655 615
615 655 656 616
616 656 657 617
617 657 658 618
618 658 659 619
619 659 660 620
620 660 661 621
621 661 662 622
622 662 663 623
623 663 664 624
624 664 665 625
625 665 666 626
626 666 667 627
627 667 668 628
628 668 669 629
629 669 670 630
630 670 671 631
631 671 672 632
632 672 673 633
633 673 674 634
634 674 675 635
635 675 676 636
636 676 677 637
637 677 94 93
16 17 678 638
638 678 679 639
639 679 680 640
640 680 681 641
641 681 682 642
642 682 683 643
643 683 684 644
644 684 685 645
645 685 686 646
646 686 687 647
647 687 688 648
648 688 689 649
649 689 690 650
650 690 691 651
651 691 692 652
652 692 693 653
653 693 694 654
654 694 695 655
655 695 696 656
656 696 697 657
657 697 698 658
658 698 699 659
659 699 700 660
660 700 701 661
661 701 702 662
662 702 703 663
663 703 704 664
664 704 705 665
665 705 706 666
666 706 707 667
667 707 708 668
668 708 709 669
669 709 710 670
670 710 711 671
671 711 712 672
672 712 713 673
673 713 714 674
674 714 715 675
675 715 716 676
676 716 717 677
677 717 95 94
17 18 718 678
678 718 719 679
679 719 720 680
680 720 721 681
681 721 722 682
682 722 723 683
683 723 724 684
684 724 725 685
685 725 726 686
686 726 727 687
687 727 728 688
688 728 729 689
689 729 730 690
690 730 731 691
691 731 732 692
692 732 733 693
693 733 734 694
694 734 735 695
695 735 736 696
696 736 737 697
697 737 738 698
698 738 739 699
699 739 740 700
700 740 741 701
701 741 742 702
702 742 743 703
703 743 744 704
704 744 745 705
705 745 746 706
706 746 747 707
707 747 748 708
708 748 749 709
709 749 750 710
710 750 751 711
711 751 752 712
712 752 753 713
713 753 754 714
714 754 755 715
715 755 756 716
716 756 757 717
717 757 96 95
18 19 758 718
718 758 759 719
719 759 760 720
720 760 761 721
721 761 762 722
722 762 763 723
723 763 764 724
724 764 765 725
725 765 766 726
726 766 767 727
727 767 768 728
728 768 769 729
729 769 770 730
730 770 771 731
731 771 772 732
732 772 773 733
733 773 774 734
734 774 775 735
735 775 776 736
736 776 777 737
737 777 778 738
738 778 779 739
739 779 780 740
740 780 781 741
741 781 782 742
742 782 783 743
743 783 784 744
744 784 785 745
745 785 786 746
746 786 787 747
747 787 788 748
748 788 789 749
749 789 790 750
750 790 791 751
751 791 792 752
752 792 793 753
753 793 794 754
754 794 795 755
755 795 796 756
756 796 797 757
757 797 97 96
19 20 798 758
758 798 799 759
759 799 800 760
760 800 801 761
761 801 802 762
762 802 803 763
763 803 804 764
764 804 805 765
765 805 806 766
766 806 807 767
767 807 808 768
768 808 809 769
769 809 810 770
770 810 811 771
771 811 812 772
772 812 813 773
773 813 814 774
774 814 815 775
775 815 816 776
776 816 817 777
777 817 818 778
778 818 819 779
779 819 820 780
780 820 821 781
781 821 822 782
782 822 823 783
783 823 824 784
784 824 825 785
785 825 826 786
786 826 827 787
787 827 828 788
788 828 829 789
789 829 830 790
790 830 831 791
791 831 832 792
792 832 833 793
793 833 834 794
794 834 835 795
795 835 836 796
796 836 837 797
797 837 98 97
20 21 838 798
798 838 839 799
799 839 840 800
800 840 841 801
801 841 842 802
802 842 843 803
803 843 844 804
804 844 845 805
805 845 846 806
806 846 847 807
807 847 848 808
808 848 849 809
809 849 850 810
810 850 851 811
811 851 852 812
812 852 853 813
813 853 854 814
814 854 855 815
815 855 856 816
816 856 857 817
817 857 858 818
818 858 859 819
819 859 860 820
820 860 861 821
821 861 862 822
822 862 863 823
823 863 864 824
824 864 865 825
825 865 866 826
826 866 867 827
827 867 868 828
828 868 869 829
829 869 870 830
830 870 871 831
831 871 872 832
832 872 873 833
833 873 874 834
834 874 875 835
835 875 876 836
836 876 877 837
837 877 99 98
21 22 878 838
838 878 879 839
839 879 880 840
840 880 881 841
841 881 882 842
842 882 883 843
843 883 884 844
844 884 885 845
845 885 886 846
846 886 887 847
847 887 888 848
848 888 889 849
849 889 890 850
850 890 891 851
851 891 892 852
852 892 893 853
853 893 894 854
854 894 895 855
855 895 896 856
856 896 897 857
857 897 898 858
858 898 899 859
859 899 900 860
860 900 901 861
861 901 902 862
862 902 903 863
863 903 904 864
864 904 905 865
865 905 906 866
866 906 907 867
867 907 908 868
868 908 909 869
869 909 910 870
870 910 911 871
871 911 912 872
872 912 913 873
873 913 914 874
874 914 915 875
875 915 916 876
876 916 917 877
877 917 100 99
22 23 918 878
878 918 919 879
879 919 920 880
880 920 921 881
881 921 922 882
882 922 923 883
883 923 924 884
884 924 925 885
885 925 926 886
886 926 927 887
887 927 928 888
888 928 929 889
889 929 930 890
890 930 931 891
891 931 932 892
892 932 933 893
893 933 934 894
894 934 935 895
895 935 936 896
896 936 937 897
897 937 938 898
898 938 939 899
899 939 940 900
900 940 941 901
901 941 942 902
902 942 943 903
903 943 944 904
904 944 945 905
905 945 946 906
906 946 947 907
907 947 948 908
908 948 949 909
909 949 950 910
910 950 951 911
911 951 952 912
912 952 953 913
913 953 954 914
914 954 955 915
915 955 956 916
916 956 957 917
917 957 101 100
23 24 958 918
918 958 959 919
919 959 960 920
920 960 961 921
921 961 962 922
922 962 963 923
923 963 964 924
924 964 965 925
925 965 966 926
926 966 967 927
927 967 968 928
928 968 969 929
929 969 970 930
930 970 971 931
931 971 972 932
932 972 973 933
933 973 974 934
934 974 975 935
935 975 976 936
936 976 977 937
937 977 978 938
938 978 979 939
939 979 980 940
940 980 981 941
941 981 982 942
942 982 983 943
943 983 984 944
944 984 985 945
945 985 986 946
946 986 987 947
947 987 988 948
948 988 989 949
949 989 990 950
950 990 991 951
951 991 992 952
952 992 993 953
953 993 994 954
954 994 995 955
955 995 996 956
956 996 997 957
957 997 102 101
24 25 998 958
958 998 999 959
959 999 1000 960
960 1000 1001 961
961 1001 1002 962
962 1002 1003 963
963 1003 1004 964
964 1004 1005 965
965 1005 1006 966
966 1006 1007 967
967 1007 1008 968
968 1008 1009 969
969 1009 1010 970
970 1010 1011 971
971 1011 1012 972
972 1012 1013 973
973 1013 1014 974
974 1014 1015 975
975 1015 1016 976
976 1016 1017 977
977 1017 1018 978
978 1018 1019 979
979 1019 1020 980
980 1020 1021 981
981 1021 1022 982
982 1022 1023 983
983 1023 1024 984
984 1024 1025 985
985 1025 1026 986
986 1026 1027 987
987 1027 1028 988
988 1028 1029 989
989 1029 1030 990
990 1030 1031 991
991 1031 1032 992
992 1032 1033 993
993 1033 1034 994
994 1034 1035 995
995 1035 1036 996
996 1036 1037 997
997 1037 103 102
25 26 1038 998
998 1038 1039 999
999 1039 1040 1000
1000 1040 1041 1001
1001 1041 1042 1002
1002 1042 1043 1003
1003 1043 1044 1004
1004 1044 1045 1005
1005 1045 1046 1006
1006 1046 1047 1007
1007 1047 1048 1008
1008 1048 1049 1009
1009 1049 1050 1010
1010 1050 1051 1011
1011 1051 1052 1012
1012 1052 1053 1013
1013 1053 1054 1014
1014 1054 1055 1015
1015 1055 1056 1016
1016 1056 1057 1017
1017 1057 1058 1018
1018 1058 1059 1019
1019 1059 1060 1020
1020 1060 1061 1021
1021 1061 1062 1022
1022 1062 1063 1023
1023 1063 1064 1024
1024 1064 1065 1025
1025 1065 1066 1026
1026 1066 1067 1027
1027 1067 1068 1028
1028 1068 1069 1029
1029 1069 1070 1030
1030 1070 1071 1031
1031 1071 1072 1032
1032 1072 1073 1033
1033 1073 1074 1034
1034 1074 1075 1035
1035 1075 1076 1036
1036 1076 1077 1037
1037 1077 104 103
26 27 1078 1038
1038 1078 1079 1039
1039 1079 1080 1040
1040 1080 1081 1041
1041 1081 1082 1042
1042 1082 1083 1043
1043 1083 1084 1044
1044 1084 1085 1045
1045 1085 1086 1046
1046 1086 1087 1047
1047 1087 1088 1048
1048 1088 1089 1049
1049 1089 1090 1050
1050 1090 1091 1051
1051 1091 1092 1052
1052 1092 1093 1053
1053 1093 1094 1054
1054 1094 1095 1055
1055 1095 1096 1056
1056 1096 1097 1057
1057 1097 1098 1058
1058 1098 1099 1059
1059 1099 1100 1060
1060 1100 1101 1061
1061 1101 1102 1062
1062 1102 1103 1063
1063 1103 1104 1064
1064 1104 1105 1065
1065 1105 1106 1066
1066 1106 1107 1067
1067 1107 1108 1068
1068 1108 1109 1069
1069 1109 1110 1070
1070 1110 1111 1071
1071 1111 1112 1072
1072 1112 1113 1073
1073 1113 1114 1074
1074 1114 1115 1075
1075 1115 1116 1076
1076 1116 1117 1077
1077 1117 105 104
27 28 1118 1078
1078 1118 1119 1079
1079 1119 1120 1080
1080 1120 1121 1081
1081 1121 1122 1082
1082 1122 1123 1083
1083 1123 1124 1084
1084 1124 1125 1085
1085 1125 1126 1086
1086 1126 1127 1087
1087 1127 1128 1088
1088 1128 1129 1089
1089 1129 1130 1090
1090 1130 1131 1091
1091 1131 1132 1092
1092 1132 1133 1093
1093 1133 1134 1094
1094 1134 1135 1095
1095 1135 1136 1096
1096 1136 1137 1097
1097 1137 1138 1098
1098 1138 1139 1099
1099 1139 1140 1100
1100 1140 1141 1101
1101 1141 1142 1102
1102 1142 1143 1103
1103 1143 1144 1104
1104 1144 1145 1105
1105 1145 1146 1106
1106 1146 1147 1107
1107 1147 1148 1108
1108 1148 1149 1109
1109 1149 1150 1110
1110 1150 1151 1111
1111 1151 1152 1112
1112 1152 1153 1113
1113 1153 1154 1114
1114 1154 1155 1115
1115 1155 1156 1116
1116 1156 1157 1117
1117 1157 106 105
28 29 1158 1118
1118 1158 1159 1119
1119 1159 1160 1120
1120 1160 1161 1121
1121 1161 1162 1122
1122 1162 1163 1123
1123 1163 1164 1124
1124 1164 1165 1125
1125 1165 1166 1126
1126 1166 1167 1127
1127 1167 1168 1128
1128 1168 1169 1129
1129 1169 1170 1130
1130 1170 1171 1131
1131 1171 1172 1132
1132 1172 1173 1133
1133 1173 1174 1134
1134 1174 1175 1135
1135 1175 1176 1136
1136 1176 1177 1137
1137 1177 1178 1138
1138 1178 1179 1139
1139 1179 1180 1140
1140 1180 1181 1141
1141 1181 1182 1142
1142 1182 1183 1143
1143 1183 1184 1144
1144 1184 1185 1145
1145 1185 1186 1146
1146 1186 1187 1147
1147 1187 1188 1148
1148 1188 1189 1149
1149 1189 1190 1150
1150 1190 1191 1151
1151 1191 1192 1152
1152 1192 1193 1153
1153 1193 1194 1154
1154 1194 1195 1155
1155 1195 1196 1156
1156 1196 1197 1157
1157 1197 107 106
29 30 1198 1158
1158 1198 1199 1159
1159 1199 1200 1160
1160 1200 1201 1161
1161 1201 1202 1162
1162 1202 1203 1163
1163 1203 1204 1164
1164 1204 1205 1165
1165 1205 1206 1166
1166 1206 1207 1167
1167 1207 1208 1168
1168 1208 1209 1169
1169 1209 1210 1170
1170 1210 1211 1171
1171 1211 1212 1172
1172 1212 1213 1173
1173 1213 1214 1174
1174 1214 1215 1175
1175 1215 1216 1176
1176 1216 1217 1177
1177 1217 1218 1178
1178 1218 1219 1179
1179 1219 1220 1180
1180 1220 1221 1181
1181 1221 1222 1182
1182 1222 1223 1183
1183 1223 1224 1184
1184 1224 1225 1185
1185 1225 1226 1186
1186 1226 1227 1187
1187 1227 1228 1188
1188 1228 1229 1189
1189 1229 1230 1190
1190 1230 1231 1191
1191 1231 1232 1192
1192 1232 1233 1193
1193 1233 1234 1194
1194 1234 1235 1195
1195 1235 1236 1196
1196 1236 1237 1197
1197 1237 4 107
30 31 1238 1198
1198 1238 1239 1199
1199 1239 1240 1200
1200 1240 1241 1201
1201 1241 1242 1202
1202 1242 1243 1203
1203 1243 1244 1204
1204 1244 1245 1205
1205 1245 1246 1206
1206 1246 1247 1207
1207 1247 1248 1208
1208 1248 1249 1209
1209 1249 1250 1210
1210 1250 1251 1211
1211 1251 1252 1212
1212 1252 1253 1213
1213 1253 1254 1214
1214 1254 1255 1215
1215 1255 1256 1216
1216 1256 1257 1217
1217 1257 1258 1218
1218 1258 1259 1219
1219 1259 1260 1220
1220 1260 1261 1221
1221 1261 1262 1222
1222 1262 1263 1223
1223 1263 1264 1224
1224 1264 1265 1225
1225 1265 1266 1226
1226 1266 1267 1227
1227 1267 1268 1228
1228 1268 1269 1229
1229 1269 1270 1230
1230 1270 1271 1231
1231 1271 1272 1232
1232 1272 1273 1233
1233 1273 1274 1234
1234 1274 1275 1235
1235 1275 1276 1236
1236 1276 1277 1237
1237 1277 108 4
31 32 1278 1238
1238 1278 1279 1239
1239 1279 1280 1240
1240 1280 1281 1241
1241 1281 1282 1242
1242 1282 1283 1243
1243 1283 1284 1244
1244 1284 1285 1245
1245 1285 1286 1246
1246 1286 1287 1247
1247 1287 1288 1248
1248 1288 1289 1249
1249 1289 1290 1250
1250 1290 1291 1251
1251 1291 1292 1252
1252 1292 1293 1253
1253 1293 1294 1254
1254 1294 1295 1255
1255 1295 1296 1256
1256 1296 1297 1257
1257 1297 1298 1258
1258 1298 1299 1259
1259 1299 1300 1260
1260 1300 1301 1261
1261 1301 1302 1262
1262 1302 1303 1263
1263 1303 1304 1264
1264 1304 1305 1265
1265 1305 1306 1266
1266 1306 1307 1267
1267 1307 1308 1268
1268 1308 1309 1269
1269 1309 1310 1270
1270 1310 1311 1271
1271 1311 1312 1272
1272 1312 1313 1273
1273 1313 1314 1274
1274 1314 1315 1275
1275 1315 1316 1276
1276 1316 1317 1277
1277 1317 109 108
32 33 1318 1278
1278 1318 1319 1279
1279 1319 1320 1280
1280 1320 1321 1281
1281 1321 1322 1282
1282 1322 1323 1283
1283 1323 1324 1284
1284 1324 1325 1285
1285 1325 1326 1286
1286 1326 1327 1287
1287 1327 1328 1288
1288 1328 1329 1289
1289 1329 1330 1290
1290 1330 1331 1291
1291 1331 1332 1292
1292 1332 1333 1293
1293 1333 1334 1294
1294 1334 1335 1295
1295 1335 1336 1296
1296 1336 1337 1297
1297 1337 1338 1298
1298 1338 1339 1299
1299 1339 1340 1300
1300 1340 1341 1301
1301 1341 1342 1302
1302 1342 1343 1303
1303 1343 1344 1304
1304 1344 1345 1305
1305 1345 1346 1306
1306 1346 1347 1307
1307 1347 1348 1308
1308 1348 1349 1309
1309 1349 1350 1310
1310 1350 1351 1311
1311 1351 1352 1312
1312 1352 1353 1313
1313 1353 1354 1314
1314 1354 1355 1315
1315 1355 1356 1316
1316 1356 1357 1317
1317 1357 110 109
33 34 1358 1318
1318 1358 1359 1319
1319 1359 1360 1320
1320 1360 1361 1321
1321 1361 1362 1322
1322 1362 1363 1323
1323 1363 1364 1324
1324 1364 1365 1325
1325 1365 1366 1326
1326 1366 1367 1327
1327 1367 1368 1328
1328 1368 1369 1329
1329 1369 1370 1330
1330 1370 1371 1331
1331 1371 1372 1332
1332 1372 1373 1333
1333 1373 1374 1334
1334 1374 1375 1335
1335 1375 1376 1336
1336 1376 1377 1337
1337 1377 1378 1338
1338 1378 1379 1339
1339 1379 1380 1340
1340 1380 1381 1341
1341 1381 1382 1342
1342 1382 1383 1343
1343 1383 1384 1344
1344 1384 1385 1345
1345 1385 1386 1346
1346 1386 1387 1347
1347 1387 1388 1348
1348 1388 1389 1349
1349 1389 1390 1350
1350 1390 1391 1351
1351 1391 1392 1352
1352 1392 1393 1353
1353 1393 1394 1354
1354 1394 1395 1355
1355 1395 1396 1356
1356 1396 1397 1357
1357 1397 111 110
34 35 1398 1358
1358 1398 1399 1359
1359 1399 1400 1360
1360 1400 1401 1361
1361 1401 1402 1362
1362 1402 1403 1363
1363 1403 1404 1364
1364 1404 1405 1365
1365 1405 1406 1366
1366 1406 1407 1367
1367 1407 1408 1368
1368 1408 1409 1369
1369 1409 1410 1370
1370 1410 1411 1371
1371 1411 1412 1372
1372 1412 1413 1373
1373 1413 1414 1374
1374 1414 1415 1375
1375 1415 1416 1376
1376 1416 1417 1377
1377 1417 1418 1378
1378 1418 1419 1379
1379 1419 1420 1380
1380 1420 1421 1381
1381 1421 1422 1382
1382 1422 1423 1383
1383 1423 1424 1384
1384 1424 1425 1385
1385 1425 1426 1386
1386 1426 1427 1387
1387 1427 1428 1388
1388 1428 1429 1389
1389 1429 1430 1390
1390 1430 1431 1391
1391 1431 1432 1392
1392 1432 1433 1393
1393 1433 1434 1394
1394 1434 1435 1395
1395 1435 1436 1396
1396 1436 1437 1397
1397 1437 112 111
35 36 1438 1398
1398 1438 1439 1399
1399 1439 1440 1400
1400 1440 1441 1401
1401 1441 1442 1402
1402 1442 1443 1403
1403 1443 1444 1404
1404 1444 1445 1405
1405 1445 1446 1406
1406 1446 1447 1407
1407 1447 1448 1408
1408 1448 1449 1409
1409 1449 1450 1410
1410 1450 1451 1411
1411 1451 1452 1412
1412 1452 1453 1413
1413 1453 1454 1414
1414 1454 1455 1415
1415 1455 1456 1416
1416 1456 1457 1417
1417 1457 1458 1418
1418 1458 1459 1419
1419 1459 1460 1420
1420 1460 1461 1421
1421 1461 1462 1422
1422 1462 1463 1423
1423 1463 1464 1424
1424 1464 1465 1425
1425 1465 1466 1426
1426 1466 1467 1427
1427 1467 1468 1428
1428 1468 1469 1429
1429 1469 1470 1430
1430 1470 1471 1431
1431 1471 1472 1432
1432 1472 1473 1433
1433 1473 1474 1434
1434 1474 1475 1435
1435 1475 1476 1436
1436 1476 1477 1437
1437 1477 113 112
36 37 1478 1438
1438 1478 1479 1439
1439 1479 1480 1440
1440 1480 1481 1441
1441 1481 1482 1442
1442 1482 1483 1443
1443 1483 1484 1444
1444 1484 1485 1445
1445 1485 1486 1446
1446 1486 1487 1447
1447 1487 1488 1448
1448 1488 1489 1449
1449 1489 1490 1450
1450 1490 1491 1451
1451 1491 1492 1452
1452 1492 1493 1453
1453 1493 1494 1454
1454 1494 1495 1455
1455 1495 1496 1456
1456 1496 1497 1457
1457 1497 1498 1458
1458 1498 1499 1459
1459 1499 1500 1460
1460 1500 1501 1461
1461 1501 1502 1462
1462 1502 1503 1463
1463 1503 1504 1464
1464 1504 1505 1465
1465 1505 1506 1466
1466 1506 1507 1467
1467 1507 1508 1468
1468 1508 1509 1469
1469 1509 1510 1470
1470 1510 1511 1471
1471 1511 1512 1472
1472 1512 1513 1473
1473 1513 1514 1474
1474 1514 1515 1475
1475 1515 1516 1476
1476 1516 1517 1477
1477 1517 114 113
37 38 1518 1478
1478 1518 1519 1479
1479 1519 1520 1480
1480 1520 1521 1481
1481 1521 1522 1482
1482 1522 1523 1483
1483 1523 1524 1484
1484 1524 1525 1485
1485 1525 1526 1486
1486 1526 1527 1487
1487 1527 1528 1488
1488 1528 1529 1489
1489 1529 1530 1490
1490 1530 1531 1491
1491 1531 1532 1492
1492 1532 1533 1493
1493 1533 1534 1494
1494 1534 1535 1495
1495 1535 1536 1496
1496 1536 1537 1497
1497 1537 1538 1498
1498 1538 1539 1499
1499 1539 1540 1500
1500 1540 1541 1501
1501 1541 1542 1502
1502 1542 1543 1503
1503 1543 1544 1504
1504 1544 1545 1505
1505 1545 1546 1506
1506 1546 1547 1507
1507 1547 1548 1508
1508 1548 1549 1509
1509 1549 1550 1510
1510 1550 1551 1511
1511 1551 1552 1512
1512 1552 1553 1513
1513 1553 1554 1514
1514 1554 1555 1515
1515 1555 1556 1516
1516 1556 1557 1517
1517 1557 115 114
38 39 1558 1518
1518 1558 1559 1519
1519 1559 1560 1520
1520 1560 1561 1521
1521 1561 1562 1522
1522 1562 1563 1523
1523 1563 1564 1524
1524 1564 1565 1525
1525 1565 1566 1526
1526 1566 1567 1527
1527 1567 1568 1528
1528 1568 1569 1529
1529 1569 1570 1530
1530 1570 1571 1531
1531 1571 1572 1532
1532 1572 1573 1533
1533 1573 1574 1534
1534 1574 1575 1535
1535 1575 1576 1536
1536 1576 1577 1537
1537 1577 1578 1538
1538 1578 1579 1539
1539 1579 1580 1540
1540 1580 1581 1541
1541 1581 1582 1542
1542 1582 1583 1543
1543 1583 1584 1544
1544 1584 1585 1545
1545 1585 1586 1546
1546 1586 1587 1547
1547 1587 1588 1548
1548 1588 1589 1549
1549 1589 1590 1550
1550 1590 1591 1551
1551 1591 1592 1552
1552 1592 1593 1553
1553 1593 1594 1554
1554 1594 1595 1555
1555 1595 1596 1556
1556 1596 1597 1557
1557 1597 116 115
39 40 1598 1558
1558 1598 1599 1559
1559 1599 1600 1560
1560 1600 1601 1561
1561 1601 1602 1562
1562 1602 1603 1563
1563 1603 1604 1564
1564 1604 1605 1565
1565 1605 1606 1566
1566 1606 1607 1567
1567 1607 1608 1568
1568 1608 1609 1569
1569 1609 1610 1570
1570 1610 1611 1571
1571 1611 1612 1572
1572 1612 1613 1573
1573 1613 1614 1574
1574 1614 1615 1575
1575 1615 1616 1576
1576 1616 1617 1577
1577 1617 1618 1578
1578 1618 1619 1579
1579 1619 1620 1580
1580 1620 1621 1581
1581 1621 1622 1582
1582 1622 1623 1583
1583 1623 1624 1584
1584 1624 1625 1585
1585 1625 1626 1586
1586 1626 1627 1587
1587 1627 1628 1588
1588 1628 1629 1589
1589 1629 1630 1590
1590 1630 1631 1591
1591 1631 1632 1592
1592 1632 1633 1593
1593 1633 1634 1594
1594 1634 1635 1595
1595 1635 1636 1596
1596 1636 1637 1597
1597 1637 117 116
40 41 1638 1598
1598 1638 1639 1599
1599 1639 1640 1600
1600 1640 1641 1601
1601 1641 1642 1602
1602 1642 1643 1603
1603 1643 1644 1604
1604 1644 1645 1605
1605 1645 1646 1606
1606 1646 1647 1607
1607 1647 1648 1608
1608 1648 1649 1609
1609 1649 1650 1610
1610 1650 1651 1611
1611 1651 1652 1612
1612 1652 1653 1613
1613 1653 1654 1614
1614 1654 1655 1615
1615 1655 1656 1616
1616 1656 1657 1617
1617 1657 1658 1618
1618 1658 1659 1619
1619 1659 1660 1620
1620 1660 1661 1621
1621 1661 1662 1622
1622 1662 1663 1623
1623 1663 1664 1624
1624 1664 1665 1625
1625 1665 1666 1626
1626 1666 1667 1627
1627 1667 1668 1628
1628 1668 1669 1629
1629 1669 1670 1630
1630 1670 1671 1631
1631 1671 1672 1632
1632 1672 1673 1633
1633 1673 1674 1634
1634 1674 1675 1635
1635 1675 1676 1636
1636 1676 1677 1637
1637 1677 118 117
41 42 1678 1638
1638 1678 1679 1639
1639 1679 1680 1640
1640 1680 1681 1641
1641 1681 1682 1642
1642 1682 1683 1643
1643 1683 1684 1644
1644 1684 1685 1645
1645 1685 1686 1646
1646 1686 1687 1647
1647 1687 1688 1648
1648 1688 1689 1649
1649 1689 1690 1650
1650 1690 1691 1651
1651 1691 1692 1652
1652 1692 1693 1653
1653 1693 1694 1654
1654 1694 1695 1655
1655 1695 1696 1656
1656 1696 1697 1657
1657 1697 1698 1658
1658 1698 1699 1659
1659 1699 1700 1660
1660 1700 1701 1661
1661 1701 1702 1662
1662 1702 1703 1663
1663 1703 1704 1664
1664 1704 1705 1665
1665 1705 1706 1666
1666 1706 1707 1667
1667 1707 1708 1668
1668 1708 1709 1669
1669 1709 1710 1670
1670 1710 1711 1671
1671 1711 1712 1672
1672 1712 1713 1673
1673 1713 1714 1674
1674 1714 1715 1675
1675 1715 1716 1676
1676 1716 1717 1677
1677 1717 119 118
42 43 1718 1678
1678 1718 1719 1679
1679 1719 1720 1680
1680 1720 1721 1681
1681 1721 1722 1682
1682 1722 1723 1683
1683 1723 1724 1684
1684 1724 1725 1685
1685 1725 1726 1686
1686 1726 1727 1687
1687 1727 1728 1688
1688 1728 1729 1689
1689 1729 1730 1690
1690 1730 1731 1691
1691 1731 1732 1692
1692 1732 1733 1693
1693 1733 1734 1694
1694 1734 1735 1695
1695 1735 1736 1696
1696 1736 1737 1697
1697 1737 1738 1698
1698 1738 1739 1699
1699 1739 1740 1700
1700 1740 1741 1701
1701 1741 1742 1702
1702 1742 1743 1703
1703 1743 1744 1704
1704 1744 1745 1705
1705 1745 1746 1706
1706 1746 1747 1707
1707 1747 1748 1708
1708 1748 1749 1709
1709 1749 1750 1710
1710 1750 1751 1711
1711 1751 1752 1712
1712 1752 1753 1713
1713 1753 1754 1714
1714 1754 1755 1715
1715 1755 1756 1716
1716 1756 1757 1717
1717 1757 120 119
43 44 1758 1718
1718 1758 1759 1719
1719 1759 1760 1720
1720 1760 1761 1721
1721 1761 1762 1722
1722 1762 1763 1723
1723 1763 1764 1724
1724 1764 1765 1725
1725 1765 1766 1726
1726 1766 1767 1727
1727 1767 1768 1728
1728 1768 1769 1729
1729 1769 1770 1730
1730 1770 1771 1731
1731 1771 1772 1732
1732 1772 1773 1733
1733 1773 1774 1734
1734 1774 1775 1735
1735 1775 1776 1736
1736 1776 1777 1737
1737 1777 1778 1738
1738 1778 1779 1739
1739 1779 1780 1740
1740 1780 1781 1741
1741 1781 1782 1742
1742 1782 1783 1743
1743 1783 1784 1744
1744 1784 1785 1745
1745 1785 1786 1746
1746 1786 1787 1747
1747 1787 1788 1748
1748 1788 1789 1749
1749 1789 1790 1750
1750 1790 1791 1751
1751 1791 1792 1752
1752 1792 1793 1753
1753 1793 1794 1754
1754 1794 1795 1755
1755 1795 1796 1756
1756 1796 1797 1757
1757 1797 121 120
44 45 1798 1758
1758 1798 1799 1759
1759 1799 1800 1760
1760 1800 1801 1761
1761 1801 1802 1762
1762 1802 1803 1763
1763 1803 1804 1764
1764 1804 1805 1765
1765 1805 1806 1766
1766 1806 1807 1767
1767 1807 1808 1768
1768 1808 1809 1769
1769 1809 1810 1770
1770 1810 1811 1771
1771 1811 1812 1772
1772 1812 1813 1773
1773 1813 1814 1774
1774 1814 1815 1775
1775 1815 1816 1776
1776 1816 1817 1777
1777 1817 1818 1778
1778 1818 1819 1779
1779 1819 1820 1780
1780 1820 1821 1781
1781 1821 1822 1782
1782 1822 1823 1783
1783 1823 1824 1784
1784 1824 1825 1785
1785 1825 1826 1786
1786 1826 1827 1787
1787 1827 1828 1788
1788 1828 1829 1789
1789 1829 1830 1790
1790 1830 1831 1791
1791 1831 1832 1792
1792 1832 1833 1793
1793 1833 1834 1794
1794 1834 1835 1795
1795 1835 1836 1796
1796 1836 1837 1797
1797 1837 122 121
45 46 1838 1798
1798 1838 1839 1799
1799 1839 1840 1800
1800 1840 1841 1801
1801 1841 1842 1802
1802 1842 1843 1803
1803 1843 1844 1804
1804 1844 1845 1805
1805 1845 1846 1806
1806 1846 1847 1807
1807 1847 1848 1808
1808 1848 1849 1809
1809 1849 1850 1810
1810 1850 1851 1811
1811 1851 1852 1812
1812 1852 1853 1813
1813 1853 1854 1814
1814 1854 1855 1815
1815 1855 1856 1816
1816 1856 1857 1817
1817 1857 1858 1818
1818 1858 1859 1819
1819 1859 1860 1820
1820 1860 1861 1821
1821 1861 1862 1822
1822 1862 1863 1823
1823 1863 1864 1824
1824 1864 1865 1825
1825 1865 1866 1826
1826 1866 1867 1827
1827 1867 1868 1828
1828 1868 1869 1829
1829 1869 1870 1830
1830 1870 1871 1831
1831 1871 1872 1832
1832 1872 1873 1833
1833 1873 1874 1834
1834 1874 1875 1835
1835 1875 1876 1836
1836 1876 1877 1837
1837 1877 123 122
46 47 1878 1838
1838 1878 1879 1839
1839 1879 1880 1840
1840 1880 1881 1841
1841 1881 1882 1842
1842 1882 1883 1843
1843 1883 1884 1844
1844 1884 1885 1845
1845 1885 1886 1846
1846 1886 1887 1847
1847 1887 1888 1848
1848 1888 1889 1849
1849 1889 1890 1850
1850 1890 1891 1851
1851 1891 1892 1852
1852 1892 1893 1853
1853 1893 1894 1854
1854 1894 1895 1855
1855 1895 1896 1856
1856 1896 1897 1857
1857 1897 1898 1858
1858 1898 1899 1859
1859 1899 1900 1860
1860 1900 1901 1861
1861 1901 1902 1862
1862 1902 1903 1863
1863 1903 1904 1864
1864 1904 1905 1865
1865 1905 1906 1866
1866 1906 1907 1867
1867 1907 1908 1868
1868 1908 1909 1869
1869 1909 1910 1870
1870 1910 1911 1871
1871 1911 1912 1872
1872 1912 1913 1873
1873 1913 1914 1874
1874 1914 1915 1875
1875 1915 1916 1876
1876 1916 1917 1877
1877 1917 124 123
47 48 1918 1878
1878 1918 1919 1879
1879 1919 1920 1880
1880 1920 1921 1881
1881 1921 1922 1882
1882 1922 1923 1883
1883 1923 1924 1884
1884 1924 1925 1885
1885 1925 1926 1886
1886 1926 1927 1887
1887 1927 1928 1888
1888 1928 1929 1889
1889 1929 1930 1890
1890 1930 1931 1891
1891 1931 1932 1892
1892 1932 1933 1893
1893 1933 1934 1894
1894 1934 1935 1895
1895 1935 1936 1896
1896 1936 1937 1897
1897 1937 1938 1898
1898 1938 1939 1899
1899 1939 1940 1900
1900 1940 1941 1901
1901 1941 1942 1902
1902 1942 1943 1903
1903 1943 1944 1904
1904 1944 1945 1905
1905 1945 1946 1906
1906 1946 1947 1907
1907 1947 1948 1908
1908 1948 1949 1909
1909 1949 1950 1910
1910 1950 1951 1911
1911 1951 1952 1912
1912 1952 1953 1913
1913 1953 1954 1914
1914 1954 1955 1915
1915 1955 1956 1916
1916 1956 1957 1917
1917 1957 125 124
48 49 1958 1918
1918 1958 1959 1919
1919 1959 1960 1920
1920 1960 1961 1921
1921 1961 1962 1922
1922 1962 1963 1923
1923 1963 1964 1924
1924 1964 1965 1925
1925 1965 1966 1926
1926 1966 1967 1927
1927 1967 1968 1928
1928 1968 1969 1929
1929 1969 1970 1930
1930 1970 1971 1931
1931 1971 1972 1932
1932 1972 1973 1933
1933 1973 1974 1934
1934 1974 1975 1935
1935 1975 1976 1936
1936 1976 1977 1937
1937 1977 1978 1938
1938 1978 1979 1939
1939 1979 1980 1940
1940 1980 1981 1941
1941 1981 1982 1942
1942 1982 1983 1943
1943 1983 1984 1944
1944 1984 1985 1945
1945 1985 1986 1946
1946 1986 1987 1947
1947 1987 1988 1948
1948 1988 1989 1949
1949 1989 1990 1950
1950 1990 1991 1951
1951 1991 1992 1952
1952 1992 1993 1953
1953 1993 1994 1954
1954 1994 1995 1955
1955 1995 1996 1956
1956 1996 1997 1957
1957 1997 126 125
49 1 1998 1958
1958 1998 1999 1959
1959 1999 2000 1960
1960 2000 2001 1961
1961 2001 2002 1962
1962 2002 2003 1963
1963 2003 2004 1964
1964 2004 2005 1965
1965 2005 2006 1966
1966 2006 2007 1967
1967 2007 2008 1968
1968 2008 2009 1969
1969 2009 2010 1970
1970 2010 2011 1971
1971 2011 2012 1972
1972 2012 2013 1973
1973 2013 2014 1974
1974 2014 2015 1975
1975 2015 2016 1976
1976 2016 2017 1977
1977 2017 2018 1978
1978 2018 2019 1979
1979 2019 2020 1980
1980 2020 2021 1981
1981 2021 2022 1982
1982 2022 2023 1983
1983 2023 2024 1984
1984 2024 2025 1985
1985 2025 2026 1986
1986 2026 2027 1987
1987 2027 2028 1988
1988 2028 2029 1989
1989 2029 2030 1990
1990 2030 2031 1991
1991 2031 2032 1992
1992 2032 2033 1993
1993 2033 2034 1994
1994 2034 2035 1995
1995 2035 2036 1996
1996 2036 2037 1997
1997 2037 127 126
1 50 2038 1998
1998 2038 2039 1999
1999 2039 2040 2000
2000 2040 2041 2001
2001 2041 2042 2002
2002 2042 2043 2003
2003 2043 2044 2004
2004 2044 2045 2005
2005 2045 2046 2006
2006 2046 2047 2007
2007 2047 2048 2008
2008 2048 2049 2009
2009 2049 2050 2010
2010 2050 2051 2011
2011 2051 2052 2012
2012 2052 2053 2013
2013 2053 2054 2014
2014 2054 2055 2015
2015 2055 2056 2016
2016 2056 2057 2017
2017 2057 2058 2018
2018 2058 2059 2019
2019 2059 2060 2020
2020 2060 2061 2021
2021 2061 2062 2022
2022 2062 2063 2023
2023 2063 2064 2024
2024 2064 2065 2025
2025 2065 2066 2026
2026 2066 2067 2027
2027 2067 2068 2028
2028 2068 2069 2029
2029 2069 2070 2030
2030 2070 2071 2031
2031 2071 2072 2032
2032 2072 2073 2033
2033 2073 2074 2034
2034 2074 2075 2035
2035 2075 2076 2036
2036 2076 2077 2037
2037 2077 128 127
50 51 2078 2038
2038 2078 2079 2039
2039 2079 2080 2040
2040 2080 2081 2041
2041 2081 2082 2042
2042 2082 2083 2043
2043 2083 2084 2044
2044 2084 2085 2045
2045 2085 2086 2046
2046 2086 2087 2047
2047 2087 2088 2048
2048 2088 2089 2049
2049 2089 2090 2050
2050 2090 2091 2051
2051 2091 2092 2052
2052 2092 2093 2053
2053 2093 2094 2054
2054 2094 2095 2055
2055 2095 2096 2056
2056 2096 2097 2057
2057 2097 2098 2058
2058 2098 2099 2059
2059 2099 2100 2060
2060 2100 2101 2061
2061 2101 2102 2062
2062 2102 2103 2063
2063 2103 2104 2064
2064 2104 2105 2065
2065 2105 2106 2066
2066 2106 2107 2067
2067 2107 2108 2068
2068 2108 2109 2069
2069 2109 2110 2070
2070 2110 2111 2071
2071 2111 2112 2072
2072 2112 2113 2073
2073 2113 2114 2074
2074 2114 2115 2075
2075 2115 2116 2076
2076 2116 2117 2077
2077 2117 129 128
51 52 2118 2078
2078 2118 2119 2079
2079 2119 2120 2080
2080 2120 2121 2081
2081 2121 2122 2082
2082 2122 2123 2083
2083 2123 2124 2084
2084 2124 2125 2085
2085 2125 2126 2086
2086 2126 2127 2087
2087 2127 2128 2088
2088 2128 2129 2089
2089 2129 2130 2090
2090 2130 2131 2091
2091 2131 2132 2092
2092 2132 2133 2093
2093 2133 2134 2094
2094 2134 2135 2095
2095 2135 2136 2096
2096 2136 2137 2097
2097 2137 2138 2098
2098 2138 2139 2099
2099 2139 2140 2100
2100 2140 2141 2101
2101 2141 2142 2102
2102 2142 2143 2103
2103 2143 2144 2104
2104 2144 2145 2105
2105 2145 2146 2106
2106 2146 2147 2107
2107 2147 2148 2108
2108 2148 2149 2109
2109 2149 2150 2110
2110 2150 2151 2111
2111 2151 2152 2112
2112 2152 2153 2113
2113 2153 2154 2114
2114 2154 2155 2115
2115 2155 2156 2116
2116 2156 2157 2117
2117 2157 130 129
52 53 2158 2118
2118 2158 2159 2119
2119 2159 2160 2120
2120 2160 2161 2121
2121 2161 2162 2122
2122 2162 2163 2123
2123 2163 2164 2124
2124 2164 2165 2125
2125 2165 2166 2126
2126 2166 2167 2127
2127 2167 2168 2128
2128 2168 2169 2129
2129 2169 2170 2130
2130 2170 2171 2131
2131 2171 2172 2132
2132 2172 2173 2133
2133 2173 2174 2134
2134 2174 2175 2135
2135 2175 2176 2136
2136 2176 2177 2137
2137 2177 2178 2138
2138 2178 2179 2139
2139 2179 2180 2140
2140 2180 2181 2141
2141 2181 2182 2142
2142 2182 2183 2143
2143 2183 2184 2144
2144 2184 2185 2145
2145 2185 2186 2146
2146 2186 2187 2147
2147 2187 2188 2148
2148 2188 2189 2149
2149 2189 2190 2150
2150 2190 2191 2151
2151 2191 2192 2152
2152 2192 2193 2153
2153 2193 2194 2154
2154 2194 2195 2155
2155 2195 2196 2156
2156 2196 2197 2157
2157 2197 131 130
53 54 2198 2158
2158 2198 2199 2159
2159 2199 2200 2160
2160 2200 2201 2161
2161 2201 2202 2162
2162 2202 2203 2163
2163 2203 2204 2164
2164 2204 2205 2165
2165 2205 2206 2166
2166 2206 2207 2167
2167 2207 2208 2168
2168 2208 2209 2169
2169 2209 2210 2170
2170 2210 2211 2171
2171 2211 2212 2172
2172 2212 2213 2173
2173 2213 2214 2174
2174 2214 2215 2175
2175 2215 2216 2176
2176 2216 2217 2177
2177 2217 2218 2178
2178 2218 2219 2179
2179 2219 2220 2180
2180 2220 2221 2181
2181 2221 2222 2182
2182 2222 2223 2183
2183 2223 2224 2184
2184 2224 2225 2185
2185 2225 2226 2186
2186 2226 2227 2187
2187 2227 2228 2188
2188 2228 2229 2189
2189 2229 2230 2190
2190 2230 2231 2191
2191 2231 2232 2192
2192 2232 2233 2193
2193 2233 2234 2194
2194 2234 2235 2195
2195 2235 2236 2196
2196 2236 2237 2197
2197 2237 132 131
54 55 2238 2198
2198 2238 2239 2199
2199 2239 2240 2200
2200 2240 2241 2201
2201 2241 2242 2202
2202 2242 2243 2203
2203 2243 2244 2204
2204 2244 2245 2205
2205 2245 2246 2206
2206 2246 2247 2207
2207 2247 2248 2208
2208 2248 2249 2209
2209 2249 2250 2210
2210 2250 2251 2211
2211 2251 2252 2212
2212 2252 2253 2213
2213 2253 2254 2214
2214 2254 2255 2215
2215 2255 2256 2216
2216 2256 2257 2217
2217 2257 2258 2218
2218 2258 2259 2219
2219 2259 2260 2220
2220 2260 2261 2221
2221 2261 2262 2222
2222 2262 2263 2223
2223 2263 2264 2224
2224 2264 2265 2225
2225 2265 2266 2226
2226 2266 2267 2227
2227 2267 2268 2228
2228 2268 2269 2229
2229 2269 2270 2230
2230 2270 2271 2231
2231 2271 2272 2232
2232 2272 2273 2233
2233 2273 2274 2234
2234 2274 2275 2235
2235 2275 2276 2236
2236 2276 2277 2237
2237 2277 133 132
55 56 2278 2238
2238 2278 2279 2239
2239 2279 2280 2240
2240 2280 2281 2241
2241 2281 2282 2242
2242 2282 2283 2243
2243 2283 2284 2244
2244 2284 2285 2245
2245 2285 2286 2246
2246 2286 2287 2247
2247 2287 2288 2248
2248 2288 2289 2249
2249 2289 2290 2250
2250 2290 2291 2251
2251 2291 2292 2252
2252 2292 2293 2253
2253 2293 2294 2254
2254 2294 2295 2255
2255 2295 2296 2256
2256 2296 2297 2257
2257 2297 2298 2258
2258 2298 2299 2259
2259 2299 2300 2260
2260 2300 2301 2261
2261 2301 2302 2262
2262 2302 2303 2263
2263 2303 2304 2264
2264 2304 2305 2265
2265 2305 2306 2266
2266 2306 2307 2267
2267 2307 2308 2268
2268 2308 2309 2269
2269 2309 2310 2270
2270 2310 2311 2271
2271 2311 2312 2272
2272 2312 2313 2273
2273 2313 2314 2274
2274 2314 2315 2275
2275 2315 2316 2276
2276 2316 2317 2277
2277 2317 134 133
56 57 2318 2278
2278 2318 2319 2279
2279 2319 2320 2280
2280 2320 2321 2281
2281 2321 2322 2282
2282 2322 2323 2283
2283 2323 2324 2284
2284 2324 2325 2285
2285 2325 2326 2286
2286 2326 2327 2287
2287 2327 2328 2288
2288 2328 2329 2289
2289 2329 2330 2290
2290 2330 2331 2291
2291 2331 2332 2292
2292 2332 2333 2293
2293 2333 2334 2294
2294 2334 2335 2295
2295 2335 2336 2296
2296 2336 2337 2297
2297 2337 2338 2298
2298 2338 2339 2299
2299 2339 2340 2300
2300 2340 2341 2301
2301 2341 2342 2302
2302 2342 2343 2303
2303 2343 2344 2304
2304 2344 2345 2305
2305 2345 2346 2306
2306 2346 2347 2307
2307 2347 2348 2308
2308 2348 2349 2309
2309 2349 2350 2310
2310 2350 2351 2311
2311 2351 2352 2312
2312 2352 2353 2313
2313 2353 2354 2314
2314 2354 2355 2315
2315 2355 2356 2316
2316 2356 2357 2317
2317 2357 135 134
57 58 2358 2318
2318 2358 2359 2319
2319 2359 2360 2320
2320 2360 2361 2321
2321 2361 2362 2322
2322 2362 2363 2323
2323 2363 2364 2324
2324 2364 2365 2325
2325 2365 2366 2326
2326 2366 2367 2327
2327 2367 2368 2328
2328 2368 2369 2329
2329 2369 2370 2330
2330 2370 2371 2331
2331 2371 2372 2332
2332 2372 2373 2333
2333 2373 2374 2334
2334 2374 2375 2335
2335 2375 2376 2336
2336 2376 2377 2337
2337 2377 2378 2338
2338 2378 2379 2339
2339 2379 2380 2340
2340 2380 2381 2341
2341 2381 2382 2342
2342 2382 2383 2343
2343 2383 2384 2344
2344 2384 2385 2345
2345 2385 2386 2346
2346 2386 2387 2347
2347 2387 2388 2348
2348 2388 2389 2349
2349 2389 2390 2350
2350 2390 2391 2351
2351 2391 2392 2352
2352 2392 2393 2353
2353 2393 2394 2354
2354 2394 2395 2355
2355 2395 2396 2356
2356 2396 2397 2357
2357 2397 136 135
58 59 2398 2358
2358 2398 2399 2359
2359 2399 2400 2360
2360 2400 2401 2361
2361 2401 2402 2362
2362 2402 2403 2363
2363 2403 2404 2364
2364 2404 2405 2365
2365 2405 2406 2366
2366 2406 2407 2367
2367 2407 2408 2368
2368 2408 2409 2369
2369 2409 2410 2370
2370 2410 2411 2371
2371 2411 2412 2372
2372 2412 2413 2373
2373 2413 2414 2374
2374 2414 2415 2375
2375 2415 2416 2376
2376 2416 2417 2377
2377 2417 2418 2378
2378 2418 2419 2379
2379 2419 2420 2380
2380 2420 2421 2381
2381 2421 2422 2382
2382 2422 2423 2383
2383 2423 2424 2384
2384 2424 2425 2385
2385 2425 2426 2386
2386 2426 2427 2387
2387 2427 2428 2388
2388 2428 2429 2389
2389 2429 2430 2390
2390 2430 2431 2391
2391 2431 2432 2392
2392 2432 2433 2393
2393 2433 2434 2394
2394 2434 2435 2395
2395 2435 2436 2396
2396 2436 2437 2397
2397 2437 137 136
59 60 2438 2398
2398 2438 2439 2399
2399 2439 2440 2400
2400 2440 2441 2401
2401 2441 2442 2402
2402 2442 2443 2403
2403 2443 2444 2404
2404 2444 2445 2405
2405 2445 2446 2406
2406 2446 2447 2407
2407 2447 2448 2408
2408 2448 2449 2409
2409 2449 2450 2410
2410 2450 2451 2411
2411 2451 2452 2412
2412 2452 2453 2413
2413 2453 2454 2414
2414 2454 2455 2415
2415 2455 2456 2416
2416 2456 2457 2417
2417 2457 2458 2418
2418 2458 2459 2419
2419 2459 2460 2420
2420 2460 2461 2421
2421 2461 2462 2422
2422 2462 2463 2423
2423 2463 2464 2424
2424 2464 2465 2425
2425 2465 2466 2426
2426 2466 2467 2427
2427 2467 2468 2428
2428 2468 2469 2429
2429 2469 2470 2430
2430 2470 2471 2431
2431 2471 2472 2432
2432 2472 2473 2433
2433 2473 2474 2434
2434 2474 2475 2435
2435 2475 2476 2436
2436 2476 2477 2437
2437 2477 138 137
60 61 2478 2438
2438 2478 2479 2439
2439 2479 2480 2440
2440 2480 2481 2441
2441 2481 2482 2442
2442 2482 2483 2443
2443 2483 2484 2444
2444 2484 2485 2445
2445 2485 2486 2446
2446 2486 2487 2447
2447 2487 2488 2448
2448 2488 2489 2449
2449 2489 2490 2450
2450 2490 2491 2451
2451 2491 2492 2452
2452 2492 2493 2453
2453 2493 2494 2454
2454 2494 2495 2455
2455 2495 2496 2456
2456 2496 2497 2457
2457 2497 2498 2458
2458 2498 2499 2459
2459 2499 2500 2460
2460 2500 2501 2461
2461 2501 2502 2462
2462 2502 2503 2463
2463 2503 2504 2464
2464 2504 2505 2465
2465 2505 2506 2466
2466 2506 2507 2467
2467 2507 2508 2468
2468 2508 2509 2469
2469 2509 2510 2470
2470 2510 2511 2471
2471 2511 2512 2472
2472 2512 2513 2473
2473 2513 2514 2474
2474 2514 2515 2475
2475 2515 2516 2476
2476 2516 2517 2477
2477 2517 139 138
61 62 2518 2478
2478 2518 2519 2479
2479 2519 2520 2480
2480 2520 2521 2481
2481 2521 2522 2482
2482 2522 2523 2483
2483 2523 2524 2484
2484 2524 2525 2485
2485 2525 2526 2486
2486 2526 2527 2487
2487 2527 2528 2488
2488 2528 2529 2489
2489 2529 2530 2490
2490 2530 2531 2491
2491 2531 2532 2492
2492 2532 2533 2493
2493 2533 2534 2494
2494 2534 2535 2495
2495 2535 2536 2496
2496 2536 2537 2497
2497 2537 2538 2498
2498 2538 2539 2499
2499 2539 2540 2500
2500 2540 2541 2501
2501 2541 2542 2502
2502 2542 2543 2503
2503 2543 2544 2504
2504 2544 2545 2505
2505 2545 2546 2506
2506 2546 2547 2507
2507 2547 2548 2508
2508 2548 2549 2509
2509 2549 2550 2510
2510 2550 2551 2511
2511 2551 2552 2512
2512 2552 2553 2513
2513 2553 2554 2514
2514 2554 2555 2515
2515 2555 2556 2516
2516 2556 2557 2517
2517 2557 140 139
62 63 2558 2518
2518 2558 2559 2519
2519 2559 2560 2520
2520 2560 2561 2521
2521 2561 2562 2522
2522 2562 2563 2523
2523 2563 2564 2524
2524 2564 2565 2525
2525 2565 2566 2526
2526 2566 2567 2527
2527 2567 2568 2528
2528 2568 2569 2529
2529 2569 2570 2530
2530 2570 2571 2531
2531 2571 2572 2532
2532 2572 2573 2533
2533 2573 2574 2534
2534 2574 2575 2535
2535 2575 2576 2536
2536 2576 2577 2537
2537 2577 2578 2538
2538 2578 2579 2539
2539 2579 2580 2540
2540 2580 2581 2541
2541 2581 2582 2542
2542 2582 2583 2543
2543 2583 2584 2544
2544 2584 2585 2545
2545 2585 2586 2546
2546 2586 2587 2547
2547 2587 2588 2548
2548 2588 2589 2549
2549 2589 2590 2550
2550 2590 2591 2551
2551 2591 2592 2552
2552 2592 2593 2553
2553 2593 2594 2554
2554 2594 2595 2555
2555 2595 2596 2556
2556 2596 2597 2557
2557 2597 141 140
63 64 2598 2558
2558 2598 2599 2559
2559 2599 2600 2560
2560 2600 2601 2561
2561 2601 2602 2562
2562 2602 2603 2563
2563 2603 2604 2564
2564 2604 2605 2565
2565 2605 2606 2566
2566 2606 2607 2567
2567 2607 2608 2568
2568 2608 2609 2569
2569 2609 2610 2570
2570 2610 2611 2571
2571 2611 2612 2572
2572 2612 2613 2573
2573 2613 2614 2574
2574 2614 2615 2575
2575 2615 2616 2576
2576 2616 2617 2577
2577 2617 2618 2578
2578 2618 2619 2579
2579 2619 2620 2580
2580 2620 2621 2581
2581 2621 2622 2582
2582 2622 2623 2583
2583 2623 2624 2584
2584 2624 2625 2585
2585 2625 2626 2586
2586 2626 2627 2587
2587 2627 2628 2588
2588 2628 2629 2589
2589 2629 2630 2590
2590 2630 2631 2591
2591 2631 2632 2592
2592 2632 2633 2593
2593 2633 2634 2594
2594 2634 2635 2595
2595 2635 2636 2596
2596 2636 2637 2597
2597 2637 142 141
64 65 2638 2598
2598 2638 2639 2599
2599 2639 2640 2600
2600 2640 2641 2601
2601 2641 2642 2602
2602 2642 2643 2603
2603 2643 2644 2604
2604 2644 2645 2605
2605 2645 2646 2606
2606 2646 2647 2607
2607 2647 2648 2608
2608 2648 2649 2609
2609 2649 2650 2610
2610 2650 2651 2611
2611 2651 2652 2612
2612 2652 2653 2613
2613 2653 2654 2614
2614 2654 2655 2615
2615 2655 2656 2616
2616 2656 2657 2617
2617 2657 2658 2618
2618 2658 2659 2619
2619 2659 2660 2620
2620 2660 2661 2621
2621 2661 2662 2622
2622 2662 2663 2623
2623 2663 2664 2624
2624 2664 2665 2625
2625 2665 2666 2626
2626 2666 2667 2627
2627 2667 2668 2628
2628 2668 2669 2629
2629 2669 2670 2630
2630 2670 2671 2631
2631 2671 2672 2632
2632 2672 2673 2633
2633 2673 2674 2634
2634 2674 2675 2635
2635 2675 2676 2636
2636 2676 2677 2637
2637 2677 143 142
65 66 2678 2638
2638 2678 2679 2639
2639 2679 2680 2640
2640 2680 2681 2641
2641 2681 2682 2642
2642 2682 2683 2643
2643 2683 2684 2644
2644 2684 2685 2645
2645 2685 2686 2646
2646 2686 2687 2647
2647 2687 2688 2648
2648 2688 2689 2649
2649 2689 2690 2650
2650 2690 2691 2651
2651 2691 2692 2652
2652 2692 2693 2653
2653 2693 2694 2654
2654 2694 2695 2655
2655 2695 2696 2656
2656 2696 2697 2657
2657 2697 2698 2658
2658 2698 2699 2659
2659 2699 2700 2660
2660 2700 2701 2661
2661 2701 2702 2662
2662 2702 2703 2663
2663 2703 2704 2664
2664 2704 2705 2665
2665 2705 2706 2666
2666 2706 2707 2667
2667 2707 2708 2668
2668 2708 2709 2669
2669 2709 2710 2670
2670 2710 2711 2671
2671 2711 2712 2672
2672 2712 2713 2673
2673 2713 2714 2674
2674 2714 2715 2675
2675 2715 2716 2676
2676 2716 2717 2677
2677 2717 144 143
66 67 2718 2678
2678 2718 2719 2679
2679 2719 2720 2680
2680 2720 2721 2681
2681 2721 2722 2682
2682 2722 2723 2683
2683 2723 2724 2684
2684 2724 2725 2685
2685 2725 2726 2686
2686 2726 2727 2687
2687 2727 2728 2688
2688 2728 2729 2689
2689 2729 2730 2690
2690 2730 2731 2691
2691 2731 2732 2692
2692 2732 2733 2693
2693 2733 2734 2694
2694 2734 2735 2695
2695 2735 2736 2696
2696 2736 2737 2697
2697 2737 2738 2698
2698 2738 2739 2699
2699 2739 2740 2700
2700 2740 2741 2701
2701 2741 2742 2702
2702 2742 2743 2703
2703 2743 2744 2704
2704 2744 2745 2705
2705 2745 2746 2706
2706 2746 2747 2707
2707 2747 2748 2708
2708 2748 2749 2709
2709 2749 2750 2710
2710 2750 2751 2711
2711 2751 2752 2712
2712 2752 2753 2713
2713 2753 2754 2714
2714 2754 2755 2715
2715 2755 2756 2716
2716 2756 2757 2717
2717 2757 145 144
67 68 2758 2718
2718 2758 2759 2719
2719 2759 2760 2720
2720 2760 2761 2721
2721 2761 2762 2722
2722 2762 2763 2723
2723 2763 2764 2724
2724 2764 2765 2725
2725 2765 2766 2726
2726 2766 2767 2727
2727 2767 2768 2728
2728 2768 2769 2729
2729 2769 2770 2730
2730 2770 2771 2731
2731 2771 2772 2732
2732 2772 2773 2733
2733 2773 2774 2734
2734 2774 2775 2735
2735 2775 2776 2736
2736 2776 2777 2737
2737 2777 2778 2738
2738 2778 2779 2739
2739 2779 2780 2740
2740 2780 2781 2741
2741 2781 2782 2742
2742 2782 2783 2743
2743 2783 2784 2744
2744 2784 2785 2745
2745 2785 2786 2746
2746 2786 2787 2747
2747 2787 2788 2748
2748 2788 2789 2749
2749 2789 2790 2750
2750 2790 2791 2751
2751 2791 2792 2752
2752 2792 2793 2753
2753 2793 2794 2754
2754 2794 2795 2755
2755 2795 2796 2756
2756 2796 2797 2757
2757 2797 146 145
68 69 2798 2758
2758 2798 2799 2759
2759 2799 2800 2760
2760 2800 2801 2761
2761 2801 2802 2762
2762 2802 2803 2763
2763 2803 2804 2764
2764 2804 2805 2765
2765 2805 2806 2766
2766 2806 2807 2767
2767 2807 2808 2768
2768 2808 2809 2769
2769 2809 2810 2770
2770 2810 2811 2771
2771 2811 2812 2772
2772 2812 2813 2773
2773 2813 2814 2774
2774 2814 2815 2775
2775 2815 2816 2776
2776 2816 2817 2777
2777 2817 2818 2778
2778 2818 2819 2779
2779 2819 2820 2780
2780 2820 2821 2781
2781 2821 2822 2782
2782 2822 2823 2783
2783 2823 2824 2784
2784 2824 2825 2785
2785 2825 2826 2786
2786 2826 2827 2787
2787 2827 2828 2788
2788 2828 2829 2789
2789 2829 2830 2790
2790 2830 2831 2791
2791 2831 2832 2792
2792 2832 2833 2793
2793 2833 2834 2794
2794 2834 2835 2795
2795 2835 2836 2796
2796 2836 2837 2797
2797 2837 5 146
69 70 2838 2798
2798 2838 2839 2799
2799 2839 2840 2800
2800 2840 2841 2801
2801 2841 2842 2802
2802 2842 2843 2803
2803 2843 2844 2804
2804 2844 2845 2805
2805 2845 2846 2806
2806 2846 2847 2807
2807 2847 2848 2808
2808 2848 2849 2809
2809 2849 2850 2810
2810 2850 2851 2811
2811 2851 2852 2812
2812 2852 2853 2813
2813 2853 2854 2814
2814 2854 2855 2815
2815 2855 2856 2816
2816 2856 2857 2817
2817 2857 2858 2818
2818 2858 2859 2819
2819 2859 2860 2820
2820 2860 2861 2821
2821 2861 2862 2822
2822 2862 2863 2823
2823 2863 2864 2824
2824 2864 2865 2825
2825 2865 2866 2826
2826 2866 2867 2827
2827 2867 2868 2828
2828 2868 2869 2829
2829 2869 2870 2830
2830 2870 2871 2831
2831 2871 2872 2832
2832 2872 2873 2833
2833 2873 2874 2834
2834 2874 2875 2835
2835 2875 2876 2836
2836 2876 2877 2837
2837 2877 147 5
70 71 2878 2838
2838 2878 2879 2839
2839 2879 2880 2840
2840 2880 2881 2841
2841 2881 2882 2842
2842 2882 2883 2843
2843 2883 2884 2844
2844 2884 2885 2845
2845 2885 2886 2846
2846 2886 2887 2847
2847 2887 2888 2848
2848 2888 2889 2849
2849 2889 2890 2850
2850 2890 2891 2851
2851 2891 2892 2852
2852 2892 2893 2853
2853 2893 2894 2854
2854 2894 2895 2855
2855 2895 2896 2856
2856 2896 2897 2857
2857 2897 2898 2858
2858 2898 2899 2859
2859 2899 2900 2860
2860 2900 2901 2861
2861 2901 2902 2862
2862 2902 2903 2863
2863 2903 2904 2864
2864 2904 2905 2865
2865 2905 2906 2866
2866 2906 2907 2867
2867 2907 2908 2868
2868 2908 2909 2869
2869 2909 2910 2870
2870 2910 2911 2871
2871 2911 2912 2872
2872 2912 2913 2873
2873 2913 2914 2874
2874 2914 2915 2875
2875 2915 2916 2876
2876 2916 2917 2877
2877 2917 148 147
71 72 2918 2878
2878 2918 2919 2879
2879 2919 2920 2880
2880 2920 2921 2881
2881 2921 2922 2882
2882 2922 2923 2883
2883 2923 2924 2884
2884 2924 2925 2885
2885 2925 2926 2886
2886 2926 2927 2887
2887 2927 2928 2888
2888 2928 2929 2889
2889 2929 2930 2890
2890 2930 2931 2891
2891 2931 2932 2892
2892 2932 2933 2893
2893 2933 2934 2894
2894 2934 2935 2895
2895 2935 2936 2896
2896 2936 2937 2897
2897 2937 2938 2898
2898 2938 2939 2899
2899 2939 2940 2900
2900 2940 2941 2901
2901 2941 2942 2902
2902 2942 2943 2903
2903 2943 2944 2904
2904 2944 2945 2905
2905 2945 2946 2906
2906 2946 2947 2907
2907 2947 2948 2908
2908 2948 2949 2909
2909 2949 2950 2910
2910 2950 2951 2911
2911 2951 2952 2912
2912 2952 2953 2913
2913 2953 2954 2914
2914 2954 2955 2915
2915 2955 2956 2916
2916 2956 2957 2917
2917 2957 149 148
72 73 2958 2918
2918 2958 2959 2919
2919 2959 2960 2920
2920 2960 2961 2921
2921 2961 2962 2922
2922 2962 2963 2923
2923 2963 2964 2924
2924 2964 2965 2925
2925 2965 2966 2926
2926 2966 2967 2927
2927 2967 2968 2928
2928 2968 2969 2929
2929 2969 2970 2930
2930 2970 2971 2931
2931 2971 2972 2932
2932 2972 2973 2933
2933 2973 2974 2934
2934 2974 2975 2935
2935 2975 2976 2936
2936 2976 2977 2937
2937 2977 2978 2938
2938 2978 2979 2939
2939 2979 2980 2940
2940 2980 2981 2941
2941 2981 2982 2942
2942 2982 2983 2943
2943 2983 2984 2944
2944 2984 2985 2945
2945 2985 2986 2946
2946 2986 2987 2947
2947 2987 2988 2948
2948 2988 2989 2949
2949 2989 2990 2950
2950 2990 2991 2951
2951 2991 2992 2952
2952 2992 2993 2953
2953 2993 2994 2954
2954 2994 2995 2955
2955 2995 2996 2956
2956 2996 2997 2957
2957 2997 150 149
73 74 2998 2958
2958 2998 2999 2959
2959 2999 3000 2960
2960 3000 3001 2961
2961 3001 3002 2962
2962 3002 3003 2963
2963 3003 3004 2964
2964 3004 3005 2965
2965 3005 3006 2966
2966 3006 3007 2967
2967 3007 3008 2968
2968 3008 3009 2969
2969 3009 3010 2970
2970 3010 3011 2971
2971 3011 3012 2972
2972 3012 3013 2973
2973 3013 3014 2974
2974 3014 3015 2975
2975 3015 3016 2976
2976 3016 3017 2977
2977 3017 3018 2978
2978 3018 3019 2979
2979 3019 3020 2980
2980 3020 3021 2981
2981 3021 3022 2982
2982 3022 3023 2983
2983 3023 3024 2984
2984 3024 3025 2985
2985 3025 3026 2986
2986 3026 3027 2987
2987 3027 3028 2988
2988 3028 3029 2989
2989 3029 3030 2990
2990 3030 3031 2991
2991 3031 3032 2992
2992 3032 3033 2993
2993 3033 3034 2994
2994 3034 3035 2995
2995 3035 3036 2996
2996 3036 3037 2997
2997 3037 151 150
74 75 3038 2998
2998 3038 3039 2999
2999 3039 3040 3000
3000 3040 3041 3001
3001 3041 3042 3002
3002 3042 3043 3003
3003 3043 3044 3004
3004 3044 3045 3005
3005 3045 3046 3006
3006 3046 3047 3007
3007 3047 3048 3008
3008 3048 3049 3009
3009 3049 3050 3010
3010 3050 3051 3011
3011 3051 3052 3012
3012 3052 3053 3013
3013 3053 3054 3014
3014 3054 3055 3015
3015 3055 3056 3016
3016 3056 3057 3017
3017 3057 3058 3018
3018 3058 3059 3019
3019 3059 3060 3020
3020 3060 3061 3021
3021 3061 3062 3022
3022 3062 3063 3023
3023 3063 3064 3024
3024 3064 3065 3025
3025 3065 3066 3026
3026 3066 3067 3027
3027 3067 3068 3028
3028 3068 3069 3029
3029 3069 3070 3030
3030 3070 3071 3031
3031 3071 3072 3032
3032 3072 3073 3033
3033 3073 3074 3034
3034 3074 3075 3035
3035 3075 3076 3036
3036 3076 3077 3037
3037 3077 152 151
75 76 3078 3038
3038 3078 3079 3039
3039 3079 3080 3040
3040 3080 3081 3041
3041 3081 3082 3042
3042 3082 3083 3043
3043 3083 3084 3044
3044 3084 3085 3045
3045 3085 3086 3046
3046 3086 3087 3047
3047 3087 3088 3048
3048 3088 3089 3049
3049 3089 3090 3050
3050 3090 3091 3051
3051 3091 3092 3052
3052 3092 3093 3053
3053 3093 3094 3054
3054 3094 3095 3055
3055 3095 3096 3056
3056 3096 3097 3057
3057 3097 3098 3058
3058 3098 3099 3059
3059 3099 3100 3060
3060 3100 3101 3061
3061 3101 3102 3062
3062 3102 3103 3063
3063 3103 3104 3064
3064 3104 3105 3065
3065 3105 3106 3066
3066 3106 3107 3067
3067 3107 3108 3068
3068 3108 3109 3069
3069 3109 3110 3070
3070 3110 3111 3071
3071 3111 3112 3072
3072 3112 3113 3073
3073 3113 3114 3074
3074 3114 3115 3075
3075 3115 3116 3076
3076 3116 3117 3077
3077 3117 153 152
76 77 3118 3078
3078 3118 3119 3079
3079 3119 3120 3080
3080 3120 3121 3081
3081 3121 3122 3082
3082 3122 3123 3083
3083 3123 3124 3084
3084 3124 3125 3085
3085 3125 3126 3086
3086 3126 3127 3087
3087 3127 3128 3088
3088 3128 3129 3089
3089 3129 3130 3090
3090 3130 3131 3091
3091 3131 3132 3092
3092 3132 3133 3093
3093 3133 3134 3094
3094 3134 3135 3095
3095 3135 3136 3096
3096 3136 3137 3097
3097 3137 3138 3098
3098 3138 3139 3099
3099 3139 3140 3100
3100 3140 3141 3101
3101 3141 3142 3102
3102 3142 3143 3103
3103 3143 3144 3104
3104 3144 3145 3105
3105 3145 3146 3106
3106 3146 3147 3107
3107 3147 3148 3108
3108 3148 3149 3109
3109 3149 3150 3110
3110 3150 3151 3111
3111 3151 3152 3112
3112 3152 3153 3113
3113 3153 3154 3114
3114 3154 3155 3115
3115 3155 3156 3116
3116 3156 3157 3117
3117 3157 154 153
77 78 3158 3118
3118 3158 3159 3119
3119 3159 3160 3120
3120 3160 3161 3121
3121 3161 3162 3122
3122 3162 3163 3123
3123 3163 3164 3124
3124 3164 3165 3125
3125 3165 3166 3126
3126 3166 3167 3127
3127 3167 3168 3128
3128 3168 3169 3129
3129 3169 3170 3130
3130 3170 3171 3131
3131 3171 3172 3132
3132 3172 3173 3133
3133 3173 3174 3134
3134 3174 3175 3135
3135 3175 3176 3136
3136 3176 3177 3137
3137 3177 3178 3138
3138 3178 3179 3139
3139 3179 3180 3140
3140 3180 3181 3141
3141 3181 3182 3142
3142 3182 3183 3143
3143 3183 3184 3144
3144 3184 3185 3145
3145 3185 3186 3146
3146 3186 3187 3147
3147 3187 3188 3148
3148 3188 3189 3149
3149 3189 3190 3150
3150 3190 3191 3151
3151 3191 3192 3152
3152 3192 3193 3153
3153 3193 3194 3154
3154 3194 3195 3155
3155 3195 3196 3156
3156 3196 3197 3157
3157 3197 155 154
78 79 3198 3158
3158 3198 3199 3159
3159 3199 3200 3160
3160 3200 3201 3161
3161 3201 3202 3162
3162 3202 3203 3163
3163 3203 3204 3164
3164 3204 3205 3165
3165 3205 3206 3166
3166 3206 3207 3167
3167 3207 3208 3168
3168 3208 3209 3169
3169 3209 3210 3170
3170 3210 3211 3171
3171 3211 3212 3172
3172 3212 3213 3173
3173 3213 3214 3174
3174 3214 3215 3175
3175 3215 3216 3176
3176 3216 3217 3177
3177 3217 3218 3178
3178 3218 3219 3179
3179 3219 3220 3180
3180 3220 3221 3181
3181 3221 3222 3182
3182 3222 3223 3183
3183 3223 3224 3184
3184 3224 3225 3185
3185 3225 3226 3186
3186 3226 3227 3187
3187 3227 3228 3188
3188 3228 3229 3189
3189 3229 3230 3190
3190 3230 3231 3191
3191 3231 3232 3192
3192 3232 3233 3193
3193 3233 3234 3194
3194 3234 3235 3195
3195 3235 3236 3196
3196 3236 3237 3197
3197 3237 156 155
79 80 3238 3198
3198 3238 3239 3199
3199 3239 3240 3200
3200 3240 3241 3201
3201 3241 3242 3202
3202 3242 3243 3203
3203 3243 3244 3204
3204 3244 3245 3205
3205 3245 3246 3206
3206 3246 3247 3207
3207 3247 3248 3208
3208 3248 3249 3209
3209 3249 3250 3210
3210 3250 3251 3211
3211 3251 3252 3212
3212 3252 3253 3213
3213 3253 3254 3214
3214 3254 3255 3215
3215 3255 3256 3216
3216 3256 3257 3217
3217 3257 3258 3218
3218 3258 3259 3219
3219 3259 3260 3220
3220 3260 3261 3221
3221 3261 3262 3222
3222 3262 3263 3223
3223 3263 3264 3224
3224 3264 3265 3225
3225 3265 3266 3226
3226 3266 3267 3227
3227 3267 3268 3228
3228 3268 3269 3229
3229 3269 3270 3230
3230 3270 3271 3231
3231 3271 3272 3232
3232 3272 3273 3233
3233 3273 3274 3234
3234 3274 3275 3235
3235 3275 3276 3236
3236 3276 3277 3237
3237 3277 157 156
80 81 3278 3238
3238 3278 3279 3239
3239 3279 3280 3240
3240 3280 3281 3241
3241 3281 3282 3242
3242 3282 3283 3243
3243 3283 3284 3244
3244 3284 3285 3245
3245 3285 3286 3246
3246 3286 3287 3247
3247 3287 3288 3248
3248 3288 3289 3249
3249 3289 3290 3250
3250 3290 3291 3251
3251 3291 3292 3252
3252 3292 3293 3253
3253 3293 3294 3254
3254 3294 3295 3255
3255 3295 3296 3256
3256 3296 3297 3257
3257 3297 3298 3258
3258 3298 3299 3259
3259 3299 3300 3260
3260 3300 3301 3261
3261 3301 3302 3262
3262 3302 3303 3263
3263 3303 3304 3264
3264 3304 3305 3265
3265 3305 3306 3266
3266 3306 3307 3267
3267 3307 3308 3268
3268 3308 3309 3269
3269 3309 3310 3270
3270 3310 3311 3271
3271 3311 3312 3272
3272 3312 3313 3273
3273 3313 3314 3274
3274 3314 3315 3275
3275 3315 3316 3276
3276 3316 3317 3277
3277 3317 158 157
81 82 3318 3278
3278 3318 3319 3279
3279 3319 3320 3280
3280 3320 3321 3281
3281 3321 3322 3282
3282 3322 3323 3283
3283 3323 3324 3284
3284 3324 3325 3285
3285 3325 3326 3286
3286 3326 3327 3287
3287 3327 3328 3288
3288 3328 3329 3289
3289 3329 3330 3290
3290 3330 3331 3291
3291 3331 3332 3292
3292 3332 3333 3293
3293 3333 3334 3294
3294 3334 3335 3295
3295 3335 3336 3296
3296 3336 3337 3297
3297 3337 3338 3298
3298 3338 3339 3299
3299 3339 3340 3300
3300 3340 3341 3301
3301 3341 3342 3302
3302 3342 3343 3303
3303 3343 3344 3304
3304 3344 3345 3305
3305 3345 3346 3306
3306 3346 3347 3307
3307 3347 3348 3308
3308 3348 3349 3309
3309 3349 3350 3310
3310 3350 3351 3311
3311 3351 3352 3312
3312 3352 3353 3313
3313 3353 3354 3314
3314 3354 3355 3315
3315 3355 3356 3316
3316 3356 3357 3317
3317 3357 159 158
82 83 3358 3318
3318 3358 3359 3319
3319 3359 3360 3320
3320 3360 3361 3321
3321 3361 3362 3322
3322 3362 3363 3323
3323 3363 3364 3324
3324 3364 3365 3325
3325 3365 3366 3326
3326 3366 3367 3327
3327 3367 3368 3328
3328 3368 3369 3329
3329 3369 3370 3330
3330 3370 3371 3331
3331 3371 3372 3332
3332 3372 3373 3333
3333 3373 3374 3334
3334 3374 3375 3335
3335 3375 3376 3336
3336 3376 3377 3337
3337 3377 3378 3338
3338 3378 3379 3339
3339 3379 3380 3340
3340 3380 3381 3341
3341 3381 3382 3342
3342 3382 3383 3343
3343 3383 3384 3344
3344 3384 3385 3345
3345 3385 3386 3346
3346 3386 3387 3347
3347 3387 3388 3348
3348 3388 3389 3349
3349 3389 3390 3350
3350 3390 3391 3351
3351 3391 3392 3352
3352 3392 3393 3353
3353 3393 3394 3354
3354 3394 3395 3355
3355 3395 3396 3356
3356 3396 3397 3357
3357 3397 160 159
83 84 3398 3358
3358 3398 3399 3359
3359 3399 3400 3360
3360 3400 3401 3361
3361 3401 3402 3362
3362 3402 3403 3363
3363 3403 3404 3364
3364 3404 3405 3365
3365 3405 3406 3366
3366 3406 3407 3367
3367 3407 3408 3368
3368 3408 3409 3369
3369 3409 3410 3370
3370 3410 3411 3371
3371 3411 3412 3372
3372 3412 3413 3373
3373 3413 3414 3374
3374 3414 3415 3375
3375 3415 3416 3376
3376 3416 3417 3377
3377 3417 3418 3378
3378 3418 3419 3379
3379 3419 3420 3380
3380 3420 3421 3381
3381 3421 3422 3382
3382 3422 3423 3383
3383 3423 3424 3384
3384 3424 3425 3385
3385 3425 3426 3386
3386 3426 3427 3387
3387 3427 3428 3388
3388 3428 3429 3389
3389 3429 3430 3390
3390 3430 3431 3391
3391 3431 3432 3392
3392 3432 3433 3393
3393 3433 3434 3394
3394 3434 3435 3395
3395 3435 3436 3396
3396 3436 3437 3397
3397 3437 161 160
84 85 3438 3398
3398 3438 3439 3399
3399 3439 3440 3400
3400 3440 3441 3401
3401 3441 3442 3402
3402 3442 3443 3403
3403 3443 3444 3404
3404 3444 3445 3405
3405 3445 3446 3406
3406 3446 3447 3407
3407 3447 3448 3408
3408 3448 3449 3409
3409 3449 3450 3410
3410 3450 3451 3411
3411 3451 3452 3412
3412 3452 3453 3413
3413 3453 3454 3414
3414 3454 3455 3415
3415 3455 3456 3416
3416 3456 3457 3417
3417 3457 3458 3418
3418 3458 3459 3419
3419 3459 3460 3420
3420 3460 3461 3421
3421 3461 3462 3422
3422 3462 3463 3423
3423 3463 3464 3424
3424 3464 3465 3425
3425 3465 3466 3426
3426 3466 3467 3427
3427 3467 3468 3428
3428 3468 3469 3429
3429 3469 3470 3430
3430 3470 3471 3431
3431 3471 3472 3432
3432 3472 3473 3433
3433 3473 3474 3434
3434 3474 3475 3435
3435 3475 3476 3436
3436 3476 3477 3437
3437 3477 162 161
85 86 3478 3438
3438 3478 3479 3439
3439 3479 3480 3440
3440 3480 3481 3441
3441 3481 3482 3442
3442 3482 3483 3443
3443 3483 3484 3444
3444 3484 3485 3445
3445 3485 3486 3446
3446 3486 3487 3447
3447 3487 3488 3448
3448 3488 3489 3449
3449 3489 3490 3450
3450 3490 3491 3451
3451 3491 3492 3452
3452 3492 3493 3453
3453 3493 3494 3454
3454 3494 3495 3455
3455 3495 3496 3456
3456 3496 3497 3457
3457 3497 3498 3458
3458 3498 3499 3459
3459 3499 3500 3460
3460 3500 3501 3461
3461 3501 3502 3462
3462 3502 3503 3463
3463 3503 3504 3464
3464 3504 3505 3465
3465 3505 3506 3466
3466 3506 3507 3467
3467 3507 3508 3468
3468 3508 3509 3469
3469 3509 3510 3470
3470 3510 3511 3471
3471 3511 3512 3472
3472 3512 3513 3473
3473 3513 3514 3474
3474 3514 3515 3475
3475 3515 3516 3476
3476 3516 3517 3477
3477 3517 163 162
86 87 3518 3478
3478 3518 3519 3479
3479 3519 3520 3480
3480 3520 3521 3481
3481 3521 3522 3482
3482 3522 3523 3483
3483 3523 3524 3484
3484 3524 3525 3485
3485 3525 3526 3486
3486 3526 3527 3487
3487 3527 3528 3488
3488 3528 3529 3489
3489 3529 3530 3490
3490 3530 3531 3491
3491 3531 3532 3492
3492 3532 3533 3493
3493 3533 3534 3494
3494 3534 3535 3495
3495 3535 3536 3496
3496 3536 3537 3497
3497 3537 3538 3498
3498 3538 3539 3499
3499 3539 3540 3500
3500 3540 3541 3501
3501 3541 3542 3502
3502 3542 3543 3503
3503 3543 3544 3504
3504 3544 3545 3505
3505 3545 3546 3506
3506 3546 3547 3507
3507 3547 3548 3508
3508 3548 3549 3509
3509 3549 3550 3510
3510 3550 3551 3511
3511 3551 3552 3512
3512 3552 3553 3513
3513 3553 3554 3514
3514 3554 3555 3515
3515 3555 3556 3516
3516 3556 3557 3517
3517 3557 164 163
87 88 3558 3518
3518 3558 3559 3519
3519 3559 3560 3520
3520 3560 3561 3521
3521 3561 3562 3522
3522 3562 3563 3523
3523 3563 3564 3524
3524 3564 3565 3525
3525 3565 3566 3526
3526 3566 3567 3527
3527 3567 3568 3528
3528 3568 3569 3529
3529 3569 3570 3530
3530 3570 3571 3531
3531 3571 3572 3532
3532 3572 3573 3533
3533 3573 3574 3534
3534 3574 3575 3535
3535 3575 3576 3536
3536 3576 3577 3537
3537 3577 3578 3538
3538 3578 3579 3539
3539 3579 3580 3540
3540 3580 3581 3541
3541 3581 3582 3542
3542 3582 3583 3543
3543 3583 3584 3544
3544 3584 3585 3545
3545 3585 3586 3546
3546 3586 3587 3547
3547 3587 3588 3548
3548 3588 3589 3549
3549 3589 3590 3550
3550 3590 3591 3551
3551 3591 3592 3552
3552 3592 3593 3553
3553 3593 3594 3554
3554 3594 3595 3555
3555 3595 3596 3556
3556 3596 3597 3557
3557 3597 165 164
88 2 322 3558
3558 322 321 3559
3559 321 320 3560
3560 320 319 3561
3561 319 318 3562
3562 318 317 3563
3563 317 316 3564
3564 316 315 3565
3565 315 314 3566
3566 314 313 3567
3567 313 312 3568
3568 312 311 3569
3569 311 310 3570
3570 310 309 3571
3571 309 308 3572
3572 308 307 3573
3573 307 306 3574
3574 306 305 3575
3575 305 304 3576
3576 304 303 3577
3577 303 302 3578
3578 302 301 3579
3579 301 300 3580
3580 300 299 3581
3581 299 298 3582
3582 298 297 3583
3583 297 296 3584
3584 296 295 3585
3585 295 294 3586
3586 294 293 3587
3587 293 292 3588
3588 292 291 3589
3589 291 290 3590
3590 290 289 3591
3591 289 288 3592
3592 288 287 3593
3593 287 286 3594
3594 286 285 3595
3595 285 284 3596
3596 284 283 3597
3597 283 6 165
4 108 3598 380
380 3598 3599 379
379 3599 3600 378
378 3600 3601 377
377 3601 3602 376
376 3602 3603 375
375 3603 3604 374
374 3604 3605 373
373 3605 3606 372
372 3606 3607 371
371 3607 3608 370
370 3608 3609 369
369 3609 3610 368
368 3610 3611 367
367 3611 3612 366
366 3612 3613 365
365 3613 3614 364
364 3614 3615 363
363 3615 3616 362
362 3616 323 9
108 109 3617 3598
3598 3617 3618 3599
3599 3618 3619 3600
3600 3619 3620 3601
3601 3620 3621 3602
3602 3621 3622 3603
3603 3622 3623 3604
3604 3623 3624 3605
3605 3624 3625 3606
3606 3625 3626 3607
3607 3626 3627 3608
3608 3627 3628 3609
3609 3628 3629 3610
3610 3629 3630 3611
3611 3630 3631 3612
3612 3631 3632 3613
3613 3632 3633 3614
3614 3633 3634 3615
3615 3634 3635 3616
3616 3635 324 323
109 110 3636 3617
3617 3636 3637 3618
3618 3637 3638 3619
3619 3638 3639 3620
3620 3639 3640 3621
3621 3640 3641 3622
3622 3641 3642 3623
3623 3642 3643 3624
3624 3643 3644 3625
3625 3644 3645 3626
3626 3645 3646 3627
3627 3646 3647 3628
3628 3647 3648 3629
3629 3648 3649 3630
3630 3649 3650 3631
3631 3650 3651 3632
3632 3651 3652 3633
3633 3652 3653 3634
3634 3653 3654 3635
3635 3654 325 324
110 111 3655 3636
3636 3655 3656 3637
3637 3656 3657 3638
3638 3657 3658 3639
3639 3658 3659 3640
3640 3659 3660 3641
3641 3660 3661 3642
3642 3661 3662 3643
3643 3662 3663 3644
3644 3663 3664 3645
3645 3664 3665 3646
3646 3665 3666 3647
3647 3666 3667 3648
3648 3667 3668 3649
3649 3668 3669 3650
3650 3669 3670 3651
3651 3670 3671 3652
3652 3671 3672 3653
3653 3672 3673 3654
3654 3673 326 325
111 112 3674 3655
3655 3674 3675 3656
3656 3675 3676 3657
3657 3676 3677 3658
3658 3677 3678 3659
3659 3678 3679 3660
3660 3679 3680 3661
3661 3680 3681 3662
3662 3681 3682 3663
3663 3682 3683 3664
3664 3683 3684 3665
3665 3684 3685 3666
3666 3685 3686 3667
3667 3686 3687 3668
3668 3687 3688 3669
3669 3688 3689 3670
3670 3689 3690 3671
3671 3690 3691 3672
3672 3691 3692 3673
3673 3692 327 326
112 113 3693 3674
3674 3693 3694 3675
3675 3694 3695 3676
3676 3695 3696 3677
3677 3696 3697 3678
3678 3697 3698 3679
3679 3698 3699 3680
3680 3699 3700 3681
3681 3700 3701 3682
3682 3701 3702 3683
3683 3702 3703 3684
3684 3703 3704 3685
3685 3704 3705 3686
3686 3705 3706 3687
3687 3706 3707 3688
3688 3707 3708 3689
3689 3708 3709 3690
3690 3709 3710 3691
3691 3710 3711 3692
3692 3711 328 327
113 114 3712 3693
3693 3712 3713 3694
3694 3713 3714 3695
3695 3714 3715 3696
3696 3715 3716 3697
3697 3716 3717 3698
3698 3717 3718 3699
3699 3718 3719 3700
3700 3719 3720 3701
3701 3720 3721 3702
3702 3721 3722 3703
3703 3722 3723 3704
3704 3723 3724 3705
3705 3724 3725 3706
3706 3725 3726 3707
3707 3726 3727 3708
3708 3727 3728 3709
3709 3728 3729 3710
3710 3729 3730 3711
3711 3730 329 328
114 115 3731 3712
3712 3731 3732 3713
3713 3732 3733 3714
3714 3733 3734 3715
3715 3734 3735 3716
3716 3735 3736 3717
3717 3736 3737 3718
3718 3737 3738 3719
3719 3738 3739 3720
3720 3739 3740 3721
3721 3740 3741 3722
3722 3741 3742 3723
3723 3742 3743 3724
3724 3743 3744 3725
3725 3744 3745 3726
3726 3745 3746 3727
3727 3746 3747 3728
3728 3747 3748 3729
3729 3748 3749 3730
3730 3749 330 329
115 116 3750 3731
3731 3750 3751 3732
3732 3751 3752 3733
3733 3752 3753 3734
3734 3753 3754 3735
3735 3754 3755 3736
3736 3755 3756 3737
3737 3756 3757 3738
3738 3757 3758 3739
3739 3758 3759 3740
3740 3759 3760 3741
3741 3760 3761 3742
3742 3761 3762 3743
3743 3762 3763 3744
3744 3763 3764 3745
3745 3764 3765 3746
3746 3765 3766 3747
3747 3766 3767 3748
3748 3767 3768 3749
3749 3768 331 330
116 117 3769 3750
3750 3769 3770 3751
3751 3770 3771 3752
3752 3771 3772 3753
3753 3772 3773 3754
3754 3773 3774 3755
3755 3774 3775 3756
3756 3775 3776 3757
3757 3776 3777 3758
3758 3777 3778 3759
3759 3778 3779 3760
3760 3779 3780 3761
3761 3780 3781 3762
3762 3781 3782 3763
3763 3782 3783 3764
3764 3783 3784 3765
3765 3784 3785 3766
3766 3785 3786 3767
3767 3786 3787 3768
3768 3787 332 331
117 118 3788 3769
3769 3788 3789 3770
3770 3789 3790 3771
3771 3790 3791 3772
3772 3791 3792 3773
3773 3792 3793 3774
3774 3793 3794 3775
3775 3794 3795 3776
3776 3795 3796 3777
3777 3796 3797 3778
3778 3797 3798 3779
3779 3798 3799 3780
3780 3799 3800 3781
3781 3800 3801 3782
3782 3801 3802 3783
3783 3802 3803 3784
3784 3803 3804 3785
3785 3804 3805 3786
3786 3805 3806 3787
3787 3806 333 332
118 119 3807 3788
3788 3807 3808 3789
3789 3808 3809 3790
3790 3809 3810 3791
3791 3810 3811 3792
3792 3811 3812 3793
3793 3812 3813 3794
3794 3813 3814 3795
3795 3814 3815 3796
3796 3815 3816 3797
3797 3816 3817 3798
3798 3817 3818 3799
3799 3818 3819 3800
3800 3819 3820 3801
3801 3820 3821 3802
3802 3821 3822 3803
3803 3822 3823 3804
3804 3823 3824 3805
3805 3824 3825 3806
3806 3825 334 333
119 120 3826 3807
3807 3826 3827 3808
3808 3827 3828 3809
3809 3828 3829 3810
3810 3829 3830 3811
3811 3830 3831 3812
3812 3831 3832 3813
3813 3832 3833 3814
3814 3833 3834 3815
3815 3834 3835 3816
3816 3835 3836 3817
3817 3836 3837 3818
3818 3837 3838 3819
3819 3838 3839 3820
3820 3839 3840 3821
3821 3840 3841 3822
3822 3841 3842 3823
3823 3842 3843 3824
3824 3843 3844 3825
3825 3844 335 334
120 121 3845 3826
3826 3845 3846 3827
3827 3846 3847 3828
3828 3847 3848 3829
3829 3848 3849 3830
3830 3849 3850 3831
3831 3850 3851 3832
3832 3851 3852 3833
3833 3852 3853 3834
3834 3853 3854 3835
3835 3854 3855 3836
3836 3855 3856 3837
3837 3856 3857 3838
3838 3857 3858 3839
3839 3858 3859 3840
3840 3859 3860 3841
3841 3860 3861 3842
3842 3861 3862 3843
3843 3862 3863 3844
3844 3863 336 335
121 122 3864 3845
3845 3864 3865 3846
3846 3865 3866 3847
3847 3866 3867 3848
3848 3867 3868 3849
3849 3868 3869 3850
3850 3869 3870 3851
3851 3870 3871 3852
3852 3871 3872 3853
3853 3872 3873 3854
3854 3873 3874 3855
3855 3874 3875 3856
3856 3875 3876 3857
3857 3876 3877 3858
3858 3877 3878 3859
3859 3878 3879 3860
3860 3879 3880 3861
3861 3880 3881 3862
3862 3881 3882 3863
3863 3882 337 336
122 123 3883 3864
3864 3883 3884 3865
3865 3884 3885 3866
3866 3885 3886 3867
3867 3886 3887 3868
3868 3887 3888 3869
3869 3888 3889 3870
3870 3889 3890 3871
3871 3890 3891 3872
3872 3891 3892 3873
3873 3892 3893 3874
3874 3893 3894 3875
3875 3894 3895 3876
3876 3895 3896 3877
3877 3896 3897 3878
3878 3897 3898 3879
3879 3898 3899 3880
3880 3899 3900 3881
3881 3900 3901 3882
3882 3901 338 337
123 124 3902 3883
3883 3902 3903 3884
3884 3903 3904 3885
3885 3904 3905 3886
3886 3905 3906 3887
3887 3906 3907 3888
3888 3907 3908 3889
3889 3908 3909 3890
3890 3909 3910 3891
3891 3910 3911 3892
3892 3911 3912 3893
3893 3912 3913 3894
3894 3913 3914 3895
3895 3914 3915 3896
3896 3915 3916 3897
3897 3916 3917 3898
3898 3917 3918 3899
3899 3918 3919 3900
3900 3919 3920 3901
3901 3920 339 338
124 125 3921 3902
3902 3921 3922 3903
3903 3922 3923 3904
3904 3923 3924 3905
3905 3924 3925 3906
3906 3925 3926 3907
3907 3926 3927 3908
3908 3927 3928 3909
3909 3928 3929 3910
3910 3929 3930 3911
3911 3930 3931 3912
3912 3931 3932 3913
3913 3932 3933 3914
3914 3933 3934 3915
3915 3934 3935 3916
3916 3935 3936 3917
3917 3936 3937 3918
3918 3937 3938 3919
3919 3938 3939 3920
3920 3939 340 339
125 126 3940 3921
3921 3940 3941 3922
3922 3941 3942 3923
3923 3942 3943 3924
3924 3943 3944 3925
3925 3944 3945 3926
3926 3945 3946 3927
3927 3946 3947 3928
3928 3947 3948 3929
3929 3948 3949 3930
3930 3949 3950 3931
3931 3950 3951 3932
3932 3951 3952 3933
3933 3952 3953 3934
3934 3953 3954 3935
3935 3954 3955 3936
3936 3955 3956 3937
3937 3956 3957 3938
3938 3957 3958 3939
3939 3958 341 340
126 127 3959 3940
3940 3959 3960 3941
3941 3960 3961 3942
3942 3961 3962 3943
3943 3962 3963 3944
3944 3963 3964 3945
3945 3964 3965 3946
3946 3965 3966 3947
3947 3966 3967 3948
3948 3967 3968 3949
3949 3968 3969 3950
3950 3969 3970 3951
3951 3970 3971 3952
3952 3971 3972 3953
3953 3972 3973 3954
3954 3973 3974 3955
3955 3974 3975 3956
3956 3975 3976 3957
3957 3976 3977 3958
3958 3977 342 341
127 128 3978 3959
3959 3978 3979 3960
3960 3979 3980 3961
3961 3980 3981 3962
3962 3981 3982 3963
3963 3982 3983 3964
3964 3983 3984 3965
3965 3984 3985 3966
3966 3985 3986 3967
3967 3986 3987 3968
3968 3987 3988 3969
3969 3988 3989 3970
3970 3989 3990 3971
3971 3990 3991 3972
3972 3991 3992 3973
3973 3992 3993 3974
3974 3993 3994 3975
3975 3994 3995 3976
3976 3995 3996 3977
3977 3996 343 342
128 129 3997 3978
3978 3997 3998 3979
3979 3998 3999 3980
3980 3999 4000 3981
3981 4000 4001 3982
3982 4001 4002 3983
3983 4002 4003 3984
3984 4003 4004 3985
3985 4004 4005 3986
3986 4005 4006 3987
3987 4006 4007 3988
3988 4007 4008 3989
3989 4008 4009 3990
3990 4009 4010 3991
3991 4010 4011 3992
3992 4011 4012 3993
3993 4012 4013 3994
3994 4013 4014 3995
3995 4014 4015 3996
3996 4015 344 343
129 130 4016 3997
3997 4016 4017 3998
3998 4017 4018 3999
3999 4018 4019 4000
4000 4019 4020 4001
4001 4020 4021 4002
4002 4021 4022 4003
4003 4022 4023 4004
4004 4023 4024 4005
4005 4024 4025 4006
4006 4025 4026 4007
4007 4026 4027 4008
4008 4027 4028 4009
4009 4028 4029 4010
4010 4029 4030 4011
4011 4030 4031 4012
4012 4031 4032 4013
4013 4032 4033 4014
4014 4033 4034 4015
4015 4034 345 344
130 131 4035 4016
4016 4035 4036 4017
4017 4036 4037 4018
4018 4037 4038 4019
4019 4038 4039 4020
4020 4039 4040 4021
4021 4040 4041 4022
4022 4041 4042 4023
4023 4042 4043 4024
4024 4043 4044 4025
4025 4044 4045 4026
4026 4045 4046 4027
4027 4046 4047 4028
4028 4047 4048 4029
4029 4048 4049 4030
4030 4049 4050 4031
4031 4050 4051 4032
4032 4051 4052 4033
4033 4052 4053 4034
4034 4053 346 345
131 132 4054 4035
4035 4054 4055 4036
4036 4055 4056 4037
4037 4056 4057 4038
4038 4057 4058 4039
4039 4058 4059 4040
4040 4059 4060 4041
4041 4060 4061 4042
4042 4061 4062 4043
4043 4062 4063 4044
4044 4063 4064 4045
4045 4064 4065 4046
4046 4065 4066 4047
4047 4066 4067 4048
4048 4067 4068 4049
4049 4068 4069 4050
4050 4069 4070 4051
4051 4070 4071 4052
4052 4071 4072 4053
4053 4072 347 346
132 133 4073 4054
4054 4073 4074 4055
4055 4074 4075 4056
4056 4075 4076 4057
4057 4076 4077 4058
4058 4077 4078 4059
4059 4078 4079 4060
4060 4079 4080 4061
4061 4080 4081 4062
4062 4081 4082 4063
4063 4082 4083 4064
4064 4083 4084 4065
4065 4084 4085 4066
4066 4085 4086 4067
4067 4086 4087 4068
4068 4087 4088 4069
4069 4088 4089 4070
4070 4089 4090 4071
4071 4090 4091 4072
4072 4091 348 347
133 134 4092 4073
4073 4092 4093 4074
4074 4093 4094 4075
4075 4094 4095 4076
4076 4095 4096 4077
4077 4096 4097 4078
4078 4097 4098 4079
4079 4098 4099 4080
4080 4099 4100 4081
4081 4100 4101 4082
4082 4101 4102 4083
4083 4102 4103 4084
4084 4103 4104 4085
4085 4104 4105 4086
4086 4105 4106 4087
4087 4106 4107 4088
4088 4107 4108 4089
4089 4108 4109 4090
4090 4109 4110 4091
4091 4110 349 348
134 135 4111 4092
4092 4111 4112 4093
4093 4112 4113 4094
4094 4113 4114 4095
4095 4114 4115 4096
4096 4115 4116 4097
4097 4116 4117 4098
4098 4117 4118 4099
4099 4118 4119 4100
4100 4119 4120 4101
4101 4120 4121 4102
4102 4121 4122 4103
4103 4122 4123 4104
4104 4123 4124 4105
4105 4124 4125 4106
4106 4125 4126 4107
4107 4126 4127 4108
4108 4127 4128 4109
4109 4128 4129 4110
4110 4129 350 349
135 136 4130 4111
4111 4130 4131 4112
4112 4131 4132 4113
4113 4132 4133 4114
4114 4133 4134 4115
4115 4134 4135 4116
4116 4135 4136 4117
4117 4136 4137 4118
4118 4137 4138 4119
4119 4138 4139 4120
4120 4139 4140 4121
4121 4140 4141 4122
4122 4141 4142 4123
4123 4142 4143 4124
4124 4143 4144 4125
4125 4144 4145 4126
4126 4145 4146 4127
4127 4146 4147 4128
4128 4147 4148 4129
4129 4148 351 350
136 137 4149 4130
4130 4149 4150 4131
4131 4150 4151 4132
4132 4151 4152 4133
4133 4152 4153 4134
4134 4153 4154 4135
4135 4154 4155 4136
4136 4155 4156 4137
4137 4156 4157 4138
4138 4157 4158 4139
4139 4158 4159 4140
4140 4159 4160 4141
4141 4160 4161 4142
4142 4161 4162 4143
4143 4162 4163 4144
4144 4163 4164 4145
4145 4164 4165 4146
4146 4165 4166 4147
4147 4166 4167 4148
4148 4167 352 351
137 138 4168 4149
4149 4168 4169 4150
4150 4169 4170 4151
4151 4170 4171 4152
4152 4171 4172 4153
4153 4172 4173 4154
4154 4173 4174 4155
4155 4174 4175 4156
4156 4175 4176 4157
4157 4176 4177 4158
4158 4177 4178 4159
4159 4178 4179 4160
4160 4179 4180 4161
4161 4180 4181 4162
4162 4181 4182 4163
4163 4182 4183 4164
4164 4183 4184 4165
4165 4184 4185 4166
4166 4185 4186 4167
4167 4186 353 352
138 139 4187 4168
4168 4187 4188 4169
4169 4188 4189 4170
4170 4189 4190 4171
4171 4190 4191 4172
4172 4191 4192 4173
4173 4192 4193 4174
4174 4193 4194 4175
4175 4194 4195 4176
4176 4195 4196 4177
4177 4196 4197 4178
4178 4197 4198 4179
4179 4198 4199 4180
4180 4199 4200 4181
4181 4200 4201 4182
4182 4201 4202 4183
4183 4202 4203 4184
4184 4203 4204 4185
4185 4204 4205 4186
4186 4205 354 353
139 140 4206 4187
4187 4206 4207 4188
4188 4207 4208 4189
4189 4208 4209 4190
4190 4209 4210 4191
4191 4210 4211 4192
4192 4211 4212 4193
4193 4212 4213 4194
4194 4213 4214 4195
4195 4214 4215 4196
4196 4215 4216 4197
4197 4216 4217 4198
4198 4217 4218 4199
4199 4218 4219 4200
4200 4219 4220 4201
4201 4220 4221 4202
4202 4221 4222 4203
4203 4222 4223 4204
4204 4223 4224 4205
4205 4224 355 354
140 141 4225 4206
4206 4225 4226 4207
4207 4226 4227 4208
4208 4227 4228 4209
4209 4228 4229 4210
4210 4229 4230 4211
4211 4230 4231 4212
4212 4231 4232 4213
4213 4232 4233 4214
4214 4233 4234 4215
4215 4234 4235 4216
4216 4235 4236 4217
4217 4236 4237 4218
4218 4237 4238 4219
4219 4238 4239 4220
4220 4239 4240 4221
4221 4240 4241 4222
4222 4241 4242 4223
4223 4242 4243 4224
4224 4243 356 355
141 142 4244 4225
4225 4244 4245 4226
4226 4245 4246 4227
4227 4246 4247 4228
4228 4247 4248 4229
4229 4248 4249 4230
4230 4249 4250 4231
4231 4250 4251 4232
4232 4251 4252 4233
4233 4252 4253 4234
4234 4253 4254 4235
4235 4254 4255 4236
4236 4255 4256 4237
4237 4256 4257 4238
4238 4257 4258 4239
4239 4258 4259 4240
4240 4259 4260 4241
4241 4260 4261 4242
4242 4261 4262 4243
4243 4262 357 356
142 143 4263 4244
4244 4263 4264 4245
4245 4264 4265 4246
4246 4265 4266 4247
4247 4266 4267 4248
4248 4267 4268 4249
4249 4268 4269 4250
4250 4269 4270 4251
4251 4270 4271 4252
4252 4271 4272 4253
4253 4272 4273 4254
4254 4273 4274 4255
4255 4274 4275 4256
4256 4275 4276 4257
4257 4276 4277 4258
4258 4277 4278 4259
4259 4278 4279 4260
4260 4279 4280 4261
4261 4280 4281 4262
4262 4281 358 357
143 144 4282 4263
4263 4282 4283 4264
4264 4283 4284 4265
4265 4284 4285 4266
4266 4285 4286 4267
4267 4286 4287 4268
4268 4287 4288 4269
4269 4288 4289 4270
4270 4289 4290 4271
4271 4290 4291 4272
4272 4291 4292 4273
4273 4292 4293 4274
4274 4293 4294 4275
4275 4294 4295 4276
4276 4295 4296 4277
4277 4296 4297 4278
4278 4297 4298 4279
4279 4298 4299 4280
4280 4299 4300 4281
4281 4300 359 358
144 145 4301 4282
4282 4301 4302 4283
4283 4302 4303 4284
4284 4303 4304 4285
4285 4304 4305 4286
4286 4305 4306 4287
4287 4306 4307 4288
4288 4307 4308 4289
4289 4308 4309 4290
4290 4309 4310 4291
4291 4310 4311 4292
4292 4311 4312 4293
4293 4312 4313 4294
4294 4313 4314 4295
4295 4314 4315 4296
4296 4315 4316 4297
4297 4316 4317 4298
4298 4317 4318 4299
4299 4318 4319 4300
4300 4319 360 359
145 146 4320 4301
4301 4320 4321 4302
4302 4321 4322 4303
4303 4322 4323 4304
4304 4323 4324 4305
4305 4324 4325 4306
4306 4325 4326 4307
4307 4326 4327 4308
4308 4327 4328 4309
4309 4328 4329 4310
4310 4329 4330 4311
4311 4330 4331 4312
4312 4331 4332 4313
4313 4332 4333 4314
4314 4333 4334 4315
4315 4334 4335 4316
4316 4335 4336 4317
4317 4336 4337 4318
4318 4337 4338 4319
4319 4338 361 360
146 5 399 4320
4320 399 398 4321
4321 398 397 4322
4322 397 396 4323
4323 396 395 4324
4324 395 394 4325
4325 394 393 4326
4326 393 392 4327
4327 392 391 4328
4328 391 390 4329
4329 390 389 4330
4330 389 388 4331
4331 388 387 4332
4332 387 386 4333
4333 386 385 4334
4334 385 384 4335
4335 384 383 4336
4336 383 382 4337
4337 382 381 4338
4338 381 10 361
3 89 4339 166
166 4339 4340 167
167 4340 4341 168
168 4341 4342 169
169 4342 4343 170
170 4343 4344 171
171 4344 4345 172
172 4345 4346 173
173 4346 4347 174
174 4347 4348 175
175 4348 4349 176
176 4349 4350 177
177 4350 4351 178
178 4351 4352 179
179 4352 4353 180
180 4353 4354 181
181 4354 4355 182
182 4355 4356 183
183 4356 4357 184
184 4357 418 7
89 90 4358 4339
4339 4358 4359 4340
4340 4359 4360 4341
4341 4360 4361 4342
4342 4361 4362 4343
4343 4362 4363 4344
4344 4363 4364 4345
4345 4364 4365 4346
4346 4365 4366 4347
4347 4366 4367 4348
4348 4367 4368 4349
4349 4368 4369 4350
4350 4369 4370 4351
4351 4370 4371 4352
4352 4371 4372 4353
4353 4372 4373 4354
4354 4373 4374 4355
4355 4374 4375 4356
4356 4375 4376 4357
4357 4376 417 418
90 91 4377 4358
4358 4377 4378 4359
4359 4378 4379 4360
4360 4379 4380 4361
4361 4380 4381 4362
4362 4381 4382 4363
4363 4382 4383 4364
4364 4383 4384 4365
4365 4384 4385 4366
4366 4385 4386 4367
4367 4386 4387 4368
4368 4387 4388 4369
4369 4388 4389 4370
4370 4389 4390 4371
4371 4390 4391 4372
4372 4391 4392 4373
4373 4392 4393 4374
4374 4393 4394 4375
4375 4394 4395 4376
4376 4395 416 417
91 92 4396 4377
4377 4396 4397 4378
4378 4397 4398 4379
4379 4398 4399 4380
4380 4399 4400 4381
4381 4400 4401 4382
4382 4401 4402 4383
4383 4402 4403 4384
4384 4403 4404 4385
4385 4404 4405 4386
4386 4405 4406 4387
4387 4406 4407 4388
4388 4407 4408 4389
4389 4408 4409 4390
4390 4409 4410 4391
4391 4410 4411 4392
4392 4411 4412 4393
4393 4412 4413 4394
4394 4413 4414 4395
4395 4414 415 416
92 93 4415 4396
4396 4415 4416 4397
4397 4416 4417 4398
4398 4417 4418 4399
4399 4418 4419 4400
4400 4419 4420 4401
4401 4420 4421 4402
4402 4421 4422 4403
4403 4422 4423 4404
4404 4423 4424 4405
4405 4424 4425 4406
4406 4425 4426 4407
4407 4426 4427 4408
4408 4427 4428 4409
4409 4428 4429 4410
4410 4429 4430 4411
4411 4430 4431 4412
4412 4431 4432 4413
4413 4432 4433 4414
4414 4433 414 415
93 94 4434 4415
4415 4434 4435 4416
4416 4435 4436 4417
4417 4436 4437 4418
4418 4437 4438 4419
4419 4438 4439 4420
4420 4439 4440 4421
4421 4440 4441 4422
4422 4441 4442 4423
4423 4442 4443 4424
4424 4443 4444 4425
4425 4444 4445 4426
4426 4445 4446 4427
4427 4446 4447 4428
4428 4447 4448 4429
4429 4448 4449 4430
4430 4449 4450 4431
4431 4450 4451 4432
4432 4451 4452 4433
4433 4452 413 414
94 95 4453 4434
4434 4453 4454 4435
4435 4454 4455 4436
4436 4455 4456 4437
4437 4456 4457 4438
4438 4457 4458 4439
4439 4458 4459 4440
4440 4459 4460 4441
4441 4460 4461 4442
4442 4461 4462 4443
4443 4462 4463 4444
4444 4463 4464 4445
4445 4464 4465 4446
4446 4465 4466 4447
4447 4466 4467 4448
4448 4467 4468 4449
4449 4468 4469 4450
4450 4469 4470 4451
4451 4470 4471 4452
4452 4471 412 413
95 96 4472 4453
4453 4472 4473 4454
4454 4473 4474 4455
4455 4474 4475 4456
4456 4475 4476 4457
4457 4476 4477 4458
4458 4477 4478 4459
4459 4478 4479 4460
4460 4479 4480 4461
4461 4480 4481 4462
4462 4481 4482 4463
4463 4482 4483 4464
4464 4483 4484 4465
4465 4484 4485 4466
4466 4485 4486 4467
4467 4486 4487 4468
4468 4487 4488 4469
4469 4488 4489 4470
4470 4489 4490 4471
4471 4490 411 412
96 97 4491 4472
4472 4491 4492 4473
4473 4492 4493 4474
4474 4493 4494 4475
4475 4494 4495 4476
4476 4495 4496 4477
4477 4496 4497 4478
4478 4497 4498 4479
4479 4498 4499 4480
4480 4499 4500 4481
4481 4500 4501 4482
4482 4501 4502 4483
4483 4502 4503 4484
4484 4503 4504 4485
4485 4504 4505 4486
4486 4505 4506 4487
4487 4506 4507 4488
4488 4507 4508 4489
4489 4508 4509 4490
4490 4509 410 411
97 98 4510 4491
4491 4510 4511 4492
4492 4511 4512 4493
4493 4512 4513 4494
4494 4513 4514 4495
4495 4514 4515 4496
4496 4515 4516 4497
4497 4516 4517 4498
4498 4517 4518 4499
4499 4518 4519 4500
4500 4519 4520 4501
4501 4520 4521 4502
4502 4521 4522 4503
4503 4522 4523 4504
4504 4523 4524 4505
4505 4524 4525 4506
4506 4525 4526 4507
4507 4526 4527 4508
4508 4527 4528 4509
4509 4528 409 410
98 99 4529 4510
4510 4529 4530 4511
4511 4530 4531 4512
4512 4531 4532 4513
4513 4532 4533 4514
4514 4533 4534 4515
4515 4534 4535 4516
4516 4535 4536 4517
4517 4536 4537 4518
4518 4537 4538 4519
4519 4538 4539 4520
4520 4539 4540 4521
4521 4540 4541 4522
4522 4541 4542 4523
4523 4542 4543 4524
4524 4543 4544 4525
4525 4544 4545 4526
4526 4545 4546 4527
4527 4546 4547 4528
4528 4547 408 409
99 100 4548 4529
4529 4548 4549 4530
4530 4549 4550 4531
4531 4550 4551 4532
4532 4551 4552 4533
4533 4552 4553 4534
4534 4553 4554 4535
4535 4554 4555 4536
4536 4555 4556 4537
4537 4556 4557 4538
4538 4557 4558 4539
4539 4558 4559 4540
4540 4559 4560 4541
4541 4560 4561 4542
4542 4561 4562 4543
4543 4562 4563 4544
4544 4563 4564 4545
4545 4564 4565 4546
4546 4565 4566 4547
4547 4566 407 408
100 101 4567 4548
4548 4567 4568 4549
4549 4568 4569 4550
4550 4569 4570 4551
4551 4570 4571 4552
4552 4571 4572 4553
4553 4572 4573 4554
4554 4573 4574 4555
4555 4574 4575 4556
4556 4575 4576 4557
4557 4576 4577 4558
4558 4577 4578 4559
4559 4578 4579 4560
4560 4579 4580 4561
4561 4580 4581 4562
4562 4581 4582 4563
4563 4582 4583 4564
4564 4583 4584 4565
4565 4584 4585 4566
4566 4585 406 407
101 102 4586 4567
4567 4586 4587 4568
4568 4587 4588 4569
4569 4588 4589 4570
4570 4589 4590 4571
4571 4590 4591 4572
4572 4591 4592 4573
4573 4592 4593 4574
4574 4593 4594 4575
4575 4594 4595 4576
4576 4595 4596 4577
4577 4596 4597 4578
4578 4597 4598 4579
4579 4598 4599 4580
4580 4599 4600 4581
4581 4600 4601 4582
4582 4601 4602 4583
4583 4602 4603 4584
4584 4603 4604 4585
4585 4604 405 406
102 103 4605 4586
4586 4605 4606 4587
4587 4606 4607 4588
4588 4607 4608 4589
4589 4608 4609 4590
4590 4609 4610 4591
4591 4610 4611 4592
4592 4611 4612 4593
4593 4612 4613 4594
4594 4613 4614 4595
4595 4614 4615 4596
4596 4615 4616 4597
4597 4616 4617 4598
4598 4617 4618 4599
4599 4618 4619 4600
4600 4619 4620 4601
4601 4620 4621 4602
4602 4621 4622 4603
4603 4622 4623 4604
4604 4623 404 405
103 104 4624 4605
4605 4624 4625 4606
4606 4625 4626 4607
4607 4626 4627 4608
4608 4627 4628 4609
4609 4628 4629 4610
4610 4629 4630 4611
4611 4630 4631 4612
4612 4631 4632 4613
4613 4632 4633 4614
4614 4633 4634 4615
4615 4634 4635 4616
4616 4635 4636 4617
4617 4636 4637 4618
4618 4637 4638 4619
4619 4638 4639 4620
4620 4639 4640 4621
4621 4640 4641 4622
4622 4641 4642 4623
4623 4642 403 404
104 105 4643 4624
4624 4643 4644 4625
4625 4644 4645 4626
4626 4645 4646 4627
4627 4646 4647 4628
4628 4647 4648 4629
4629 4648 4649 4630
4630 4649 4650 4631
4631 4650 4651 4632
4632 4651 4652 4633
4633 4652 4653 4634
4634 4653 4654 4635
4635 4654 4655 4636
4636 4655 4656 4637
4637 4656 4657 4638
4638 4657 4658 4639
4639 4658 4659 4640
4640 4659 4660 4641
4641 4660 4661 4642
4642 4661 402 403
105 106 4662 4643
4643 4662 4663 4644
4644 4663 4664 4645
4645 4664 4665 4646
4646 4665 4666 4647
4647 4666 4667 4648
4648 4667 4668 4649
4649 4668 4669 4650
4650 4669 4670 4651
4651 4670 4671 4652
4652 4671 4672 4653
4653 4672 4673 4654
4654 4673 4674 4655
4655 4674 4675 4656
4656 4675 4676 4657
4657 4676 4677 4658
4658 4677 4678 4659
4659 4678 4679 4660
4660 4679 4680 4661
4661 4680 401 402
106 107 4681 4662
4662 4681 4682 4663
4663 4682 4683 4664
4664 4683 4684 4665
4665 4684 4685 4666
4666 4685 4686 4667
4667 4686 4687 4668
4668 4687 4688 4669
4669 4688 4689 4670
4670 4689 4690 4671
4671 4690 4691 4672
4672 4691 4692 4673
4673 4692 4693 4674
4674 4693 4694 4675
4675 4694 4695 4676
4676 4695 4696 4677
4677 4696 4697 4678
4678 4697 4698 4679
4679 4698 4699 4680
4680 4699 400 401
107 4 380 4681
4681 380 379 4682
4682 379 378 4683
4683 378 377 4684
4684 377 376 4685
4685 376 375 4686
4686 375 374 4687
4687 374 373 4688
4688 373 372 4689
4689 372 371 4690
4690 371 370 4691
4691 370 369 4692
4692 369 368 4693
4693 368 367 4694
4694 367 366 4695
4695 366 365 4696
4696 365 364 4697
4697 364 363 4698
4698 363 362 4699
4699 362 9 400
5 147 4700 399
399 4700 4701 398
398 4701 4702 397
397 4702 4703 396
396 4703 4704 395
395 4704 4705 394
394 4705 4706 393
393 4706 4707 392
392 4707 4708 391
391 4708 4709 390
390 4709 4710 389
389 4710 4711 388
388 4711 4712 387
387 4712 4713 386
386 4713 4714 385
385 4714 4715 384
384 4715 4716 383
383 4716 4717 382
382 4717 4718 381
381 4718 419 10
147 148 4719 4700
4700 4719 4720 4701
4701 4720 4721 4702
4702 4721 4722 4703
4703 4722 4723 4704
4704 4723 4724 4705
4705 4724 4725 4706
4706 4725 4726 4707
4707 4726 4727 4708
4708 4727 4728 4709
4709 4728 4729 4710
4710 4729 4730 4711
4711 4730 4731 4712
4712 4731 4732 4713
4713 4732 4733 4714
4714 4733 4734 4715
4715 4734 4735 4716
4716 4735 4736 4717
4717 4736 4737 4718
4718 4737 420 419
148 149 4738 4719
4719 4738 4739 4720
4720 4739 4740 4721
4721 4740 4741 4722
4722 4741 4742 4723
4723 4742 4743 4724
4724 4743 4744 4725
4725 4744 4745 4726
4726 4745 4746 4727
4727 4746 4747 4728
4728 4747 4748 4729
4729 4748 4749 4730
4730 4749 4750 4731
4731 4750 4751 4732
4732 4751 4752 4733
4733 4752 4753 4734
4734 4753 4754 4735
4735 4754 4755 4736
4736 4755 4756 4737
4737 4756 421 420
149 150 4757 4738
4738 4757 4758 4739
4739 4758 4759 4740
4740 4759 4760 4741
4741 4760 4761 4742
4742 4761 4762 4743
4743 4762 4763 4744
4744 4763 4764 4745
4745 4764 4765 4746
4746 4765 4766 4747
4747 4766 4767 4748
4748 4767 4768 4749
4749 4768 4769 4750
4750 4769 4770 4751
4751 4770 4771 4752
4752 4771 4772 4753
4753 4772 4773 4754
4754 4773 4774 4755
4755 4774 4775 4756
4756 4775 422 421
150 151 4776 4757
4757 4776 4777 4758
4758 4777 4778 4759
4759 4778 4779 4760
4760 4779 4780 4761
4761 4780 4781 4762
4762 4781 4782 4763
4763 4782 4783 4764
4764 4783 4784 4765
4765 4784 4785 4766
4766 4785 4786 4767
4767 4786 4787 4768
4768 4787 4788 4769
4769 4788 4789 4770
4770 4789 4790 4771
4771 4790 4791 4772
4772 4791 4792 4773
4773 4792 4793 4774
4774 4793 4794 4775
4775 4794 423 422
151 152 4795 4776
4776 4795 4796 4777
4777 4796 4797 4778
4778 4797 4798 4779
4779 4798 4799 4780
4780 4799 4800 4781
4781 4800 4801 4782
4782 4801 4802 4783
4783 4802 4803 4784
4784 4803 4804 4785
4785 4804 4805 4786
4786 4805 4806 4787
4787 4806 4807 4788
4788 4807 4808 4789
4789 4808 4809 4790
4790 4809 4810 4791
4791 4810 4811 4792
4792 4811 4812 4793
4793 4812 4813 4794
4794 4813 424 423
152 153 4814 4795
4795 4814 4815 4796
4796 4815 4816 4797
4797 4816 4817 4798
4798 4817 4818 4799
4799 4818 4819 4800
4800 4819 4820 4801
4801 4820 4821 4802
4802 4821 4822 4803
4803 4822 4823 4804
4804 4823 4824 4805
4805 4824 4825 4806
4806 4825 4826 4807
4807 4826 4827 4808
4808 4827 4828 4809
4809 4828 4829 4810
4810 4829 4830 4811
4811 4830 4831 4812
4812 4831 4832 4813
4813 4832 425 424
153 154 4833 4814
4814 4833 4834 4815
4815 4834 4835 4816
4816 4835 4836 4817
4817 4836 4837 4818
4818 4837 4838 4819
4819 4838 4839 4820
4820 4839 4840 4821
4821 4840 4841 4822
4822 4841 4842 4823
4823 4842 4843 4824
4824 4843 4844 4825
4825 4844 4845 4826
4826 4845 4846 4827
4827 4846 4847 4828
4828 4847 4848 4829
4829 4848 4849 4830
4830 4849 4850 4831
4831 4850 4851 4832
4832 4851 426 425
154 155 4852 4833
4833 4852 4853 4834
4834 4853 4854 4835
4835 4854 4855 4836
4836 4855 4856 4837
4837 4856 4857 4838
4838 4857 4858 4839
4839 4858 4859 4840
4840 4859 4860 4841
4841 4860 4861 4842
4842 4861 4862 4843
4843 4862 4863 4844
4844 4863 4864 4845
4845 4864 4865 4846
4846 4865 4866 4847
4847 4866 4867 4848
4848 4867 4868 4849
4849 4868 4869 4850
4850 4869 4870 4851
4851 4870 427 426
155 156 4871 4852
4852 4871 4872 4853
4853 4872 4873 4854
4854 4873 4874 4855
4855 4874 4875 4856
4856 4875 4876 4857
4857 4876 4877 4858
4858 4877 4878 4859
4859 4878 4879 4860
4860 4879 4880 4861
4861 4880 4881 4862
4862 4881 4882 4863
4863 4882 4883 4864
4864 4883 4884 4865
4865 4884 4885 4866
4866 4885 4886 4867
4867 4886 4887 4868
4868 4887 4888 4869
4869 4888 4889 4870
4870 4889 428 427
156 157 4890 4871
4871 4890 4891 4872
4872 4891 4892 4873
4873 4892 4893 4874
4874 4893 4894 4875
4875 4894 4895 4876
4876 4895 4896 4877
4877 4896 4897 4878
4878 4897 4898 4879
4879 4898 4899 4880
4880 4899 4900 4881
4881 4900 4901 4882
4882 4901 4902 4883
4883 4902 4903 4884
4884 4903 4904 4885
4885 4904 4905 4886
4886 4905 4906 4887
4887 4906 4907 4888
4888 4907 4908 4889
4889 4908 429 428
157 158 4909 4890
4890 4909 4910 4891
4891 4910 4911 4892
4892 4911 4912 4893
4893 4912 4913 4894
4894 4913 4914 4895
4895 4914 4915 4896
4896 4915 4916 4897
4897 4916 4917 4898
4898 4917 4918 4899
4899 4918 4919 4900
4900 4919 4920 4901
4901 4920 4921 4902
4902 4921 4922 4903
4903 4922 4923 4904
4904 4923 4924 4905
4905 4924 4925 4906
4906 4925 4926 4907
4907 4926 4927 4908
4908 4927 430 429
158 159 4928 4909
4909 4928 4929 4910
4910 4929 4930 4911
4911 4930 4931 4912
4912 4931 4932 4913
4913 4932 4933 4914
4914 4933 4934 4915
4915 4934 4935 4916
4916 4935 4936 4917
4917 4936 4937 4918
4918 4937 4938 4919
4919 4938 4939 4920
4920 4939 4940 4921
4921 4940 4941 4922
4922 4941 4942 4923
4923 4942 4943 4924
4924 4943 4944 4925
4925 4944 4945 4926
4926 4945 4946 4927
4927 4946 431 430
159 160 4947 4928
4928 4947 4948 4929
4929 4948 4949 4930
4930 4949 4950 4931
4931 4950 4951 4932
4932 4951 4952 4933
4933 4952 4953 4934
4934 4953 4954 4935
4935 4954 4955 4936
4936 4955 4956 4937
4937 4956 4957 4938
4938 4957 4958 4939
4939 4958 4959 4940
4940 4959 4960 4941
4941 4960 4961 4942
4942 4961 4962 4943
4943 4962 4963 4944
4944 4963 4964 4945
4945 4964 4965 4946
4946 4965 432 431
160 161 4966 4947
4947 4966 4967 4948
4948 4967 4968 4949
4949 4968 4969 4950
4950 4969 4970 4951
4951 4970 4971 4952
4952 4971 4972 4953
4953 4972 4973 4954
4954 4973 4974 4955
4955 4974 4975 4956
4956 4975 4976 4957
4957 4976 4977 4958
4958 4977 4978 4959
4959 4978 4979 4960
4960 4979 4980 4961
4961 4980 4981 4962
4962 4981 4982 4963
4963 4982 4983 4964
4964 4983 4984 4965
4965 4984 433 432
161 162 4985 4966
4966 4985 4986 4967
4967 4986 4987 4968
4968 4987 4988 4969
4969 4988 4989 4970
4970 4989 4990 4971
4971 4990 4991 4972
4972 4991 4992 4973
4973 4992 4993 4974
4974 4993 4994 4975
4975 4994 4995 4976
4976 4995 4996 4977
4977 4996 4997 4978
4978 4997 4998 4979
4979 4998 4999 4980
4980 4999 5000 4981
4981 5000 5001 4982
4982 5001 5002 4983
4983 5002 5003 4984
4984 5003 434 433
162 163 5004 4985
4985 5004 5005 4986
4986 5005 5006 4987
4987 5006 5007 4988
4988 5007 5008 4989
4989 5008 5009 4990
4990 5009 5010 4991
4991 5010 5011 4992
4992 5011 5012 4993
4993 5012 5013 4994
4994 5013 5014 4995
4995 5014 5015 4996
4996 5015 5016 4997
4997 5016 5017 4998
4998 5017 5018 4999
4999 5018 5019 5000
5000 5019 5020 5001
5001 5020 5021 5002
5002 5021 5022 5003
5003 5022 435 434
163 164 5023 5004
5004 5023 5024 5005
5005 5024 5025 5006
5006 5025 5026 5007
5007 5026 5027 5008
5008 5027 5028 5009
5009 5028 5029 5010
5010 5029 5030 5011
5011 5030 5031 5012
5012 5031 5032 5013
5013 5032 5033 5014
5014 5033 5034 5015
5015 5034 5035 5016
5016 5035 5036 5017
5017 5036 5037 5018
5018 5037 5038 5019
5019 5038 5039 5020
5020 5039 5040 5021
5021 5040 5041 5022
5022 5041 436 435
164 165 5042 5023
5023 5042 5043 5024
5024 5043 5044 5025
5025 5044 5045 5026
5026 5045 5046 5027
5027 5046 5047 5028
5028 5047 5048 5029
5029 5048 5049 5030
5030 5049 5050 5031
5031 5050 5051 5032
5032 5051 5052 5033
5033 5052 5053 5034
5034 5053 5054 5035
5035 5054 5055 5036
5036 5055 5056 5037
5037 5056 5057 5038
5038 5057 5058 5039
5039 5058 5059 5040
5040 5059 5060 5041
5041 5060 437 436
165 6 242 5042
5042 242 241 5043
5043 241 240 5044
5044 240 239 5045
5045 239 238 5046
5046 238 237 5047
5047 237 236 5048
5048 236 235 5049
5049 235 234 5050
5050 234 233 5051
5051 233 232 5052
5052 232 231 5053
5053 231 230 5054
5054 230 229 5055
5055 229 228 5056
5056 228 227 5057
5057 227 226 5058
5058 226 225 5059
5059 225 224 5060
5060 224 8 437
9 323 5061 400
400 5061 5062 401
401 5062 5063 402
402 5063 5064 403
403 5064 5065 404
404 5065 5066 405
405 5066 5067 406
406 5067 5068 407
407 5068 5069 408
408 5069 5070 409
409 5070 5071 410
410 5071 5072 411
411 5072 5073 412
412 5073 5074 413
413 5074 5075 414
414 5075 5076 415
415 5076 5077 416
416 5077 5078 417
417 5078 5079 418
418 5079 185 7
323 324 5080 5061
5061 5080 5081 5062
5062 5081 5082 5063
5063 5082 5083 5064
5064 5083 5084 5065
5065 5084 5085 5066
5066 5085 5086 5067
5067 5086 5087 5068
5068 5087 5088 5069
5069 5088 5089 5070
5070 5089 5090 5071
5071 5090 5091 5072
5072 5091 5092 5073
5073 5092 5093 5074
5074 5093 5094 5075
5075 5094 5095 5076
5076 5095 5096 5077
5077 5096 5097 5078
5078 5097 5098 5079
5079 5098 186 185
324 325 5099 5080
5080 5099 5100 5081
5081 5100 5101 5082
5082 5101 5102 5083
5083 5102 5103 5084
5084 5103 5104 5085
5085 5104 5105 5086
5086 5105 5106 5087
5087 5106 5107 5088
5088 5107 5108 5089
5089 5108 5109 5090
5090 5109 5110 5091
5091 5110 5111 5092
5092 5111 5112 5093
5093 5112 5113 5094
5094 5113 5114 5095
5095 5114 5115 5096
5096 5115 5116 5097
5097 5116 5117 5098
5098 5117 187 186
325 326 5118 5099
5099 5118 5119 5100
5100 5119 5120 5101
5101 5120 5121 5102
5102 5121 5122 5103
5103 5122 5123 5104
5104 5123 5124 5105
5105 5124 5125 5106
5106 5125 5126 5107
5107 5126 5127 5108
5108 5127 5128 5109
5109 5128 5129 5110
5110 5129 5130 5111
5111 5130 5131 5112
5112 5131 5132 5113
5113 5132 5133 5114
5114 5133 5134 5115
5115 5134 5135 5116
5116 5135 5136 5117
5117 5136 188 187
326 327 5137 5118
5118 5137 5138 5119
5119 5138 5139 5120
5120 5139 5140 5121
5121 5140 5141 5122
5122 5141 5142 5123
5123 5142 5143 5124
5124 5143 5144 5125
5125 5144 5145 5126
5126 5145 5146 5127
5127 5146 5147 5128
5128 5147 5148 5129
5129 5148 5149 5130
5130 5149 5150 5131
5131 5150 5151 5132
5132 5151 5152 5133
5133 5152 5153 5134
5134 5153 5154 5135
5135 5154 5155 5136
5136 5155 189 188
327 328 5156 5137
5137 5156 5157 5138
5138 5157 5158 5139
5139 5158 5159 5140
5140 5159 5160 5141
5141 5160 5161 5142
5142 5161 5162 5143
5143 5162 5163 5144
5144 5163 5164 5145
5145 5164 5165 5146
5146 5165 5166 5147
5147 5166 5167 5148
5148 5167 5168 5149
5149 5168 5169 5150
5150 5169 5170 5151
5151 5170 5171 5152
5152 5171 5172 5153
5153 5172 5173 5154
5154 5173 5174 5155
5155 5174 190 189
328 329 5175 5156
5156 5175 5176 5157
5157 5176 5177 5158
5158 5177 5178 5159
5159 5178 5179 5160
5160 5179 5180 5161
5161 5180 5181 5162
5162 5181 5182 5163
5163 5182 5183 5164
5164 5183 5184 5165
5165 5184 5185 5166
5166 5185 5186 5167
5167 5186 5187 5168
5168 5187 5188 5169
5169 5188 5189 5170
5170 5189 5190 5171
5171 5190 5191 5172
5172 5191 5192 5173
5173 5192 5193 5174
5174 5193 191 190
329 330 5194 5175
5175 5194 5195 5176
5176 5195 5196 5177
5177 5196 5197 5178
5178 5197 5198 5179
5179 5198 5199 5180
5180 5199 5200 5181
5181 5200 5201 5182
5182 5201 5202 5183
5183 5202 5203 5184
5184 5203 5204 5185
5185 5204 5205 5186
5186 5205 5206 5187
5187 5206 5207 5188
5188 5207 5208 5189
5189 5208 5209 5190
5190 5209 5210 5191
5191 5210 5211 5192
5192 5211 5212 5193
5193 5212 192 191
330 331 5213 5194
5194 5213 5214 5195
5195 5214 5215 5196
5196 5215 5216 5197
5197 5216 5217 5198
5198 5217 5218 5199
5199 5218 5219 5200
5200 5219 5220 5201
5201 5220 5221 5202
5202 5221 5222 5203
5203 5222 5223 5204
5204 5223 5224 5205
5205 5224 5225 5206
5206 5225 5226 5207
5207 5226 5227 5208
5208 5227 5228 5209
5209 5228 5229 5210
5210 5229 5230 5211
5211 5230 5231 5212
5212 5231 193 192
331 332 5232 5213
5213 5232 5233 5214
5214 5233 5234 5215
5215 5234 5235 5216
5216 5235 5236 5217
5217 5236 5237 5218
5218 5237 5238 5219
5219 5238 5239 5220
5220 5239 5240 5221
5221 5240 5241 5222
5222 5241 5242 5223
5223 5242 5243 5224
5224 5243 5244 5225
5225 5244 5245 5226
5226 5245 5246 5227
5227 5246 5247 5228
5228 5247 5248 5229
5229 5248 5249 5230
5230 5249 5250 5231
5231 5250 194 193
332 333 5251 5232
5232 5251 5252 5233
5233 5252 5253 5234
5234 5253 5254 5235
5235 5254 5255 5236
5236 5255 5256 5237
5237 5256 5257 5238
5238 5257 5258 5239
5239 5258 5259 5240
5240 5259 5260 5241
5241 5260 5261 5242
5242 5261 5262 5243
5243 5262 5263 5244
5244 5263 5264 5245
5245 5264 5265 5246
5246 5265 5266 5247
5247 5266 5267 5248
5248 5267 5268 5249
5249 5268 5269 5250
5250 5269 195 194
333 334 5270 5251
5251 5270 5271 5252
5252 5271 5272 5253
5253 5272 5273 5254
5254 5273 5274 5255
5255 5274 5275 5256
5256 5275 5276 5257
5257 5276 5277 5258
5258 5277 5278 5259
5259 5278 5279 5260
5260 5279 5280 5261
5261 5280 5281 5262
5262 5281 5282 5263
5263 5282 5283 5264
5264 5283 5284 5265
5265 5284 5285 5266
5266 5285 5286 5267
5267 5286 5287 5268
5268 5287 5288 5269
5269 5288 196 195
334 335 5289 5270
5270 5289 5290 5271
5271 5290 5291 5272
5272 5291 5292 5273
5273 5292 5293 5274
5274 5293 5294 5275
5275 5294 5295 5276
5276 5295 5296 5277
5277 5296 5297 5278
5278 5297 5298 5279
5279 5298 5299 5280
5280 5299 5300 5281
5281 5300 5301 5282
5282 5301 5302 5283
5283 5302 5303 5284
5284 5303 5304 5285
5285 5304 5305 5286
5286 5305 5306 5287
5287 5306 5307 5288
5288 5307 197 196
335 336 5308 5289
5289 5308 5309 5290
5290 5309 5310 5291
5291 5310 5311 5292
5292 5311 5312 5293
5293 5312 5313 5294
5294 5313 5314 5295
5295 5314 5315 5296
5296 5315 5316 5297
5297 5316 5317 5298
5298 5317 5318 5299
5299 5318 5319 5300
5300 5319 5320 5301
5301 5320 5321 5302
5302 5321 5322 5303
5303 5322 5323 5304
5304 5323 5324 5305
5305 5324 5325 5306
5306 5325 5326 5307
5307 5326 198 197
336 337 5327 5308
5308 5327 5328 5309
5309 5328 5329 5310
5310 5329 5330 5311
5311 5330 5331 5312
5312 5331 5332 5313
5313 5332 5333 5314
5314 5333 5334 5315
5315 5334 5335 5316
5316 5335 5336 5317
5317 5336 5337 5318
5318 5337 5338 5319
5319 5338 5339 5320
5320 5339 5340 5321
5321 5340 5341 5322
5322 5341 5342 5323
5323 5342 5343 5324
5324 5343 5344 5325
5325 5344 5345 5326
5326 5345 199 198
337 338 5346 5327
5327 5346 5347 5328
5328 5347 5348 5329
5329 5348 5349 5330
5330 5349 5350 5331
5331 5350 5351 5332
5332 5351 5352 5333
5333 5352 5353 5334
5334 5353 5354 5335
5335 5354 5355 5336
5336 5355 5356 5337
5337 5356 5357 5338
5338 5357 5358 5339
5339 5358 5359 5340
5340 5359 5360 5341
5341 5360 5361 5342
5342 5361 5362 5343
5343 5362 5363 5344
5344 5363 5364 5345
5345 5364 200 199
338 339 5365 5346
5346 5365 5366 5347
5347 5366 5367 5348
5348 5367 5368 5349
5349 5368 5369 5350
5350 5369 5370 5351
5351 5370 5371 5352
5352 5371 5372 5353
5353 5372 5373 5354
5354 5373 5374 5355
5355 5374 5375 5356
5356 5375 5376 5357
5357 5376 5377 5358
5358 5377 5378 5359
5359 5378 5379 5360
5360 5379 5380 5361
5361 5380 5381 5362
5362 5381 5382 5363
5363 5382 5383 5364
5364 5383 201 200
339 340 5384 5365
5365 5384 5385 5366
5366 5385 5386 5367
5367 5386 5387 5368
5368 5387 5388 5369
5369 5388 5389 5370
5370 5389 5390 5371
5371 5390 5391 5372
5372 5391 5392 5373
5373 5392 5393 5374
5374 5393 5394 5375
5375 5394 5395 5376
5376 5395 5396 5377
5377 5396 5397 5378
5378 5397 5398 5379
5379 5398 5399 5380
5380 5399 5400 5381
5381 5400 5401 5382
5382 5401 5402 5383
5383 5402 202 201
340 341 5403 5384
5384 5403 5404 5385
5385 5404 5405 5386
5386 5405 5406 5387
5387 5406 5407 5388
5388 5407 5408 5389
5389 5408 5409 5390
5390 5409 5410 5391
5391 5410 5411 5392
5392 5411 5412 5393
5393 5412 5413 5394
5394 5413 5414 5395
5395 5414 5415 5396
5396 5415 5416 5397
5397 5416 5417 5398
5398 5417 5418 5399
5399 5418 5419 5400
5400 5419 5420 5401
5401 5420 5421 5402
5402 5421 203 202
341 342 5422 5403
5403 5422 5423 5404
5404 5423 5424 5405
5405 5424 5425 5406
5406 5425 5426 5407
5407 5426 5427 5408
5408 5427 5428 5409
5409 5428 5429 5410
5410 5429 5430 5411
5411 5430 5431 5412
5412 5431 5432 5413
5413 5432 5433 5414
5414 5433 5434 5415
5415 5434 5435 5416
5416 5435 5436 5417
5417 5436 5437 5418
5418 5437 5438 5419
5419 5438 5439 5420
5420 5439 5440 5421
5421 5440 204 203
342 343 5441 5422
5422 5441 5442 5423
5423 5442 5443 5424
5424 5443 5444 5425
5425 5444 5445 5426
5426 5445 5446 5427
5427 5446 5447 5428
5428 5447 5448 5429
5429 5448 5449 5430
5430 5449 5450 5431
5431 5450 5451 5432
5432 5451 5452 5433
5433 5452 5453 5434
5434 5453 5454 5435
5435 5454 5455 5436
5436 5455 5456 5437
5437 5456 5457 5438
5438 5457 5458 5439
5439 5458 5459 5440
5440 5459 205 204
343 344 5460 5441
5441 5460 5461 5442
5442 5461 5462 5443
5443 5462 5463 5444
5444 5463 5464 5445
5445 5464 5465 5446
5446 5465 5466 5447
5447 5466 5467 5448
5448 5467 5468 5449
5449 5468 5469 5450
5450 5469 5470 5451
5451 5470 5471 5452
5452 5471 5472 5453
5453 5472 5473 5454
5454 5473 5474 5455
5455 5474 5475 5456
5456 5475 5476 5457
5457 5476 5477 5458
5458 5477 5478 5459
5459 5478 206 205
344 345 5479 5460
5460 5479 5480 5461
5461 5480 5481 5462
5462 5481 5482 5463
5463 5482 5483 5464
5464 5483 5484 5465
5465 5484 5485 5466
5466 5485 5486 5467
5467 5486 5487 5468
5468 5487 5488 5469
5469 5488 5489 5470
5470 5489 5490 5471
5471 5490 5491 5472
5472 5491 5492 5473
5473 5492 5493 5474
5474 5493 5494 5475
5475 5494 5495 5476
5476 5495 5496 5477
5477 5496 5497 5478
5478 5497 207 206
345 346 5498 5479
5479 5498 5499 5480
5480 5499 5500 5481
5481 5500 5501 5482
5482 5501 5502 5483
5483 5502 5503 5484
5484 5503 5504 5485
5485 5504 5505 5486
5486 5505 5506 5487
5487 5506 5507 5488
5488 5507 5508 5489
5489 5508 5509 5490
5490 5509 5510 5491
5491 5510 5511 5492
5492 5511 5512 5493
5493 5512 5513 5494
5494 5513 5514 5495
5495 5514 5515 5496
5496 5515 5516 5497
5497 5516 208 207
346 347 5517 5498
5498 5517 5518 5499
5499 5518 5519 5500
5500 5519 5520 5501
5501 5520 5521 5502
5502 5521 5522 5503
5503 5522 5523 5504
5504 5523 5524 5505
5505 5524 5525 5506
5506 5525 5526 5507
5507 5526 5527 5508
5508 5527 5528 5509
5509 5528 5529 5510
5510 5529 5530 5511
5511 5530 5531 5512
5512 5531 5532 5513
5513 5532 5533 5514
5514 5533 5534 5515
5515 5534 5535 5516
5516 5535 209 208
347 348 5536 5517
5517 5536 5537 5518
5518 5537 5538 5519
5519 5538 5539 5520
5520 5539 5540 5521
5521 5540 5541 5522
5522 5541 5542 5523
5523 5542 5543 5524
5524 5543 5544 5525
5525 5544 5545 5526
5526 5545 5546 5527
5527 5546 5547 5528
5528 5547 5548 5529
5529 5548 5549 5530
5530 5549 5550 5531
5531 5550 5551 5532
5532 5551 5552 5533
5533 5552 5553 5534
5534 5553 5554 5535
5535 5554 210 209
348 349 5555 5536
5536 5555 5556 5537
5537 5556 5557 5538
5538 5557 5558 5539
5539 5558 5559 5540
5540 5559 5560 5541
5541 5560 5561 5542
5542 5561 5562 5543
5543 5562 5563 5544
5544 5563 5564 5545
5545 5564 5565 5546
5546 5565 5566 5547
5547 5566 5567 5548
5548 5567 5568 5549
5549 5568 5569 5550
5550 5569 5570 5551
5551 5570 5571 5552
5552 5571 5572 5553
5553 5572 5573 5554
5554 5573 211 210
349 350 5574 5555
5555 5574 5575 5556
5556 5575 5576 5557
5557 5576 5577 5558
5558 5577 5578 5559
5559 5578 5579 5560
5560 5579 5580 5561
5561 5580 5581 5562
5562 5581 5582 5563
5563 5582 5583 5564
5564 5583 5584 5565
5565 5584 5585 5566
5566 5585 5586 5567
5567 5586 5587 5568
5568 5587 5588 5569
5569 5588 5589 5570
5570 5589 5590 5571
5571 5590 5591 5572
5572 5591 5592 5573
5573 5592 212 211
350 351 5593 5574
5574 5593 5594 5575
5575 5594 5595 5576
5576 5595 5596 5577
5577 5596 5597 5578
5578 5597 5598 5579
5579 5598 5599 5580
5580 5599 5600 5581
5581 5600 5601 5582
5582 5601 5602 5583
5583 5602 5603 5584
5584 5603 5604 5585
5585 5604 5605 5586
5586 5605 5606 5587
5587 5606 5607 5588
5588 5607 5608 5589
5589 5608 5609 5590
5590 5609 5610 5591
5591 5610 5611 5592
5592 5611 213 212
351 352 5612 5593
5593 5612 5613 5594
5594 5613 5614 5595
5595 5614 5615 5596
5596 5615 5616 5597
5597 5616 5617 5598
5598 5617 5618 5599
5599 5618 5619 5600
5600 5619 5620 5601
5601 5620 5621 5602
5602 5621 5622 5603
5603 5622 5623 5604
5604 5623 5624 5605
5605 5624 5625 5606
5606 5625 5626 5607
5607 5626 5627 5608
5608 5627 5628 5609
5609 5628 5629 5610
5610 5629 5630 5611
5611 5630 214 213
352 353 5631 5612
5612 5631 5632 5613
5613 5632 5633 5614
5614 5633 5634 5615
5615 5634 5635 5616
5616 5635 5636 5617
5617 5636 5637 5618
5618 5637 5638 5619
5619 5638 5639 5620
5620 5639 5640 5621
5621 5640 5641 5622
5622 5641 5642 5623
5623 5642 5643 5624
5624 5643 5644 5625
5625 5644 5645 5626
5626 5645 5646 5627
5627 5646 5647 5628
5628 5647 5648 5629
5629 5648 5649 5630
5630 5649 215 214
353 354 5650 5631
5631 5650 5651 5632
5632 5651 5652 5633
5633 5652 5653 5634
5634 5653 5654 5635
5635 5654 5655 5636
5636 5655 5656 5637
5637 5656 5657 5638
5638 5657 5658 5639
5639 5658 5659 5640
5640 5659 5660 5641
5641 5660 5661 5642
5642 5661 5662 5643
5643 5662 5663 5644
5644 5663 5664 5645
5645 5664 5665 5646
5646 5665 5666 5647
5647 5666 5667 5648
5648 5667 5668 5649
5649 5668 216 215
354 355 5669 5650
5650 5669 5670 5651
5651 5670 5671 5652
5652 5671 5672 5653
5653 5672 5673 5654
5654 5673 5674 5655
5655 5674 5675 5656
5656 5675 5676 5657
5657 5676 5677 5658
5658 5677 5678 5659
5659 5678 5679 5660
5660 5679 5680 5661
5661 5680 5681 5662
5662 5681 5682 5663
5663 5682 5683 5664
5664 5683 5684 5665
5665 5684 5685 5666
5666 5685 5686 5667
5667 5686 5687 5668
5668 5687 217 216
355 356 5688 5669
5669 5688 5689 5670
5670 5689 5690 5671
5671 5690 5691 5672
5672 5691 5692 5673
5673 5692 5693 5674
5674 5693 5694 5675
5675 5694 5695 5676
5676 5695 5696 5677
5677 5696 5697 5678
5678 5697 5698 5679
5679 5698 5699 5680
5680 5699 5700 5681
5681 5700 5701 5682
5682 5701 5702 5683
5683 5702 5703 5684
5684 5703 5704 5685
5685 5704 5705 5686
5686 5705 5706 5687
5687 5706 218 217
356 357 5707 5688
5688 5707 5708 5689
5689 5708 5709 5690
5690 5709 5710 5691
5691 5710 5711 5692
5692 5711 5712 5693
5693 5712 5713 5694
5694 5713 5714 5695
5695 5714 5715 5696
5696 5715 5716 5697
5697 5716 5717 5698
5698 5717 5718 5699
5699 5718 5719 5700
5700 5719 5720 5701
5701 5720 5721 5702
5702 5721 5722 5703
5703 5722 5723 5704
5704 5723 5724 5705
5705 5724 5725 5706
5706 5725 219 218
357 358 5726 5707
5707 5726 5727 5708
5708 5727 5728 5709
5709 5728 5729 5710
5710 5729 5730 5711
5711 5730 5731 5712
5712 5731 5732 5713
5713 5732 5733 5714
5714 5733 5734 5715
5715 5734 5735 5716
5716 5735 5736 5717
5717 5736 5737 5718
5718 5737 5738 5719
5719 5738 5739 5720
5720 5739 5740 5721
5721 5740 5741 5722
5722 5741 5742 5723
5723 5742 5743 5724
5724 5743 5744 5725
5725 5744 220 219
358 359 5745 5726
5726 5745 5746 5727
5727 5746 5747 5728
5728 5747 5748 5729
5729 5748 5749 5730
5730 5749 5750 5731
5731 5750 5751 5732
5732 5751 5752 5733
5733 5752 5753 5734
5734 5753 5754 5735
5735 5754 5755 5736
5736 5755 5756 5737
5737 5756 5757 5738
5738 5757 5758 5739
5739 5758 5759 5740
5740 5759 5760 5741
5741 5760 5761 5742
5742 5761 5762 5743
5743 5762 5763 5744
5744 5763 221 220
359 360 5764 5745
5745 5764 5765 5746
5746 5765 5766 5747
5747 5766 5767 5748
5748 5767 5768 5749
5749 5768 5769 5750
5750 5769 5770 5751
5751 5770 5771 5752
5752 5771 5772 5753
5753 5772 5773 5754
5754 5773 5774 5755
5755 5774 5775 5756
5756 5775 5776 5757
5757 5776 5777 5758
5758 5777 5778 5759
5759 5778 5779 5760
5760 5779 5780 5761
5761 5780 5781 5762
5762 5781 5782 5763
5763 5782 222 221
360 361 5783 5764
5764 5783 5784 5765
5765 5784 5785 5766
5766 5785 5786 5767
5767 5786 5787 5768
5768 5787 5788 5769
5769 5788 5789 5770
5770 5789 5790 5771
5771 5790 5791 5772
5772 5791 5792 5773
5773 5792 5793 5774
5774 5793 5794 5775
5775 5794 5795 5776
5776 5795 5796 5777
5777 5796 5797 5778
5778 5797 5798 5779
5779 5798 5799 5780
5780 5799 5800 5781
5781 5800 5801 5782
5782 5801 223 222
361 10 419 5783
5783 419 420 5784
5784 420 421 5785
5785 421 422 5786
5786 422 423 5787
5787 423 424 5788
5788 424 425 5789
5789 425 426 5790
5790 426 427 5791
5791 427 428 5792
5792 428 429 5793
5793 429 430 5794
5794 430 431 5795
5795 431 432 5796
5796 432 433 5797
5797 433 434 5798
5798 434 435 5799
5799 435 436 5800
5800 436 437 5801
5801 437 8 223
</DataArray>
<DataArray type="Int64" Name="offsets" format="ascii">
4
8
12
16
20
24
28
32
36
40
44
48
52
56
60
64
68
72
76
80
84
88
92
96
100
104
108
112
116
120
124
128
132
136
140
144
148
152
156
160
164
168
172
176
180
184
188
192
196
200
204
208
212
216
220
224
228
232
236
240
244
248
252
256
260
264
268
272
276
280
284
288
292
296
300
304
308
312
316
320
324
328
332
336
340
344
348
352
356
360
364
368
372
376
380
384
388
392
396
400
404
408
412
416
420
424
428
432
436
440
444
448
452
456
460
464
468
472
476
480
484
488
492
496
500
504
508
512
516
520
524
528
532
536
540
544
548
552
556
560
564
568
572
576
580
584
588
592
596
600
604
608
612
616
620
624
628
632
636
640
644
648
652
656
660
664
668
672
676
680
684
688
692
696
700
704
708
712
716
720
724
728
732
736
740
744
748
752
756
760
764
768
772
776
780
784
788
792
796
800
804
808
812
816
820
824
828
832
836
840
844
848
852
856
860
864
868
872
876
880
884
888
892
896
900
904
908
912
916
920
924
928
932
936
940
944
948
952
956
960
964
968
972
976
980
984
988
992
996
1000
1004
1008
1012
1016
1020
1024
1028
1032
1036
1040
1044
1048
1052
1056
1060
1064
1068
1072
1076
1080
1084
1088
1092
1096
1100
1104
1108
1112
1116
1120
1124
1128
1132
1136
1140
1144
1148
1152
1156
1160
1164
1168
1172
1176
1180
1184
1188
1192
1196
1200
1204
1208
1212
1216
1220
1224
1228
1232
1236
1240
1244
1248
1252
1256
1260
1264
1268
1272
1276
1280
1284
1288
1292
1296
1300
1304
1308
1312
1316
1320
1324
1328
1332
1336
1340
1344
1348
1352
1356
1360
1364
1368
1372
1376
1380
1384
1388
1392
1396
1400
1404
1408
1412
1416
1420
1424
1428
1432
1436
1440
1444
1448
1452
1456
1460
1464
1468
1472
1476
1480
1484
1488
1492
1496
1500
1504
1508
1512
1516
1520
1524
1528
1532
1536
1540
1544
1548
1552
1556
1560
1564
1568
1572
1576
1580
1584
1588
1592
1596
1600
1604
1608
1612
1616
1620
1624
1628
1632
1636
1640
1644
1648
1652
1656
1660
1664
1668
1672
1676
1680
1684
1688
1692
1696
1700
1704
1708
1712
1716
1720
1724
1728
1732
1736
1740
1744
1748
1752
1756
1760
1764
1768
1772
1776
1780
1784
1788
1792
1796
1800
1804
1808
1812
1816
1820
1824
1828
1832
1836
1840
1844
1848
1852
1856
1860
1864
1868
1872
1876
1880
1884
1888
1892
1896
1900
1904
1908
1912
1916
1920
1924
1928
1932
1936
1940
1944
1948
1952
1956
1960
1964
1968
1972
1976
1980
1984
1988
1992
1996
2000
2004
2008
2012
2016
2020
2024
2028
2032
2036
2040
2044
2048
2052
2056
2060
2064
2068
2072
2076
2080
2084
2088
2092
2096
2100
2104
2108
2112
2116
2120
2124
2128
2132
2136
2140
2144
2148
2152
2156
2160
2164
2168
2172
2176
2180
2184
2188
2192
2196
2200
2204
2208
2212
2216
2220
2224
2228
2232
2236
2240
2244
2248
2252
2256
2260
2264
2268
2272
2276
2280
2284
2288
2292
2296
2300
2304
2308
2312
2316
2320
2324
2328
2332
2336
2340
2344
2348
2352
2356
2360
2364
2368
2372
2376
2380
2384
2388
2392
2396
2400
2404
2408
2412
2416
2420
2424
2428
2432
2436
2440
2444
2448
2452
2456
2460
2464
2468
2472
2476
2480
2484
2488
2492
2496
2500
2504
2508
2512
2516
2520
2524
2528
2532
2536
2540
2544
2548
2552
2556
2560
2564
2568
2572
2576
2580
2584
2588
2592
2596
2600
2604
2608
2612
2616
2620
2624
2628
2632
2636
2640
2644
2648
2652
2656
2660
2664
2668
2672
2676
2680
2684
2688
2692
2696
2700
2704
2708
2712
2716
2720
2724
2728
2732
2736
2740
2744
2748
2752
2756
2760
2764
2768
2772
2776
2780
2784
2788
2792
2796
2800
2804
2808
2812
2816
2820
2824
2828
2832
2836
2840
2844
2848
2852
2856
2860
2864
2868
2872
2876
2880
2884
2888
2892
2896
2900
2904
2908
2912
2916
2920
2924
2928
2932
2936
2940
2944
2948
2952
2956
2960
2964
2968
2972
2976
2980
2984
2988
2992
2996
3000
3004
3008
3012
3016
3020
3024
3028
3032
3036
3040
3044
3048
3052
3056
3060
3064
3068
3072
3076
3080
3084
3088
3092
3096
3100
3104
3108
3112
3116
3120
3124
3128
3132
3136
3140
3144
3148
3152
3156
3160
3164
3168
3172
3176
3180
3184
3188
3192
3196
3200
3204
3208
3212
3216
3220
3224
3228
3232
3236
3240
3244
3248
3252
3256
3260
3264
3268
3272
3276
3280
3284
3288
3292
3296
3300
3304
3308
3312
3316
3320
3324
3328
3332
3336
3340
3344
3348
3352
3356
3360
3364
3368
3372
3376
3380
3384
3388
3392
3396
3400
3404
3408
3412
3416
3420
3424
3428
3432
3436
3440
3444
3448
3452
3456
3460
3464
3468
3472
3476
3480
3484
3488
3492
3496
3500
3504
3508
3512
3516
3520
3524
3528
3532
3536
3540
3544
3548
3552
3556
3560
3564
3568
3572
3576
3580
3584
3588
3592
3596
3600
3604
3608
3612
3616
3620
3624
3628
3632
3636
3640
3644
3648
3652
3656
3660
3664
3668
3672
3676
3680
3684
3688
3692
3696
3700
3704
3708
3712
3716
3720
3724
3728
3732
3736
3740
3744
3748
3752
3756
3760
3764
3768
3772
3776
3780
3784
3788
3792
3796
3800
3804
3808
3812
3816
3820
3824
3828
3832
3836
3840
3844
3848
3852
3856
3860
3864
3868
3872
3876
3880
3884
3888
3892
3896
3900
3904
3908
3912
3916
3920
3924
3928
3932
3936
3940
3944
3948
3952
3956
3960
3964
3968
3972
3976
3980
3984
3988
3992
3996
4000
4004
4008
4012
4016
4020
4024
4028
4032
4036
4040
4044
4048
4052
4056
4060
4064
4068
4072
4076
4080
4084
4088
4092
4096
4100
4104
4108
4112
4116
4120
4124
4128
4132
4136
4140
4144
4148
4152
4156
4160
4164
4168
4172
4176
4180
4184
4188
4192
4196
4200
4204
4208
4212
4216
4220
4224
4228
4232
4236
4240
4244
4248
4252
4256
4260
4264
4268
4272
4276
4280
4284
4288
4292
4296
4300
4304
4308
4312
4316
4320
4324
4328
4332
4336
4340
4344
4348
4352
4356
4360
4364
4368
4372
4376
4380
4384
4388
4392
4396
4400
4404
4408
4412
4416
4420
4424
4428
4432
4436
4440
4444
4448
4452
4456
4460
4464
4468
4472
4476
4480
4484
4488
4492
4496
4500
4504
4508
4512
4516
4520
4524
4528
4532
4536
4540
4544
4548
4552
4556
4560
4564
4568
4572
4576
4580
4584
4588
4592
4596
4600
4604
4608
4612
4616
4620
4624
4628
4632
4636
4640
4644
4648
4652
4656
4660
4664
4668
4672
4676
4680
4684
4688
4692
4696
4700
4704
4708
4712
4716
4720
4724
4728
4732
4736
4740
4744
4748
4752
4756
4760
4764
4768
4772
4776
4780
4784
4788
4792
4796
4800
4804
4808
4812
4816
4820
4824
4828
4832
4836
4840
4844
4848
4852
4856
4860
4864
4868
4872
4876
4880
4884
4888
4892
4896
4900
4904
4908
4912
4916
4920
4924
4928
4932
4936
4940
4944
4948
4952
4956
4960
4964
4968
4972
4976
4980
4984
4988
4992
4996
5000
5004
5008
5012
5016
5020
5024
5028
5032
5036
5040
5044
5048
5052
5056
5060
5064
5068
5072
5076
5080
5084
5088
5092
5096
5100
5104
5108
5112
5116
5120
5124
5128
5132
5136
5140
5144
5148
5152
5156
5160
5164
5168
5172
5176
5180
5184
5188
5192
5196
5200
5204
5208
5212
5216
5220
5224
5228
5232
5236
5240
5244
5248
5252
5256
5260
5264
5268
5272
5276
5280
5284
5288
5292
5296
5300
5304
5308
5312
5316
5320
5324
5328
5332
5336
5340
5344
5348
5352
5356
5360
5364
5368
5372
5376
5380
5384
5388
5392
5396
5400
5404
5408
5412
5416
5420
5424
5428
5432
5436
5440
5444
5448
5452
5456
5460
5464
5468
5472
5476
5480
5484
5488
5492
5496
5500
5504
5508
5512
5516
5520
5524
5528
5532
5536
5540
5544
5548
5552
5556
5560
5564
5568
5572
5576
5580
5584
5588
5592
5596
5600
5604
5608
5612
5616
5620
5624
5628
5632
5636
5640
5644
5648
5652
5656
5660
5664
5668
5672
5676
5680
5684
5688
5692
5696
5700
5704
5708
5712
5716
5720
5724
5728
5732
5736
5740
5744
5748
5752
5756
5760
5764
5768
5772
5776
5780
5784
5788
5792
5796
5800
5804
5808
5812
5816
5820
5824
5828
5832
5836
5840
5844
5848
5852
5856
5860
5864
5868
5872
5876
5880
5884
5888
5892
5896
5900
5904
5908
5912
5916
5920
5924
5928
5932
5936
5940
5944
5948
5952
5956
5960
5964
5968
5972
5976
5980
5984
5988
5992
5996
6000
6004
6008
6012
6016
6020
6024
6028
6032
6036
6040
6044
6048
6052
6056
6060
6064
6068
6072
6076
6080
6084
6088
6092
6096
6100
6104
6108
6112
6116
6120
6124
6128
6132
6136
6140
6144
6148
6152
6156
6160
6164
6168
6172
6176
6180
6184
6188
6192
6196
6200
6204
6208
6212
6216
6220
6224
6228
6232
6236
6240
6244
6248
6252
6256
6260
6264
6268
6272
6276
6280
6284
6288
6292
6296
6300
6304
6308
6312
6316
6320
6324
6328
6332
6336
6340
6344
6348
6352
6356
6360
6364
6368
6372
6376
6380
6384
6388
6392
6396
6400
6404
6408
6412
6416
6420
6424
6428
6432
6436
6440
6444
6448
6452
6456
6460
6464
6468
6472
6476
6480
6484
6488
6492
6496
6500
6504
6508
6512
6516
6520
6524
6528
6532
6536
6540
6544
6548
6552
6556
6560
6564
6568
6572
6576
6580
6584
6588
6592
6596
6600
6604
6608
6612
6616
6620
6624
6628
6632
6636
6640
6644
6648
6652
6656
6660
6664
6668
6672
6676
6680
6684
6688
6692
6696
6700
6704
6708
6712
6716
6720
6724
6728
6732
6736
6740
6744
6748
6752
6756
6760
6764
6768
6772
6776
6780
6784
6788
6792
6796
6800
6804
6808
6812
6816
6820
6824
6828
6832
6836
6840
6844
6848
6852
6856
6860
6864
6868
6872
6876
6880
6884
6888
6892
6896
6900
6904
6908
6912
6916
6920
6924
6928
6932
6936
6940
6944
6948
6952
6956
6960
6964
6968
6972
6976
6980
6984
6988
6992
6996
7000
7004
7008
7012
7016
7020
7024
7028
7032
7036
7040
7044
7048
7052
7056
7060
7064
7068
7072
7076
7080
7084
7088
7092
7096
7100
7104
7108
7112
7116
7120
7124
7128
7132
7136
7140
7144
7148
7152
7156
7160
7164
7168
7172
7176
7180
7184
7188
7192
7196
7200
7204
7208
7212
7216
7220
7224
7228
7232
7236
7240
7244
7248
7252
7256
7260
7264
7268
7272
7276
7280
7284
7288
7292
7296
7300
7304
7308
7312
7316
7320
7324
7328
7332
7336
7340
7344
7348
7352
7356
7360
7364
7368
7372
7376
7380
7384
7388
7392
7396
7400
7404
7408
7412
7416
7420
7424
7428
7432
7436
7440
7444
7448
7452
7456
7460
7464
7468
7472
7476
7480
7484
7488
7492
7496
7500
7504
7508
7512
7516
7520
7524
7528
7532
7536
7540
7544
7548
7552
7556
7560
7564
7568
7572
7576
7580
7584
7588
7592
7596
7600
7604
7608
7612
7616
7620
7624
7628
7632
7636
7640
7644
7648
7652
7656
7660
7664
7668
7672
7676
7680
7684
7688
7692
7696
7700
7704
7708
7712
7716
7720
7724
7728
7732
7736
7740
7744
7748
7752
7756
7760
7764
7768
7772
7776
7780
7784
7788
7792
7796
7800
7804
7808
7812
7816
7820
7824
7828
7832
7836
7840
7844
7848
7852
7856
7860
7864
7868
7872
7876
7880
7884
7888
7892
7896
7900
7904
7908
7912
7916
7920
7924
7928
7932
7936
7940
7944
7948
7952
7956
7960
7964
7968
7972
7976
7980
7984
7988
7992
7996
8000
8004
8008
8012
8016
8020
8024
8028
8032
8036
8040
8044
8048
8052
8056
8060
8064
8068
8072
8076
8080
8084
8088
8092
8096
8100
8104
8108
8112
8116
8120
8124
8128
8132
8136
8140
8144
8148
8152
8156
8160
8164
8168
8172
8176
8180
8184
8188
8192
8196
8200
8204
8208
8212
8216
8220
8224
8228
8232
8236
8240
8244
8248
8252
8256
8260
8264
8268
8272
8276
8280
8284
8288
8292
8296
8300
8304
8308
8312
8316
8320
8324
8328
8332
8336
8340
8344
8348
8352
8356
8360
8364
8368
8372
8376
8380
8384
8388
8392
8396
8400
8404
8408
8412
8416
8420
8424
8428
8432
8436
8440
8444
8448
8452
8456
8460
8464
8468
8472
8476
8480
8484
8488
8492
8496
8500
8504
8508
8512
8516
8520
8524
8528
8532
8536
8540
8544
8548
8552
8556
8560
8564
8568
8572
8576
8580
8584
8588
8592
8596
8600
8604
8608
8612
8616
8620
8624
8628
8632
8636
8640
8644
8648
8652
8656
8660
8664
8668
8672
8676
8680
8684
8688
8692
8696
8700
8704
8708
8712
8716
8720
8724
8728
8732
8736
8740
8744
8748
8752
8756
8760
8764
8768
8772
8776
8780
8784
8788
8792
8796
8800
8804
8808
8812
8816
8820
8824
8828
8832
8836
8840
8844
8848
8852
8856
8860
8864
8868
8872
8876
8880
8884
8888
8892
8896
8900
8904
8908
8912
8916
8920
8924
8928
8932
8936
8940
8944
8948
8952
8956
8960
8964
8968
8972
8976
8980
8984
8988
8992
8996
9000
9004
9008
9012
9016
9020
9024
9028
9032
9036
9040
9044
9048
9052
9056
9060
9064
9068
9072
9076
9080
9084
9088
9092
9096
9100
9104
9108
9112
9116
9120
9124
9128
9132
9136
9140
9144
9148
9152
9156
9160
9164
9168
9172
9176
9180
9184
9188
9192
9196
9200
9204
9208
9212
9216
9220
9224
9228
9232
9236
9240
9244
9248
9252
9256
9260
9264
9268
9272
9276
9280
9284
9288
9292
9296
9300
9304
9308
9312
9316
9320
9324
9328
9332
9336
9340
9344
9348
9352
9356
9360
9364
9368
9372
9376
9380
9384
9388
9392
9396
9400
9404
9408
9412
9416
9420
9424
9428
9432
9436
9440
9444
9448
9452
9456
9460
9464
9468
9472
9476
9480
9484
9488
9492
9496
9500
9504
9508
9512
9516
9520
9524
9528
9532
9536
9540
9544
9548
9552
9556
9560
9564
9568
9572
9576
9580
9584
9588
9592
9596
9600
9604
9608
9612
9616
9620
9624
9628
9632
9636
9640
9644
9648
9652
9656
9660
9664
9668
9672
9676
9680
9684
9688
9692
9696
9700
9704
9708
9712
9716
9720
9724
9728
9732
9736
9740
9744
9748
9752
9756
9760
9764
9768
9772
9776
9780
9784
9788
9792
9796
9800
9804
9808
9812
9816
9820
9824
9828
9832
9836
9840
9844
9848
9852
9856
9860
9864
9868
9872
9876
9880
9884
9888
9892
9896
9900
9904
9908
9912
9916
9920
9924
9928
9932
9936
9940
9944
9948
9952
9956
9960
9964
9968
9972
9976
9980
9984
9988
9992
9996
10000
10004
10008
10012
10016
10020
10024
10028
10032
10036
10040
10044
10048
10052
10056
10060
10064
10068
10072
10076
10080
10084
10088
10092
10096
10100
10104
10108
10112
10116
10120
10124
10128
10132
10136
10140
10144
10148
10152
10156
10160
10164
10168
10172
10176
10180
10184
10188
10192
10196
10200
10204
10208
10212
10216
10220
10224
10228
10232
10236
10240
10244
10248
10252
10256
10260
10264
10268
10272
10276
10280
10284
10288
10292
10296
10300
10304
10308
10312
10316
10320
10324
10328
10332
10336
10340
10344
10348
10352
10356
10360
10364
10368
10372
10376
10380
10384
10388
10392
10396
10400
10404
10408
10412
10416
10420
10424
10428
10432
10436
10440
10444
10448
10452
10456
10460
10464
10468
10472
10476
10480
10484
10488
10492
10496
10500
10504
10508
10512
10516
10520
10524
10528
10532
10536
10540
10544
10548
10552
10556
10560
10564
10568
10572
10576
10580
10584
10588
10592
10596
10600
10604
10608
10612
10616
10620
10624
10628
10632
10636
10640
10644
10648
10652
10656
10660
10664
10668
10672
10676
10680
10684
10688
10692
10696
10700
10704
10708
10712
10716
10720
10724
10728
10732
10736
10740
10744
10748
10752
10756
10760
10764
10768
10772
10776
10780
10784
10788
10792
10796
10800
10804
10808
10812
10816
10820
10824
10828
10832
10836
10840
10844
10848
10852
10856
10860
10864
10868
10872
10876
10880
10884
10888
10892
10896
10900
10904
10908
10912
10916
10920
10924
10928
10932
10936
10940
10944
10948
10952
10956
10960
10964
10968
10972
10976
10980
10984
10988
10992
10996
11000
11004
11008
11012
11016
11020
11024
11028
11032
11036
11040
11044
11048
11052
11056
11060
11064
11068
11072
11076
11080
11084
11088
11092
11096
11100
11104
11108
11112
11116
11120
11124
11128
11132
11136
11140
11144
11148
11152
11156
11160
11164
11168
11172
11176
11180
11184
11188
11192
11196
11200
11204
11208
11212
11216
11220
11224
11228
11232
11236
11240
11244
11248
11252
11256
11260
11264
11268
11272
11276
11280
11284
11288
11292
11296
11300
11304
11308
11312
11316
11320
11324
11328
11332
11336
11340
11344
11348
11352
11356
11360
11364
11368
11372
11376
11380
11384
11388
11392
11396
11400
11404
11408
11412
11416
11420
11424
11428
11432
11436
11440
11444
11448
11452
11456
11460
11464
11468
11472
11476
11480
11484
11488
11492
11496
11500
11504
11508
11512
11516
11520
11524
11528
11532
11536
11540
11544
11548
11552
11556
11560
11564
11568
11572
11576
11580
11584
11588
11592
11596
11600
11604
11608
11612
11616
11620
11624
11628
11632
11636
11640
11644
11648
11652
11656
11660
11664
11668
11672
11676
11680
11684
11688
11692
11696
11700
11704
11708
11712
11716
11720
11724
11728
11732
11736
11740
11744
11748
11752
11756
11760
11764
11768
11772
11776
11780
11784
11788
11792
11796
11800
11804
11808
11812
11816
11820
11824
11828
11832
11836
11840
11844
11848
11852
11856
11860
11864
11868
11872
11876
11880
11884
11888
11892
11896
11900
11904
11908
11912
11916
11920
11924
11928
11932
11936
11940
11944
11948
11952
11956
11960
11964
11968
11972
11976
11980
11984
11988
11992
11996
12000
12004
12008
12012
12016
12020
12024
12028
12032
12036
12040
12044
12048
12052
12056
12060
12064
12068
12072
12076
12080
12084
12088
12092
12096
12100
12104
12108
12112
12116
12120
12124
12128
12132
12136
12140
12144
12148
12152
12156
12160
12164
12168
12172
12176
12180
12184
12188
12192
12196
12200
12204
12208
12212
12216
12220
12224
12228
12232
12236
12240
12244
12248
12252
12256
12260
12264
12268
12272
12276
12280
12284
12288
12292
12296
12300
12304
12308
12312
12316
12320
12324
12328
12332
12336
12340
12344
12348
12352
12356
12360
12364
12368
12372
12376
12380
12384
12388
12392
12396
12400
12404
12408
12412
12416
12420
12424
12428
12432
12436
12440
12444
12448
12452
12456
12460
12464
12468
12472
12476
12480
12484
12488
12492
12496
12500
12504
12508
12512
12516
12520
12524
12528
12532
12536
12540
12544
12548
12552
12556
12560
12564
12568
12572
12576
12580
12584
12588
12592
12596
12600
12604
12608
12612
12616
12620
12624
12628
12632
12636
12640
12644
12648
12652
12656
12660
12664
12668
12672
12676
12680
12684
12688
12692
12696
12700
12704
12708
12712
12716
12720
12724
12728
12732
12736
12740
12744
12748
12752
12756
12760
12764
12768
12772
12776
12780
12784
12788
12792
12796
12800
12804
12808
12812
12816
12820
12824
12828
12832
12836
12840
12844
12848
12852
12856
12860
12864
12868
12872
12876
12880
12884
12888
12892
12896
12900
12904
12908
12912
12916
12920
12924
12928
12932
12936
12940
12944
12948
12952
12956
12960
12964
12968
12972
12976
12980
12984
12988
12992
12996
13000
13004
13008
13012
13016
13020
13024
13028
13032
13036
13040
13044
13048
13052
13056
13060
13064
13068
13072
13076
13080
13084
13088
13092
13096
13100
13104
13108
13112
13116
13120
13124
13128
13132
13136
13140
13144
13148
13152
13156
13160
13164
13168
13172
13176
13180
13184
13188
13192
13196
13200
13204
13208
13212
13216
13220
13224
13228
13232
13236
13240
13244
13248
13252
13256
13260
13264
13268
13272
13276
13280
13284
13288
13292
13296
13300
13304
13308
13312
13316
13320
13324
13328
13332
13336
13340
13344
13348
13352
13356
13360
13364
13368
13372
13376
13380
13384
13388
13392
13396
13400
13404
13408
13412
13416
13420
13424
13428
13432
13436
13440
13444
13448
13452
13456
13460
13464
13468
13472
13476
13480
13484
13488
13492
13496
13500
13504
13508
13512
13516
13520
13524
13528
13532
13536
13540
13544
13548
13552
13556
13560
13564
13568
13572
13576
13580
13584
13588
13592
13596
13600
13604
13608
13612
13616
13620
13624
13628
13632
13636
13640
13644
13648
13652
13656
13660
13664
13668
13672
13676
13680
13684
13688
13692
13696
13700
13704
13708
13712
13716
13720
13724
13728
13732
13736
13740
13744
13748
13752
13756
13760
13764
13768
13772
13776
13780
13784
13788
13792
13796
13800
13804
13808
13812
13816
13820
13824
13828
13832
13836
13840
13844
13848
13852
13856
13860
13864
13868
13872
13876
13880
13884
13888
13892
13896
13900
13904
13908
13912
13916
13920
13924
13928
13932
13936
13940
13944
13948
13952
13956
13960
13964
13968
13972
13976
13980
13984
13988
13992
13996
14000
14004
14008
14012
14016
14020
14024
14028
14032
14036
14040
14044
14048
14052
14056
14060
14064
14068
14072
14076
14080
14084
14088
14092
14096
14100
14104
14108
14112
14116
14120
14124
14128
14132
14136
14140
14144
14148
14152
14156
14160
14164
14168
14172
14176
14180
14184
14188
14192
14196
14200
14204
14208
14212
14216
14220
14224
14228
14232
14236
14240
14244
14248
14252
14256
14260
14264
14268
14272
14276
14280
14284
14288
14292
14296
14300
14304
14308
14312
14316
14320
14324
14328
14332
14336
14340
14344
14348
14352
14356
14360
14364
14368
14372
14376
14380
14384
14388
14392
14396
14400
14404
14408
14412
14416
14420
14424
14428
14432
14436
14440
14444
14448
14452
14456
14460
14464
14468
14472
14476
14480
14484
14488
14492
14496
14500
14504
14508
14512
14516
14520
14524
14528
14532
14536
14540
14544
14548
14552
14556
14560
14564
14568
14572
14576
14580
14584
14588
14592
14596
14600
14604
14608
14612
14616
14620
14624
14628
14632
14636
14640
14644
14648
14652
14656
14660
14664
14668
14672
14676
14680
14684
14688
14692
14696
14700
14704
14708
14712
14716
14720
14724
14728
14732
14736
14740
14744
14748
14752
14756
14760
14764
14768
14772
14776
14780
14784
14788
14792
14796
14800
14804
14808
14812
14816
14820
14824
14828
14832
14836
14840
14844
14848
14852
14856
14860
14864
14868
14872
14876
14880
14884
14888
14892
14896
14900
14904
14908
14912
14916
14920
14924
14928
14932
14936
14940
14944
14948
14952
14956
14960
14964
14968
14972
14976
14980
14984
14988
14992
14996
15000
15004
15008
15012
15016
15020
15024
15028
15032
15036
15040
15044
15048
15052
15056
15060
15064
15068
15072
15076
15080
15084
15088
15092
15096
15100
15104
15108
15112
15116
15120
15124
15128
15132
15136
15140
15144
15148
15152
15156
15160
15164
15168
15172
15176
15180
15184
15188
15192
15196
15200
15204
15208
15212
15216
15220
15224
15228
15232
15236
15240
15244
15248
15252
15256
15260
15264
15268
15272
15276
15280
15284
15288
15292
15296
15300
15304
15308
15312
15316
15320
15324
15328
15332
15336
15340
15344
15348
15352
15356
15360
15364
15368
15372
15376
15380
15384
15388
15392
15396
15400
15404
15408
15412
15416
15420
15424
15428
15432
15436
15440
15444
15448
15452
15456
15460
15464
15468
15472
15476
15480
15484
15488
15492
15496
15500
15504
15508
15512
15516
15520
15524
15528
15532
15536
15540
15544
15548
15552
15556
15560
15564
15568
15572
15576
15580
15584
15588
15592
15596
15600
15604
15608
15612
15616
15620
15624
15628
15632
15636
15640
15644
15648
15652
15656
15660
15664
15668
15672
15676
15680
15684
15688
15692
15696
15700
15704
15708
15712
15716
15720
15724
15728
15732
15736
15740
15744
15748
15752
15756
15760
15764
15768
15772
15776
15780
15784
15788
15792
15796
15800
15804
15808
15812
15816
15820
15824
15828
15832
15836
15840
15844
15848
15852
15856
15860
15864
15868
15872
15876
15880
15884
15888
15892
15896
15900
15904
15908
15912
15916
15920
15924
15928
15932
15936
15940
15944
15948
15952
15956
15960
15964
15968
15972
15976
15980
15984
15988
15992
15996
16000
16004
16008
16012
16016
16020
16024
16028
16032
16036
16040
16044
16048
16052
16056
16060
16064
16068
16072
16076
16080
16084
16088
16092
16096
16100
16104
16108
16112
16116
16120
16124
16128
16132
16136
16140
16144
16148
16152
16156
16160
16164
16168
16172
16176
16180
16184
16188
16192
16196
16200
16204
16208
16212
16216
16220
16224
16228
16232
16236
16240
16244
16248
16252
16256
16260
16264
16268
16272
16276
16280
16284
16288
16292
16296
16300
16304
16308
16312
16316
16320
16324
16328
16332
16336
16340
16344
16348
16352
16356
16360
16364
16368
16372
16376
16380
16384
16388
16392
16396
16400
16404
16408
16412
16416
16420
16424
16428
16432
16436
16440
16444
16448
16452
16456
16460
16464
16468
16472
16476
16480
16484
16488
16492
16496
16500
16504
16508
16512
16516
16520
16524
16528
16532
16536
16540
16544
16548
16552
16556
16560
16564
16568
16572
16576
16580
16584
16588
16592
16596
16600
16604
16608
16612
16616
16620
16624
16628
16632
16636
16640
16644
16648
16652
16656
16660
16664
16668
16672
16676
16680
16684
16688
16692
16696
16700
16704
16708
16712
16716
16720
16724
16728
16732
16736
16740
16744
16748
16752
16756
16760
16764
16768
16772
16776
16780
16784
16788
16792
16796
16800
16804
16808
16812
16816
16820
16824
16828
16832
16836
16840
16844
16848
16852
16856
16860
16864
16868
16872
16876
16880
16884
16888
16892
16896
16900
16904
16908
16912
16916
16920
16924
16928
16932
16936
16940
16944
16948
16952
16956
16960
16964
16968
16972
16976
16980
16984
16988
16992
16996
17000
17004
17008
17012
17016
17020
17024
17028
17032
17036
17040
17044
17048
17052
17056
17060
17064
17068
17072
17076
17080
17084
17088
17092
17096
17100
17104
17108
17112
17116
17120
17124
17128
17132
17136
17140
17144
17148
17152
17156
17160
17164
17168
17172
17176
17180
17184
17188
17192
17196
17200
17204
17208
17212
17216
17220
17224
17228
17232
17236
17240
17244
17248
17252
17256
17260
17264
17268
17272
17276
17280
17284
17288
17292
17296
17300
17304
17308
17312
17316
17320
17324
17328
17332
17336
17340
17344
17348
17352
17356
17360
17364
17368
17372
17376
17380
17384
17388
17392
17396
17400
17404
17408
17412
17416
17420
17424
17428
17432
17436
17440
17444
17448
17452
17456
17460
17464
17468
17472
17476
17480
17484
17488
17492
17496
17500
17504
17508
17512
17516
17520
17524
17528
17532
17536
17540
17544
17548
17552
17556
17560
17564
17568
17572
17576
17580
17584
17588
17592
17596
17600
17604
17608
17612
17616
17620
17624
17628
17632
17636
17640
17644
17648
17652
17656
17660
17664
17668
17672
17676
17680
17684
17688
17692
17696
17700
17704
17708
17712
17716
17720
17724
17728
17732
17736
17740
17744
17748
17752
17756
17760
17764
17768
17772
17776
17780
17784
17788
17792
17796
17800
17804
17808
17812
17816
17820
17824
17828
17832
17836
17840
17844
17848
17852
17856
17860
17864
17868
17872
17876
17880
17884
17888
17892
17896
17900
17904
17908
17912
17916
17920
17924
17928
17932
17936
17940
17944
17948
17952
17956
17960
17964
17968
17972
17976
17980
17984
17988
17992
17996
18000
18004
18008
18012
18016
18020
18024
18028
18032
18036
18040
18044
18048
18052
18056
18060
18064
18068
18072
18076
18080
18084
18088
18092
18096
18100
18104
18108
18112
18116
18120
18124
18128
18132
18136
18140
18144
18148
18152
18156
18160
18164
18168
18172
18176
18180
18184
18188
18192
18196
18200
18204
18208
18212
18216
18220
18224
18228
18232
18236
18240
18244
18248
18252
18256
18260
18264
18268
18272
18276
18280
18284
18288
18292
18296
18300
18304
18308
18312
18316
18320
18324
18328
18332
18336
18340
18344
18348
18352
18356
18360
18364
18368
18372
18376
18380
18384
18388
18392
18396
18400
18404
18408
18412
18416
18420
18424
18428
18432
18436
18440
18444
18448
18452
18456
18460
18464
18468
18472
18476
18480
18484
18488
18492
18496
18500
18504
18508
18512
18516
18520
18524
18528
18532
18536
18540
18544
18548
18552
18556
18560
18564
18568
18572
18576
18580
18584
18588
18592
18596
18600
18604
18608
18612
18616
18620
18624
18628
18632
18636
18640
18644
18648
18652
18656
18660
18664
18668
18672
18676
18680
18684
18688
18692
18696
18700
18704
18708
18712
18716
18720
18724
18728
18732
18736
18740
18744
18748
18752
18756
18760
18764
18768
18772
18776
18780
18784
18788
18792
18796
18800
18804
18808
18812
18816
18820
18824
18828
18832
18836
18840
18844
18848
18852
18856
18860
18864
18868
18872
18876
18880
18884
18888
18892
18896
18900
18904
18908
18912
18916
18920
18924
18928
18932
18936
18940
18944
18948
18952
18956
18960
18964
18968
18972
18976
18980
18984
18988
18992
18996
19000
19004
19008
19012
19016
19020
19024
19028
19032
19036
19040
19044
19048
19052
19056
19060
19064
19068
19072
19076
19080
19084
19088
19092
19096
19100
19104
19108
19112
19116
19120
19124
19128
19132
19136
19140
19144
19148
19152
19156
19160
19164
19168
19172
19176
19180
19184
19188
19192
19196
19200
19204
19208
19212
19216
19220
19224
19228
19232
19236
19240
19244
19248
19252
19256
19260
19264
19268
19272
19276
19280
19284
19288
19292
19296
19300
19304
19308
19312
19316
19320
19324
19328
19332
19336
19340
19344
19348
19352
19356
19360
19364
19368
19372
19376
19380
19384
19388
19392
19396
19400
19404
19408
19412
19416
19420
19424
19428
19432
19436
19440
19444
19448
19452
19456
19460
19464
19468
19472
19476
19480
19484
19488
19492
19496
19500
19504
19508
19512
19516
19520
19524
19528
19532
19536
19540
19544
19548
19552
19556
19560
19564
19568
19572
19576
19580
19584
19588
19592
19596
19600
19604
19608
19612
19616
19620
19624
19628
19632
19636
19640
19644
19648
19652
19656
19660
19664
19668
19672
19676
19680
19684
19688
19692
19696
19700
19704
19708
19712
19716
19720
19724
19728
19732
19736
19740
19744
19748
19752
19756
19760
19764
19768
19772
19776
19780
19784
19788
19792
19796
19800
19804
19808
19812
19816
19820
19824
19828
19832
19836
19840
19844
19848
19852
19856
19860
19864
19868
19872
19876
19880
19884
19888
19892
19896
19900
19904
19908
19912
19916
19920
19924
19928
19932
19936
19940
19944
19948
19952
19956
19960
19964
19968
19972
19976
19980
19984
19988
19992
19996
20000
20004
20008
20012
20016
20020
20024
20028
20032
20036
20040
20044
20048
20052
20056
20060
20064
20068
20072
20076
20080
20084
20088
20092
20096
20100
20104
20108
20112
20116
20120
20124
20128
20132
20136
20140
20144
20148
20152
20156
20160
20164
20168
20172
20176
20180
20184
20188
20192
20196
20200
20204
20208
20212
20216
20220
20224
20228
20232
20236
20240
20244
20248
20252
20256
20260
20264
20268
20272
20276
20280
20284
20288
20292
20296
20300
20304
20308
20312
20316
20320
20324
20328
20332
20336
20340
20344
20348
20352
20356
20360
20364
20368
20372
20376
20380
20384
20388
20392
20396
20400
20404
20408
20412
20416
20420
20424
20428
20432
20436
20440
20444
20448
20452
20456
20460
20464
20468
20472
20476
20480
20484
20488
20492
20496
20500
20504
20508
20512
20516
20520
20524
20528
20532
20536
20540
20544
20548
20552
20556
20560
20564
20568
20572
20576
20580
20584
20588
20592
20596
20600
20604
20608
20612
20616
20620
20624
20628
20632
20636
20640
20644
20648
20652
20656
20660
20664
20668
20672
20676
20680
20684
20688
20692
20696
20700
20704
20708
20712
20716
20720
20724
20728
20732
20736
20740
20744
20748
20752
20756
20760
20764
20768
20772
20776
20780
20784
20788
20792
20796
20800
20804
20808
20812
20816
20820
20824
20828
20832
20836
20840
20844
20848
20852
20856
20860
20864
20868
20872
20876
20880
20884
20888
20892
20896
20900
20904
20908
20912
20916
20920
20924
20928
20932
20936
20940
20944
20948
20952
20956
20960
20964
20968
20972
20976
20980
20984
20988
20992
20996
21000
21004
21008
21012
21016
21020
21024
21028
21032
21036
21040
21044
21048
21052
21056
21060
21064
21068
21072
21076
21080
21084
21088
21092
21096
21100
21104
21108
21112
21116
21120
21124
21128
21132
21136
21140
21144
21148
21152
21156
21160
21164
21168
21172
21176
21180
21184
21188
21192
21196
21200
21204
21208
21212
21216
21220
21224
21228
21232
21236
21240
21244
21248
21252
21256
21260
21264
21268
21272
21276
21280
21284
21288
21292
21296
21300
21304
21308
21312
21316
21320
21324
21328
21332
21336
21340
21344
21348
21352
21356
21360
21364
21368
21372
21376
21380
21384
21388
21392
21396
21400
21404
21408
21412
21416
21420
21424
21428
21432
21436
21440
21444
21448
21452
21456
21460
21464
21468
21472
21476
21480
21484
21488
21492
21496
21500
21504
21508
21512
21516
21520
21524
21528
21532
21536
21540
21544
21548
21552
21556
21560
21564
21568
21572
21576
21580
21584
21588
21592
21596
21600
21604
21608
21612
21616
21620
21624
21628
21632
21636
21640
21644
21648
21652
21656
21660
21664
21668
21672
21676
21680
21684
21688
21692
21696
21700
21704
21708
21712
21716
21720
21724
21728
21732
21736
21740
21744
21748
21752
21756
21760
21764
21768
21772
21776
21780
21784
21788
21792
21796
21800
21804
21808
21812
21816
21820
21824
21828
21832
21836
21840
21844
21848
21852
21856
21860
21864
21868
21872
21876
21880
21884
21888
21892
21896
21900
21904
21908
21912
21916
21920
21924
21928
21932
21936
21940
21944
21948
21952
21956
21960
21964
21968
21972
21976
21980
21984
21988
21992
21996
22000
22004
22008
22012
22016
22020
22024
22028
22032
22036
22040
22044
22048
22052
22056
22060
22064
22068
22072
22076
22080
22084
22088
22092
22096
22100
22104
22108
22112
22116
22120
22124
22128
22132
22136
22140
22144
22148
22152
22156
22160
22164
22168
22172
22176
22180
22184
22188
22192
22196
22200
22204
22208
22212
22216
22220
22224
22228
22232
22236
22240
22244
22248
22252
22256
22260
22264
22268
22272
22276
22280
22284
22288
22292
22296
22300
22304
22308
22312
22316
22320
22324
22328
22332
22336
22340
22344
22348
22352
22356
22360
22364
22368
22372
22376
22380
22384
22388
22392
22396
22400
22404
22408
22412
22416
22420
22424
22428
22432
22436
22440
22444
22448
22452
22456
22460
22464
22468
22472
22476
22480
22484
22488
22492
22496
22500
22504
22508
22512
22516
22520
22524
22528
22532
22536
22540
22544
22548
22552
22556
22560
22564
22568
22572
22576
22580
22584
22588
22592
22596
22600
22604
22608
22612
22616
22620
22624
22628
22632
22636
22640
22644
22648
22652
22656
22660
22664
22668
22672
22676
22680
22684
22688
22692
22696
22700
22704
22708
22712
22716
22720
</DataArray>
<DataArray type="Int64" Name="types" format="ascii">
9
9
9
9
9
9
9
9
9
9
9
9
9
9
9
9
9
9
9
9
9
9
9
9
9
9
9
9
9
9
9
9
9
9
9
9
9
9
9
9
9
9
9
9
9
9
9
9
9
9
9
9
9
9
9
9
9
9
9
9
9
9
9
9
9
9
9
9
9
9
9
9
9
9
9
9
9
9
9
9
9
9
9
9
9
9
9
9
9
9
9
9
9
9
9
9
9
9
9
9
9
9
9
9
9
9
9
9
9
9
9
9
9
9
9
9
9
9
9
9
9
9
9
9
9
9
9
9
9
9
9
9
9
9
9
9
9
9
9
9
9
9
9
9
9
9
9
9
9
9
9
9
9
9
9
9
9
9
9
9
9
9
9
9
9
9
9
9
9
9
9
9
9
9
9
9
9
9
9
9
9
9
9
9
9
9
9
9
9
9
9
9
9
9
9
9
9
9
9
9
9
9
9
9
9
9
9
9
9
9
9
9
9
9
9
9
9
9
9
9
9
9
9
9
9
9
9
9
9
9
9
9
9
9
9
9
9
9
9
9
9
9
9
9
9
9
9
9
9
9
9
9
9
9
9
9
9
9
9
9
9
9
9
9
9
9
9
9
9
9
9
9
9
9
9
9
9
9
9
9
9
9
9
9
9
9
9
9
9
9
9
9
9
9
9
9
9
9
9
9
9
9
9
9
9
9
9
9
9
9
9
9
9
9
9
9
9
9
9
9
9
9
9
9
9
9
9
9
9
9
9
9
9
9
9
9
9
9
9
9
9
9
9
9
9
9
9
9
9
9
9
9
9
9
9
9
9
9
9
9
9
9
9
9
9
9
9
9
9
9
9
9
9
9
9
9
9
9
9
9
9
9
9
9
9
9
9
9
9
9
9
9
9
9
9
9
9
9
9
9
9
9
9
9
9
9
9
9
9
9
9
9
9
9
9
9
9
9
9
9
9
9
9
9
9
9
9
9
9
9
9
9
9
9
9
9
9
9
9
9
9
9
9
9
9
9
9
9
9
9
9
9
9
9
9
9
9
9
9
9
9
9
9
9
9
9
9
9
9
9
9
9
9
9
9
9
9
9
9
9
9
9
9
9
9
9
9
9
9
9
9
9
9
9
9
9
9
9
9
9
9
9
9
9
9
9
9
9
9
9
9
9
9
9
9
9
9
9
9
9
9
9
9
9
9
9
9
9
9
9
9
9
9
9
9
9
9
9
9
9
9
9
9
9
9
9
9
9
9
9
9
9
9
9
9
9
9
9
9
9
9
9
9
9
9
9
9
9
9
9
9
9
9
9
9
9
9
9
9
9
9
9
9
9
9
9
9
9
9
9
9
9
9
9
9
9
9
9
9
9
9
9
9
9
9
9
9
9
9
9
9
9
9
9
9
9
9
9
9
9
9
9
9
9
9
9
9
9
9
9
9
9
9
9
9
9
9
9
9
9
9
9
9
9
9
9
9
9
9
9
9
9
9
9
9
9
9
9
9
9
9
9
9
9
9
9
9
9
9
9
9
9
9
9
9
9
9
9
9
9
9
9
9
9
9
9
9
9
9
9
9
9
9
9
9
9
9
9
9
9
9
9
9
9
9
9
9
9
9
9
9
9
9
9
9
9
9
9
9
9
9
9
9
9
9
9
9
9
9
9
9
9
9
9
9
9
9
9
9
9
9
9
9
9
9
9
9
9
9
9
9
9
9
9
9
9
9
9
9
9
9
9
9
9
9
9
9
9
9
9
9
9
9
9
9
9
9
9
9
9
9
9
9
9
9
9
9
9
9
9
9
9
9
9
9
9
9
9
9
9
9
9
9
9
9
9
9
9
9
9
9
9
9
9
9
9
9
9
9
9
9
9
9
9
9
9
9
9
9
9
9
9
9
9
9
9
9
9
9
9
9
9
9
9
9
9
9
9
9
9
9
9
9
9
9
9
9
9
9
9
9
9
9
9
9
9
9
9
9
9
9
9
9
9
9
9
9
9
9
9
9
9
9
9
9
9
9
9
9
9
9
9
9
9
9
9
9
9
9
9
9
9
9
9
9
9
9
9
9
9
9
9
9
9
9
9
9
9
9
9
9
9
9
9
9
9
9
9
9
9
9
9
9
9
9
9
9
9
9
9
9
9
9
9
9
9
9
9
9
9
9
9
9
9
9
9
9
9
9
9
9
9
9
9
9
9
9
9
9
9
9
9
9
9
9
9
9
9
9
9
9
9
9
9
9
9
9
9
9
9
9
9
9
9
9
9
9
9
9
9
9
9
9
9
9
9
9
9
9
9
9
9
9
9
9
9
9
9
9
9
9
9
9
9
9
9
9
9
9
9
9
9
9
9
9
9
9
9
9
9
9
9
9
9
9
9
9
9
9
9
9
9
9
9
9
9
9
9
9
9
9
9
9
9
9
9
9
9
9
9
9
9
9
9
9
9
9
9
9
9
9
9
9
9
9
9
9
9
9
9
9
9
9
9
9
9
9
9
9
9
9
9
9
9
9
9
9
9
9
9
9
9
9
9
9
9
9
9
9
9
9
9
9
9
9
9
9
9
9
9
9
9
9
9
9
9
9
9
9
9
9
9
9
9
9
9
9
9
9
9
9
9
9
9
9
9
9
9
9
9
9
9
9
9
9
9
9
9
9
9
9
9
9
9
9
9
9
9
9
9
9
9
9
9
9
9
9
9
9
9
9
9
9
9
9
9
9
9
9
9
9
9
9
9
9
9
9
9
9
9
9
9
9
9
9
9
9
9
9
9
9
9
9
9
9
9
9
9
9
9
9
9
9
9
9
9
9
9
9
9
9
9
9
9
9
9
9
9
9
9
9
9
9
9
9
9
9
9
9
9
9
9
9
9
9
9
9
9
9
9
9
9
9
9
9
9
9
9
9
9
9
9
9
9
9
9
9
9
9
9
9
9
9
9
9
9
9
9
9
9
9
9
9
9
9
9
9
9
9
9
9
9
9
9
9
9
9
9
9
9
9
9
9
9
9
9
9
9
9
9
9
9
9
9
9
9
9
9
9
9
9
9
9
9
9
9
9
9
9
9
9
9
9
9
9
9
9
9
9
9
9
9
9
9
9
9
9
9
9
9
9
9
9
9
9
9
9
9
9
9
9
9
9
9
9
9
9
9
9
9
9
9
9
9
9
9
9
9
9
9
9
9
9
9
9
9
9
9
9
9
9
9
9
9
9
9
9
9
9
9
9
9
9
9
9
9
9
9
9
9
9
9
9
9
9
9
9
9
9
9
9
9
9
9
9
9
9
9
9
9
9
9
9
9
9
9
9
9
9
9
9
9
9
9
9
9
9
9
9
9
9
9
9
9
9
9
9
9
9
9
9
9
9
9
9
9
9
9
9
9
9
9
9
9
9
9
9
9
9
9
9
9
9
9
9
9
9
9
9
9
9
9
9
9
9
9
9
9
9
9
9
9
9
9
9
9
9
9
9
9
9
9
9
9
9
9
9
9
9
9
9
9
9
9
9
9
9
9
9
9
9
9
9
9
9
9
9
9
9
9
9
9
9
9
9
9
9
9
9
9
9
9
9
9
9
9
9
9
9
9
9
9
9
9
9
9
9
9
9
9
9
9
9
9
9
9
9
9
9
9
9
9
9
9
9
9
9
9
9
9
9
9
9
9
9
9
9
9
9
9
9
9
9
9
9
9
9
9
9
9
9
9
9
9
9
9
9
9
9
9
9
9
9
9
9
9
9
9
9
9
9
9
9
9
9
9
9
9
9
9
9
9
9
9
9
9
9
9
9
9
9
9
9
9
9
9
9
9
9
9
9
9
9
9
9
9
9
9
9
9
9
9
9
9
9
9
9
9
9
9
9
9
9
9
9
9
9
9
9
9
9
9
9
9
9
9
9
9
9
9
9
9
9
9
9
9
9
9
9
9
9
9
9
9
9
9
9
9
9
9
9
9
9
9
9
9
9
9
9
9
9
9
9
9
9
9
9
9
9
9
9
9
9
9
9
9
9
9
9
9
9
9
9
9
9
9
9
9
9
9
9
9
9
9
9
9
9
9
9
9
9
9
9
9
9
9
9
9
9
9
9
9
9
9
9
9
9
9
9
9
9
9
9
9
9
9
9
9
9
9
9
9
9
9
9
9
9
9
9
9
9
9
9
9
9
9
9
9
9
9
9
9
9
9
9
9
9
9
9
9
9
9
9
9
9
9
9
9
9
9
9
9
9
9
9
9
9
9
9
9
9
9
9
9
9
9
9
9
9
9
9
9
9
9
9
9
9
9
9
9
9
9
9
9
9
9
9
9
9
9
9
9
9
9
9
9
9
9
9
9
9
9
9
9
9
9
9
9
9
9
9
9
9
9
9
9
9
9
9
9
9
9
9
9
9
9
9
9
9
9
9
9
9
9
9
9
9
9
9
9
9
9
9
9
9
9
9
9
9
9
9
9
9
9
9
9
9
9
9
9
9
9
9
9
9
9
9
9
9
9
9
9
9
9
9
9
9
9
9
9
9
9
9
9
9
9
9
9
9
9
9
9
9
9
9
9
9
9
9
9
9
9
9
9
9
9
9
9
9
9
9
9
9
9
9
9
9
9
9
9
9
9
9
9
9
9
9
9
9
9
9
9
9
9
9
9
9
9
9
9
9
9
9
9
9
9
9
9
9
9
9
9
9
9
9
9
9
9
9
9
9
9
9
9
9
9
9
9
9
9
9
9
9
9
9
9
9
9
9
9
9
9
9
9
9
9
9
9
9
9
9
9
9
9
9
9
9
9
9
9
9
9
9
9
9
9
9
9
9
9
9
9
9
9
9
9
9
9
9
9
9
9
9
9
9
9
9
9
9
9
9
9
9
9
9
9
9
9
9
9
9
9
9
9
9
9
9
9
9
9
9
9
9
9
9
9
9
9
9
9
9
9
9
9
9
9
9
9
9
9
9
9
9
9
9
9
9
9
9
9
9
9
9
9
9
9
9
9
9
9
9
9
9
9
9
9
9
9
9
9
9
9
9
9
9
9
9
9
9
9
9
9
9
9
9
9
9
9
9
9
9
9
9
9
9
9
9
9
9
9
9
9
9
9
9
9
9
9
9
9
9
9
9
9
9
9
9
9
9
9
9
9
9
9
9
9
9
9
9
9
9
9
9
9
9
9
9
9
9
9
9
9
9
9
9
9
9
9
9
9
9
9
9
9
9
9
9
9
9
9
9
9
9
9
9
9
9
9
9
9
9
9
9
9
9
9
9
9
9
9
9
9
9
9
9
9
9
9
9
9
9
9
9
9
9
9
9
9
9
9
9
9
9
9
9
9
9
9
9
9
9
9
9
9
9
9
9
9
9
9
9
9
9
9
9
9
9
9
9
9
9
9
9
9
9
9
9
9
9
9
9
9
9
9
9
9
9
9
9
9
9
9
9
9
9
9
9
9
9
9
9
9
9
9
9
9
9
9
9
9
9
9
9
9
9
9
9
9
9
9
9
9
9
9
9
9
9
9
9
9
9
9
9
9
9
9
9
9
9
9
9
9
9
9
9
9
9
9
9
9
9
9
9
9
9
9
9
9
9
9
9
9
9
9
9
9
9
9
9
9
9
9
9
9
9
9
9
9
9
9
9
9
9
9
9
9
9
9
9
9
9
9
9
9
9
9
9
9
9
9
9
9
9
9
9
9
9
9
9
9
9
9
9
9
9
9
9
9
9
9
9
9
9
9
9
9
9
9
9
9
9
9
9
9
9
9
9
9
9
9
9
9
9
9
9
9
9
9
9
9
9
9
9
9
9
9
9
9
9
9
9
9
9
9
9
9
9
9
9
9
9
9
9
9
9
9
9
9
9
9
9
9
9
9
9
9
9
9
9
9
9
9
9
9
9
9
9
9
9
9
9
9
9
9
9
9
9
9
9
9
9
9
9
9
9
9
9
9
9
9
9
9
9
9
9
9
9
9
9
9
9
9
9
9
9
9
9
9
9
9
9
9
9
9
9
9
9
9
9
9
9
9
9
9
9
9
9
9
9
9
9
9
9
9
9
9
9
9
9
9
9
9
9
9
9
9
9
9
9
9
9
9
9
9
9
9
9
9
9
9
9
9
9
9
9
9
9
9
9
9
9
9
9
9
9
9
9
9
9
9
9
9
9
9
9
9
9
9
9
9
9
9
9
9
9
9
9
9
9
9
9
9
9
9
9
9
9
9
9
9
9
9
9
9
9
9
9
9
9
9
9
9
9
9
9
9
9
9
9
9
9
9
9
9
9
9
9
9
9
9
9
9
9
9
9
9
9
9
9
9
9
9
9
9
9
9
9
9
9
9
9
9
9
9
9
9
9
9
9
9
9
9
9
9
9
9
9
9
9
9
9
9
9
9
9
9
9
9
9
9
9
9
9
9
9
9
9
9
9
9
9
9
9
9
9
9
9
9
9
9
9
9
9
9
9
9
9
9
9
9
9
9
9
9
9
9
9
9
9
9
9
9
9
9
9
9
9
9
9
9
9
9
9
9
9
9
9
9
9
9
9
9
9
9
9
9
9
9
9
9
9
9
9
9
9
9
9
9
9
9
9
9
9
9
9
9
9
9
9
9
9
9
9
9
9
9
9
9
9
9
9
9
9
9
9
9
9
9
9
9
9
9
9
9
9
9
9
9
9
9
9
9
9
9
9
9
9
9
9
9
9
9
9
9
9
9
9
9
9
9
9
9
9
9
9
9
9
9
9
9
9
9
9
9
9
9
9
9
9
9
9
9
9
9
9
9
9
9
9
9
9
9
9
9
9
9
9
9
9
9
9
9
9
9
9
9
9
9
9
9
9
9
9
9
9
9
9
9
9
9
9
9
9
9
9
9
9
9
9
9
9
9
9
9
9
9
9
9
9
9
9
9
9
9
9
9
9
9
9
9
9
9
9
9
9
9
9
9
9
9
9
9
9
9
9
9
9
9
9
9
9
9
9
9
9
9
9
9
9
9
9
9
9
9
9
9
9
9
9
9
9
9
9
9
9
9
9
9
9
9
9
9
9
9
9
9
9
9
9
9
9
9
9
9
9
9
9
9
9
9
9
9
9
9
9
9
9
9
9
9
9
9
9
9
9
9
9
9
9
9
9
9
9
9
9
9
9
9
9
9
9
9
9
9
9
9
9
9
9
9
9
9
9
9
9
9
9
9
9
9
9
9
9
9
9
9
9
9
9
9
9
9
9
9
9
9
9
9
9
9
9
9
9
9
9
9
9
9
9
9
9
9
9
9
9
9
9
9
9
9
9
9
9
9
9
9
9
9
9
9
9
9
9
9
9
9
9
9
9
9
9
9
9
9
9
9
9
9
9
9
9
9
9
9
9
9
9
9
9
9
9
9
9
9
9
9
9
9
9
9
9
9
9
9
9
9
9
9
9
9
9
9
9
9
9
9
9
9
9
9
9
9
9
9
9
9
9
9
9
9
9
9
9
9
9
9
9
9
9
9
9
9
9
9
9
9
9
9
9
9
9
9
9
9
9
9
9
9
9
9
9
9
9
9
9
9
9
9
9
9
9
9
9
9
9
9
9
9
9
9
9
9
9
9
9
9
9
9
9
9
9
9
9
9
9
9
9
9
9
9
9
9
9
9
9
9
9
9
9
9
9
9
9
9
9
9
9
9
9
9
9
9
9
9
9
9
9
9
9
9
9
9
9
9
9
9
9
9
9
9
9
9
9
9
9
9
9
9
9
9
9
9
9
9
9
9
9
9
9
9
9
9
9
9
9
9
9
9
9
9
9
9
9
9
9
9
9
9
9
9
9
9
9
9
9
9
9
9
9
9
9
9
9
9
9
9
9
9
9
9
9
9
9
9
9
9
9
9
9
9
9
9
9
9
9
9
9
9
9
9
9
9
9
9
9
9
9
9
9
9
9
9
9
9
9
9
9
9
9
9
9
9
9
9
9
9
9
9
9
9
9
9
9
9
9
9
9
9
9
9
9
9
9
9
9
9
9
9
9
9
9
9
9
9
9
9
9
9
9
9
9
9
9
9
9
9
9
9
9
9
9
9
9
9
9
9
9
9
9
9
9
9
9
9
9
9
9
9
9
9
9
9
9
9
9
9
9
9
9
9
9
9
9
9
9
9
9
9
9
9
9
9
9
9
9
9
9
9
9
9
9
9
9
9
9
9
9
9
9
9
9
9
9
9
9
9
9
9
9
9
9
9
9
9
9
9
9
9
9
9
9
9
9
9
9
9
9
9
9
9
9
9
9
9
9
9
9
9
9
9
9
9
9
9
9
9
9
9
9
9
9
9
9
9
9
9
9
9
9
9
9
9
9
9
9
9
9
9
9
9
9
9
9
9
9
9
9
9
9
9
9
9
9
9
9
9
9
9
9
9
9
9
9
9
9
9
9
9
9
9
9
9
9
9
9
9
9
9
9
9
9
9
9
9
9
9
9
9
9
9
9
9
9
9
9
9
9
9
9
9
9
9
9
9
9
9
9
9
9
9
9
9
9
9
9
9
9
9
9
9
9
9
9
9
9
9
9
9
9
9
9
9
9
9
9
9
9
9
9
9
9
9
9
9
9
9
9
9
9
9
9
9
9
9
9
9
9
9
9
9
9
9
9
9
9
9
9
9
9
9
9
9
9
9
9
9
9
9
9
9
9
9
9
9
9
9
9
9
9
9
9
9
9
9
9
9
9
9
9
9
9
9
9
9
9
9
9
9
9
9
9
9
9
9
9
9
9
9
9
9
9
9
9
9
9
9
9
9
9
9
9
9
9
9
9
9
9
9
9
9
9
9
9
9
9
9
9
9
9
9
9
9
9
9
9
9
9
9
9
9
9
9
9
9
9
9
9
9
9
9
9
9
9
9
9
9
9
9
9
9
9
9
9
9
9
9
9
9
9
9
9
9
9
9
9
9
9
9
9
9
9
9
9
9
9
9
9
9
9
9
9
9
9
9
9
9
9
9
9
9
9
9
9
9
9
9
9
9
9
9
9
9
9
9
9
9
9
9
9
9
9
9
9
9
9
9
9
9
9
9
9
9
9
9
9
9
9
9
9
9
9
9
9
9
9
9
9
9
9
9
9
9
9
9
9
9
9
9
9
9
9
9
9
9
9
9
9
9
9
9
9
9
9
9
9
9
9
9
9
9
9
9
9
9
9
9
9
9
9
9
9
9
9
9
9
9
9
9
9
9
9
9
9
9
9
9
9
9
9
9
9
9
9
9
9
9
9
9
9
9
9
9
9
9
9
9
9
9
9
9
9
9
9
9
9
9
9
9
9
9
9
9
9
9
9
9
9
9
9
9
9
9
9
9
9
9
9
9
9
9
9
9
9
9
9
9
9
9
9
9
9
9
9
9
9
9
9
9
9
9
9
9
9
9
9
9
9
9
9
9
9
9
9
9
9
9
9
9
9
9
9
9
9
9
9
9
9
9
9
9
9
9
9
9
9
9
9
9
9
9
9
9
9
9
9
9
9
9
9
9
9
9
9
9
9
9
9
9
9
9
9
9
9
9
9
9
9
9
9
9
9
9
9
9
9
9
9
9
9
9
9
9
9
9
9
9
9
9
9
9
9
9
9
9
9
9
9
9
9
9
9
9
9
9
9
9
9
9
9
9
9
9
9
9
9
9
9
9
9
9
9
9
9
9
9
9
9
9
9
9
9
9
9
9
9
9
9
9
9
9
9
9
9
9
9
9
9
9
9
9
9
9
9
9
9
9
9
9
9
9
9
9
9
9
9
9
9
9
9
9
9
9
9
9
9
9
9
9
9
9
9
9
9
9
9
9
9
9
9
9
9
9
9
9
9
9
9
9
9
9
9
9
9
9
9
9
9
9
9
9
9
9
9
9
9
9
9
9
9
9
9
9
9
9
9
9
9
9
9
9
9
9
9
9
9
9
9
9
9
9
9
9
9
9
9
9
9
9
9
9
9
9
9
9
9
9
9
9
9
9
9
9
9
9
9
9
9
9
9
9
9
9
9
9
9
9
9
9
9
9
9
9
9
9
9
9
9
9
9
9
9
9
9
9
9
9
9
9
9
9
9
9
9
9
9
9
9
9
9
9
9
9
9
9
9
9
9
9
9
9
9
9
9
9
9
9
9
9
9
9
9
9
9
9
9
9
9
9
9
9
9
9
9
9
9
9
9
9
9
9
9
9
9
9
9
9
9
9
9
9
9
9
9
9
9
9
9
9
9
9
9
9
9
9
9
9
9
9
9
9
9
9
9
9
9
9
9
9
9
9
9
9
9
9
9
9
9
9
9
9
9
9
9
9
9
9
9
9
9
9
9
9
9
9
9
9
9
9
9
9
9
9
9
9
9
9
9
9
9
9
9
9
9
9
9
9
9
9
9
9
9
9
9
9
9
9
9
9
9
9
9
9
9
9
9
9
9
9
9
9
9
9
9
9
9
9
9
9
9
9
9
9
9
9
9
9
9
9
9
9
9
9
9
9
9
9
9
9
9
9
9
9
9
9
9
9
9
9
9
9
9
9
9
9
9
9
9
9
9
9
9
9
9
9
9
9
9
9
9
9
9
9
9
9
9
9
9
9
9
9
9
9
9
9
9
9
9
9
9
9
9
9
9
9
9
9
9
9
9
9
9
9
9
9
9
9
9
9
9
9
9
9
9
9
9
9
9
9
9
9
9
9
9
9
9
9
9
9
9
9
9
9
9
9
9
9
9
9
9
9
9
9
9
9
9
9
9
9
9
9
9
9
9
9
9
9
9
9
9
9
9
9
9
9
9
9
9
9
9
9
9
9
9
9
9
9
9
9
9
9
9
9
9
9
9
9
9
9
9
9
9
9
9
9
9
9
9
9
9
9
9
9
9
9
9
9
9
9
9
9
9
9
9
9
9
9
9
9
9
9
9
9
9
9
9
9
9
9
9
9
9
9
9
9
9
9
9
9
9
9
9
9
9
9
9
9
9
9
9
9
9
9
9
9
9
9
9
9
9
9
9
9
9
9
9
9
9
9
9
9
9
9
9
9
9
9
9
9
9
9
9
9
9
9
9
9
9
9
9
9
9
9
9
9
9
9
9
9
9
9
9
9
9
9
9
9
9
9
9
9
9
9
9
9
9
9
9
9
9
9
9
9
9
9
9
9
9
9
9
9
9
9
9
9
9
9
9
9
9
9
9
9
9
9
9
9
9
9
9
9
9
9
9
9
9
9
9
9
9
9
9
9
9
9
9
9
9
9
9
9
9
9
9
9
9
9
9
9
9
9
9
9
9
9
9
9
9
9
9
9
9
9
9
9
9
9
9
9
9
9
9
9
9
9
9
9
9
9
9
9
9
9
9
9
9
9
9
9
9
9
9
9
9
9
9
9
9
9
9
9
9
9
9
9
9
9
9
9
9
9
9
9
9
9
9
9
9
9
9
9
9
9
9
9
9
9
9
9
9
9
9
9
9
9
9
9
9
9
9
9
9
9
9
9
9
9
9
9
9
9
9
9
9
9
9
9
9
9
9
9
9
9
9
9
9
9
9
9
9
9
9
9
9
9
9
9
9
9
9
9
9
9
9
9
9
9
9
9
9
9
9
9
9
9
9
9
9
9
9
9
9
9
9
9
9
9
9
9
9
9
9
9
9
9
9
9
9
9
9
9
9
9
9
9
9
9
9
9
9
9
9
9
9
9
9
9
9
9
9
9
9
9
9
9
9
9
9
9
9
9
9
9
9
9
9
9
9
9
9
9
9
9
9
9
9
9
9
9
9
9
9
9
9
9
9
9
9
9
9
9
9
9
9
9
9
9
9
9
9
9
9
9
9
9
9
9
9
9
9
9
9
9
9
9
9
9
9
9
9
9
9
9
9
9
9
9
9
9
9
9
9
9
9
9
9
9
9
9
9
9
9
9
9
9
9
9
9
9
9
9
9
9
9
9
9
9
9
9
9
9
9
9
9
9
9
9
9
9
9
9
9
9
9
9
9
9
9
9
9
9
9
9
9
9
9
9
9
9
9
9
9
9
9
9
9
9
9
9
9
9
9
9
9
9
9
9
9
9
9
9
9
9
9
9
9
9
9
9
9
9
9
9
9
9
9
9
9
9
9
9
9
9
9
9
9
9
9
9
9
9
9
9
9
9
9
9
9
9
9
9
9
9
9
9
9
9
9
9
9
9
9
9
9
9
9
9
9
9
9
9
9
9
9
9
9
9
9
9
9
9
9
9
9
9
9
9
9
9
9
9
9
9
9
9
9
9
9
9
9
9
9
9
9
9
9
9
9
9
9
9
9
9
9
9
9
9
9
9
9
9
9
9
9
9
9
9
9
9
9
9
9
9
9
9
9
9
9
9
9
9
9
9
9
9
9
9
9
9
9
9
9
9
9
9
9
9
9
9
9
9
9
9
9
9
9
9
9
9
9
9
9
9
9
9
9
9
9
9
9
9
9
9
9
9
9
9
9
9
9
9
9
9
9
9
9
9
9
9
9
9
9
9
9
9
9
9
9
9
9
9
9
9
9
9
9
9
9
9
9
9
9
9
9
9
9
9
9
9
9
9
9
9
9
9
9
9
9
9
9
9
9
9
9
9
9
9
9
9
9
9
9
9
9
9
9
9
9
9
9
9
9
9
9
9
9
9
9
9
9
9
9
9
9
9
9
9
9
9
9
9
9
9
9
9
9
9
9
9
9
9
9
9
9
9
9
9
9
9
9
9
9
9
9
9
9
9
9
9
9
9
9
9
9
9
9
9
9
9
9
9
9
9
9
9
9
9
9
9
9
9
9
9
9
9
9
9
9
9
9
9
9
9
9
9
9
9
9
9
9
9
9
9
9
9
9
9
9
9
9
9
9
9
9
9
9
9
9
9
9
9
</DataArray>
</Cells>
<PointData Vectors="'U'">
<DataArray type="Float64" Name="U" NumberOfComponents="2" ComponentName0="U1" ComponentName1="U2" format="ascii">
-0.2000212003732E-37 -0.5117336425023E-37
-0.3478433489138E-37 -0.4662659463324E-37
-0.2032650965261E-37  0.5199310472321E-37
-0.3411715436157E-01 -0.5214124481489E-01
-0.2708634434811E-01 -0.2262878351518E-01
-0.1360511014437E-01 -0.1265020389223E-01
-0.5326835035327E-02 -0.2683325758699E-01
-0.5639498020408E+00 -0.3291509488543E+00
 0.4147815181171E-02 -0.3865299665447E+00
-0.5848289891147E+00 -0.4351046395198E+00
 0.9222152265644E-01 -0.6164488621075E+00
-0.5569866948413E-37 -0.1734542413673E-36
-0.5568042351507E-37 -0.1564380721222E-36
-0.5438561695558E-37 -0.1453860385585E-36
-0.5297236015079E-37 -0.1371614617649E-36
-0.5165314350662E-37 -0.1305814969042E-36
-0.5046306839564E-37 -0.1250670711562E-36
-0.4939620030789E-37 -0.1202917658322E-36
-0.4843740422680E-37 -0.1160548517783E-36
-0.4757094917146E-37 -0.1122251504909E-36
-0.4678282322043E-37 -0.1087128878690E-36
-0.4606115641648E-37 -0.1054543219746E-36
-0.4539607015870E-37 -0.1024027984358E-36
-0.4477938165430E-37 -0.9952328845692E-37
-0.4420430354263E-37 -0.9678890356904E-37
-0.4366518208708E-37 -0.9417860532342E-37
-0.4315728082279E-37 -0.9167565023502E-37
-0.4267660612055E-37 -0.8926650750012E-37
-0.4221976808457E-37 -0.8694008898247E-37
-0.4178387121975E-37 -0.8468719229804E-37
-0.4136675161612E-37 -0.8250027768631E-37
-0.4096705528557E-37 -0.8039587575899E-37
-0.4058148183790E-37 -0.7834481325866E-37
-0.4020852277340E-37 -0.7634208587762E-37
-0.3984671636001E-37 -0.7438334451551E-37
-0.3949475615012E-37 -0.7246472071889E-37
-0.3915146740402E-37 -0.7058273735153E-37
-0.3881578640352E-37 -0.6873423211308E-37
-0.3848674336967E-37 -0.6691630031219E-37
-0.3816344817497E-37 -0.6512624701109E-37
-0.3784507850425E-37 -0.6336154899065E-37
-0.3753086996763E-37 -0.6161982286612E-37
-0.3722010788264E-37 -0.5989879805633E-37
-0.3691212051050E-37 -0.5819629558848E-37
-0.3660627345632E-37 -0.5651021017672E-37
-0.3630196509633E-37 -0.5483849518243E-37
-0.3599862289007E-37 -0.5317915118261E-37
-0.3569570040243E-37 -0.5153021475031E-37
-0.3539267504108E-37 -0.4988975039023E-37
-0.3508904636008E-37 -0.4825584352016E-37
-0.3447808145195E-37 -0.4500011447500E-37
-0.3416984688478E-37 -0.4337451988449E-37
-0.3385921221034E-37 -0.4174793023868E-37
-0.3354577916703E-37 -0.4011846444815E-37
-0.3322917112407E-37 -0.3848423819952E-37
-0.3290903436948E-37 -0.3684336136061E-37
-0.3258503975584E-37 -0.3519393575865E-37
-0.3225688473140E-37 -0.3353405152857E-37
-0.3192429579664E-37 -0.3186178495108E-37
-0.3158703136786E-37 -0.3017519483561E-37
-0.3124488512997E-37 -0.2847231846543E-37
-0.3089768990074E-37 -0.2675116709600E-37
-0.3054532209615E-37 -0.2500971924639E-37
-0.3018770691726E-37 -0.2324591329653E-37
-0.2982482432391E-37 -0.2145763897186E-37
-0.2945671597383E-37 -0.1964272559996E-37
-0.2908349318204E-37 -0.1779892878322E-37
-0.2870534621759E-37 -0.1592390911615E-37
-0.2832255434731E-37 -0.1401521060861E-37
-0.2793510098897E-37 -0.1207002970193E-37
-0.2754435191331E-37 -0.1006769803614E-37
-0.2715076616309E-37 -0.8023596731700E-38
-0.2675506796732E-37 -0.5934531478020E-38
-0.2635827816540E-37 -0.3796897540051E-38
-0.2596165287826E-37 -0.1606635557103E-38
-0.2556672715718E-37  0.6408932388122E-39
-0.2517537105806E-37  0.2951077505532E-38
-0.2478985909799E-37  0.5330288280856E-38
-0.2441295481709E-37  0.7786200244493E-38
-0.2404801053275E-37  0.1032824171693E-37
-0.2369907950296E-37  0.1296824267052E-37
-0.2337102705374E-37  0.1572136533405E-37
-0.2306961312952E-37  0.1860746920362E-37
-0.2280149952458E-37  0.2165308248961E-37
-0.2257417534650E-37  0.2489407078208E-37
-0.2239627040315E-37  0.2837828344219E-37
-0.2228192203412E-37  0.3216280868460E-37
-0.2228420960769E-37  0.3627320573806E-37
-0.2275007907384E-37  0.4039869560520E-37
-0.3389716232490E-01 -0.4602100551926E-01
-0.3338333436480E-01 -0.4228027403974E-01
-0.3286836732146E-01 -0.3957319712676E-01
-0.3240787846370E-01 -0.3743921104343E-01
-0.3199512402994E-01 -0.3566517307821E-01
-0.3161618873912E-01 -0.3413818049897E-01
-0.3125972709319E-01 -0.3279276235301E-01
-0.3091796455769E-01 -0.3158792614291E-01
-0.3058581816597E-01 -0.3049626733819E-01
-0.3025998317738E-01 -0.2949843189617E-01
-0.2993828176504E-01 -0.2858012448900E-01
-0.2961924627139E-01 -0.2773039544382E-01
-0.2930186332853E-01 -0.2694061073540E-01
-0.2898541551657E-01 -0.2620379528332E-01
-0.2866938587086E-01 -0.2551420367886E-01
-0.2835340048974E-01 -0.2486702641423E-01
-0.2803719792998E-01 -0.2425818349197E-01
-0.2772062099046E-01 -0.2368417371530E-01
-0.2740363708845E-01 -0.2314195729421E-01
-0.2677377651779E-01 -0.2215092085429E-01
-0.2645936279231E-01 -0.2169630236875E-01
-0.2614353532270E-01 -0.2126310514216E-01
-0.2582631932698E-01 -0.2084974409327E-01
-0.2550770606860E-01 -0.2045470568340E-01
-0.2518767169360E-01 -0.2007659652595E-01
-0.2486619135271E-01 -0.1971413447511E-01
-0.2454324437558E-01 -0.1936614091155E-01
-0.2421881655286E-01 -0.1903153209875E-01
-0.2389290141078E-01 -0.1870931191854E-01
-0.2356550066616E-01 -0.1839856553448E-01
-0.2323662413250E-01 -0.1809845396622E-01
-0.2290628972383E-01 -0.1780820996049E-01
-0.2257452317274E-01 -0.1752713457307E-01
-0.2224135755603E-01 -0.1725459442434E-01
-0.2190683299806E-01 -0.1699001981391E-01
-0.2157099574724E-01 -0.1673290294530E-01
-0.2123389753511E-01 -0.1648279693492E-01
-0.2089559473427E-01 -0.1623931513680E-01
-0.2055614742738E-01 -0.1600213082783E-01
-0.2021561841015E-01 -0.1577097722909E-01
-0.1987407209049E-01 -0.1554564780707E-01
-0.1953157332365E-01 -0.1532599686281E-01
-0.1918818622467E-01 -0.1511194042275E-01
-0.1884397292467E-01 -0.1490345740430E-01
-0.1849899229994E-01 -0.1470059108116E-01
-0.1815329880089E-01 -0.1450345093609E-01
-0.1780694088707E-01 -0.1431221464193E-01
-0.1745996003071E-01 -0.1412713076041E-01
-0.1711238947434E-01 -0.1394852172371E-01
-0.1676425315057E-01 -0.1377678737362E-01
-0.1641556490252E-01 -0.1361240915167E-01
-0.1606632763925E-01 -0.1345595476250E-01
-0.1571653317312E-01 -0.1330808357215E-01
-0.1536616312045E-01 -0.1316955250559E-01
-0.1501519103008E-01 -0.1304122148408E-01
-0.1466358764583E-01 -0.1292405600572E-01
-0.1431133233180E-01 -0.1281912102530E-01
-0.1395842665393E-01 -0.1272751620906E-01
-0.1324442768261E-01 -0.1258975116141E-01
-0.1288099323373E-01 -0.1254950812586E-01
-0.1251522067724E-01 -0.1253155167770E-01
-0.1214714078979E-01 -0.1253838258911E-01
-0.1177658798812E-01 -0.1257294066455E-01
-0.1140326411274E-01 -0.1263870625004E-01
-0.1102675459173E-01 -0.1273982293194E-01
-0.1064651463290E-01 -0.1288127065683E-01
-0.1026183067093E-01 -0.1306911387940E-01
-0.9871751229228E-02 -0.1331086489186E-01
-0.9474968452200E-02 -0.1361603457628E-01
-0.9069626059386E-02 -0.1399699718759E-01
-0.8653004638921E-02 -0.1447041834305E-01
-0.8221032538315E-02 -0.1505973866520E-01
-0.7767615336816E-02 -0.1579975054528E-01
-0.7284058516281E-02 -0.1674556356474E-01
-0.6760166429163E-02 -0.1799144301788E-01
-0.6192770582880E-02 -0.1971403253741E-01
-0.5632115011404E-02 -0.2229270983903E-01
-0.1660426167262E+00 -0.1632852192782E+00
-0.2454325198398E+00 -0.2438587730342E+00
-0.3145301325389E+00 -0.2952638459898E+00
-0.3743273113063E+00 -0.3277815561577E+00
-0.4260957415879E+00 -0.3473193521560E+00
-0.4704905260910E+00 -0.3582965640407E+00
-0.5081828895616E+00 -0.3631775420840E+00
-0.5397235537678E+00 -0.3634417060814E+00
-0.5654914276473E+00 -0.3603963543542E+00
-0.5858277552244E+00 -0.3550203795193E+00
-0.6011180742505E+00 -0.3481064595231E+00
-0.6117221545234E+00 -0.3409818001034E+00
-0.6182518450346E+00 -0.3336686178963E+00
-0.6212262478875E+00 -0.3260483209139E+00
-0.6206370234421E+00 -0.3189212855262E+00
-0.6163633966031E+00 -0.3133328599025E+00
-0.6083795153821E+00 -0.3104129807654E+00
-0.5968185374952E+00 -0.3112781320085E+00
-0.5819647660124E+00 -0.3170880064112E+00
-0.5547361152213E+00 -0.3372054539778E+00
-0.5447752242115E+00 -0.3474550590711E+00
-0.5340811035176E+00 -0.3599361036836E+00
-0.5226109699126E+00 -0.3748241436539E+00
-0.5102877065366E+00 -0.3923620238100E+00
-0.4970027019741E+00 -0.4128567930760E+00
-0.4826243356701E+00 -0.4366884988884E+00
-0.4671936117768E+00 -0.4644258488482E+00
-0.4509918595763E+00 -0.4969638061191E+00
-0.4341845936735E+00 -0.5355716605434E+00
-0.4168559908248E+00 -0.5824194773686E+00
-0.3983450234218E+00 -0.6420698342485E+00
-0.3791108188030E+00 -0.7148163195871E+00
-0.3613168347305E+00 -0.7940880787869E+00
-0.3464402506139E+00 -0.8741519637471E+00
-0.3349510736912E+00 -0.9514943503901E+00
-0.3268444348492E+00 -0.1023563889321E+01
-0.3218745698123E+00 -0.1088404078973E+01
-0.3196368402915E+00 -0.1144479533609E+01
-0.3196001014419E+00 -0.1190578538410E+01
-0.3210991864771E+00 -0.1225766025437E+01
-0.3233327727101E+00 -0.1249408372044E+01
-0.3255080900854E+00 -0.1261111116196E+01
-0.3268631464390E+00 -0.1260692530781E+01
-0.3266598568431E+00 -0.1248177824169E+01
-0.3241817995173E+00 -0.1223798165431E+01
-0.3187368661889E+00 -0.1187996042160E+01
-0.3096668353087E+00 -0.1141437089923E+01
-0.2963685257287E+00 -0.1085025960630E+01
-0.2783393186339E+00 -0.1019932853724E+01
-0.2552699962388E+00 -0.9476254395580E+00
-0.2272259536575E+00 -0.8699014101834E+00
-0.1949699056892E+00 -0.7889200292433E+00
-0.1603017124363E+00 -0.7072922568591E+00
-0.1252835123716E+00 -0.6287862333661E+00
-0.9313429152008E-01 -0.5599268190066E+00
-0.6548845378039E-01 -0.5039966983466E+00
-0.4071321329080E-01 -0.4581134661759E+00
-0.1759684900907E-01 -0.4193490679533E+00
 0.4984309231844E-01 -0.3287141686893E+00
 0.9150794443653E-01 -0.2855069669716E+00
 0.1297503395054E+00 -0.2529960873250E+00
 0.1646593407373E+00 -0.2288983658367E+00
 0.1966536331487E+00 -0.2119353285273E+00
 0.2263729998417E+00 -0.2017889692150E+00
 0.2537885802408E+00 -0.1983278498160E+00
 0.2779505479241E+00 -0.2016142916426E+00
 0.2970847690434E+00 -0.2089774931298E+00
 0.3103812296455E+00 -0.2176353373835E+00
 0.3174309808644E+00 -0.2266487811532E+00
 0.3179546111684E+00 -0.2348081796457E+00
 0.3117212232511E+00 -0.2409691649837E+00
 0.2984207551457E+00 -0.2438662839868E+00
 0.2776194419122E+00 -0.2420121749718E+00
 0.2486705331430E+00 -0.2331951901832E+00
 0.2107876852373E+00 -0.2135652995561E+00
 0.1626347614113E+00 -0.1777420061742E+00
 0.1028506702419E+00 -0.1163741006524E+00
-0.7026657709720E-03 -0.1234171185604E-02
-0.1179947895097E-02 -0.2129654573102E-02
-0.1597678253713E-02 -0.2964274571633E-02
-0.1980554164944E-02 -0.3759841575563E-02
-0.2345479223894E-02 -0.4531017778118E-02
-0.2700275612638E-02 -0.5285216800236E-02
-0.3050428939785E-02 -0.6026867314990E-02
-0.3399488870371E-02 -0.6758916024534E-02
-0.3749970887814E-02 -0.7483466569131E-02
-0.4103652568004E-02 -0.8202152193765E-02
-0.4461804603890E-02 -0.8916350171102E-02
-0.4825322388709E-02 -0.9627319819000E-02
-0.5194828162932E-02 -0.1033632205234E-01
-0.5570737148690E-02 -0.1104470746660E-01
-0.5953283246923E-02 -0.1175396355338E-01
-0.6342615160175E-02 -0.1246593754180E-01
-0.6738764985334E-02 -0.1318289704311E-01
-0.7141673401779E-02 -0.1390788286394E-01
-0.7551237411280E-02 -0.1464566097091E-01
-0.7968728716756E-02 -0.1540505410345E-01
-0.8398675291435E-02 -0.1619662066076E-01
-0.8846497524850E-02 -0.1702508733317E-01
-0.9316267997416E-02 -0.1789012775479E-01
-0.9810667499773E-02 -0.1879006251858E-01
-0.1033175899801E-01 -0.1972405835046E-01
-0.1088169213822E-01 -0.2069292832895E-01
-0.1146316513567E-01 -0.2169922739832E-01
-0.1207973480580E-01 -0.2274718459223E-01
-0.1273610130095E-01 -0.2384260314368E-01
-0.1343838846915E-01 -0.2499229242988E-01
-0.1419393626539E-01 -0.2620269665263E-01
-0.1501099771408E-01 -0.2748104336249E-01
-0.1589953281138E-01 -0.2883960066525E-01
-0.1687266299297E-01 -0.3029645884829E-01
-0.1794839453391E-01 -0.3187793679478E-01
-0.1915201453437E-01 -0.3362346093722E-01
-0.2052436007839E-01 -0.3559682541411E-01
-0.2212494588755E-01 -0.3790839628367E-01
-0.2412382766018E-01 -0.4078248487089E-01
-0.2664781358248E-01 -0.4491310147665E-01
-0.1060758241270E-01 -0.2132326163156E-01
-0.1178871383623E-01 -0.1830877091305E-01
-0.1250398641258E-01 -0.1629835078966E-01
-0.1286805481708E-01 -0.1472797179079E-01
-0.1302438983228E-01 -0.1341795574471E-01
-0.1302454141190E-01 -0.1228179050588E-01
-0.1290422566454E-01 -0.1127071014188E-01
-0.1268632991865E-01 -0.1035540565644E-01
-0.1238785476834E-01 -0.9516745533666E-02
-0.1202196145271E-01 -0.8741711372104E-02
-0.1159942772575E-01 -0.8021293469928E-02
-0.1112988673884E-01 -0.7349876673839E-02
-0.1062277133546E-01 -0.6723846172599E-02
-0.1008662914695E-01 -0.6139478491375E-02
-0.9528780478595E-02 -0.5593086954806E-02
-0.8955601154080E-02 -0.5081570599755E-02
-0.8372798661580E-02 -0.4602543804548E-02
-0.7785619395070E-02 -0.4154484999201E-02
-0.7199076047361E-02 -0.3736947275844E-02
-0.6618157144528E-02 -0.3350681922919E-02
-0.6047895209552E-02 -0.2997294948691E-02
-0.5493033113657E-02 -0.2677814464529E-02
-0.4957058214846E-02 -0.2390224525141E-02
-0.4441644298923E-02 -0.2129572446192E-02
-0.3947823383212E-02 -0.1892379447165E-02
-0.3476625723178E-02 -0.1676205616143E-02
-0.3029090914568E-02 -0.1479141116121E-02
-0.2606239752712E-02 -0.1299610788255E-02
-0.2209153231013E-02 -0.1136300756087E-02
-0.1838920384935E-02 -0.9880606603526E-03
-0.1496687369786E-02 -0.8538668098891E-03
-0.1183681584939E-02 -0.7327799330649E-03
-0.9012337868010E-03 -0.6239022560060E-03
-0.6508176111970E-03 -0.5263348284374E-03
-0.4341009597984E-03 -0.4391221242444E-03
-0.2530143440419E-03 -0.3611695858413E-03
-0.1098892366658E-03 -0.2911096805735E-03
-0.7579692432388E-05 -0.2270164357186E-03
 0.4987326759442E-04 -0.1657386247885E-03
 0.5684519937370E-04 -0.1018352609157E-03
-0.5801922767022E+00 -0.4497828681917E+00
-0.5750993301182E+00 -0.4654360163062E+00
-0.5694325603577E+00 -0.4819465673948E+00
-0.5631329086790E+00 -0.4992415734951E+00
-0.5561456656943E+00 -0.5172483966669E+00
-0.5484163018367E+00 -0.5358843248083E+00
-0.5398902526942E+00 -0.5550520968446E+00
-0.5305140401470E+00 -0.5746384789232E+00
-0.5202370147431E+00 -0.5945127555240E+00
-0.5090136827610E+00 -0.6145259444069E+00
-0.4968062482936E+00 -0.6345126898468E+00
-0.4835868358251E+00 -0.6542943114901E+00
-0.4693392577880E+00 -0.6736825381074E+00
-0.4540601767823E+00 -0.6924837201228E+00
-0.4377596204598E+00 -0.7105031122515E+00
-0.4204609054630E+00 -0.7275489130683E+00
-0.4022001446201E+00 -0.7434358826488E+00
-0.3830254434047E+00 -0.7579885499093E+00
-0.3629958993199E+00 -0.7710440023274E+00
-0.3421804947761E+00 -0.7824542545126E+00
-0.3206569526090E+00 -0.7920882311977E+00
-0.2985105969975E+00 -0.7998334342774E+00
-0.2758332511639E+00 -0.8055973628939E+00
-0.2527221611738E+00 -0.8093085294712E+00
-0.2292789728342E+00 -0.8109172221673E+00
-0.2056087471106E+00 -0.8103960663710E+00
-0.1818189839787E+00 -0.8077404036859E+00
-0.1580186314352E+00 -0.8029685040494E+00
-0.1343170074279E+00 -0.7961215958408E+00
-0.1108226624022E+00 -0.7872637245824E+00
-0.8764212283630E-01 -0.7764813651313E+00
-0.6487851150286E-01 -0.7638826046024E+00
-0.4263008997690E-01 -0.7495955196464E+00
-0.2098903607610E-01 -0.7337656017845E+00
-0.3997995690200E-04 -0.7165548546641E+00
 0.2014173718039E-01 -0.6981411088768E+00
 0.3949258519762E-01 -0.6787152455449E+00
 0.5796401561410E-01 -0.6584787711514E+00
 0.7552739286531E-01 -0.6376410230219E+00
-0.5752053423461E+00 -0.4189819401412E+00
-0.5632919801313E+00 -0.4014062667237E+00
-0.5493914395466E+00 -0.3824154978081E+00
-0.5337763649314E+00 -0.3621837632448E+00
-0.5166271515156E+00 -0.3408961149793E+00
-0.4980469188289E+00 -0.3187218482177E+00
-0.4780587894766E+00 -0.2958133849819E+00
-0.4566223725787E+00 -0.2723125049897E+00
-0.4336354244584E+00 -0.2483771298745E+00
-0.4090108710874E+00 -0.2241981130262E+00
-0.3826759915995E+00 -0.1999907075294E+00
-0.3544987637780E+00 -0.1759942967435E+00
-0.3242858917128E+00 -0.1524727019314E+00
-0.2917747507318E+00 -0.1297021701050E+00
-0.2566381198723E+00 -0.1079608277250E+00
-0.2184975101796E+00 -0.8751815533745E-01
-0.1769361791755E+00 -0.6862056858359E-01
-0.1315096510118E+00 -0.5146680010639E-01
-0.8173870537277E-01 -0.3616264562765E-01
 0.1014475794928E+00 -0.5776377736269E+00
 0.1090745685685E+00 -0.5393334189496E+00
 0.1153818484561E+00 -0.5014301900689E+00
 0.1205777109913E+00 -0.4640142896999E+00
 0.1247669691561E+00 -0.4271628572418E+00
 0.1279788192433E+00 -0.3909318722325E+00
 0.1301757633107E+00 -0.3553608561895E+00
 0.1312698229891E+00 -0.3204817735097E+00
 0.1311211810858E+00 -0.2863534524208E+00
 0.1296184413822E+00 -0.2530756676700E+00
 0.1266798509036E+00 -0.2207770060206E+00
 0.1221580166363E+00 -0.1896239813967E+00
 0.1158336936347E+00 -0.1598257362279E+00
 0.1074055631391E+00 -0.1316258799290E+00
 0.9649297349855E-01 -0.1052972480165E+00
 0.8264757585083E-01 -0.8113803524023E-01
 0.6535764077034E-01 -0.5946723728848E-01
 0.4403897695468E-01 -0.4061719834422E-01
 0.1799986151483E-01 -0.2491877540960E-01
-0.5915338537905E+00 -0.4304648650968E+00
-0.5972354432662E+00 -0.4251859294260E+00
-0.6018665604717E+00 -0.4193967718034E+00
-0.6054290185203E+00 -0.4132034856667E+00
-0.6079459882411E+00 -0.4067030502101E+00
-0.6094535437446E+00 -0.3999899127773E+00
-0.6099974923129E+00 -0.3931576471832E+00
-0.6096326143583E+00 -0.3862990886819E+00
-0.6084225136141E+00 -0.3795055435408E+00
-0.6064394226934E+00 -0.3728654437426E+00
-0.6037636387393E+00 -0.3664626731913E+00
-0.6004824738501E+00 -0.3603747677264E+00
-0.5966887338257E+00 -0.3546711848741E+00
-0.5924788421114E+00 -0.3494118272909E+00
-0.5879508163295E+00 -0.3446459629980E+00
-0.5832024087203E+00 -0.3404116177148E+00
-0.5783297215401E+00 -0.3367353306439E+00
-0.5734274635557E+00 -0.3336323278118E+00
-0.5685898893107E+00 -0.3311051927628E+00
 0.1002575452954E+00 -0.6160169681655E+00
 0.1074879820436E+00 -0.6140406467890E+00
 0.1137629504021E+00 -0.6105043256058E+00
 0.1189734547500E+00 -0.6054081709083E+00
 0.1230183956555E+00 -0.5987550207451E+00
 0.1257980049965E+00 -0.5905600330663E+00
 0.1272123509339E+00 -0.5808556335022E+00
 0.1271625993322E+00 -0.5696962437630E+00
 0.1255539052113E+00 -0.5571627188932E+00
 0.1222997278864E+00 -0.5433666755675E+00
 0.1173276774807E+00 -0.5284546176425E+00
 0.1105872114626E+00 -0.5126116251145E+00
 0.1020596221469E+00 -0.4960641707746E+00
 0.9177077814873E-01 -0.4790813252342E+00
 0.7980688290662E-01 -0.4619730995844E+00
 0.6633282893002E-01 -0.4450838358456E+00
 0.5161046507783E-01 -0.4287769530390E+00
 0.3601022363901E-01 -0.4134057341715E+00
 0.1999374918111E-01 -0.3992607830183E+00
-0.5898942195586E-03 -0.1026541760773E-02
-0.1101510247573E-02 -0.1976260336645E-02
-0.1520737275184E-02 -0.2822402371905E-02
-0.1908552509481E-02 -0.3627914102859E-02
-0.2276333650957E-02 -0.4405350614766E-02
-0.2633716292125E-02 -0.5163757175601E-02
-0.2986088049934E-02 -0.5908156716556E-02
-0.3337189685319E-02 -0.6641927159023E-02
-0.3689586140120E-02 -0.7367458867750E-02
-0.4045096127195E-02 -0.8086591651853E-02
-0.4405007226239E-02 -0.8800856232190E-02
-0.4770219564334E-02 -0.9511629582286E-02
-0.5141349362099E-02 -0.1022026495312E-01
-0.5518796531970E-02 -0.1092818685098E-01
-0.5902769633666E-02 -0.1163694275973E-01
-0.6293379378136E-02 -0.1234842902390E-01
-0.6690599922946E-02 -0.1306494988855E-01
-0.7094268724357E-02 -0.1378957573759E-01
-0.7504192874728E-02 -0.1452663950188E-01
-0.7921756501875E-02 -0.1528193782589E-01
-0.8351900643318E-02 -0.1606270621924E-01
-0.8800542718791E-02 -0.1687376959592E-01
-0.9272012566237E-02 -0.1771663170452E-01
-0.9769017262483E-02 -0.1859119998882E-01
-0.1029355967199E-01 -0.1949739923735E-01
-0.1084775689114E-01 -0.2043603835507E-01
-0.1143435953942E-01 -0.2140912292155E-01
-0.1205709266365E-01 -0.2241992837698E-01
-0.1272097253664E-01 -0.2347293694745E-01
-0.1343247102108E-01 -0.2457384546898E-01
-0.1419901346304E-01 -0.2572894645881E-01
-0.1502895217185E-01 -0.2694456332778E-01
-0.1593275823544E-01 -0.2823010082573E-01
-0.1692449792795E-01 -0.2959936363752E-01
-0.1802354503350E-01 -0.3107204226744E-01
-0.1925851552340E-01 -0.3267657387515E-01
-0.2067239159772E-01 -0.3445613295695E-01
-0.2235139686291E-01 -0.3647645888716E-01
-0.2441923096260E-01 -0.3886992718323E-01
-0.2759982869903E-01 -0.4171640051561E-01
-0.5138211580624E-03 -0.9222746300706E-03
-0.1017599152901E-02 -0.1840305575850E-02
-0.1445710739514E-02 -0.2695847888479E-02
-0.1836319268793E-02 -0.3504812944531E-02
-0.2207294832433E-02 -0.4285880736682E-02
-0.2567159517781E-02 -0.5046668521847E-02
-0.2921775023892E-02 -0.5792599320878E-02
-0.3274917921417E-02 -0.6527183374496E-02
-0.3629230294189E-02 -0.7252974595007E-02
-0.3986563016676E-02 -0.7971937086332E-02
-0.4348222531179E-02 -0.8685702165180E-02
-0.4715114051123E-02 -0.9395724785518E-02
-0.5087849111900E-02 -0.1010341685110E-01
-0.5466814092311E-02 -0.1081024299452E-01
-0.5852195059136E-02 -0.1151777053359E-01
-0.6244070547251E-02 -0.1222788682075E-01
-0.6642367759469E-02 -0.1294283720744E-01
-0.7046880859133E-02 -0.1366546365053E-01
-0.7457602559139E-02 -0.1439916910596E-01
-0.7876264288502E-02 -0.1514777506133E-01
-0.8307916992680E-02 -0.1591678563634E-01
-0.8758491702483E-02 -0.1671087764892E-01
-0.9232423620501E-02 -0.1753249346032E-01
-0.9732536826482E-02 -0.1838251418083E-01
-0.1026092939437E-01 -0.1926137450397E-01
-0.1081981866841E-01 -0.2016986692718E-01
-0.1141209871760E-01 -0.2110954409069E-01
-0.1204171844319E-01 -0.2208288795867E-01
-0.1271396600992E-01 -0.2309338785665E-01
-0.1343549136637E-01 -0.2414582153960E-01
-0.1421390589621E-01 -0.2524565042206E-01
-0.1505803950271E-01 -0.2639782955808E-01
-0.1597916043591E-01 -0.2760916726498E-01
-0.1699253151136E-01 -0.2888931912357E-01
-0.1811970268186E-01 -0.3025152184615E-01
-0.1939235584046E-01 -0.3171387431964E-01
-0.2086290579856E-01 -0.3330007382195E-01
-0.2262047988137E-01 -0.3504574400704E-01
-0.2487406454352E-01 -0.3697266202216E-01
-0.2825729050241E-01 -0.3916823167864E-01
-0.4599952731585E-03 -0.8580382370485E-03
-0.9414525080891E-03 -0.1735275453829E-02
-0.1371872806805E-02 -0.2582673453243E-02
-0.1765355758813E-02 -0.3391553294015E-02
-0.2138774668412E-02 -0.4172924387752E-02
-0.2500993362257E-02 -0.4934272065347E-02
-0.2857731309842E-02 -0.5680415952798E-02
-0.3212861763561E-02 -0.6414849924101E-02
-0.3569052937526E-02 -0.7140131835639E-02
-0.3928183664858E-02 -0.7858270198637E-02
-0.4291572929989E-02 -0.8570939901842E-02
-0.4660129795345E-02 -0.9279632485742E-02
-0.5034461522404E-02 -0.9985783252561E-02
-0.5414943536421E-02 -0.1069086211063E-01
-0.5801745163555E-02 -0.1139641510821E-01
-0.6194924595744E-02 -0.1210426399885E-01
-0.6594391722898E-02 -0.1281649683347E-01
-0.7000005872412E-02 -0.1353553978243E-01
-0.7412064819953E-02 -0.1426388424794E-01
-0.7832631522365E-02 -0.1500405158473E-01
-0.8266720515759E-02 -0.1576053815402E-01
-0.8720085268381E-02 -0.1653783434608E-01
-0.9197158291707E-02 -0.1733882201436E-01
-0.9700900393660E-02 -0.1816493015319E-01
-0.1023358559559E-01 -0.1901689723212E-01
-0.1079761559465E-01 -0.1989546694362E-01
-0.1139609084398E-01 -0.2080181040417E-01
-0.1203320339741E-01 -0.2173776587044E-01
-0.1271447125831E-01 -0.2270602427558E-01
-0.1344671033095E-01 -0.2371047804216E-01
-0.1423781816068E-01 -0.2475553379593E-01
-0.1509725877849E-01 -0.2584465053850E-01
-0.1603724593267E-01 -0.2698225742830E-01
-0.1707445028829E-01 -0.2817432780650E-01
-0.1823253203420E-01 -0.2942861010649E-01
-0.1954711784931E-01 -0.3075450842442E-01
-0.2107547601014E-01 -0.3216336658319E-01
-0.2291955244861E-01 -0.3366553950634E-01
-0.2529867452646E-01 -0.3527105778803E-01
-0.2860868282668E-01 -0.3711065220633E-01
-0.4197490986278E-03 -0.8135539212285E-03
-0.8754227808296E-03 -0.1653696992996E-02
-0.1301554901561E-02 -0.2484235140526E-02
-0.1696225420363E-02 -0.3287750704414E-02
-0.2071399550257E-02 -0.4066757238017E-02
-0.2435554553959E-02 -0.4826717012357E-02
-0.2794217556277E-02 -0.5571759158195E-02
-0.3151212477748E-02 -0.6305044246647E-02
-0.3509210150965E-02 -0.7029022338046E-02
-0.3870093322964E-02 -0.7745658988102E-02
-0.4235185192891E-02 -0.8456617768026E-02
-0.4605394409129E-02 -0.9163384758644E-02
-0.4981323762878E-02 -0.9867383415090E-02
-0.5363340938500E-02 -0.1057005439600E-01
-0.5751606691375E-02 -0.1127288319570E-01
-0.6146175963894E-02 -0.1197757381991E-01
-0.6546986192346E-02 -0.1268597645054E-01
-0.6954043050837E-02 -0.1340004056913E-01
-0.7367970698134E-02 -0.1412149158633E-01
-0.7791091491355E-02 -0.1485197508086E-01
-0.8228310153134E-02 -0.1559534751644E-01
-0.8685136047295E-02 -0.1635590592768E-01
-0.9165940064430E-02 -0.1713669473566E-01
-0.9673810780926E-02 -0.1793940925029E-01
-0.1021123234476E-01 -0.1876493398584E-01
-0.1078083748508E-01 -0.1961393008094E-01
-0.1138596752039E-01 -0.2048724398006E-01
-0.1203105927871E-01 -0.2138618757674E-01
-0.1272184387555E-01 -0.2231277377464E-01
-0.1346532962947E-01 -0.2327005242079E-01
-0.1426976449185E-01 -0.2426135309801E-01
-0.1514528952726E-01 -0.2528870899627E-01
-0.1610509528409E-01 -0.2635448551721E-01
-0.1716718182856E-01 -0.2746167853199E-01
-0.1835715492624E-01 -0.2861379523749E-01
-0.1971322964211E-01 -0.2981461122974E-01
-0.2129572081581E-01 -0.3106785312120E-01
-0.2320809998134E-01 -0.3237768144765E-01
-0.2562903418199E-01 -0.3377100730726E-01
-0.2875844909662E-01 -0.3538304303186E-01
-0.3882099579256E-03 -0.7802723184273E-03
-0.8187040893081E-03 -0.1588633633181E-02
-0.1236163945807E-02 -0.2399227676676E-02
-0.1629664970970E-02 -0.3193210776975E-02
-0.2005639474473E-02 -0.3967275864848E-02
-0.2371194829009E-02 -0.4724065971183E-02
-0.2731480659863E-02 -0.5466697554498E-02
-0.3090163083450E-02 -0.6197840591953E-02
-0.3449858721779E-02 -0.6919710846499E-02
-0.3812429163993E-02 -0.7634157993336E-02
-0.4179187723767E-02 -0.8342780441422E-02
-0.4551036691345E-02 -0.9047018730562E-02
-0.4928573305065E-02 -0.9748250368829E-02
-0.5312161171999E-02 -0.1044785411785E-01
-0.5701962170657E-02 -0.1114721945337E-01
-0.6098049169778E-02 -0.1184788902536E-01
-0.6500429636527E-02 -0.1255143002202E-01
-0.6909298630391E-02 -0.1325932837005E-01
-0.7325581386303E-02 -0.1397269896785E-01
-0.7751785919137E-02 -0.1469258167247E-01
-0.8192672325753E-02 -0.1542239187553E-01
-0.8653493626985E-02 -0.1616623008057E-01
-0.9138532566140E-02 -0.1692714599997E-01
-0.9650988344451E-02 -0.1770692187571E-01
-0.1019356184883E-01 -0.1850647599743E-01
-0.1076913563842E-01 -0.1932636094745E-01
-0.1138130415766E-01 -0.2016714437717E-01
-0.1203474352533E-01 -0.2102970153684E-01
-0.1273539293413E-01 -0.2191546094049E-01
-0.1349047647242E-01 -0.2282670378742E-01
-0.1430861275520E-01 -0.2376576867523E-01
-0.1520058849494E-01 -0.2473345152707E-01
-0.1618046673065E-01 -0.2573046950271E-01
-0.1726733713927E-01 -0.2675762433480E-01
-0.1848807511875E-01 -0.2781568750879E-01
-0.1988192012113E-01 -0.2890541966402E-01
-0.2150844993684E-01 -0.3002836743669E-01
-0.2345984088587E-01 -0.3119291167474E-01
-0.2586061158031E-01 -0.3244020070184E-01
-0.2878404598196E-01 -0.3388767494806E-01
-0.3625456974475E-03 -0.7539436366328E-03
-0.7698093207121E-03 -0.1535237295155E-02
-0.1176141672199E-02 -0.2325493388243E-02
-0.1566269665407E-02 -0.3107339835877E-02
-0.1941898161984E-02 -0.3874245077668E-02
-0.2308223606052E-02 -0.4626249314510E-02
-0.2669755979021E-02 -0.5365236033625E-02
-0.3029898807649E-02 -0.6093268795059E-02
-0.3391152794765E-02 -0.6812236953252E-02
-0.3755326885141E-02 -0.7523808403837E-02
-0.4123707966850E-02 -0.8229468928161E-02
-0.4497184078443E-02 -0.8930576211872E-02
-0.4876345142534E-02 -0.9628430264127E-02
-0.5261554357142E-02 -0.1032431842199E-01
-0.5652985148860E-02 -0.1101950400916E-01
-0.6050749376904E-02 -0.1171533773098E-01
-0.6454955646091E-02 -0.1241308972188E-01
-0.6866001581866E-02 -0.1311382826681E-01
-0.7285070540297E-02 -0.1381819089481E-01
-0.7714795024282E-02 -0.1452678677775E-01
-0.8159776879957E-02 -0.1524270241696E-01
-0.8625023586034E-02 -0.1596983891887E-01
-0.9114721480364E-02 -0.1671116093550E-01
-0.9632162602451E-02 -0.1746842693923E-01
-0.1018025557657E-01 -0.1824251485276E-01
-0.1076213199574E-01 -0.1903385327578E-01
-0.1138163606432E-01 -0.1984276976550E-01
-0.1204367257571E-01 -0.2066977629717E-01
-0.1275438310593E-01 -0.2151580426136E-01
-0.1352121247859E-01 -0.2238246717663E-01
-0.1435312912560E-01 -0.2327125892984E-01
-0.1526147016583E-01 -0.2418199469743E-01
-0.1626097072763E-01 -0.2511420044755E-01
-0.1737139812543E-01 -0.2606729024074E-01
-0.1862001702012E-01 -0.2704065667514E-01
-0.2004528709712E-01 -0.2803427647098E-01
-0.2170194329491E-01 -0.2905118235133E-01
-0.2366395396654E-01 -0.3010620950861E-01
-0.2600709013994E-01 -0.3124629132388E-01
-0.2873189548774E-01 -0.3256521198762E-01
-0.3410316710494E-03 -0.7322158857204E-03
-0.7273040551727E-03 -0.1490238549524E-02
-0.1121366611470E-02 -0.2260915903163E-02
-0.1506379381805E-02 -0.3029251660943E-02
-0.1880497873579E-02 -0.3787296918335E-02
-0.2246902616743E-02 -0.4533104508388E-02
-0.2609255950805E-02 -0.5267316809071E-02
-0.2970593163597E-02 -0.5991320354720E-02
-0.3333239755115E-02 -0.6706616437424E-02
-0.3698918001320E-02 -0.7414639060212E-02
-0.4068869975429E-02 -0.8116720739883E-02
-0.4443960358908E-02 -0.8814103432729E-02
-0.4824769273388E-02 -0.9507981555635E-02
-0.5211662832116E-02 -0.1019952557701E-01
-0.5604835906347E-02 -0.1088984918630E-01
-0.6004456774336E-02 -0.1158009401930E-01
-0.6410753129290E-02 -0.1227123994676E-01
-0.6824319074906E-02 -0.1296399338792E-01
-0.7246549784344E-02 -0.1365862027912E-01
-0.7680155174985E-02 -0.1435541496640E-01
-0.8129576697487E-02 -0.1505720082076E-01
-0.8599595638595E-02 -0.1576767752318E-01
-0.9094302781502E-02 -0.1648967353928E-01
-0.9617066558755E-02 -0.1722485829387E-01
-0.1017098575010E-01 -0.1797402479324E-01
-0.1075942717591E-01 -0.1873747272784E-01
-0.1138647046426E-01 -0.1951532491480E-01
-0.1205723264801E-01 -0.2030779537312E-01
-0.1277804412439E-01 -0.2111540608348E-01
-0.1355655327103E-01 -0.2193922141029E-01
-0.1440202104649E-01 -0.2278006755210E-01
-0.1532619150232E-01 -0.2363706145389E-01
-0.1634419962699E-01 -0.2450899309175E-01
-0.1747598476825E-01 -0.2539461480626E-01
-0.1874826045809E-01 -0.2629303852693E-01
-0.2019696478956E-01 -0.2720501075638E-01
-0.2186910360091E-01 -0.2813651795706E-01
-0.2381894482455E-01 -0.2910735762435E-01
-0.2608469831786E-01 -0.3016379322787E-01
-0.2862895585149E-01 -0.3137760460766E-01
-0.3225686108325E-03 -0.7136836099443E-03
-0.6899872069521E-03 -0.1451414654559E-02
-0.1071451974406E-02 -0.2203691832134E-02
-0.1450106316309E-02 -0.2957961421020E-02
-0.1821659938496E-02 -0.3705957762647E-02
-0.2187442480992E-02 -0.4444398534119E-02
-0.2550164213522E-02 -0.5172830617824E-02
-0.2912403711960E-02 -0.5891952918877E-02
-0.3276257230585E-02 -0.6602844074379E-02
-0.3643327346831E-02 -0.7306667600573E-02
-0.4014792298069E-02 -0.8004570286750E-02
-0.4391483623248E-02 -0.8697650740676E-02
-0.4773968520280E-02 -0.9386973943111E-02
-0.5162618601987E-02 -0.1007357277943E-01
-0.5557658338800E-02 -0.1075839492133E-01
-0.5959324448463E-02 -0.1144236710311E-01
-0.6367970191672E-02 -0.1212619751937E-01
-0.6784369157717E-02 -0.1281028535582E-01
-0.7210084982275E-02 -0.1349460655429E-01
-0.7647869855910E-02 -0.1417921917422E-01
-0.8102008527098E-02 -0.1486672368550E-01
-0.8577077155778E-02 -0.1556061788694E-01
-0.9077075493470E-02 -0.1626356690609E-01
-0.9605433249127E-02 -0.1697711580467E-01
-0.1016541718954E-01 -0.1770195000405E-01
-0.1076060723008E-01 -0.1843824460356E-01
-0.1139529612603E-01 -0.1918595238240E-01
-0.1207479010928E-01 -0.1994505115665E-01
-0.1280558405506E-01 -0.2071574233825E-01
-0.1359549164829E-01 -0.2149866776594E-01
-0.1445398027822E-01 -0.2229417226116E-01
-0.1539302411899E-01 -0.2310095324843E-01
-0.1642784719925E-01 -0.2391747658799E-01
-0.1757803359330E-01 -0.2474242344980E-01
-0.1886886924515E-01 -0.2557540323520E-01
-0.2033242561151E-01 -0.2641872938020E-01
-0.2200665295790E-01 -0.2728132861752E-01
-0.2392779548937E-01 -0.2818559406327E-01
-0.2610754131630E-01 -0.2917358628791E-01
-0.2849106870431E-01 -0.3029907895874E-01
-0.3064260678953E-03 -0.6974562994955E-03
-0.6569006046407E-03 -0.1417225532659E-02
-0.1025916181074E-02 -0.2152363940711E-02
-0.1397400778649E-02 -0.2892512159575E-02
-0.1765506021675E-02 -0.3629697231014E-02
-0.2129999981028E-02 -0.4359846987350E-02
-0.2492632836175E-02 -0.5081628518630E-02
-0.2855468959293E-02 -0.5795095905795E-02
-0.3220330618016E-02 -0.6500896543352E-02
-0.3588670957705E-02 -0.7199901812947E-02
-0.3961586076800E-02 -0.7893049173718E-02
-0.4339864431266E-02 -0.8581272056857E-02
-0.4724056633247E-02 -0.9265486882325E-02
-0.5114541294619E-02 -0.9946573275735E-02
-0.5511578088786E-02 -0.1062530318136E-01
-0.5915478468994E-02 -0.1130239092688E-01
-0.6326719021430E-02 -0.1197829708192E-01
-0.6746230559157E-02 -0.1265316257955E-01
-0.7175707021500E-02 -0.1332673574524E-01
-0.7617916828289E-02 -0.1399889306821E-01
-0.8076994233151E-02 -0.1467203811129E-01
-0.8557329875208E-02 -0.1534946826224E-01
-0.9062837609623E-02 -0.1603367330216E-01
-0.9596994089983E-02 -0.1672605837515E-01
-0.1016320952161E-01 -0.1742719431123E-01
-0.1076524956319E-01 -0.1813714348028E-01
-0.1140759184223E-01 -0.1885572396854E-01
-0.1209570205380E-01 -0.1958273726224E-01
-0.1283620427823E-01 -0.2031815234880E-01
-0.1363702185507E-01 -0.2106231490247E-01
-0.1450772241232E-01 -0.2181526855936E-01
-0.1546031612473E-01 -0.2257554438716E-01
-0.1650979917613E-01 -0.2334162608384E-01
-0.1767490946759E-01 -0.2411255571971E-01
-0.1897879592456E-01 -0.2488889345851E-01
-0.2044885550777E-01 -0.2567471518278E-01
-0.2211390796321E-01 -0.2648117846033E-01
-0.2399518332266E-01 -0.2733122631126E-01
-0.2608676744529E-01 -0.2826130679692E-01
-0.2832786390977E-01 -0.2931128158517E-01
-0.2921003390683E-03 -0.6829427403289E-03
-0.6272922158061E-03 -0.1386581140306E-02
-0.9842701823396E-03 -0.2105779082390E-02
-0.1348112548119E-02 -0.2832036114854E-02
-0.1712073256889E-02 -0.3557972907651E-02
-0.2074679270525E-02 -0.4279134110197E-02
-0.2436781387174E-02 -0.4993532913217E-02
-0.2799906596883E-02 -0.5700656618981E-02
-0.3165571265709E-02 -0.6400735592018E-02
-0.3535054405275E-02 -0.7094341152515E-02
-0.3909353488999E-02 -0.7782186580528E-02
-0.4289204311322E-02 -0.8465024311967E-02
-0.4675136806573E-02 -0.9143607987383E-02
-0.5067536780394E-02 -0.9818653277341E-02
-0.5466701838390E-02 -0.1049075242611E-01
-0.5873019290905E-02 -0.1116041542142E-01
-0.6287080769131E-02 -0.1182788081032E-01
-0.6709950245411E-02 -0.1249307334815E-01
-0.7143419320782E-02 -0.1315556153743E-01
-0.7590253154613E-02 -0.1381507962504E-01
-0.8054442281694E-02 -0.1447385229216E-01
-0.8540208601142E-02 -0.1513497993780E-01
-0.9051384200208E-02 -0.1580077476491E-01
-0.9591478584134E-02 -0.1647249943500E-01
-0.1016401966074E-01 -0.1715061408084E-01
-0.1077292825909E-01 -0.1783508593086E-01
-0.1142283414022E-01 -0.1852563453588E-01
-0.1211932666765E-01 -0.1922194305744E-01
-0.1286911446174E-01 -0.1992383285395E-01
-0.1368016227915E-01 -0.2063147281988E-01
-0.1456202071756E-01 -0.2134476869064E-01
-0.1552654001027E-01 -0.2206229904916E-01
-0.1658819263166E-01 -0.2278282539019E-01
-0.1776445859330E-01 -0.2350602536462E-01
-0.1907586125922E-01 -0.2423358915498E-01
-0.2054482149999E-01 -0.2497117599461E-01
-0.2219174341373E-01 -0.2573128585331E-01
-0.2402608914408E-01 -0.2653599670741E-01
-0.2603090480094E-01 -0.2741596486073E-01
-0.2814545564253E-01 -0.2840058129200E-01
-0.2792325520175E-03 -0.6697351187809E-03
-0.6005731949562E-03 -0.1358693668537E-02
-0.9460577220302E-03 -0.2063030777743E-02
-0.1302036804319E-02 -0.2775775843382E-02
-0.1661334015521E-02 -0.3490261731289E-02
-0.2021536910580E-02 -0.4201931405451E-02
-0.2382697646764E-02 -0.4908347849707E-02
-0.2745812829683E-02 -0.5608526216698E-02
-0.3112075324077E-02 -0.6302311294189E-02
-0.3482571563153E-02 -0.6989978314334E-02
-0.3858186532855E-02 -0.7672009663815E-02
-0.4239594592314E-02 -0.8348966853641E-02
-0.4627300607475E-02 -0.9021431365072E-02
-0.5021696404336E-02 -0.9689948856422E-02
-0.5423117445767E-02 -0.1035493252376E-01
-0.5832023782625E-02 -0.1101669947671E-01
-0.6249109973557E-02 -0.1167529121101E-01
-0.6675549255080E-02 -0.1233045170971E-01
-0.7113203259805E-02 -0.1298160662177E-01
-0.7564818934848E-02 -0.1362837721367E-01
-0.8034249335299E-02 -0.1427282286554E-01
-0.8525561119672E-02 -0.1491785217823E-01
-0.9042506961409E-02 -0.1556560391229E-01
-0.9588614967546E-02 -0.1621720412180E-01
-0.1016750446888E-01 -0.1687301346244E-01
-0.1078321897249E-01 -0.1753292557042E-01
-0.1144050437381E-01 -0.1819659788475E-01
-0.1214503303196E-01 -0.1886365054348E-01
-0.1290354648918E-01 -0.1953383611046E-01
-0.1372397525492E-01 -0.2020725417596E-01
-0.1461573309311E-01 -0.2088381215588E-01
-0.1559032581237E-01 -0.2156230414653E-01
-0.1666144724466E-01 -0.2224194687883E-01
-0.1784501120272E-01 -0.2292319066806E-01
-0.1915865168955E-01 -0.2360883832869E-01
-0.2061990352367E-01 -0.2430577419152E-01
-0.2224186514970E-01 -0.2502703435244E-01
-0.2402518099688E-01 -0.2579299834842E-01
-0.2594643187740E-01 -0.2662895658744E-01
-0.2794790923998E-01 -0.2755649782303E-01
-0.2675595899402E-03 -0.6575430292208E-03
-0.5762804641736E-03 -0.1332982503817E-02
-0.9108707141438E-03 -0.2023406211339E-02
-0.1258945085725E-02 -0.2723084367228E-02
-0.1613214826033E-02 -0.3426078454567E-02
-0.1970589128943E-02 -0.4127912670482E-02
-0.2330439724898E-02 -0.4825868259462E-02
-0.2693262583140E-02 -0.5518585235403E-02
-0.3059923188097E-02 -0.6205565181160E-02
-0.3431303776681E-02 -0.6886800752895E-02
-0.3808166131813E-02 -0.7562543905751E-02
-0.4191115546199E-02 -0.8233160786917E-02
-0.4580627278667E-02 -0.8899055891742E-02
-0.4977096714939E-02 -0.9560602924854E-02
-0.5380894621603E-02 -0.1021804023484E-01
-0.5792547455127E-02 -0.1087150534549E-01
-0.6212838396977E-02 -0.1152086596961E-01
-0.6643027241130E-02 -0.1216571487616E-01
-0.7085022248574E-02 -0.1280536387360E-01
-0.7541540236981E-02 -0.1343934382694E-01
-0.8016301896574E-02 -0.1406955993526E-01
-0.8513228864832E-02 -0.1469873567200E-01
-0.9035994707963E-02 -0.1532884460488E-01
-0.9588131499147E-02 -0.1596088739042E-01
-0.1017332353766E-01 -0.1659514108073E-01
-0.1079570349534E-01 -0.1723144961105E-01
-0.1146009524899E-01 -0.1786944409512E-01
-0.1217221010425E-01 -0.1850873311190E-01
-0.1293876675134E-01 -0.1914907115457E-01
-0.1376758330792E-01 -0.1979058087508E-01
-0.1466782175894E-01 -0.2043328388888E-01
-0.1565048058469E-01 -0.2107631107047E-01
-0.1672827302567E-01 -0.2171943714937E-01
-0.1791534802744E-01 -0.2236391481938E-01
-0.1922638167137E-01 -0.2301352229075E-01
-0.2067437287967E-01 -0.2367596414191E-01
-0.2226634750100E-01 -0.2436418508303E-01
-0.2399659121868E-01 -0.2509646492464E-01
-0.2583829489552E-01 -0.2589339056035E-01
-0.2773804901568E-01 -0.2677074166629E-01
-0.2568836223702E-03 -0.6461540542702E-03
-0.5540470246345E-03 -0.1309012007836E-02
-0.8783521684959E-03 -0.1986342679940E-02
-0.1218604729003E-02 -0.2673415804266E-02
-0.1567612169883E-02 -0.3364984452816E-02
-0.1921819758840E-02 -0.4056764816460E-02
-0.2280039185300E-02 -0.4745887743670E-02
-0.2642310447861E-02 -0.5430708548215E-02
-0.3009179486673E-02 -0.6110433186652E-02
-0.3381319450145E-02 -0.6784792182057E-02
-0.3759361592204E-02 -0.7453813513760E-02
-0.4143835877889E-02 -0.8117668418288E-02
-0.4535183430277E-02 -0.8776583683449E-02
-0.4933799633346E-02 -0.9430762628369E-02
-0.5340085980035E-02 -0.1008027556867E-01
-0.5754626722260E-02 -0.1072509451352E-01
-0.6178278337168E-02 -0.1136493454881E-01
-0.6612366102509E-02 -0.1199926190777E-01
-0.7058824924108E-02 -0.1262729773190E-01
-0.7520331530098E-02 -0.1324850054117E-01
-0.8000477970075E-02 -0.1386463111625E-01
-0.8503048026278E-02 -0.1447823562786E-01
-0.9031634424301E-02 -0.1509113327240E-01
-0.9589758094432E-02 -0.1570421369802E-01
-0.1018114192095E-01 -0.1631768887709E-01
-0.1080997388376E-01 -0.1693137785937E-01
-0.1148111657291E-01 -0.1754491958724E-01
-0.1220027443910E-01 -0.1815795761719E-01
-0.1297408617637E-01 -0.1877030948116E-01
-0.1381018124400E-01 -0.1938219652597E-01
-0.1471736558296E-01 -0.1999383944731E-01
-0.1570599563409E-01 -0.2060478372287E-01
-0.1678765969288E-01 -0.2121540301319E-01
-0.1797464534683E-01 -0.2182770721435E-01
-0.1927875294770E-01 -0.2244625467192E-01
-0.2070894155589E-01 -0.2307919392696E-01
-0.2226735857714E-01 -0.2373894005258E-01
-0.2394387809080E-01 -0.2444155749212E-01
-0.2571031065203E-01 -0.2520363446769E-01
-0.2751791623969E-01 -0.2603660466004E-01
-0.2470525625606E-03 -0.6354092562051E-03
-0.5335792672905E-03 -0.1286449996523E-02
-0.8481933261637E-03 -0.1951393478996E-02
-0.1180790255799E-02 -0.2626312621335E-02
-0.1524404627493E-02 -0.3306590178868E-02
-0.1875187752948E-02 -0.3988194781063E-02
-0.2231504632790E-02 -0.4668204615510E-02
-0.2592992099572E-02 -0.5344769516770E-02
-0.2959893442695E-02 -0.6016848165054E-02
-0.3332673916832E-02 -0.6683933810111E-02
-0.3711830291893E-02 -0.7345841616001E-02
-0.4097812434042E-02 -0.8002552528023E-02
-0.4491022965030E-02 -0.8654118458590E-02
-0.4891852851171E-02 -0.9300576796965E-02
-0.5300728202411E-02 -0.9941838488606E-02
-0.5718280979536E-02 -0.1057772421032E-01
-0.6145425390116E-02 -0.1120781541943E-01
-0.6583532873626E-02 -0.1183147252539E-01
-0.7034547697437E-02 -0.1244784486802E-01
-0.7501097750291E-02 -0.1305633353718E-01
-0.7986648706235E-02 -0.1365856389271E-01
-0.8494850931498E-02 -0.1425691345426E-01
-0.9029212699223E-02 -0.1485305935250E-01
-0.9593228234573E-02 -0.1544779627426E-01
-0.1019063289799E-01 -0.1604129078196E-01
-0.1082563633583E-01 -0.1663336158933E-01
-0.1150310044253E-01 -0.1722368707147E-01
-0.1222867685042E-01 -0.1781198650871E-01
-0.1300886827038E-01 -0.1839819114732E-01
-0.1385104465576E-01 -0.1898267964164E-01
-0.1476356639889E-01 -0.1956593051229E-01
-0.1575604461079E-01 -0.2014794414714E-01
-0.1683885443779E-01 -0.2072968699513E-01
-0.1802241213623E-01 -0.2131383523846E-01
-0.1931582901617E-01 -0.2190551722298E-01
-0.2072458046174E-01 -0.2251301201106E-01
-0.2224700806967E-01 -0.2314792978169E-01
-0.2387006552832E-01 -0.2382417673186E-01
-0.2556546185009E-01 -0.2455499925447E-01
-0.2728903646159E-01 -0.2534855081470E-01
-0.2379471509550E-03 -0.6251873875016E-03
-0.5146398803788E-03 -0.1265039471726E-02
-0.8201284766157E-03 -0.1918201711198E-02
-0.1145289474329E-02 -0.2581392547441E-02
-0.1483461741454E-02 -0.3250553838648E-02
-0.1830633775453E-02 -0.3921933354631E-02
-0.2184825426379E-02 -0.4592626304901E-02
-0.2545326081758E-02 -0.5260643389738E-02
-0.2912099597325E-02 -0.5924742090712E-02
-0.3285409638178E-02 -0.6584205483633E-02
-0.3665617671808E-02 -0.7238650502284E-02
-0.4053090206777E-02 -0.7887875800587E-02
-0.4448187295945E-02 -0.8531764201984E-02
-0.4851290483573E-02 -0.9170193914505E-02
-0.5262843325048E-02 -0.9802926420813E-02
-0.5683514565993E-02 -0.1042964495795E-01
-0.6114260845925E-02 -0.1104981433207E-01
-0.6556482142173E-02 -0.1166270665811E-01
-0.7012116904919E-02 -0.1226741512507E-01
-0.7483736143889E-02 -0.1286329604846E-01
-0.7974680014766E-02 -0.1345184789587E-01
-0.8488467543855E-02 -0.1403528870911E-01
-0.9028517302359E-02 -0.1461516655824E-01
-0.9598280891572E-02 -0.1519219778682E-01
-0.1020148051058E-01 -0.1576652323828E-01
-0.1084231453322E-01 -0.1633798462029E-01
-0.1152560550031E-01 -0.1690632805371E-01
-0.1225690754445E-01 -0.1747138294891E-01
-0.1304253468258E-01 -0.1803323432448E-01
-0.1388953455737E-01 -0.1859246049086E-01
-0.1480574964462E-01 -0.1914983329638E-01
-0.1579997419085E-01 -0.1970581802140E-01
-0.1688133250186E-01 -0.2026193500068E-01
-0.1805842704471E-01 -0.2082141321099E-01
-0.1933793057472E-01 -0.2138975248667E-01
-0.2072239333398E-01 -0.2197512102487E-01
-0.2220727014016E-01 -0.2258817502906E-01
-0.2377770971681E-01 -0.2324081477442E-01
-0.2540610965415E-01 -0.2394352023754E-01
-0.2705258310779E-01 -0.2470193844964E-01
-0.2294721864297E-03 -0.6153944073548E-03
-0.4970350179969E-03 -0.1244579014142E-02
-0.7939291829268E-03 -0.1886480334482E-02
-0.1111906234745E-02 -0.2538336505614E-02
-0.1444650183176E-02 -0.3196578021760E-02
-0.1788085648889E-02 -0.3857736716389E-02
-0.2139975200509E-02 -0.4518972268110E-02
-0.2499315737634E-02 -0.5178209886004E-02
-0.2865818758007E-02 -0.5834047829115E-02
-0.3239556625680E-02 -0.6485586612457E-02
-0.3620757436661E-02 -0.7132261770488E-02
-0.4009702535164E-02 -0.7773700258615E-02
-0.4406705742877E-02 -0.8409623947699E-02
-0.4812133844698E-02 -0.9039760363192E-02
-0.5226440022951E-02 -0.9663732210576E-02
-0.5650318536571E-02 -0.1028109866476E-01
-0.6084753734234E-02 -0.1089122304749E-01
-0.6531158072547E-02 -0.1149330416304E-01
-0.6991450640001E-02 -0.1208639225980E-01
-0.7468137918018E-02 -0.1266980983643E-01
-0.7964434114365E-02 -0.1324493665365E-01
-0.8483726993426E-02 -0.1381384069686E-01
-0.9029338813105E-02 -0.1437795410472E-01
-0.9604662422547E-02 -0.1493793128593E-01
-0.1021338189386E-01 -0.1549390624731E-01
-0.1085965252578E-01 -0.1604576507843E-01
-0.1154822038452E-01 -0.1659334614524E-01
-0.1228449992764E-01 -0.1713661683188E-01
-0.1307456868118E-01 -0.1767584572017E-01
-0.1392509892289E-01 -0.1821183835922E-01
-0.1484336084683E-01 -0.1874567585445E-01
-0.1583729019026E-01 -0.1927827543162E-01
-0.1691476524639E-01 -0.1981165209781E-01
-0.1808268082166E-01 -0.2034946824793E-01
-0.1934555314429E-01 -0.2089742221675E-01
-0.2070353306122E-01 -0.2146339782613E-01
-0.2214995104901E-01 -0.2205703894690E-01
-0.2366896974405E-01 -0.2268843767290E-01
-0.2523414536210E-01 -0.2336579788703E-01
-0.2680948042579E-01 -0.2409282217562E-01
-0.2215504266605E-03 -0.6059563299073E-03
-0.4806046451049E-03 -0.1224908934760E-02
-0.7693987306881E-03 -0.1855996972886E-02
-0.1080461156746E-02 -0.2496878056714E-02
-0.1407837856321E-02 -0.3144405401312E-02
-0.1747462677907E-02 -0.3795386401345E-02
-0.2096915037680E-02 -0.4447075671998E-02
-0.2454951164244E-02 -0.5097355033424E-02
-0.2821059095533E-02 -0.5744700500473E-02
-0.3195133043024E-02 -0.6388056892794E-02
-0.3577271936862E-02 -0.7026696405682E-02
-0.3967671477636E-02 -0.7660086739410E-02
-0.4366596073120E-02 -0.8287798721907E-02
-0.4774392304523E-02 -0.8909418963998E-02
-0.5191514862588E-02 -0.9524442501270E-02
-0.5618672263164E-02 -0.1013231719315E-01
-0.6056862593163E-02 -0.1073231845752E-01
-0.6507496135906E-02 -0.1132358472695E-01
-0.6972460349626E-02 -0.1190513462172E-01
-0.7454189737469E-02 -0.1247626643730E-01
-0.7955771001868E-02 -0.1303824909974E-01
-0.8480459074072E-02 -0.1359300997060E-01
-0.9031472209851E-02 -0.1414187808576E-01
-0.9612128344178E-02 -0.1468546155998E-01
-0.1022604933030E-01 -0.1522390504187E-01
-0.1087731710688E-01 -0.1575715794079E-01
-0.1157056634150E-01 -0.1628517125540E-01
-0.1231103311257E-01 -0.1680807170223E-01
-0.1310451671172E-01 -0.1732633170879E-01
-0.1395727161857E-01 -0.1784099883499E-01
-0.1487595902438E-01 -0.1835346373663E-01
-0.1586764107412E-01 -0.1886506656850E-01
-0.1693898854581E-01 -0.1937824744788E-01
-0.1809532644134E-01 -0.1989698785758E-01
-0.1933930443145E-01 -0.2042704255423E-01
-0.2066914832479E-01 -0.2097589528035E-01
-0.2207668221022E-01 -0.2155218036051E-01
-0.2354567319163E-01 -0.2216439352909E-01
-0.2505109892394E-01 -0.2281887824059E-01
-0.2656046885292E-01 -0.2351780704978E-01
-0.2141182514371E-03 -0.5968142275825E-03
-0.4652152335773E-03 -0.1205901324889E-02
-0.7463671402759E-03 -0.1826562316277E-02
-0.1050791186271E-02 -0.2456794427004E-02
-0.1372896484256E-02 -0.3093814171326E-02
-0.1708678971123E-02 -0.3734688257292E-02
-0.2055596218930E-02 -0.4376784124369E-02
-0.2412211091642E-02 -0.5017972355885E-02
-0.2777817318056E-02 -0.5656638459970E-02
-0.3152145938343E-02 -0.6291596833491E-02
-0.3535172692513E-02 -0.6921974793775E-02
-0.3927008317745E-02 -0.7547094414743E-02
-0.4327865145140E-02 -0.8166386637193E-02
-0.4738064187163E-02 -0.8779307778842E-02
-0.5158053500985E-02 -0.9385236462414E-02
-0.5588544877401E-02 -0.9983521295913E-02
-0.6030537011741E-02 -0.1057336199588E-01
-0.6485424610288E-02 -0.1115384790090E-01
-0.6955052243805E-02 -0.1172397579651E-01
-0.7441775085945E-02 -0.1228302826667E-01
-0.7948549824398E-02 -0.1283217094146E-01
-0.8478495660594E-02 -0.1337319980206E-01
-0.9034718358974E-02 -0.1390735299784E-01
-0.9620444931951E-02 -0.1443520683210E-01
-0.1023921199055E-01 -0.1495693226334E-01
-0.1089499966892E-01 -0.1547255819192E-01
-0.1159229902996E-01 -0.1598216443413E-01
-0.1233613323375E-01 -0.1648605223703E-01
-0.1313198831665E-01 -0.1698490968525E-01
-0.1398566930702E-01 -0.1748003047948E-01
-0.1490320805579E-01 -0.1797310331209E-01
-0.1589080047205E-01 -0.1846585208741E-01
-0.1695397333775E-01 -0.1896106953093E-01
-0.1809663754118E-01 -0.1946295332278E-01
-0.1931985807276E-01 -0.1997720359201E-01
-0.2062035121239E-01 -0.2051083456010E-01
-0.2198892680104E-01 -0.2107151217315E-01
-0.2340937421564E-01 -0.2166634205358E-01
-0.2485821830324E-01 -0.2230015902296E-01
-0.2630614296180E-01 -0.2297393470227E-01
-0.2071225182489E-03 -0.5879206678059E-03
-0.4507541990655E-03 -0.1187452789737E-02
-0.7246868434194E-03 -0.1798021211989E-02
-0.1022748524667E-02 -0.2417899003479E-02
-0.1339703119456E-02 -0.3044613599378E-02
-0.1671645921542E-02 -0.3675470802391E-02
-0.2015962540217E-02 -0.4307959697618E-02
-0.2371064625668E-02 -0.4939963516875E-02
-0.2736079864652E-02 -0.5569803933983E-02
-0.3110592062009E-02 -0.6196188098546E-02
-0.3494461022873E-02 -0.6818116673784E-02
-0.3887714168951E-02 -0.7434780352012E-02
-0.4290509621359E-02 -0.8045482124567E-02
-0.4703137681785E-02 -0.8649559138669E-02
-0.5126031819322E-02 -0.9246284803221E-02
-0.5559896570642E-02 -0.9834919840112E-02
-0.6005718984978E-02 -0.1041459926813E-01
-0.6464865895334E-02 -0.1098437323712E-01
-0.6939128549733E-02 -0.1154322523483E-01
-0.7430775501389E-02 -0.1209042964138E-01
-0.7942630141366E-02 -0.1262705595196E-01
-0.8477672013650E-02 -0.1315477765764E-01
-0.9038885362050E-02 -0.1367475340049E-01
-0.9629390607147E-02 -0.1418754073413E-01
-0.1025261734070E-01 -0.1469335053135E-01
-0.1091241754683E-01 -0.1519230443584E-01
-0.1161310957256E-01 -0.1568462314812E-01
-0.1235947371719E-01 -0.1617079199443E-01
-0.1315665471717E-01 -0.1665171925164E-01
-0.1400998687436E-01 -0.1712894043603E-01
-0.1492486689492E-01 -0.1760442242998E-01
-0.1590664986313E-01 -0.1808022832305E-01
-0.1695979931624E-01 -0.1855943314007E-01
-0.1808697476782E-01 -0.1904636236347E-01
-0.1928792037811E-01 -0.1954657886955E-01
-0.2055819891010E-01 -0.2006659283457E-01
-0.2188799278899E-01 -0.2061316624818E-01
-0.2326140314896E-01 -0.2119220169956E-01
-0.2465653343290E-01 -0.2180731933899E-01
-0.2604696237150E-01 -0.2245857887421E-01
-0.2005182422614E-03 -0.5792371380498E-03
-0.4371256342925E-03 -0.1169479048646E-02
-0.7042290095215E-03 -0.1770245781111E-02
-0.9961992673606E-03 -0.2380035109981E-02
-0.1308140908068E-02 -0.2996639890254E-02
-0.1636274008994E-02 -0.3617583270620E-02
-0.1977952219890E-02 -0.4240478453668E-02
-0.2331472821507E-02 -0.4863238528662E-02
-0.2695824075663E-02 -0.5484143359967E-02
-0.3070458731981E-02 -0.6101813684754E-02
-0.3455128748424E-02 -0.6715141034448E-02
-0.3849780648155E-02 -0.7323199113227E-02
-0.4254516722223E-02 -0.7925175287091E-02
-0.4669591745625E-02 -0.8520298863070E-02
-0.5095416985906E-02 -0.9107749018161E-02
-0.5532679766393E-02 -0.9686709256349E-02
-0.5982344111780E-02 -0.1025625985026E-01
-0.6445737672955E-02 -0.1081542050783E-01
-0.6924588630817E-02 -0.1136316888160E-01
-0.7421071690389E-02 -0.1189877775812E-01
-0.7937873066399E-02 -0.1242322722823E-01
-0.8477827950554E-02 -0.1293807670029E-01
-0.9043789734264E-02 -0.1344441569576E-01
-0.9638757089430E-02 -0.1394279449813E-01
-0.1026603220992E-01 -0.1443347530505E-01
-0.1092931487249E-01 -0.1491668281995E-01
-0.1163272492828E-01 -0.1539278679882E-01
-0.1238077466378E-01 -0.1586246118020E-01
-0.1317824635648E-01 -0.1632683294289E-01
-0.1402999187352E-01 -0.1678766870106E-01
-0.1494077933485E-01 -0.1724718833500E-01
-0.1591516220740E-01 -0.1770774782413E-01
-0.1695663213920E-01 -0.1817263962980E-01
-0.1806675918457E-01 -0.1864624399973E-01
-0.1924420692077E-01 -0.1913392831038E-01
-0.2048368496429E-01 -0.1964169006074E-01
-0.2177504774368E-01 -0.2017546177879E-01
-0.2310290703918E-01 -0.2074011580268E-01
-0.2444691394918E-01 -0.2133826475037E-01
-0.2578324432277E-01 -0.2196937796099E-01
-0.1942639071910E-03 -0.5707204975715E-03
-0.4242463757994E-03 -0.1151897670246E-02
-0.6848873739394E-03 -0.1743124841651E-02
-0.9710409902630E-03 -0.2343083964192E-02
-0.1278133783787E-02 -0.2949794276379E-02
-0.1602525586758E-02 -0.3560974296135E-02
-0.1941568245032E-02 -0.4174359098862E-02
-0.2293475123672E-02 -0.4787903152370E-02
-0.2657118571514E-02 -0.5399862143175E-02
-0.3031835391485E-02 -0.6008788766986E-02
-0.3417277601502E-02 -0.6613482098044E-02
-0.3813313269945E-02 -0.7212913418149E-02
-0.4219987192633E-02 -0.7806167436271E-02
-0.4637513672478E-02 -0.8392377648990E-02
-0.5066274087908E-02 -0.8970640456744E-02
-0.5506928747000E-02 -0.9540072969599E-02
-0.5960407753834E-02 -0.1009971051301E-01
-0.6427988989892E-02 -0.1064855075734E-01
-0.6911328571650E-02 -0.1118557250524E-01
-0.7412500800305E-02 -0.1171005314062E-01
-0.7934051597262E-02 -0.1222289081541E-01
-0.8478668161704E-02 -0.1272554004228E-01
-0.9049065439999E-02 -0.1321903132772E-01
-0.9648107985249E-02 -0.1370391754538E-01
-0.1027895429483E-01 -0.1418052064640E-01
-0.1094513350981E-01 -0.1464917430249E-01
-0.1165054880177E-01 -0.1511039955292E-01
-0.1239942949682E-01 -0.1556505602005E-01
-0.1319618783478E-01 -0.1601447929306E-01
-0.1404519906959E-01 -0.1646064762359E-01
-0.1495063071996E-01 -0.1690600123459E-01
-0.1591629762459E-01 -0.1735313885714E-01
-0.1694483232532E-01 -0.1780550925575E-01
-0.1803688843063E-01 -0.1826748816958E-01
-0.1919027991945E-01 -0.1874421207150E-01
-0.2039912529611E-01 -0.1924118205291E-01
-0.2165318606405E-01 -0.1976359173449E-01
-0.2293770116545E-01 -0.2031544300574E-01
-0.2423380752191E-01 -0.2089854867455E-01
-0.2551987356132E-01 -0.2151182702233E-01
-0.1883297555916E-03 -0.5623581063815E-03
-0.4120460034297E-03 -0.1134668098757E-02
-0.6665552047023E-03 -0.1716579900064E-02
-0.9471435802389E-03 -0.2306926323889E-02
-0.1249541446986E-02 -0.2903919624138E-02
-0.1570258542028E-02 -0.3505453042587E-02
-0.1906669709176E-02 -0.4109379109267E-02
-0.2256931318377E-02 -0.4713701673853E-02
-0.2619821878763E-02 -0.5316666672881E-02
-0.2994577337916E-02 -0.5916774860060E-02
-0.3380758347908E-02 -0.6512748081885E-02
-0.3778157852638E-02 -0.7103468763952E-02
-0.4186762413155E-02 -0.7687930990364E-02
-0.4606741888704E-02 -0.8265183334165E-02
-0.5038441190827E-02 -0.8834249409325E-02
-0.5482485106842E-02 -0.9394188989165E-02
-0.5939760314301E-02 -0.9944000360247E-02
-0.6411485540728E-02 -0.1048266574610E-01
-0.6899236490125E-02 -0.1100917048083E-01
-0.7404980302198E-02 -0.1152280123011E-01
-0.7931118225826E-02 -0.1202437964662E-01
-0.8480184162069E-02 -0.1251526217931E-01
-0.9054745625577E-02 -0.1299642809214E-01
-0.9657519816139E-02 -0.1346844059505E-01
-0.1029150485160E-01 -0.1393168803103E-01
-0.1096004070496E-01 -0.1438661752582E-01
-0.1166679563765E-01 -0.1483390261338E-01
-0.1241570086626E-01 -0.1527458517536E-01
-0.1321079036142E-01 -0.1571019965254E-01
-0.1405596685851E-01 -0.1614291820174E-01
-0.1495482117113E-01 -0.1657537311378E-01
-0.1591048347826E-01 -0.1701036448796E-01
-0.1692482188575E-01 -0.1745144937384E-01
-0.1799771474035E-01 -0.1790295567697E-01
-0.1912630860888E-01 -0.1836976776754E-01
-0.2030433007111E-01 -0.1885691121974E-01
-0.2152161584901E-01 -0.1936891685241E-01
-0.2276411294626E-01 -0.1990904172373E-01
-0.2401435197495E-01 -0.2047843908182E-01
-0.2525276546849E-01 -0.2107559033768E-01
-0.1826863467516E-03 -0.5541280773639E-03
-0.4004615341673E-03 -0.1117742663781E-02
-0.6491435207525E-03 -0.1690537055032E-02
-0.9244066055018E-03 -0.2271468047508E-02
-0.1222266221332E-02 -0.2858912417974E-02
-0.1539387289381E-02 -0.3450918869023E-02
-0.1873186730940E-02 -0.4045451243682E-02
-0.2221786521922E-02 -0.4640567672038E-02
-0.2583890989841E-02 -0.5234515776756E-02
-0.2958649373082E-02 -0.5825758296839E-02
-0.3345539424704E-02 -0.6412953782284E-02
-0.3744282553444E-02 -0.6994908684226E-02
-0.4154806731893E-02 -0.7570538101148E-02
-0.4577233856402E-02 -0.8138816206661E-02
-0.5011866346861E-02 -0.8698703331207E-02
-0.5459285652452E-02 -0.9249210326028E-02
-0.5920326301646E-02 -0.9789305600646E-02
-0.6396139216630E-02 -0.1031796175537E-01
-0.6888211843797E-02 -0.1083417527879E-01
-0.7398397580661E-02 -0.1133724606805E-01
-0.7928948474455E-02 -0.1182792420322E-01
-0.8482239670262E-02 -0.1230747424642E-01
-0.9060682501403E-02 -0.1277683089207E-01
-0.9666834441988E-02 -0.1323657386673E-01
-0.1030351812834E-01 -0.1368716257394E-01
-0.1097386817446E-01 -0.1412915975620E-01
-0.1168130287027E-01 -0.1456339003784E-01
-0.1242944426892E-01 -0.1499107139222E-01
-0.1322194488463E-01 -0.1541392487374E-01
-0.1406224473972E-01 -0.1583429728421E-01
-0.1495338737207E-01 -0.1625498512582E-01
-0.1589787573988E-01 -0.1667895215779E-01
-0.1689690626831E-01 -0.1710982345126E-01
-0.1794971192673E-01 -0.1755184702171E-01
-0.1905293031618E-01 -0.1800964586375E-01
-0.2020005886129E-01 -0.1848779833145E-01
-0.2138113763605E-01 -0.1899024517501E-01
-0.2258286196802E-01 -0.1951960912049E-01
-0.2378909063628E-01 -0.2007649300547E-01
-0.2498203181865E-01 -0.2065907728907E-01
-0.1773075624026E-03 -0.5460121163997E-03
-0.3894371196640E-03 -0.1101081391917E-02
-0.6325725151439E-03 -0.1664934082331E-02
-0.9027380658226E-03 -0.2236629075856E-02
-0.1196216071219E-02 -0.2814683451267E-02
-0.1509828365085E-02 -0.3397283735769E-02
-0.1841048359563E-02 -0.3982498012645E-02
-0.2187982392376E-02 -0.4568441278831E-02
-0.2549277882609E-02 -0.5153371793506E-02
-0.2924010389967E-02 -0.5735726225639E-02
-0.3311582935565E-02 -0.6314112435010E-02
-0.3711649108731E-02 -0.6887272967617E-02
-0.4124078267335E-02 -0.7454055038208E-02
-0.4548941272845E-02 -0.8013368472929E-02
-0.4986492594287E-02 -0.8564119285496E-02
-0.5437263209708E-02 -0.9105277189359E-02
-0.5902027524717E-02 -0.9635787185164E-02
-0.6381860691316E-02 -0.1015461736774E-01
-0.6878154540861E-02 -0.1066077929146E-01
-0.7392642375534E-02 -0.1115358932194E-01
-0.7927422475836E-02 -0.1163373035951E-01
-0.8484705761967E-02 -0.1210238057546E-01
-0.9066738993073E-02 -0.1256043567761E-01
-0.9675908475307E-02 -0.1300849658429E-01
-0.1031484784941E-01 -0.1344709659028E-01
-0.1098647245574E-01 -0.1387691413510E-01
-0.1169393854385E-01 -0.1429892131543E-01
-0.1244055167038E-01 -0.1471450389783E-01
-0.1322958404763E-01 -0.1512555566542E-01
-0.1406402733252E-01 -0.1553457825873E-01
-0.1494641102506E-01 -0.1594450590234E-01
-0.1587866961039E-01 -0.1635843251918E-01
-0.1686141662202E-01 -0.1678001831782E-01
-0.1789335741704E-01 -0.1721340893610E-01
-0.1897075695655E-01 -0.1766296579033E-01
-0.2008701601141E-01 -0.1813285247316E-01
-0.2123247228592E-01 -0.1862648842811E-01
-0.2239459078886E-01 -0.1914595514013E-01
-0.2355846974690E-01 -0.1969140994834E-01
-0.2470789095201E-01 -0.2026078350427E-01
-0.1721699850203E-03 -0.5379948014555E-03
-0.3789227862519E-03 -0.1084650572627E-02
-0.6167700969770E-03 -0.1639718296914E-02
-0.8820533240893E-03 -0.2202341047533E-02
-0.1171304188421E-02 -0.2771155640272E-02
-0.1481500619663E-02 -0.3344470511508E-02
-0.1810183155271E-02 -0.3920450532061E-02
-0.2155457879934E-02 -0.4497268470464E-02
-0.2515930299212E-02 -0.5073200137615E-02
-0.2890614119618E-02 -0.5646666304341E-02
-0.3278845359222E-02 -0.6216235446093E-02
-0.3680213521585E-02 -0.6780597386665E-02
-0.4094529594279E-02 -0.7338541921648E-02
-0.4521810762487E-02 -0.7888924030952E-02
-0.4962258647789E-02 -0.8430603808453E-02
-0.5416347294453E-02 -0.8962516995631E-02
-0.5884783726765E-02 -0.9483591000067E-02
-0.6368560012372E-02 -0.9992793869907E-02
-0.6868965492953E-02 -0.1048915546192E-01
-0.7387607298653E-02 -0.1097201115712E-01
-0.7926425440445E-02 -0.1144198052373E-01
-0.8487461251569E-02 -0.1190016014852E-01
-0.9072788975988E-02 -0.1234741127621E-01
-0.9684613282499E-02 -0.1278435927251E-01
-0.1032536686592E-01 -0.1321161247214E-01
-0.1099773404640E-01 -0.1362996326445E-01
-0.1170459972464E-01 -0.1404052577682E-01
-0.1244894891989E-01 -0.1444484369068E-01
-0.1323367831623E-01 -0.1484496868300E-01
-0.1406134899416E-01 -0.1524353763487E-01
-0.1493401197244E-01 -0.1564359799626E-01
-0.1585309161794E-01 -0.1604834475715E-01
-0.1681870203868E-01 -0.1646144713094E-01
-0.1782912645925E-01 -0.1688693383933E-01
-0.1888037362661E-01 -0.1732891115146E-01
-0.1996585440839E-01 -0.1779116253444E-01
-0.2107627351600E-01 -0.1827664901664E-01
-0.2219986837438E-01 -0.1878699336208E-01
-0.2332289239336E-01 -0.1932198766027E-01
-0.2443053565690E-01 -0.1987935889167E-01
-0.1672524068468E-03 -0.5300630329920E-03
-0.3688734218325E-03 -0.1068421590029E-02
-0.6016706915211E-03 -0.1614844830874E-02
-0.8622741681240E-03 -0.2168545313110E-02
-0.1147448569790E-02 -0.2728262140669E-02
-0.1454325311006E-02 -0.3292411446672E-02
-0.1780519648391E-02 -0.3859247435415E-02
-0.2124149878008E-02 -0.4427000362430E-02
-0.2483792462289E-02 -0.4993968861406E-02
-0.2858409847122E-02 -0.5558566417257E-02
-0.3247278245758E-02 -0.6119332186406E-02
-0.3649926742119E-02 -0.6674913535681E-02
-0.4066108416146E-02 -0.7224052606078E-02
-0.4495784542115E-02 -0.7765558429458E-02
-0.4939099546725E-02 -0.8298252986145E-02
-0.5396464727735E-02 -0.8821044605631E-02
-0.5868513153561E-02 -0.9332848299568E-02
-0.6356147116522E-02 -0.9832635906820E-02
-0.6860547078250E-02 -0.1031945818065E-01
-0.7383188241635E-02 -0.1079267139889E-01
-0.7925847991127E-02 -0.1125283509735E-01
-0.8490392914494E-02 -0.1170096840017E-01
-0.9078717323910E-02 -0.1213790160003E-01
-0.9692834774106E-02 -0.1256428644839E-01
-0.1033496657644E-01 -0.1298080595614E-01
-0.1100755631031E-01 -0.1338836314361E-01
-0.1171321070976E-01 -0.1378820726817E-01
-0.1245459305201E-01 -0.1418202894840E-01
-0.1323423217650E-01 -0.1457202253493E-01
-0.1405427881608E-01 -0.1496094131118E-01
-0.1491634213200E-01 -0.1535192381644E-01
-0.1582139304627E-01 -0.1574824134840E-01
-0.1676912355283E-01 -0.1615355199995E-01
-0.1775748829993E-01 -0.1657175948455E-01
-0.1878233850656E-01 -0.1700672612069E-01
-0.1983718071632E-01 -0.1746189027212E-01
-0.2091313615187E-01 -0.1793981205047E-01
-0.2199920612633E-01 -0.1844172590891E-01
-0.2308272069170E-01 -0.1896712367971E-01
-0.2415014157575E-01 -0.1951356676029E-01
-0.1625354415219E-03 -0.5222056005329E-03
-0.3592479598059E-03 -0.1052369980866E-02
-0.5872142468837E-03 -0.1590275226390E-02
-0.8433279898630E-03 -0.2135191269569E-02
-0.1124571594654E-02 -0.2685944704045E-02
-0.1428226111355E-02 -0.3241046769397E-02
-0.1751986676487E-02 -0.3798833798669E-02
-0.2093993754560E-02 -0.4357592440404E-02
-0.2452805690353E-02 -0.4915648110588E-02
-0.2827343046231E-02 -0.5471414266571E-02
-0.3216828843739E-02 -0.6023409652705E-02
-0.3620735281868E-02 -0.6570248527715E-02
-0.4038758167657E-02 -0.7110634410201E-02
-0.4470801009301E-02 -0.7643338648745E-02
-0.4916947220328E-02 -0.8167152316452E-02
-0.5377540165257E-02 -0.8680962298952E-02
-0.5853133037083E-02 -0.9183675819312E-02
-0.6344532263779E-02 -0.9674271755062E-02
-0.6852803525625E-02 -0.1015182373746E-01
-0.7379284704183E-02 -0.1061571018413E-01
-0.7925586415329E-02 -0.1106643335577E-01
-0.8493395623409E-02 -0.1150493836726E-01
-0.9084419868047E-02 -0.1193202711662E-01
-0.9700473104304E-02 -0.1234837847473E-01
-0.1034355626100E-01 -0.1275474842668E-01
-0.1101586431417E-01 -0.1315214598077E-01
-0.1171972120982E-01 -0.1354194749515E-01
-0.1245746965062E-01 -0.1392597885627E-01
-0.1323128054966E-01 -0.1430656192498E-01
-0.1404291607153E-01 -0.1468654869019E-01
-0.1489358018366E-01 -0.1506914917812E-01
-0.1578384441024E-01 -0.1545769034765E-01
-0.1671304936752E-01 -0.1585580426711E-01
-0.1767890340157E-01 -0.1626726669148E-01
-0.1867718335999E-01 -0.1669571040673E-01
-0.1970155956158E-01 -0.1714426308031E-01
-0.2074360410736E-01 -0.1761513570662E-01
-0.2179306662879E-01 -0.1810923438345E-01
-0.2283828198810E-01 -0.1862580374289E-01
-0.2386686751846E-01 -0.1916227162989E-01
-0.1580012145266E-03 -0.5144128311896E-03
-0.3500087205697E-03 -0.1036474666805E-02
-0.5733454144548E-03 -0.1565976278293E-02
-0.8251470815517E-03 -0.2102234966084E-02
-0.1102599633934E-02 -0.2644152266514E-02
-0.1403129079228E-02 -0.3190323443298E-02
-0.1724513656737E-02 -0.3739160161027E-02
-0.2064923820076E-02 -0.4289003847235E-02
-0.2422908966720E-02 -0.4838209626770E-02
-0.2797355986352E-02 -0.5385197025771E-02
-0.3187440712603E-02 -0.5928472220349E-02
-0.3592581817920E-02 -0.6466624819089E-02
-0.4012418604080E-02 -0.6998328010011E-02
-0.4446795309188E-02 -0.7522323077733E-02
-0.4895731020862E-02 -0.8037376795077E-02
-0.5359496584209E-02 -0.8542359996326E-02
-0.5838560025910E-02 -0.9036176159974E-02
-0.6333626405840E-02 -0.9517813889790E-02
-0.6845641216893E-02 -0.9986371093545E-02
-0.7375800020109E-02 -0.1044124896323E-01
-0.7925542791927E-02 -0.1088289471146E-01
-0.8496372335589E-02 -0.1131218225362E-01
-0.9089803186429E-02 -0.1172988676315E-01
-0.9707442185825E-02 -0.1213671387675E-01
-0.1035106222726E-01 -0.1253348968539E-01
-0.1102260349350E-01 -0.1292132344928E-01
-0.1172410441288E-01 -0.1330170976099E-01
-0.1245759019843E-01 -0.1367659774897E-01
-0.1322488536617E-01 -0.1404842200962E-01
-0.1402738607213E-01 -0.1442011692199E-01
-0.1486592697264E-01 -0.1479494695803E-01
-0.1574073095733E-01 -0.1517627787841E-01
-0.1665085130255E-01 -0.1556770527937E-01
-0.1759382187340E-01 -0.1597287802152E-01
-0.1856541482996E-01 -0.1639521583547E-01
-0.1955951808582E-01 -0.1683756873948E-01
-0.2056817757184E-01 -0.1730184488494E-01
-0.2158187155411E-01 -0.1778867301543E-01
-0.2258987445329E-01 -0.1829709425857E-01
-0.2358085904118E-01 -0.1882442955531E-01
-0.1536331160737E-03 -0.5066763033404E-03
-0.3411208791649E-03 -0.1020717325848E-02
-0.5600128715385E-03 -0.1541919075778E-02
-0.8076680324351E-03 -0.2069637927685E-02
-0.1081462690283E-02 -0.2602839724976E-02
-0.1378962601478E-02 -0.3140194052063E-02
-0.1698030794182E-02 -0.3680181607941E-02
-0.2036873722593E-02 -0.4221196682553E-02
-0.2394039441700E-02 -0.4761626233857E-02
-0.2768388283293E-02 -0.5299900965905E-02
-0.3159054286841E-02 -0.5834521368362E-02
-0.3565405751759E-02 -0.6364060009415E-02
-0.3987026343394E-02 -0.6887167308878E-02
-0.4423699849596E-02 -0.7402561464202E-02
-0.4875378199940E-02 -0.7908990964667E-02
-0.5342255709019E-02 -0.8405315429052E-02
-0.5824710551139E-02 -0.8890438097729E-02
-0.6323341486128E-02 -0.9363359455995E-02
-0.6838968914931E-02 -0.9823202534083E-02
-0.7372641501336E-02 -0.1026939135733E-01
-0.7925625027075E-02 -0.1070231980494E-01
-0.8499233981329E-02 -0.1112279279009E-01
-0.9094784289637E-02 -0.1153155961541E-01
-0.9713669102821E-02 -0.1192935136012E-01
-0.1035742686699E-01 -0.1231706035100E-01
-0.1102773825949E-01 -0.1269588948149E-01
-0.1172635504811E-01 -0.1306744212432E-01
-0.1245498952497E-01 -0.1343377853449E-01
-0.1321513238539E-01 -0.1379743189401E-01
-0.1400783646286E-01 -0.1416140416599E-01
-0.1483360156411E-01 -0.1452899971163E-01
-0.1569234899468E-01 -0.1490360964340E-01
-0.1658290211944E-01 -0.1528878637941E-01
-0.1750268260033E-01 -0.1568805602393E-01
-0.1844751600701E-01 -0.1610464290051E-01
-0.1941155008877E-01 -0.1654115061422E-01
-0.2038731904785E-01 -0.1699922558659E-01
-0.2136600796377E-01 -0.1747926261745E-01
-0.2233777177524E-01 -0.1798013545764E-01
-0.2329225141080E-01 -0.1849908001897E-01
-0.1494156033937E-03 -0.4989886105827E-03
-0.3325520346623E-03 -0.1005081873341E-02
-0.5471687630772E-03 -0.1518078204953E-02
-0.7908312170160E-03 -0.2037366161702E-02
-0.1061094077471E-02 -0.2561966881329E-02
-0.1355657325046E-02 -0.3090615811836E-02
-0.1672469248958E-02 -0.3621856936140E-02
-0.2009776791218E-02 -0.4154135348625E-02
-0.2366132885972E-02 -0.4685871351338E-02
-0.2740377408756E-02 -0.5215511104549E-02
-0.3131607405398E-02 -0.5741555433244E-02
-0.3539143735982E-02 -0.6262566681050E-02
-0.3962515374942E-02 -0.6777179357884E-02
-0.4401444778472E-02 -0.7284094923343E-02
-0.4855814341862E-02 -0.7782049026376E-02
-0.5325738388551E-02 -0.8269894371436E-02
-0.5811501137824E-02 -0.8746536955934E-02
-0.6313590678098E-02 -0.9210990798122E-02
-0.6832697920641E-02 -0.9662404375877E-02
-0.7369720499408E-02 -0.1010022406668E-01
-0.7925746795771E-02 -0.1052479164088E-01
-0.8501899247986E-02 -0.1093684462991E-01
-0.9099290196543E-02 -0.1133710657594E-01
-0.9719093416014E-02 -0.1172633182221E-01
-0.1036260761986E-01 -0.1210547421286E-01
-0.1103125054774E-01 -0.1247582295957E-01
-0.1172648745417E-01 -0.1283908038122E-01
-0.1244972335942E-01 -0.1319740585831E-01
-0.1320212826170E-01 -0.1355341778797E-01
-0.1398443393940E-01 -0.1391017246080E-01
-0.1479683790466E-01 -0.1427100190855E-01
-0.1563900296616E-01 -0.1463931215813E-01
-0.1650957362789E-01 -0.1501860883935E-01
-0.1740591301021E-01 -0.1541230173980E-01
-0.1832394829347E-01 -0.1582343793888E-01
-0.1925811997521E-01 -0.1625440382151E-01
-0.2020145870803E-01 -0.1670662048795E-01
-0.2114583378504E-01 -0.1718028577082E-01
-0.2208222744187E-01 -0.1767413592830E-01
-0.2300117242328E-01 -0.1818533948022E-01
-0.1453340426994E-03 -0.4913431660785E-03
-0.3242718618631E-03 -0.9895540308507E-03
-0.5347682419989E-03 -0.1494431081129E-02
-0.7745803626474E-03 -0.2005389313737E-02
-0.1041430137723E-02 -0.2521497526800E-02
-0.1333146084179E-02 -0.3041549692044E-02
-0.1647761269421E-02 -0.3564147887603E-02
-0.1983566331850E-02 -0.4087785930532E-02
-0.2339124094173E-02 -0.4610918518438E-02
-0.2713259153449E-02 -0.5132010853471E-02
-0.3105035798528E-02 -0.5649569357252E-02
-0.3513730160235E-02 -0.6162152232345E-02
-0.3938817526531E-02 -0.6668384269098E-02
-0.4379958417208E-02 -0.7166955935700E-02
-0.4836963749540E-02 -0.7656594933487E-02
-0.5309864922575E-02 -0.8136150844289E-02
-0.5798848662106E-02 -0.8604534934055E-02
-0.6304288564691E-02 -0.9060775931085E-02
-0.6826742165048E-02 -0.9504047598886E-02
-0.7366952395030E-02 -0.9933817683232E-02
-0.7925827404566E-02 -0.1035037660570E-01
-0.8504294280506E-02 -0.1075439559807E-01
-0.9103257426558E-02 -0.1114657188152E-01
-0.9723666392123E-02 -0.1152768013866E-01
-0.1036657588121E-01 -0.1189873030390E-01
-0.1103313834804E-01 -0.1226109005742E-01
-0.1172453368961E-01 -0.1261655061843E-01
-0.1244186601477E-01 -0.1296735875481E-01
-0.1318599786014E-01 -0.1331620557532E-01
-0.1395736135166E-01 -0.1366618996494E-01
-0.1475588199856E-01 -0.1402066155385E-01
-0.1558100312056E-01 -0.1438303346546E-01
-0.1643123535339E-01 -0.1475676345809E-01
-0.1730392922178E-01 -0.1514515312123E-01
-0.1819515331061E-01 -0.1555109049868E-01
-0.1909966630650E-01 -0.1597677182950E-01
-0.2001099896591E-01 -0.1642342507833E-01
-0.2092168236984E-01 -0.1689108262071E-01
-0.2182347830839E-01 -0.1737836787653E-01
-0.2270774458183E-01 -0.1788239587352E-01
-0.1413745831626E-03 -0.4837340391881E-03
-0.3162518299884E-03 -0.9741209655496E-03
-0.5227690918322E-03 -0.1470957386467E-02
-0.7588621865687E-03 -0.1973679947582E-02
-0.1022409996480E-02 -0.2481398646104E-02
-0.1311363829784E-02 -0.2992959633225E-02
-0.1623840300671E-02 -0.3507018449445E-02
-0.1958175883900E-02 -0.4022115613105E-02
-0.2312947245003E-02 -0.4536740933563E-02
-0.2686968047577E-02 -0.5049381668824E-02
-0.3079273534230E-02 -0.5558554432955E-02
-0.3489097597863E-02 -0.6062818704168E-02
-0.3915862891654E-02 -0.6560795119251E-02
-0.4359167652191E-02 -0.7051168330672E-02
-0.4818749786117E-02 -0.7532662462838E-02
-0.5294555341084E-02 -0.8004127285537E-02
-0.5786670557862E-02 -0.8464481390560E-02
-0.6295351262969E-02 -0.8912768950212E-02
-0.6821018240975E-02 -0.9348188399786E-02
-0.7364256520875E-02 -0.9770227406185E-02
-0.7925791581816E-02 -0.1017912536588E-01
-0.8506352306248E-02 -0.1057548779453E-01
-0.9106631417731E-02 -0.1095998443165E-01
-0.9727350168427E-02 -0.1133340673014E-01
-0.1036931586557E-01 -0.1169681470403E-01
-0.1103341422646E-01 -0.1205164625407E-01
-0.1172054169224E-01 -0.1239977137341E-01
-0.1243150820110E-01 -0.1274351284207E-01
-0.1316688180132E-01 -0.1308562287720E-01
-0.1392681514527E-01 -0.1342923267398E-01
-0.1471098951469E-01 -0.1377770131909E-01
-0.1551866365071E-01 -0.1413444345940E-01
-0.1634825362220E-01 -0.1450286993357E-01
-0.1719713643371E-01 -0.1488618343749E-01
-0.1806155475299E-01 -0.1528713091268E-01
-0.1893660494696E-01 -0.1570774343826E-01
-0.1981631835032E-01 -0.1614908427884E-01
-0.2069386626301E-01 -0.1661104720642E-01
-0.2156174748352E-01 -0.1709216303438E-01
-0.2241208666427E-01 -0.1758950392105E-01
-0.1375240569037E-03 -0.4761558179933E-03
-0.3084649765057E-03 -0.9587709871074E-03
-0.5111314190488E-03 -0.1447638595511E-02
-0.7436260952644E-03 -0.1942212932202E-02
-0.1003975355809E-02 -0.2441639730915E-02
-0.1290247569438E-02 -0.2944811861581E-02
-0.1600641081199E-02 -0.3450434230622E-02
-0.1933539451914E-02 -0.3957092155489E-02
-0.2287536231253E-02 -0.4463311038074E-02
-0.2661437751134E-02 -0.4967602739632E-02
-0.3054253435864E-02 -0.5468498086055E-02
-0.3465177224542E-02 -0.5964562648192E-02
-0.3893580228073E-02 -0.6454417899788E-02
-0.4338998295677E-02 -0.6936747320304E-02
-0.4801095182835E-02 -0.7410275338840E-02
-0.5279729645940E-02 -0.7873854774009E-02
-0.5774884980765E-02 -0.8326413178131E-02
-0.6286696499921E-02 -0.8767010491395E-02
-0.6815445378429E-02 -0.9194868792377E-02
-0.7361556020190E-02 -0.9609493799291E-02
-0.7925569196829E-02 -0.1001107380031E-01
-0.8508013184819E-02 -0.1040014872038E-01
-0.9109365871502E-02 -0.1077735912417E-01
-0.9730116854135E-02 -0.1114350911487E-01
-0.1037082342928E-01 -0.1149970230162E-01
-0.1103210384495E-01 -0.1184743827225E-01
-0.1171457349413E-01 -0.1218865568449E-01
-0.1241875497315E-01 -0.1252574237703E-01
-0.1314493423711E-01 -0.1286150096203E-01
-0.1389300313583E-01 -0.1319908600107E-01
-0.1466242381268E-01 -0.1354185959805E-01
-0.1545230129254E-01 -0.1389323424712E-01
-0.1626099107132E-01 -0.1425657643566E-01
-0.1708592961082E-01 -0.1463500007321E-01
-0.1792356033161E-01 -0.1503112845157E-01
-0.1876933206443E-01 -0.1544685048780E-01
-0.1961777506452E-01 -0.1588308988102E-01
-0.2046268063577E-01 -0.1633962468163E-01
-0.2129724699984E-01 -0.1681490956976E-01
-0.2211431520941E-01 -0.1730598159402E-01
-0.1337699003600E-03 -0.4686034933512E-03
-0.3008857262330E-03 -0.9434932918294E-03
-0.4998174033621E-03 -0.1424457572716E-02
-0.7288239367748E-03 -0.1910964916670E-02
-0.9860703217217E-03 -0.2402192183455E-02
-0.1269736317269E-02 -0.2897074282866E-02
-0.1578099728524E-02 -0.3394361899575E-02
-0.1909591712374E-02 -0.3892683406990E-02
-0.2262824958116E-02 -0.4390600124793E-02
-0.2636601410225E-02 -0.4886650689249E-02
-0.3029907465658E-02 -0.5379383663590E-02
-0.3441899202934E-02 -0.5867374995339E-02
-0.3871897321993E-02 -0.6349251462265E-02
-0.4319375411156E-02 -0.6823699522551E-02
-0.4783922309770E-02 -0.7289447339234E-02
-0.5265308013278E-02 -0.7745353225101E-02
-0.5763410930315E-02 -0.8190354938856E-02
-0.6278243642646E-02 -0.8623528137390E-02
-0.6809945370043E-02 -0.9044117138226E-02
-0.7358777651135E-02 -0.9451643460038E-02
-0.7925094921703E-02 -0.9846243823315E-02
-0.8509222900513E-02 -0.1022839226939E-01
-0.9111422045004E-02 -0.1059869802633E-01
-0.9731947591714E-02 -0.1095797326160E-01
-0.1037110487572E-01 -0.1130735831586E-01
-0.1102924449899E-01 -0.1164840573523E-01
-0.1170670350522E-01 -0.1198311281789E-01
-0.1240372381160E-01 -0.1231392195351E-01
-0.1312032083391E-01 -0.1264367628219E-01
-0.1385614256214E-01 -0.1297554599640E-01
-0.1461045429731E-01 -0.1331289125185E-01
-0.1538223425554E-01 -0.1365912029354E-01
-0.1616980642414E-01 -0.1401755909050E-01
-0.1697069429177E-01 -0.1439124338450E-01
-0.1778156363156E-01 -0.1478268967145E-01
-0.1859822682291E-01 -0.1519366586199E-01
-0.1941571006885E-01 -0.1562497834343E-01
-0.2022840618331E-01 -0.1607630894295E-01
-0.2103017998820E-01 -0.1654604948185E-01
-0.2181454558416E-01 -0.1703120716410E-01
-0.1301000932511E-03 -0.4610723606596E-03
-0.2934897479216E-03 -0.9282777458073E-03
-0.4887910968767E-03 -0.1401398230022E-02
-0.7144097991621E-03 -0.1879913879731E-02
-0.9686412630738E-03 -0.2363028798612E-02
-0.1249771055771E-02 -0.2849715948053E-02
-0.1556153818709E-02 -0.3338768680026E-02
-0.1886268201533E-02 -0.3828856865401E-02
-0.2238747615330E-02 -0.4318577975134E-02
-0.2612391984173E-02 -0.4806499295010E-02
-0.3006167078125E-02 -0.5291190233126E-02
-0.3419193037024E-02 -0.5771240930030E-02
-0.3850741321495E-02 -0.6245287464875E-02
-0.4300223607080E-02 -0.6712022980272E-02
-0.4767153413520E-02 -0.7170182389698E-02
-0.5251210960915E-02 -0.7618631566685E-02
-0.5752168334261E-02 -0.8056319369276E-02
-0.6269913687486E-02 -0.8482336781780E-02
-0.6804442451462E-02 -0.8895948620793E-02
-0.7355851542268E-02 -0.9296689615910E-02
-0.7924307841857E-02 -0.9684644115391E-02
-0.8509933003934E-02 -0.1006021960483E-01
-0.9112767997864E-02 -0.1042399140521E-01
-0.9732831585012E-02 -0.1077677477232E-01
-0.1037017574891E-01 -0.1111973961638E-01
-0.1102488367679E-01 -0.1145448258793E-01
-0.1169701686378E-01 -0.1178304972922E-01
-0.1238654282757E-01 -0.1210792791502E-01
-0.1309321694116E-01 -0.1243199172306E-01
-0.1381645838124E-01 -0.1275842030291E-01
-0.1455535504973E-01 -0.1309056814656E-01
-0.1530878142394E-01 -0.1343183844762E-01
-0.1607505447337E-01 -0.1378552146151E-01
-0.1685180748001E-01 -0.1415458567521E-01
-0.1763594588463E-01 -0.1454145699249E-01
-0.1842365381693E-01 -0.1494780180542E-01
-0.1921044977856E-01 -0.1537432895408E-01
-0.1999131159413E-01 -0.1582064067006E-01
-0.2076074245774E-01 -0.1628507647283E-01
-0.2151289273470E-01 -0.1676461681985E-01
-0.1265031121542E-03 -0.4535579363843E-03
-0.2862538422657E-03 -0.9131147011091E-03
-0.4780182651455E-03 -0.1378445236254E-02
-0.7003398502884E-03 -0.1849038745741E-02
-0.9516367012812E-03 -0.2324123319020E-02
-0.1230294713109E-02 -0.2802706590251E-02
-0.1534742466521E-02 -0.3283621910525E-02
-0.1863505492832E-02 -0.3765579289649E-02
-0.2215238932352E-02 -0.4247212542217E-02
-0.2588742552653E-02 -0.4727119248281E-02
-0.2982963552530E-02 -0.5203892419611E-02
-0.3396987905207E-02 -0.5676139801340E-02
-0.3830039048271E-02 -0.6142510355941E-02
-0.4281467307927E-02 -0.6601707217053E-02
-0.4750710830620E-02 -0.7052474694292E-02
-0.5237359489099E-02 -0.7493687948668E-02
-0.5741078103096E-02 -0.7924307515560E-02
-0.6261629215134E-02 -0.8343439018044E-02
-0.6798863143111E-02 -0.8750365738023E-02
-0.7352710905129E-02 -0.9144632730559E-02
-0.7923151020949E-02 -0.9526270853230E-02
-0.8510100008396E-02 -0.9895620022309E-02
-0.9113377799144E-02 -0.1025321872812E-01
-0.9732765099976E-02 -0.1059988001694E-01
-0.1036805962135E-01 -0.1093679597592E-01
-0.1101907764530E-01 -0.1126559843354E-01
-0.1168560785806E-01 -0.1158837242837E-01
-0.1236734909270E-01 -0.1190763966925E-01
-0.1306380594497E-01 -0.1222629776959E-01
-0.1377418180355E-01 -0.1254752906871E-01
-0.1449740373576E-01 -0.1287467971388E-01
-0.1523226183936E-01 -0.1321114808375E-01
-0.1597708630666E-01 -0.1356019425460E-01
-0.1672963869398E-01 -0.1392473050946E-01
-0.1748707778934E-01 -0.1430710771209E-01
-0.1824596544513E-01 -0.1470890874837E-01
-0.1900230863390E-01 -0.1513076255302E-01
-0.1975165589051E-01 -0.1557220597356E-01
-0.2048912500800E-01 -0.1603153448898E-01
-0.2120947197241E-01 -0.1650570303361E-01
-0.1229678961937E-03 -0.4460558870885E-03
-0.2791558555955E-03 -0.8979948388399E-03
-0.4674662622146E-03 -0.1355583767457E-02
-0.6865722106396E-03 -0.1818319051402E-02
-0.9350072235254E-03 -0.2285450043566E-02
-0.1211252149609E-02 -0.2756016209674E-02
-0.1513806400219E-02 -0.3228888640486E-02
-0.1841241357106E-02 -0.3702816333945E-02
-0.2192234408278E-02 -0.4176469639776E-02
-0.2565586592924E-02 -0.4648477905320E-02
-0.2960228293162E-02 -0.5117460219089E-02
-0.3375212960243E-02 -0.5582044997591E-02
-0.3809717275967E-02 -0.6040897307099E-02
-0.4263030991885E-02 -0.6492733227844E-02
-0.4734517167645E-02 -0.6936308784160E-02
-0.5223675187926E-02 -0.7370509852223E-02
-0.5730062150932E-02 -0.7794308947594E-02
-0.6253314311509E-02 -0.8206825384562E-02
-0.6793136057011E-02 -0.8607358625482E-02
-0.7349291711565E-02 -0.8995460912646E-02
-0.7921571031430E-02 -0.9371108211783E-02
-0.8509684755075E-02 -0.9734571551268E-02
-0.9113230709532E-02 -0.1008634936578E-01
-0.9731750451685E-02 -0.1042724693289E-01
-0.1036478688497E-01 -0.1075847094991E-01
-0.1101189006237E-01 -0.1108167946149E-01
-0.1167257840288E-01 -0.1139898690669E-01
-0.1234628705599E-01 -0.1171294054735E-01
-0.1303227773747E-01 -0.1202645321679E-01
-0.1372954896138E-01 -0.1234270542375E-01
-0.1443688064222E-01 -0.1266503311914E-01
-0.1515299427098E-01 -0.1299683091368E-01
-0.1587624953594E-01 -0.1334133476924E-01
-0.1660455089653E-01 -0.1370141184438E-01
-0.1733532105870E-01 -0.1407935289891E-01
-0.1806550385875E-01 -0.1447667405285E-01
-0.1879159112026E-01 -0.1489394019916E-01
-0.1950969014116E-01 -0.1533063500657E-01
-0.2021551388212E-01 -0.1578501625546E-01
-0.2090439910629E-01 -0.1625401296938E-01
-0.1194838228883E-03 -0.4385619689515E-03
-0.2721746156590E-03 -0.8829090359522E-03
-0.4571039360332E-03 -0.1332799295219E-02
-0.6730668577476E-03 -0.1787734662729E-02
-0.9187054218658E-03 -0.2246983493712E-02
-0.1192590160337E-02 -0.2709614718614E-02
-0.1493288041914E-02 -0.3174535284048E-02
-0.1819414919713E-02 -0.3640532235466E-02
-0.2169670532856E-02 -0.4106312680207E-02
-0.2542858244960E-02 -0.4570539084146E-02
-0.2937893116093E-02 -0.5031858856939E-02
-0.3353797615175E-02 -0.5488923865283E-02
-0.3789702994112E-02 -0.5940418191308E-02
-0.4244839413488E-02 -0.6385073514883E-02
-0.4718495465087E-02 -0.6821659611406E-02
-0.5210080326639E-02 -0.7249074243228E-02
-0.5719043395577E-02 -0.7666301975204E-02
-0.6244894464442E-02 -0.8072474648318E-02
-0.6787191675654E-02 -0.8466905413332E-02
-0.7345532339792E-02 -0.8849150352141E-02
-0.7919517451905E-02 -0.9219128885798E-02
-0.8508651745690E-02 -0.9577041566385E-02
-0.9112310335892E-02 -0.9923343294670E-02
-0.9729794974246E-02 -0.1025882581317E-01
-0.1036039354251E-01 -0.1058470273518E-01
-0.1100339061504E-01 -0.1090264934947E-01
-0.1165803657605E-01 -0.1121480004046E-01
-0.1232350706056E-01 -0.1152371865356E-01
-0.1299882732865E-01 -0.1183232590045E-01
-0.1368279975776E-01 -0.1214379602515E-01
-0.1437406791832E-01 -0.1246145356516E-01
-0.1507129699428E-01 -0.1278869101652E-01
-0.1577288871308E-01 -0.1312872665631E-01
-0.1647690156425E-01 -0.1348439355468E-01
-0.1718103004978E-01 -0.1385793675042E-01
-0.1788260294190E-01 -0.1425082127579E-01
-0.1857859379840E-01 -0.1466356239446E-01
-0.1926565920268E-01 -0.1509560117147E-01
-0.1994009210716E-01 -0.1554516245254E-01
-0.2059779074986E-01 -0.1600914759471E-01
-0.1160406925031E-03 -0.4310719763666E-03
-0.2652898856729E-03 -0.8678482519347E-03
-0.4469015588506E-03 -0.1310077406083E-02
-0.6597855564375E-03 -0.1757265532266E-02
-0.9026858530507E-03 -0.2208698125003E-02
-0.1174257489411E-02 -0.2663471631387E-02
-0.1473131589727E-02 -0.3120527314272E-02
-0.1797966810756E-02 -0.3578689534883E-02
-0.2147484994285E-02 -0.4036702436865E-02
-0.2520492559436E-02 -0.4493262877083E-02
-0.2915890516786E-02 -0.4947048653682E-02
-0.3332671809297E-02 -0.5396737627843E-02
-0.3769923651971E-02 -0.5841035552743E-02
-0.4226817806245E-02 -0.6278692106898E-02
-0.4702569341245E-02 -0.6708492616541E-02
-0.5196497922679E-02 -0.7129347688081E-02
-0.5707945737714E-02 -0.7540253813885E-02
-0.6236296438451E-02 -0.7940354023464E-02
-0.6780962107871E-02 -0.8328972501597E-02
-0.7341373196709E-02 -0.8705665656452E-02
-0.7916942341105E-02 -0.9070294490903E-02
-0.8506968454079E-02 -0.9422987256587E-02
-0.9110603769822E-02 -0.9764151634045E-02
-0.9726909983578E-02 -0.1009455990598E-01
-0.1035492000523E-01 -0.1041542481934E-01
-0.1099365368246E-01 -0.1072842993973E-01
-0.1164209520187E-01 -0.1103572026077E-01
-0.1229916393211E-01 -0.1133986748492E-01
-0.1296365355249E-01 -0.1164379321674E-01
-0.1363417682472E-01 -0.1195066142706E-01
-0.1430924892705E-01 -0.1226378447216E-01
-0.1498748765924E-01 -0.1258655480767E-01
-0.1566734578988E-01 -0.1292217968204E-01
-0.1634704373484E-01 -0.1327346902520E-01
-0.1702455329328E-01 -0.1364263606717E-01
-0.1769759011690E-01 -0.1403110958240E-01
-0.1836360710358E-01 -0.1443936848029E-01
-0.1901980320193E-01 -0.1486682051820E-01
-0.1966304037599E-01 -0.1531166111031E-01
-0.2028976439289E-01 -0.1577076105069E-01
-0.1126287195497E-03 -0.4235816983527E-03
-0.2584823338147E-03 -0.8528034327415E-03
-0.4368307790209E-03 -0.1287403648188E-02
-0.6466918117481E-03 -0.1726891492127E-02
-0.8869050173208E-03 -0.2170568079736E-02
-0.1156204856244E-02 -0.2617555796668E-02
-0.1453283103689E-02 -0.3066828997185E-02
-0.1776839311682E-02 -0.3517248831606E-02
-0.2125616877821E-02 -0.3967596834720E-02
-0.2498425733041E-02 -0.4416605485095E-02
-0.2894153923209E-02 -0.4862984906242E-02
-0.3311766258983E-02 -0.5305441313634E-02
-0.3750307387228E-02 -0.5742704579610E-02
-0.4208892070320E-02 -0.6173544574279E-02
-0.4686663121297E-02 -0.6596763783919E-02
-0.5182851795777E-02 -0.7011286448235E-02
-0.5696694024579E-02 -0.7416120718446E-02
-0.6227448133114E-02 -0.7810419345297E-02
-0.6774380827245E-02 -0.8193514776610E-02
-0.7336756322026E-02 -0.8564960111847E-02
-0.7913799693825E-02 -0.8924555872521E-02
-0.8504604621455E-02 -0.9272355983207E-02
-0.9108100713991E-02 -0.9608717052788E-02
-0.9723109735182E-02 -0.9934385865900E-02
-0.1034840989652E-01 -0.1025056646598E-01
-0.1098275701935E-01 -0.1055894174111E-01
-0.1162487047338E-01 -0.1086165804718E-01
-0.1227341562583E-01 -0.1116128638494E-01
-0.1292695784994E-01 -0.1146074250013E-01
-0.1358392457087E-01 -0.1176317634829E-01
-0.1424270768760E-01 -0.1207188760838E-01
-0.1490188323602E-01 -0.1239027102049E-01
-0.1555996062509E-01 -0.1272152956824E-01
-0.1621532705615E-01 -0.1306846087675E-01
-0.1686623497195E-01 -0.1343325990498E-01
-0.1751078804930E-01 -0.1381733336810E-01
-0.1814691700960E-01 -0.1422113626292E-01
-0.1877235886972E-01 -0.1464405139065E-01
-0.1938453778769E-01 -0.1508424727617E-01
-0.1998043835454E-01 -0.1553856033159E-01
-0.1092385303053E-03 -0.4160868817827E-03
-0.2517335157508E-03 -0.8377654297586E-03
-0.4268645910569E-03 -0.1264763401741E-02
-0.6337508415296E-03 -0.1696592078682E-02
-0.8713213541999E-03 -0.2132566976503E-02
-0.1138384993120E-02 -0.2571835168495E-02
-0.1433690596161E-02 -0.3013403163009E-02
-0.1755976500050E-02 -0.3456168572338E-02
-0.2104006857685E-02 -0.3898950769080E-02
-0.2476595333913E-02 -0.4340519074462E-02
-0.2872617937471E-02 -0.4779617785732E-02
-0.3291012696540E-02 -0.5214983694619E-02
-0.3730783242878E-02 -0.5645373081421E-02
-0.4190988948891E-02 -0.6069578041814E-02
-0.4670701955521E-02 -0.6486419686828E-02
-0.5169066611433E-02 -0.6894836555153E-02
-0.5685214002923E-02 -0.7293848086318E-02
-0.6218278430283E-02 -0.7682615201464E-02
-0.6767382398765E-02 -0.8060475770565E-02
-0.7331624980225E-02 -0.8426975872298E-02
-0.7910044884913E-02 -0.8781853325161E-02
-0.8501531541134E-02 -0.9125085530451E-02
-0.9104792601056E-02 -0.9456974050362E-02
-0.9718410379847E-02 -0.9778234061964E-02
-0.1034090886135E-01 -0.1009005304305E-01
-0.1097078045615E-01 -0.1039410426612E-01
-0.1160648060395E-01 -0.1069252625748E-01
-0.1224642191637E-01 -0.1098788084586E-01
-0.1288894310743E-01 -0.1128307127619E-01
-0.1353228829290E-01 -0.1158122985509E-01
-0.1417472838225E-01 -0.1188564318801E-01
-0.1481480001513E-01 -0.1219971071430E-01
-0.1545107152436E-01 -0.1252663791791E-01
-0.1608209883682E-01 -0.1286922082944E-01
-0.1670641636478E-01 -0.1322964940460E-01
-0.1732251628551E-01 -0.1360932208465E-01
-0.1792880660178E-01 -0.1400868186142E-01
-0.1852356077338E-01 -0.1442709431140E-01
-0.1910476249104E-01 -0.1486270294223E-01
-0.1966993165359E-01 -0.1531230525634E-01
-0.1058611653934E-03 -0.4085832005805E-03
-0.2450258681185E-03 -0.8227249318664E-03
-0.4169773211035E-03 -0.1242141770227E-02
-0.6209295658547E-03 -0.1666346384817E-02
-0.8558952530645E-03 -0.2094667732048E-02
-0.1120752692922E-02 -0.2526276611414E-02
-0.1414304126669E-02 -0.2960211010438E-02
-0.1735324393205E-02 -0.3395404869250E-02
-0.2082597383490E-02 -0.3830715949080E-02
-0.2454940518752E-02 -0.4264951652583E-02
-0.2851218567680E-02 -0.4696892248371E-02
-0.3270344098968E-02 -0.5125307231831E-02
-0.3711281374447E-02 -0.5548981466208E-02
-0.4173036195623E-02 -0.5966731193715E-02
-0.4654611929487E-02 -0.6377397516089E-02
-0.5155067917089E-02 -0.6779933858605E-02
-0.5673432265115E-02 -0.7173370522444E-02
-0.6208717034603E-02 -0.7556875011311E-02
-0.6759902198773E-02 -0.7929787754080E-02
-0.7325923245834E-02 -0.8291644064683E-02
-0.7905634106947E-02 -0.8642116710120E-02
-0.8497721337942E-02 -0.8981104235465E-02
-0.9100671709258E-02 -0.9308849098557E-02
-0.9712828919246E-02 -0.9626028729302E-02
-0.1033246338026E-01 -0.9933806180798E-02
-0.1095780460938E-01 -0.1023383618995E-01
-0.1158704449601E-01 -0.1052824028061E-01
-0.1221834311189E-01 -0.1081956264690E-01
-0.1284981252499E-01 -0.1111068737646E-01
-0.1347951331895E-01 -0.1140472544535E-01
-0.1410559489254E-01 -0.1170494992059E-01
-0.1472655362792E-01 -0.1201476728977E-01
-0.1534101578444E-01 -0.1233739220349E-01
-0.1594770507945E-01 -0.1267562967620E-01
-0.1654543724885E-01 -0.1303167776701E-01
-0.1713309282394E-01 -0.1340694023539E-01
-0.1770955756431E-01 -0.1380185973930E-01
-0.1827364245185E-01 -0.1421579206325E-01
-0.1882389222556E-01 -0.1464685718737E-01
-0.1935836377598E-01 -0.1509180868185E-01
-0.1024880866295E-03 -0.4010662302125E-03
-0.2383427112615E-03 -0.8076724091305E-03
-0.4071446255585E-03 -0.1219523490105E-02
-0.6081966110128E-03 -0.1636132937026E-02
-0.8405890769127E-03 -0.2056842412582E-02
-0.1103264866484E-02 -0.2480845737322E-02
-0.1395075901672E-02 -0.2907211942334E-02
-0.1714831092307E-02 -0.3334911347236E-02
-0.2061332863376E-02 -0.3762840766448E-02
-0.2433402244233E-02 -0.4189846964423E-02
-0.2829893453021E-02 -0.4614747961882E-02
-0.3249694909882E-02 -0.5036348030688E-02
-0.3691733251049E-02 -0.5453462721348E-02
-0.4154962737057E-02 -0.5864934275108E-02
-0.4638320170373E-02 -0.6269625096815E-02
-0.5140782175505E-02 -0.6666504053439E-02
-0.5661276193291E-02 -0.7054611871382E-02
-0.6198694312627E-02 -0.7433121059475E-02
-0.6751876133825E-02 -0.7801371768379E-02
-0.7319595587814E-02 -0.8158884817504E-02
-0.7900523807257E-02 -0.8505265479385E-02
-0.8493146247440E-02 -0.8840331006552E-02
-0.9095730278603E-02 -0.9164260653477E-02
-0.9706382163315E-02 -0.9477687974623E-02
-0.1032311958672E-01 -0.9781743771030E-02
-0.1094390959731E-01 -0.1007805534439E-01
-0.1156668041692E-01 -0.1036871802692E-01
-0.1218933877676E-01 -0.1065624984415E-01
-0.1280976849391E-01 -0.1094350893226E-01
-0.1342584416123E-01 -0.1123358105177E-01
-0.1403559034288E-01 -0.1152972502968E-01
-0.1463745907059E-01 -0.1183535652937E-01
-0.1523013023523E-01 -0.1215370583461E-01
-0.1581249150425E-01 -0.1248759738269E-01
-0.1638363728330E-01 -0.1283925039001E-01
-0.1694283565967E-01 -0.1321008755418E-01
-0.1748945163270E-01 -0.1360056293404E-01
-0.1802283750863E-01 -0.1401002998119E-01
-0.1854210481449E-01 -0.1443658654666E-01
-0.1904585438791E-01 -0.1487693696922E-01
-0.9911118746152E-04 -0.3935314269394E-03
-0.2316682597904E-03 -0.7925980669681E-03
-0.3973435009119E-03 -0.1196892857226E-02
-0.5955223261701E-03 -0.1605929595113E-02
-0.8253671979553E-03 -0.2019062112327E-02
-0.1085880609030E-02 -0.2435506772121E-02
-0.1375960379757E-02 -0.2854363431677E-02
-0.1694446928094E-02 -0.3274639019982E-02
-0.2040159845880E-02 -0.3695270190298E-02
-0.2411923475294E-02 -0.4115144411298E-02
-0.2808582084979E-02 -0.4533119249909E-02
-0.3229001257890E-02 -0.4948035809423E-02
-0.3672071853926E-02 -0.5358742401860E-02
-0.4136698833952E-02 -0.5764109094397E-02
-0.4621754953802E-02 -0.6163020898252E-02
-0.5126136800174E-02 -0.6554462690164E-02
-0.5648673906828E-02 -0.6937485222327E-02
-0.6188141136246E-02 -0.7311264489813E-02
-0.6743240364546E-02 -0.7675137603535E-02
-0.7312586459356E-02 -0.8028607219934E-02
-0.7894670130532E-02 -0.8371208612924E-02
-0.8487777900653E-02 -0.8702675237096E-02
-0.9089959632201E-02 -0.9023119045677E-02
-0.9699085691980E-02 -0.9333123643948E-02
-0.1031292208733E-01 -0.9633779816288E-02
-0.1092917375643E-01 -0.9926678555491E-02
-0.1154550467275E-01 -0.1021387976540E-01
-0.1215956644869E-01 -0.1049786662172E-01
-0.1276901146515E-01 -0.1078146425731E-01
-0.1337152365657E-01 -0.1106772897438E-01
-0.1396499663059E-01 -0.1135990425196E-01
-0.1454783071615E-01 -0.1166141667479E-01
-0.1511875177434E-01 -0.1197551831839E-01
-0.1567680457246E-01 -0.1230506332745E-01
-0.1622135740118E-01 -0.1265230518069E-01
-0.1675206434336E-01 -0.1301869938319E-01
-0.1726877206314E-01 -0.1340472349998E-01
-0.1777138071934E-01 -0.1380973646984E-01
-0.1825957866539E-01 -0.1423181562306E-01
-0.1873252304473E-01 -0.1466761071740E-01
-0.9572280641335E-04 -0.3859741113470E-03
-0.2249876396512E-03 -0.7774918096516E-03
-0.3875523029402E-03 -0.1174233668101E-02
-0.5828788106802E-03 -0.1575713471981E-02
-0.8101960432843E-03 -0.1981296856220E-02
-0.1068561274571E-02 -0.2390222448897E-02
-0.1356914381767E-02 -0.2801620914468E-02
-0.1674124608481E-02 -0.3214536191680E-02
-0.2019027201158E-02 -0.3627945684923E-02
-0.2390449391258E-02 -0.4040778989032E-02
-0.2787226025998E-02 -0.4451935051427E-02
-0.3208201172998E-02 -0.4860293877373E-02
-0.3652231874393E-02 -0.5264738622538E-02
-0.4118176243853E-02 -0.5664169022348E-02
-0.4604845813999E-02 -0.6057494031844E-02
-0.5111060196109E-02 -0.6443715163753E-02
-0.5635554217059E-02 -0.6821892880651E-02
-0.6176988734965E-02 -0.7191205252338E-02
-0.6733931039573E-02 -0.7550983714487E-02
-0.7304839898558E-02 -0.7900709201857E-02
-0.7888028372544E-02 -0.8239844458925E-02
-0.8481586619391E-02 -0.8568036603536E-02
-0.9083349306600E-02 -0.8885326235488E-02
-0.9690952822889E-02 -0.9192241038083E-02
-0.1030191278339E-01 -0.9489824112793E-02
-0.1091367235226E-01 -0.9779621307166E-02
-0.1152363026750E-01 -0.1006364778755E-01
-0.1212918033105E-01 -0.1034434298223E-01
-0.1272773878262E-01 -0.1062449159554E-01
-0.1331679206317E-01 -0.1090711571748E-01
-0.1389409390825E-01 -0.1119544179111E-01
-0.1445798228106E-01 -0.1149290851598E-01
-0.1500721786660E-01 -0.1180279548781E-01
-0.1554099249123E-01 -0.1212799665919E-01
-0.1605894120176E-01 -0.1247081302128E-01
-0.1656110155629E-01 -0.1283274722700E-01
-0.1704780512456E-01 -0.1321431314104E-01
-0.1751950915714E-01 -0.1361488372250E-01
-0.1797649327290E-01 -0.1403251791671E-01
-0.1841848887717E-01 -0.1446380573844E-01
-0.9231574303604E-04 -0.3783894557839E-03
-0.2182869106210E-03 -0.7623432123403E-03
-0.3777507737535E-03 -0.1151529174763E-02
-0.5702399504770E-03 -0.1545460871898E-02
-0.7950441493866E-03 -0.1943515525064E-02
-0.1051270557616E-02 -0.2344953926041E-02
-0.1337897205956E-02 -0.2748937708394E-02
-0.1653819368808E-02 -0.3154548383831E-02
-0.1997886302944E-02 -0.3560805150755E-02
-0.2368927591662E-02 -0.3966681246439E-02
-0.2765769127853E-02 -0.4371118896822E-02
-0.3187234803703E-02 -0.4773039125484E-02
-0.3632149914227E-02 -0.5171362056864E-02
-0.4099328388411E-02 -0.5565018991308E-02
-0.4587523661189E-02 -0.5952944241409E-02
-0.5095481810388E-02 -0.6334156684881E-02
-0.5621846594138E-02 -0.6707726310429E-02
-0.6165168562414E-02 -0.7072832007881E-02
-0.6723884045410E-02 -0.7428797079721E-02
-0.7296299146072E-02 -0.7775077339918E-02
-0.7880552451035E-02 -0.8111060481987E-02
-0.8474540727751E-02 -0.8436304752261E-02
-0.9075886195630E-02 -0.8750775438056E-02
-0.9681993587693E-02 -0.9054938479736E-02
-0.1029012969308E-01 -0.9349781770099E-02
-0.1089747627991E-01 -0.9636797232228E-02
-0.1150116553821E-01 -0.9917945898295E-02
-0.1209832994509E-01 -0.1019561427524E-01
-0.1268614346045E-01 -0.1047253873165E-01
-0.1326188608907E-01 -0.1075170172853E-01
-0.1382315999279E-01 -0.1103631022532E-01
-0.1436822672505E-01 -0.1132981549343E-01
-0.1489586699594E-01 -0.1163552980388E-01
-0.1540540620156E-01 -0.1195639678138E-01
-0.1589673636143E-01 -0.1229477840279E-01
-0.1637027473481E-01 -0.1265223950021E-01
-0.1682684165728E-01 -0.1302934405189E-01
-0.1726746338346E-01 -0.1342548866085E-01
-0.1769302976893E-01 -0.1383871689244E-01
-0.1810387029385E-01 -0.1426555429754E-01
-0.8888327597288E-04 -0.3707724755221E-03
-0.2115530934239E-03 -0.7471415013398E-03
-0.3679200756618E-03 -0.1128762052904E-02
-0.5575814626526E-03 -0.1515147247098E-02
-0.7798822251250E-03 -0.1905685803433E-02
-0.1033974582624E-02 -0.2299660731389E-02
-0.1318870749531E-02 -0.2696264959490E-02
-0.1633489126984E-02 -0.3094618290756E-02
-0.1976691214316E-02 -0.3493782893804E-02
-0.2347308305593E-02 -0.3892777271252E-02
-0.2744157754183E-02 -0.4290588909685E-02
-0.3166044639858E-02 -0.4686182039963E-02
-0.3611764694171E-02 -0.5078515955528E-02
-0.4080090531628E-02 -0.5466555509245E-02
-0.4569720912990E-02 -0.5849261901828E-02
-0.5079332199753E-02 -0.6225672251705E-02
-0.5607481153788E-02 -0.6594866067718E-02
-0.6152612185258E-02 -0.6956022011788E-02
-0.6713034780694E-02 -0.7308453025379E-02
-0.7286906288438E-02 -0.7651586613638E-02
-0.7872194402510E-02 -0.7984732944500E-02
-0.8466605888167E-02 -0.8307358901613E-02
-0.9067553715286E-02 -0.8619350644849E-02
-0.9672213722937E-02 -0.8921106759245E-02
-0.1027760577830E-01 -0.9213552594159E-02
-0.1088065075517E-01 -0.9498117456874E-02
-0.1147821276260E-01 -0.9776698758687E-02
-0.1206715873454E-01 -0.1005162058764E-01
-0.1264441289344E-01 -0.1032556248815E-01
-0.1320703783979E-01 -0.1060146106366E-01
-0.1375246969092E-01 -0.1088250039630E-01
-0.1427887608120E-01 -0.1117214384716E-01
-0.1478503908143E-01 -0.1147374077272E-01
-0.1527040038174E-01 -0.1179029401403E-01
-0.1573509612097E-01 -0.1212424028440E-01
-0.1617991782754E-01 -0.1247722253226E-01
-0.1660617880181E-01 -0.1284987003526E-01
-0.1701548882043E-01 -0.1324161416678E-01
-0.1740937164292E-01 -0.1365048736123E-01
-0.1778878482539E-01 -0.1407294669774E-01
-0.8541918257397E-04 -0.3631180228744E-03
-0.2047741998835E-03 -0.7318755403199E-03
-0.3580428290916E-03 -0.1105914378907E-02
-0.5448809442946E-03 -0.1484747165635E-02
-0.7646832182215E-03 -0.1867774140046E-02
-0.1016641995298E-02 -0.2254300718510E-02
-0.1299799629744E-02 -0.2643551598912E-02
-0.1613094635752E-02 -0.3034685741677E-02
-0.1955398868556E-02 -0.3426809596741E-02
-0.2325544594909E-02 -0.3818988671626E-02
-0.2722340996821E-02 -0.4210257796998E-02
-0.3144575730399E-02 -0.4599626695961E-02
-0.3591017259441E-02 -0.4986096135195E-02
-0.4060399958065E-02 -0.5368666632645E-02
-0.4551371629237E-02 -0.5746327963435E-02
-0.5062543105385E-02 -0.6118136552260E-02
-0.5592388655088E-02 -0.6483181647351E-02
-0.6139251186879E-02 -0.6840640892016E-02
-0.6701317948520E-02 -0.7189814922677E-02
-0.7276601921866E-02 -0.7530100011941E-02
-0.7862903900342E-02 -0.7860726413788E-02
-0.8457744457313E-02 -0.8181067243463E-02
-0.9058330983505E-02 -0.8490925917626E-02
-0.9661613666146E-02 -0.8790628325727E-02
-0.1026436776081E-01 -0.9081030190647E-02
-0.1086325397198E-01 -0.9363489644694E-02
-0.1145486670286E-01 -0.9639830915086E-02
-0.1203580256987E-01 -0.9912305818781E-02
-0.1260272742736E-01 -0.1018352792019E-01
-0.1315247358888E-01 -0.1045638078112E-01
-0.1368229392014E-01 -0.1073402107300E-01
-0.1419024107122E-01 -0.1101992260042E-01
-0.1467507568944E-01 -0.1131747526306E-01
-0.1513633427804E-01 -0.1162975021713E-01
-0.1557438064032E-01 -0.1195927296108E-01
-0.1599037295166E-01 -0.1230778160771E-01
-0.1638612163011E-01 -0.1267598766574E-01
-0.1676383699057E-01 -0.1306337036772E-01
-0.1712570526208E-01 -0.1346795693022E-01
-0.1747334868288E-01 -0.1388613295975E-01
-0.8191776005878E-04 -0.3554207850228E-03
-0.1979392666378E-03 -0.7165338251804E-03
-0.3481031561855E-03 -0.1082967621446E-02
-0.5321179290204E-03 -0.1454234300302E-02
-0.7494223911251E-03 -0.1829745735706E-02
-0.9992440644758E-03 -0.2208830056669E-02
-0.1280651316380E-02 -0.2590744339057E-02
-0.1592599647012E-02 -0.2974687707419E-02
-0.1933969262962E-02 -0.3359812339715E-02
-0.2303592571946E-02 -0.3745232612324E-02
-0.2700270908940E-02 -0.4130032898667E-02
-0.3122775921046E-02 -0.4513270814731E-02
-0.3569851208978E-02 -0.4893991034007E-02
-0.4040196178908E-02 -0.5271232008176E-02
-0.4532411678841E-02 -0.5644013965647E-02
-0.5045047563697E-02 -0.6011413934780E-02
-0.5576500537893E-02 -0.6372531394421E-02
-0.6125017113803E-02 -0.6726542486632E-02
-0.6688667394014E-02 -0.7072733937353E-02
-0.7265324862849E-02 -0.7410468182282E-02
-0.7852627819984E-02 -0.7738893300463E-02
-0.8447914887464E-02 -0.8057286362805E-02
-0.9048192041077E-02 -0.8365364685812E-02
-0.9650187584980E-02 -0.8663376466608E-02
-0.1025043495881E-01 -0.8952101042860E-02
-0.1084533576240E-01 -0.9232817005228E-02
-0.1143121312920E-01 -0.9507265790133E-02
-0.1200438820694E-01 -0.9777616726191E-02
-0.1256125886068E-01 -0.1004640750595E-01
-0.1309841246607E-01 -0.1031646037480E-01
-0.1361289875326E-01 -0.1059089872078E-01
-0.1410263068003E-01 -0.1087320373209E-01
-0.1456632027814E-01 -0.1116680810603E-01
-0.1500357267686E-01 -0.1147485978852E-01
-0.1541495862824E-01 -0.1179998738345E-01
-0.1580199245707E-01 -0.1214404251304E-01
-0.1616698528845E-01 -0.1250783799350E-01
-0.1651276732490E-01 -0.1289091648899E-01
-0.1684222097782E-01 -0.1329130805701E-01
-0.1715767690087E-01 -0.1370532515686E-01
-0.7837384764385E-04 -0.3476752846362E-03
-0.1910383905456E-03 -0.7011044845504E-03
-0.3380867265751E-03 -0.1059902641560E-02
-0.5192739459127E-03 -0.1423581428384E-02
-0.7340773991376E-03 -0.1791564543474E-02
-0.9817547856211E-03 -0.2163203233194E-02
-0.1261396264711E-02 -0.2537787681008E-02
-0.1571971075294E-02 -0.2914558316340E-02
-0.1912365650813E-02 -0.3292714627432E-02
-0.2281411615160E-02 -0.3671421853425E-02
-0.2677902737077E-02 -0.4049816234962E-02
-0.3100596093060E-02 -0.4427005812899E-02
-0.3548212929094E-02 -0.4802081751918E-02
-0.4019421146657E-02 -0.5174122890089E-02
-0.4512778920038E-02 -0.5542182015204E-02
-0.5026780035574E-02 -0.5905358329342E-02
-0.5559748983802E-02 -0.6262762351533E-02
-0.6109841450679E-02 -0.6613568599273E-02
-0.6675015974959E-02 -0.6957048677005E-02
-0.7253011895294E-02 -0.7292528955397E-02
-0.7841309842327E-02 -0.7619073247881E-02
-0.8437071164724E-02 -0.7935860481610E-02
-0.9037105103732E-02 -0.8242518839203E-02
-0.9637922425760E-02 -0.8539214252122E-02
-0.1023581812299E-01 -0.8826643324173E-02
-0.1082693622643E-01 -0.9105997008983E-02
-0.1140732727322E-01 -0.9378924358044E-02
-0.1197303162629E-01 -0.9647501644279E-02
-0.1252016877245E-01 -0.9914180014779E-02
-0.1304506492051E-01 -0.1018171091151E-01
-0.1354454420124E-01 -0.1045317702438E-01
-0.1401635145919E-01 -0.1073206217578E-01
-0.1445911819888E-01 -0.1102184261004E-01
-0.1487248670081E-01 -0.1132575066741E-01
-0.1525720888893E-01 -0.1164653256000E-01
-0.1561514099735E-01 -0.1198617321513E-01
-0.1594909719445E-01 -0.1234560840028E-01
-0.1626254900419E-01 -0.1272446286851E-01
-0.1655911418941E-01 -0.1312078029110E-01
-0.1684188334755E-01 -0.1353079997915E-01
-0.7478284949002E-04 -0.3398758835483E-03
-0.1840627655940E-03 -0.6855752869158E-03
-0.3279808053461E-03 -0.1036699703293E-02
-0.5063325815199E-03 -0.1392760445843E-02
-0.7186283725064E-03 -0.1753193286563E-02
-0.9641509889033E-03 -0.2117373076064E-02
-0.1242008053234E-02 -0.2484623944034E-02
-0.1551179165992E-02 -0.2854228893763E-02
-0.1890554738302E-02 -0.3225436440985E-02
-0.2258964590674E-02 -0.3597464814813E-02
-0.2655195161073E-02 -0.3969504580292E-02
-0.3077990413157E-02 -0.4340716877793E-02
-0.3526051842563E-02 -0.4710242115493E-02
-0.3998019490271E-02 -0.5077202178767E-02
-0.4492413406535E-02 -0.5440684780195E-02
-0.5007676567027E-02 -0.5799813177701E-02
-0.5542067013984E-02 -0.6153710104396E-02
-0.6093655637262E-02 -0.6501548740757E-02
-0.6660295479071E-02 -0.6842584810055E-02
-0.7239597567931E-02 -0.7176106824755E-02
-0.7828890109226E-02 -0.7501092456844E-02
-0.8425162298501E-02 -0.7816620615800E-02
-0.9025031860291E-02 -0.8122227708956E-02
-0.9624796996768E-02 -0.8417993340923E-02
-0.1022051828792E-01 -0.8704525543230E-02
-0.1080808434793E-01 -0.8982919907794E-02
-0.1138327222723E-01 -0.9254723602481E-02
-0.1194183626838E-01 -0.9521908972800E-02
-0.1247960669151E-01 -0.9786829149116E-02
-0.1299263097484E-01 -0.1005215396991E-01
-0.1347748275466E-01 -0.1032091626934E-01
-0.1393170659225E-01 -0.1059659576351E-01
-0.1435381651195E-01 -0.1088271112906E-01
-0.1474345452594E-01 -0.1118258550914E-01
-0.1510152193827E-01 -0.1149909723655E-01
-0.1543019782531E-01 -0.1183438589129E-01
-0.1573279956685E-01 -0.1218953484172E-01
-0.1601346315018E-01 -0.1256427337342E-01
-0.1627658669907E-01 -0.1295667295116E-01
-0.1652608096430E-01 -0.1336290179382E-01
-0.7114075826981E-04 -0.3320167896371E-03
-0.1770047207845E-03 -0.6699336547140E-03
-0.3177743024908E-03 -0.1013338495476E-02
-0.4932795443616E-03 -0.1361742396736E-02
-0.7030580023663E-03 -0.1714593494976E-02
-0.9464124523104E-03 -0.2071290798040E-02
-0.1222463527192E-02 -0.2431193319025E-02
-0.1530197669837E-02 -0.2793628027662E-02
-0.1868506888361E-02 -0.3157894318442E-02
-0.2236218082163E-02 -0.3523265672011E-02
-0.2632110545001E-02 -0.3888989570669E-02
-0.3054916598357E-02 -0.4254283078023E-02
-0.3503320677777E-02 -0.4618338778164E-02
-0.3975938776376E-02 -0.4980324493054E-02
-0.4471257626074E-02 -0.5339365513955E-02
-0.4987674988701E-02 -0.5694611386680E-02
-0.5523388632141E-02 -0.6045198642125E-02
-0.6076391136565E-02 -0.6390299874051E-02
-0.6644436597968E-02 -0.6729154674146E-02
-0.7225014052931E-02 -0.7061012398902E-02
-0.7815304942979E-02 -0.7384762963802E-02
-0.8412131874728E-02 -0.7699383663096E-02
-0.9011926829823E-02 -0.8004316953342E-02
-0.9610781099200E-02 -0.8299552660922E-02
-0.1020452565080E-01 -0.8585605032069E-02
-0.1078879660606E-01 -0.8863467064939E-02
-0.1135909729431E-01 -0.9134574753771E-02
-0.1191089116267E-01 -0.9400785423008E-02
-0.1243970809452E-01 -0.9664341939278E-02
-0.1294129824539E-01 -0.9927820353450E-02
-0.1341195764788E-01 -0.1019419255258E-01
-0.1384899467867E-01 -0.1046692509111E-01
-0.1425076357698E-01 -0.1074957567785E-01
-0.1461686199898E-01 -0.1104556304888E-01
-0.1494830170476E-01 -0.1135791190094E-01
-0.1524755937820E-01 -0.1168893938639E-01
-0.1551845239984E-01 -0.1203990456418E-01
-0.1576580549297E-01 -0.1241066830091E-01
-0.1599484846132E-01 -0.1279934831829E-01
-0.1621038233617E-01 -0.1320204629270E-01
-0.6744417892305E-04 -0.3240920663549E-03
-0.1698577575370E-03 -0.6541666836239E-03
-0.3074578211685E-03 -0.9897981610590E-03
-0.4801027281365E-03 -0.1330497511719E-02
-0.6873516256763E-03 -0.1675725551443E-02
-0.9285220137947E-03 -0.2024906049074E-02
-0.1202742940522E-02 -0.2377433928423E-02
-0.1509004014743E-02 -0.2732681638904E-02
-0.1846196320998E-02 -0.3090001438131E-02
-0.2213142617269E-02 -0.3448724452895E-02
-0.2608615186081E-02 -0.3808157809844E-02
-0.3031336181971E-02 -0.4167577469539E-02
-0.3479975743750E-02 -0.4526231311168E-02
-0.3953129782155E-02 -0.4883336226338E-02
-0.4449256757253E-02 -0.5238058053292E-02
-0.4966715140510E-02 -0.5589575243809E-02
-0.5503648999556E-02 -0.5937040165150E-02
-0.6057979542024E-02 -0.6279626089702E-02
-0.6627368946823E-02 -0.6616556795393E-02
-0.7209191056031E-02 -0.6947041742466E-02
-0.7800486621331E-02 -0.7269881782627E-02
-0.8397917665455E-02 -0.7583951325908E-02
-0.8997736770822E-02 -0.7888597245943E-02
-0.9595834698055E-02 -0.8183716855470E-02
-0.1018781846715E-01 -0.8469726158118E-02
-0.1076907556637E-01 -0.8747508964551E-02
-0.1133483626351E-01 -0.9018381161052E-02
-0.1188026890886E-01 -0.9284073860653E-02
-0.1240059216833E-01 -0.9546706712686E-02
-0.1289123963427E-01 -0.9808748382801E-02
-0.1334820071547E-01 -0.1007309661656E-01
-0.1376850806978E-01 -0.1034319309747E-01
-0.1415030821992E-01 -0.1062262839421E-01
-0.1449310293739E-01 -0.1091491947439E-01
-0.1479796709498E-01 -0.1122325096121E-01
-0.1506764194551E-01 -0.1155014197579E-01
-0.1530643668851E-01 -0.1189705918885E-01
-0.1551988929079E-01 -0.1226402763674E-01
-0.1571411939906E-01 -0.1264923519215E-01
-0.1589490018963E-01 -0.1304872457114E-01
-0.6369035262910E-04 -0.3160956458080E-03
-0.1626165868088E-03 -0.6382611695819E-03
-0.2970237055950E-03 -0.9660573387167E-03
-0.4667922757967E-03 -0.1298995262986E-02
-0.6714973131637E-03 -0.1636548757018E-02
-0.9104656884558E-03 -0.1978166990893E-02
-0.1182830104136E-02 -0.2323281910915E-02
-0.1487579484715E-02 -0.2671313079624E-02
-0.1823601321496E-02 -0.3021667734532E-02
-0.2189712903615E-02 -0.3373737172334E-02
-0.2584679576445E-02 -0.3726891018977E-02
-0.3007214797386E-02 -0.4080467250299E-02
-0.3455977229371E-02 -0.4433772346777E-02
-0.3929546800020E-02 -0.4786075656457E-02
-0.4426358966099E-02 -0.5136586869405E-02
-0.4944739143992E-02 -0.5484516381680E-02
-0.5482784665599E-02 -0.5829034934992E-02
-0.6038352747613E-02 -0.6169318313520E-02
-0.6609021154112E-02 -0.6504575427512E-02
-0.7192055803178E-02 -0.6833975721800E-02
-0.7784363233912E-02 -0.7156230032481E-02
-0.8382451322003E-02 -0.7470108997793E-02
-0.8982400171502E-02 -0.7774862900019E-02
-0.9579907164611E-02 -0.8070294632557E-02
-0.1017036199823E-01 -0.8356718399819E-02
-0.1074890848990E-01 -0.8634903039701E-02
-0.1131050565156E-01 -0.8906035935406E-02
-0.1185002355373E-01 -0.9171710875979E-02
-0.1236235938006E-01 -0.9433910760525E-02
-0.1284261073445E-01 -0.9694981885228E-02
-0.1328642988176E-01 -0.9957732425100E-02
-0.1369053080321E-01 -0.1022556448734E-01
-0.1405279854478E-01 -0.1050209200561E-01
-0.1437257922645E-01 -0.1079093000728E-01
-0.1465095361502E-01 -0.1109543535243E-01
-0.1489088472219E-01 -0.1141835475651E-01
-0.1509715834595E-01 -0.1176139854351E-01
-0.1527604904380E-01 -0.1212479505108E-01
-0.1543463179771E-01 -0.1250683314767E-01
-0.1557974832012E-01 -0.1290350797459E-01
-0.5987718081678E-04 -0.3080213457895E-03
-0.1552771652292E-03 -0.6222036443428E-03
-0.2864660875670E-03 -0.9420942178705E-03
-0.4533406437841E-03 -0.1267204436705E-02
-0.6554859601672E-03 -0.1597021416907E-02
-0.8922327911428E-03 -0.1931020393753E-02
-0.1162712541144E-02 -0.2268671530589E-02
-0.1465909406391E-02 -0.2609443259643E-02
-0.1800704457066E-02 -0.2952800047406E-02
-0.2165908075154E-02 -0.3298196006576E-02
-0.2560278678902E-02 -0.3645066233064E-02
-0.2982522481569E-02 -0.3992813968254E-02
-0.3431289529950E-02 -0.4340807779907E-02
-0.3905147978395E-02 -0.4688373116658E-02
-0.4402515748133E-02 -0.5034767179521E-02
-0.4921691729489E-02 -0.5379235799378E-02
-0.5460733862094E-02 -0.5720971174230E-02
-0.6017443190561E-02 -0.6059154054488E-02
-0.6589321032465E-02 -0.6392980118232E-02
-0.7173533116121E-02 -0.6721579361833E-02
-0.7766858634079E-02 -0.7043572057255E-02
-0.8365658167274E-02 -0.7357624617366E-02
-0.8965846838319E-02 -0.7662890430499E-02
-0.9562936608871E-02 -0.7959077014669E-02
-0.1015210752939E-01 -0.8246394277558E-02
-0.1072826597837E-01 -0.8525491301720E-02
-0.1128610292537E-01 -0.8797419333539E-02
-0.1182018836901E-01 -0.9063624033052E-02
-0.1232508884466E-01 -0.9325937633807E-02
-0.1279554691412E-01 -0.9586567792591E-02
-0.1322684621910E-01 -0.9848215377488E-02
-0.1361533604087E-01 -0.1011422489198E-01
-0.1395858027461E-01 -0.1038822020912E-01
-0.1425570060043E-01 -0.1067391063633E-01
-0.1450771496756E-01 -0.1097483556665E-01
-0.1471775323492E-01 -0.1129399573334E-01
-0.1489105291695E-01 -0.1163338540008E-01
-0.1503464521984E-01 -0.1199348280844E-01
-0.1515663338133E-01 -0.1237271754988E-01
-0.1526504285128E-01 -0.1276705369073E-01
-0.5600324876035E-04 -0.2998628904327E-03
-0.1478367284228E-03 -0.6059804182952E-03
-0.2757809283906E-03 -0.9178866040857E-03
-0.4397426622725E-03 -0.1235093216925E-02
-0.6393113753293E-03 -0.1557100936312E-02
-0.8738160580917E-03 -0.1883411740287E-02
-0.1142381640701E-02 -0.2213535290407E-02
-0.1443983332680E-02 -0.2546990775845E-02
-0.1777492789066E-02 -0.2883302274325E-02
-0.2141711933870E-02 -0.3221989472869E-02
-0.2535392200044E-02 -0.3562556004962E-02
-0.2957233980455E-02 -0.3904473738715E-02
-0.3405881582550E-02 -0.4247176979217E-02
-0.3879895679944E-02 -0.4590051173451E-02
-0.4377682297429E-02 -0.4932405059443E-02
-0.4897520600072E-02 -0.5273523875248E-02
-0.5437436844027E-02 -0.5612624944834E-02
-0.5995184149964E-02 -0.5948897115051E-02
-0.6568195814994E-02 -0.6281525219342E-02
-0.7153545562836E-02 -0.6609601125038E-02
-0.7747892473841E-02 -0.6931654442324E-02
-0.8347457076810E-02 -0.7246247390374E-02
-0.8947997574198E-02 -0.7552436949021E-02
-0.9544849294892E-02 -0.7849835378496E-02
-0.1013299145224E-01 -0.8138547020860E-02
-0.1070710064655E-01 -0.8419097640268E-02
-0.1126160469014E-01 -0.8692395735294E-02
-0.1179077350150E-01 -0.8959728629780E-02
-0.1228883543629E-01 -0.9222763872975E-02
-0.1275015998836E-01 -0.9483553122286E-02
-0.1316963043071E-01 -0.9744669909163E-02
-0.1354318280488E-01 -0.1000937950157E-01
-0.1386799435822E-01 -0.1028129770591E-01
-0.1414288380553E-01 -0.1056421977465E-01
-0.1436872431523E-01 -0.1086187492784E-01
-0.1454874284925E-01 -0.1117754448778E-01
-0.1468859087782E-01 -0.1151355115829E-01
-0.1479606996034E-01 -0.1187067775710E-01
-0.1488039091720E-01 -0.1224754530562E-01
-0.1495090306036E-01 -0.1264011073990E-01
-0.5206784889496E-04 -0.2916139361681E-03
-0.1402938217523E-03 -0.5895776352887E-03
-0.2649660575585E-03 -0.8934120032525E-03
-0.4259955953551E-03 -0.1202629292860E-02
-0.6229703742087E-03 -0.1516743941848E-02
-0.8552117776027E-03 -0.1835285356380E-02
-0.1121832823016E-02 -0.2157804075634E-02
-0.1421795238194E-02 -0.2483872077441E-02
-0.1753958097719E-02 -0.2813075568296E-02
-0.2117113206193E-02 -0.3145002665956E-02
-0.2510004882756E-02 -0.3479228679469E-02
-0.2931329081242E-02 -0.3815297544945E-02
-0.3379727238279E-02 -0.4152713093126E-02
-0.3853756888555E-02 -0.4490924908286E-02
-0.4351817936941E-02 -0.4829297665012E-02
-0.4872176868952E-02 -0.5167160489395E-02
-0.5412836315280E-02 -0.5503760132872E-02
-0.5971510141406E-02 -0.5838297400697E-02
-0.6545572498447E-02 -0.6169949485589E-02
-0.7132013725379E-02 -0.6497772265480E-02
-0.7727380366027E-02 -0.6820205088790E-02
-0.8327760494921E-02 -0.7135706546701E-02
-0.8928763995764E-02 -0.7443238564415E-02
-0.9525559192537E-02 -0.7742319460972E-02
-0.1011293447026E-01 -0.8032948149961E-02
-0.1068534588837E-01 -0.8315524969871E-02
-0.1123696491659E-01 -0.8590810382852E-02
-0.1176176357393E-01 -0.8859924121794E-02
-0.1225362672228E-01 -0.9124355302710E-02
-0.1270653454791E-01 -0.9385981447431E-02
-0.1311493881065E-01 -0.9647226563018E-02
-0.1347431204474E-01 -0.9911251246379E-02
-0.1378137386940E-01 -0.1018163998611E-01
-0.1403455120302E-01 -0.1046225999026E-01
-0.1423447535258E-01 -0.1075703333607E-01
-0.1438438264012E-01 -0.1106954775094E-01
-0.1449028393140E-01 -0.1140250293104E-01
-0.1456075468766E-01 -0.1175704942166E-01
-0.1460619557052E-01 -0.1213206214900E-01
-0.1463745193218E-01 -0.1252352659113E-01
-0.4807100274536E-04 -0.2832681006216E-03
-0.1326483235904E-03 -0.5729813334224E-03
-0.2540211993214E-03 -0.8686477117962E-03
-0.4120991886315E-03 -0.1169779966137E-02
-0.6064628606916E-03 -0.1475906391568E-02
-0.8364199066896E-03 -0.1786584516493E-02
-0.1101065685102E-02 -0.2101407257780E-02
-0.1399343687981E-02 -0.2420001580070E-02
-0.1730097072571E-02 -0.2742018475141E-02
-0.2092105759430E-02 -0.3067117427091E-02
-0.2484106756128E-02 -0.3394948593330E-02
-0.2904792903123E-02 -0.3725131457483E-02
-0.3352805597569E-02 -0.4057243265471E-02
-0.3826703586674E-02 -0.4390802096618E-02
-0.4324886528141E-02 -0.4725233334677E-02
-0.4845615485732E-02 -0.5059915006743E-02
-0.5386877852737E-02 -0.5394128269555E-02
-0.5946357319786E-02 -0.5727090538943E-02
-0.6521378205252E-02 -0.6057975454291E-02
-0.7108856498206E-02 -0.6385805933580E-02
-0.7705234088662E-02 -0.6708932006784E-02
-0.8306474503373E-02 -0.7025709781828E-02
-0.8908048409827E-02 -0.7335008427820E-02
-0.9504967588195E-02 -0.7636254961410E-02
-0.1009184085114E-01 -0.7929344591466E-02
-0.1066291465772E-01 -0.8214551829984E-02
-0.1121211312018E-01 -0.8492485470430E-02
-0.1173311512995E-01 -0.8764089772030E-02
-0.1221945957453E-01 -0.9030662415928E-02
-0.1266472373560E-01 -0.9293888332530E-02
-0.1306289837344E-01 -0.9556017956272E-02
-0.1340894159797E-01 -0.9820077909852E-02
-0.1369903961301E-01 -0.1008959223258E-01
-0.1393112808453E-01 -0.1036847920073E-01
-0.1410548236528E-01 -0.1066085093537E-01
-0.1422523870430E-01 -0.1097062535703E-01
-0.1429669131523E-01 -0.1130093164394E-01
-0.1432917829177E-01 -0.1165336010720E-01
-0.1433437076698E-01 -0.1202711385440E-01
-0.1432481314439E-01 -0.1241825249578E-01
-0.4401348273897E-04 -0.2748189991361E-03
-0.1249014647557E-03 -0.5561775302632E-03
-0.2429479977466E-03 -0.8435709454241E-03
-0.3980557248961E-03 -0.1136512305933E-02
-0.5897919283268E-03 -0.1434543740366E-02
-0.8174442175162E-03 -0.1737251612262E-02
-0.1080084182424E-02 -0.2044272874479E-02
-0.1376632046049E-02 -0.2355291875333E-02
-0.1705911546915E-02 -0.2670027192322E-02
-0.2066688868564E-02 -0.2988212665484E-02
-0.2457693445457E-02 -0.3309576461757E-02
-0.2877616261492E-02 -0.3633817075176E-02
-0.3325101435596E-02 -0.3960589107117E-02
-0.3798713241579E-02 -0.4289483674041E-02
-0.4296857008965E-02 -0.4619992005206E-02
-0.4817795809180E-02 -0.4951546593160E-02
-0.5359510493136E-02 -0.5283468698987E-02
-0.5919664059348E-02 -0.5614997853109E-02
-0.6495540736363E-02 -0.5945309183082E-02
-0.7083991590763E-02 -0.6273396638093E-02
-0.7681362006966E-02 -0.6597522460599E-02
-0.8283499120234E-02 -0.6915942039065E-02
-0.8885743930692E-02 -0.7227435099412E-02
-0.9482962943553E-02 -0.7531341433970E-02
-0.1006959792773E-01 -0.7827456035455E-02
-0.1063969848618E-01 -0.8115929153310E-02
-0.1118695274217E-01 -0.8397216298774E-02
-0.1170475420813E-01 -0.8672080229855E-02
-0.1218629678315E-01 -0.8941615528662E-02
-0.1262474483459E-01 -0.9207296383825E-02
-0.1301360155508E-01 -0.9471174258041E-02
-0.1334726048593E-01 -0.9736108769676E-02
-0.1362129494487E-01 -0.1000552796233E-01
-0.1383303934047E-01 -0.1028337202846E-01
-0.1398228015696E-01 -0.1057393254174E-01
-0.1407191825236E-01 -0.1088147757922E-01
-0.1410842759212E-01 -0.1120962197878E-01
-0.1410187810141E-01 -0.1156047869026E-01
-0.1406528388150E-01 -0.1193366380087E-01
-0.1401311642348E-01 -0.1232536735131E-01
-0.3989683190361E-04 -0.2662602785154E-03
-0.1170558344598E-03 -0.5391523294141E-03
-0.2317500274534E-03 -0.8181589854941E-03
-0.3838700685405E-03 -0.1102793314456E-02
-0.5729639552516E-03 -0.1392611100982E-02
-0.7982924374082E-03 -0.1687228298645E-02
-0.1058896797909E-02 -0.1986327772486E-02
-0.1353668661891E-02 -0.2289653894565E-02
-0.1681408701095E-02 -0.2596995778265E-02
-0.2040867445668E-02 -0.2908164629897E-02
-0.2430766442887E-02 -0.3222969716381E-02
-0.2849795995680E-02 -0.3541191919030E-02
-0.3296605598904E-02 -0.3862567120159E-02
-0.3769769274475E-02 -0.4186764151300E-02
-0.4267703928379E-02 -0.4513345567267E-02
-0.4788682190744E-02 -0.4841804456240E-02
-0.5330687343864E-02 -0.5171508649630E-02
-0.5891371570261E-02 -0.5501726214796E-02
-0.6467989173819E-02 -0.5831639838856E-02
-0.7057336094262E-02 -0.6160219530897E-02
-0.7655669575109E-02 -0.6485641907242E-02
-0.8258728693900E-02 -0.6806064053783E-02
-0.8861734706135E-02 -0.7120180640867E-02
-0.9459420872204E-02 -0.7427249859926E-02
-0.1004607571766E-01 -0.7726971909441E-02
-0.1061556660343E-01 -0.8019376561577E-02
-0.1116135958739E-01 -0.8304766830925E-02
-0.1167657387481E-01 -0.8583720341003E-02
-0.1215406345276E-01 -0.8857118953585E-02
-0.1258657435999E-01 -0.9126209085544E-02
-0.1296710003174E-01 -0.9392817254727E-02
-0.1328942188266E-01 -0.9659599749472E-02
-0.1354841887737E-01 -0.9929846320021E-02
-0.1374070429017E-01 -0.1020748024790E-01
-0.1386542242111E-01 -0.1049695178560E-01
-0.1392507294091E-01 -0.1080289303801E-01
-0.1392617069851E-01 -0.1112946299785E-01
-0.1387945932668E-01 -0.1147939640047E-01
-0.1379936531513E-01 -0.1185281480837E-01
-0.1370247264135E-01 -0.1224615751499E-01
-0.3572036555847E-04 -0.2575747943583E-03
-0.1091029614199E-03 -0.5218610984175E-03
-0.2204061845350E-03 -0.7923303160938E-03
-0.3695047123595E-03 -0.1068495038370E-02
-0.5559218940897E-03 -0.1349924517638E-02
-0.7788849829274E-03 -0.1636265398953E-02
-0.1037398486546E-02 -0.1927248999601E-02
-0.1330320298520E-02 -0.2222683168029E-02
-0.1656424711765E-02 -0.2522431337759E-02
-0.2014445089014E-02 -0.2826385927924E-02
-0.2403095175411E-02 -0.3134441292903E-02
-0.2821066138156E-02 -0.3446465129336E-02
-0.3267015863901E-02 -0.3762279825301E-02
-0.3739532760226E-02 -0.4081638233106E-02
-0.4237051768563E-02 -0.4404181719486E-02
-0.4757863381654E-02 -0.4729472449774E-02
-0.5299963236445E-02 -0.5056933917064E-02
-0.5861003601841E-02 -0.5385871903771E-02
-0.6438219916700E-02 -0.5715485478708E-02
-0.7028363311454E-02 -0.6044728192415E-02
-0.7627611123158E-02 -0.6371694506705E-02
-0.8231602100838E-02 -0.6694446706074E-02
-0.8835446919524E-02 -0.7011600354290E-02
-0.9433756894247E-02 -0.7322339637983E-02
-0.1002068044296E-01 -0.7626277454992E-02
-0.1058991664745E-01 -0.7923328759740E-02
-0.1113472269847E-01 -0.8213646300548E-02
-0.1164795365556E-01 -0.8497619715549E-02
-0.1212212737275E-01 -0.8775908310309E-02
-0.1254956398189E-01 -0.9049511974584E-02
-0.1292272090051E-01 -0.9320002331168E-02
-0.1323471176950E-01 -0.9589788727005E-02
-0.1347962426298E-01 -0.9861969210699E-02
-0.1365320398640E-01 -0.1014039765302E-01
-0.1375375944689E-01 -0.1042964990014E-01
-0.1378317129674E-01 -0.1073473159214E-01
-0.1374780415338E-01 -0.1106041656934E-01
-0.1365898161142E-01 -0.1141018691154E-01
-0.1353262957451E-01 -0.1178483896746E-01
-0.1338770441959E-01 -0.1218099638139E-01
-0.3149023338241E-04 -0.2487671177643E-03
-0.1010603452093E-03 -0.5043206392999E-03
-0.2089497489577E-03 -0.7661202505272E-03
-0.3550133290203E-03 -0.1033677200622E-02
-0.5387434541354E-03 -0.1306573557003E-02
-0.7593259304165E-03 -0.1584487674579E-02
-0.1015720821864E-02 -0.1867201919790E-02
-0.1306746305594E-02 -0.2154590946238E-02
-0.1631146409133E-02 -0.2446595787807E-02
-0.1987635348438E-02 -0.2743193012919E-02
-0.2374918652445E-02 -0.3044364814881E-02
-0.2791689288074E-02 -0.3350068691500E-02
-0.3236615818841E-02 -0.3660217244920E-02
-0.3708304872774E-02 -0.3974652196107E-02
-0.4205215112921E-02 -0.4293099931499E-02
-0.4725662588176E-02 -0.4615199175757E-02
-0.5267664874730E-02 -0.4940437484439E-02
-0.5828885198585E-02 -0.5268167147946E-02
-0.6406551425582E-02 -0.5597612355599E-02
-0.6997380656049E-02 -0.5927717913522E-02
-0.7597479259942E-02 -0.6256499987089E-02
-0.8202394414270E-02 -0.6581930177496E-02
-0.8807137003391E-02 -0.6902552009150E-02
-0.9406210235580E-02 -0.7217485105853E-02
-0.9993639276972E-02 -0.7526265307454E-02
-0.1056297405624E-01 -0.7828702219420E-02
-0.1110728304135E-01 -0.8124805547876E-02
-0.1161917649956E-01 -0.8414780272732E-02
-0.1209085189338E-01 -0.8699060377194E-02
-0.1251421095453E-01 -0.8978387652512E-02
-0.1288116689788E-01 -0.9254054835918E-02
-0.1318412966503E-01 -0.9528183281076E-02
-0.1341631598797E-01 -0.9803622219403E-02
-0.1357246541269E-01 -0.1008409172758E-01
-0.1364984745829E-01 -0.1037424108141E-01
-0.1364947198912E-01 -0.1067943875892E-01
-0.1357730358569E-01 -0.1100513277780E-01
-0.1344508866880E-01 -0.1135569406645E-01
-0.1327026695794E-01 -0.1173276814186E-01
-0.1307454300419E-01 -0.1213347074727E-01
-0.2721046071763E-04 -0.2398317650206E-03
-0.9293462153074E-04 -0.4865183735134E-03
-0.1973901313917E-03 -0.7395077225245E-03
-0.3404089434135E-03 -0.9983081071517E-03
-0.5214457810720E-03 -0.1262513548923E-02
-0.7396361626091E-03 -0.1531835440538E-02
-0.9938873551969E-03 -0.1806110392126E-02
-0.1282971561053E-02 -0.2085283659503E-02
-0.1605598670491E-02 -0.2369377301049E-02
-0.1960461866794E-02 -0.2658454805770E-02
-0.2346258070391E-02 -0.2952588600164E-02
-0.2761682866073E-02 -0.3251828556315E-02
-0.3205417524422E-02 -0.3556180861377E-02
-0.3676090395855E-02 -0.3865580817198E-02
-0.4172189251708E-02 -0.4179846217877E-02
-0.4692063258881E-02 -0.4498700387353E-02
-0.5233761648802E-02 -0.4821704268863E-02
-0.5794969840940E-02 -0.5148266651095E-02
-0.6372919854752E-02 -0.5477646946964E-02
-0.6964305845852E-02 -0.5808790294129E-02
-0.7565172183747E-02 -0.6139639232053E-02
-0.8170983095192E-02 -0.6468079555353E-02
-0.8776660501963E-02 -0.6792591053245E-02
-0.9376613843196E-02 -0.7112240065473E-02
-0.9964763016670E-02 -0.7426498035278E-02
-0.1053452979863E-01 -0.7735081703959E-02
-0.1107881688339E-01 -0.8037868652713E-02
-0.1159001316754E-01 -0.8334886964244E-02
-0.1206001726969E-01 -0.8626347590953E-02
-0.1248032799647E-01 -0.8912727816692E-02
-0.1284231636179E-01 -0.9195021676350E-02
-0.1313766393050E-01 -0.9475022591353E-02
-0.1335864525145E-01 -0.9755268900713E-02
-0.1349885405725E-01 -0.1003926928415E-01
-0.1355429718297E-01 -0.1033167365166E-01
-0.1352481396857E-01 -0.1063818136014E-01
-0.1341564632993E-01 -0.1096496618279E-01
-0.1323872116450E-01 -0.1131744789488E-01
-0.1301298493734E-01 -0.1169837009215E-01
-0.1276302673094E-01 -0.1210573573006E-01
-0.2288586887280E-04 -0.2307636580320E-03
-0.8473365940236E-04 -0.4684426635835E-03
-0.1857385480311E-03 -0.7124728157647E-03
-0.3257073565078E-03 -0.9623570881279E-03
-0.5040498650359E-03 -0.1217700337736E-02
-0.7198413046614E-03 -0.1478248879565E-02
-0.9719270149515E-03 -0.1743897592665E-02
-0.1259026759746E-02 -0.2014666708221E-02
-0.1579812550444E-02 -0.2290662851959E-02
-0.1932954837759E-02 -0.2572038937595E-02
-0.2317141608508E-02 -0.2858959528213E-02
-0.2731071762280E-02 -0.3151568885496E-02
-0.3173440999884E-02 -0.3449969666566E-02
-0.3642902465525E-02 -0.3754195190907E-02
-0.4137977996519E-02 -0.4064161122557E-02
-0.4657057180026E-02 -0.4379683941499E-02
-0.5198230667779E-02 -0.4700408269193E-02
-0.5759217659126E-02 -0.5025810687617E-02
-0.6337266506870E-02 -0.5355197436335E-02
-0.6929059800823E-02 -0.5687524548478E-02
-0.7530588827329E-02 -0.6020666478310E-02
-0.8137243211407E-02 -0.6352428855094E-02
-0.8743866620341E-02 -0.6681237266135E-02
-0.9344789416453E-02 -0.7006117883598E-02
-0.9933845209216E-02 -0.7326492868313E-02
-0.1050435036222E-01 -0.7642001713791E-02
-0.1104906741112E-01 -0.7952404770856E-02
-0.1156019129401E-01 -0.8257566006842E-02
-0.1202934930582E-01 -0.8557481756339E-02
-0.1244766152918E-01 -0.8852365261529E-02
-0.1280597083903E-01 -0.9142898675310E-02
-0.1309522059363E-01 -0.9430511664683E-02
-0.1330668585920E-01 -0.9717367288551E-02
-0.1343267999794E-01 -0.1000667260897E-01
-0.1346770733032E-01 -0.1030298132069E-01
-0.1341008610990E-01 -0.1061226237953E-01
-0.1326392185671E-01 -0.1094144936486E-01
-0.1304097375710E-01 -0.1129718542050E-01
-0.1276158009923E-01 -0.1168364137303E-01
-0.1245344306130E-01 -0.1209997761876E-01
-0.1852206085752E-04 -0.2215583809142E-03
-0.7646641703409E-04 -0.4500831786061E-03
-0.1740079306894E-03 -0.6849972690053E-03
-0.3109272137082E-03 -0.9257949115574E-03
-0.4865807593180E-03 -0.1172090521619E-02
-0.6999719876645E-03 -0.1423668127582E-02
-0.9498743352115E-03 -0.1680486048425E-02
-0.1234948581731E-02 -0.1942644549874E-02
-0.1553825406337E-02 -0.2210338430876E-02
-0.1905151126613E-02 -0.2483812133113E-02
-0.2287604591600E-02 -0.2763323612753E-02
-0.2699888590941E-02 -0.3049112815560E-02
-0.3140714619323E-02 -0.3341381097155E-02
-0.3608763149431E-02 -0.3640263785454E-02
-0.4102594462393E-02 -0.3945780808639E-02
-0.4620645448524E-02 -0.4257850805333E-02
-0.5161057883739E-02 -0.4576213363122E-02
-0.5721596661204E-02 -0.4900425581258E-02
-0.6299539132385E-02 -0.5229853796987E-02
-0.6891567995793E-02 -0.5563477147618E-02
-0.7493630245881E-02 -0.5899108488943E-02
-0.8101048828088E-02 -0.6234479692172E-02
-0.8708599567467E-02 -0.6567972871198E-02
-0.9310548635170E-02 -0.6898588937782E-02
-0.9900663171877E-02 -0.7225718303124E-02
-0.1047217841915E-01 -0.7548941990046E-02
-0.1101774479266E-01 -0.7867922174913E-02
-0.1152939441742E-01 -0.8182377002117E-02
-0.1199851665606E-01 -0.8492103739582E-02
-0.1241588622753E-01 -0.8797060740177E-02
-0.1277184561314E-01 -0.9097614598610E-02
-0.1305660869913E-01 -0.9394803458650E-02
-0.1326041424571E-01 -0.9690352589829E-02
-0.1337417483327E-01 -0.9987067035892E-02
-0.1339064459021E-01 -0.1028928090997E-01
-0.1330621916848E-01 -0.1060313277100E-01
-0.1312334701077E-01 -0.1093631730667E-01
-0.1285312106657E-01 -0.1129688521092E-01
-0.1251703765873E-01 -0.1169079371818E-01
-0.1214622836048E-01 -0.1211867988147E-01
-0.1412538092797E-04 -0.2122124866519E-03
-0.6814273427417E-04 -0.4314314479990E-03
-0.1622127979481E-03 -0.6570651270098E-03
-0.2960901173408E-03 -0.8885942857405E-03
-0.4690678705778E-03 -0.1125641680164E-02
-0.6800641658261E-03 -0.1368033292874E-02
-0.9277696998099E-03 -0.1615797596771E-02
-0.1210779843622E-02 -0.1869120731471E-02
-0.1527680986070E-02 -0.2128289232040E-02
-0.1877094342359E-02 -0.2393640597736E-02
-0.2257689599899E-02 -0.2665526609528E-02
-0.2668173895182E-02 -0.2944283293182E-02
-0.3107275470996E-02 -0.3230212084574E-02
-0.3573704015273E-02 -0.3523553660773E-02
-0.4066061878392E-02 -0.3824438351829E-02
-0.4582839518757E-02 -0.4132896289222E-02
-0.5122239329558E-02 -0.4448774326112E-02
-0.5682084102741E-02 -0.4771724375265E-02
-0.6259693388759E-02 -0.5101188022944E-02
-0.6851761989073E-02 -0.5436181567927E-02
-0.7454201199495E-02 -0.5774463806191E-02
-0.8062274615948E-02 -0.6113700027112E-02
-0.8670700147682E-02 -0.6452240731305E-02
-0.9273694681042E-02 -0.6789078162221E-02
-0.9864979370648E-02 -0.7123590814900E-02
-0.1043773394282E-01 -0.7455323102138E-02
-0.1098452681152E-01 -0.7783862295955E-02
-0.1149726171414E-01 -0.8108804859279E-02
-0.1196712891766E-01 -0.8429772565236E-02
-0.1238460028072E-01 -0.8746488508611E-02
-0.1273956046597E-01 -0.9059012712543E-02
-0.1302152470708E-01 -0.9367976952577E-02
-0.1321968637469E-01 -0.9674614163464E-02
-0.1332346261540E-01 -0.9981221940670E-02
-0.1332361509034E-01 -0.1029176485335E-01
-0.1321417067687E-01 -0.1061240191873E-01
-0.1299527660563E-01 -0.1095153897735E-01
-0.1267666634478E-01 -0.1131880264705E-01
-0.1228059104858E-01 -0.1172234487282E-01
-0.1184194902638E-01 -0.1216472558602E-01
-0.9702829875961E-05 -0.2027239264045E-03
-0.5977302483497E-04 -0.4124816508154E-03
-0.1503690950648E-03 -0.6286636140625E-03
-0.2812208143600E-03 -0.8507304571656E-03
-0.4515453543483E-03 -0.1078312564472E-02
-0.6601595007457E-03 -0.1311284372068E-02
-0.9056596002584E-03 -0.1549753243506E-02
-0.1186569624556E-02 -0.1793997851994E-02
-0.1501429468317E-02 -0.2044399806983E-02
-0.1848834850633E-02 -0.2301390402374E-02
-0.2227446514142E-02 -0.2565414654377E-02
-0.2635976287289E-02 -0.2836903979579E-02
-0.3073169662502E-02 -0.3116260223142E-02
-0.3537766671322E-02 -0.3403831862680E-02
-0.4028414414552E-02 -0.3699865265796E-02
-0.4543662320958E-02 -0.4004511546687E-02
-0.5081782478861E-02 -0.4317738116083E-02
-0.5640668012502E-02 -0.4639307730527E-02
-0.6217694474561E-02 -0.4968754529578E-02
-0.6809581139227E-02 -0.5305148153523E-02
-0.7412211938068E-02 -0.5646202084826E-02
-0.8020797680653E-02 -0.5989522988901E-02
-0.8630007602279E-02 -0.6333442647108E-02
-0.9234024055959E-02 -0.6676962732721E-02
-0.9826543169553E-02 -0.7019471739629E-02
-0.1040071580546E-01 -0.7360502212942E-02
-0.1094906013705E-01 -0.7699593898503E-02
-0.1146338856764E-01 -0.8036251700095E-02
-0.1193473575710E-01 -0.8369954133606E-02
-0.1235332176064E-01 -0.8700220755464E-02
-0.1270863123888E-01 -0.9026829913680E-02
-0.1298953655495E-01 -0.9350010761553E-02
-0.1318421181641E-01 -0.9670465515586E-02
-0.1328052394811E-01 -0.9989882806464E-02
-0.1326702497402E-01 -0.1031168523478E-01
-0.1313489757645E-01 -0.1064184527701E-01
-0.1288121024362E-01 -0.1098935235828E-01
-0.1251339399502E-01 -0.1136553443256E-01
-0.1205378692799E-01 -0.1178121204662E-01
-0.1154132669838E-01 -0.1224150131681E-01
-0.5261907131775E-05 -0.1930926796780E-03
-0.5136782028294E-04 -0.3932317540624E-03
-0.1384940164357E-03 -0.5997843153469E-03
-0.2663475143231E-03 -0.8121819094571E-03
-0.4340526591545E-03 -0.1030063201557E-02
-0.6403058259398E-03 -0.1253361012676E-02
-0.8835969012788E-03 -0.1482272888278E-02
-0.1162373354989E-02 -0.1717177439586E-02
-0.1475127443576E-02 -0.1958554175199E-02
-0.1820429716204E-02 -0.2206927859661E-02
-0.2196932483182E-02 -0.2462834925203E-02
-0.2603352508383E-02 -0.2726800218421E-02
-0.3038452551401E-02 -0.2999325056049E-02
-0.3501003256625E-02 -0.3280867005114E-02
-0.3989698007353E-02 -0.3571793289839E-02
-0.4503149445496E-02 -0.3872385389444E-02
-0.5039707737231E-02 -0.4182745479123E-02
-0.5597348892910E-02 -0.4502765098029E-02
-0.6173518958731E-02 -0.4832090749329E-02
-0.6764974525967E-02 -0.5169864096462E-02
-0.7367580197293E-02 -0.5513763498606E-02
-0.7976499614107E-02 -0.5861345773331E-02
-0.8586361696622E-02 -0.6210937772252E-02
-0.9191328693342E-02 -0.6561569930073E-02
-0.9785092953666E-02 -0.6912664393925E-02
-0.1036080387486E-01 -0.7263769122683E-02
-0.1091096228202E-01 -0.7614407537584E-02
-0.1142732809014E-01 -0.7964028962039E-02
-0.1190082731211E-01 -0.8312009852977E-02
-0.1232148654331E-01 -0.8657711258601E-02
-0.1267846290840E-01 -0.9000673681221E-02
-0.1296006832744E-01 -0.9340752104388E-02
-0.1315352577110E-01 -0.9678106080403E-02
-0.1324515290981E-01 -0.1001373138035E-01
-0.1322112702422E-01 -0.1035032503543E-01
-0.1306931128299E-01 -0.1069340410249E-01
-0.1278278744811E-01 -0.1105230606372E-01
-0.1236542590805E-01 -0.1144010207141E-01
-0.1183857494672E-01 -0.1187082161053E-01
-0.1124529480179E-01 -0.1235302330888E-01
-0.8103283237025E-06 -0.1833217074595E-03
-0.4293709902980E-04 -0.3736851843901E-03
-0.1266058461709E-03 -0.5704247811146E-03
-0.2515024253196E-03 -0.7729311484226E-03
-0.4166352742312E-03 -0.9808548329589E-03
-0.6205576998641E-03 -0.1194202054695E-02
-0.8616411003799E-03 -0.1413274883244E-02
-0.1138252852372E-02 -0.1638559730085E-02
-0.1448837822963E-02 -0.1870635885654E-02
-0.1791942563614E-02 -0.2110119885370E-02
-0.2166211801433E-02 -0.2357636319643E-02
-0.2570367390362E-02 -0.2613800057924E-02
-0.3003188877514E-02 -0.2879209473483E-02
-0.3463476852070E-02 -0.3154431047917E-02
-0.3949971157772E-02 -0.3439956470123E-02
-0.4461350381736E-02 -0.3736206475120E-02
-0.4996050074132E-02 -0.4043432947210E-02
-0.5552141620046E-02 -0.4361676226412E-02
-0.6127156833275E-02 -0.4690717953666E-02
-0.6717903097406E-02 -0.5029793532970E-02
-0.7320233416057E-02 -0.5376558199629E-02
-0.7929268764580E-02 -0.5728528600557E-02
-0.8539605040767E-02 -0.6084041153057E-02
-0.9145398349490E-02 -0.6442175220743E-02
-0.9740358618844E-02 -0.6802411503013E-02
-0.1031766161476E-01 -0.7164342697252E-02
-0.1086982427704E-01 -0.7527510456820E-02
-0.1138859368778E-01 -0.7891349946139E-02
-0.1186483609265E-01 -0.8255185557401E-02
-0.1228844824895E-01 -0.8618278768109E-02
-0.1264834502545E-01 -0.8979997377106E-02
-0.1293238684263E-01 -0.9339881315140E-02
-0.1312696052799E-01 -0.9697573797369E-02
-0.1321690723308E-01 -0.1005333057248E-01
-0.1318595051158E-01 -0.1040895008093E-01
-0.1301820713607E-01 -0.1076917043086E-01
-0.1270176077947E-01 -0.1114330285882E-01
-0.1223528085726E-01 -0.1154605640564E-01
-0.1163743515032E-01 -0.1199524932436E-01
-0.1095509002985E-01 -0.1250410710738E-01
 0.3644473795164E-05 -0.1734184358672E-03
-0.3448930898509E-04 -0.3538533317314E-03
-0.1147239007606E-03 -0.5405907087115E-03
-0.2367226479388E-03 -0.7329655212101E-03
-0.3993457506544E-03 -0.9306495698539E-03
-0.6009770514967E-03 -0.1133744782696E-02
-0.8398585676215E-03 -0.1342675415027E-02
-0.1114276296409E-02 -0.1558043367008E-02
-0.1422629676846E-02 -0.1780528061113E-02
-0.1763443364151E-02 -0.2010834382675E-02
-0.2135355706699E-02 -0.2249670189972E-02
-0.2537093728928E-02 -0.2497735373148E-02
-0.2967452800123E-02 -0.2755721278322E-02
-0.3425261809782E-02 -0.3024301347097E-02
-0.3909305702564E-02 -0.3304093650043E-02
-0.4418329832640E-02 -0.3595666030579E-02
-0.4950860849893E-02 -0.3899435423529E-02
-0.5505077625561E-02 -0.4215613197610E-02
-0.6078613882773E-02 -0.4544142458403E-02
-0.6668342131918E-02 -0.4884377867930E-02
-0.7270111247497E-02 -0.5233965917177E-02
-0.7879002778351E-02 -0.5590393825330E-02
-0.8489585683241E-02 -0.5952022518124E-02
-0.9096023313405E-02 -0.6318000718597E-02
-0.9692064473159E-02 -0.6687893131051E-02
-0.1027093924112E-01 -0.7061367900564E-02
-0.1082521412565E-01 -0.7438022189542E-02
-0.1134666277668E-01 -0.7817323160998E-02
-0.1182614061078E-01 -0.8198601217504E-02
-0.1225348069481E-01 -0.8581090831550E-02
-0.1261745049389E-01 -0.8964074780352E-02
-0.1290559186862E-01 -0.9346872636841E-02
-0.1310361878409E-01 -0.9728688099908E-02
-0.1319505367488E-01 -0.1010905057374E-01
-0.1316121227610E-01 -0.1048873309614E-01
-0.1298215811773E-01 -0.1087134487648E-01
-0.1263993100875E-01 -0.1126563608369E-01
-0.1212593013260E-01 -0.1168760780158E-01
-0.1145355752010E-01 -0.1215941030288E-01
-0.1067239692947E-01 -0.1270060538655E-01
 0.8096234458725E-05 -0.1633971305526E-03
-0.2602995844168E-04 -0.3337593539549E-03
-0.1028687368194E-03 -0.5102988574482E-03
-0.2220516141887E-03 -0.6922778758961E-03
-0.3822450303137E-03 -0.8794095031838E-03
-0.5816338517853E-03 -0.1071923707677E-02
-0.8183226769075E-03 -0.1270387578493E-02
-0.1090518056374E-02 -0.1475524884232E-02
-0.1396577912097E-02 -0.1688113255042E-02
-0.1735008047313E-02 -0.1908940439414E-02
-0.2104441980321E-02 -0.2138790881232E-02
-0.2503611927236E-02 -0.2378442787716E-02
-0.2931327669962E-02 -0.2628674573908E-02
-0.3386443796619E-02 -0.2890262600538E-02
-0.3867787328221E-02 -0.3163950986951E-02
-0.4374168872514E-02 -0.3450460744170E-02
-0.4904209627152E-02 -0.3750388994552E-02
-0.5456207171379E-02 -0.4064142588959E-02
-0.6027914180862E-02 -0.4391856721197E-02
-0.6616283800679E-02 -0.4733035736549E-02
-0.7217168109705E-02 -0.5085335042940E-02
-0.7825611116262E-02 -0.5446224545300E-02
-0.8436159653775E-02 -0.5814104710125E-02
-0.9042997106666E-02 -0.6188213485891E-02
-0.9639932232738E-02 -0.6568224635093E-02
-0.1022027712757E-01 -0.6953913014676E-02
-0.1077668074147E-01 -0.7344970540800E-02
-0.1130098138575E-01 -0.7740946317472E-02
-0.1178407059669E-01 -0.8141241601963E-02
-0.1221578301105E-01 -0.8545148662345E-02
-0.1258483843214E-01 -0.8951974983094E-02
-0.1287861177232E-01 -0.9360952797264E-02
-0.1308235211695E-01 -0.9770984258756E-02
-0.1317851260345E-01 -0.1018097385668E-01
-0.1314620933553E-01 -0.1059063982759E-01
-0.1296136110195E-01 -0.1100214839460E-01
-0.1259901849677E-01 -0.1142300218795E-01
-0.1204082958446E-01 -0.1186978651512E-01
-0.1129109033435E-01 -0.1236932742817E-01
-0.1039958054239E-01 -0.1294975379714E-01
 0.1254144139505E-04 -0.1532828382697E-03
-0.1755964730296E-04 -0.3134441008849E-03
-0.9106299606465E-04 -0.4795809115708E-03
-0.2075414011992E-03 -0.6508667970566E-03
-0.3654041678716E-03 -0.8270950809186E-03
-0.5626068133799E-03 -0.1008668936181E-02
-0.7971138693560E-03 -0.1196320340377E-02
-0.1067058462148E-02 -0.1390898236754E-02
-0.1370762918827E-02 -0.1593273443125E-02
-0.1706718100937E-02 -0.1804308719375E-02
-0.2073554543633E-02 -0.2024856514635E-02
-0.2470009629571E-02 -0.2255764899476E-02
-0.2894905773354E-02 -0.2497891543619E-02
-0.3347119798704E-02 -0.2752109338021E-02
-0.3825516088727E-02 -0.3019285258792E-02
-0.4328966255446E-02 -0.3300296744351E-02
-0.4856186362272E-02 -0.3595935032499E-02
-0.5405602206668E-02 -0.3906828893353E-02
-0.5975103261481E-02 -0.4233341431313E-02
-0.6561740390706E-02 -0.4575163626567E-02
-0.7161376310732E-02 -0.4929982182923E-02
-0.7769018040771E-02 -0.5295263712354E-02
-0.8379193927217E-02 -0.5669462830294E-02
-0.8986119649563E-02 -0.6051924798586E-02
-0.9583684604455E-02 -0.6442455772170E-02
-0.1016530995058E-01 -0.6840968124944E-02
-0.1072375882033E-01 -0.7247288956782E-02
-0.1125097005504E-01 -0.7661101965586E-02
-0.1173791423351E-01 -0.8081948997127E-02
-0.1217448805255E-01 -0.8509274453129E-02
-0.1254946230279E-01 -0.8942539514765E-02
-0.1285020699639E-01 -0.9381059725322E-02
-0.1306174927591E-01 -0.9823641328702E-02
-0.1316580924601E-01 -0.1026877816531E-01
-0.1313969888492E-01 -0.1071526539930E-01
-0.1295542580408E-01 -0.1116365799811E-01
-0.1258043265813E-01 -0.1161945322441E-01
-0.1198388659052E-01 -0.1209862708757E-01
-0.1115547821969E-01 -0.1263251797836E-01
-0.1014008096392E-01 -0.1326068828709E-01
 0.1698222368025E-04 -0.1431181695582E-03
-0.9071440637850E-05 -0.2929754637976E-03
-0.7933356001976E-04 -0.4484882775402E-03
-0.1932562728922E-03 -0.6087356614008E-03
-0.3489063401271E-03 -0.7736622550532E-03
-0.5439839208959E-03 -0.9439039341908E-03
-0.7763194962082E-03 -0.1120377232498E-02
-0.1043983382552E-02 -0.1304054159395E-02
-0.1345270040315E-02 -0.1495889864469E-02
-0.1678659994545E-02 -0.1696811692223E-02
-0.2042782859283E-02 -0.1907729584806E-02
-0.2436381120508E-02 -0.2129551296874E-02
-0.2858287779057E-02 -0.2363204020837E-02
-0.3307397754336E-02 -0.2609648272423E-02
-0.3782606524066E-02 -0.2869867241380E-02
-0.4282839438730E-02 -0.3144893986835E-02
-0.4806903581081E-02 -0.3435724978775E-02
-0.5353359483276E-02 -0.3743238564150E-02
-0.5920251672858E-02 -0.4068067788625E-02
-0.6504747861455E-02 -0.4410136131559E-02
-0.7102729332531E-02 -0.4767191006656E-02
-0.7709165560845E-02 -0.5136712584005E-02
-0.8318569240675E-02 -0.5517223038293E-02
-0.8925200328893E-02 -0.5908189445694E-02
-0.9523048930197E-02 -0.6309570126748E-02
-0.1010567107759E-01 -0.6721444093144E-02
-0.1066597412795E-01 -0.7143814564124E-02
-0.1119603045777E-01 -0.7576554232720E-02
-0.1168692685142E-01 -0.8019417862212E-02
-0.1212867374576E-01 -0.8472101758587E-02
-0.1251018354702E-01 -0.8934363443701E-02
-0.1281898299279E-01 -0.9405804619136E-02
-0.1304013890453E-01 -0.9885408468678E-02
-0.1315504177223E-01 -0.1037160174429E-01
-0.1313977972105E-01 -0.1086261372833E-01
-0.1296310367857E-01 -0.1135752782651E-01
-0.1258488416159E-01 -0.1185922329699E-01
-0.1195927181373E-01 -0.1238134746907E-01
-0.1105389276704E-01 -0.1295856119200E-01
-0.9899100430683E-02 -0.1364525310623E-01
 0.2143173272819E-04 -0.1329755153097E-03
-0.5477596861994E-06 -0.2724633887177E-03
-0.6771634216806E-04 -0.4170973421461E-03
-0.1792778672721E-03 -0.5658892513635E-03
-0.3328489087616E-03 -0.7190580376224E-03
-0.5258626290030E-03 -0.8775428212963E-03
-0.7560334238154E-03 -0.1042454925929E-02
-0.1021383642553E-02 -0.1214879499855E-02
-0.1320188923868E-02 -0.1395842877107E-02
-0.1650924504523E-02 -0.1586323883328E-02
-0.2012221231450E-02 -0.1787277571422E-02
-0.2402826595237E-02 -0.1999659584318E-02
-0.2821581995621E-02 -0.2224455076515E-02
-0.3267395899639E-02 -0.2462700741985E-02
-0.3739187412284E-02 -0.2715485433762E-02
-0.4235925335615E-02 -0.2983991500482E-02
-0.4756498651168E-02 -0.3269426515278E-02
-0.5299604217254E-02 -0.3572945519320E-02
-0.5863459324680E-02 -0.3895500660992E-02
-0.6445370145579E-02 -0.4237306239026E-02
-0.7041245577682E-02 -0.4596210630534E-02
-0.7646016510531E-02 -0.4969728798907E-02
-0.8254182876495E-02 -0.5356461451093E-02
-0.8860061097399E-02 -0.5756005649321E-02
-0.9457761085076E-02 -0.6168485505175E-02
-0.1004099743193E-01 -0.6594172612176E-02
-0.1060284937788E-01 -0.7033287338198E-02
-0.1113555275810E-01 -0.7485947062861E-02
-0.1163034095251E-01 -0.7952192045785E-02
-0.1207737727145E-01 -0.8432070203342E-02
-0.1246579104421E-01 -0.8925782846874E-02
-0.1278341424677E-01 -0.9433441500227E-02
-0.1301561145575E-01 -0.9954536249320E-02
-0.1314387898332E-01 -0.1048790051508E-01
-0.1314380214292E-01 -0.1103182282887E-01
-0.1298197738607E-01 -0.1158455120546E-01
-0.1261177695072E-01 -0.1214630755074E-01
-0.1197090297136E-01 -0.1272642280741E-01
-0.1099570307889E-01 -0.1335992622383E-01
-0.9684838373951E-02 -0.1411931778972E-01
 0.2592442548100E-04 -0.1229802751265E-03
 0.8042125720618E-05 -0.2520842158199E-03
-0.5626612802092E-04 -0.3855131125263E-03
-0.1657121331471E-03 -0.5223256888877E-03
-0.3173448992292E-03 -0.6632143149719E-03
-0.5083494988688E-03 -0.8094874087773E-03
-0.7363553425458E-03 -0.9624417015806E-03
-0.9993542314656E-03 -0.1123256512022E-02
-0.1295612718203E-02 -0.1293011784727E-02
-0.1623605908506E-02 -0.1472722066394E-02
-0.1981967967916E-02 -0.1663373459585E-02
-0.2369451257181E-02 -0.1865956277133E-02
-0.2784903381487E-02 -0.2081500437990E-02
-0.3227241724564E-02 -0.2311104980665E-02
-0.3695400944013E-02 -0.2555949810742E-02
-0.4188380478014E-02 -0.2817353302493E-02
-0.4705135899518E-02 -0.3096731291532E-02
-0.5244494294880E-02 -0.3395538500219E-02
-0.5804860832049E-02 -0.3715102765023E-02
-0.6383704390028E-02 -0.4056005274783E-02
-0.6976972573778E-02 -0.4416252859068E-02
-0.7579557535697E-02 -0.4793423486024E-02
-0.8185951091805E-02 -0.5186202802780E-02
-0.8790539317127E-02 -0.5594315480614E-02
-0.9387569442578E-02 -0.6018055290909E-02
-0.9970934745626E-02 -0.6457907318176E-02
-0.1053391057095E-01 -0.6914350200965E-02
-0.1106892332668E-01 -0.7387803624884E-02
-0.1156737690012E-01 -0.7878664522774E-02
-0.1201961132058E-01 -0.8387425371340E-02
-0.1241502584804E-01 -0.8914870982084E-02
-0.1274187999151E-01 -0.9461849128625E-02
-0.1298606386573E-01 -0.1002872155682E-01
-0.1312959908232E-01 -0.1061531300856E-01
-0.1314834494053E-01 -0.1122086089039E-01
-0.1300817862902E-01 -0.1184403991696E-01
-0.1265834319974E-01 -0.1248359830325E-01
-0.1202128402326E-01 -0.1314328408851E-01
-0.1099274440225E-01 -0.1385312300414E-01
-0.9510740904559E-02 -0.1470502761107E-01
 0.3053627633021E-04 -0.1133581499095E-03
 0.1674005034792E-04 -0.2321198503319E-03
-0.4507553044963E-04 -0.3538647794276E-03
-0.1526969154065E-03 -0.4780206402499E-03
-0.3025227946034E-03 -0.6060408050258E-03
-0.4915591947274E-03 -0.7396242699945E-03
-0.7173897388751E-03 -0.8802158035085E-03
-0.9779932594685E-03 -0.1029062145060E-02
-0.1271637103028E-02 -0.1187274601607E-02
-0.1596801030029E-02 -0.1355885338654E-02
-0.1952124383944E-02 -0.1535896081250E-02
-0.2336364218864E-02 -0.1728317444422E-02
-0.2748372278839E-02 -0.1934209574193E-02
-0.3187070484404E-02 -0.2154717956601E-02
-0.3651401130801E-02 -0.2391095185319E-02
-0.4140380171085E-02 -0.2644774632961E-02
-0.4653008158806E-02 -0.2917364437732E-02
-0.5188225002797E-02 -0.3210631059312E-02
-0.5744632245689E-02 -0.3526340307019E-02
-0.6319887543745E-02 -0.3865542020057E-02
-0.6909991683322E-02 -0.4226487316597E-02
-0.7509801678034E-02 -0.4606856638460E-02
-0.8113810768240E-02 -0.5005418494077E-02
-0.8716489979315E-02 -0.5422005668409E-02
-0.9312238673932E-02 -0.5857070805816E-02
-0.9895143142825E-02 -0.6311326014964E-02
-0.1045869375399E-01 -0.6785549794165E-02
-0.1099553239714E-01 -0.7280526214836E-02
-0.1149725327638E-01 -0.7797079126144E-02
-0.1195438113367E-01 -0.8336224537095E-02
-0.1235660993785E-01 -0.8899445464201E-02
-0.1269271072653E-01 -0.9488530279437E-02
-0.1294926928674E-01 -0.1010507694877E-01
-0.1310917647318E-01 -0.1075055113419E-01
-0.1314929521193E-01 -0.1142624259841E-01
-0.1303627626137E-01 -0.1213307765333E-01
-0.1271862084776E-01 -0.1287133208820E-01
-0.1210919396673E-01 -0.1364097974813E-01
-0.1105860592933E-01 -0.1446003044488E-01
-0.9399559998197E-02 -0.1543483520406E-01
 0.3542562017948E-04 -0.1045405745196E-03
 0.2557960361883E-04 -0.2130168060691E-03
-0.3430840140651E-04 -0.3222752973461E-03
-0.1404056545709E-03 -0.4329028750376E-03
-0.2885237042107E-03 -0.5474201132539E-03
-0.4756131957405E-03 -0.6678216477976E-03
-0.6992444667883E-03 -0.7956440170955E-03
-0.9574007701087E-03 -0.9321676531120E-03
-0.1248359281096E-02 -0.1078508039750E-02
-0.1570608282506E-02 -0.1235695438762E-02
-0.1922793832447E-02 -0.1404730676238E-02
-0.2303677420400E-02 -0.1586629553008E-02
-0.2712113121999E-02 -0.1782466946984E-02
-0.3147023567140E-02 -0.1993417294572E-02
-0.3607351680319E-02 -0.2220784505971E-02
-0.4092116498298E-02 -0.2466088735192E-02
-0.4600337419449E-02 -0.2731097044738E-02
-0.5131034611394E-02 -0.3017876732773E-02
-0.5683000396219E-02 -0.3328692323773E-02
-0.6254105648140E-02 -0.3665201601792E-02
-0.6840424045695E-02 -0.4026034361968E-02
-0.7436790746524E-02 -0.4409031171523E-02
-0.8037720410096E-02 -0.4813025109852E-02
-0.8637787585914E-02 -0.5237910184416E-02
-0.9231553849783E-02 -0.5684266183087E-02
-0.9813303815180E-02 -0.6153035574951E-02
-0.1037675318574E-01 -0.6645339002785E-02
-0.1091478212041E-01 -0.7162396537306E-02
-0.1141919634106E-01 -0.7705533849450E-02
-0.1188070091644E-01 -0.8276348973340E-02
-0.1228927796788E-01 -0.8877089536226E-02
-0.1263424336043E-01 -0.9510631616095E-02
-0.1290297098526E-01 -0.1018013632234E-01
-0.1307942413468E-01 -0.1088933832913E-01
-0.1314203143696E-01 -0.1164280564841E-01
-0.1305951632568E-01 -0.1244586237548E-01
-0.1278277797088E-01 -0.1330478573944E-01
-0.1222566932458E-01 -0.1422432974746E-01
-0.1120473750416E-01 -0.1520828931192E-01
-0.9390206637161E-02 -0.1635895925082E-01
 0.4091706512483E-04 -0.9743186868423E-04
 0.3450936728284E-04 -0.1954471279944E-03
-0.2424671137124E-04 -0.2907618196702E-03
-0.1290355948620E-03 -0.3868364961098E-03
-0.2754981397681E-03 -0.4872061397803E-03
-0.4606381081844E-03 -0.5939246539419E-03
-0.6820285800202E-03 -0.7085813195051E-03
-0.9376774765274E-03 -0.8324380475928E-03
-0.1225876771285E-02 -0.9665875742775E-03
-0.1545126605750E-02 -0.1112036954183E-02
-0.1894080604052E-02 -0.1269769281149E-02
-0.2271504399119E-02 -0.1440790031573E-02
-0.2676252924411E-02 -0.1626172839561E-02
-0.3107246531710E-02 -0.1827102620341E-02
-0.3563423174740E-02 -0.2044911080097E-02
-0.4043794382569E-02 -0.2281172221335E-02
-0.4547372890314E-02 -0.2537760497437E-02
-0.5073209891684E-02 -0.2816991294686E-02
-0.5620255773740E-02 -0.3121665279452E-02
-0.6186606957403E-02 -0.3454242156555E-02
-0.6768437486489E-02 -0.3813952630679E-02
-0.7360596302499E-02 -0.4198883679729E-02
-0.7957659323903E-02 -0.4607882381310E-02
-0.8554326779264E-02 -0.5040813931672E-02
-0.9145324076506E-02 -0.5498325171895E-02
-0.9725126338483E-02 -0.5981579347372E-02
-0.1028767116474E-01 -0.6492081050079E-02
-0.1082609490227E-01 -0.7031574163665E-02
-0.1133244625902E-01 -0.7601982347921E-02
-0.1179760674110E-01 -0.8205523005276E-02
-0.1221180798456E-01 -0.8845189249952E-02
-0.1256488572505E-01 -0.9524991866775E-02
-0.1284498409891E-01 -0.1024989304273E-01
-0.1303720851020E-01 -0.1102645524826E-01
-0.1312169511936E-01 -0.1186353854248E-01
-0.1307036475431E-01 -0.1277338361101E-01
-0.1283804469907E-01 -0.1377219513258E-01
-0.1234893473306E-01 -0.1488520658157E-01
-0.1142747808299E-01 -0.1612556627874E-01
-0.9547136448140E-02 -0.1755949386565E-01
 0.4766627587797E-04 -0.9423046237786E-04
 0.4313143578809E-04 -0.1801590821178E-03
-0.1529575293806E-04 -0.2590267565203E-03
-0.1187716228900E-03 -0.3396752251100E-03
-0.2636131332641E-03 -0.4251980418060E-03
-0.4467584563400E-03 -0.5177587924187E-03
-0.6658512882834E-03 -0.6188687182605E-03
-0.9189228082046E-03 -0.7297320954379E-03
-0.1204286131582E-02 -0.8513872088611E-03
-0.1520454182179E-02 -0.9847972381322E-03
-0.1866088630933E-02 -0.1130910642163E-02
-0.2239958814283E-02 -0.1290707202620E-02
-0.2640919465450E-02 -0.1465243337521E-02
-0.3067886676679E-02 -0.1655695729638E-02
-0.3519789732103E-02 -0.1863399342909E-02
-0.3995625550138E-02 -0.2089946614103E-02
-0.4494383786678E-02 -0.2337259259873E-02
-0.5015089347290E-02 -0.2607786288045E-02
-0.5556771186292E-02 -0.2904817797223E-02
-0.6117721590391E-02 -0.3231885624867E-02
-0.6694253951225E-02 -0.3589216530698E-02
-0.7281317605474E-02 -0.3975269922951E-02
-0.7873623627316E-02 -0.4388789732056E-02
-0.8466020777274E-02 -0.4829457048158E-02
-0.9053384903992E-02 -0.5297889220784E-02
-0.9630355763734E-02 -0.5795446653974E-02
-0.1019107019857E-01 -0.6324056380898E-02
-0.1072892334618E-01 -0.6886090597866E-02
-0.1123625696604E-01 -0.7484226001880E-02
-0.1170415937432E-01 -0.8121339099241E-02
-0.1212305141912E-01 -0.8800993418796E-02
-0.1248317584202E-01 -0.9528211995795E-02
-0.1277333265155E-01 -0.1030990192719E-01
-0.1297959889720E-01 -0.1115581118366E-01
-0.1308387358761E-01 -0.1207987166593E-01
-0.1306056877922E-01 -0.1310259475110E-01
-0.1287220549362E-01 -0.1425598328717E-01
-0.1244539656378E-01 -0.1558991521059E-01
-0.1167405770967E-01 -0.1720803620556E-01
-0.9956559118551E-02 -0.1917051733712E-01
-0.8051228378937E-01 -0.3544788713920E-01
-0.1292876313932E+00 -0.5067836690561E-01
-0.1737405658498E+00 -0.6790254525917E-01
-0.2144016561015E+00 -0.8700529527005E-01
-0.2517423275415E+00 -0.1077781556090E+00
-0.2861907000800E+00 -0.1299656592562E+00
-0.3181283310404E+00 -0.1532910096918E+00
-0.3478812214980E+00 -0.1774700380429E+00
-0.3757096247736E+00 -0.2022212144626E+00
-0.4018042948169E+00 -0.2272764402227E+00
-0.4262933228761E+00 -0.2523929719820E+00
-0.4492519616805E+00 -0.2773492463741E+00
-0.4707622661559E+00 -0.3019487894100E+00
-0.4909105663020E+00 -0.3260247845151E+00
-0.5097290888903E+00 -0.3494199329190E+00
-0.5271890125233E+00 -0.3719719951995E+00
-0.5431816271287E+00 -0.3935031995341E+00
-0.5575212772083E+00 -0.4138237559577E+00
-0.5699067164240E+00 -0.4327138411312E+00
-0.7918371975149E-01 -0.3474625747113E-01
-0.1269012547152E+00 -0.4992949143197E-01
-0.1703278441731E+00 -0.6725617759405E-01
-0.2100428556807E+00 -0.8659496013993E-01
-0.2465424996992E+00 -0.1077264770416E+00
-0.2802650657994E+00 -0.1303865850542E+00
-0.3115942543816E+00 -0.1542914459537E+00
-0.3408544792495E+00 -0.1791513021559E+00
-0.3683034714878E+00 -0.2046803981892E+00
-0.3941291927550E+00 -0.2306074957055E+00
-0.4184571554159E+00 -0.2566857043405E+00
-0.4413643258139E+00 -0.2826905447444E+00
-0.4629271547341E+00 -0.3084215530022E+00
-0.4832193047943E+00 -0.3337028109251E+00
-0.5022655686955E+00 -0.3583664420561E+00
-0.5200310187140E+00 -0.3822387153294E+00
-0.5364042460013E+00 -0.4051291838986E+00
-0.5511933460009E+00 -0.4268210385065E+00
-0.5641446417596E+00 -0.4470150677496E+00
-0.7775234254616E-01 -0.3406938443200E-01
-0.1243422437119E+00 -0.4921953032993E-01
-0.1666891951597E+00 -0.6667440124640E-01
-0.2054126269840E+00 -0.8627610918544E-01
-0.2410307655442E+00 -0.1077916201338E+00
-0.2739904515441E+00 -0.1309475538230E+00
-0.3046765913624E+00 -0.1554533282739E+00
-0.3334114610901E+00 -0.1810142793091E+00
-0.3604499102513E+00 -0.2073413537605E+00
-0.3859772542800E+00 -0.2341608615057E+00
-0.4101169783801E+00 -0.2612233487326E+00
-0.4329467923661E+00 -0.2883026193439E+00
-0.4545380870598E+00 -0.3151952677394E+00
-0.4749541464908E+00 -0.3417183584491E+00
-0.4942133083395E+00 -0.3676945611467E+00
-0.5122764892609E+00 -0.3929385633306E+00
-0.5290314406029E+00 -0.4172437603106E+00
-0.5442965413823E+00 -0.4403642557632E+00
-0.5578337629447E+00 -0.4620129334674E+00
-0.7621677820839E-01 -0.3341758088726E-01
-0.1216059532375E+00 -0.4854847488024E-01
-0.1628179732789E+00 -0.6615162381701E-01
-0.2005043551909E+00 -0.8603884715171E-01
-0.2352009664178E+00 -0.1079599370110E+00
-0.2673611824451E+00 -0.1316313389835E+00
-0.2973699371209E+00 -0.1567558662861E+00
-0.3255466663352E+00 -0.1830346333929E+00
-0.3521429482436E+00 -0.2101761557918E+00
-0.3773414292528E+00 -0.2379053919814E+00
-0.4012638041258E+00 -0.2659717086410E+00
-0.4239878975954E+00 -0.2941482964599E+00
-0.4455806653657E+00 -0.3222298909874E+00
-0.4660970915353E+00 -0.3500281143779E+00
-0.4855505717103E+00 -0.3773575375499E+00
-0.5038997567197E+00 -0.4040221888231E+00
-0.5210357383328E+00 -0.4298013878636E+00
-0.5367830968562E+00 -0.4544421534867E+00
-0.5509033191579E+00 -0.4776669657695E+00
-0.7457568124286E-01 -0.3279055492056E-01
-0.1186892009714E+00 -0.4791479759747E-01
-0.1587097676523E+00 -0.6568304161834E-01
-0.1953133693216E+00 -0.8587406188959E-01
-0.2290487970059E+00 -0.1082182783817E+00
-0.2603733769649E+00 -0.1324208789807E+00
-0.2896706356800E+00 -0.1581781218008E+00
-0.3172563104800E+00 -0.1851875260035E+00
-0.3433782062697E+00 -0.2131561086697E+00
-0.3682161356333E+00 -0.2418086006410E+00
-0.3918900825934E+00 -0.2708945053469E+00
-0.4144775887707E+00 -0.3001874634655E+00
-0.4360418772755E+00 -0.3294814096386E+00
-0.4566315440201E+00 -0.3585840989180E+00
-0.4762565362993E+00 -0.3873038498536E+00
-0.4948751908966E+00 -0.4154366674224E+00
-0.5123818941099E+00 -0.4427551340411E+00
-0.5286036803102E+00 -0.4690049747161E+00
-0.5432948692698E+00 -0.4939156388533E+00
-0.7282815640426E-01 -0.3218773273683E-01
-0.1155900786326E+00 -0.4731675236124E-01
-0.1543620134352E+00 -0.6526394925832E-01
-0.1898370040134E+00 -0.8577316354031E-01
-0.2225718928753E+00 -0.1085538804829E+00
-0.2530250537858E+00 -0.1332992562018E+00
-0.2815768991370E+00 -0.1596990131733E+00
-0.3085384408461E+00 -0.1874476762214E+00
-0.3341530854939E+00 -0.2162516837462E+00
-0.3585975296851E+00 -0.2458366457519E+00
-0.3819900230620E+00 -0.2759534327902E+00
-0.4044075982186E+00 -0.3063771890707E+00
-0.4259104681822E+00 -0.3369021810647E+00
-0.4465424813114E+00 -0.3673340364513E+00
-0.4663114630486E+00 -0.3974772186306E+00
-0.4851762680432E+00 -0.4271236479810E+00
-0.5030339021392E+00 -0.4560438147297E+00
-0.5197117005833E+00 -0.4839852118538E+00
-0.5349549766523E+00 -0.5106812913446E+00
-0.7097389213817E-01 -0.3160856670780E-01
-0.1123079170805E+00 -0.4675255735600E-01
-0.1497738657307E+00 -0.6488978470702E-01
-0.1840745377501E+00 -0.8572784827259E-01
-0.2157698841033E+00 -0.1089542675337E+00
-0.2453162174217E+00 -0.1342496677655E+00
-0.2730889191934E+00 -0.1612973357642E+00
-0.2993930836185E+00 -0.1897893806309E+00
-0.3244669745051E+00 -0.2194325454332E+00
-0.3484837883802E+00 -0.2499543732386E+00
-0.3715599396236E+00 -0.2811082544172E+00
-0.3937718314360E+00 -0.3126719007484E+00
-0.4151773307131E+00 -0.3444411542621E+00
-0.4358168729643E+00 -0.3762214213541E+00
-0.4556970656769E+00 -0.4078160484352E+00
-0.4747776433489E+00 -0.4390163571256E+00
-0.4929576837046E+00 -0.4695942360463E+00
-0.5100640659210E+00 -0.4993007759450E+00
-0.5258337482906E+00 -0.5278724351966E+00
-0.6901323565095E-01 -0.3105259375455E-01
-0.1088432903252E+00 -0.4622050102195E-01
-0.1449461472592E+00 -0.6455612291551E-01
-0.1780271549471E+00 -0.8573003338073E-01
-0.2086444025505E+00 -0.1094071817854E+00
-0.2372489034109E+00 -0.1352554237286E+00
-0.2642089344258E+00 -0.1629518045545E+00
-0.2898223397082E+00 -0.1921865902630E+00
-0.3143213862063E+00 -0.2226676603545E+00
-0.3378752954833E+00 -0.2541254767602E+00
-0.3605984764014E+00 -0.2863170299691E+00
-0.3825666237400E+00 -0.3190236756428E+00
-0.4038358125901E+00 -0.3520441580938E+00
-0.4244440651345E+00 -0.3851856430074E+00
-0.4443973706942E+00 -0.4182529812026E+00
-0.4636565241859E+00 -0.4510399158089E+00
-0.4821224420510E+00 -0.4833224823878E+00
-0.4996216866932E+00 -0.5148571350012E+00
-0.5158847362562E+00 -0.5453839203426E+00
-0.6694723006472E-01 -0.3051945222989E-01
-0.1051980207853E+00 -0.4571897010917E-01
-0.1398813243432E+00 -0.6425867881111E-01
-0.1716979273988E+00 -0.8577182544243E-01
-0.2011990962894E+00 -0.1099005587617E+00
-0.2288272318902E+00 -0.1362999551527E+00
-0.2549413224678E+00 -0.1646411053933E+00
-0.2798305184472E+00 -0.1946129991853E+00
-0.3037201409233E+00 -0.2259254262046E+00
-0.3267748787313E+00 -0.2583126752064E+00
-0.3491068945477E+00 -0.2915363436597E+00
-0.3707910885041E+00 -0.3253824982162E+00
-0.3918821580717E+00 -0.3596541348723E+00
-0.4124164270066E+00 -0.3941620857760E+00
-0.4323996614467E+00 -0.4287150909937E+00
-0.4517938501809E+00 -0.4631118994557E+00
-0.4705017764530E+00 -0.4971350573524E+00
-0.4883503246808E+00 -0.5305482582646E+00
-0.5050658690212E+00 -0.5630968222776E+00
-0.6477763545522E-01 -0.3000887780547E-01
-0.1013751799651E+00 -0.4524645562609E-01
-0.1345834866018E+00 -0.6399330751626E-01
-0.1650917914728E+00 -0.8584551572615E-01
-0.1934396229596E+00 -0.1104225344946E+00
-0.2200574266641E+00 -0.1373668543914E+00
-0.2452926482401E+00 -0.1663439792771E+00
-0.2694242183708E+00 -0.1970421785633E+00
-0.2926694846877E+00 -0.2291738610140E+00
-0.3151879700400E+00 -0.2624779639696E+00
-0.3370892780788E+00 -0.2967216155173E+00
-0.3584473885882E+00 -0.3316966175897E+00
-0.3793158946999E+00 -0.3672115173504E+00
-0.3997299087804E+00 -0.4030825681418E+00
-0.4196952328727E+00 -0.4391245024236E+00
-0.4391751760540E+00 -0.4751432954440E+00
-0.4580745883383E+00 -0.5109300876245E+00
-0.4762215585918E+00 -0.5462577151115E+00
-0.4933408428741E+00 -0.5808788926048E+00
-0.6250693677850E-01 -0.2952069182467E-01
-0.9737908159144E-01 -0.4480154835848E-01
-0.1290583268295E+00 -0.6375600532353E-01
-0.1582155283123E+00 -0.8594358860648E-01
-0.1853736454848E+00 -0.1109614723583E+00
-0.2109478369340E+00 -0.1384399338851E+00
-0.2352717178226E+00 -0.1680393242370E+00
-0.2586124176947E+00 -0.1994477291995E+00
-0.2811782211405E+00 -0.2323808128243E+00
-0.3031227845189E+00 -0.2665828863984E+00
-0.3245527681649E+00 -0.3018274337118E+00
-0.3455410502160E+00 -0.3379129361124E+00
-0.3661402631873E+00 -0.3746546868743E+00
-0.3863846163899E+00 -0.4118759178367E+00
-0.4062801111380E+00 -0.4493991680894E+00
-0.4257915035489E+00 -0.4870395276205E+00
-0.4448260142776E+00 -0.5245985370908E+00
-0.4632139261617E+00 -0.5618599256798E+00
-0.4806808228257E+00 -0.5985858608387E+00
-0.6013834089654E-01 -0.2905478678592E-01
-0.9321526232363E-01 -0.4438293128125E-01
-0.1233131077752E+00 -0.6354291371633E-01
-0.1510777270223E+00 -0.8605874201547E-01
-0.1770108036594E+00 -0.1115060087623E+00
-0.2015089267142E+00 -0.1395033083825E+00
-0.2248895921036E+00 -0.1697063249337E+00
-0.2474065170081E+00 -0.2018034679944E+00
-0.2692577883329E+00 -0.2355142113695E+00
-0.2905904380790E+00 -0.2705888577825E+00
-0.3115077320835E+00 -0.3068079558758E+00
-0.3320812045589E+00 -0.3439774984851E+00
-0.3523625572082E+00 -0.3819205768448E+00
-0.3723852641085E+00 -0.4204687378932E+00
-0.3921556183200E+00 -0.4594538512681E+00
-0.4116399512060E+00 -0.4987016856221E+00
-0.4307482254715E+00 -0.5380256735265E+00
-0.4493139632106E+00 -0.5772218840955E+00
-0.4670659210035E+00 -0.6160636400525E+00
-0.5767576750502E-01 -0.2861111165818E-01
-0.8889045688856E-01 -0.4398937219125E-01
-0.1173566252854E+00 -0.6335032717808E-01
-0.1436887448073E+00 -0.8618391654746E-01
-0.1683626813446E+00 -0.1120451114723E+00
-0.1917532573968E+00 -0.1405414921533E+00
-0.2141595907916E+00 -0.1713245989687E+00
-0.2358203695031E+00 -0.2040836332924E+00
-0.2569223202217E+00 -0.2385423421135E+00
-0.2776050469897E+00 -0.2744575177101E+00
-0.2979679107501E+00 -0.3116173508002E+00
-0.3180807997944E+00 -0.3498360409298E+00
-0.3379944169228E+00 -0.3889453605282E+00
-0.3577415577702E+00 -0.4287862750805E+00
-0.3773288463744E+00 -0.4692012184179E+00
-0.3967243224810E+00 -0.5100278758125E+00
-0.4158411181635E+00 -0.5510927172843E+00
-0.4345170852609E+00 -0.5922052096284E+00
-0.4524864058638E+00 -0.6331510074620E+00
-0.5512383166386E-01 -0.2818965743424E-01
-0.8441256225069E-01 -0.4361971731836E-01
-0.1111991596119E+00 -0.6317470459342E-01
-0.1360606539748E+00 -0.8631233173680E-01
-0.1594427580915E+00 -0.1125681484197E+00
-0.1816954514172E+00 -0.1415395092820E+00
-0.2030972737420E+00 -0.1728743585349E+00
-0.2238702845168E+00 -0.2062631083136E+00
-0.2441886772170E+00 -0.2414341425619E+00
-0.2641837915939E+00 -0.2781511117559E+00
-0.2839505238769E+00 -0.3162102809945E+00
-0.3035567598368E+00 -0.3554345971348E+00
-0.3230520524581E+00 -0.3956652122938E+00
-0.3424684878621E+00 -0.4367533751702E+00
-0.3618130210680E+00 -0.4785530296700E+00
-0.3810555442768E+00 -0.5209146917231E+00
-0.4001128420355E+00 -0.5636786587741E+00
-0.4188282407002E+00 -0.6066684367804E+00
-0.4369435520619E+00 -0.6496826173282E+00
-0.5248781847546E-01 -0.2779044355710E-01
-0.7979059093861E-01 -0.4327288658368E-01
-0.1048524144319E+00 -0.6301268409311E-01
-0.1282071750440E+00 -0.8643752811751E-01
-0.1502663443673E+00 -0.1130649645322E+00
-0.1713521361134E+00 -0.1424830138481E+00
-0.1917203983725E+00 -0.1743365836925E+00
-0.2115750024696E+00 -0.2083176584574E+00
-0.2310764426903E+00 -0.2441595160663E+00
-0.2503469393137E+00 -0.2816328966232E+00
-0.2694763256581E+00 -0.3205424177125E+00
-0.2885300810326E+00 -0.3607201478771E+00
-0.3075563885678E+00 -0.4020171237241E+00
-0.3265865242883E+00 -0.4442955028528E+00
-0.3456277460779E+00 -0.4874214045227E+00
-0.3646519589864E+00 -0.5312587767821E+00
-0.3835801408805E+00 -0.5756621929365E+00
-0.4022623032986E+00 -0.6204694471386E+00
-0.4204500911446E+00 -0.6654921571528E+00
-0.4977365262505E-01 -0.2741350574807E-01
-0.7503461713479E-01 -0.4294787093574E-01
-0.9832944737004E-01 -0.6286110101252E-01
-0.1201435995219E+00 -0.8655341365260E-01
-0.1408505034406E+00 -0.1135259641219E+00
-0.1607418699821E+00 -0.1433584166751E+00
-0.1800488540565E+00 -0.1756932032710E+00
-0.1989556402509E+00 -0.2102241778382E+00
-0.2176078820967E+00 -0.2466896576657E+00
-0.2361178207097E+00 -0.2848675619257E+00
-0.2545696016141E+00 -0.3245709792296E+00
-0.2730258547634E+00 -0.3656413017534E+00
-0.2915331164243E+00 -0.4079397586272E+00
-0.3101216966986E+00 -0.4513398078705E+00
-0.3287991077925E+00 -0.4957201415931E+00
-0.3475394461750E+00 -0.5409584500309E+00
-0.3662684789217E+00 -0.5869237228398E+00
-0.3848441814213E+00 -0.6334679582561E+00
-0.4030302639361E+00 -0.6804154866883E+00
-0.4698785696770E-01 -0.2705888463992E-01
-0.7015570636050E-01 -0.4264373102794E-01
-0.9164458087581E-01 -0.6271700785556E-01
-0.1118866905304E+00 -0.8665431286520E-01
-0.1312139485337E+00 -0.1139421964893E+00
-0.1498850412037E+00 -0.1441530155339E+00
-0.1681045652144E+00 -0.1769272793012E+00
-0.1860356009760E+00 -0.2119609395680E+00
-0.2038078610727E+00 -0.2489973844038E+00
-0.2215227576041E+00 -0.2878216579331E+00
-0.2392581085776E+00 -0.3282552772498E+00
-0.2570732215244E+00 -0.3701489861920E+00
-0.2750126623204E+00 -0.4133743195190E+00
-0.2931055745147E+00 -0.4578162023090E+00
-0.3113596593059E+00 -0.5033660471854E+00
-0.3297513976774E+00 -0.5499153341286E+00
-0.3482119856097E+00 -0.5973473477088E+00
-0.3666086961169E+00 -0.6455279498901E+00
-0.3847195700944E+00 -0.6942936001448E+00
-0.4413750706100E-01 -0.2672661625321E-01
-0.6516583950518E-01 -0.4235959791999E-01
-0.8481330661098E-01 -0.6257769605891E-01
-0.1034545757144E+00 -0.8673501725946E-01
-0.1213769300654E+00 -0.1143054420233E+00
-0.1388037528758E+00 -0.1448551247805E+00
-0.1559113764396E+00 -0.1780231896795E+00
-0.1728404596986E+00 -0.2135078431475E+00
-0.1897037317851E+00 -0.2510574619321E+00
-0.2065909498403E+00 -0.2904640191836E+00
-0.2235729614922E+00 -0.3315572590330E+00
-0.2407052573536E+00 -0.3741971337677E+00
-0.2580300715687E+00 -0.4182654079748E+00
-0.2755751425650E+00 -0.4636584285616E+00
-0.2933482777884E+00 -0.5102802482279E+00
-0.3113285405247E+00 -0.5580359549528E+00
-0.3294532183860E+00 -0.6068227955281E+00
-0.3476002423994E+00 -0.6565199789041E+00
-0.3655642605200E+00 -0.7069753704540E+00
-0.4123017835385E-01 -0.2641672386510E-01
-0.6007782570591E-01 -0.4209467515725E-01
-0.7785217622787E-01 -0.6244071855612E-01
-0.9486662427151E-01 -0.8679083559359E-01
-0.1113611042886E+00 -0.1146082968491E+00
-0.1275216861336E+00 -0.1454542018831E+00
-0.1434949110141E+00 -0.1789668057474E+00
-0.1593978168235E+00 -0.2148466545744E+00
-0.1753251798542E+00 -0.2528469214707E+00
-0.1913543137920E+00 -0.2927661758915E+00
-0.2075484612009E+00 -0.3344420343343E+00
-0.2239587882747E+00 -0.3777433494088E+00
-0.2406248052731E+00 -0.4225618602633E+00
-0.2575725726416E+00 -0.4688050942820E+00
-0.2748098993209E+00 -0.5163894594370E+00
-0.2923186179133E+00 -0.5652332746631E+00
-0.3100427642227E+00 -0.6152472536209E+00
-0.3278722720772E+00 -0.6663233314708E+00
-0.3456206377750E+00 -0.7183200321893E+00
-0.3827388723357E-01 -0.2612921145733E-01
-0.5490520592743E-01 -0.4184824212829E-01
-0.7077868080813E-01 -0.6230391248274E-01
-0.8614331067955E-01 -0.8681764260070E-01
-0.1011893861622E+00 -0.1148442537508E+00
-0.1160639442157E+00 -0.1459409675624E+00
-0.1308824060401E+00 -0.1797456603406E+00
-0.1457371225604E+00 -0.2159612332819E+00
-0.1607040352817E+00 -0.2543453594255E+00
-0.1758472761700E+00 -0.2947027431790E+00
-0.1912218670070E+00 -0.3368783744193E+00
-0.2068741370440E+00 -0.3807495425209E+00
-0.2228404551817E+00 -0.4262175385932E+00
-0.2391448977330E+00 -0.4732006504659E+00
-0.2557951406399E+00 -0.5216271761738E+00
-0.2727759423293E+00 -0.5714281250578E+00
-0.2900387020953E+00 -0.6225270617701E+00
-0.3074866334938E+00 -0.6748279802063E+00
-0.3249542203727E+00 -0.7281993800576E+00
-0.3527702660002E-01 -0.2586405881238E-01
-0.4966214822511E-01 -0.4161965850829E-01
-0.6361112012383E-01 -0.6216542134849E-01
-0.7730606644181E-01 -0.8681192485715E-01
-0.9088578796373E-01 -0.1150077773181E+00
-0.1044568792117E+00 -0.1463075166219E+00
-0.1181025261856E+00 -0.1803491023115E+00
-0.1318894747164E+00 -0.2168377405817E+00
-0.1458740500335E+00 -0.2555352126600E+00
-0.1601065262282E+00 -0.2962517790372E+00
-0.1746331177156E+00 -0.3388391715223E+00
-0.1894948068096E+00 -0.3831825094378E+00
-0.2047243825565E+00 -0.4291920600806E+00
-0.2203435968092E+00 -0.4767962912313E+00
-0.2363598185933E+00 -0.5259347681100E+00
-0.2527608361032E+00 -0.5765505138239E+00
-0.2695059479211E+00 -0.6285792404930E+00
-0.2865127997094E+00 -0.6819363270981E+00
-0.3036388200264E+00 -0.7364996811777E+00
-0.3224829621043E-01 -0.2562121827877E-01
-0.4436333494696E-01 -0.4140836957562E-01
-0.5636846190905E-01 -0.6202371604612E-01
-0.6837711999996E-01 -0.8677082262714E-01
-0.8047524383726E-01 -0.1150943714994E+00
-0.9272790182472E-01 -0.1465474168586E+00
-0.1051851566093E+00 -0.1807684339564E+00
-0.1178873907149E+00 -0.2174648248272E+00
-0.1308706435960E+00 -0.2564020031063E+00
-0.1441707282520E+00 -0.2973951028086E+00
-0.1578245037907E+00 -0.3403018482708E+00
-0.1718671053494E+00 -0.3850144531213E+00
-0.1863272861396E+00 -0.4314514475506E+00
-0.2012240971466E+00 -0.4795507566595E+00
-0.2165643769431E+00 -0.5292624528722E+00
-0.2323389725819E+00 -0.5805407820343E+00
-0.2485155000312E+00 -0.6333328347737E+00
-0.2650270070899E+00 -0.6875647189133E+00
-0.2817555630543E+00 -0.7431233231836E+00
-0.2919662877283E-01 -0.2540061328215E-01
-0.3902384337987E-01 -0.4121391226285E-01
-0.4907019299398E-01 -0.6187761417164E-01
-0.5937932697189E-01 -0.8669216664959E-01
-0.6998342277478E-01 -0.1151006379017E+00
-0.8090527705624E-01 -0.1466557936409E+00
-0.9216117846304E-01 -0.1809970279864E+00
-0.1037645578157E+00 -0.2178337787600E+00
-0.1157306211615E+00 -0.2569345457153E+00
-0.1280801997961E+00 -0.2981185664033E+00
-0.1408402970672E+00 -0.3412487071702E+00
-0.1540397175378E+00 -0.3862234278207E+00
-0.1677027083397E+00 -0.4329686873965E+00
-0.1818452050823E+00 -0.4814310216699E+00
-0.1964732335153E+00 -0.5315701312255E+00
-0.2115806335663E+00 -0.5833505947726E+00
-0.2271436035507E+00 -0.6367300580602E+00
-0.2431113263561E+00 -0.6916447253856E+00
-0.2593918658030E+00 -0.7479901909836E+00
-0.2613111287343E-01 -0.2520213863869E-01
-0.3365902152220E-01 -0.4103592182395E-01
-0.4173616438493E-01 -0.6172629722956E-01
-0.5033599315541E-01 -0.8657450903780E-01
-0.5943653287512E-01 -0.1150243235078E+00
-0.6901790914489E-01 -0.1466293981944E+00
-0.7906223088763E-01 -0.1810304212946E+00
-0.8955556615138E-01 -0.2179386652888E+00
-0.1004918698812E+00 -0.2571251147418E+00
-0.1118765620730E+00 -0.2984122717166E+00
-0.1237263455412E+00 -0.3416672118242E+00
-0.1360632348748E+00 -0.3867936983614E+00
-0.1489064899442E+00 -0.4337241821262E+00
-0.1622684770349E+00 -0.4824128568371E+00
-0.1761540610806E+00 -0.5328280689219E+00
-0.1905598978111E+00 -0.5849437510738E+00
-0.2054708502731E+00 -0.6387272263691E+00
-0.2208526836653E+00 -0.6941241753121E+00
-0.2366403931853E+00 -0.7510387466206E+00
-0.2306091321108E-01 -0.2502566267383E-01
-0.2828435961970E-01 -0.4087413899675E-01
-0.3438643097660E-01 -0.6156932538533E-01
-0.4127069106519E-01 -0.8641714766912E-01
-0.4886111784267E-01 -0.1148643568247E+00
-0.5709511706555E-01 -0.1464666581366E+00
-0.6592046131165E-01 -0.1808663834380E+00
-0.7529562704571E-01 -0.2177764088190E+00
-0.8519303646973E-01 -0.2569695644759E+00
-0.9560236676270E-01 -0.2982707291323E+00
-0.1065296386616E+00 -0.3415501933318E+00
-0.1179896488236E+00 -0.3867160059001E+00
-0.1299961814958E+00 -0.4337060877972E+00
-0.1425575401890E+00 -0.4824812500094E+00
-0.1556770122469E+00 -0.5330174135936E+00
-0.1693537712748E+00 -0.5852968027609E+00
-0.1835812243950E+00 -0.6392954763258E+00
-0.1983418434149E+00 -0.6949679528673E+00
-0.2135980146111E+00 -0.7522268532460E+00
-0.1999518918254E-01 -0.2487103118888E-01
-0.2291535907429E-01 -0.4072841761041E-01
-0.2704108787928E-01 -0.6140664956751E-01
-0.3220707233692E-01 -0.8622014366895E-01
-0.3828384849441E-01 -0.1146208718027E+00
-0.4516640392165E-01 -0.1461677092354E+00
-0.5276826809274E-01 -0.1805049583088E+00
-0.6102028150623E-01 -0.2173468499477E+00
-0.6987319205702E-01 -0.2564674014056E+00
-0.7930070629253E-01 -0.2976929530918E+00
-0.8929785146828E-01 -0.3408959766803E+00
-0.9987181773295E-01 -0.3859877336516E+00
-0.1110304225225E+00 -0.4329105284527E+00
-0.1227773751176E+00 -0.4816306795813E+00
-0.1351139010382E+00 -0.5321305368914E+00
-0.1480412710961E+00 -0.5843994732003E+00
-0.1615611042581E+00 -0.6384212614894E+00
-0.1756723591086E+00 -0.6941585585410E+00
-0.1903647539611E+00 -0.7515323662743E+00
-0.1694301368636E-01 -0.2473807331053E-01
-0.1756740168016E-01 -0.4059873263873E-01
-0.1972010706594E-01 -0.6123862086289E-01
-0.2316868031863E-01 -0.8598433187574E-01
-0.2773131421773E-01 -0.1142952193163E+00
-0.3326122586870E-01 -0.1457344080008E+00
-0.3963804193014E-01 -0.1799484783055E+00
-0.4676510621152E-01 -0.2166527624021E+00
-0.5457149260521E-01 -0.2556218061220E+00
-0.6301481701995E-01 -0.2966824923620E+00
-0.7207887822824E-01 -0.3397084239804E+00
-0.8176291932321E-01 -0.3846129685225E+00
-0.9206830186573E-01 -0.4313416824257E+00
-0.1029935743875E+00 -0.4798652331338E+00
-0.1145373550229E+00 -0.5301711946357E+00
-0.1267024753948E+00 -0.5822548687618E+00
-0.1394982282242E+00 -0.6361066224945E+00
-0.1529394930775E+00 -0.6916964370813E+00
-0.1670427232990E+00 -0.7489535029431E+00
-0.1391328883943E-01 -0.2462660909310E-01
-0.1225561375742E-01 -0.4048518858915E-01
-0.1244316740189E-01 -0.6106599715719E-01
-0.1417875507398E-01 -0.8571132430937E-01
-0.1722980642706E-01 -0.1138899662735E+00
-0.2140875305291E-01 -0.1451703251490E+00
-0.2656189950159E-01 -0.1792015509095E+00
-0.3256541186796E-01 -0.2156998318902E+00
-0.3932683158684E-01 -0.2544396043294E+00
-0.4678767418783E-01 -0.2952473940175E+00
-0.5492035693638E-01 -0.3379968932176E+00
-0.6371589293937E-01 -0.3826024569276E+00
-0.7316870630748E-01 -0.4290117382086E+00
-0.8327158705745E-01 -0.4771985682631E+00
-0.9401994964894E-01 -0.5271545006281E+00
-0.1054175503830E+00 -0.5788794776904E+00
-0.1174806330165E+00 -0.6323692264700E+00
-0.1302391069576E+00 -0.6876000717811E+00
-0.1437350321999E+00 -0.7445089963841E+00
-0.1091466725595E-01 -0.2453645912373E-01
-0.6994738741838E-02 -0.4038802838085E-01
-0.5229494671465E-02 -0.6088994722093E-01
-0.5260049126400E-02 -0.8540350699590E-01
-0.6805113135592E-02 -0.1134088828631E+00
-0.9637641784256E-02 -0.1444807205130E+00
-0.1357142810393E-01 -0.1782710181657E+00
-0.1845595181885E-01 -0.2144965971429E+00
-0.2417750152320E-01 -0.2529311869012E+00
-0.3066159364450E-01 -0.2934001006954E+00
-0.3786919779192E-01 -0.3357761117009E+00
-0.4578288267013E-01 -0.3799734535128E+00
-0.5438966635885E-01 -0.4259407178429E+00
-0.6367595504817E-01 -0.4736537121933E+00
-0.7363332656111E-01 -0.5231067083689E+00
-0.8426574978818E-01 -0.5743029470995E+00
-0.9559554859973E-01 -0.6272421625373E+00
-0.1076664912294E+00 -0.6819058306598E+00
-0.1205446228595E+00 -0.7382380223318E+00
-0.7955473053533E-02 -0.2446745572933E-01
-0.1799009289202E-02 -0.4030764250763E-01
 0.1902298962347E-02 -0.6071205242140E-01
 0.3565356809494E-02 -0.8506403088386E-01
 0.3517684979274E-02 -0.1128569192792E+00
 0.2024189388343E-02 -0.1436725012912E+00
-0.6974372183054E-03 -0.1771658914292E+00
-0.4470640869462E-02 -0.2130543559155E+00
-0.9160869047036E-02 -0.2511103821537E+00
-0.1467785024910E-01 -0.2911572847999E+00
-0.2097113133747E-01 -0.3330659686485E+00
-0.2801470348040E-01 -0.3767494681918E+00
-0.3578772847450E-01 -0.4221561740580E+00
-0.4426957797832E-01 -0.4692627066144E+00
-0.5344733947790E-01 -0.5180648061953E+00
-0.6332443555557E-01 -0.5685676401629E+00
-0.7392829995665E-01 -0.6207734887167E+00
-0.8531517899747E-01 -0.6746675525809E+00
-0.9757306648591E-01 -0.7301998889610E+00
-0.5043626432892E-02 -0.2441945577123E-01
 0.3317975536902E-02 -0.4024457833712E-01
 0.8934369787119E-02 -0.6053430623210E-01
 0.1227623168204E-01 -0.8469679762429E-01
 0.1371441068624E-01 -0.1122401733323E+00
 0.1354977361825E-01 -0.1427541655697E+00
 0.1203027731180E-01 -0.1758972637102E+00
 0.9357710532805E-02 -0.2113870385792E+00
 0.5686932091156E-02 -0.2489942831966E+00
 0.1123683551272E-02 -0.2885396227901E+00
-0.4270278597118E-02 -0.3298912306619E+00
-0.1046033172679E-01 -0.3729599162919E+00
-0.1741735448445E-01 -0.4176927670355E+00
-0.2511300672488E-01 -0.4640661039002E+00
-0.3352922676119E-01 -0.5120759307909E+00
-0.4266811689702E-01 -0.5617279753372E+00
-0.5256120754170E-01 -0.6130255215541E+00
-0.6327572170068E-01 -0.6659558452399E+00
-0.7491927367939E-01 -0.7204734414899E+00
-0.2186573370166E-02 -0.2439235453605E-01
 0.8343366055929E-02 -0.4019954892302E-01
 0.1584978975151E-01 -0.6035911149898E-01
 0.2085236358139E-01 -0.8430644118607E-01
 0.2376197619352E-01 -0.1115658508819E+00
 0.2491329687737E-01 -0.1417357337777E+00
 0.2458315298208E-01 -0.1744782028335E+00
 0.2299764250503E-01 -0.2095110530019E+00
 0.2033128501928E-01 -0.2466030343839E+00
 0.1670487323204E-01 -0.2855715137674E+00
 0.1219125063856E-01 -0.3262811847703E+00
 0.6833573107723E-02 -0.3686396777836E+00
 0.6696433441389E-03 -0.4125917285811E+00
-0.6263776500587E-02 -0.4581123234276E+00
-0.1394282385808E-01 -0.5051966059832E+00
-0.2236752192514E-01 -0.5538495507452E+00
-0.3157250355496E-01 -0.6040738669443E+00
-0.4163444182809E-01 -0.6558570595303E+00
-0.5267811431987E-01 -0.7091560838176E+00
 0.6087821855266E-03 -0.2438609962043E-01
 0.1326517640998E-01 -0.4017343988965E-01
 0.2263269462911E-01 -0.6018927484402E-01
 0.2927473152043E-01 -0.8389830597159E-01
 0.3363857093698E-01 -0.1108422206495E+00
 0.3609029887844E-01 -0.1406286698993E+00
 0.3693407726946E-01 -0.1729236273205E+00
 0.3641928550339E-01 -0.2074451027159E+00
 0.3473936369246E-01 -0.2439595787763E+00
 0.3202964447775E-01 -0.2822807435587E+00
 0.2837374430487E-01 -0.3222692094865E+00
 0.2382312862724E-01 -0.3638285662642E+00
 0.1842464375648E-01 -0.4069002167503E+00
 0.1222422951197E-01 -0.4514568732798E+00
 0.5252188833885E-02 -0.4974918098750E+00
-0.2488700059196E-02 -0.5450080480208E+00
-0.1103526159534E-01 -0.5940061832701E+00
-0.2047218262686E-01 -0.6444719388808E+00
-0.3093898103621E-01 -0.6963622739366E+00
 0.3336136457736E-02 -0.2440070324327E-01
 0.1807238572622E-01 -0.4016731225308E-01
 0.2926841618062E-01 -0.6002799846908E-01
 0.3752565593290E-01 -0.8347842543899E-01
 0.4332381963908E-01 -0.1100785701874E+00
 0.4705783394047E-01 -0.1394458014473E+00
 0.4905755292545E-01 -0.1712501766137E+00
 0.4959453654385E-01 -0.2052099938639E+00
 0.4888033013472E-01 -0.2410893864880E+00
 0.4706421563005E-01 -0.2786981183886E+00
 0.4424017371821E-01 -0.3178923013978E+00
 0.4046757791431E-01 -0.3585707408707E+00
 0.3580263193465E-01 -0.4006706042940E+00
 0.3030127054216E-01 -0.4441614975455E+00
 0.2400086890502E-01 -0.4890339420615E+00
 0.1690769394326E-01 -0.5352879848890E+00
 0.8983503570995E-02 -0.5829207356582E+00
 0.1367893894431E-03 -0.6319140577545E+00
-0.9784595400928E-02 -0.6822217532533E+00
 0.5989832724820E-02 -0.2443624785504E-01
 0.2275503234281E-01 -0.4018239348311E-01
 0.3574361489361E-01 -0.5987886566865E-01
 0.4558895410897E-01 -0.8305350076224E-01
 0.5279894675069E-01 -0.1092851626475E+00
 0.5779463991095E-01 -0.1382012339938E+00
 0.6092987424404E-01 -0.1694760684751E+00
 0.6249724913132E-01 -0.2028284211731E+00
 0.6272554701645E-01 -0.2380201512931E+00
 0.6177734730652E-01 -0.2748570497180E+00
 0.5975650164907E-01 -0.3131905299705E+00
 0.5672966967275E-01 -0.3529140187446E+00
 0.5276265514192E-01 -0.3939596517915E+00
 0.4792227881359E-01 -0.4362932009335E+00
 0.4225361826326E-01 -0.4799016524483E+00
 0.3576712619827E-01 -0.5247812473107E+00
 0.2842377933900E-01 -0.5709246032240E+00
 0.2012602021033E-01 -0.6183078598512E+00
 0.1071038901397E-01 -0.6668778036090E+00
 0.8564893079402E-02 -0.2449287293214E-01
 0.2730429913654E-01 -0.4022004555335E-01
 0.4204640737212E-01 -0.5974581850101E-01
 0.5345007959248E-01 -0.8263089376851E-01
 0.6204690572756E-01 -0.1084732089337E+00
 0.6828125403359E-01 -0.1369102765025E+00
 0.7252923369396E-01 -0.1676209632099E+00
 0.7510333427946E-01 -0.2003247645519E+00
 0.7624867693846E-01 -0.2347814989386E+00
 0.7614045203995E-01 -0.2707931464259E+00
 0.7489182704933E-01 -0.3082064881512E+00
 0.7257585404191E-01 -0.3469091665260E+00
 0.6926808613857E-01 -0.3868276378177E+00
 0.6504717928317E-01 -0.4279232804295E+00
 0.5996652119611E-01 -0.4701787234917E+00
 0.5404154783794E-01 -0.5135856711118E+00
 0.4723309903666E-01 -0.5581317305957E+00
 0.3943783146586E-01 -0.6037863560669E+00
 0.3048083310194E-01 -0.6504852805245E+00
 0.1105701596928E-01 -0.2457071939307E-01
 0.3171259805678E-01 -0.4028166187971E-01
 0.4816651899872E-01 -0.5963313125733E-01
 0.6109628302887E-01 -0.8221863980285E-01
 0.7105252242789E-01 -0.1076548615041E+00
 0.7850014912812E-01 -0.1355893542818E+00
 0.8383586604524E-01 -0.1657058107974E+00
 0.8739091075788E-01 -0.1977248669998E+00
 0.8942583545838E-01 -0.2314046755218E+00
 0.9012776004777E-01 -0.2665437661510E+00
 0.8961859419706E-01 -0.3029846742468E+00
 0.8797655591356E-01 -0.3406090812120E+00
 0.8528698037252E-01 -0.3793373175081E+00
 0.8164138909283E-01 -0.4191260939942E+00
 0.7710185422993E-01 -0.4599529507268E+00
 0.7168979441298E-01 -0.5018035957504E+00
 0.6536699590023E-01 -0.5446607353385E+00
 0.5802435115047E-01 -0.5884878776550E+00
 0.4947311713287E-01 -0.6332072451973E+00
 0.1346251911171E-01 -0.2466966794375E-01
 0.3597368424848E-01 -0.4036846434666E-01
 0.5409549374384E-01 -0.5954534959579E-01
 0.6851677693132E-01 -0.8182558995208E-01
 0.7980257544613E-01 -0.1068432330324E+00
 0.8843579852884E-01 -0.1342559279703E+00
 0.9483211274453E-01 -0.1637526979078E+00
 0.9934034923589E-01 -0.1950558605551E+00
 0.1022355939407E+00 -0.2279222918237E+00
 0.1037162852409E+00 -0.2621476395217E+00
 0.1039125596371E+00 -0.2975709294506E+00
 0.1029061667639E+00 -0.3340680270417E+00
 0.1007921127294E+00 -0.3715529216549E+00
 0.9767595194050E-01 -0.4099777712619E+00
 0.9362853697664E-01 -0.4493147246485E+00
 0.8867756692477E-01 -0.4895417831756E+00
 0.8278838041307E-01 -0.5306330366808E+00
 0.7584755568853E-01 -0.5725522868097E+00
 0.6764675228737E-01 -0.6152101423730E+00
 0.1577803666151E-01 -0.2478890675491E-01
 0.4008289483225E-01 -0.4048044546438E-01
 0.5982711489550E-01 -0.5948773962248E-01
 0.7570279949317E-01 -0.8146164968196E-01
 0.8828581974700E-01 -0.1060523930613E+00
 0.9807471822875E-01 -0.1329283878043E+00
 0.1055024702496E+00 -0.1617846907905E+00
 0.1109343561552E+00 -0.1923459146976E+00
 0.1146589937250E+00 -0.2243682162385E+00
 0.1168857506048E+00 -0.2576444777427E+00
 0.1177527586766E+00 -0.2920118386716E+00
 0.1173430319223E+00 -0.3273408669024E+00
 0.1157609875268E+00 -0.3635390792579E+00
 0.1131276651774E+00 -0.4005548005356E+00
 0.1095224542079E+00 -0.4383549803370E+00
 0.1049791150366E+00 -0.4769093942679E+00
 0.9946602481076E-01 -0.5161782575563E+00
 0.9287639480677E-01 -0.5561130449584E+00
 0.8497722992529E-01 -0.5966535753921E+00
-0.1621831074031E+00 -0.1280960079979E+00
-0.2470512607555E+00 -0.2113052115130E+00
-0.3160840207556E+00 -0.2689819136480E+00
-0.3756529818135E+00 -0.3062447379519E+00
-0.4271390442627E+00 -0.3294793494502E+00
-0.4713449922868E+00 -0.3433837920870E+00
-0.5089565363383E+00 -0.3507270559475E+00
-0.5405142008865E+00 -0.3531641268334E+00
-0.5663742144666E+00 -0.3520596080194E+00
-0.5868651433001E+00 -0.3484008699429E+00
-0.6023088592576E+00 -0.3430081090391E+00
-0.6130164338896E+00 -0.3369928476215E+00
-0.6195979286027E+00 -0.3302426027855E+00
-0.6225518450077E+00 -0.3230235443624E+00
-0.6220194354685E+00 -0.3165035458325E+00
-0.6180069514922E+00 -0.3117777646432E+00
-0.6105220964937E+00 -0.3098914215884E+00
-0.5996574377671E+00 -0.3118172328252E+00
-0.5856307271068E+00 -0.3185495879036E+00
-0.1540594545445E+00 -0.1083832453985E+00
-0.2443011699084E+00 -0.1819371631338E+00
-0.3154517204664E+00 -0.2420712133967E+00
-0.3754185398357E+00 -0.2834972815696E+00
-0.4269935208654E+00 -0.3104303379614E+00
-0.4712091167543E+00 -0.3274148402112E+00
-0.5088609700982E+00 -0.3373695833881E+00
-0.5405215209626E+00 -0.3420948975465E+00
-0.5665522074039E+00 -0.3430268941265E+00
-0.5872689731561E+00 -0.3411767103176E+00
-0.6029724882556E+00 -0.3373278847924E+00
-0.6139540861174E+00 -0.3325329916154E+00
-0.6207592506061E+00 -0.3266668628645E+00
-0.6238391701459E+00 -0.3201965260341E+00
-0.6234516654565E+00 -0.3145124112530E+00
-0.6197366064656E+00 -0.3107735586335E+00
-0.6127485048744E+00 -0.3099562753845E+00
-0.6025652546677E+00 -0.3129172620474E+00
-0.5893633645832E+00 -0.3204983276495E+00
-0.1463282136133E+00 -0.9476716577683E-01
-0.2383518394972E+00 -0.1589363884219E+00
-0.3121459340955E+00 -0.2166285437377E+00
-0.3733184494751E+00 -0.2604015749109E+00
-0.4253998116596E+00 -0.2905651207733E+00
-0.4698880390006E+00 -0.3105801342242E+00
-0.5077454411912E+00 -0.3232140924633E+00
-0.5396245174806E+00 -0.3303184382710E+00
-0.5659207480465E+00 -0.3333770337457E+00
-0.5869587480288E+00 -0.3334164256804E+00
-0.6030310346179E+00 -0.3312087072090E+00
-0.6144203844464E+00 -0.3277760962306E+00
-0.6215888423943E+00 -0.3230293681614E+00
-0.6249331935846E+00 -0.3175787184823E+00
-0.6247988518940E+00 -0.3129392973938E+00
-0.6214409963166E+00 -0.3103054859278E+00
-0.6149759612737E+00 -0.3105997932628E+00
-0.6054884569709E+00 -0.3145830248308E+00
-0.5931553893052E+00 -0.3230063233092E+00
-0.1394220694337E+00 -0.8470218807205E-01
-0.2311009876860E+00 -0.1406875839481E+00
-0.3065644949030E+00 -0.1942609732443E+00
-0.3692157631051E+00 -0.2381164160785E+00
-0.4221783884397E+00 -0.2705033264100E+00
-0.4672094153233E+00 -0.2932058120025E+00
-0.5054633311147E+00 -0.3084473488450E+00
-0.5376981753576E+00 -0.3179598572087E+00
-0.5643719661134E+00 -0.3232087768510E+00
-0.5858355156405E+00 -0.3252207580778E+00
-0.6023837785374E+00 -0.3247636441058E+00
-0.6143010689585E+00 -0.3228383064297E+00
-0.6219590302631E+00 -0.3194114654051E+00
-0.6256972122770E+00 -0.3152023245818E+00
-0.6259303480393E+00 -0.3117872576735E+00
-0.6230091866660E+00 -0.3103692671153E+00
-0.6171174162187E+00 -0.3118220889713E+00
-0.6083648685180E+00 -0.3168367992437E+00
-0.5969332263788E+00 -0.3260971584307E+00
-0.1333512064404E+00 -0.7692255075066E-01
-0.2234205272485E+00 -0.1260178663008E+00
-0.2994951516113E+00 -0.1750164141662E+00
-0.3633275816705E+00 -0.2175471185778E+00
-0.4172933784468E+00 -0.2509559815977E+00
-0.4630681941978E+00 -0.2757365669497E+00
-0.5018948344774E+00 -0.2933395878516E+00
-0.5346272492238E+00 -0.3051948322610E+00
-0.5617970857298E+00 -0.3126521901268E+00
-0.5837935719681E+00 -0.3167012809666E+00
-0.6009226695744E+00 -0.3180975521155E+00
-0.6134797810784E+00 -0.3178143566550E+00
-0.6217462256012E+00 -0.3158828996887E+00
-0.6260025049912E+00 -0.3131037586947E+00
-0.6267199869760E+00 -0.3110682930425E+00
-0.6243280084394E+00 -0.3109670427890E+00
-0.6190773277656E+00 -0.3136286337623E+00
-0.6111086549784E+00 -0.3196887730425E+00
-0.6006075970438E+00 -0.3297764134007E+00
-0.1280053752824E+00 -0.7071700441180E-01
-0.2157467097238E+00 -0.1140656247405E+00
-0.2915388574095E+00 -0.1585933751785E+00
-0.3560454709035E+00 -0.1990323285476E+00
-0.4108798066134E+00 -0.2324995160070E+00
-0.4574560050841E+00 -0.2586462932999E+00
-0.4969717704152E+00 -0.2782208784163E+00
-0.5303209674532E+00 -0.2922476025393E+00
-0.5580971001985E+00 -0.3018678892728E+00
-0.5807290722472E+00 -0.3079832834034E+00
-0.5985386431499E+00 -0.3113140962644E+00
-0.6118397848609E+00 -0.3127898545227E+00
-0.6208275591978E+00 -0.3125058528736E+00
-0.6257224761393E+00 -0.3113185236881E+00
-0.6270422537426E+00 -0.3107970455560E+00
-0.6252799125387E+00 -0.3121027324684E+00
-0.6207484300315E+00 -0.3160200296506E+00
-0.6136191969804E+00 -0.3231371911377E+00
-0.6040783100111E+00 -0.3340342038503E+00
-0.1232574226848E+00 -0.6564176811253E-01
-0.2082859738453E+00 -0.1042082538697E+00
-0.2831115286253E+00 -0.1446059914219E+00
-0.3477478545650E+00 -0.1826136477904E+00
-0.4031663228529E+00 -0.2154664204858E+00
-0.4504587777520E+00 -0.2423355493577E+00
-0.4906893559748E+00 -0.2634287394318E+00
-0.5247262468881E+00 -0.2793709523240E+00
-0.5531932088517E+00 -0.2910411815281E+00
-0.5765480715422E+00 -0.2992057175450E+00
-0.5951270391241E+00 -0.3045198789058E+00
-0.6092663088189E+00 -0.3078464199337E+00
-0.6190806638666E+00 -0.3093371881638E+00
-0.6247303351777E+00 -0.3098786523594E+00
-0.6267697137589E+00 -0.3109858056156E+00
-0.6257415827348E+00 -0.3137757914070E+00
-0.6220137877719E+00 -0.3189880343095E+00
-0.6157850633278E+00 -0.3271671419309E+00
-0.6072380399657E+00 -0.3388463783017E+00
-0.1189895170339E+00 -0.6140315809667E-01
-0.2011244160927E+00 -0.9598655845680E-01
-0.2744844648010E+00 -0.1326828955350E+00
-0.3387479437613E+00 -0.1681827656604E+00
-0.3943997061192E+00 -0.2000016799751E+00
-0.4422204578839E+00 -0.2270811549559E+00
-0.4831003484600E+00 -0.2492565431191E+00
-0.5178324046624E+00 -0.2668153046958E+00
-0.5470341937049E+00 -0.2803678593443E+00
-0.5711732222626E+00 -0.2905165767665E+00
-0.5905926153122E+00 -0.2978245851913E+00
-0.6056495333155E+00 -0.3030635215408E+00
-0.6163849187949E+00 -0.3064288952829E+00
-0.6228988834946E+00 -0.3088105083033E+00
-0.6257723776751E+00 -0.3116402625212E+00
-0.6255844831396E+00 -0.3159769034366E+00
-0.6227490763382E+00 -0.3225126150305E+00
-0.6174874537824E+00 -0.3317496866226E+00
-0.6099750374380E+00 -0.3441747091222E+00
-0.1151004365517E+00 -0.5779819428000E-01
-0.1942832607266E+00 -0.8905570832317E-01
-0.2658266841767E+00 -0.1224946119138E+00
-0.3292853169545E+00 -0.1555657597390E+00
-0.3848065882233E+00 -0.1861244105644E+00
-0.4329064163565E+00 -0.2130433895054E+00
-0.4742962445195E+00 -0.2359254471993E+00
-0.5096665352456E+00 -0.2548003787114E+00
-0.5395983951153E+00 -0.2700357354429E+00
-0.5645479059279E+00 -0.2820636187022E+00
-0.5848536113771E+00 -0.2913374706943E+00
-0.6008877321482E+00 -0.2985175310844E+00
-0.6126236052540E+00 -0.3038271399084E+00
-0.6201017804497E+00 -0.3081325138947E+00
-0.6239187475785E+00 -0.3127562532563E+00
-0.6246765600344E+00 -0.3186848210923E+00
-0.6228252859984E+00 -0.3265598796196E+00
-0.6186033508895E+00 -0.3368411059960E+00
-0.6121758310614E+00 -0.3499671044374E+00
-0.1115060518263E+00 -0.5468208816437E-01
-0.1877491257455E+00 -0.8315244549903E-01
-0.2572367596884E+00 -0.1137583332879E+00
-0.3195339716899E+00 -0.1445666086981E+00
-0.3745778140739E+00 -0.1737765735000E+00
-0.4226790284719E+00 -0.2002895589057E+00
-0.4643874680895E+00 -0.2235805902508E+00
-0.5002830232327E+00 -0.2434981792133E+00
-0.5308906407803E+00 -0.2602081431633E+00
-0.5566371397457E+00 -0.2739831472712E+00
-0.5778442345647E+00 -0.2851611860765E+00
-0.5948900341137E+00 -0.2942785867805E+00
-0.6076864867715E+00 -0.3015701512528E+00
-0.6162158205156E+00 -0.3078528849505E+00
-0.6210780656179E+00 -0.3143172582879E+00
-0.6228848885656E+00 -0.3218641666351E+00
-0.6221118492147E+00 -0.3310806950888E+00
-0.6190087544637E+00 -0.3423825232860E+00
-0.6137279717241E+00 -0.3561581068459E+00
-0.1081376647953E+00 -0.5194906853697E-01
-0.1814910134271E+00 -0.7807306381953E-01
-0.2487655325848E+00 -0.1062347362242E+00
-0.3096143470431E+00 -0.1349893123314E+00
-0.3638651440829E+00 -0.1628561393511E+00
-0.4116841530742E+00 -0.1888191575964E+00
-0.4534880389843E+00 -0.2122992507947E+00
-0.4897521082972E+00 -0.2330276456372E+00
-0.5209361707438E+00 -0.2510131621837E+00
-0.5474257423333E+00 -0.2663899552048E+00
-0.5695153689660E+00 -0.2793846725730E+00
-0.5875784159540E+00 -0.2904061107625E+00
-0.6014723980957E+00 -0.2996853327212E+00
-0.6111237955561E+00 -0.3079674462948E+00
-0.6171234165695E+00 -0.3162925925620E+00
-0.6200790761228E+00 -0.3254641044273E+00
-0.6204802322249E+00 -0.3360100413912E+00
-0.6185820881463E+00 -0.3483000373702E+00
-0.6145227696903E+00 -0.3626698016288E+00
-0.1049397990890E+00 -0.4952045924057E-01
-0.1754700929889E+00 -0.7365825222620E-01
-0.2404320062268E+00 -0.9972260099990E-01
-0.2996050693724E+00 -0.1266485988537E+00
-0.3527837419881E+00 -0.1532385802749E+00
-0.4000451983155E+00 -0.1785850097079E+00
-0.4417055362955E+00 -0.2021033105623E+00
-0.4781502295305E+00 -0.2234568362188E+00
-0.5097738493002E+00 -0.2425389823158E+00
-0.5369148797303E+00 -0.2593703301809E+00
-0.5598338196185E+00 -0.2740768248275E+00
-0.5788888022734E+00 -0.2869440731460E+00
-0.5938915469831E+00 -0.2981861437188E+00
-0.6047175818631E+00 -0.3084577466623E+00
-0.6119353621926E+00 -0.3186363595892E+00
-0.6161352413178E+00 -0.3294179436267E+00
-0.6178079526273E+00 -0.3412671864531E+00
-0.6172077861082E+00 -0.3545054414399E+00
-0.6144579271136E+00 -0.3694131053403E+00
-0.1018680500720E+00 -0.4733693659801E-01
-0.1696454145564E+00 -0.6978242976878E-01
-0.2322344951037E+00 -0.9405329714159E-01
-0.2895531216213E+00 -0.1193746836287E+00
-0.3414170570008E+00 -0.1447904246890E+00
-0.3878618549302E+00 -0.1695095139813E+00
-0.4291355253488E+00 -0.1929719537374E+00
-0.4655530610804E+00 -0.2148090221877E+00
-0.4974501495306E+00 -0.2348339628621E+00
-0.5251181650698E+00 -0.2529785658418E+00
-0.5487806893523E+00 -0.2692820000721E+00
-0.5687714080609E+00 -0.2839169950757E+00
-0.5848673869677E+00 -0.2970693789195E+00
-0.5969011570681E+00 -0.3092897837913E+00
-0.6054057889319E+00 -0.3212873342060E+00
-0.6109403480155E+00 -0.3336438065965E+00
-0.6139829437305E+00 -0.3467567961949E+00
-0.6147800638835E+00 -0.3608975463446E+00
-0.6134400325062E+00 -0.3762893069302E+00
-0.9888717253141E-01 -0.4535329204654E-01
-0.1639772193707E+00 -0.6634602366787E-01
-0.2241584555020E+00 -0.8908576639785E-01
-0.2794821931559E+00 -0.1130148715077E+00
-0.3298223481743E+00 -0.1373775967584E+00
-0.3752114232835E+00 -0.1614965219259E+00
-0.4158591836502E+00 -0.1848528625078E+00
-0.4520311094577E+00 -0.2070701793314E+00
-0.4840145166336E+00 -0.2279096329100E+00
-0.5120580706648E+00 -0.2472364433531E+00
-0.5363494287753E+00 -0.2650176936202E+00
-0.5571905245538E+00 -0.2813272973162E+00
-0.5743379688664E+00 -0.2963133553211E+00
-0.5875932326975E+00 -0.3104136504440E+00
-0.5974415650276E+00 -0.3241700051010E+00
-0.6043965615461E+00 -0.3380465991852E+00
-0.6089081280065E+00 -0.3523712107718E+00
-0.6112069288678E+00 -0.3673641906333E+00
-0.6113870256072E+00 -0.3831917193835E+00
-0.9596946983220E-01 -0.4353479145999E-01
-0.1584288386432E+00 -0.6326976963556E-01
-0.2161820564999E+00 -0.8470220142486E-01
-0.2693994432513E+00 -0.1074335637718E+00
-0.3180361245603E+00 -0.1308704643579E+00
-0.3621515275632E+00 -0.1544398569433E+00
-0.4019431205552E+00 -0.1776714933783E+00
-0.4376474668855E+00 -0.2001965495677E+00
-0.4695162775302E+00 -0.2217452833754E+00
-0.4977631111036E+00 -0.2421349077570E+00
-0.5225440152501E+00 -0.2612742284669E+00
-0.5441240178976E+00 -0.2791541903628E+00
-0.5622567594851E+00 -0.2958772192767E+00
-0.5767292025391E+00 -0.3117642172853E+00
-0.5879674847869E+00 -0.3271968634941E+00
-0.5964251287626E+00 -0.3425215411244E+00
-0.6025059488853E+00 -0.3579942269896E+00
-0.6064145700544E+00 -0.3737851906671E+00
-0.6082309703675E+00 -0.3900073239916E+00
-0.9309346011805E-01 -0.4185456626268E-01
-0.1529677189650E+00 -0.6049038901866E-01
-0.2082801466647E+00 -0.8080434701116E-01
-0.2593009125852E+00 -0.1025114169621E+00
-0.3060791394054E+00 -0.1251467506041E+00
-0.3487234389453E+00 -0.1482293036160E+00
-0.3874405702882E+00 -0.1713384667371E+00
-0.4224571763470E+00 -0.1941215755960E+00
-0.4540029300137E+00 -0.2162931780916E+00
-0.4822659171472E+00 -0.2376371443410E+00
-0.5073774997277E+00 -0.2580160393171E+00
-0.5295627406885E+00 -0.2773539498732E+00
-0.5485929706301E+00 -0.2957012310414E+00
-0.5642620600653E+00 -0.3132624959204E+00
-0.5769277887145E+00 -0.3302717253282E+00
-0.5869688228544E+00 -0.3469592983017E+00
-0.5947222725994E+00 -0.3635071320919E+00
-0.6003522007144E+00 -0.3800368850595E+00
-0.6039217933184E+00 -0.3966185905181E+00
-0.9024279105707E-01 -0.4029169845643E-01
-0.1475659151572E+00 -0.5795724541108E-01
-0.2004270871011E+00 -0.7731032252755E-01
-0.2491758342547E+00 -0.9814406774494E-01
-0.2939608235079E+00 -0.1200930631224E+00
-0.3349555766937E+00 -0.1427547671184E+00
-0.3723934104290E+00 -0.1657553414155E+00
-0.4065077547946E+00 -0.1887619650410E+00
-0.4375195694918E+00 -0.2114838064633E+00
-0.4656021697431E+00 -0.2336824489126E+00
-0.4908710382193E+00 -0.2551841287958E+00
-0.5135100773279E+00 -0.2758613137534E+00
-0.5333316153980E+00 -0.2957076566912E+00
-0.5501624272919E+00 -0.3148168547185E+00
-0.5642853437621E+00 -0.3332924384106E+00
-0.5759915002173E+00 -0.3512524369671E+00
-0.5855279537409E+00 -0.3687973163135E+00
-0.5929970830392E+00 -0.3860004425716E+00
-0.5984330364319E+00 -0.4029059703757E+00
-0.8740536479576E-01 -0.3882982759637E-01
-0.1422002721182E+00 -0.5562968516156E-01
-0.1925987712317E+00 -0.7415187129158E-01
-0.2390100505700E+00 -0.9424059087819E-01
-0.2816831108673E+00 -0.1156055152110E+00
-0.3208669268498E+00 -0.1379091260240E+00
-0.3568346362887E+00 -0.1608191013008E+00
-0.3898405234164E+00 -0.1840228372564E+00
-0.4201091979396E+00 -0.2072308420342E+00
-0.4478102625153E+00 -0.2301904348848E+00
-0.4730533819038E+00 -0.2526993586843E+00
-0.4959817684856E+00 -0.2745918912721E+00
-0.5164738091912E+00 -0.2958021471328E+00
-0.5344184310414E+00 -0.3163233307154E+00
-0.5500198602017E+00 -0.3361505574815E+00
-0.5634717046773E+00 -0.3552969641799E+00
-0.5749147623633E+00 -0.3737719950531E+00
-0.5843573354987E+00 -0.3915755129280E+00
-0.5917711977480E+00 -0.4087554381576E+00
-0.8457260997566E-01 -0.3745603038329E-01
-0.1368524447049E+00 -0.5347514546053E-01
-0.1847741527748E+00 -0.7127170208700E-01
-0.2287886132447E+00 -0.9072176437028E-01
-0.2692436221125E+00 -0.1115897592458E+00
-0.3064702128279E+00 -0.1335901975148E+00
-0.3407910332129E+00 -0.1564256688817E+00
-0.3724925265531E+00 -0.1798021053604E+00
-0.4018137497680E+00 -0.2034355072001E+00
-0.4289314850493E+00 -0.2270651877526E+00
-0.4539606325178E+00 -0.2504663167819E+00
-0.4770058898528E+00 -0.2734456799516E+00
-0.4980375843740E+00 -0.2958764714474E+00
-0.5170371120485E+00 -0.3176660594322E+00
-0.5341276849223E+00 -0.3387277691413E+00
-0.5493987189393E+00 -0.3589828937573E+00
-0.5628722869629E+00 -0.3783489013958E+00
-0.5744643317202E+00 -0.3967254954307E+00
-0.5839917742587E+00 -0.4140729949498E+00
 0.2127471803926E-01 -0.2553418114281E-01
 0.5016544509159E-01 -0.4185053924667E-01
 0.7427836300416E-01 -0.6124845707570E-01
 0.9424703009221E-01 -0.8339234414733E-01
 0.1105631387790E+00 -0.1079305563177E+00
 0.1236795675953E+00 -0.1345172713122E+00
 0.1340086530892E+00 -0.1628360252437E+00
 0.1419014974258E+00 -0.1926059801858E+00
 0.1476497159073E+00 -0.2235789873484E+00
 0.1514627465606E+00 -0.2555515168131E+00
 0.1534701717528E+00 -0.2883741329812E+00
 0.1538047486347E+00 -0.3219324294892E+00
 0.1524098199045E+00 -0.3562002475618E+00
 0.1492757324708E+00 -0.3911677270535E+00
 0.1446007469182E+00 -0.4268147526726E+00
 0.1385312320066E+00 -0.4631449144053E+00
 0.1311324308093E+00 -0.5001811036970E+00
 0.1223532943436E+00 -0.5379339899788E+00
 0.1120353350830E+00 -0.5764782307386E+00
 0.2457215968205E-01 -0.2620509396375E-01
 0.5631913689689E-01 -0.4317668254371E-01
 0.8320271504248E-01 -0.6315249225540E-01
 0.1057927191967E+00 -0.8578131082265E-01
 0.1244911110490E+00 -0.1106765324657E+00
 0.1396958892938E+00 -0.1374546591816E+00
 0.1517886918351E+00 -0.1657762588038E+00
 0.1610980657326E+00 -0.1953525415114E+00
 0.1679125742970E+00 -0.2259343918056E+00
 0.1724383600338E+00 -0.2573306891649E+00
 0.1747965662104E+00 -0.2894209741558E+00
 0.1751731548162E+00 -0.3221058217820E+00
 0.1733663181771E+00 -0.3554603254171E+00
 0.1692442043458E+00 -0.3895834287769E+00
 0.1631102091300E+00 -0.4244937797793E+00
 0.1552103722419E+00 -0.4602529749281E+00
 0.1457006816944E+00 -0.4969629835047E+00
 0.1345880778557E+00 -0.5347394114868E+00
 0.1218332506722E+00 -0.5737578549716E+00
 0.2788924894506E-01 -0.2694269900304E-01
 0.6249754260321E-01 -0.4461716953897E-01
 0.9212291683761E-01 -0.6521558920167E-01
 0.1172652411950E+00 -0.8835231446714E-01
 0.1382391640428E+00 -0.1135894927896E+00
 0.1553944150067E+00 -0.1404959275115E+00
 0.1690900240451E+00 -0.1687049773986E+00
 0.1796409969062E+00 -0.1979204976603E+00
 0.1873404474922E+00 -0.2278975923364E+00
 0.1923991309701E+00 -0.2584652764324E+00
 0.1949380152310E+00 -0.2895410512945E+00
 0.1951946748270E+00 -0.3210479093480E+00
 0.1928510530195E+00 -0.3531891074422E+00
 0.1876867076152E+00 -0.3862255451251E+00
 0.1801056461340E+00 -0.4202442561519E+00
 0.1704469104892E+00 -0.4553757497883E+00
 0.1589475226684E+00 -0.4917937867731E+00
 0.1456769790621E+00 -0.5296891658287E+00
 0.1306257753528E+00 -0.5692469877378E+00
 0.3122645850286E-01 -0.2775714813101E-01
 0.6870186382422E-01 -0.4619713595662E-01
 0.1010344666132E+00 -0.6747908635017E-01
 0.1286461681820E+00 -0.9116041133822E-01
 0.1517691980074E+00 -0.1167327445314E+00
 0.1707145399617E+00 -0.1437075870708E+00
 0.1858294220740E+00 -0.1716883291459E+00
 0.1974263104103E+00 -0.2003738395702E+00
 0.2058114311632E+00 -0.2295306191918E+00
 0.2112078826589E+00 -0.2590165941069E+00
 0.2137441368536E+00 -0.2887975842016E+00
 0.2137062591816E+00 -0.3188278515447E+00
 0.2106909770168E+00 -0.3494624297485E+00
 0.2044271946196E+00 -0.3811718673821E+00
 0.1954160250135E+00 -0.4141370557082E+00
 0.1840803767457E+00 -0.4485637034531E+00
 0.1707227162463E+00 -0.4846811902056E+00
 0.1554440877784E+00 -0.5227294115262E+00
 0.1382299786698E+00 -0.5629329116044E+00
 0.3458762065242E-01 -0.2866088810686E-01
 0.7493757295429E-01 -0.4794654060827E-01
 0.1099356399999E+00 -0.6999224198365E-01
 0.1399174859581E+00 -0.9426980306700E-01
 0.1650416449311E+00 -0.1201783956108E+00
 0.1855938911807E+00 -0.1471632657253E+00
 0.2019233248120E+00 -0.1747974972779E+00
 0.2143526786630E+00 -0.2027801764356E+00
 0.2232102372906E+00 -0.2308992174711E+00
 0.2287386547587E+00 -0.2590524075750E+00
 0.2310806441436E+00 -0.2872650883922E+00
 0.2305659414072E+00 -0.3155325366231E+00
 0.2267377324351E+00 -0.3443804340872E+00
 0.2193136770440E+00 -0.3745284437586E+00
 0.2088880913773E+00 -0.4062721110206E+00
 0.1959568243339E+00 -0.4398958179267E+00
 0.1808640005668E+00 -0.4756722322361E+00
 0.1637208552619E+00 -0.5138918075763E+00
 0.1444935414992E+00 -0.5548420558294E+00
 0.3798024016273E-01 -0.2966964219079E-01
 0.8121437317583E-01 -0.4990259969472E-01
 0.1188267188103E+00 -0.7281438986239E-01
 0.1510600004901E+00 -0.9775525272544E-01
 0.1780136458649E+00 -0.1240071271620E+00
 0.1999666800013E+00 -0.1509417910734E+00
 0.2172868177236E+00 -0.1781053771232E+00
 0.2303212978216E+00 -0.2052064954656E+00
 0.2394292152585E+00 -0.2320683633211E+00
 0.2448788683482E+00 -0.2586421136380E+00
 0.2468323464247E+00 -0.2850246463620E+00
 0.2456564018434E+00 -0.3112622545078E+00
 0.2408713940312E+00 -0.3380645605344E+00
 0.2322222211369E+00 -0.3664301015031E+00
 0.2203921983766E+00 -0.3967847920454E+00
 0.2059384512207E+00 -0.4294944899084E+00
 0.1892253448805E+00 -0.4648700010250E+00
 0.1703595685231E+00 -0.5032581916848E+00
 0.1492844046838E+00 -0.5450315177184E+00
 0.4141607145227E-01 -0.3080370937875E-01
 0.8754602888751E-01 -0.5211209236575E-01
 0.1277085448540E+00 -0.7601732156538E-01
 0.1620510114609E+00 -0.1017032538785E+00
 0.1906365508406E+00 -0.1283075056184E+00
 0.2137616999033E+00 -0.1551245298022E+00
 0.2318325592983E+00 -0.1816823747922E+00
 0.2452359615115E+00 -0.2077141148913E+00
 0.2543695457273E+00 -0.2330969192769E+00
 0.2595314410299E+00 -0.2578515384683E+00
 0.2609059819687E+00 -0.2821590490268E+00
 0.2588883668501E+00 -0.3061263894939E+00
 0.2530046531668E+00 -0.3306544776432E+00
 0.2430628583951E+00 -0.3570395357308E+00
 0.2298309958440E+00 -0.3858475822472E+00
 0.2139175172075E+00 -0.4175275886360E+00
 0.1956888960075E+00 -0.4524257399615E+00
 0.1752379432701E+00 -0.4909531743710E+00
 0.1524868563267E+00 -0.5335867087084E+00
 0.4491191666026E-01 -0.3208953469612E-01
 0.9394993612259E-01 -0.5463410524983E-01
 0.1365803687819E+00 -0.7968782729734E-01
 0.1728611571699E+00 -0.1062129584490E+00
 0.2028528245191E+00 -0.1331745224294E+00
 0.2269000981139E+00 -0.1597916485055E+00
 0.2454698569927E+00 -0.1855911086730E+00
 0.2590034748910E+00 -0.2103527601443E+00
 0.2679427422320E+00 -0.2340318340582E+00
 0.2726170173802E+00 -0.2567376112095E+00
 0.2732329134467E+00 -0.2787479642802E+00
 0.2702037412590E+00 -0.3002388554119E+00
 0.2630868170373E+00 -0.3223037442672E+00
 0.2517852794645E+00 -0.3465433505098E+00
 0.2371475887556E+00 -0.3736662162524E+00
 0.2198253490130E+00 -0.4042029930382E+00
 0.2001724140025E+00 -0.4385332057904E+00
 0.1782623479356E+00 -0.4771401692585E+00
 0.1540016845615E+00 -0.5206236047277E+00
 0.4849063714591E-01 -0.3356180226234E-01
 0.1004462686676E+00 -0.5754345693003E-01
 0.1454367657271E+00 -0.8393056324231E-01
 0.1834503281630E+00 -0.1113966791442E+00
 0.2145924113465E+00 -0.1387069949674E+00
 0.2392931502520E+00 -0.1650168898519E+00
 0.2581041885492E+00 -0.1898797941251E+00
 0.2715346872129E+00 -0.2131538828099E+00
 0.2800726482458E+00 -0.2349022219534E+00
 0.2840763613767E+00 -0.2553433515135E+00
 0.2837715713080E+00 -0.2748634262666E+00
 0.2795780754259E+00 -0.2937133385826E+00
 0.2711066920383E+00 -0.3131742148548E+00
 0.2583828934655E+00 -0.3351455442421E+00
 0.2423309222636E+00 -0.3604723761342E+00
 0.2236384199085E+00 -0.3897614112873E+00
 0.2026347262266E+00 -0.4234229023989E+00
 0.1793718732175E+00 -0.4620193593638E+00
 0.1537492410949E+00 -0.5062912235510E+00
 0.5218238142269E-01 -0.3526632835568E-01
 0.1070564196347E+00 -0.6093516157780E-01
 0.1542632609505E+00 -0.8887133724481E-01
 0.1937624728812E+00 -0.1173796549569E+00
 0.2257686792037E+00 -0.1450032342992E+00
 0.2508403969393E+00 -0.1708603397574E+00
 0.2696376147197E+00 -0.1945741528688E+00
 0.2827465016428E+00 -0.2161234951259E+00
 0.2906981008332E+00 -0.2357138826329E+00
 0.2938728748843E+00 -0.2536937689077E+00
 0.2925094165381E+00 -0.2705661256705E+00
 0.2870219334571E+00 -0.2866587480936E+00
 0.2770937368544E+00 -0.3034297335578E+00
 0.2628944793822E+00 -0.3230594119879E+00
 0.2454184531349E+00 -0.3465146321190E+00
 0.2253820889784E+00 -0.3744677790816E+00
 0.2030802695851E+00 -0.4073557715693E+00
 0.1785433411698E+00 -0.4458252756757E+00
 0.1516746892900E+00 -0.4907735259860E+00
 0.5602604383667E-01 -0.3726421048199E-01
 0.1138003166811E+00 -0.6493045048514E-01
 0.1630301683619E+00 -0.9466087407690E-01
 0.2037191490707E+00 -0.1242984786730E+00
 0.2362742743116E+00 -0.1521540632062E+00
 0.2614288048284E+00 -0.1773585444381E+00
 0.2799707707276E+00 -0.1996678615007E+00
 0.2925653194400E+00 -0.2192351327655E+00
 0.2997764022799E+00 -0.2364451122959E+00
 0.3019951286820E+00 -0.2517934201991E+00
 0.2994641642795E+00 -0.2659030165042E+00
 0.2925808543730E+00 -0.2791752947299E+00
 0.2811171755605E+00 -0.2932296554784E+00
 0.2654032792262E+00 -0.3104986227709E+00
 0.2464961047967E+00 -0.3320481357425E+00
 0.2251321538033E+00 -0.3586012736346E+00
 0.2015626351218E+00 -0.3906154286188E+00
 0.1757968511491E+00 -0.4288229306981E+00
 0.1477548968002E+00 -0.4742900466085E+00
 0.6007088021308E-01 -0.3963796800846E-01
 0.1206917946134E+00 -0.6968509700647E-01
 0.1716837833280E+00 -0.1014789113864E+00
 0.2132116298386E+00 -0.1322969604355E+00
 0.2459774626780E+00 -0.1602316953293E+00
 0.2709339018037E+00 -0.1845112547120E+00
 0.2890072133027E+00 -0.2051119813975E+00
 0.3009322083226E+00 -0.2224241351948E+00
 0.3072874300829E+00 -0.2370450379041E+00
 0.3084590030465E+00 -0.2496264544710E+00
 0.3046838572365E+00 -0.2609066793336E+00
 0.2963336180999E+00 -0.2713515338397E+00
 0.2832829443900E+00 -0.2827227071183E+00
 0.2660334928845E+00 -0.2976681295705E+00
 0.2456954283667E+00 -0.3173236178580E+00
 0.2230139034398E+00 -0.3424440128431E+00
 0.1981865214757E+00 -0.3734985117558E+00
 0.1712011094899E+00 -0.4113017864926E+00
 0.1420064996489E+00 -0.4570947382607E+00
 0.6437813912518E-01 -0.4250101103362E-01
 0.1277307116380E+00 -0.7540126805301E-01
 0.1801338338326E+00 -0.1095380921566E+00
 0.2220918227937E+00 -0.1415171723439E+00
 0.2547204254064E+00 -0.1692723075373E+00
 0.2792245973042E+00 -0.1922644158335E+00
 0.2966611722130E+00 -0.2108048099300E+00
 0.3078099345999E+00 -0.2255852882926E+00
 0.3132379516435E+00 -0.2374359098921E+00
 0.3133089077728E+00 -0.2471596495732E+00
 0.3082454595086E+00 -0.2555963762446E+00
 0.2983887814880E+00 -0.2632622783428E+00
 0.2837286619012E+00 -0.2720414187652E+00
 0.2649444252426E+00 -0.2847554685063E+00
 0.2431880139467E+00 -0.3025762633370E+00
 0.2191982723153E+00 -0.3262686824038E+00
 0.1931072371034E+00 -0.3563028643530E+00
 0.1648775413551E+00 -0.3935668950439E+00
 0.1344945764740E+00 -0.4394723373512E+00
 0.6902219907835E-01 -0.4601290808758E-01
 0.1348892824960E+00 -0.8234478994761E-01
 0.1882355465912E+00 -0.1190859725483E+00
 0.2301630807253E+00 -0.1520812935620E+00
 0.2623222453391E+00 -0.1792493834779E+00
 0.2861740115210E+00 -0.2004902231556E+00
 0.3028693329345E+00 -0.2165855240987E+00
 0.3131910997746E+00 -0.2285768011655E+00
 0.3176649651146E+00 -0.2375205641202E+00
 0.3166172094176E+00 -0.2443481930505E+00
 0.3102516256315E+00 -0.2499801655126E+00
 0.2988795896506E+00 -0.2549670326621E+00
 0.2826170228659E+00 -0.2612973768719E+00
 0.2623227826390E+00 -0.2719232513923E+00
 0.2391774110654E+00 -0.2880155084953E+00
 0.2138947455814E+00 -0.3103259267058E+00
 0.1865266881841E+00 -0.3393137682251E+00
 0.1570017902728E+00 -0.3759267157546E+00
 0.1253410219674E+00 -0.4217313730342E+00
 0.7408990838019E-01 -0.5040534854421E-01
 0.1420877565052E+00 -0.9087093482329E-01
 0.1957645454488E+00 -0.1304004380778E+00
 0.2371743986249E+00 -0.1640562348225E+00
 0.2685918889647E+00 -0.1900348225426E+00
 0.2916789382243E+00 -0.2089689139630E+00
 0.3076059428140E+00 -0.2222378305744E+00
 0.3171051804149E+00 -0.2312338973261E+00
 0.3206362873270E+00 -0.2371946664147E+00
 0.3184811007280E+00 -0.2411426925520E+00
 0.3108256122801E+00 -0.2440568361721E+00
 0.2979577037375E+00 -0.2465083521662E+00
 0.2801283551726E+00 -0.2505774378356E+00
 0.2583740327747E+00 -0.2593036884851E+00
 0.2338893326630E+00 -0.2738171517808E+00
 0.2073410876326E+00 -0.2948329474383E+00
 0.1786848374123E+00 -0.3227890526631E+00
 0.1478007329447E+00 -0.3586772884678E+00
 0.1147310248763E+00 -0.4041926036552E+00
 0.7967432439128E-01 -0.5602973867179E-01
 0.1491498427081E+00 -0.1014630618270E+00
 0.2023835854589E+00 -0.1437666024175E+00
 0.2428282046993E+00 -0.1773854259589E+00
 0.2733594433100E+00 -0.2013502218839E+00
 0.2956888350130E+00 -0.2173843768852E+00
 0.3108967084619E+00 -0.2275135137972E+00
 0.3196205217023E+00 -0.2333915666965E+00
 0.3222468505797E+00 -0.2363606103392E+00
 0.3190166797786E+00 -0.2374949186268E+00
 0.3101047284498E+00 -0.2378163104204E+00
 0.2957864363575E+00 -0.2379095599012E+00
 0.2764532877786E+00 -0.2399408499387E+00
 0.2533141100573E+00 -0.2469958470332E+00
 0.2275615575380E+00 -0.2601193034142E+00
 0.1997908458664E+00 -0.2799655588706E+00
 0.1698460684321E+00 -0.3069449365667E+00
 0.1375427063233E+00 -0.3420830930664E+00
 0.1029147894899E+00 -0.3871713053870E+00
 0.8585298048581E-01 -0.6345161197523E-01
 0.1557145593032E+00 -0.1147923715514E+00
 0.2076115034964E+00 -0.1593953249461E+00
 0.2468237812103E+00 -0.1917703635705E+00
 0.2765372279375E+00 -0.2127234297699E+00
 0.2982338905163E+00 -0.2253672443002E+00
 0.3128217638454E+00 -0.2321748309792E+00
 0.3208386157742E+00 -0.2349091825500E+00
 0.3226105539702E+00 -0.2349380866343E+00
 0.3183509149434E+00 -0.2333601592355E+00
 0.3082330271082E+00 -0.2312377654812E+00
 0.2925342712959E+00 -0.2291712733858E+00
 0.2717865022640E+00 -0.2294170813934E+00
 0.2473628390989E+00 -0.2350656055301E+00
 0.2204356871030E+00 -0.2470235558528E+00
 0.1915007577855E+00 -0.2658562462069E+00
 0.1602815247726E+00 -0.2919462906940E+00
 0.1265185083320E+00 -0.3263563204993E+00
 0.9019988604019E-01 -0.3709519563436E+00
 0.9260286223069E-01 -0.7368306175140E-01
 0.1610705662665E+00 -0.1317736111493E+00
 0.2108244870936E+00 -0.1772066759394E+00
 0.2490113621465E+00 -0.2064535725581E+00
 0.2781808344731E+00 -0.2235827544999E+00
 0.2994246792075E+00 -0.2325794910360E+00
 0.3135042874462E+00 -0.2360366336077E+00
 0.3208815663893E+00 -0.2356860541986E+00
 0.3218497484679E+00 -0.2328680300790E+00
 0.3166125634611E+00 -0.2286964030737E+00
 0.3053538064847E+00 -0.2242848984353E+00
 0.2883693451488E+00 -0.2202660238580E+00
 0.2663224625902E+00 -0.2190034408480E+00
 0.2407402811436E+00 -0.2235482277495E+00
 0.2127522088150E+00 -0.2345997689490E+00
 0.1827226604143E+00 -0.2526013646204E+00
 0.1502501597941E+00 -0.2779053433934E+00
 0.1150137373736E+00 -0.3116402859690E+00
 0.7692626904923E-01 -0.3557543014062E+00
 0.9955373242293E-01 -0.8877179121302E-01
 0.1636763611041E+00 -0.1536689213682E+00
 0.2117352910736E+00 -0.1958373257403E+00
 0.2495349068902E+00 -0.2204890746572E+00
 0.2784628853290E+00 -0.2334432780825E+00
 0.2994262829760E+00 -0.2387859393599E+00
 0.3130887824947E+00 -0.2389844094824E+00
 0.3198787957414E+00 -0.2356620475538E+00
 0.3200846056745E+00 -0.2301133370163E+00
 0.3139226910444E+00 -0.2234612512552E+00
 0.3016014192943E+00 -0.2168995081826E+00
 0.2834549425899E+00 -0.2111263818459E+00
 0.2602550888030E+00 -0.2086624576169E+00
 0.2336675459617E+00 -0.2124546686564E+00
 0.2047482031897E+00 -0.2228940938126E+00
 0.1736991352731E+00 -0.2402674543906E+00
 0.1399963080987E+00 -0.2649042952887E+00
 0.1032672057388E+00 -0.2979995778978E+00
 0.6342369558906E-01 -0.3416984066546E+00
-0.5873873805727E+00 -0.4454453250614E+00
-0.5934803749414E+00 -0.4405494104250E+00
-0.5984399179116E+00 -0.4350679010249E+00
-0.6022844126494E+00 -0.4290642596658E+00
-0.6050312023860E+00 -0.4226254022553E+00
-0.6067055024536E+00 -0.4158471770083E+00
-0.6073411336043E+00 -0.4088292369672E+00
-0.6069819843058E+00 -0.4016729803048E+00
-0.6056829092255E+00 -0.3944801612564E+00
-0.6035102119852E+00 -0.3873514341562E+00
-0.6005415527693E+00 -0.3803846009044E+00
-0.5968652217785E+00 -0.3736725720681E+00
-0.5925787711559E+00 -0.3673011728855E+00
-0.5877870897701E+00 -0.3613470022168E+00
-0.5826001323666E+00 -0.3558755974251E+00
-0.5771306521434E+00 -0.3509401546935E+00
-0.5714925431063E+00 -0.3465810471154E+00
-0.5658001945877E+00 -0.3428262717048E+00
-0.5601731132053E+00 -0.3396943709848E+00
-0.5826429421095E+00 -0.4615628563038E+00
-0.5891441493223E+00 -0.4570756734779E+00
-0.5945105389816E+00 -0.4519588979497E+00
-0.5987227401043E+00 -0.4462368176583E+00
-0.6017840029507E+00 -0.4399727221228E+00
-0.6037066997435E+00 -0.4332503368491E+00
-0.6045123035297E+00 -0.4261654480653E+00
-0.6042325700746E+00 -0.4188212618809E+00
-0.6029112060054E+00 -0.4113256437254E+00
-0.6006052031283E+00 -0.4037889514341E+00
-0.5973856227364E+00 -0.3963218679594E+00
-0.5933376657833E+00 -0.3890329760872E+00
-0.5885599256150E+00 -0.3820260448822E+00
-0.5831627806362E+00 -0.3753971663589E+00
-0.5772660015509E+00 -0.3692320256470E+00
-0.5709958556418E+00 -0.3636037084358E+00
-0.5644821320416E+00 -0.3585714884452E+00
-0.5578559494397E+00 -0.3541811087504E+00
-0.5512467604991E+00 -0.3504671502894E+00
-0.5773435024548E+00 -0.4787199602865E+00
-0.5842494650670E+00 -0.4747836192281E+00
-0.5900453170435E+00 -0.4701423017699E+00
-0.5946763174908E+00 -0.4648149630474E+00
-0.5981186304613E+00 -0.4588467838369E+00
-0.6003648254993E+00 -0.4523066787544E+00
-0.6014190234548E+00 -0.4452808802522E+00
-0.6012968558224E+00 -0.4378685140361E+00
-0.6000268475829E+00 -0.4301784299294E+00
-0.5976522288340E+00 -0.4223267016900E+00
-0.5942325635888E+00 -0.4144342182631E+00
-0.5898448560785E+00 -0.4066240044561E+00
-0.5845838497558E+00 -0.3990180893023E+00
-0.5785612575093E+00 -0.3917339241203E+00
-0.5719037241098E+00 -0.3848805604718E+00
-0.5647494874232E+00 -0.3785550318192E+00
-0.5572440611329E+00 -0.3728395888304E+00
-0.5495353057296E+00 -0.3678004297040E+00
-0.5417682704153E+00 -0.3634877295454E+00
-0.5714414453998E+00 -0.4968385547234E+00
-0.5787684035076E+00 -0.4936267345305E+00
-0.5850102509195E+00 -0.4896204501316E+00
-0.5900924447118E+00 -0.4848379720130E+00
-0.5939658960415E+00 -0.4793144880091E+00
-0.5965995485800E+00 -0.4731054549318E+00
-0.5979758716431E+00 -0.4662853222775E+00
-0.5980898236048E+00 -0.4589449706643E+00
-0.5969499179284E+00 -0.4511894314483E+00
-0.5945802510797E+00 -0.4431358433209E+00
-0.5910228755359E+00 -0.4349113709329E+00
-0.5863400601435E+00 -0.4266507439189E+00
-0.5806160275142E+00 -0.4184931300824E+00
-0.5739577012279E+00 -0.4105781598676E+00
-0.5664939132609E+00 -0.4030410973563E+00
-0.5583725464677E+00 -0.3960074571876E+00
-0.5497553657625E+00 -0.3895877841144E+00
-0.5408110855795E+00 -0.3838736343542E+00
-0.5317084169145E+00 -0.3789356996128E+00
-0.5648734678050E+00 -0.5158440483296E+00
-0.5726406938511E+00 -0.5135425644447E+00
-0.5793474664093E+00 -0.5103569587536E+00
-0.5849077439581E+00 -0.5063019051972E+00
-0.5892526867415E+00 -0.5014035579736E+00
-0.5923285085353E+00 -0.4957047911957E+00
-0.5940941846918E+00 -0.4892667574756E+00
-0.5945207941982E+00 -0.4821687030076E+00
-0.5935925433509E+00 -0.4745071910737E+00
-0.5913090139790E+00 -0.4663951856363E+00
-0.5876881847175E+00 -0.4579609269021E+00
-0.5827698626112E+00 -0.4493463423541E+00
-0.5766191406879E+00 -0.4407046409576E+00
-0.5693293641909E+00 -0.4321967036378E+00
-0.5610238337947E+00 -0.4239859176080E+00
-0.5518551384916E+00 -0.4162312924659E+00
-0.5420009044352E+00 -0.4090792490058E+00
-0.5316554537307E+00 -0.4026554407269E+00
-0.5210188735020E+00 -0.3970590826938E+00
-0.5575722776508E+00 -0.5356534642291E+00
-0.5657934455694E+00 -0.5344541411214E+00
-0.5729814676551E+00 -0.5322906167710E+00
-0.5790425566509E+00 -0.5291692909058E+00
-0.5838924568634E+00 -0.5251053803190E+00
-0.5874571786320E+00 -0.5201279667083E+00
-0.5896725606311E+00 -0.5142829280933E+00
-0.5904843807401E+00 -0.5076344274531E+00
-0.5898495989424E+00 -0.5002657080041E+00
-0.5877387801878E+00 -0.4922795927020E+00
-0.5841395811740E+00 -0.4837987674873E+00
-0.5790611590603E+00 -0.4749656770273E+00
-0.5725393275752E+00 -0.4659416803513E+00
-0.5646421467429E+00 -0.4569049366030E+00
-0.5554752989298E+00 -0.4480463023965E+00
-0.5451859717873E+00 -0.4395623754930E+00
-0.5339629066960E+00 -0.4316449369311E+00
-0.5220295663505E+00 -0.4244673118287E+00
-0.5096287802286E+00 -0.4181706775697E+00
-0.5494702257954E+00 -0.5561692586783E+00
-0.5581487003369E+00 -0.5562668718060E+00
-0.5658266180800E+00 -0.5553363626552E+00
-0.5724038746764E+00 -0.5533720911539E+00
-0.5777837904369E+00 -0.5503757500033E+00
-0.5818748593915E+00 -0.5463606168051E+00
-0.5845913307560E+00 -0.5413548682319E+00
-0.5858538459155E+00 -0.5354040565973E+00
-0.5855908040388E+00 -0.5285731173263E+00
-0.5837407621220E+00 -0.5209482153933E+00
-0.5802560213443E+00 -0.5126385599010E+00
-0.5751075265907E+00 -0.5037781308652E+00
-0.5682912213106E+00 -0.4945270659258E+00
-0.5598359756796E+00 -0.4850722095116E+00
-0.5498130308012E+00 -0.4756259622997E+00
-0.5383463355885E+00 -0.4664220026850E+00
-0.5256217443914E+00 -0.4577056692585E+00
-0.5118894431149E+00 -0.4497161067172E+00
-0.4974508458416E+00 -0.4426606151807E+00
-0.5404950262444E+00 -0.5772734598757E+00
-0.5496167865500E+00 -0.5788613159912E+00
-0.5577783120718E+00 -0.5793791858346E+00
-0.5648740608786E+00 -0.5788073519212E+00
-0.5707972457159E+00 -0.5771321390187E+00
-0.5754415528003E+00 -0.5743492896379E+00
-0.5787019877482E+00 -0.5704671344511E+00
-0.5804756103987E+00 -0.5655094523952E+00
-0.5806627232840E+00 -0.5595181952001E+00
-0.5791688939751E+00 -0.5525563080834E+00
-0.5759081125948E+00 -0.5447108278100E+00
-0.5708074127664E+00 -0.5360963439940E+00
-0.5638133947353E+00 -0.5268587849392E+00
-0.5549012604778E+00 -0.5171792991823E+00
-0.5440871629411E+00 -0.5072776586749E+00
-0.5314447651921E+00 -0.4974139168095E+00
-0.5171263901627E+00 -0.4878856068593E+00
-0.5013865907541E+00 -0.4790147261590E+00
-0.4845925788125E+00 -0.4711130939358E+00
-0.5305702825637E+00 -0.5988222918758E+00
-0.5400963270657E+00 -0.6020843844592E+00
-0.5487122185647E+00 -0.6042626660917E+00
-0.5563082192147E+00 -0.6053233081040E+00
-0.5627698005745E+00 -0.6052369893186E+00
-0.5679788655483E+00 -0.6039814729024E+00
-0.5718143770221E+00 -0.6015443366396E+00
-0.5741528219729E+00 -0.5979257357997E+00
-0.5748689118439E+00 -0.5931412953709E+00
-0.5738368553976E+00 -0.5872253317373E+00
-0.5709325249429E+00 -0.5802346362301E+00
-0.5660369066445E+00 -0.5722530569680E+00
-0.5590414037686E+00 -0.5633971095847E+00
-0.5498558884942E+00 -0.5538228243750E+00
-0.5384209557913E+00 -0.5437339474609E+00
-0.5247267673042E+00 -0.5333913138801E+00
-0.5088424063113E+00 -0.5231222630919E+00
-0.4909617044440E+00 -0.5133261109316E+00
-0.4714714598302E+00 -0.5044609605239E+00
-0.5196290619234E+00 -0.6206474272376E+00
-0.5294972175217E+00 -0.6257503878636E+00
-0.5385142684746E+00 -0.6297873768159E+00
-0.5465678167646E+00 -0.6327123347922E+00
-0.5535379772240E+00 -0.6344819864427E+00
-0.5592979802013E+00 -0.6350577227034E+00
-0.5637143676183E+00 -0.6344077423032E+00
-0.5666469904318E+00 -0.6325093703071E+00
-0.5679490504891E+00 -0.6293516229095E+00
-0.5674674163707E+00 -0.6249381937520E+00
-0.5650434488840E+00 -0.6192911146072E+00
-0.5605146357025E+00 -0.6124554206105E+00
-0.5537174938751E+00 -0.6045052568807E+00
-0.5444925190967E+00 -0.5955520292330E+00
-0.5326925831285E+00 -0.5857554635584E+00
-0.5181974316997E+00 -0.5753388424408E+00
-0.5009396475403E+00 -0.5646102864385E+00
-0.4809536942846E+00 -0.5539924603004E+00
-0.4584782543592E+00 -0.5440629169976E+00
-0.5076165459382E+00 -0.6425578934404E+00
-0.5177447340428E+00 -0.6496426429836E+00
-0.5270871884735E+00 -0.6557117826639E+00
-0.5355303549059E+00 -0.6607103676950E+00
-0.5429510753210E+00 -0.6645846472290E+00
-0.5492166223482E+00 -0.6672833935534E+00
-0.5541844159036E+00 -0.6687594622727E+00
-0.5577015075323E+00 -0.6689715356325E+00
-0.5596039494534E+00 -0.6678860924011E+00
-0.5597161593727E+00 -0.6654797328174E+00
-0.5578503838660E+00 -0.6617420682709E+00
-0.5538063770517E+00 -0.6566794841572E+00
-0.5473714695157E+00 -0.6503202341288E+00
-0.5383213414559E+00 -0.6427215780618E+00
-0.5264221150465E+00 -0.6339801334551E+00
-0.5114350503288E+00 -0.6242474811645E+00
-0.4931267045268E+00 -0.6137548529481E+00
-0.4712919966101E+00 -0.6028548777231E+00
-0.4458101034063E+00 -0.5920991114193E+00
-0.4944915758159E+00 -0.6643436295108E+00
-0.5047813923743E+00 -0.6735173468084E+00
-0.5143539225746E+00 -0.6817563287743E+00
-0.5230956399079E+00 -0.6890007874178E+00
-0.5308816402254E+00 -0.6951909967556E+00
-0.5375751657607E+00 -0.7002682638206E+00
-0.5430268314819E+00 -0.7041760913472E+00
-0.5470735688700E+00 -0.7068615027120E+00
-0.5495373109755E+00 -0.7082765544090E+00
-0.5502234209485E+00 -0.7083801197855E+00
-0.5489188259630E+00 -0.7071400910907E+00
-0.5453897631728E+00 -0.7045362286730E+00
-0.5393789672796E+00 -0.7005640123142E+00
-0.5306020094744E+00 -0.6952400659317E+00
-0.5187422866055E+00 -0.6886101213266E+00
-0.5034437438218E+00 -0.6807612528770E+00
-0.4842995075987E+00 -0.6718417084854E+00
-0.4608320994209E+00 -0.6620954480541E+00
-0.4324546002158E+00 -0.6519284562438E+00
-0.4802282568030E+00 -0.6857802545836E+00
-0.4905689689929E+00 -0.6971095609429E+00
-0.5002610291250E+00 -0.7076107737978E+00
-0.5091918048047E+00 -0.7172230629747E+00
-0.5172357068440E+00 -0.7258850181079E+00
-0.5242532227830E+00 -0.7335354370782E+00
-0.5300896270470E+00 -0.7401142971391E+00
-0.5345733343939E+00 -0.7455638935711E+00
-0.5375138490033E+00 -0.7498301653257E+00
-0.5386992191826E+00 -0.7528642652421E+00
-0.5378928350607E+00 -0.7546244734960E+00
-0.5348292924542E+00 -0.7550786021926E+00
-0.5292088618921E+00 -0.7542071060313E+00
-0.5206897858521E+00 -0.7520072125619E+00
-0.5088770473269E+00 -0.7484985351868E+00
-0.4933050958677E+00 -0.7437308501768E+00
-0.4734095055046E+00 -0.7377950169646E+00
-0.4484762463000E+00 -0.7308380360055E+00
-0.4175390969457E+00 -0.7230823049226E+00
-0.4648171019941E+00 -0.7066347273769E+00
-0.4750899269756E+00 -0.7201409115965E+00
-0.4847809169451E+00 -0.7329446798734E+00
-0.4937791221372E+00 -0.7449869978769E+00
-0.5019592493921E+00 -0.7562078489682E+00
-0.5091802295936E+00 -0.7665468967706E+00
-0.5152834213369E+00 -0.7759443197889E+00
-0.5200903849283E+00 -0.7843418033107E+00
-0.5234001331214E+00 -0.7916836925347E+00
-0.5249857117620E+00 -0.7979183272409E+00
-0.5245898780279E+00 -0.8029995890614E+00
-0.5219195115730E+00 -0.8068886936834E+00
-0.5166381852381E+00 -0.8095562438743E+00
-0.5083559812813E+00 -0.8109845044528E+00
-0.4966150559684E+00 -0.8111697140851E+00
-0.4808684230479E+00 -0.8101238765176E+00
-0.4604474625038E+00 -0.8078744705621E+00
-0.4345102387681E+00 -0.8044578070379E+00
-0.4019548575464E+00 -0.7998921292562E+00
-0.4482654662208E+00 -0.7266711495341E+00
-0.4583478194529E+00 -0.7423276831927E+00
-0.4679123086505E+00 -0.7574188778922E+00
-0.4768506426377E+00 -0.7718891448899E+00
-0.4850391006796E+00 -0.7856814664979E+00
-0.4923367014248E+00 -0.7987378915238E+00
-0.4985829835485E+00 -0.8110001650156E+00
-0.5035953194751E+00 -0.8224104633597E+00
-0.5071656556986E+00 -0.8329122087376E+00
-0.5090565261234E+00 -0.8424509310007E+00
-0.5089961142327E+00 -0.8509751243696E+00
-0.5066720381019E+00 -0.8584370014262E+00
-0.5017233873145E+00 -0.8647929596374E+00
-0.4937303362943E+00 -0.8700034101839E+00
-0.4822003844455E+00 -0.8740313019945E+00
-0.4665499468298E+00 -0.8768380487473E+00
-0.4460799331373E+00 -0.8783743130525E+00
-0.4199448659320E+00 -0.8785604967957E+00
-0.3871253444305E+00 -0.8772471754038E+00
-0.4305971303528E+00 -0.7456563134798E+00
-0.4403664410703E+00 -0.7633885096270E+00
-0.4496788093712E+00 -0.7806961620347E+00
-0.4584299401631E+00 -0.7975276896910E+00
-0.4664994737861E+00 -0.8138294028347E+00
-0.4737488736856E+00 -0.8295457543375E+00
-0.4800189354293E+00 -0.8446196626444E+00
-0.4851268464711E+00 -0.8589928584635E+00
-0.4888627091728E+00 -0.8726061980667E+00
-0.4909854128398E+00 -0.8853998642819E+00
-0.4912177050728E+00 -0.8973133360248E+00
-0.4892402715684E+00 -0.9082849389623E+00
-0.4846845952001E+00 -0.9182506777647E+00
-0.4771243547070E+00 -0.9271418681546E+00
-0.4660652045209E+00 -0.9348807930257E+00
-0.4509331379070E+00 -0.9413731465545E+00
-0.4310626828851E+00 -0.9464953809416E+00
-0.4056894219462E+00 -0.9500744979467E+00
-0.3739573287797E+00 -0.9518599234329E+00
-0.4118514041069E+00 -0.7633644532814E+00
-0.4211883585029E+00 -0.7830506943257E+00
-0.4301266120631E+00 -0.8024497286808E+00
-0.4385676198855E+00 -0.8215136984309E+00
-0.4463967269142E+00 -0.8401916511510E+00
-0.4534809256849E+00 -0.8584294799599E+00
-0.4596662820776E+00 -0.8761698622507E+00
-0.4647749820337E+00 -0.8933521358613E+00
-0.4686019518743E+00 -0.9099120362072E+00
-0.4709110040308E+00 -0.9257811907371E+00
-0.4714304643180E+00 -0.9408862241654E+00
-0.4698482565610E+00 -0.9551472642141E+00
-0.4658064752975E+00 -0.9684755469363E+00
-0.4588956058961E+00 -0.9807696982894E+00
-0.4486488316800E+00 -0.9919101198189E+00
-0.4345374313591E+00 -0.1001750777138E+01
-0.4159693733272E+00 -0.1010107745564E+01
-0.3922947458176E+00 -0.1016744701674E+01
-0.3628217860524E+00 -0.1021357726750E+01
-0.3920819016046E+00 -0.7795812767628E+00
-0.4008730791139E+00 -0.8010553446996E+00
-0.4093217901161E+00 -0.8223697368923E+00
-0.4173373582412E+00 -0.8434794696199E+00
-0.4248136322141E+00 -0.8643351994912E+00
-0.4316267757723E+00 -0.8848828184645E+00
-0.4376327998344E+00 -0.9050629803639E+00
-0.4426648197156E+00 -0.9248104956936E+00
-0.4465300361858E+00 -0.9440535170118E+00
-0.4490064608243E+00 -0.9627124141577E+00
-0.4498394405988E+00 -0.9806982067823E+00
-0.4487380951957E+00 -0.9979103812385E+00
-0.4453718808974E+00 -0.1014233873558E+01
-0.4393676640021E+00 -0.1029534961826E+01
-0.4303079589662E+00 -0.1043655811158E+01
-0.4177313910772E+00 -0.1056407523347E+01
-0.4011368809760E+00 -0.1067561913040E+01
-0.3799930483603E+00 -0.1076842983949E+01
-0.3537532400858E+00 -0.1083919922426E+01
-0.3713550588976E+00 -0.7941073982103E+00
-0.3794949149640E+00 -0.8171616091148E+00
-0.3873472709913E+00 -0.8401685139709E+00
-0.3948316692968E+00 -0.8630848558410E+00
-0.4018535225174E+00 -0.8858615693267E+00
-0.4083020879152E+00 -0.9084430361424E+00
-0.4140482691413E+00 -0.9307662209463E+00
-0.4189422553980E+00 -0.9527596352447E+00
-0.4228110355280E+00 -0.9743420671182E+00
-0.4254558591717E+00 -0.9954210016494E+00
-0.4266497654846E+00 -0.1015890642508E+01
-0.4261353690056E+00 -0.1035629432975E+01
-0.4236231899920E+00 -0.1054496973012E+01
-0.4187909480979E+00 -0.1072330254090E+01
-0.4112843966350E+00 -0.1088939213803E+01
-0.4007204077759E+00 -0.1104101790844E+01
-0.3866929836943E+00 -0.1117558962689E+01
-0.3687824599551E+00 -0.1129010591981E+01
-0.3465673840487E+00 -0.1138113091603E+01
-0.3497486286436E+00 -0.8067610669991E+00
-0.3571409380197E+00 -0.8311498372281E+00
-0.3643000664770E+00 -0.8555841908160E+00
-0.3711581718426E+00 -0.8800213711850E+00
-0.3776353047830E+00 -0.9044113163268E+00
-0.3836376956448E+00 -0.9286956120962E+00
-0.3890559468373E+00 -0.9528062957546E+00
-0.3937631605721E+00 -0.9766644767218E+00
-0.3976130616946E+00 -0.1000178738344E+01
-0.4004382125169E+00 -0.1023243283177E+01
-0.4020484634601E+00 -0.1045735786656E+01
-0.4022298416075E+00 -0.1067514934298E+01
-0.4007441470043E+00 -0.1088417643153E+01
-0.3973295940812E+00 -0.1108256020193E+01
-0.3917028766979E+00 -0.1126814201725E+01
-0.3835629986889E+00 -0.1143845353224E+01
-0.3725970320964E+00 -0.1159069260995E+01
-0.3584876374584E+00 -0.1172171041394E+01
-0.3409217369934E+00 -0.1182801421397E+01
-0.3273505864731E+00 -0.8173818009780E+00
-0.3339098325228E+00 -0.8428268857135E+00
-0.3402899166603E+00 -0.8683876509217E+00
-0.3464378315988E+00 -0.8940206917634E+00
-0.3522910775773E+00 -0.9196738957662E+00
-0.3577763535595E+00 -0.9452851531422E+00
-0.3628082162368E+00 -0.9707809067605E+00
-0.3672877432375E+00 -0.9960745300634E+00
-0.3711012635560E+00 -0.1021064525247E+01
-0.3741192491646E+00 -0.1045632542699E+01
-0.3761954977054E+00 -0.1069641237186E+01
-0.3771667744984E+00 -0.1092931999157E+01
-0.3768531160546E+00 -0.1115322634368E+01
-0.3750590130984E+00 -0.1136605115059E+01
-0.3715756668408E+00 -0.1156543590515E+01
-0.3661844229073E+00 -0.1174872912869E+01
-0.3586613270100E+00 -0.1191297979103E+01
-0.3487825430703E+00 -0.1205494179168E+01
-0.3363302992528E+00 -0.1217109140055E+01
-0.3042588055111E+00 -0.8258369947388E+00
-0.3099123237228E+00 -0.8520376797831E+00
-0.3154403741600E+00 -0.8783990156447E+00
-0.3208065967611E+00 -0.9048759375008E+00
-0.3259682093849E+00 -0.9314134852907E+00
-0.3308751593612E+00 -0.9579453420373E+00
-0.3354692843006E+00 -0.9843922148047E+00
-0.3396835138490E+00 -0.1010660064622E+01
-0.3434411611489E+00 -0.1036638201923E+01
-0.3466553730876E+00 -0.1062197279854E+01
-0.3492288299101E+00 -0.1087187239210E+01
-0.3510538039898E+00 -0.1111435286197E+01
-0.3520126978081E+00 -0.1134744017166E+01
-0.3519791724131E+00 -0.1156889840307E+01
-0.3508199383064E+00 -0.1177621876379E+01
-0.3483972048232E+00 -0.1196661536923E+01
-0.3445716786714E+00 -0.1213702966058E+01
-0.3392059023428E+00 -0.1228414483090E+01
-0.3321676437092E+00 -0.1240441121403E+01
-0.2805783529808E+00 -0.8320198324293E+00
-0.2852669130570E+00 -0.8586595975923E+00
-0.2898831479656E+00 -0.8854784710789E+00
-0.2944086126428E+00 -0.9124288878449E+00
-0.2988218083805E+00 -0.9394525029057E+00
-0.3030978169015E+00 -0.9664786337013E+00
-0.3072079699482E+00 -0.9934225542765E+00
-0.3111195700188E+00 -0.1020183658515E+01
-0.3147956847674E+00 -0.1046643524483E+01
-0.3181950453630E+00 -0.1072663931690E+01
-0.3212720866338E+00 -0.1098084907552E+01
-0.3239771718181E+00 -0.1122722907093E+01
-0.3262570438613E+00 -0.1146369258051E+01
-0.3280555343708E+00 -0.1168789026543E+01
-0.3293145373593E+00 -0.1189720468135E+01
-0.3299752175541E+00 -0.1208875216625E+01
-0.3299793775414E+00 -0.1225939322068E+01
-0.3292708563794E+00 -0.1240575186869E+01
-0.3277967448372E+00 -0.1252424373033E+01
-0.2564199476188E+00 -0.8358490300563E+00
-0.2600978969230E+00 -0.8626008774983E+00
-0.2637557453577E+00 -0.8895232269189E+00
-0.2673936081196E+00 -0.9165653507998E+00
-0.2710120404678E+00 -0.9436652140519E+00
-0.2746121536090E+00 -0.9707478989222E+00
-0.2781957831753E+00 -0.9977238895413E+00
-0.2817657050655E+00 -0.1024487236490E+01
-0.2853258892652E+00 -0.1050913637648E+01
-0.2888817775853E+00 -0.1076858492551E+01
-0.2924405661679E+00 -0.1102155012550E+01
-0.2960114682671E+00 -0.1126612496372E+01
-0.2996059280932E+00 -0.1150014906577E+01
-0.3032377542703E+00 -0.1172119900971E+01
-0.3069231441907E+00 -0.1192658476166E+01
-0.3106805798753E+00 -0.1211335359810E+01
-0.3145305889868E+00 -0.1227830238280E+01
-0.3184953697967E+00 -0.1241799827789E+01
-0.3225982721355E+00 -0.1252880686536E+01
-0.2318989714404E+00 -0.8372696761268E+00
-0.2345344563224E+00 -0.8638014767599E+00
-0.2372007019965E+00 -0.8904683081741E+00
-0.2399163661213E+00 -0.9172157723502E+00
-0.2427039877674E+00 -0.9439780164614E+00
-0.2455905666337E+00 -0.9706762172643E+00
-0.2486082113847E+00 -0.9972169292766E+00
-0.2517948328553E+00 -0.1023490311247E+01
-0.2551948424233E+00 -0.1049368259387E+01
-0.2588597991337E+00 -0.1074702495384E+01
-0.2628489321132E+00 -0.1099322681260E+01
-0.2672294494577E+00 -0.1123034660376E+01
-0.2720765354372E+00 -0.1145618951856E+01
-0.2774729416058E+00 -0.1166829650055E+01
-0.2835081028420E+00 -0.1186393894328E+01
-0.2902767622666E+00 -0.1204012067117E+01
-0.2978771661031E+00 -0.1219358839325E+01
-0.3064089756452E+00 -0.1232085102370E+01
-0.3159711195520E+00 -0.1241820709709E+01
-0.2071344813332E+00 -0.8362539092750E+00
-0.2087097215552E+00 -0.8622338306797E+00
-0.2103647881181E+00 -0.8882873502504E+00
-0.2121361988086E+00 -0.9143560088170E+00
-0.2140675676763E+00 -0.9403701180768E+00
-0.2162106112420E+00 -0.9662473781547E+00
-0.2186262491929E+00 -0.9918913615739E+00
-0.2213857642610E+00 -0.1017189863256E+01
-0.2245719594804E+00 -0.1042013125554E+01
-0.2282802230319E+00 -0.1066211963210E+01
-0.2326193820339E+00 -0.1089615834303E+01
-0.2377121987079E+00 -0.1112030929458E+01
-0.2436953406124E+00 -0.1133238383495E+01
-0.2507186516757E+00 -0.1152992750935E+01
-0.2589435783433E+00 -0.1171020925682E+01
-0.2685406830673E+00 -0.1187021715669E+01
-0.2796863146133E+00 -0.1200666285736E+01
-0.2925586885049E+00 -0.1211599633697E+01
-0.3073338126429E+00 -0.1219443151750E+01
-0.1822483186133E+00 -0.8328014781811E+00
-0.1827600350695E+00 -0.8579035884287E+00
-0.1833985235555E+00 -0.8829935055944E+00
-0.1842168557023E+00 -0.9080084003089E+00
-0.1852780241317E+00 -0.9328747742837E+00
-0.1866563166990E+00 -0.9575072800783E+00
-0.1884388272326E+00 -0.9818074150255E+00
-0.1907270698170E+00 -0.1005662065453E+01
-0.1936386258728E+00 -0.1028941880472E+01
-0.1973087159235E+00 -0.1051499465542E+01
-0.2018915490374E+00 -0.1073167401652E+01
-0.2075612606255E+00 -0.1093756117207E+01
-0.2145122055014E+00 -0.1113051671039E+01
-0.2229583367981E+00 -0.1130813552941E+01
-0.2331313934348E+00 -0.1146772678347E+01
-0.2452776732631E+00 -0.1160629843348E+01
-0.2596533286600E+00 -0.1172054994821E+01
-0.2765184044319E+00 -0.1180687709773E+01
-0.2961302028338E+00 -0.1186139211792E+01
-0.1573641471888E+00 -0.8269402523732E+00
-0.1568240843560E+00 -0.8508504417723E+00
-0.1564555037253E+00 -0.8746406224529E+00
-0.1563261876605E+00 -0.8982433458408E+00
-0.1565161305944E+00 -0.9215813191277E+00
-0.1571191894261E+00 -0.9445664897457E+00
-0.1582449357580E+00 -0.9670990276239E+00
-0.1600206953556E+00 -0.9890661480084E+00
-0.1625937093800E+00 -0.1010340716735E+01
-0.1661333096836E+00 -0.1030779586990E+01
-0.1708329581393E+00 -0.1050221624264E+01
-0.1769119479639E+00 -0.1068485385015E+01
-0.1846164964412E+00 -0.1085366432711E+01
-0.1942198727192E+00 -0.1100634316552E+01
-0.2060211132564E+00 -0.1114029323626E+01
-0.2203418253190E+00 -0.1125259265861E+01
-0.2375206468716E+00 -0.1133996777450E+01
-0.2579052415012E+00 -0.1139877829360E+01
-0.2818423052714E+00 -0.1142502276132E+01
-0.1326062719176E+00 -0.8187266571692E+00
-0.1310416700833E+00 -0.8411489889584E+00
-0.1296912031345E+00 -0.8633245877983E+00
-0.1286351268386E+00 -0.8851812018949E+00
-0.1279675545765E+00 -0.9066377198094E+00
-0.1277982437527E+00 -0.9276035764798E+00
-0.1282546831172E+00 -0.9479781077347E+00
-0.1294844952884E+00 -0.9676497484798E+00
-0.1316581017279E+00 -0.9864949752513E+00
-0.1349715597453E+00 -0.1004376904581E+01
-0.1396494503185E+00 -0.1021143457338E+01
-0.1459476498559E+00 -0.1036624986943E+01
-0.1541557402454E+00 -0.1050631255609E+01
-0.1645986817819E+00 -0.1062947645881E+01
-0.1776371781019E+00 -0.1073330546262E+01
-0.1936659021782E+00 -0.1081502004332E+01
-0.2131085339666E+00 -0.1087144073165E+01
-0.2364085922766E+00 -0.1089893790612E+01
-0.2640157216508E+00 -0.1089340315370E+01
-0.1080985055810E+00 -0.8082462357844E+00
-0.1055525990325E+00 -0.8289100169392E+00
-0.1032619570633E+00 -0.8491853954060E+00
-0.1013168914659E+00 -0.8689952366884E+00
-0.9982249744487E-01 -0.8882545486187E+00
-0.9890037228016E-01 -0.9068702709793E+00
-0.9869079223895E-01 -0.9247410950724E+00
-0.9935537727984E-01 -0.9417571353939E+00
-0.1010801907700E+00 -0.9577993198083E+00
-0.1040792085867E+00 -0.9727383914693E+00
-0.1085980965715E+00 -0.9864334081556E+00
-0.1149182238339E+00 -0.9987295846207E+00
-0.1233607858737E+00 -0.1009455261815E+01
-0.1342907849047E+00 -0.1018417715888E+01
-0.1481203640133E+00 -0.1025397465279E+01
-0.1653105407982E+00 -0.1030140756017E+01
-0.1863696326274E+00 -0.1032350161715E+01
-0.2118459214962E+00 -0.1031674006208E+01
-0.2423119154255E+00 -0.1027696601961E+01
-0.8396263849223E-01 -0.7956142714384E+00
-0.8049483396886E-01 -0.8142820968783E+00
-0.7732283612519E-01 -0.8324097371572E+00
-0.7454473163741E-01 -0.8499152615878E+00
-0.7227354158886E-01 -0.8667097219112E+00
-0.7063861092559E-01 -0.8826974346335E+00
-0.6978771940757E-01 -0.8977763664657E+00
-0.6988988461420E-01 -0.9118383557400E+00
-0.7113876150918E-01 -0.9247690266760E+00
-0.7375658883824E-01 -0.9364473154094E+00
-0.7799870274629E-01 -0.9467445133808E+00
-0.8415869137254E-01 -0.9555226667284E+00
-0.9257428158115E-01 -0.9626320577049E+00
-0.1036340060013E+00 -0.9679073372355E+00
-0.1177845378648E+00 -0.9711616667089E+00
-0.1355381608258E+00 -0.9721779689375E+00
-0.1574788559023E+00 -0.9706961613845E+00
-0.1842631859149E+00 -0.9663955522358E+00
-0.2166097708299E+00 -0.9588735748203E+00
-0.6031636048752E-01 -0.7809762776942E+00
-0.5600158847754E-01 -0.7974532415540E+00
-0.5202400338806E-01 -0.8132337094671E+00
-0.4848775854032E-01 -0.8282312118413E+00
-0.4551121679427E-01 -0.8423527914598E+00
-0.4322777366207E-01 -0.8554999761170E+00
-0.4178780760516E-01 -0.8675698320021E+00
-0.4136152117392E-01 -0.8784557467910E+00
-0.4214245890566E-01 -0.8880478593668E+00
-0.4435164541631E-01 -0.8962331446631E+00
-0.4824245015295E-01 -0.9028951457731E+00
-0.5410642013250E-01 -0.9079132511228E+00
-0.6228043592366E-01 -0.9111612750669E+00
-0.7315565589953E-01 -0.9125048939141E+00
-0.8718881242686E-01 -0.9117971660713E+00
-0.1049164332249E+00 -0.9088708206466E+00
-0.1269721917509E+00 -0.9035250847858E+00
-0.1541057858251E+00 -0.8955033282897E+00
-0.1871938582192E+00 -0.8844574981362E+00
-0.3727043441655E-01 -0.7645077429472E+00
-0.3219708432690E-01 -0.7786517896504E+00
-0.2750534247179E-01 -0.7919443211727E+00
-0.2330476450466E-01 -0.8042946403963E+00
-0.1971731839595E-01 -0.8156057839224E+00
-0.1687758058247E-01 -0.8257765170158E+00
-0.1493461274989E-01 -0.8347031121303E+00
-0.1405483941083E-01 -0.8422805985806E+00
-0.1442550022285E-01 -0.8484035580477E+00
-0.1625860173107E-01 -0.8529666717161E+00
-0.1979556057279E-01 -0.8558651463425E+00
-0.2531291950179E-01 -0.8569950428107E+00
-0.3312970462222E-01 -0.8562533995202E+00
-0.4361724423793E-01 -0.8535378809013E+00
-0.5721267440260E-01 -0.8487454084837E+00
-0.7443803581329E-01 -0.8417686921883E+00
-0.9592793821345E-01 -0.8324883957619E+00
-0.1224704150564E+00 -0.8207559316641E+00
-0.1550649310594E+00 -0.8063544420210E+00
-0.1492562626695E-01 -0.7464101176476E+00
-0.9192113703176E-02 -0.7581404475367E+00
-0.3891029347182E-02 -0.7688707157570E+00
 0.8619597642540E-03 -0.7785061028377E+00
 0.4942009374502E-02 -0.7869458082263E+00
 0.8215168648590E-02 -0.7940864717341E+00
 0.1053612613294E-01 -0.7998246595426E+00
 0.1174514220751E-01 -0.8040582796663E+00
 0.1166481767999E-01 -0.8066874767357E+00
 0.1009672453373E-01 -0.8076154306525E+00
 0.6817615071779E-02 -0.8067493646330E+00
 0.1574746595813E-02 -0.8040019045534E+00
-0.5920295920468E-02 -0.7992928731467E+00
-0.1600017702146E-01 -0.7925515788055E+00
-0.2905421945983E-01 -0.7837196392538E+00
-0.4554711645852E-01 -0.7727542894580E+00
-0.6604866523001E-01 -0.7596317480788E+00
-0.9128403556927E-01 -0.7443488388148E+00
-0.1222292855235E+00 -0.7269151477930E+00
 0.6626715854709E-02 -0.7268881110677E+00
 0.1291386991041E-01 -0.7361730127216E+00
 0.1870788855793E-01 -0.7443216912959E+00
 0.2388538367075E-01 -0.7512351630281E+00
 0.2831926813522E-01 -0.7568096475319E+00
 0.3187767794898E-01 -0.7609420089802E+00
 0.3442046203409E-01 -0.7635324174691E+00
 0.3579570478699E-01 -0.7644855194272E+00
 0.3583689826254E-01 -0.7637110684753E+00
 0.3436055714618E-01 -0.7611248658300E+00
 0.3116380358703E-01 -0.7566503102211E+00
 0.2602150594011E-01 -0.7502207701001E+00
 0.1868251396866E-01 -0.7417830165420E+00
 0.8864409063102E-02 -0.7313021151582E+00
-0.3754113472968E-02 -0.7187684865206E+00
-0.1954479602861E-01 -0.7042084174345E+00
-0.3894830678937E-01 -0.6877004209008E+00
-0.6250681967484E-01 -0.6694020796769E+00
-0.9092764529488E-01 -0.6495982316913E+00
 0.2730633508680E-01 -0.7061532880176E+00
 0.3403470166690E-01 -0.7130026328776E+00
 0.4019549744942E-01 -0.7185987581912E+00
 0.4565685868728E-01 -0.7228379335564E+00
 0.5029149799833E-01 -0.7256162818447E+00
 0.5397171034967E-01 -0.7268361425918E+00
 0.5656340707111E-01 -0.7264083047951E+00
 0.5792230561147E-01 -0.7242519453162E+00
 0.5789202200407E-01 -0.7202950947261E+00
 0.5630295376806E-01 -0.7144760299068E+00
 0.5297150463162E-01 -0.7067458368997E+00
 0.4769935270593E-01 -0.6970723328718E+00
 0.4027263939729E-01 -0.6854457096547E+00
 0.3046108796912E-01 -0.6718865688956E+00
 0.1801724670972E-01 -0.6564575577006E+00
 0.2676442693364E-02 -0.6392808217454E+00
-0.1584124388418E-01 -0.6205655064369E+00
-0.3782301642850E-01 -0.6006542422548E+00
-0.6353902657508E-01 -0.5801093560006E+00
 0.4704932090126E-01 -0.6844339084053E+00
 0.5410323953927E-01 -0.6889034474540E+00
 0.6049698740628E-01 -0.6920254175563E+00
 0.6609290621321E-01 -0.6936919482649E+00
 0.7076936082951E-01 -0.6938043075058E+00
 0.7440578976257E-01 -0.6922803606019E+00
 0.7687439670299E-01 -0.6890517004140E+00
 0.7803801429166E-01 -0.6840627214015E+00
 0.7774961155869E-01 -0.6772713549136E+00
 0.7585279615306E-01 -0.6686515584942E+00
 0.7218285856659E-01 -0.6581974429029E+00
 0.6656838456752E-01 -0.6459291683488E+00
 0.5883371650263E-01 -0.6319009927123E+00
 0.4880291432289E-01 -0.6162121831811E+00
 0.3630652655547E-01 -0.5990219764211E+00
 0.2119377496125E-01 -0.5805705417353E+00
 0.3355772393385E-02 -0.5612093337321E+00
-0.1722832985672E-01 -0.5414467073347E+00
-0.4038988816198E-01 -0.5220194544230E+00
 0.6581019119806E-01 -0.6619754753817E+00
 0.7307306110392E-01 -0.6641674888553E+00
 0.7955687878145E-01 -0.6649400660449E+00
 0.8513639950476E-01 -0.6641784121859E+00
 0.8970489883889E-01 -0.6618061196366E+00
 0.9314897074300E-01 -0.6577688725701E+00
 0.9534723216165E-01 -0.6520295433011E+00
 0.9617027757441E-01 -0.6445672488087E+00
 0.9548223819632E-01 -0.6353793242908E+00
 0.9314301014426E-01 -0.6244851784347E+00
 0.8901133191043E-01 -0.6119317168413E+00
 0.8294904467627E-01 -0.5978003331869E+00
 0.7482717491951E-01 -0.5822156882406E+00
 0.6453490428423E-01 -0.5653566390674E+00
 0.5199324078548E-01 -0.5474697552844E+00
 0.3717664998062E-01 -0.5288858131834E+00
 0.2014842902910E-01 -0.5100391441508E+00
 0.1121376607649E-02 -0.4914880510578E+00
-0.1944089821707E-01 -0.4739261539934E+00
 0.8357337908882E-01 -0.6390404031319E+00
 0.9090270493009E-01 -0.6391130610394E+00
 0.9732540705919E-01 -0.6376739424622E+00
 0.1027582843650E+00 -0.6346531371229E+00
 0.1070992965602E+00 -0.6300145264230E+00
 0.1102404899453E+00 -0.6237410342074E+00
 0.1120676600828E+00 -0.6158321479119E+00
 0.1124626975442E+00 -0.6063058738036E+00
 0.1113061760222E+00 -0.5952024996401E+00
 0.1084809421847E+00 -0.5825893835682E+00
 0.1038769558909E+00 -0.5685665126874E+00
 0.9739788251655E-01 -0.5532727599410E+00
 0.8897011884848E-01 -0.5368927735342E+00
 0.7855521561017E-01 -0.5196642956681E+00
 0.6616704163328E-01 -0.5018853451265E+00
 0.5189545504971E-01 -0.4839198461675E+00
 0.3593873659218E-01 -0.4661984480360E+00
 0.1864517605896E-01 -0.4492066901025E+00
 0.5606399455221E-03 -0.4334445765573E+00
</DataArray>
</PointData>
   <DataArray type="Float64" Name="Load" NumberOfComponents="1"    ComponentName0="Load" format="ascii">
 0.7215661239438E+01
 0.6376149267124E+01
 0.5726527879123E+01
 0.5471354105899E+01
 0.5289046722165E+01
 0.5166921069747E+01
 0.5076102713758E+01
 0.5007072009076E+01
 0.4953327044945E+01
 0.4911447414542E+01
 0.4879482814850E+01
 0.4856543254452E+01
 0.4842499144239E+01
 0.4837873140814E+01
 0.4843840120514E+01
 0.4862359323814E+01
 0.4896533474543E+01
 0.4951581240005E+01
 0.5037176243916E+01
 0.5167184292034E+01
 0.5333423041697E+01
 0.5500707777755E+01
 0.5641511695175E+01
 0.5748698800128E+01
 0.5827970269559E+01
 0.5888882559742E+01
 0.5939770131615E+01
 0.5985863499087E+01
 0.6028512254500E+01
 0.6064483920234E+01
 0.6091577817295E+01
 0.6119476230472E+01
 0.6162567006838E+01
 0.6230272910089E+01
 0.6332062107447E+01
 0.6476733645654E+01
 0.6690325879837E+01
 0.6936075401875E+01
 0.7491152351453E+01
 0.6702672072816E+01
 0.1375752379047E+02
 0.6108464543727E+01
 0.6269710511115E+01
 0.5788562950758E+01
 0.5485910454327E+01
 0.5302534521641E+01
 0.5169650888648E+01
 0.5072437219907E+01
 0.4998072348901E+01
 0.4940370982244E+01
 0.4895478304590E+01
 0.4861257348805E+01
 0.4836635971140E+01
 0.4821343302905E+01
 0.4815773572464E+01
 0.4820970200196E+01
 0.4838721068351E+01
 0.4871841992962E+01
 0.4924651258465E+01
 0.5001783342923E+01
 0.5103937252239E+01
 0.5222774884919E+01
 0.5342118769625E+01
 0.5446934217541E+01
 0.5530127639408E+01
 0.5592061735680E+01
 0.5636696708863E+01
 0.5668275554309E+01
 0.5689401984197E+01
 0.5700485199154E+01
 0.5701049696198E+01
 0.5691730058721E+01
 0.5674753623700E+01
 0.5652718629716E+01
 0.5626044885375E+01
 0.5589318664700E+01
 0.5530858332681E+01
 0.5409676362806E+01
 0.5193546966508E+01
 0.4526238780125E+01
 0.3451459716792E+01
 0.1166324334989E+02
 0.5496525197737E+01
 0.5895231596536E+01
 0.5731816351548E+01
 0.5467649257750E+01
 0.5289498930358E+01
 0.5158140376220E+01
 0.5058647257999E+01
 0.4981897452001E+01
 0.4921822964346E+01
 0.4874854092671E+01
 0.4838838348811E+01
 0.4812655539322E+01
 0.4795942514518E+01
 0.4788967916740E+01
 0.4792590255174E+01
 0.4808288365095E+01
 0.4838246114561E+01
 0.4884856788692E+01
 0.4948254452786E+01
 0.5024483768736E+01
 0.5107230619029E+01
 0.5189235988443E+01
 0.5262818701038E+01
 0.5322194258692E+01
 0.5365066648692E+01
 0.5391792383502E+01
 0.5403602082481E+01
 0.5401204371720E+01
 0.5384616579447E+01
 0.5354084077516E+01
 0.5309680981317E+01
 0.5249500316167E+01
 0.5169592293023E+01
 0.5063060861570E+01
 0.4916840200170E+01
 0.4704693629101E+01
 0.4386081836213E+01
 0.3880297552629E+01
 0.3066271470932E+01
 0.3252908290296E+01
 0.1071909708277E+02
 0.5102534943902E+01
 0.5539058880823E+01
 0.5576418761844E+01
 0.5409968964175E+01
 0.5253534957042E+01
 0.5131310028044E+01
 0.5034659751165E+01
 0.4958208763986E+01
 0.4897451421987E+01
 0.4849368229425E+01
 0.4812060579988E+01
 0.4784468825379E+01
 0.4766194443926E+01
 0.4757385530161E+01
 0.4758671503888E+01
 0.4771108084593E+01
 0.4795957813785E+01
 0.4833591985237E+01
 0.4881481229963E+01
 0.4934486381683E+01
 0.4988311997837E+01
 0.5040234302984E+01
 0.5086710523834E+01
 0.5123360996545E+01
 0.5146755449612E+01
 0.5155070693465E+01
 0.5147483917273E+01
 0.5123409117804E+01
 0.5082433024258E+01
 0.5024482902293E+01
 0.4948469360517E+01
 0.4850143320112E+01
 0.4722158156381E+01
 0.4554192151950E+01
 0.4330397992196E+01
 0.4027274656714E+01
 0.3615711729226E+01
 0.3068513992865E+01
 0.2597035412798E+01
 0.4023653213906E+01
 0.9887959807414E+01
 0.4822917376537E+01
 0.5239005178009E+01
 0.5385206179168E+01
 0.5314980278177E+01
 0.5196910563693E+01
 0.5090054301244E+01
 0.5000551297686E+01
 0.4927017999925E+01
 0.4867171667906E+01
 0.4818934744316E+01
 0.4780845474253E+01
 0.4752019211769E+01
 0.4732073177234E+01
 0.4721045665459E+01
 0.4719309061543E+01
 0.4727415652740E+01
 0.4745630023346E+01
 0.4772751396877E+01
 0.4804999002489E+01
 0.4837411993434E+01
 0.4867280623923E+01
 0.4894258517834E+01
 0.4917105537784E+01
 0.4932595325850E+01
 0.4936974043950E+01
 0.4927221309134E+01
 0.4901226859582E+01
 0.4857530722116E+01
 0.4795229785432E+01
 0.4713640318890E+01
 0.4610732023456E+01
 0.4481201710777E+01
 0.4316722456475E+01
 0.4106797727563E+01
 0.3838561908704E+01
 0.3499250823098E+01
 0.3086748185705E+01
 0.2668608257984E+01
 0.2702497457540E+01
 0.4716739314476E+01
 0.9206116048657E+01
 0.4610295134511E+01
 0.4990566236697E+01
 0.5190538352642E+01
 0.5196137689413E+01
 0.5122087772918E+01
 0.5035959314262E+01
 0.4956875499620E+01
 0.4888548276693E+01
 0.4831065609378E+01
 0.4783574268755E+01
 0.4745199786361E+01
 0.4715323516091E+01
 0.4693626620032E+01
 0.4680053495136E+01
 0.4674710196922E+01
 0.4677626651220E+01
 0.4688183840367E+01
 0.4704160018796E+01
 0.4721393849018E+01
 0.4735573192364E+01
 0.4745135395351E+01
 0.4750979637877E+01
 0.4753133352211E+01
 0.4749242239728E+01
 0.4735639905553E+01
 0.4708762444691E+01
 0.4665779934128E+01
 0.4604672203286E+01
 0.4524103314967E+01
 0.4422869555106E+01
 0.4298471014566E+01
 0.4145610025448E+01
 0.3956763761577E+01
 0.3723941245052E+01
 0.3440968566452E+01
 0.3110238069359E+01
 0.2765547316724E+01
 0.2561786977451E+01
 0.3049789494482E+01
 0.5183216978246E+01
 0.8663737597640E+01
 0.4440079809370E+01
 0.4783190714960E+01
 0.5005917788642E+01
 0.5065699948934E+01
 0.5033378960497E+01
 0.4970814657200E+01
 0.4904553294041E+01
 0.4843223466713E+01
 0.4789352440290E+01
 0.4743408049839E+01
 0.4705208538021E+01
 0.4674467596017E+01
 0.4650971379816E+01
 0.4634591612764E+01
 0.4625180480487E+01
 0.4622290992166E+01
 0.4624627864003E+01
 0.4629417550673E+01
 0.4632599592313E+01
 0.4630609041724E+01
 0.4622682202638E+01
 0.4610351550158E+01
 0.4594330990694E+01
 0.4572913947498E+01
 0.4542722291604E+01
 0.4500069360634E+01
 0.4441811568601E+01
 0.4365626714437E+01
 0.4269899788688E+01
 0.4153163509079E+01
 0.4012962065415E+01
 0.3844843924202E+01
 0.3643376669395E+01
 0.3404848135563E+01
 0.3131679029997E+01
 0.2843381708040E+01
 0.2608905690571E+01
 0.2640847431918E+01
 0.3434002246492E+01
 0.5471623700867E+01
 0.8232986281565E+01
 0.4298334142552E+01
 0.4607388512735E+01
 0.4835847563830E+01
 0.4932051449633E+01
 0.4935459736973E+01
 0.4896724806357E+01
 0.4844688065838E+01
 0.4791636366278E+01
 0.4742364848208E+01
 0.4698644934659E+01
 0.4661027318754E+01
 0.4629599860822E+01
 0.4604285630676E+01
 0.4584909348288E+01
 0.4571103384137E+01
 0.4562033416845E+01
 0.4555952453566E+01
 0.4549880179116E+01
 0.4540096746916E+01
 0.4523738339938E+01
 0.4500588335164E+01
 0.4472479256968E+01
 0.4440489216761E+01
 0.4403401342826E+01
 0.4358219252986E+01
 0.4301397669242E+01
 0.4229766550362E+01
 0.4140924517743E+01
 0.4033179433746E+01
 0.3905103617739E+01
 0.3754744887713E+01
 0.3579119590696E+01
 0.3375709583443E+01
 0.3145999156671E+01
 0.2901645929762E+01
 0.2678776725681E+01
 0.2574070890440E+01
 0.2816601435167E+01
 0.3776138362575E+01
 0.5641973821716E+01
 0.7886640527825E+01
 0.4176611832685E+01
 0.4455780865951E+01
 0.4680863795450E+01
 0.4800232425086E+01
 0.4832368515437E+01
 0.4815900310258E+01
 0.4778490233132E+01
 0.4734488214694E+01
 0.4690526510327E+01
 0.4649566184889E+01
 0.4612872861040E+01
 0.4580923463195E+01
 0.4553800445202E+01
 0.4531310228305E+01
 0.4512915612283E+01
 0.4497504276285E+01
 0.4483079001129E+01
 0.4466685368840E+01
 0.4445044717239E+01
 0.4415903008631E+01
 0.4379417814764E+01
 0.4337543973613E+01
 0.4291550360066E+01
 0.4240606063769E+01
 0.4182136210350E+01
 0.4112899728073E+01
 0.4029903453655E+01
 0.3930858823185E+01
 0.3814205906524E+01
 0.3678842262550E+01
 0.3523682872243E+01
 0.3347620960263E+01
 0.3151473685511E+01
 0.2942194986034E+01
 0.2740360695704E+01
 0.2596188331449E+01
 0.2622156244318E+01
 0.3028309316939E+01
 0.4057738518585E+01
 0.5737703500918E+01
 0.7603495601991E+01
 0.4069513478242E+01
 0.4322854181275E+01
 0.4539897303053E+01
 0.4672977407113E+01
 0.4727195373597E+01
 0.4730411744329E+01
 0.4707200353757E+01
 0.4672539831085E+01
 0.4634325131511E+01
 0.4596510251881E+01
 0.4561012422032E+01
 0.4528687546744E+01
 0.4499790199200E+01
 0.4474138260340E+01
 0.4451083526671E+01
 0.4429345805677E+01
 0.4406840790175E+01
 0.4380786345163E+01
 0.4348370252736E+01
 0.4307853304724E+01
 0.4259653435340E+01
 0.4205758573475E+01
 0.4147540783509E+01
 0.4084490604392E+01
 0.4014468169072E+01
 0.3934635305514E+01
 0.3842319710453E+01
 0.3735506070363E+01
 0.3612956320018E+01
 0.3474129460647E+01
 0.3319062966106E+01
 0.3148745020494E+01
 0.2967436035976E+01
 0.2787370752456E+01
 0.2636975548816E+01
 0.2576464821701E+01
 0.2720901551379E+01
 0.3241881552446E+01
 0.4282092318834E+01
 0.5786883720703E+01
 0.7368163355570E+01
 0.3973432452772E+01
 0.4204521188636E+01
 0.4411347517280E+01
 0.4551572194169E+01
 0.4622127604269E+01
 0.4642041461003E+01
 0.4632011731271E+01
 0.4606570719948E+01
 0.4574286774768E+01
 0.4539857218180E+01
 0.4505752895317E+01
 0.4473178014210E+01
 0.4442562624916E+01
 0.4413764451767E+01
 0.4386083734663E+01
 0.4358171725811E+01
 0.4327980270187E+01
 0.4292984933520E+01
 0.4250827450044E+01
 0.4200200551555E+01
 0.4141710735425E+01
 0.4077340466072E+01
 0.4008526650774E+01
 0.3935043276974E+01
 0.3855186479154E+01
 0.3766579203682E+01
 0.3666970828038E+01
 0.3554747136962E+01
 0.3429147073208E+01
 0.3290365797193E+01
 0.3139715501152E+01
 0.2980341532899E+01
 0.2819828069300E+01
 0.2675166213572E+01
 0.2580969279058E+01
 0.2602439959348E+01
 0.2846306322495E+01
 0.3441034021270E+01
 0.4458502943949E+01
 0.5807095013017E+01
 0.7169687028875E+01
 0.3885869436872E+01
 0.4097739070048E+01
 0.4293553015550E+01
 0.4436442764179E+01
 0.4518619804021E+01
 0.4552233150340E+01
 0.4554012174925E+01
 0.4537344194747E+01
 0.4510953332341E+01
 0.4480013850982E+01
 0.4447430029640E+01
 0.4414708260582E+01
 0.4382449020552E+01
 0.4350574639920E+01
 0.4318388527803E+01
 0.4284556324758E+01
 0.4247153982229E+01
 0.4203959334001E+01
 0.4153038962695E+01
 0.4093450806297E+01
 0.4025947057244E+01
 0.3952494807613E+01
 0.3874585070500E+01
 0.3792254278150E+01
 0.3704229654499E+01
 0.3608627469747E+01
 0.3503687002254E+01
 0.3388290723362E+01
 0.3262269548409E+01
 0.3126667990052E+01
 0.2984136856310E+01
 0.2839922520396E+01
 0.2704650994198E+01
 0.2599289886476E+01
 0.2562548080277E+01
 0.2659624154174E+01
 0.2982182672402E+01
 0.3619490979803E+01
 0.4596670704621E+01
 0.5809321974315E+01
 0.7000227562161E+01
 0.3805037759592E+01
 0.4000221333157E+01
 0.4184982161723E+01
 0.4327530839343E+01
 0.4417578694721E+01
 0.4462103551938E+01
 0.4474151505188E+01
 0.4465580261606E+01
 0.4444863566389E+01
 0.4417400087101E+01
 0.4386398197989E+01
 0.4353610283955E+01
 0.4319795142872E+01
 0.4284959256160E+01
 0.4248455757607E+01
 0.4209029751807E+01
 0.4164940550641E+01
 0.4114286554803E+01
 0.4055524812760E+01
 0.3988027137067E+01
 0.3912667850735E+01
 0.3831404339474E+01
 0.3745785721389E+01
 0.3656100132230E+01
 0.3561497976324E+01
 0.3460603682180E+01
 0.3352189164753E+01
 0.3235698878645E+01
 0.3111631010727E+01
 0.2981937816428E+01
 0.2850602483697E+01
 0.2724829824869E+01
 0.2617886265921E+01
 0.2553742426244E+01
 0.2572927579461E+01
 0.2736520518960E+01
 0.3118467988331E+01
 0.3776074685350E+01
 0.4704976093035E+01
 0.5800497218271E+01
 0.6854085985880E+01
 0.3729625917563E+01
 0.3910230209639E+01
 0.4084295836171E+01
 0.4224523812168E+01
 0.4319521776358E+01
 0.4372484263444E+01
 0.4393231197020E+01
 0.4391937399426E+01
 0.4376537970598E+01
 0.4352437316574E+01
 0.4323021025474E+01
 0.4290226425236E+01
 0.4254953057601E+01
 0.4217305089713E+01
 0.4176722187659E+01
 0.4132077001533E+01
 0.4081849281417E+01
 0.4024460033212E+01
 0.3958722769344E+01
 0.3884284746671E+01
 0.3802131267755E+01
 0.3714223401560E+01
 0.3622179414229E+01
 0.3526534045001E+01
 0.3426851059342E+01
 0.3322265677519E+01
 0.3212104850951E+01
 0.3096413322092E+01
 0.2976396391018E+01
 0.2854927333705E+01
 0.2737262499066E+01
 0.2632359312825E+01
 0.2555632471912E+01
 0.2532960671295E+01
 0.2604523868447E+01
 0.2824504048103E+01
 0.3249374799874E+01
 0.3911984220741E+01
 0.4790180379105E+01
 0.5785065732137E+01
 0.6727029122348E+01
 0.3658649100651E+01
 0.3826429139478E+01
 0.3990353746451E+01
 0.4126991380613E+01
 0.4224700404757E+01
 0.4283973105092E+01
 0.4311909229968E+01
 0.4317002747225E+01
 0.4306467584527E+01
 0.4285538664563E+01
 0.4257663126960E+01
 0.4224901970775E+01
 0.4188274130506E+01
 0.4147988930507E+01
 0.4103599437719E+01
 0.4054138983511E+01
 0.3998328294222E+01
 0.3934903366484E+01
 0.3863003036427E+01
 0.3782521621324E+01
 0.3694551824837E+01
 0.3601074792462E+01
 0.3503791450643E+01
 0.3403480592681E+01
 0.3300107889249E+01
 0.3193312994631E+01
 0.3082984022366E+01
 0.2969781441233E+01
 0.2855628023570E+01
 0.2744296253998E+01
 0.2642217231216E+01
 0.2559847639843E+01
 0.2514193151316E+01
 0.2531916186815E+01
 0.2651031955450E+01
 0.2917406315158E+01
 0.3371889808135E+01
 0.4029374736979E+01
 0.4857590465879E+01
 0.5765934727002E+01
 0.6615836990396E+01
 0.3591353203801E+01
 0.3747777994727E+01
 0.3902197850248E+01
 0.4034464375085E+01
 0.4133190159169E+01
 0.4196984084718E+01
 0.4230713663651E+01
 0.4241289137907E+01
 0.4235106608157E+01
 0.4217101369218E+01
 0.4190683141255E+01
 0.4157978811872E+01
 0.4120103265619E+01
 0.4077372906788E+01
 0.4029471842269E+01
 0.3975614748884E+01
 0.3914771862346E+01
 0.3845981127449E+01
 0.3768679198242E+01
 0.3682986488036E+01
 0.3590103750460E+01
 0.3492048799184E+01
 0.3390618531224E+01
 0.3286833793993E+01
 0.3181049064354E+01
 0.3073395241391E+01
 0.2964314887009E+01
 0.2855081200143E+01
 0.2748321642971E+01
 0.2648659798219E+01
 0.2563573940771E+01
 0.2504730836424E+01
 0.2490134761007E+01
 0.2546177096808E+01
 0.2707389351874E+01
 0.3010995950181E+01
 0.3484709225906E+01
 0.4130643609167E+01
 0.4911331210684E+01
 0.5745058801968E+01
 0.6518001621846E+01
 0.3527150902528E+01
 0.3673458191137E+01
 0.3819028322865E+01
 0.3946478448437E+01
 0.4044954871890E+01
 0.4111791044379E+01
 0.4150060046886E+01
 0.4165236989155E+01
 0.4162868284061E+01
 0.4147501134179E+01
 0.4122428058606E+01
 0.4089790165323E+01
 0.4050774290803E+01
 0.4005801169672E+01
 0.3954695570323E+01
 0.3896864179187E+01
 0.3831526764755E+01
 0.3758007368154E+01
 0.3676016503667E+01
 0.3585884939677E+01
 0.3488924087644E+01
 0.3387203604451E+01
 0.3282627972241E+01
 0.3176457414311E+01
 0.3069420449436E+01
 0.2962120819416E+01
 0.2855538988460E+01
 0.2751543749729E+01
 0.2653437140361E+01
 0.2566626361268E+01
 0.2499487296495E+01
 0.2464583106540E+01
 0.2480324991448E+01
 0.2571931974846E+01
 0.2769653576246E+01
 0.3102485443205E+01
 0.3587535408004E+01
 0.4218085618833E+01
 0.4954596017549E+01
 0.5723812499927E+01
 0.6431529520466E+01
 0.3465577947539E+01
 0.3602818654069E+01
 0.3740178927015E+01
 0.3862596776309E+01
 0.3959890842748E+01
 0.4028563537881E+01
 0.4070269532371E+01
 0.4089219264441E+01
 0.4090123406152E+01
 0.4077088281092E+01
 0.4053228818041E+01
 0.4020656351727E+01
 0.3980606405077E+01
 0.3933597669094E+01
 0.3879598599627E+01
 0.3818210807878E+01
 0.3748897728186E+01
 0.3671252406558E+01
 0.3585238340408E+01
 0.3491384400682E+01
 0.3391115724323E+01
 0.3286566703873E+01
 0.3179758568468E+01
 0.3072186880490E+01
 0.2964937842915E+01
 0.2859065759027E+01
 0.2756065252026E+01
 0.2658373272755E+01
 0.2569923804820E+01
 0.2496825954969E+01
 0.2448187390541E+01
 0.2437142510512E+01
 0.2481955498459E+01
 0.2605977314423E+01
 0.2834834602384E+01
 0.3190122015015E+01
 0.3680632840400E+01
 0.4293740756565E+01
 0.4989826470599E+01
 0.5703232973363E+01
 0.6354820730627E+01
 0.3406262583971E+01
 0.3535336380694E+01
 0.3665094563180E+01
 0.3782420439800E+01
 0.3877856699758E+01
 0.3947395182805E+01
 0.3991585903320E+01
 0.4013548075629E+01
 0.4017200778553E+01
 0.4006185447690E+01
 0.3983397081774E+01
 0.3950881566661E+01
 0.3909901562653E+01
 0.3861064786530E+01
 0.3804481247734E+01
 0.3739944587695E+01
 0.3667152074496E+01
 0.3585948330762E+01
 0.3496531452216E+01
 0.3399618332966E+01
 0.3296750408852E+01
 0.3190137027385E+01
 0.3081922580869E+01
 0.2973832278463E+01
 0.2867292245988E+01
 0.2763782345423E+01
 0.2665282675616E+01
 0.2574763810735E+01
 0.2496740259472E+01
 0.2437930912658E+01
 0.2407998706614E+01
 0.2420327500521E+01
 0.2492550182070E+01
 0.2645675584227E+01
 0.2900717699014E+01
 0.3272872235382E+01
 0.3764559224819E+01
 0.4359349924239E+01
 0.5018822596277E+01
 0.5684132589057E+01
 0.6286604101175E+01
 0.3348903750429E+01
 0.3470587212947E+01
 0.3593311930981E+01
 0.3705591738600E+01
 0.3798693115795E+01
 0.3868325450451E+01
 0.3914190639592E+01
 0.3938481901216E+01
 0.3944389011510E+01
 0.3935086547164E+01
 0.3913223054643E+01
 0.3880751548042E+01
 0.3838942661064E+01
 0.3788482631214E+01
 0.3729617057166E+01
 0.3662324514884E+01
 0.3586523703459E+01
 0.3502293547688E+01
 0.3410050274460E+01
 0.3310689934202E+01
 0.3205871766308E+01
 0.3097887535877E+01
 0.2989008464897E+01
 0.2881182025966E+01
 0.2776155390629E+01
 0.2675807267910E+01
 0.2582571471656E+01
 0.2499913082917E+01
 0.2432869675916E+01
 0.2388670494901E+01
 0.2377352672438E+01
 0.2412246274732E+01
 0.2509960080650E+01
 0.2688894248999E+01
 0.2965698800424E+01
 0.3350191131358E+01
 0.3840000257259E+01
 0.4416396705646E+01
 0.5042794818134E+01
 0.5667148199246E+01
 0.6225829683086E+01
 0.3293256342234E+01
 0.3408242600710E+01
 0.3524477825947E+01
 0.3631847243774E+01
 0.3722309400164E+01
 0.3791449872398E+01
 0.3838328241199E+01
 0.3864362627294E+01
 0.3872085522742E+01
 0.3864219436172E+01
 0.3843153932323E+01
 0.3810730128048E+01
 0.3768210757557E+01
 0.3716349629791E+01
 0.3655519312747E+01
 0.3585873023579E+01
 0.3507536326998E+01
 0.3420804738092E+01
 0.3326296572285E+01
 0.3225077675535E+01
 0.3118924292410E+01
 0.3010214450258E+01
 0.2901346015629E+01
 0.2794477960718E+01
 0.2691656383349E+01
 0.2595128186009E+01
 0.2507743886627E+01
 0.2433417189045E+01
 0.2377643074467E+01
 0.2348053461594E+01
 0.2354878702088E+01
 0.2411126773799E+01
 0.2532101434756E+01
 0.2733524017399E+01
 0.3028100097241E+01
 0.3421257516126E+01
 0.3907109192542E+01
 0.4465713125269E+01
 0.5062538743518E+01
 0.5651711253268E+01
 0.6177026367823E+01
 0.3239120666672E+01
 0.3348018957848E+01
 0.3458269324173E+01
 0.3560909288436E+01
 0.3648543793737E+01
 0.3716743826200E+01
 0.3764090661989E+01
 0.3791361297480E+01
 0.3800505773803E+01
 0.3793820048209E+01
 0.3773432512265E+01
 0.3741060033694E+01
 0.3697944344673E+01
 0.3644895703676E+01
 0.3582403261505E+01
 0.3510782692595E+01
 0.3430351069215E+01
 0.3341603414317E+01
 0.3245345230642E+01
 0.3142803029940E+01
 0.3035867890883E+01
 0.2927005472362E+01
 0.2818737886577E+01
 0.2713423777651E+01
 0.2613386059628E+01
 0.2521209605283E+01
 0.2440124814206E+01
 0.2374447641969E+01
 0.2330063687683E+01
 0.2314900346803E+01
 0.2339212052626E+01
 0.2415462116536E+01
 0.2557470241414E+01
 0.2778339958152E+01
 0.3087307888012E+01
 0.3486273312459E+01
 0.3966828261818E+01
 0.4508510408869E+01
 0.5079125513729E+01
 0.5637167146396E+01
 0.6139444997211E+01
 0.3186320708165E+01
 0.3289657129246E+01
 0.3394371076715E+01
 0.3492471822111E+01
 0.3577158900767E+01
 0.3644063904317E+01
 0.3691419869556E+01
 0.3719479228399E+01
 0.3729682531829E+01
 0.3723930625502E+01
 0.3704095601744E+01
 0.3671762695524E+01
 0.3628141730236E+01
 0.3574088319502E+01
 0.3510196786838E+01
 0.3436932224610E+01
 0.3354788065400E+01
 0.3264443130453E+01
 0.3166876896760E+01
 0.3063468243132E+01
 0.2956220414073E+01
 0.2847686835294E+01
 0.2740510737691E+01
 0.2637239437878E+01
 0.2540453089568E+01
 0.2453048045696E+01
 0.2378602027141E+01
 0.2321791103498E+01
 0.2288828954069E+01
 0.2287838158543E+01
 0.2328946819126E+01
 0.2423897643982E+01
 0.2584926257604E+01
 0.2822649299505E+01
 0.3143287929226E+01
 0.3545917582140E+01
 0.4020333589058E+01
 0.4546075938677E+01
 0.5093090747231E+01
 0.5624653647620E+01
 0.6103860656343E+01
 0.3134712828782E+01
 0.3232959064692E+01
 0.3332551112686E+01
 0.3426321484230E+01
 0.3508010350391E+01
 0.3573359219035E+01
 0.3620354950775E+01
 0.3648825546581E+01
 0.3659771394268E+01
 0.3654733527688E+01
 0.3635338514240E+01
 0.3603037355247E+01
 0.3558999709148E+01
 0.3504116210570E+01
 0.3439074620630E+01
 0.3364475923999E+01
 0.3280974772425E+01
 0.3189418615393E+01
 0.3090948167411E+01
 0.2987086066085E+01
 0.2879943751892E+01
 0.2772160739910E+01
 0.2666496704624E+01
 0.2565675967256E+01
 0.2472516616634E+01
 0.2390200808872E+01
 0.2322621810697E+01
 0.2274773991228E+01
 0.2253137007219E+01
 0.2265932791384E+01
 0.2323031615857E+01
 0.2435326619093E+01
 0.2613441193754E+01
 0.2865692124633E+01
 0.3195721667041E+01
 0.3600370271872E+01
 0.4068203057141E+01
 0.4579065701343E+01
 0.5105065125540E+01
 0.5613482081522E+01
 0.6071814005466E+01
 0.3084175306081E+01
 0.3177757435447E+01
 0.3272611996506E+01
 0.3362271467037E+01
 0.3440964272289E+01
 0.3504572672230E+01
 0.3550916917649E+01
 0.3579485638966E+01
 0.3590903209904E+01
 0.3586387686370E+01
 0.3567334953312E+01
 0.3535062973201E+01
 0.3490695362191E+01
 0.3435148396280E+01
 0.3369191631969E+01
 0.3293548348368E+01
 0.3209019506079E+01
 0.3116606527850E+01
 0.3017598952487E+01
 0.2913654190309E+01
 0.2806986753958E+01
 0.2700319045942E+01
 0.2596521271626E+01
 0.2498482678301E+01
 0.2409240481124E+01
 0.2332238023108E+01
 0.2271653448658E+01
 0.2232758492947E+01
 0.2222238417562E+01
 0.2248325869191E+01
 0.2320523891673E+01
 0.2448791939177E+01
 0.2642169405508E+01
 0.2906890391681E+01
 0.3244419426817E+01
 0.3649850141300E+01
 0.4110940663546E+01
 0.4608061437888E+01
 0.5115363808555E+01
 0.5603464757313E+01
 0.6043406704359E+01
 0.3034604010119E+01
 0.3123909976419E+01
 0.3214384672644E+01
 0.3300157978786E+01
 0.3375897435289E+01
 0.3437643954137E+01
 0.3483112822974E+01
 0.3511524928462E+01
 0.3523186841642E+01
 0.3519030333354E+01
 0.3500238018063E+01
 0.3467998905993E+01
 0.3423386751524E+01
 0.3367335133544E+01
 0.3300684141693E+01
 0.3224265970100E+01
 0.3139013356828E+01
 0.3046067530486E+01
 0.2946854666827E+01
 0.2843157581542E+01
 0.2737287747949E+01
 0.2632046008766E+01
 0.2530406237314E+01
 0.2435410342750E+01
 0.2350296515960E+01
 0.2278745874303E+01
 0.2225192085925E+01
 0.2195144703100E+01
 0.2195437238805E+01
 0.2234233936901E+01
 0.2320584880170E+01
 0.2463472028294E+01
 0.2670420413270E+01
 0.2945809161683E+01
 0.3289283501368E+01
 0.3694587632241E+01
 0.4148992200735E+01
 0.4633523187980E+01
 0.5124210141864E+01
 0.5594490837719E+01
 0.6018393353180E+01
 0.2985909053351E+01
 0.3071294807191E+01
 0.3157723505008E+01
 0.3239836982644E+01
 0.3312696820846E+01
 0.3372511522226E+01
 0.3416938906686E+01
 0.3444992012394E+01
 0.3456711652153E+01
 0.3452778709862E+01
 0.3434181322898E+01
 0.3401985732360E+01
 0.3357213730290E+01
 0.3300808906238E+01
 0.3233671182277E+01
 0.3156728700649E+01
 0.3071031917099E+01
 0.2977848160867E+01
 0.2878728228345E+01
 0.2775570629174E+01
 0.2670776871574E+01
 0.2567220804282E+01
 0.2467972410264E+01
 0.2376213994795E+01
 0.2295367335193E+01
 0.2229329178284E+01
 0.2182760816063E+01
 0.2161371940786E+01
 0.2172091204402E+01
 0.2222946622248E+01
 0.2322473311489E+01
 0.2478666283730E+01
 0.2697633898197E+01
 0.2982125243671E+01
 0.3330279377409E+01
 0.3734811803215E+01
 0.4182742157559E+01
 0.4655817087344E+01
 0.5131769376334E+01
 0.5586449530890E+01
 0.5996447475977E+01
 0.2938012123352E+01
 0.3019806639912E+01
 0.3102502183069E+01
 0.3181181280035E+01
 0.3251258857239E+01
 0.3309113841666E+01
 0.3352382972288E+01
 0.3379921245337E+01
 0.3391549707662E+01
 0.3387731710318E+01
 0.3369280175272E+01
 0.3337146176931E+01
 0.3292298829390E+01
 0.3235685434014E+01
 0.3168255705561E+01
 0.3091021299776E+01
 0.3005136854580E+01
 0.2911982535435E+01
 0.2813221890153E+01
 0.2710859128306E+01
 0.2607378222934E+01
 0.2505719838882E+01
 0.2409042032108E+01
 0.2320655377325E+01
 0.2244148660986E+01
 0.2183613390860E+01
 0.2143912144133E+01
 0.2130919425562E+01
 0.2151611235681E+01
 0.2213823951141E+01
 0.2325538285840E+01
 0.2493780718837E+01
 0.2723357665064E+01
 0.3015601736186E+01
 0.3367415041993E+01
 0.3770740736788E+01
 0.4212518405904E+01
 0.4675236020641E+01
 0.5138159851076E+01
 0.5579221920640E+01
 0.5977224933603E+01
 0.2890844330813E+01
 0.2969353704183E+01
 0.3048610331530E+01
 0.3124077939832E+01
 0.3191488490694E+01
 0.3247390115357E+01
 0.3289426181264E+01
 0.3316334872797E+01
 0.3327757738364E+01
 0.3323971462401E+01
 0.3305632802543E+01
 0.3273586128127E+01
 0.3228748231322E+01
 0.3172064729031E+01
 0.3104525787635E+01
 0.3027214737838E+01
 0.2941377412344E+01
 0.2848493971652E+01
 0.2750328989797E+01
 0.2648982173223E+01
 0.2547011904326E+01
 0.2447418919213E+01
 0.2353441009484E+01
 0.2268505129843E+01
 0.2196351317826E+01
 0.2141246223268E+01
 0.2108229024853E+01
 0.2103306515784E+01
 0.2133460450303E+01
 0.2206293050188E+01
 0.2329211712776E+01
 0.2508314331308E+01
 0.2747228547183E+01
 0.3046067745279E+01
 0.3400725710241E+01
 0.3802576049917E+01
 0.4238598644728E+01
 0.4692013801281E+01
 0.5143461934594E+01
 0.5572680208524E+01
 0.5960385845507E+01
 0.2844344454253E+01
 0.2919855235714E+01
 0.2995950687307E+01
 0.3068426039525E+01
 0.3133298181733E+01
 0.3187280641862E+01
 0.3228044377926E+01
 0.3254244765955E+01
 0.3265378845718E+01
 0.3261564794434E+01
 0.3243321560597E+01
 0.3211395678636E+01
 0.3166652763398E+01
 0.3110032140946E+01
 0.3042555780267E+01
 0.2965367467139E+01
 0.2879791792965E+01
 0.2787396480551E+01
 0.2690035558845E+01
 0.2589893895974E+01
 0.2489595885790E+01
 0.2392195205252E+01
 0.2301000883013E+01
 0.2219544661403E+01
 0.2151702864105E+01
 0.2101898866876E+01
 0.2075325508514E+01
 0.2078092555036E+01
 0.2117152735878E+01
 0.2199844391217E+01
 0.2333000642036E+01
 0.2521846525432E+01
 0.2768956175750E+01
 0.3073402369098E+01
 0.3430262782643E+01
 0.3830500272868E+01
 0.4261216637391E+01
 0.4706335977594E+01
 0.5147724971343E+01
 0.5566689786937E+01
 0.5945603264203E+01
 0.2798457496202E+01
 0.2871239412599E+01
 0.2944436741626E+01
 0.3014134691755E+01
 0.3076606893762E+01
 0.3128726918572E+01
 0.3168209054827E+01
 0.3193653827301E+01
 0.3204443982425E+01
 0.3200564584878E+01
 0.3182414104079E+01
 0.3150650165854E+01
 0.3106088893242E+01
 0.3049659382869E+01
 0.2982407412473E+01
 0.2905526614869E+01
 0.2820408443965E+01
 0.2728696147403E+01
 0.2632321808282E+01
 0.2533545063084E+01
 0.2435047700974E+01
 0.2339928962472E+01
 0.2251560557760E+01
 0.2173567748767E+01
 0.2109948923317E+01
 0.2065266912246E+01
 0.2044847093653E+01
 0.2054876428305E+01
 0.2102251007459E+01
 0.2194027771461E+01
 0.2336479769069E+01
 0.2534025776503E+01
 0.2788309367763E+01
 0.3097522147978E+01
 0.3456085994440E+01
 0.3854675960162E+01
 0.4280567889974E+01
 0.4718348316137E+01
 0.5150973169531E+01
 0.5561112071350E+01
 0.5932567054527E+01
 0.2753133486178E+01
 0.2823441647154E+01
 0.2893990760829E+01
 0.2961121321881E+01
 0.3021339108086E+01
 0.3071671566124E+01
 0.3109888034428E+01
 0.3134557114195E+01
 0.3144973216596E+01
 0.3141010977494E+01
 0.3122964485883E+01
 0.3091411174553E+01
 0.3047119690577E+01
 0.2991005507880E+01
 0.2924130818307E+01
 0.2847729078622E+01
 0.2763247227316E+01
 0.2672392381898E+01
 0.2577163468260E+01
 0.2479884506761E+01
 0.2383285951796E+01
 0.2290505093304E+01
 0.2204967784008E+01
 0.2130381862778E+01
 0.2070854236286E+01
 0.2031071001706E+01
 0.2016470836867E+01
 0.2033295886936E+01
 0.2088365238822E+01
 0.2188448191752E+01
 0.2339284324986E+01
 0.2544559613820E+01
 0.2805104846640E+01
 0.3118371319976E+01
 0.3478257926919E+01
 0.3875245857557E+01
 0.4296814701725E+01
 0.4728163690385E+01
 0.5153210747056E+01
 0.5555807406301E+01
 0.5920985732302E+01
 0.2708326481675E+01
 0.2776403164759E+01
 0.2844542121118E+01
 0.2909310171072E+01
 0.2967423894254E+01
 0.3016058141202E+01
 0.3053045941812E+01
 0.3076942739155E+01
 0.3086976814799E+01
 0.3082932476458E+01
 0.3065014188522E+01
 0.3033727501272E+01
 0.2989795757894E+01
 0.2934117845269E+01
 0.2867765507494E+01
 0.2792002547246E+01
 0.2708320499461E+01
 0.2618479065672E+01
 0.2524533010376E+01
 0.2428860419531E+01
 0.2334231653274E+01
 0.2243814484128E+01
 0.2161080432413E+01
 0.2089809277764E+01
 0.2034203500825E+01
 0.1999057290139E+01
 0.1989905296668E+01
 0.2013026722462E+01
 0.2075150371431E+01
 0.2182761780857E+01
 0.2341103491873E+01
 0.2553205899233E+01
 0.2819197969450E+01
 0.3135914286080E+01
 0.3496840212747E+01
 0.3892333662792E+01
 0.4310090598795E+01
 0.4735867801252E+01
 0.5154426460547E+01
 0.5550637760129E+01
 0.5910587529696E+01
 0.2663993729726E+01
 0.2730069815497E+01
 0.2796025903313E+01
 0.2858630997899E+01
 0.2914794048924E+01
 0.2961830881620E+01
 0.2997644520895E+01
 0.3020792588850E+01
 0.3030456167079E+01
 0.3026346926974E+01
 0.3008593081459E+01
 0.2977636069865E+01
 0.2934156120036E+01
 0.2879032890138E+01
 0.2813341276963E+01
 0.2738366448657E+01
 0.2655634105261E+01
 0.2566945600938E+01
 0.2474400756159E+01
 0.2380421516802E+01
 0.2287809425570E+01
 0.2199755179729E+01
 0.2119767582885E+01
 0.2051687992708E+01
 0.1999802037192E+01
 0.1968997759493E+01
 0.1964890361537E+01
 0.1993781850276E+01
 0.2062304191347E+01
 0.2176671890260E+01
 0.2341674439930E+01
 0.2559765345523E+01
 0.2830475173505E+01
 0.3150129823215E+01
 0.3511890968422E+01
 0.3906045113038E+01
 0.4320504218567E+01
 0.4741524007932E+01
 0.5154597579018E+01
 0.5545469156842E+01
 0.5901121148623E+01
 0.2620094959322E+01
 0.2684391074579E+01
 0.2748381701331E+01
 0.2809017950079E+01
 0.2863385304276E+01
 0.2908934408733E+01
 0.2943642827396E+01
 0.2966082888005E+01
 0.2975404565320E+01
 0.2971262377615E+01
 0.2953720289695E+01
 0.2923162777795E+01
 0.2880229050955E+01
 0.2825777125966E+01
 0.2760879045074E+01
 0.2686832808065E+01
 0.2605188269903E+01
 0.2517777843987E+01
 0.2426735855365E+01
 0.2334518051838E+01
 0.2243948520388E+01
 0.2158233376979E+01
 0.2080910425506E+01
 0.2015872470365E+01
 0.1967476293221E+01
 0.1940690407121E+01
 0.1941196989095E+01
 0.1975310345271E+01
 0.2049565245424E+01
 0.2169925451969E+01
 0.2340777037375E+01
 0.2564075190751E+01
 0.2838847884923E+01
 0.3161006679584E+01
 0.3523463117986E+01
 0.3916469234352E+01
 0.4328142710458E+01
 0.4745177442064E+01
 0.5153693351271E+01
 0.5540173838721E+01
 0.5892356409985E+01
 0.2576591781672E+01
 0.2639319198911E+01
 0.2701552610561E+01
 0.2760408586826E+01
 0.2813135610537E+01
 0.2857313413372E+01
 0.2890997335054E+01
 0.2912784643047E+01
 0.2921807860971E+01
 0.2917677840410E+01
 0.2900404982153E+01
 0.2870323278247E+01
 0.2828032842765E+01
 0.2774367787501E+01
 0.2710391618951E+01
 0.2637407029720E+01
 0.2556978403788E+01
 0.2470958939931E+01
 0.2381507151902E+01
 0.2291102703144E+01
 0.2202583704961E+01
 0.2119164265334E+01
 0.2044403006155E+01
 0.1982234231924E+01
 0.1937074230378E+01
 0.1913959351286E+01
 0.1918626903189E+01
 0.1957396487368E+01
 0.2036710872751E+01
 0.2162309675871E+01
 0.2338229252070E+01
 0.2566003924001E+01
 0.2844247650226E+01
 0.3168540245618E+01
 0.3531603343680E+01
 0.3923679628960E+01
 0.4333074691736E+01
 0.4746858512822E+01
 0.5151678010284E+01
 0.5534632194169E+01
 0.5884084892807E+01
 0.2533447180090E+01
 0.2594808511835E+01
 0.2655484364958E+01
 0.2712743029003E+01
 0.2763984486275E+01
 0.2806912334509E+01
 0.2839661971872E+01
 0.2860863980461E+01
 0.2869645009173E+01
 0.2865583946007E+01
 0.2848647069192E+01
 0.2819123682325E+01
 0.2777576499172E+01
 0.2724813545869E+01
 0.2661884377472E+01
 0.2590088585493E+01
 0.2510995804162E+01
 0.2426470042882E+01
 0.2338683922498E+01
 0.2250131321315E+01
 0.2163655993869E+01
 0.2082472708640E+01
 0.2010152816204E+01
 0.1950662311418E+01
 0.1908465599212E+01
 0.1888654866826E+01
 0.1897012270161E+01
 0.1939858854334E+01
 0.2023555407774E+01
 0.2153649140950E+01
 0.2333883247506E+01
 0.2565446968951E+01
 0.2846622304740E+01
 0.3172730079859E+01
 0.3536351489932E+01
 0.3927735735487E+01
 0.4335352804197E+01
 0.4746585887777E+01
 0.5148513364473E+01
 0.5528734469135E+01
 0.5876120649951E+01
 0.2490625074443E+01
 0.2550814794549E+01
 0.2610124599117E+01
 0.2665963220157E+01
 0.2715872433130E+01
 0.2757675041113E+01
 0.2789588105045E+01
 0.2810282399511E+01
 0.2818888514661E+01
 0.2814963503120E+01
 0.2798437812941E+01
 0.2769561181654E+01
 0.2728860352412E+01
 0.2677115115402E+01
 0.2615355870539E+01
 0.2544871612084E+01
 0.2467228256340E+01
 0.2384290925467E+01
 0.2298236493440E+01
 0.2211563542776E+01
 0.2127113238856E+01
 0.2048093781508E+01
 0.1978081242394E+01
 0.1921063587968E+01
 0.1881542123261E+01
 0.1864653371401E+01
 0.1876215379893E+01
 0.1922549498611E+01
 0.2009948601254E+01
 0.2143803313123E+01
 0.2327622152141E+01
 0.2562323222497E+01
 0.2845933005844E+01
 0.3173578099214E+01
 0.3537740273250E+01
 0.3928683999298E+01
 0.4335015889195E+01
 0.4744368999090E+01
 0.5144161005623E+01
 0.5522382292802E+01
 0.5868300942888E+01
 0.2448089948983E+01
 0.2507294768224E+01
 0.2565422218037E+01
 0.2620012286649E+01
 0.2668740414353E+01
 0.2709544528449E+01
 0.2740724493924E+01
 0.2760996961175E+01
 0.2769504799340E+01
 0.2765791978172E+01
 0.2749760362613E+01
 0.2721624601160E+01
 0.2681876612745E+01
 0.2631265791776E+01
 0.2570798345413E+01
 0.2501745429013E+01
 0.2425660548060E+01
 0.2344400492705E+01
 0.2260136752300E+01
 0.2175363289732E+01
 0.2092910598773E+01
 0.2015973185177E+01
 0.1948123904003E+01
 0.1893363024000E+01
 0.1856217619672E+01
 0.1841857391672E+01
 0.1856128366130E+01
 0.1905353252299E+01
 0.1995774308582E+01
 0.2132664522803E+01
 0.2319357487261E+01
 0.2556572369059E+01
 0.2842152002699E+01
 0.3171087297245E+01
 0.3535795198944E+01
 0.3926558917880E+01
 0.4332090804147E+01
 0.4740210121355E+01
 0.5138584173892E+01
 0.5515490033842E+01
 0.5860487035025E+01
 0.2405806533729E+01
 0.2464205651656E+01
 0.2521326856517E+01
 0.2574833981171E+01
 0.2622529388298E+01
 0.2662462627852E+01
 0.2693017215271E+01
 0.2712960418571E+01
 0.2721454494226E+01
 0.2718037893344E+01
 0.2702590208406E+01
 0.2675294872009E+01
 0.2636609838124E+01
 0.2587251907777E+01
 0.2528198185840E+01
 0.2460694962919E+01
 0.2386274882506E+01
 0.2306777186239E+01
 0.2224358541665E+01
 0.2141499145015E+01
 0.2061010880524E+01
 0.1986067535978E+01
 0.1920230872091E+01
 0.1867503805034E+01
 0.1832428052684E+01
 0.1820195507993E+01
 0.1836672971826E+01
 0.1888187177440E+01
 0.1980949469361E+01
 0.2120156414204E+01
 0.2309027229919E+01
 0.2548152902199E+01
 0.2835261043520E+01
 0.3165260891714E+01
 0.3530534616686E+01
 0.3921383939793E+01
 0.4326593897928E+01
 0.4734106052979E+01
 0.5131749301595E+01
 0.5507985995368E+01
 0.5852565016723E+01
 0.2363739531702E+01
 0.2421504783398E+01
 0.2477788415542E+01
 0.2530372199541E+01
 0.2577179893004E+01
 0.2616369733502E+01
 0.2646409570042E+01
 0.2666121300612E+01
 0.2674692666957E+01
 0.2671663151969E+01
 0.2656895560249E+01
 0.2630545428790E+01
 0.2593037326855E+01
 0.2545053209074E+01
 0.2487536266417E+01
 0.2421701080995E+01
 0.2349051193519E+01
 0.2271399283434E+01
 0.2190877940799E+01
 0.2109944609663E+01
 0.2031384760874E+01
 0.1958344537919E+01
 0.1894366783041E+01
 0.1843447392673E+01
 0.1810131530398E+01
 0.1799622288398E+01
 0.1817800374697E+01
 0.1871000184128E+01
 0.1965423403237E+01
 0.2106232878323E+01
 0.2296594492571E+01
 0.2537040800002E+01
 0.2825250344440E+01
 0.3156101826219E+01
 0.3521969862495E+01
 0.3913172198164E+01
 0.4318532154724E+01
 0.4726049422757E+01
 0.5123627254000E+01
 0.5499813454550E+01
 0.5844446646610E+01
 0.2321853385740E+01
 0.2379149299026E+01
 0.2434756664640E+01
 0.2486570561211E+01
 0.2532631676814E+01
 0.2571204546825E+01
 0.2600841976921E+01
 0.2620423956306E+01
 0.2629168992084E+01
 0.2626623296672E+01
 0.2612637654420E+01
 0.2587342531874E+01
 0.2551129432654E+01
 0.2504643148481E+01
 0.2448788220285E+01
 0.2384740831620E+01
 0.2313967361347E+01
 0.2238245090376E+01
 0.2159673435484E+01
 0.2080678245017E+01
 0.2004010892588E+01
 0.1932783044173E+01
 0.1870510851484E+01
 0.1821173494881E+01
 0.1789308247320E+01
 0.1780118214194E+01
 0.1799491078794E+01
 0.1853772828719E+01
 0.1949177437189E+01
 0.2090877476314E+01
 0.2282046805678E+01
 0.2523228817390E+01
 0.2812118069267E+01
 0.3143612576840E+01
 0.3510105453478E+01
 0.3901927066703E+01
 0.4307904012335E+01
 0.4716029635275E+01
 0.5114194277512E+01
 0.5490931545844E+01
 0.5836070193515E+01
 0.2280112079657E+01
 0.2337095855867E+01
 0.2392180901092E+01
 0.2443372045415E+01
 0.2488823370477E+01
 0.2526903838569E+01
 0.2556251856622E+01
 0.2575808565933E+01
 0.2584827870634E+01
 0.2582867705593E+01
 0.2569770991633E+01
 0.2545645516748E+01
 0.2510849802490E+01
 0.2465989098156E+01
 0.2411924619034E+01
 0.2349787590837E+01
 0.2280999327700E+01
 0.2207293028091E+01
 0.2130725976284E+01
 0.2053683700910E+01
 0.1978875897889E+01
 0.1909373011409E+01
 0.1848656786465E+01
 0.1800679955900E+01
 0.1769960372583E+01
 0.1761689595562E+01
 0.1781754872199E+01
 0.1836517296917E+01
 0.1932224872330E+01
 0.2074103357505E+01
 0.2265395995996E+01
 0.2506726374764E+01
 0.2795870291482E+01
 0.3127795235744E+01
 0.3494939315243E+01
 0.3887642529384E+01
 0.4294699855703E+01
 0.4704033460257E+01
 0.5103432658220E+01
 0.5481315983043E+01
 0.5827401261257E+01
 0.2238478969555E+01
 0.2295300399103E+01
 0.2350009658852E+01
 0.2400718676650E+01
 0.2445692197230E+01
 0.2483402228926E+01
 0.2512573510892E+01
 0.2532211125300E+01
 0.2541608505871E+01
 0.2540339733101E+01
 0.2528243511766E+01
 0.2505406974124E+01
 0.2472155539750E+01
 0.2429052481246E+01
 0.2376911065609E+01
 0.2316811115083E+01
 0.2250121110439E+01
 0.2178521612590E+01
 0.2104018926556E+01
 0.2028949632308E+01
 0.1955974252679E+01
 0.1888115351122E+01
 0.1828812614712E+01
 0.1781982567906E+01
 0.1752111882917E+01
 0.1744368473309E+01
 0.1764630846425E+01
 0.1819277570231E+01
 0.1914611292992E+01
 0.2055953676644E+01
 0.2246678662991E+01
 0.2487560041332E+01
 0.2776521433747E+01
 0.3108651865993E+01
 0.3476463036761E+01
 0.3870303359822E+01
 0.4278902183306E+01
 0.4690045264834E+01
 0.5091331088740E+01
 0.5470959613252E+01
 0.5818433581321E+01
 0.2196916641819E+01
 0.2253717964139E+01
 0.2308190460985E+01
 0.2358551253752E+01
 0.2403173717208E+01
 0.2440631985014E+01
 0.2469737998430E+01
 0.2489563407315E+01
 0.2499444940299E+01
 0.2498976799807E+01
 0.2487996709066E+01
 0.2466572863366E+01
 0.2434997293957E+01
 0.2393788823065E+01
 0.2343708199358E+01
 0.2285777498603E+01
 0.2221304715973E+01
 0.2151909326818E+01
 0.2079537898675E+01
 0.2006469503576E+01
 0.1935308061569E+01
 0.1869021678652E+01
 0.1811000411472E+01
 0.1765114803106E+01
 0.1735808335546E+01
 0.1728212497576E+01
 0.1748187465329E+01
 0.1802129764560E+01
 0.1896415212356E+01
 0.2036502512724E+01
 0.2225957263465E+01
 0.2465774628592E+01
 0.2754095202213E+01
 0.3086185142232E+01
 0.3454662160412E+01
 0.3849885109237E+01
 0.4260485438839E+01
 0.4674046879456E+01
 0.5077884734824E+01
 0.5459872791800E+01
 0.5809189760207E+01
 0.2155386794914E+01
 0.2212302510942E+01
 0.2266669610512E+01
 0.2316809117718E+01
 0.2361201602849E+01
 0.2398522834792E+01
 0.2427673009254E+01
 0.2447792904308E+01
 0.2458266058354E+01
 0.2458710436349E+01
 0.2448965691695E+01
 0.2429082562031E+01
 0.2399319278583E+01
 0.2360147722068E+01
 0.2312271612373E+01
 0.2256649033799E+01
 0.2194519946974E+01
 0.2127434381829E+01
 0.2057270475838E+01
 0.1986241278139E+01
 0.1916886722102E+01
 0.1852113958777E+01
 0.1795255937707E+01
 0.1750127463476E+01
 0.1721116574321E+01
 0.1713304770724E+01
 0.1732522664632E+01
 0.1785182619943E+01
 0.1877749039631E+01
 0.2015856288461E+01
 0.2203321821285E+01
 0.2441434926074E+01
 0.2728626054891E+01
 0.3060399312520E+01
 0.3429516527824E+01
 0.3826353903883E+01
 0.4239415493660E+01
 0.4656017078680E+01
 0.5063094986302E+01
 0.5448083564572E+01
 0.5799721965143E+01
 0.2113850142731E+01
 0.2171006787330E+01
 0.2225392016105E+01
 0.2275429955138E+01
 0.2319707443613E+01
 0.2357001797848E+01
 0.2386302740373E+01
 0.2406822756052E+01
 0.2417995561097E+01
 0.2419466287877E+01
 0.2411079192337E+01
 0.2392868857487E+01
 0.2365059221811E+01
 0.2328072744209E+01
 0.2282551679385E+01
 0.2229383975590E+01
 0.2169734105518E+01
 0.2105074366555E+01
 0.2037205818392E+01
 0.1968266992364E+01
 0.1900726477196E+01
 0.1837424047331E+01
 0.1781628183158E+01
 0.1737088246474E+01
 0.1708124363529E+01
 0.1699753641378E+01
 0.1717763959691E+01
 0.1768578113669E+01
 0.1858760346832E+01
 0.1994155688767E+01
 0.2178892289748E+01
 0.2414628133923E+01
 0.2700161273177E+01
 0.3031301546317E+01
 0.3401000724036E+01
 0.3799666061906E+01
 0.4215648762963E+01
 0.4635930651985E+01
 0.5046968873591E+01
 0.5435637644493E+01
 0.5790112534863E+01
 0.2072266337678E+01
 0.2129782217584E+01
 0.2184301047901E+01
 0.2234349631954E+01
 0.2278620574882E+01
 0.2315993028817E+01
 0.2345547769758E+01
 0.2366571661710E+01
 0.2378551912016E+01
 0.2381164078567E+01
 0.2374259528808E+01
 0.2357857878639E+01
 0.2332148246988E+01
 0.2297501235983E+01
 0.2254493295142E+01
 0.2203936202509E+01
 0.2146911583415E+01
 0.2084805777288E+01
 0.2019334145425E+01
 0.1952552204347E+01
 0.1886849846840E+01
 0.1824993120556E+01
 0.1770178807736E+01
 0.1726081218719E+01
 0.1696939937737E+01
 0.1687692428994E+01
 0.1704068527151E+01
 0.1752492150641E+01
 0.1839633391047E+01
 0.1971578057182E+01
 0.2152821584316E+01
 0.2385467048840E+01
 0.2668763715687E+01
 0.2998903744539E+01
 0.3369084665683E+01
 0.3769767528608E+01
 0.4189130914692E+01
 0.4613757012800E+01
 0.5029518116825E+01
 0.5422598151950E+01
 0.5780474506090E+01
 0.2030593911794E+01
 0.2088578815163E+01
 0.2143338422432E+01
 0.2193502057285E+01
 0.2237867932086E+01
 0.2275417676395E+01
 0.2305324933982E+01
 0.2326953783603E+01
 0.2339848264045E+01
 0.2343717547825E+01
 0.2338422527027E+01
 0.2323968979923E+01
 0.2300510694053E+01
 0.2268364066022E+01
 0.2228035527417E+01
 0.2180254780861E+01
 0.2126013344292E+01
 0.2066603429705E+01
 0.2003646092873E+01
 0.1939105317518E+01
 0.1875284938082E+01
 0.1814870991103E+01
 0.1760981480626E+01
 0.1717206197212E+01
 0.1687691464530E+01
 0.1677279066825E+01
 0.1691623232120E+01
 0.1737135286294E+01
 0.1820590846748E+01
 0.1948340253062E+01
 0.2125299321875E+01
 0.2354094097092E+01
 0.2634515386053E+01
 0.2963224945912E+01
 0.3333734430324E+01
 0.3736593161212E+01
 0.4159795138479E+01
 0.4589458292667E+01
 0.5010757775171E+01
 0.5409045118945E+01
 0.5770951975822E+01
 0.1988790235620E+01
 0.2047345118519E+01
 0.2102444115649E+01
 0.2152819076331E+01
 0.2197373929428E+01
 0.2235193758192E+01
 0.2265547211369E+01
 0.2287878646666E+01
 0.2301792373552E+01
 0.2307034365290E+01
 0.2303477413993E+01
 0.2291114584934E+01
 0.2270063888181E+01
 0.2240585299837E+01
 0.2203111188302E+01
 0.2158283432588E+01
 0.2106996296112E+01
 0.2050439750332E+01
 0.1990131943304E+01
 0.1927936772760E+01
 0.1866064626080E+01
 0.1807115303554E+01
 0.1754121111343E+01
 0.1710578034157E+01
 0.1680526415683E+01
 0.1668695651009E+01
 0.1680644570160E+01
 0.1722753428173E+01
 0.1801895686028E+01
 0.1924701935529E+01
 0.2096556298059E+01
 0.2320686323996E+01
 0.2597521981001E+01
 0.2924294508419E+01
 0.3294913464376E+01
 0.3700065913371E+01
 0.4127559930520E+01
 0.4562986838953E+01
 0.4990704461039E+01
 0.5395074732894E+01
 0.5761720341270E+01
 0.1946811493554E+01
 0.2006028147640E+01
 0.2061556300648E+01
 0.2112230387944E+01
 0.2157060357831E+01
 0.2195236045812E+01
 0.2226123605677E+01
 0.2249251029934E+01
 0.2264286499209E+01
 0.2271016023682E+01
 0.2269326680202E+01
 0.2259199988582E+01
 0.2240717853309E+01
 0.2214081803547E+01
 0.2179646317515E+01
 0.2137959898472E+01
 0.2089812543795E+01
 0.2036283935194E+01
 0.1978780713305E+01
 0.1919058093161E+01
 0.1859225588977E+01
 0.1801790591809E+01
 0.1749692956203E+01
 0.1706325791054E+01
 0.1675610832920E+01
 0.1662147874511E+01
 0.1671378480775E+01
 0.1709628439107E+01
 0.1783853106358E+01
 0.1900969192827E+01
 0.2066869693443E+01
 0.2285461429050E+01
 0.2557918587951E+01
 0.2882156262910E+01
 0.3252584326142E+01
 0.3660095967532E+01
 0.4092326305211E+01
 0.4534281962313E+01
 0.4969374035793E+01
 0.5380798315887E+01
 0.5752986265088E+01
 0.1904612675836E+01
 0.1964573382090E+01
 0.2020611311458E+01
 0.2071663488508E+01
 0.2116846303922E+01
 0.2155455962762E+01
 0.2186959034928E+01
 0.2210970857629E+01
 0.2227227296369E+01
 0.2235557722679E+01
 0.2235865926184E+01
 0.2228123132756E+01
 0.2212374984556E+01
 0.2188762788706E+01
 0.2157559587302E+01
 0.2119215203404E+01
 0.2074408525753E+01
 0.2024100976555E+01
 0.1969579096297E+01
 0.1912480776119E+01
 0.1854807188514E+01
 0.1798967188719E+01
 0.1747801591322E+01
 0.1704591796595E+01
 0.1673128486661E+01
 0.1657864341702E+01
 0.1664100009112E+01
 0.1698078580673E+01
 0.1766812409364E+01
 0.1877498431459E+01
 0.2036569006106E+01
 0.2248684974351E+01
 0.2515876777686E+01
 0.2836873940345E+01
 0.3206711234734E+01
 0.3616579956625E+01
 0.4053974371375E+01
 0.4503265733035E+01
 0.4946778685619E+01
 0.5366341063854E+01
 0.5744987233557E+01
 0.1862147587518E+01
 0.1922924759815E+01
 0.1979543631548E+01
 0.2031043639304E+01
 0.2076648085389E+01
 0.2115761489641E+01
 0.2147954220574E+01
 0.2172933087126E+01
 0.2190505706863E+01
 0.2200548245910E+01
 0.2202983696497E+01
 0.2197774358910E+01
 0.2184929681953E+01
 0.2164529298733E+01
 0.2136761627040E+01
 0.2101972819335E+01
 0.2060724027600E+01
 0.2013850548714E+01
 0.1962510249337E+01
 0.1908215018686E+01
 0.1852850179635E+01
 0.1798719969415E+01
 0.1748559734031E+01
 0.1705530574000E+01
 0.1673279919173E+01
 0.1656095755950E+01
 0.1659112790634E+01
 0.1688458725257E+01
 0.1751168700530E+01
 0.1854700379035E+01
 0.2006042640977E+01
 0.2210678851295E+01
 0.2471613335724E+01
 0.2788538207271E+01
 0.3157263750356E+01
 0.3569400468791E+01
 0.4012359190243E+01
 0.4469837476019E+01
 0.4922923139824E+01
 0.5351840602902E+01
 0.5737990441515E+01
 0.1819368874879E+01
 0.1881024697713E+01
 0.1938285908120E+01
 0.1990293857317E+01
 0.2036379200877E+01
 0.2076057074260E+01
 0.2109005576349E+01
 0.2135027596508E+01
 0.2154006850735E+01
 0.2165869840850E+01
 0.2170561312965E+01
 0.2168036149873E+01
 0.2158267956840E+01
 0.2141273646142E+01
 0.2117154273712E+01
 0.2086147728735E+01
 0.2048691072560E+01
 0.2005485749188E+01
 0.1957552416853E+01
 0.1906268265235E+01
 0.1853395234000E+01
 0.1801126909730E+01
 0.1752086892916E+01
 0.1709307621226E+01
 0.1676281363712E+01
 0.1657113979235E+01
 0.1656748348575E+01
 0.1681160280761E+01
 0.1737364277311E+01
 0.1833044021768E+01
 0.1975745041566E+01
 0.2171831076798E+01
 0.2425400921995E+01
 0.2737275743518E+01
 0.3104222046085E+01
 0.3518426189505E+01
 0.3967305931688E+01
 0.4433866457342E+01
 0.4897799545289E+01
 0.5337445456893E+01
 0.5732290502617E+01
 0.1776228071378E+01
 0.1838814137440E+01
 0.1896768996687E+01
 0.1949334932713E+01
 0.1995950295519E+01
 0.2036243547476E+01
 0.2070005100118E+01
 0.2097139079617E+01
 0.2117609932891E+01
 0.2131398118718E+01
 0.2138472726796E+01
 0.2138782881203E+01
 0.2132267030024E+01
 0.2118878816744E+01
 0.2098629760315E+01
 0.2071645395931E+01
 0.2038232691237E+01
 0.1998951693361E+01
 0.1954677384632E+01
 0.1906643565449E+01
 0.1856481259557E+01
 0.1806267436286E+01
 0.1758507819715E+01
 0.1716098019214E+01
 0.1682363524639E+01
 0.1661210963856E+01
 0.1657365208506E+01
 0.1676610796151E+01
 0.1725889584441E+01
 0.1813060270620E+01
 0.1946204195503E+01
 0.2132606964127E+01
 0.2377581000820E+01
 0.2683260926440E+01
 0.3047584404884E+01
 0.3463513275084E+01
 0.3918604623275E+01
 0.4395182150403E+01
 0.4871379915243E+01
 0.5323313561725E+01
 0.5728204674582E+01
 0.1732675665485E+01
 0.1796232618510E+01
 0.1854922037173E+01
 0.1908085469798E+01
 0.1955269133577E+01
 0.1996218033915E+01
 0.2030840259537E+01
 0.2059146943668E+01
 0.2081188164575E+01
 0.2097001978287E+01
 0.2106584395951E+01
 0.2109880589234E+01
 0.2106794927985E+01
 0.2097217844685E+01
 0.2081069842517E+01
 0.2058360642730E+01
 0.2029261563640E+01
 0.1994183952508E+01
 0.1953848751027E+01
 0.1909337725949E+01
 0.1862143494634E+01
 0.1814220540951E+01
 0.1767950730759E+01
 0.1726084834968E+01
 0.1691770193131E+01
 0.1668697548627E+01
 0.1661347836742E+01
 0.1675273227657E+01
 0.1717283610074E+01
 0.1795345083217E+01
 0.1918029206984E+01
 0.2093561567950E+01
 0.2328579314482E+01
 0.2626730717676E+01
 0.2987377650872E+01
 0.3404508679387E+01
 0.3866005236059E+01
 0.4353561621720E+01
 0.4843603834611E+01
 0.5309610320256E+01
 0.5726063037623E+01
 0.1688661193050E+01
 0.1753218384509E+01
 0.1812672567356E+01
 0.1866461951685E+01
 0.1914240572642E+01
 0.1955873850682E+01
 0.1991393868183E+01
 0.2020925212765E+01
 0.2044608709987E+01
 0.2062543569329E+01
 0.2074755206842E+01
 0.2081186776127E+01
 0.2081710096463E+01
 0.2076153174524E+01
 0.2064344874845E+01
 0.2046176433875E+01
 0.2021678533428E+01
 0.1991106830319E+01
 0.1955020005987E+01
 0.1914339240928E+01
 0.1870411355111E+01
 0.1825062629884E+01
 0.1780545259460E+01
 0.1739457275480E+01
 0.1704756658887E+01
 0.1679902100773E+01
 0.1669105414754E+01
 0.1677644879045E+01
 0.1712133640924E+01
 0.1780561765806E+01
 0.1891917539071E+01
 0.2055353186048E+01
 0.2278924156645E+01
 0.2568003482682E+01
 0.2923671448572E+01
 0.3341256289028E+01
 0.3809214478284E+01
 0.4308715198212E+01
 0.4814357174303E+01
 0.5296503462968E+01
 0.5726185304108E+01
 0.1644133358382E+01
 0.1709708529805E+01
 0.1769946677478E+01
 0.1824378820071E+01
 0.1872766521303E+01
 0.1915100372507E+01
 0.1951543933625E+01
 0.1982342425834E+01
 0.2007732653559E+01
 0.2027878296539E+01
 0.2042836444683E+01
 0.2052550258178E+01
 0.2056861037984E+01
 0.2055536015347E+01
 0.2048312838315E+01
 0.2034962570639E+01
 0.2015370990069E+01
 0.1989631472612E+01
 0.1958132412721E+01
 0.1921625996464E+01
 0.1881306027392E+01
 0.1838865094961E+01
 0.1796420119993E+01
 0.1756408564823E+01
 0.1721587889485E+01
 0.1695168993203E+01
 0.1681070479711E+01
 0.1684256074865E+01
 0.1711074360102E+01
 0.1769442192546E+01
 0.1868661396613E+01
 0.2018757456402E+01
 0.2229267510566E+01
 0.2507502491364E+01
 0.2856597502077E+01
 0.3273606810011E+01
 0.3747895206543E+01
 0.4260275456443E+01
 0.4783439392639E+01
 0.5284141554055E+01
 0.5728816371863E+01
 0.1599040183052E+01
 0.1665639210518E+01
 0.1726669220397E+01
 0.1781748569855E+01
 0.1830745875326E+01
 0.1873782857660E+01
 0.1911163480660E+01
 0.1943261544930E+01
 0.1970415014906E+01
 0.1992854898622E+01
 0.2010671851715E+01
 0.2023811098441E+01
 0.2032086013329E+01
 0.2035205722352E+01
 0.2032818346786E+01
 0.2024574309436E+01
 0.2010211125260E+01
 0.1989653807557E+01
 0.1963112681789E+01
 0.1931162731075E+01
 0.1894837780800E+01
 0.1855691569378E+01
 0.1815700428529E+01
 0.1777133473451E+01
 0.1742536394920E+01
 0.1714856845638E+01
 0.1697697411317E+01
 0.1695668624059E+01
 0.1714786344986E+01
 0.1762786774367E+01
 0.1849152701092E+01
 0.1984681421866E+01
 0.2180409030123E+01
 0.2445785009006E+01
 0.2786375318819E+01
 0.3201432299270E+01
 0.3681669828512E+01
 0.4207792063035E+01
 0.4750543449397E+01
 0.5272588742355E+01
 0.5733874447776E+01
 0.1553329170062E+01
 0.1620945989753E+01
 0.1682764072979E+01
 0.1738481851709E+01
 0.1788074416015E+01
 0.1831802212676E+01
 0.1870120339867E+01
 0.1903539877976E+01
 0.1932504826765E+01
 0.1957315624841E+01
 0.1978097799682E+01
 0.1994800652257E+01
 0.2007212835506E+01
 0.2014989230953E+01
 0.2017691649691E+01
 0.2014850913111E+01
 0.2006054061411E+01
 0.1991052307253E+01
 0.1969870423899E+01
 0.1942898236619E+01
 0.1911002979348E+01
 0.1875594839864E+01
 0.1838504641045E+01
 0.1801825438359E+01
 0.1767879694311E+01
 0.1739336441998E+01
 0.1719460720352E+01
 0.1712474133369E+01
 0.1723994101275E+01
 0.1761463132766E+01
 0.1834386095201E+01
 0.1954176621552E+01
 0.2133322447402E+01
 0.2383577854446E+01
 0.2713346313299E+01
 0.3124647904525E+01
 0.3610123610318E+01
 0.4150745293982E+01
 0.4715225399596E+01
 0.5262047869618E+01
 0.5739163714151E+01
 0.1506947672607E+01
 0.1575547759716E+01
 0.1638126943052E+01
 0.1694448787314E+01
 0.1744594971708E+01
 0.1788974628946E+01
 0.1828207302714E+01
 0.1862951175592E+01
 0.1893761016152E+01
 0.1921008211336E+01
 0.1944854171719E+01
 0.1965254655120E+01
 0.1981977907374E+01
 0.1994630148035E+01
 0.2002692113048E+01
 0.2005577895987E+01
 0.2002723004322E+01
 0.1993699645994E+01
 0.1978339062062E+01
 0.1956837193861E+01
 0.1929887351041E+01
 0.1898750868373E+01
 0.1865107345381E+01
 0.1830864516737E+01
 0.1798107676728E+01
 0.1769208928038E+01
 0.1747071848301E+01
 0.1735492522570E+01
 0.1739624088104E+01
 0.1766496892162E+01
 0.1825454631152E+01
 0.1928315539169E+01
 0.2088895087210E+01
 0.2321371820465E+01
 0.2637432696186E+01
 0.3042578012276E+01
 0.3532157731143E+01
 0.4087994247534E+01
 0.4676772762346E+01
 0.5251949597340E+01
 0.5750772965706E+01
 0.1459835409015E+01
 0.1529375898631E+01
 0.1592675614008E+01
 0.1649551849312E+01
 0.1700191570866E+01
 0.1745166309061E+01
 0.1785276006522E+01
 0.1821336289773E+01
 0.1854016254791E+01
 0.1883758168306E+01
 0.1910759245519E+01
 0.1934983893398E+01
 0.1956185062732E+01
 0.1973927584337E+01
 0.1987618652750E+01
 0.1996560920038E+01
 0.2000039232869E+01
 0.1997442666806E+01
 0.1988401348241E+01
 0.1972908877592E+01
 0.1951477870759E+01
 0.1925216269010E+01
 0.1895647343847E+01
 0.1864484280310E+01
 0.1833560663431E+01
 0.1804932706020E+01
 0.1781119120167E+01
 0.1765457015185E+01
 0.1762575374499E+01
 0.1778977589964E+01
 0.1823648102457E+01
 0.1908540258296E+01
 0.2048567022598E+01
 0.2260344463510E+01
 0.2559271299682E+01
 0.2955163000600E+01
 0.3447111825618E+01
 0.4018622058152E+01
 0.4634726858044E+01
 0.5242157497866E+01
 0.5779541435629E+01
 0.1411948379224E+01
 0.1482385188669E+01
 0.1546363338286E+01
 0.1603736519821E+01
 0.1654798299913E+01
 0.1700300625839E+01
 0.1741242879639E+01
 0.1778608086772E+01
 0.1813180773162E+01
 0.1845471251927E+01
 0.1875710475546E+01
 0.1903872855947E+01
 0.1929701540198E+01
 0.1952728792675E+01
 0.1972298327145E+01
 0.1987609669816E+01
 0.1997800716406E+01
 0.2002075399601E+01
 0.1999856631729E+01
 0.1990928681062E+01
 0.1975618480726E+01
 0.1954878273799E+01
 0.1930072327150E+01
 0.1902712209466E+01
 0.1874367156532E+01
 0.1846760842363E+01
 0.1822007744063E+01
 0.1802960159545E+01
 0.1793675707764E+01
 0.1800030984217E+01
 0.1830454841888E+01
 0.1896720393645E+01
 0.2014482712491E+01
 0.2202632097310E+01
 0.2480592017290E+01
 0.2863392649038E+01
 0.3355152234375E+01
 0.3942316313808E+01
 0.4588674151582E+01
 0.5235561582339E+01
 0.5815450288901E+01
 0.1363237273350E+01
 0.1434512654061E+01
 0.1499113963323E+01
 0.1556906243978E+01
 0.1608294135242E+01
 0.1654234797112E+01
 0.1695949791215E+01
 0.1734598761694E+01
 0.1771079749623E+01
 0.1805965319732E+01
 0.1839516260059E+01
 0.1871717834917E+01
 0.1902309635604E+01
 0.1930802139887E+01
 0.1956488624212E+01
 0.1978477283523E+01
 0.1995765848331E+01
 0.2007372974815E+01
 0.2012508941158E+01
 0.2010742012056E+01
 0.2002209130589E+01
 0.1987705672169E+01
 0.1968435397918E+01
 0.1945701761514E+01
 0.1920796834901E+01
 0.1895094758868E+01
 0.1870287069384E+01
 0.1848718975471E+01
 0.1833838449232E+01
 0.1830810521303E+01
 0.1847324203469E+01
 0.1894633749343E+01
 0.1988671345912E+01
 0.2150234930822E+01
 0.2402906618629E+01
 0.2767860331942E+01
 0.3255852644116E+01
 0.3857990526560E+01
 0.4538051679566E+01
 0.5231697684058E+01
 0.5858813444890E+01
 0.1313655200840E+01
 0.1385698561717E+01
 0.1450853020982E+01
 0.1508962374270E+01
 0.1560551765567E+01
 0.1606817806664E+01
 0.1649230961296E+01
 0.1689134653573E+01
 0.1727534149215E+01
 0.1765054723100E+01
 0.1801980951427E+01
 0.1838309187225E+01
 0.1873782453630E+01
 0.1907902296210E+01
 0.1939927962045E+01
 0.1968892288359E+01
 0.1993663543219E+01
 0.2013077470500E+01
 0.2026127157060E+01
 0.2032158425406E+01
 0.2031114532230E+01
 0.2023634030410E+01
 0.2010759984629E+01
 0.1993581914857E+01
 0.1973101876183E+01
 0.1950327347800E+01
 0.1926509086206E+01
 0.1903466514635E+01
 0.1884008664055E+01
 0.1872521529919E+01
 0.1875792409902E+01
 0.1904218784422E+01
 0.1973458387879E+01
 0.2105616842798E+01
 0.2328273391344E+01
 0.2669588932318E+01
 0.3148892297556E+01
 0.3764366979322E+01
 0.4481582146899E+01
 0.5229472278564E+01
 0.5910768377744E+01
 0.1263159404597E+01
 0.1335887827839E+01
 0.1401508847632E+01
 0.1459803378468E+01
 0.1511435608628E+01
 0.1557888580168E+01
 0.1600912120217E+01
 0.1642036437609E+01
 0.1682361628142E+01
 0.1722551600504E+01
 0.1762906309214E+01
 0.1803432762689E+01
 0.1843885087245E+01
 0.1883770854332E+01
 0.1922335382410E+01
 0.1958557082936E+01
 0.1991190455929E+01
 0.2018894079943E+01
 0.2040440463200E+01
 0.2054946645623E+01
 0.2062158932863E+01
 0.2062560272518E+01
 0.2057034165271E+01
 0.2046451068984E+01
 0.2031510262725E+01
 0.2012835677163E+01
 0.1991220874171E+01
 0.1967944839996E+01
 0.1945157485004E+01
 0.1926416418133E+01
 0.1917474748238E+01
 0.1927560354605E+01
 0.1971459588578E+01
 0.2071755199813E+01
 0.2259442918151E+01
 0.2570223831998E+01
 0.3034197741430E+01
 0.3659884881312E+01
 0.4417221146982E+01
 0.5227801327722E+01
 0.5972801630710E+01
 0.1211713568835E+01
 0.1285032409464E+01
 0.1351013704279E+01
 0.1409323334801E+01
 0.1460798824126E+01
 0.1507273567432E+01
 0.1550809587461E+01
 0.1593119525172E+01
 0.1635377733631E+01
 0.1678267476229E+01
 0.1722093274502E+01
 0.1766871700511E+01
 0.1812376229244E+01
 0.1858137411198E+01
 0.1903410635473E+01
 0.1947146599655E+01
 0.1988008079284E+01
 0.2024486886081E+01
 0.2055133262122E+01
 0.2078829062152E+01
 0.2095120473390E+01
 0.2104336991356E+01
 0.2107204799201E+01
 0.2104370668558E+01
 0.2096218508292E+01
 0.2082972572600E+01
 0.2064955160048E+01
 0.2042895293141E+01
 0.2018273449494E+01
 0.1993787915693E+01
 0.1974057923609E+01
 0.1966873777343E+01
 0.1985560809663E+01
 0.2052167907329E+01
 0.2200012799235E+01
 0.2472302805418E+01
 0.2912163821249E+01
 0.3542712346507E+01
 0.4342246535333E+01
 0.5225422154453E+01
 0.6046732901517E+01
 0.1159291210782E+01
 0.1233094826961E+01
 0.1299304930873E+01
 0.1357409132630E+01
 0.1408478898603E+01
 0.1454783638970E+01
 0.1498729377821E+01
 0.1542194794603E+01
 0.1586397470325E+01
 0.1632015195502E+01
 0.1679344082693E+01
 0.1728408623016E+01
 0.1779010281237E+01
 0.1830721229323E+01
 0.1882834807309E+01
 0.1934307274815E+01
 0.1983739755065E+01
 0.2029474161657E+01
 0.2069839402287E+01
 0.2103475550552E+01
 0.2129725066797E+01
 0.2148766542370E+01
 0.2161171622599E+01
 0.2167358758540E+01
 0.2167384008127E+01
 0.2161057220774E+01
 0.2148218960245E+01
 0.2129045583780E+01
 0.2104349477876E+01
 0.2075958081504E+01
 0.2047290851485E+01
 0.2024489314783E+01
 0.2018887410016E+01
 0.2050906940144E+01
 0.2154570029248E+01
 0.2379608155114E+01
 0.2784021641097E+01
 0.3410903543034E+01
 0.4253153813372E+01
 0.5220625672666E+01
 0.6134777927416E+01
 0.1105880845797E+01
 0.1180053306643E+01
 0.1246325851389E+01
 0.1303935498912E+01
 0.1354291222358E+01
 0.1400210284142E+01
 0.1444466547254E+01
 0.1489069822027E+01
 0.1535237309314E+01
 0.1583611217687E+01
 0.1634464718699E+01
 0.1687828241709E+01
 0.1743540019146E+01
 0.1801233610604E+01
 0.1860271690056E+01
 0.1919656518493E+01
 0.1977967671993E+01
 0.2033423095442E+01
 0.2084135494339E+01
 0.2128496392693E+01
 0.2165639683267E+01
 0.2195594980149E+01
 0.2218781516698E+01
 0.2235383748765E+01
 0.2245117291892E+01
 0.2247365051157E+01
 0.2241480494519E+01
 0.2227093567520E+01
 0.2204364424080E+01
 0.2174260320225E+01
 0.2138969977453E+01
 0.2102836348902E+01
 0.2074769572476E+01
 0.2072514925695E+01
 0.2128785110523E+01
 0.2297591449757E+01
 0.2652433888930E+01
 0.3262707471259E+01
 0.4145455594049E+01
 0.5210895672446E+01
 0.6239686644498E+01
 0.1051494077011E+01
 0.1125909319055E+01
 0.1192025728638E+01
 0.1248756388308E+01
 0.1298019961510E+01
 0.1343321286821E+01
 0.1387805154340E+01
 0.1433550834253E+01
 0.1481717719805E+01
 0.1532878284444E+01
 0.1587267711513E+01
 0.1644920380904E+01
 0.1705719868477E+01
 0.1769381135047E+01
 0.1835370161973E+01
 0.1902782978960E+01
 0.1970230000506E+01
 0.2035843832427E+01
 0.2097532992260E+01
 0.2153433937468E+01
 0.2202464839976E+01
 0.2244505888349E+01
 0.2279823205936E+01
 0.2308358720182E+01
 0.2329474488092E+01
 0.2342117191193E+01
 0.2345154710680E+01
 0.2337687968253E+01
 0.2319258718092E+01
 0.2290011844986E+01
 0.2250913390007E+01
 0.2204421408891E+01
 0.2156707894889E+01
 0.2121953230112E+01
 0.2129417362560E+01
 0.2233820347072E+01
 0.2522394273229E+01
 0.3097172945419E+01
 0.4013453282107E+01
 0.5192384801749E+01
 0.6364965536030E+01
 0.9961786348587E+00
 0.1070698640879E+01
 0.1136357180388E+01
 0.1191690320161E+01
 0.1239405488556E+01
 0.1283856402787E+01
 0.1328519381719E+01
 0.1375445587853E+01
 0.1425666237173E+01
 0.1479648411951E+01
 0.1537575194279E+01
 0.1599483346350E+01
 0.1665309763027E+01
 0.1734869865055E+01
 0.1807767868909E+01
 0.1883248003968E+01
 0.1960018421589E+01
 0.2036182714381E+01
 0.2109468587720E+01
 0.2177752486380E+01
 0.2239726035139E+01
 0.2295114257006E+01
 0.2344022871393E+01
 0.2386136871232E+01
 0.2420450554714E+01
 0.2445470043885E+01
 0.2459588164905E+01
 0.2461407079173E+01
 0.2449904928700E+01
 0.2424475569828E+01
 0.2384918057681E+01
 0.2331789064284E+01
 0.2268334378642E+01
 0.2204518962563E+01
 0.2164209913252E+01
 0.2198327344269E+01
 0.2402493019903E+01
 0.2915329549814E+01
 0.3850100873006E+01
 0.5159095218844E+01
 0.6515213988678E+01
 0.9400400630847E+00
 0.1014507497234E+01
 0.1079267618805E+01
 0.1132495841039E+01
 0.1178128012902E+01
 0.1221524301625E+01
 0.1266376631751E+01
 0.1314567411687E+01
 0.1366921114787E+01
 0.1423766210893E+01
 0.1485222213649E+01
 0.1551327615107E+01
 0.1622079592045E+01
 0.1697410655272E+01
 0.1777096621651E+01
 0.1860588949205E+01
 0.1946776563129E+01
 0.2033814661850E+01
 0.2119292242439E+01
 0.2200825526230E+01
 0.2276863580674E+01
 0.2346960448778E+01
 0.2411041144271E+01
 0.2468508624905E+01
 0.2517973593987E+01
 0.2557505148917E+01
 0.2585043636321E+01
 0.2598736465451E+01
 0.2597074801220E+01
 0.2578812054355E+01
 0.2542696018351E+01
 0.2487451313525E+01
 0.2413348474925E+01
 0.2325759141758E+01
 0.2241696960381E+01
 0.2203686116655E+01
 0.2306481826105E+01
 0.2722429737253E+01
 0.3647261660337E+01
 0.5101555843144E+01
 0.6696622765899E+01
 0.8832791068284E+00
 0.9574955920430E+00
 0.1020677272544E+01
 0.1070831296740E+01
 0.1113788304257E+01
 0.1156003125959E+01
 0.1201143476634E+01
 0.1250740498276E+01
 0.1305335528072E+01
 0.1365092477662E+01
 0.1430060210914E+01
 0.1500279750724E+01
 0.1575814136809E+01
 0.1656725588674E+01
 0.1742989912025E+01
 0.1834325219651E+01
 0.1929900224900E+01
 0.2028034775770E+01
 0.2126251898906E+01
 0.2221918953377E+01
 0.2313220018278E+01
 0.2399504402048E+01
 0.2480472272387E+01
 0.2555201231890E+01
 0.2621900727355E+01
 0.2678219459374E+01
 0.2721684807492E+01
 0.2750047061658E+01
 0.2761405671088E+01
 0.2754025025076E+01
 0.2725789850048E+01
 0.2673773608546E+01
 0.2595395281054E+01
 0.2491355218413E+01
 0.2370978995471E+01
 0.2264692413431E+01
 0.2254723070124E+01
 0.2531975228558E+01
 0.3397142888442E+01
 0.5004700157561E+01
 0.6917686791344E+01
 0.8262588697168E+00
 0.8999269618057E+00
 0.9604277079500E+00
 0.1006191033979E+01
 0.1045889760869E+01
 0.1086948403634E+01
 0.1132594991529E+01
 0.1183806286476E+01
 0.1240782222746E+01
 0.1303507922521E+01
 0.1371960528039E+01
 0.1446186372556E+01
 0.1526318276774E+01
 0.1612555368399E+01
 0.1705092840814E+01
 0.1803968219910E+01
 0.1908740925712E+01
 0.2018049617147E+01
 0.2129473541471E+01
 0.2240168173589E+01
 0.2348023911432E+01
 0.2452120475475E+01
 0.2551846831991E+01
 0.2645882233428E+01
 0.2732016321547E+01
 0.2807516179778E+01
 0.2869561158407E+01
 0.2915575236766E+01
 0.2943370476229E+01
 0.2950907222033E+01
 0.2935474057645E+01
 0.2892814471512E+01
 0.2817852793731E+01
 0.2706906304846E+01
 0.2561470678048E+01
 0.2397738015296E+01
 0.2274624162402E+01
 0.2372128129700E+01
 0.3096920652930E+01
 0.4844657663003E+01
 0.7190131855311E+01
 0.7696314725423E+00
 0.8422041599397E+00
 0.8981660975207E+00
 0.9378108014950E+00
 0.9738337673679E+00
 0.1014012819708E+01
 0.1060526951394E+01
 0.1113630717860E+01
 0.1173158530509E+01
 0.1238916910419E+01
 0.1310817836332E+01
 0.1388918044884E+01
 0.1473422232610E+01
 0.1564667316470E+01
 0.1663074500693E+01
 0.1769036680615E+01
 0.1882615405351E+01
 0.2002969456636E+01
 0.2127934680726E+01
 0.2254545468721E+01
 0.2380367921852E+01
 0.2504093519756E+01
 0.2624639876193E+01
 0.2740168402265E+01
 0.2848033264820E+01
 0.2945195732300E+01
 0.3028592045797E+01
 0.3095405334242E+01
 0.3143255914055E+01
 0.3169995698297E+01
 0.3172654865100E+01
 0.3146128781557E+01
 0.3083511296539E+01
 0.2977522933351E+01
 0.2822479787553E+01
 0.2620092968770E+01
 0.2399295325506E+01
 0.2293226950626E+01
 0.2761513366660E+01
 0.4584810608107E+01
 0.7529786076486E+01
 0.7145915685148E+00
 0.7848783285896E+00
 0.8330903703987E+00
 0.8645489330421E+00
 0.8969544037315E+00
 0.9368789537986E+00
 0.9847687354237E+00
 0.1040112424243E+01
 0.1102391459057E+01
 0.1171250999590E+01
 0.1246553318449E+01
 0.1328372868921E+01
 0.1416986525089E+01
 0.1512863322579E+01
 0.1616642152024E+01
 0.1729078711797E+01
 0.1850825412252E+01
 0.1981804684538E+01
 0.2120428605842E+01
 0.2263811453151E+01
 0.2409177857774E+01
 0.2554617611758E+01
 0.2698287691660E+01
 0.2837642542893E+01
 0.2969598486513E+01
 0.3090946547482E+01
 0.3198547980153E+01
 0.3289453888836E+01
 0.3361153929113E+01
 0.3411549224771E+01
 0.3437785961693E+01
 0.3434559781113E+01
 0.3394160452526E+01
 0.3307174080020E+01
 0.3162388239256E+01
 0.2948884942288E+01
 0.2665124470242E+01
 0.2370240712886E+01
 0.2454727139330E+01
 0.4175020359734E+01
 0.7956263240675E+01
 0.6634238480903E+00
 0.7285157714844E+00
 0.7634006789003E+00
 0.7848132047659E+00
 0.8146324335741E+00
 0.8552918028624E+00
 0.9051963497486E+00
 0.9631922299818E+00
 0.1028442238424E+01
 0.1100472300502E+01
 0.1179117508543E+01
 0.1264479680015E+01
 0.1356906472085E+01
 0.1456987124080E+01
 0.1565555572986E+01
 0.1683700893426E+01
 0.1812694670677E+01
 0.1953474035029E+01
 0.2105515995787E+01
 0.2266439353969E+01
 0.2433167218005E+01
 0.2602800494596E+01
 0.2772217913231E+01
 0.2937880716808E+01
 0.3096303686172E+01
 0.3244335145384E+01
 0.3379024771874E+01
 0.3497450260344E+01
 0.3596970157062E+01
 0.3675563575195E+01
 0.3730820727263E+01
 0.3758046542470E+01
 0.3750150143621E+01
 0.3697783223834E+01
 0.3587312477144E+01
 0.3399021490615E+01
 0.3108764935717E+01
 0.2694953108872E+01
 0.2343166085323E+01
 0.3574979091320E+01
 0.8487637492079E+01
 0.6208140330008E+00
 0.6729074604998E+00
 0.6852042807985E+00
 0.6968211117054E+00
 0.7264783205857E+00
 0.7690594939797E+00
 0.8217565249355E+00
 0.8828598705946E+00
 0.9513107120832E+00
 0.1026576384541E+01
 0.1108492660740E+01
 0.1197200694942E+01
 0.1293115938039E+01
 0.1396930532600E+01
 0.1509638944550E+01
 0.1632600794549E+01
 0.1767632099339E+01
 0.1916842671330E+01
 0.2081460327968E+01
 0.2260489984132E+01
 0.2450768768968E+01
 0.2647681089596E+01
 0.2845900587883E+01
 0.3040492944147E+01
 0.3227702250601E+01
 0.3404796636014E+01
 0.3569405887986E+01
 0.3718900712316E+01
 0.3850451174099E+01
 0.3961848520146E+01
 0.4051228746331E+01
 0.4115462848475E+01
 0.4150009166976E+01
 0.4148277075889E+01
 0.4099004269216E+01
 0.3980396725369E+01
 0.3758958069140E+01
 0.3368147660788E+01
 0.2708834610682E+01
 0.2904282328036E+01
 0.9123506609928E+01
 0.5974972918698E+00
 0.6131377325949E+00
 0.5911241274235E+00
 0.5999355931736E+00
 0.6322150429428E+00
 0.6781082981115E+00
 0.7344850302079E+00
 0.7991576402801E+00
 0.8710398455267E+00
 0.9495939872513E+00
 0.1034694512559E+01
 0.1126533268570E+01
 0.1225589825683E+01
 0.1332638135013E+01
 0.1448788991213E+01
 0.1575590887223E+01
 0.1715225334945E+01
 0.1870834136916E+01
 0.2046147239356E+01
 0.2243387968473E+01
 0.2460032607948E+01
 0.2688277391016E+01
 0.2918930934536E+01
 0.3145181138905E+01
 0.3363332542317E+01
 0.3571629427370E+01
 0.3768814717798E+01
 0.3953008829796E+01
 0.4121219015597E+01
 0.4270225176323E+01
 0.4398092878216E+01
 0.4504531165062E+01
 0.4590071122065E+01
 0.4654153344103E+01
 0.4692000512938E+01
 0.4693996329160E+01
 0.4626693549437E+01
 0.4463546974869E+01
 0.3910634373354E+01
 0.3012142686949E+01
 0.9819096188568E+01
 0.6230802587662E+00
 0.5175047359227E+00
 0.4775040434699E+00
 0.4946935527655E+00
 0.5315186224342E+00
 0.5826275033378E+00
 0.6434794400757E+00
 0.7121960019462E+00
 0.7877150340421E+00
 0.8695930352062E+00
 0.9577730984520E+00
 0.1052510989820E+01
 0.1154345331869E+01
 0.1264109736351E+01
 0.1382981217293E+01
 0.1512604501763E+01
 0.1655320300926E+01
 0.1814730025308E+01
 0.1997016999573E+01
 0.2211461445652E+01
 0.2458500609734E+01
 0.2723696743180E+01
 0.2991155530049E+01
 0.3251817370597E+01
 0.3502744424348E+01
 0.3743992344815E+01
 0.3976077071186E+01
 0.4198510107227E+01
 0.4408724260622E+01
 0.4600989564052E+01
 0.4770349674796E+01
 0.4921597562854E+01
 0.5064600477114E+01
 0.5206463479753E+01
 0.5354927981176E+01
 0.5517576408085E+01
 0.5716354179215E+01
 0.5922284360371E+01
 0.6361951405151E+01
 0.5674255487426E+01
 0.1140963280030E+02
 0.9424633342665E+00
 0.1099842130476E+01
 0.1263649764002E+01
 0.1418562080148E+01
 0.1556855877212E+01
 0.1674820984815E+01
 0.1771006219245E+01
 0.1845185927948E+01
 0.1897745829233E+01
 0.1929415318780E+01
 0.1941249941182E+01
 0.1933711552546E+01
 0.1907856635411E+01
 0.1865983537769E+01
 0.1809265489958E+01
 0.1737476862179E+01
 0.1649701843949E+01
 0.1545016714650E+01
 0.1423368533763E+01
 0.1278389770485E+01
 0.9150919439428E+00
 0.1087744753751E+01
 0.1263602736271E+01
 0.1429576895117E+01
 0.1578146540231E+01
 0.1705724832627E+01
 0.1810960787265E+01
 0.1893688938098E+01
 0.1954320794238E+01
 0.1993621766042E+01
 0.2012591277887E+01
 0.2011730171903E+01
 0.1992164033466E+01
 0.1955867201257E+01
 0.1903770353734E+01
 0.1835791591288E+01
 0.1750951790665E+01
 0.1648026934690E+01
 0.1521671317596E+01
 0.1368184553029E+01
 0.8879407450911E+00
 0.1077436503721E+01
 0.1266107216599E+01
 0.1443104191386E+01
 0.1601735850955E+01
 0.1738678289770E+01
 0.1852723658780E+01
 0.1943795550987E+01
 0.2012374169878E+01
 0.2059254564573E+01
 0.2085394401763E+01
 0.2091441367488E+01
 0.2078506879459E+01
 0.2048246841385E+01
 0.2001447822349E+01
 0.1937881310952E+01
 0.1856335851040E+01
 0.1754228698430E+01
 0.1627050225293E+01
 0.1478262953404E+01
 0.8614586747077E+00
 0.1068517378515E+01
 0.1270655588757E+01
 0.1458808868188E+01
 0.1627346376781E+01
 0.1773417554483E+01
 0.1896037283706E+01
 0.1995262841614E+01
 0.2071666359253E+01
 0.2126090534657E+01
 0.2159505992796E+01
 0.2172680708684E+01
 0.2166700536866E+01
 0.2142955436031E+01
 0.2102036353958E+01
 0.2043517433077E+01
 0.1965814681391E+01
 0.1866327290387E+01
 0.1742739658356E+01
 0.1599153566345E+01
 0.8357748770609E+00
 0.1060917532663E+01
 0.1276910633710E+01
 0.1476343099205E+01
 0.1654671702867E+01
 0.1809654835413E+01
 0.1940624505272E+01
 0.2047820979702E+01
 0.2131936867459E+01
 0.2193890169282E+01
 0.2234693635043E+01
 0.2255214998739E+01
 0.2256509103046E+01
 0.2239736335462E+01
 0.2205294962619E+01
 0.2152570114288E+01
 0.2079923962441E+01
 0.1985243018895E+01
 0.1867187614737E+01
 0.1729213903867E+01
 0.8109761238498E+00
 0.1054547380404E+01
 0.1284627845277E+01
 0.1495387203560E+01
 0.1683392324988E+01
 0.1847083870678E+01
 0.1986187995297E+01
 0.2101179067920E+01
 0.2192902172203E+01
 0.2262375451781E+01
 0.2310675062768E+01
 0.2338753363059E+01
 0.2347634406997E+01
 0.2338292000893E+01
 0.2310965776985E+01
 0.2264958482539E+01
 0.2198754319875E+01
 0.2110592895694E+01
 0.1999504650158E+01
 0.1867868783244E+01
 0.7871335165636E+00
 0.1049317991139E+01
 0.1293586314783E+01
 0.1515646182217E+01
 0.1713188626597E+01
 0.1885385643418E+01
 0.2032413557723E+01
 0.2155026261253E+01
 0.2254252337933E+01
 0.2331232692038E+01
 0.2387123612188E+01
 0.2422954026853E+01
 0.2439726052753E+01
 0.2438274901502E+01
 0.2418740384551E+01
 0.2380424680220E+01
 0.2321952279091E+01
 0.2241771846172E+01
 0.2138935213082E+01
 0.2014723216453E+01
 0.7643139925754E+00
 0.1045139406998E+01
 0.1303577174673E+01
 0.1536837497283E+01
 0.1743744413091E+01
 0.1924233887952E+01
 0.2078973437512E+01
 0.2209033114685E+01
 0.2315652525050E+01
 0.2400115523223E+01
 0.2463673161930E+01
 0.2507429922609E+01
 0.2532381764810E+01
 0.2539275189797E+01
 0.2528203761129E+01
 0.2498508553840E+01
 0.2448935707336E+01
 0.2378034590772E+01
 0.2284717944233E+01
 0.2169265616224E+01
 0.7425833824851E+00
 0.1041922324105E+01
 0.1314398197891E+01
 0.1558686701746E+01
 0.1774746673215E+01
 0.1963298463694E+01
 0.2125529511004E+01
 0.2262854119192E+01
 0.2376745689592E+01
 0.2468648658283E+01
 0.2539922472228E+01
 0.2591751672946E+01
 0.2625145821165E+01
 0.2640807330020E+01
 0.2638823150489E+01
 0.2618591835667E+01
 0.2578957721849E+01
 0.2518510699296E+01
 0.2435969629517E+01
 0.2330756624612E+01
 0.7220071394876E+00
 0.1039578711339E+01
 0.1325852177041E+01
 0.1580925486984E+01
 0.1805885808194E+01
 0.2002247533150E+01
 0.2171736315383E+01
 0.2316130810149E+01
 0.2437156015294E+01
 0.2536431877066E+01
 0.2615438999155E+01
 0.2675449960931E+01
 0.2717508196955E+01
 0.2742308607488E+01
 0.2749960004299E+01
 0.2739927376344E+01
 0.2711136727428E+01
 0.2662191160789E+01
 0.2591616690405E+01
 0.2498128560680E+01
 0.7026500216089E+00
 0.1038022235567E+01
 0.1337746531640E+01
 0.1603291303364E+01
 0.1836856321897E+01
 0.2040749611052E+01
 0.2217243991422E+01
 0.2368495222784E+01
 0.2496492794830E+01
 0.2603044249643E+01
 0.2689762890081E+01
 0.2758018730893E+01
 0.2808907716975E+01
 0.2843146167931E+01
 0.2860885253584E+01
 0.2861661442464E+01
 0.2844472300510E+01
 0.2807924373709E+01
 0.2750371707998E+01
 0.2669965171484E+01
 0.6845753875384E+00
 0.1037168591286E+01
 0.1349893596112E+01
 0.1625527832057E+01
 0.1867358027277E+01
 0.2078475734642E+01
 0.2261701300116E+01
 0.2419573539277E+01
 0.2554354575992E+01
 0.2668048629292E+01
 0.2762411526629E+01
 0.2838920000661E+01
 0.2898738584472E+01
 0.2942627467078E+01
 0.2970795037512E+01
 0.2982852053804E+01
 0.2977860706131E+01
 0.2954426889603E+01
 0.2910755957693E+01
 0.2844556406264E+01
 0.6678443555940E+00
 0.1036935838057E+01
 0.1362111289665E+01
 0.1647385990363E+01
 0.1897097651970E+01
 0.2115101849984E+01
 0.2304758785239E+01
 0.2468989932434E+01
 0.2610333592770E+01
 0.2730996593546E+01
 0.2832884972957E+01
 0.2917590376606E+01
 0.2986359162529E+01
 0.3040012519901E+01
 0.3078826599616E+01
 0.3102487196687E+01
 0.3110114299386E+01
 0.3100308229807E+01
 0.3071142022367E+01
 0.3019972788830E+01
 0.6525149627688E+00
 0.1037244786343E+01
 0.1374224035585E+01
 0.1668625272886E+01
 0.1925790722222E+01
 0.2150311366249E+01
 0.2346072040572E+01
 0.2516370524766E+01
 0.2664020393470E+01
 0.2791433772356E+01
 0.2900672181531E+01
 0.2993448725445E+01
 0.3071102002537E+01
 0.3134526943758E+01
 0.3184074461769E+01
 0.3219503949662E+01
 0.3239984840940E+01
 0.3244103291863E+01
 0.3229805217453E+01
 0.3194152995828E+01
 0.6386413909417E+00
 0.1038019444728E+01
 0.1386063860024E+01
 0.1689015329856E+01
 0.1953163660213E+01
 0.2183797864217E+01
 0.2385305093127E+01
 0.2561347480145E+01
 0.2715008688229E+01
 0.2848905569881E+01
 0.2965257844172E+01
 0.3065904681464E+01
 0.3152284662313E+01
 0.3225375554152E+01
 0.3285607073179E+01
 0.3332808724271E+01
 0.3366189168834E+01
 0.3384307821093E+01
 0.3384977935109E+01
 0.3364992990820E+01
 0.6262733120510E+00
 0.1039187530545E+01
 0.1397471614994E+01
 0.1708337697335E+01
 0.1978956017589E+01
 0.2215267904671E+01
 0.2422133864389E+01
 0.2603563193363E+01
 0.2762900370150E+01
 0.2902963189768E+01
 0.3026129700826E+01
 0.3134367691327E+01
 0.3229221001445E+01
 0.3311756317331E+01
 0.3382483826679E+01
 0.3441298101290E+01
 0.3487435550788E+01
 0.3519413687975E+01
 0.3534900136648E+01
 0.3530422102617E+01
 0.6154553556733E+00
 0.1040681029092E+01
 0.1408298277629E+01
 0.1726387616011E+01
 0.2002922784320E+01
 0.2244443886670E+01
 0.2456249666113E+01
 0.2642674528181E+01
 0.2807310635301E+01
 0.2953169837070E+01
 0.3082786101103E+01
 0.3198256325002E+01
 0.3301232667555E+01
 0.3392874384657E+01
 0.3473772061104E+01
 0.3543879479102E+01
 0.3602449213201E+01
 0.3647941346024E+01
 0.3677861736068E+01
 0.3688459770743E+01
 0.6062267261949E+00
 0.1042436791699E+01
 0.1418406289208E+01
 0.1742975883575E+01
 0.2024836712418E+01
 0.2271066895647E+01
 0.2487362668200E+01
 0.2678357028563E+01
 0.2847873097898E+01
 0.2999106947508E+01
 0.3134743613182E+01
 0.3257007602663E+01
 0.3367660500014E+01
 0.3467955895117E+01
 0.3558563604552E+01
 0.3639490808892E+01
 0.3709995902071E+01
 0.3768467974087E+01
 0.3812235978455E+01
 0.3837254641754E+01
 0.5986209618454E+00
 0.1044397152146E+01
 0.1427670886803E+01
 0.1757930679325E+01
 0.2044490587986E+01
 0.2294899474018E+01
 0.2515205268403E+01
 0.2710309022140E+01
 0.2884244798277E+01
 0.3040380310703E+01
 0.3181544512060E+01
 0.3310086142652E+01
 0.3427875636048E+01
 0.3536261291911E+01
 0.3635990517860E+01
 0.3727118940633E+01
 0.3808902893729E+01
 0.3879650933728E+01
 0.3936504656220E+01
 0.3975109713137E+01
 0.5926658173708E+00
 0.1046510545281E+01
 0.1435981397376E+01
 0.1771099323205E+01
 0.2061699410261E+01
 0.2315728269645E+01
 0.2539535312089E+01
 0.2738255549840E+01
 0.2916111014811E+01
 0.3076625969061E+01
 0.3222763996402E+01
 0.3356992950291E+01
 0.3481290110555E+01
 0.3597097905495E+01
 0.3705239737417E+01
 0.3805816247320E+01
 0.3898077228746E+01
 0.3980246701411E+01
 0.4049276089288E+01
 0.4100496068149E+01
 0.5883832476425E+00
 0.1048732110250E+01
 0.1443242459039E+01
 0.1782349923086E+01
 0.2076302424387E+01
 0.2333366502251E+01
 0.2560139092632E+01
 0.2761952037543E+01
 0.2943189775349E+01
 0.3107515763418E+01
 0.3258016979301E+01
 0.3397273669662E+01
 0.3527366752404E+01
 0.3649831589530E+01
 0.3765566402953E+01
 0.3874715366664E+01
 0.3976521229437E+01
 0.4069125861323E+01
 0.4149297055693E+01
 0.4212057782289E+01
 0.5857894618151E+00
 0.1051024262216E+01
 0.1449375139096E+01
 0.1791572871394E+01
 0.2088164962739E+01
 0.2347656195674E+01
 0.2576834070594E+01
 0.2781187634060E+01
 0.2965235974472E+01
 0.3132762411023E+01
 0.3286964317259E+01
 0.3430526144925E+01
 0.3565628213959E+01
 0.3693897252012E+01
 0.3816305749609E+01
 0.3933042046365E+01
 0.4043345495254E+01
 0.4145284930005E+01
 0.4235460826702E+01
 0.4308611483266E+01
 0.5848950167845E+00
 0.1053357218220E+01
 0.1454317921893E+01
 0.1798682156254E+01
 0.2097180053447E+01
 0.2358470127120E+01
 0.2589471252777E+01
 0.2795788143227E+01
 0.2982045008072E+01
 0.3152124009278E+01
 0.3309318353173E+01
 0.3456407153977E+01
 0.3595664995336E+01
 0.3728808164782E+01
 0.3856883513331E+01
 0.3980126168128E+01
 0.4097779682750E+01
 0.4207855530301E+01
 0.4306813262729E+01
 0.4389144648534E+01
 0.5857049217842E+00
 0.1055709464823E+01
 0.1458027543113E+01
 0.1803616456564E+01
 0.2103269759063E+01
 0.2365713448578E+01
 0.2597937176221E+01
 0.2805618482559E+01
 0.2993455842949E+01
 0.3165407867157E+01
 0.3324847660609E+01
 0.3474638192245E+01
 0.3617142344801E+01
 0.3754163963773E+01
 0.3886824838136E+01
 0.4015411088491E+01
 0.4139181394115E+01
 0.4256111452201E+01
 0.4362555888746E+01
 0.4452812342231E+01
 0.5882187330751E+00
 0.1058068157968E+01
 0.1460479652642E+01
 0.1806339997704E+01
 0.2106386216522E+01
 0.2369324944264E+01
 0.2602155451574E+01
 0.2810584611475E+01
 0.2999353451740E+01
 0.3172473581631E+01
 0.3333380895133E+01
 0.3485010205318E+01
 0.3629805939107E+01
 0.3769657274801E+01
 0.3905761698061E+01
 0.4038461448341E+01
 0.4167043561569E+01
 0.4289474146324E+01
 0.4402046901178E+01
 0.4498930419080E+01
 0.5924306296896E+00
 0.1060429448490E+01
 0.1461669293706E+01
 0.1806843151407E+01
 0.2106512356954E+01
 0.2369277895580E+01
 0.2602087828062E+01
 0.2810634880792E+01
 0.2999670553858E+01
 0.3173235289095E+01
 0.3334809673518E+01
 0.3487387184643E+01
 0.3633486259400E+01
 0.3775078903356E+01
 0.3913438834852E+01
 0.4048969582804E+01
 0.4181000671411E+01
 0.4307517477439E+01
 0.4424802446009E+01
 0.4526970767153E+01
 0.5983294730712E+00
 0.1062798729594E+01
 0.1461611191523E+01
 0.1805142770841E+01
 0.2103662292386E+01
 0.2365580533655E+01
 0.2597734750972E+01
 0.2805760764411E+01
 0.2994388613799E+01
 0.3167663034849E+01
 0.3329090417018E+01
 0.3481708555222E+01
 0.3628101586147E+01
 0.3770321518039E+01
 0.3909718178722E+01
 0.4046760599196E+01
 0.4180834111238E+01
 0.4309972444188E+01
 0.4430499235139E+01
 0.4536560203254E+01
 0.6058988667805E+00
 0.1065190804872E+01
 0.1460339849123E+01
 0.1801282258555E+01
 0.2097881363778E+01
 0.2358276067069E+01
 0.2589135389989E+01
 0.2795996942212E+01
 0.2983538058321E+01
 0.3155783217179E+01
 0.3316245112376E+01
 0.3467990302792E+01
 0.3613659548469E+01
 0.3755381750142E+01
 0.3894581675629E+01
 0.4031796102052E+01
 0.4166476801278E+01
 0.4296732298479E+01
 0.4418979142796E+01
 0.4527483635009E+01
 0.6151172494374E+00
 0.1067629980134E+01
 0.1457909460698E+01
 0.1795331380227E+01
 0.2089245860934E+01
 0.2347442287021E+01
 0.2576367129262E+01
 0.2781420713835E+01
 0.2967197683787E+01
 0.3137678073418E+01
 0.3296360957638E+01
 0.3446324801066E+01
 0.3590257167872E+01
 0.3730360614160E+01
 0.3868132377939E+01
 0.4004176393373E+01
 0.4138017004093E+01
 0.4267858200343E+01
 0.4390256147822E+01
 0.4499691784191E+01
 0.6259580291369E+00
 0.1070150074240E+01
 0.1454393647966E+01
 0.1787385840361E+01
 0.2077862431380E+01
 0.2333190759907E+01
 0.2559544518283E+01
 0.2762150732300E+01
 0.2945493236406E+01
 0.3113484191630E+01
 0.3269588885352E+01
 0.3416879333809E+01
 0.3558079370181E+01
 0.3695462174671E+01
 0.3830593639300E+01
 0.3964140851460E+01
 0.4095700896439E+01
 0.4223585118560E+01
 0.4344525882205E+01
 0.4453314075365E+01
 0.6383898020453E+00
 0.1072794356081E+01
 0.1449885050141E+01
 0.1777566664411E+01
 0.2063867222180E+01
 0.2315665639757E+01
 0.2538817701828E+01
 0.2738345063143E+01
 0.2918595162369E+01
 0.3083390045797E+01
 0.3236140978866E+01
 0.3379893344015E+01
 0.3517395983046E+01
 0.3650990412903E+01
 0.3782306260415E+01
 0.3912066142957E+01
 0.4039933156666E+01
 0.4164326924354E+01
 0.4282177169057E+01
 0.4388676274236E+01
 0.6523766579316E+00
 0.1075615397113E+01
 0.1444494799378E+01
 0.1766019445952E+01
 0.2047424810641E+01
 0.2295042139012E+01
 0.2514370350833E+01
 0.2710198578329E+01
 0.2886715523541E+01
 0.3047632543789E+01
 0.3196286793866E+01
 0.3335674464879E+01
 0.3468557283326E+01
 0.3597344280327E+01
 0.3723723404919E+01
 0.3848461945408E+01
 0.3971274822034E+01
 0.4090678556812E+01
 0.4203802424640E+01
 0.4306318481641E+01
 0.6678785535088E+00
 0.1078674822735E+01
 0.1438351936456E+01
 0.1752913547080E+01
 0.2028726992432E+01
 0.2271524688611E+01
 0.2486417105000E+01
 0.2677939686044E+01
 0.2850104058923E+01
 0.3006492536556E+01
 0.3150348543705E+01
 0.3284593362507E+01
 0.3411988209137E+01
 0.3535010991268E+01
 0.3655403046125E+01
 0.3773963629981E+01
 0.3890438108617E+01
 0.4003413622723E+01
 0.4110199149823E+01
 0.4207001217684E+01
 0.6848516666846E+00
 0.1082042917468E+01
 0.1431602875963E+01
 0.1738441425619E+01
 0.2007991544099E+01
 0.2245344847212E+01
 0.2455200583708E+01
 0.2641826483615E+01
 0.2809043475305E+01
 0.2960289321451E+01
 0.3098695152276E+01
 0.3227077512198E+01
 0.3348181609340E+01
 0.3464558102743E+01
 0.3577998066097E+01
 0.3689321237840E+01
 0.3798277539609E+01
 0.3903480059095E+01
 0.4002359478694E+01
 0.4091678334161E+01
 0.7032485433368E+00
 0.1085797993534E+01
 0.1424411186145E+01
 0.1722818391588E+01
 0.1985461092929E+01
 0.2216758929593E+01
 0.2420987969980E+01
 0.2602142402990E+01
 0.2763844028560E+01
 0.2909374081177E+01
 0.3041734950202E+01
 0.3163603618999E+01
 0.3277690716907E+01
 0.3386625145964E+01
 0.3492244674931E+01
 0.3595383356980E+01
 0.3695774361792E+01
 0.3791994771463E+01
 0.3881475602192E+01
 0.3961504022556E+01
 0.7230174467580E+00
 0.1090025396699E+01
 0.1416958205041E+01
 0.1706283439963E+01
 0.1961402102014E+01
 0.2186045186853E+01
 0.2384067135468E+01
 0.2559191602181E+01
 0.2714837634194E+01
 0.2854122360569E+01
 0.2979906949715E+01
 0.3094688243364E+01
 0.3201120495276E+01
 0.3301916790576E+01
 0.3398951856788E+01
 0.3493076726284E+01
 0.3584008204596E+01
 0.3670230064586E+01
 0.3748970538242E+01
 0.3817920839167E+01
 0.7440997653102E+00
 0.1094815538125E+01
 0.1409446646948E+01
 0.1689102126165E+01
 0.1936103905976E+01
 0.2153499674514E+01
 0.2344742375527E+01
 0.2513294477921E+01
 0.2662371861332E+01
 0.2794925499230E+01
 0.2913670463410E+01
 0.3020876157597E+01
 0.3119115591982E+01
 0.3211196299018E+01
 0.3299001110289E+01
 0.3383384656001E+01
 0.3464109921036E+01
 0.3539567688074E+01
 0.3606516301631E+01
 0.3662739612678E+01
 0.7664203871091E+00
 0.1100263761347E+01
 0.1402110373403E+01
 0.1671575654333E+01
 0.1909874624631E+01
 0.2119429593194E+01
 0.2303329911857E+01
 0.2464784606632E+01
 0.2606804132935E+01
 0.2732181369196E+01
 0.2843492760594E+01
 0.2942726561816E+01
 0.3032345082490E+01
 0.3115269947127E+01
 0.3193356603068E+01
 0.3267374275935E+01
 0.3337170833217E+01
 0.3401386407605E+01
 0.3456002736550E+01
 0.3498271879425E+01
 0.7898631158109E+00
 0.1106456757886E+01
 0.1395269532280E+01
 0.1654046690349E+01
 0.1883026784516E+01
 0.2084145907182E+01
 0.2260153289062E+01
 0.2414006408447E+01
 0.2548502562795E+01
 0.2666280234357E+01
 0.2769834655191E+01
 0.2860799766936E+01
 0.2941483175647E+01
 0.3014965691038E+01
 0.3083036686196E+01
 0.3146293426255E+01
 0.3204364211173E+01
 0.3256545407991E+01
 0.3299416436701E+01
 0.3327685996691E+01
 0.8140575415783E+00
 0.1113723280686E+01
 0.1389427274949E+01
 0.1636861789667E+01
 0.1855854149492E+01
 0.2047957484613E+01
 0.2215544422624E+01
 0.2361304862967E+01
 0.2487849597727E+01
 0.2597625177947E+01
 0.2693078884018E+01
 0.2775655714485E+01
 0.2847234175472E+01
 0.2911049217020E+01
 0.2969085666721E+01
 0.3021495738572E+01
 0.3067463292202E+01
 0.3105792105665E+01
 0.3135997440373E+01
 0.3158695997264E+01
 0.2419127460749E+01
 0.9354581238415E+00
 0.1923971916145E+00
 0.9442687784051E-02
 0.1238612224818E+00
 0.2010325137293E+00
 0.2573218334147E+00
 0.2981513922930E+00
 0.3246505309172E+00
 0.3367845601768E+00
 0.3328607335422E+00
 0.3096384922672E+00
 0.2655393420101E+00
 0.2063775822812E+00
 0.1369739271121E+00
 0.6270723420696E-01
 0.1694218316715E-01
 0.8448204046475E-01
 0.1562287525925E+00
 0.2421452817199E+00
 0.2493625916127E+01
 0.1772718343982E+01
 0.6991048574852E+00
 0.2659803346710E+00
 0.6434159395617E-01
 0.5864847633305E-01
 0.1403083559700E+00
 0.1977399111538E+00
 0.2372516059157E+00
 0.2608630739064E+00
 0.2685613734745E+00
 0.2620136461966E+00
 0.2379842233729E+00
 0.1947688249541E+00
 0.1367424299789E+00
 0.7066257762748E-01
 0.9760838981550E-02
 0.6472097475622E-01
 0.1313943364040E+00
 0.1987036518381E+00
 0.2299583521455E+01
 0.2016734018902E+01
 0.1182562351968E+01
 0.5987303975500E+00
 0.2923689790427E+00
 0.1138299162509E+00
 0.3375717595280E-02
 0.8150821579601E-01
 0.1373760880163E+00
 0.1751270462254E+00
 0.1970706959450E+00
 0.2059057999165E+00
 0.1982270267291E+00
 0.1696684311438E+00
 0.1241121709738E+00
 0.6833332832231E-01
 0.1124439250614E-01
 0.5028660324347E-01
 0.1067530989900E+00
 0.1573751403139E+00
 0.2105207019098E+01
 0.2049517164830E+01
 0.1470336484110E+01
 0.9181304782690E+00
 0.5434040631819E+00
 0.3090592332303E+00
 0.1557584186474E+00
 0.5031137427177E-01
 0.2483096210059E-01
 0.7880274947214E-01
 0.1159137918696E+00
 0.1398107142645E+00
 0.1473796193098E+00
 0.1330015470704E+00
 0.1002718901427E+00
 0.5609711257856E-01
 0.8305881755932E-02
 0.4126634730884E-01
 0.8601595575154E-01
 0.1220569861698E+00
 0.1934526811188E+01
 0.1997923383785E+01
 0.1621068704472E+01
 0.1160333740993E+01
 0.7824305866140E+00
 0.5131143723102E+00
 0.3266587388325E+00
 0.1951785615771E+00
 0.9958261373860E-01
 0.2844768063250E-01
 0.2450075351371E-01
 0.6322614168548E-01
 0.8561252117050E-01
 0.8539245909516E-01
 0.6585316886175E-01
 0.3415621185417E-01
 0.2633856446430E-02
 0.3933545431335E-01
 0.7185531144392E-01
 0.9486866179538E-01
 0.1790353450252E+01
 0.1912864211723E+01
 0.1685167408452E+01
 0.1326751820714E+01
 0.9833772171029E+00
 0.7079782445402E+00
 0.5012045024203E+00
 0.3483104176391E+00
 0.2336318885670E+00
 0.1455928834639E+00
 0.7750827737568E-01
 0.2441741289649E-01
 0.1358691410372E-01
 0.2718890188699E-01
 0.2116981821834E-01
 0.3711489411370E-02
 0.2199141399260E-01
 0.4623585254833E-01
 0.6641037396819E-01
 0.7758695070027E-01
 0.1669508136301E+01
 0.1817496147124E+01
 0.1696480119188E+01
 0.1432356571267E+01
 0.1140621256341E+01
 0.8808147506338E+00
 0.6693297765879E+00
 0.5034557000361E+00
 0.3738022190270E+00
 0.2709474373568E+00
 0.1885932476468E+00
 0.1215195694099E+00
 0.7075625253111E-01
 0.4286010714894E-01
 0.3533947982586E-01
 0.4056392289698E-01
 0.5170807605097E-01
 0.6340048980136E-01
 0.7146774618881E-01
 0.7176537873678E-01
 0.1567966724535E+01
 0.1722804123348E+01
 0.1676747416081E+01
 0.1493044706667E+01
 0.1257700302670E+01
 0.1026729370212E+01
 0.8237841761200E+00
 0.6545978920444E+00
 0.5159911031986E+00
 0.4019337750998E+00
 0.3075615384910E+00
 0.2281869560641E+00
 0.1644276608989E+00
 0.1229188667800E+00
 0.1020265365429E+00
 0.9422060966196E-01
 0.9270949530382E-01
 0.9206731561876E-01
 0.8844044065060E-01
 0.7861008026113E-01
 0.1481990081444E+01
 0.1633939090433E+01
 0.1639870757993E+01
 0.1522144964767E+01
 0.1341462175647E+01
 0.1145947466030E+01
 0.9610386513449E+00
 0.7973002264904E+00
 0.6563976682071E+00
 0.5357774335935E+00
 0.4325520144642E+00
 0.3430918120861E+00
 0.2679529728530E+00
 0.2139151365764E+00
 0.1802892384292E+00
 0.1598356272334E+00
 0.1460070128635E+00
 0.1333980068986E+00
 0.1184726120673E+00
 0.9893971911061E-01
 0.1408407778963E+01
 0.1553084614328E+01
 0.1594735010200E+01
 0.1530003428232E+01
 0.1399241382719E+01
 0.1241372826984E+01
 0.1080452297829E+01
 0.9290958169073E+00
 0.7921476807655E+00
 0.6699537153437E+00
 0.5616403678695E+00
 0.4649087432237E+00
 0.3805323060682E+00
 0.3154968537328E+00
 0.2702065564311E+00
 0.2379230690273E+00
 0.2124318933061E+00
 0.1883817311955E+00
 0.1625094813723E+00
 0.1333435740714E+00
 0.1344620231003E+01
 0.1480869243244E+01
 0.1546985462976E+01
 0.1524368800948E+01
 0.1437716153144E+01
 0.1316984175767E+01
 0.1183218924393E+01
 0.1049204627459E+01
 0.9214897531961E+00
 0.8024974259229E+00
 0.6930757139375E+00
 0.5922794921904E+00
 0.5012598598147E+00
 0.4272230964541E+00
 0.3717502733774E+00
 0.3287913836746E+00
 0.2925429040225E+00
 0.2577207449394E+00
 0.2212300818645E+00
 0.1821989199633E+00
 0.1288527357793E+01
 0.1417101788263E+01
 0.1500144086767E+01
 0.1510918657743E+01
 0.1462531098755E+01
 0.1376934179247E+01
 0.1271507143217E+01
 0.1158049505489E+01
 0.1043685937470E+01
 0.9321052200772E+00
 0.8254343868346E+00
 0.7239277377323E+00
 0.6291505361566E+00
 0.5484719457335E+00
 0.4846392719438E+00
 0.4324346327174E+00
 0.3865392321546E+00
 0.3417463601277E+00
 0.2949727632681E+00
 0.2455953978910E+00
 0.1238445228280E+01
 0.1361170309147E+01
 0.1456320782444E+01
 0.1493730504147E+01
 0.1478253154006E+01
 0.1425087949105E+01
 0.1347869429126E+01
 0.1256790474425E+01
 0.1158771831980E+01
 0.1058084922587E+01
 0.9576698720397E+00
 0.8587313253461E+00
 0.7631873416130E+00
 0.6784416225422E+00
 0.6082962799975E+00
 0.5484602942160E+00
 0.4941777497087E+00
 0.4403464451470E+00
 0.3836974616061E+00
 0.3233283354960E+00
 0.1193030106898E+01
 0.1312264928060E+01
 0.1416675489786E+01
 0.1475658869841E+01
 0.1488457687864E+01
 0.1464814117058E+01
 0.1414870943630E+01
 0.1346955357159E+01
 0.1267295425292E+01
 0.1180226568244E+01
 0.1089084341457E+01
 0.9957454753090E+00
 0.9023561201420E+00
 0.8161688805725E+00
 0.7418360763955E+00
 0.6760425845540E+00
 0.6146980283402E+00
 0.5528876349486E+00
 0.4869574591683E+00
 0.4149514871157E+00
 0.1151214375671E+01
 0.1269504447755E+01
 0.1381724876018E+01
 0.1458625387053E+01
 0.1495854962168E+01
 0.1498912245269E+01
 0.1474872339900E+01
 0.1430173939194E+01
 0.1370086822648E+01
 0.1298649885762E+01
 0.1219255859858E+01
 0.1134188665551E+01
 0.1045667022221E+01
 0.9605647313852E+00
 0.8840945322948E+00
 0.8139200791723E+00
 0.7467666280875E+00
 0.6781185970543E+00
 0.6038389613606E+00
 0.5198473307018E+00
 0.1112153965065E+01
 0.1232008305339E+01
 0.1351550207013E+01
 0.1443839839486E+01
 0.1502420060537E+01
 0.1529610912268E+01
 0.1529912787072E+01
 0.1507998602708E+01
 0.1468075523107E+01
 0.1413659513323E+01
 0.1347948130678E+01
 0.1273404560010E+01
 0.1192163265552E+01
 0.1110470391469E+01
 0.1033722076164E+01
 0.9604812936577E+00
 0.8884844125587E+00
 0.8140495692590E+00
 0.7328153883205E+00
 0.6372733250857E+00
 0.1075185198715E+01
 0.1198936302664E+01
 0.1325940205513E+01
 0.1431969233707E+01
 0.1509513123446E+01
 0.1558601400610E+01
 0.1581655932387E+01
 0.1581789872244E+01
 0.1562154874028E+01
 0.1525622677290E+01
 0.1475020941954E+01
 0.1412809034900E+01
 0.1340909944922E+01
 0.1264708615292E+01
 0.1189347400802E+01
 0.1114022780703E+01
 0.1037562634846E+01
 0.9578753493176E+00
 0.8714213234345E+00
 0.7663244306423E+00
 0.1039790382119E+01
 0.1169507321540E+01
 0.1304489913950E+01
 0.1423267517514E+01
 0.1517988297273E+01
 0.1587090145755E+01
 0.1631375045239E+01
 0.1652646767464E+01
 0.1653085964956E+01
 0.1634873936153E+01
 0.1600354387543E+01
 0.1551833008949E+01
 0.1490947880487E+01
 0.1422075593678E+01
 0.1349677255752E+01
 0.1273201405425E+01
 0.1192022632391E+01
 0.1106113567472E+01
 0.1015735918803E+01
 0.9055587298911E+00
 0.1005569097772E+01
 0.1143011965606E+01
 0.1286655322132E+01
 0.1417678576409E+01
 0.1528298727416E+01
 0.1615863031461E+01
 0.1679963058604E+01
 0.1721366716023E+01
 0.1741424609654E+01
 0.1741646968194E+01
 0.1723800960077E+01
 0.1689883677272E+01
 0.1641232328430E+01
 0.1581214534080E+01
 0.1513352675948E+01
 0.1437007371470E+01
 0.1351524657121E+01
 0.1256723325552E+01
 0.1159176012854E+01
 0.1051953618099E+01
 0.9722856702899E+00
 0.1118723601976E+01
 0.1271758871025E+01
 0.1414948626934E+01
 0.1540612276536E+01
 0.1645356191577E+01
 0.1727954636142E+01
 0.1788429792857E+01
 0.1827459661651E+01
 0.1845983316750E+01
 0.1845197511518E+01
 0.1826394470599E+01
 0.1790601424132E+01
 0.1740503878017E+01
 0.1678527584397E+01
 0.1603975215704E+01
 0.1515864885498E+01
 0.1413372740609E+01
 0.1299831613006E+01
 0.1193175239883E+01
 0.8427837380572E+00
 0.1129112223793E+01
 0.1392592289996E+01
 0.1627457047807E+01
 0.1833852282710E+01
 0.2013457241843E+01
 0.2168564848781E+01
 0.2301845404677E+01
 0.2416000251400E+01
 0.2513466560974E+01
 0.2596626471638E+01
 0.2667707756981E+01
 0.2728063705131E+01
 0.2781346132076E+01
 0.2830889195708E+01
 0.2876007911969E+01
 0.2915553507729E+01
 0.2948308444443E+01
 0.2976980903406E+01
 0.3022310665627E+01
 0.8748814360003E+00
 0.1150343279311E+01
 0.1402335489039E+01
 0.1623744685532E+01
 0.1814861715486E+01
 0.1978019365263E+01
 0.2116008627076E+01
 0.2231904105183E+01
 0.2328762601741E+01
 0.2409267008218E+01
 0.2476083127869E+01
 0.2531908204029E+01
 0.2577989960796E+01
 0.2618993139066E+01
 0.2659945850665E+01
 0.2700205501278E+01
 0.2739087134710E+01
 0.2776668657554E+01
 0.2820221175114E+01
 0.2865153410764E+01
 0.9075425440755E+00
 0.1172110551765E+01
 0.1412149234130E+01
 0.1618950460371E+01
 0.1793022940918E+01
 0.1937573492156E+01
 0.2056211484829E+01
 0.2152633684759E+01
 0.2230334329560E+01
 0.2292303499666E+01
 0.2341481180718E+01
 0.2380634263619E+01
 0.2411145374802E+01
 0.2439220239822E+01
 0.2471566930621E+01
 0.2507819286120E+01
 0.2547655902915E+01
 0.2591785434325E+01
 0.2641929784817E+01
 0.2685377453100E+01
 0.9410904416141E+00
 0.1194924649032E+01
 0.1422494460685E+01
 0.1613261420221E+01
 0.1768271963784E+01
 0.1891980495158E+01
 0.1989103056456E+01
 0.2064149504570E+01
 0.2121133325648E+01
 0.2163338892333E+01
 0.2193895640034E+01
 0.2215515616222E+01
 0.2229798031076E+01
 0.2244664905217E+01
 0.2268446896731E+01
 0.2300867949375E+01
 0.2341429832919E+01
 0.2389130009950E+01
 0.2442423887530E+01
 0.2492236049854E+01
 0.9758136597474E+00
 0.1219376625504E+01
 0.1433808850351E+01
 0.1606788942480E+01
 0.1740426212242E+01
 0.1840933969441E+01
 0.1914454848376E+01
 0.1966474352585E+01
 0.2001559910251E+01
 0.2023229987439E+01
 0.2034710291778E+01
 0.2038512221977E+01
 0.2036470232111E+01
 0.2038193988493E+01
 0.2053317647651E+01
 0.2081386056559E+01
 0.2121214818171E+01
 0.2170510896405E+01
 0.2227448646722E+01
 0.2288114663789E+01
 0.1012065609312E+01
 0.1246077341634E+01
 0.1446458917332E+01
 0.1599459698210E+01
 0.1709062671580E+01
 0.1783888577359E+01
 0.1831847835553E+01
 0.1859525012775E+01
 0.1872015291901E+01
 0.1872956247995E+01
 0.1865523359620E+01
 0.1851852154922E+01
 0.1833971830335E+01
 0.1822995553728E+01
 0.1829423947757E+01
 0.1852430757619E+01
 0.1890274675315E+01
 0.1940168511238E+01
 0.2001255985011E+01
 0.2074503468689E+01
 0.1050299718565E+01
 0.1275670938222E+01
 0.1460665969705E+01
 0.1590912465330E+01
 0.1673416877026E+01
 0.1719990060169E+01
 0.1740643542915E+01
 0.1743117145873E+01
 0.1732922768148E+01
 0.1713623342672E+01
 0.1688137414563E+01
 0.1658018504599E+01
 0.1625417686165E+01
 0.1602683696830E+01
 0.1600699833115E+01
 0.1618210157924E+01
 0.1653155746518E+01
 0.1702782832810E+01
 0.1767700931629E+01
 0.1853023648808E+01
 0.1091105439664E+01
 0.1308823689233E+01
 0.1476424214390E+01
 0.1580381828274E+01
 0.1632282419918E+01
 0.1648017202669E+01
 0.1639974599240E+01
 0.1616991987782E+01
 0.1584765183160E+01
 0.1546491097082E+01
 0.1504563803806E+01
 0.1459733516913E+01
 0.1414198834846E+01
 0.1381237298102E+01
 0.1371618047899E+01
 0.1383607123677E+01
 0.1414978072008E+01
 0.1463300892787E+01
 0.1530739489237E+01
 0.1625902542599E+01
 0.1135244927628E+01
 0.1346195053971E+01
 0.1493385592123E+01
 0.1566558512456E+01
 0.1583905946559E+01
 0.1566341498517E+01
 0.1528767950099E+01
 0.1480878898957E+01
 0.1428153708063E+01
 0.1373019586223E+01
 0.1317028991878E+01
 0.1259918628434E+01
 0.1203886280943E+01
 0.1162824694329E+01
 0.1146891872554E+01
 0.1153787653736E+01
 0.1181138848653E+01
 0.1226932292535E+01
 0.1294757547358E+01
 0.1396165281162E+01
 0.1183695084442E+01
 0.1388380507407E+01
 0.1510694292360E+01
 0.1547411641221E+01
 0.1525878605534E+01
 0.1472918361593E+01
 0.1405820386151E+01
 0.1334610853368E+01
 0.1263933863504E+01
 0.1194930163532E+01
 0.1127973241456E+01
 0.1061625642805E+01
 0.9980893791706E+00
 0.9515800756913E+00
 0.9311809891429E+00
 0.9338990870037E+00
 0.9571075898717E+00
 0.9991372002118E+00
 0.1064707766982E+01
 0.1167748248945E+01
 0.1237697194893E+01
 0.1435809425152E+01
 0.1526743040737E+01
 0.1519958587898E+01
 0.1455033698425E+01
 0.1365337970582E+01
 0.1269956370584E+01
 0.1178310152981E+01
 0.1093329577487E+01
 0.1014271166755E+01
 0.9400312381114E+00
 0.8679401904115E+00
 0.8002895578349E+00
 0.7513745452881E+00
 0.7288176020215E+00
 0.7287945531317E+00
 0.7482133336258E+00
 0.7855243215671E+00
 0.8461098838655E+00
 0.9455631436346E+00
 0.1298814665977E+01
 0.1488565071275E+01
 0.1538806111580E+01
 0.1479968107739E+01
 0.1367380305097E+01
 0.1240988410862E+01
 0.1120311080755E+01
 0.1012657937993E+01
 0.9181126259777E+00
 0.8334659266219E+00
 0.7559791136161E+00
 0.6818574935658E+00
 0.6136654017261E+00
 0.5655997817896E+00
 0.5435521215732E+00
 0.5427571224714E+00
 0.5593816891651E+00
 0.5916424539990E+00
 0.6449280697603E+00
 0.7355137949305E+00
 0.1368995088783E+01
 0.1546062748596E+01
 0.1542474517685E+01
 0.1421592171438E+01
 0.1258145698346E+01
 0.1097424300359E+01
 0.9567905161542E+00
 0.8392408014112E+00
 0.7407559606273E+00
 0.6553019523763E+00
 0.5786267917400E+00
 0.5061317459711E+00
 0.4409247027173E+00
 0.3969826444139E+00
 0.3783312416858E+00
 0.3792260268088E+00
 0.3948167495765E+00
 0.4226589950170E+00
 0.4673189654778E+00
 0.5444400376198E+00
 0.1450620320707E+01
 0.1606457226285E+01
 0.1530769021583E+01
 0.1336959418532E+01
 0.1122090886052E+01
 0.9330901749865E+00
 0.7807458036713E+00
 0.6609096351226E+00
 0.5644830908569E+00
 0.4828038053088E+00
 0.4106402962049E+00
 0.3431102456612E+00
 0.2841662468815E+00
 0.2474579081149E+00
 0.2351383059924E+00
 0.2405539344787E+00
 0.2576462858999E+00
 0.2829235609118E+00
 0.3192223284561E+00
 0.3799371187718E+00
 0.1546493781884E+01
 0.1665504582036E+01
 0.1492726942761E+01
 0.1215891933887E+01
 0.9544488465776E+00
 0.7486077501057E+00
 0.5957959234866E+00
 0.4819714902569E+00
 0.3930731304157E+00
 0.3189484650144E+00
 0.2543069484513E+00
 0.1945804844158E+00
 0.1448038124981E+00
 0.1181370596728E+00
 0.1149442945133E+00
 0.1278517566702E+00
 0.1495801228065E+00
 0.1754310930040E+00
 0.2057537070899E+00
 0.2499648417756E+00
 0.1659593916218E+01
 0.1714249830803E+01
 0.1411156172805E+01
 0.1046283966096E+01
 0.7532249740736E+00
 0.5487267241963E+00
 0.4084567328743E+00
 0.3078308525705E+00
 0.2303261478509E+00
 0.1662612239938E+00
 0.1112975596176E+00
 0.6168668367493E-01
 0.2372811896961E-01
 0.9958683113176E-02
 0.1799963997652E-01
 0.4101182106241E-01
 0.7067927339388E-01
 0.1012539287084E+00
 0.1303811551772E+00
 0.1621326383701E+00
 0.1792131651179E+01
 0.1733903025296E+01
 0.1259242358379E+01
 0.8170041288433E+00
 0.5239374326799E+00
 0.3445503491505E+00
 0.2273299133455E+00
 0.1438603626832E+00
 0.7933533685998E-01
 0.2643371044216E-01
 0.1764838383660E-01
 0.5538144673115E-01
 0.7970886021972E-01
 0.7941463907371E-01
 0.5722769563620E-01
 0.2122969298517E-01
 0.1945237019543E-01
 0.5917839467790E-01
 0.9398323928718E-01
 0.1226063526864E+00
 0.1941308972387E+01
 0.1683199320858E+01
 0.9970684217371E+00
 0.5282590793442E+00
 0.2887396579187E+00
 0.1510965215953E+00
 0.6040273502551E-01
 0.6062644503045E-02
 0.5807965550543E-01
 0.9995393079685E-01
 0.1322467040899E+00
 0.1565530177670E+00
 0.1649618667280E+00
 0.1482629619792E+00
 0.1105674229585E+00
 0.6010940512317E-01
 0.8048461525105E-02
 0.4587124940858E-01
 0.9375136369516E-01
 0.1342424986543E+00
 0.2086843418224E+01
 0.1459103070819E+01
 0.5787384300853E+00
 0.2339909315234E+00
 0.7639159419931E-01
 0.2040603862522E-01
 0.8753447237398E-01
 0.1396660878171E+00
 0.1814288921383E+00
 0.2133705701944E+00
 0.2337977802875E+00
 0.2430892109714E+00
 0.2330192235189E+00
 0.1979249878805E+00
 0.1433591679432E+00
 0.7748504473432E-01
 0.1363702267740E-01
 0.5600614242704E-01
 0.1216319198979E+00
 0.1929719904706E+00
 0.2006704083869E+01
 0.7500779836375E+00
 0.1504678714884E+00
 0.7896326381644E-02
 0.9965178545237E-01
 0.1638045143310E+00
 0.2149134734855E+00
 0.2573308823948E+00
 0.2911273866049E+00
 0.3149460774249E+00
 0.3251970486340E+00
 0.3170227326200E+00
 0.2837513480386E+00
 0.2278721089585E+00
 0.1561114045929E+00
 0.7511248722150E-01
 0.1568348842626E-01
 0.8681227190039E-01
 0.1647499986934E+00
 0.2828621779875E+00
 0.1140176379743E+01
 0.9956764104216E+00
 0.8640487026001E+00
 0.7408771478211E+00
 0.6250253832035E+00
 0.5174511112341E+00
 0.4195279502374E+00
 0.3326419981146E+00
 0.2580028722225E+00
 0.1965567236041E+00
 0.1489279514203E+00
 0.1153847968955E+00
 0.9584961618776E-01
 0.8994628677488E-01
 0.9697063570515E-01
 0.1157978465158E+00
 0.1449680104950E+00
 0.1829377951451E+00
 0.2283203565273E+00
 0.2821753229450E+00
 0.1241867949557E+01
 0.1106075843803E+01
 0.9641257197334E+00
 0.8268389427521E+00
 0.6972699907889E+00
 0.5767820559924E+00
 0.4666142009247E+00
 0.3680486795614E+00
 0.2823750211966E+00
 0.2107852658291E+00
 0.1542589784013E+00
 0.1134548295815E+00
 0.8865312037028E-01
 0.7981586304719E-01
 0.8661187873502E-01
 0.1081837990245E+00
 0.1431689434672E+00
 0.1900881476390E+00
 0.2479005608218E+00
 0.3162896507423E+00
 0.1347410163661E+01
 0.1212379970288E+01
 0.1069485734273E+01
 0.9254247981414E+00
 0.7856601676354E+00
 0.6532625014532E+00
 0.5303458626652E+00
 0.4187060427662E+00
 0.3200339102761E+00
 0.2359405644255E+00
 0.1678850229437E+00
 0.1170474608460E+00
 0.8419003622326E-01
 0.6966277328479E-01
 0.7362113413181E-01
 0.9570247114311E-01
 0.1346215962570E+00
 0.1886810107983E+00
 0.2561535421004E+00
 0.3351115037967E+00
 0.1463847385233E+01
 0.1325730668869E+01
 0.1181263348453E+01
 0.1033465473003E+01
 0.8866123645174E+00
 0.7443612607108E+00
 0.6095685734407E+00
 0.4846699991887E+00
 0.3719237007226E+00
 0.2735070716318E+00
 0.1915028757500E+00
 0.1277943852360E+00
 0.8386455244264E-01
 0.6058521611930E-01
 0.5856536456135E-01
 0.7836973592670E-01
 0.1190934496506E+00
 0.1786648650973E+00
 0.2546414742875E+00
 0.3443808716069E+00
 0.1591830581271E+01
 0.1450367796545E+01
 0.1303590747103E+01
 0.1152625260824E+01
 0.1000334708938E+01
 0.8499364929645E+00
 0.7044688247536E+00
 0.5667553623956E+00
 0.4395269048829E+00
 0.3255104572290E+00
 0.2274494342629E+00
 0.1480433494111E+00
 0.8976708442874E-01
 0.5442620220247E-01
 0.4282224455127E-01
 0.5661044057298E-01
 0.9648695339349E-01
 0.1601199013283E+00
 0.2443659396418E+00
 0.3458306205906E+00
 0.1731020717360E+01
 0.1587559207434E+01
 0.1438856404660E+01
 0.1285266876863E+01
 0.1128617507390E+01
 0.9714592409240E+00
 0.8165874785114E+00
 0.6668794524878E+00
 0.5253009516883E+00
 0.3949634551675E+00
 0.2791645038270E+00
 0.1813851523606E+00
 0.1052221877766E+00
 0.5410777337646E-01
 0.2974183507686E-01
 0.3213448598533E-01
 0.6701133394833E-01
 0.1328634380062E+00
 0.2253869681404E+00
 0.3398997576609E+00
 0.1880824830422E+01
 0.1737416885946E+01
 0.1588119893733E+01
 0.1433035107086E+01
 0.1273329146545E+01
 0.1110919837944E+01
 0.9481750102724E+00
 0.7877587729950E+00
 0.6326053272851E+00
 0.4859605225586E+00
 0.3514452749203E+00
 0.2331171987660E+00
 0.1355438134394E+00
 0.6403907253691E-01
 0.2523937742064E-01
 0.1459770718264E-01
 0.3198081121859E-01
 0.9634962254703E-01
 0.1968066488965E+00
 0.3262668604203E+00
 0.2040540823289E+01
 0.1899572679585E+01
 0.1751697716031E+01
 0.1596941805301E+01
 0.1436045289491E+01
 0.1270388303938E+01
 0.1101846050880E+01
 0.9326958189470E+00
 0.7656029538856E+00
 0.6036709152991E+00
 0.4505335663791E+00
 0.3104793717473E+00
 0.1886373869503E+00
 0.9151394857482E-01
 0.3124726480478E-01
 0.2643128953022E-01
 0.1361106664436E-01
 0.5060325010684E-01
 0.1572734221225E+00
 0.3056429637326E+00
 0.2209313781039E+01
 0.2073366803266E+01
 0.1929441928923E+01
 0.1777517955887E+01
 0.1618029316999E+01
 0.1451902430937E+01
 0.1280511818161E+01
 0.1105644829917E+01
 0.9295125262289E+00
 0.7548144489708E+00
 0.5848554521316E+00
 0.4237177505007E+00
 0.2765193272939E+00
 0.1499523883375E+00
 0.5523649099549E-01
 0.3498369266095E-01
 0.4436981558428E-01
 0.7455230644444E-02
 0.1055540159629E+00
 0.2781314609497E+00
 0.2385949609243E+01
 0.2257588871000E+01
 0.2120396278992E+01
 0.1974276284792E+01
 0.1819425895510E+01
 0.1656397384408E+01
 0.1486103640310E+01
 0.1309817683760E+01
 0.1129198637738E+01
 0.9463601053419E+00
 0.7639905720740E+00
 0.5855390503430E+00
 0.4154963007252E+00
 0.2598668370910E+00
 0.1273660736359E+00
 0.3954782820342E-01
 0.5177952809174E-01
 0.4426466813452E-01
 0.4567336696721E-01
 0.2386017020856E+00
 0.2568872879357E+01
 0.2450464832733E+01
 0.2322721390907E+01
 0.2185467423591E+01
 0.2038726214069E+01
 0.1882772864249E+01
 0.1718155400830E+01
 0.1545707899178E+01
 0.1366577653769E+01
 0.1182281785762E+01
 0.9948060331721E+00
 0.8067620783918E+00
 0.6216317413060E+00
 0.4441545653174E+00
 0.2809958632290E+00
 0.1422136441094E+00
 0.4799095451496E-01
 0.3490689330818E-01
 0.1844808857502E-01
 0.1936962651809E+00
 0.2756118251864E+01
 0.2649679274736E+01
 0.2533765732181E+01
 0.2408152818609E+01
 0.2272762125859E+01
 0.2127704280251E+01
 0.1973304438357E+01
 0.1810122110943E+01
 0.1638978738984E+01
 0.1461004812068E+01
 0.1277717861873E+01
 0.1091145865582E+01
 0.9040192754607E+00
 0.7200722102206E+00
 0.5445257119934E+00
 0.3848837277786E+00
 0.2522493969618E+00
 0.1634515181107E+00
 0.1468517005583E+00
 0.2691965417533E+00
 0.2945401425901E+01
 0.2852466070585E+01
 0.2750214576850E+01
 0.2638403609133E+01
 0.2516907530515E+01
 0.2385756644050E+01
 0.2245166240360E+01
 0.2095562809675E+01
 0.1937615728138E+01
 0.1772282584023E+01
 0.1600876398635E+01
 0.1425164745165E+01
 0.1247515205447E+01
 0.1071110052362E+01
 0.9002680148324E+00
 0.7409378738606E+00
 0.6014834850321E+00
 0.4940087723019E+00
 0.4369643393350E+00
 0.4594904293839E+00
 0.3134244416438E+01
 0.3055790635352E+01
 0.2968368812082E+01
 0.2871722214524E+01
 0.2765689096133E+01
 0.2650238559061E+01
 0.2525500035898E+01
 0.2391790369576E+01
 0.2249643148624E+01
 0.2099844460124E+01
 0.1943478298621E+01
 0.1781983807731E+01
 0.1617224950782E+01
 0.1451569657407E+01
 0.1287966186867E+01
 0.1129978597711E+01
 0.9816693211679E+00
 0.8469752388597E+00
 0.7273575152181E+00
 0.6109235927208E+00
 0.3320110770421E+01
 0.3256554269941E+01
 0.3184458805865E+01
 0.3103530679301E+01
 0.3013543485132E+01
 0.2914369249112E+01
 0.2806002748787E+01
 0.2688581123084E+01
 0.2562400266426E+01
 0.2427928010533E+01
 0.2285811661513E+01
 0.2136873589699E+01
 0.1982081900550E+01
 0.1822470701799E+01
 0.1658959223831E+01
 0.1491965731485E+01
 0.1320589351292E+01
 0.1140858357782E+01
 0.9417346089438E+00
 0.6980998260658E+00
 0.3500516420529E+01
 0.3451753701490E+01
 0.3394873988917E+01
 0.3329504346016E+01
 0.3255302593093E+01
 0.3171980308137E+01
 0.3079317202639E+01
 0.2977167343441E+01
 0.2865456232229E+01
 0.2744165532179E+01
 0.2613298905480E+01
 0.2472817325564E+01
 0.2322524045186E+01
 0.2161865694325E+01
 0.1989592638732E+01
 0.1803181560215E+01
 0.1597864064395E+01
 0.1365036200043E+01
 0.1090193833406E+01
 0.7531553349414E+00
 0.3673108233116E+01
 0.3638586585352E+01
 0.3596302580641E+01
 0.3545755395989E+01
 0.3486430687188E+01
 0.3417813082057E+01
 0.3339388409466E+01
 0.3250634988150E+01
 0.3151001576013E+01
 0.3039867273295E+01
 0.2916475531923E+01
 0.2779830083112E+01
 0.2628534558035E+01
 0.2460549483894E+01
 0.2272830820526E+01
 0.2060809572074E+01
 0.1817694814164E+01
 0.1533746011743E+01
 0.1196302397456E+01
 0.7934308578802E+00
 0.3835714995123E+01
 0.3814514064907E+01
 0.3785805274440E+01
 0.3748915602559E+01
 0.3703110176474E+01
 0.3647593642812E+01
 0.3581500724347E+01
 0.3503874855823E+01
 0.3413632258412E+01
 0.3309506997120E+01
 0.3189970469568E+01
 0.3053116460361E+01
 0.2896500795694E+01
 0.2716924131867E+01
 0.2510151603558E+01
 0.2270584471331E+01
 0.1990966913837E+01
 0.1662396806187E+01
 0.1275377960754E+01
 0.8251067866951E+00
 0.3986376907890E+01
 0.3977290996206E+01
 0.3960842030468E+01
 0.3936152417042E+01
 0.3902234920951E+01
 0.3857983684435E+01
 0.3802155395939E+01
 0.3733339761815E+01
 0.3649917239366E+01
 0.3550001041459E+01
 0.3431359692131E+01
 0.3291316276679E+01
 0.3126621925984E+01
 0.2933306015310E+01
 0.2706518167389E+01
 0.2440406104983E+01
 0.2128135457414E+01
 0.1762289678559E+01
 0.1336330828728E+01
 0.8509962845110E+00
 0.4123358418265E+01
 0.4124972073331E+01
 0.4119265515849E+01
 0.4105140828794E+01
 0.4081347501999E+01
 0.4046464245686E+01
 0.3998873919681E+01
 0.3936730803421E+01
 0.3857919153071E+01
 0.3760002042351E+01
 0.3640159896796E+01
 0.3495119492335E+01
 0.3321077415775E+01
 0.3113628656120E+01
 0.2867723778649E+01
 0.2577701465802E+01
 0.2237486726184E+01
 0.1841156872476E+01
 0.1384593644329E+01
 0.8727697449343E+00
 0.4245150266697E+01
 0.4255902590670E+01
 0.4259292855887E+01
 0.4254007151306E+01
 0.4238542519879E+01
 0.4211181760902E+01
 0.4169965433398E+01
 0.4112659954281E+01
 0.4036721990077E+01
 0.3939260031019E+01
 0.3816995126153E+01
 0.3666224670491E+01
 0.3482796493460E+01
 0.3262106173016E+01
 0.2999139809808E+01
 0.2688600324623E+01
 0.2325189915940E+01
 0.1904241113538E+01
 0.1423484303809E+01
 0.8912053392140E+00
 0.4350462177037E+01
 0.4368694236417E+01
 0.4379458246662E+01
 0.4381248275945E+01
 0.4372338578295E+01
 0.4350755771136E+01
 0.4314250425920E+01
 0.4260268376035E+01
 0.4185923080468E+01
 0.4087971451999E+01
 0.3962796816141E+01
 0.3806404415803E+01
 0.3614437380213E+01
 0.3382224721759E+01
 0.3104878643411E+01
 0.2777469916481E+01
 0.2395343952974E+01
 0.1954773364694E+01
 0.1454813238379E+01
 0.9061466956483E+00
 0.4438202774130E+01
 0.4462185527608E+01
 0.4478553921105E+01
 0.4485646009494E+01
 0.4481557370882E+01
 0.4464112934350E+01
 0.4430839640646E+01
 0.4378941459725E+01
 0.4305279140243E+01
 0.4206358119533E+01
 0.4078329185725E+01
 0.3917007775856E+01
 0.3717919261965E+01
 0.3476379439438E+01
 0.3187622832265E+01
 0.2847001225425E+01
 0.2450310182274E+01
 0.1994445527767E+01
 0.1479306652228E+01
 0.9170701210467E+00
 0.4507478114733E+01
 0.4535433856431E+01
 0.4555610626494E+01
 0.4566234166293E+01
 0.4565275199159E+01
 0.4550421427679E+01
 0.4519051362590E+01
 0.4468211949814E+01
 0.4394602963624E+01
 0.4294572160915E+01
 0.4164126210534E+01
 0.3998963347359E+01
 0.3794534504263E+01
 0.3546140559945E+01
 0.3249075668830E+01
 0.2898835809980E+01
 0.2491447857911E+01
 0.2024122927537E+01
 0.1497170415211E+01
 0.9235149199155E+00
 0.4557580389891E+01
 0.4587697597159E+01
 0.4609868187650E+01
 0.4622254606815E+01
 0.4622762345714E+01
 0.4609012222793E+01
 0.4578314613271E+01
 0.4527647518757E+01
 0.4453641523971E+01
 0.4352575787452E+01
 0.4220390213658E+01
 0.4052719840419E+01
 0.3844958234816E+01
 0.3592357551197E+01
 0.3290175183295E+01
 0.2933885864508E+01
 0.2519513424726E+01
 0.2044282941693E+01
 0.1508529048309E+01
 0.9253028816396E+00
 0.4587977023155E+01
 0.4618418227770E+01
 0.4640748674972E+01
 0.4653118889242E+01
 0.4653431093997E+01
 0.4639311918232E+01
 0.4608086176833E+01
 0.4556752929031E+01
 0.4481966510449E+01
 0.4380026480042E+01
 0.4246881523288E+01
 0.4078153480486E+01
 0.3869188990652E+01
 0.3615148045051E+01
 0.3311142114361E+01
 0.2952443893261E+01
 0.2534824296171E+01
 0.2055212428123E+01
 0.1513592406970E+01
 0.9225350737691E+00
 0.4598305735357E+01
 0.4627211044648E+01
 0.4647841863280E+01
 0.4658387384680E+01
 0.4656807225081E+01
 0.4640805431227E+01
 0.4607803602273E+01
 0.4554912999151E+01
 0.4478907687948E+01
 0.4376202193921E+01
 0.4242838254033E+01
 0.4074486644230E+01
 0.3866472251347E+01
 0.3613834116439E+01
 0.3311438082676E+01
 0.2954171389013E+01
 0.2537281491500E+01
 0.2057051391261E+01
 0.1512681799634E+01
 0.9155729709870E+00
 0.4588375166666E+01
 0.4613864146072E+01
 0.4630902961937E+01
 0.4637765758838E+01
 0.4632524664199E+01
 0.4613027710253E+01
 0.4576872439836E+01
 0.4521373211050E+01
 0.4443523785134E+01
 0.4339958196733E+01
 0.4206913534763E+01
 0.4040199411160E+01
 0.3835181657740E+01
 0.3586793246461E+01
 0.3289595156319E+01
 0.2937927063788E+01
 0.2526224578616E+01
 0.2049700860819E+01
 0.1506207467575E+01
 0.9050926200649E+00
 0.4558171449053E+01
 0.4578346741214E+01
 0.4589864604355E+01
 0.4591121701216E+01
 0.4580346787890E+01
 0.4555588589722E+01
 0.4514692666543E+01
 0.4455264100471E+01
 0.4374618518541E+01
 0.4269724551376E+01
 0.4137139773861E+01
 0.3972941988849E+01
 0.3772659906355E+01
 0.3531213472741E+01
 0.3242887021850E+01
 0.2901383574701E+01
 0.2500057402700E+01
 0.2032546130198E+01
 0.1494574306065E+01
 0.8922111357789E+00
 0.4507869400808E+01
 0.4520825264268E+01
 0.4524862725799E+01
 0.4518522359721E+01
 0.4500215432774E+01
 0.4468232861727E+01
 0.4420728587625E+01
 0.4355677489506E+01
 0.4270815243179E+01
 0.4163564537721E+01
 0.4030947439804E+01
 0.3869480716564E+01
 0.3675050881955E+01
 0.3442769932630E+01
 0.3166824791442E+01
 0.2840361897366E+01
 0.2455514918989E+01
 0.2003833965562E+01
 0.1477887469540E+01
 0.8786811762109E+00
 0.4437846982932E+01
 0.4441689527927E+01
 0.4436281618686E+01
 0.4420298696000E+01
 0.4392333973940E+01
 0.4350943342249E+01
 0.4294633625539E+01
 0.4221812344933E+01
 0.4130717424364E+01
 0.4019333808403E+01
 0.3885293456527E+01
 0.3725748635937E+01
 0.3537204858836E+01
 0.3315298922400E+01
 0.3054511305375E+01
 0.2747819767796E+01
 0.2386359621150E+01
 0.1959349619761E+01
 0.1455088166600E+01
 0.8670163706710E+00
 0.4348701549382E+01
 0.4341595443147E+01
 0.4324825919053E+01
 0.4297140148657E+01
 0.4257284623351E+01
 0.4204087172294E+01
 0.4136434507470E+01
 0.4053203698822E+01
 0.3953182976417E+01
 0.3834990081123E+01
 0.3696979554146E+01
 0.3537120820552E+01
 0.3352823112152E+01
 0.3140676197301E+01
 0.2896065687814E+01
 0.2612610292098E+01
 0.2281372012236E+01
 0.1889890574475E+01
 0.1421744055700E+01
 0.8600268493224E+00
 0.4241274177521E+01
 0.4221542581267E+01
 0.4191623173939E+01
 0.4150209818585E+01
 0.4096162373333E+01
 0.4028586142838E+01
 0.3946759537753E+01
 0.3850029687460E+01
 0.3737726468654E+01
 0.3609099352157E+01
 0.3463257557455E+01
 0.3299088512882E+01
 0.3115125272350E+01
 0.2909324399243E+01
 0.2678694293349E+01
 0.2418670607848E+01
 0.2122056453458E+01
 0.1777207790922E+01
 0.1365144904913E+01
 0.8579041574777E+00
 0.4116703152487E+01
 0.4082972362356E+01
 0.4038309927473E+01
 0.3981214792148E+01
 0.3910653374695E+01
 0.3826040649497E+01
 0.3727051740340E+01
 0.3613458102122E+01
 0.3485047189539E+01
 0.3341598839438E+01
 0.3182884340562E+01
 0.3008657397651E+01
 0.2818613668743E+01
 0.2612291428795E+01
 0.2388866650684E+01
 0.2146748886449E+01
 0.1882769177356E+01
 0.1590473678499E+01
 0.1256085318147E+01
 0.8489862032695E+00
 0.3976407506825E+01
 0.3927654617557E+01
 0.3866832385577E+01
 0.3792158063234E+01
 0.3702807752476E+01
 0.3598615648601E+01
 0.3479656730842E+01
 0.3346036001641E+01
 0.3197841718196E+01
 0.3035192662006E+01
 0.2858310286187E+01
 0.2667593362403E+01
 0.2463690464720E+01
 0.2247572502712E+01
 0.2020608068613E+01
 0.1784635551867E+01
 0.1541997937686E+01
 0.1295379128022E+01
 0.1046895822263E+01
 0.7909935873007E+00
 0.3822198666789E+01
 0.3757807417884E+01
 0.3679572230667E+01
 0.3585515854464E+01
 0.3475399319170E+01
 0.3349661272149E+01
 0.3208767872702E+01
 0.3053002816803E+01
 0.2882558175484E+01
 0.2697671438862E+01
 0.2498761037087E+01
 0.2286562393631E+01
 0.2062285540205E+01
 0.1827830327526E+01
 0.1586119082021E+01
 0.1341657584005E+01
 0.1101542264706E+01
 0.8774256459558E+00
 0.6897970022137E+00
 0.5804993878624E+00
 0.3656485006112E+01
 0.3576275557618E+01
 0.3479370212742E+01
 0.3364359186168E+01
 0.3232262082348E+01
 0.3084403020445E+01
 0.2921464206480E+01
 0.2743752698344E+01
 0.2551491128849E+01
 0.2345039207326E+01
 0.2125078285088E+01
 0.1892799060121E+01
 0.1650139133795E+01
 0.1400129696497E+01
 0.1147446648623E+01
 0.8993403782065E+00
 0.6673031392909E+00
 0.4702601601487E+00
 0.3414625975822E+00
 0.3481836473586E+00
 0.3482321556004E+01
 0.3386136432703E+01
 0.3268931908715E+01
 0.3131669679816E+01
 0.2978152920522E+01
 0.2809936092964E+01
 0.2627546217295E+01
 0.2431278167085E+01
 0.2221569118908E+01
 0.1999239952619E+01
 0.1765700040618E+01
 0.1523186305208E+01
 0.1275086669269E+01
 0.1026404620580E+01
 0.7844455073654E+00
 0.5598568247197E+00
 0.3682450416032E+00
 0.2328389570781E+00
 0.1891202390579E+00
 0.2861243259765E+00
 0.3304162740610E+01
 0.3189851341735E+01
 0.3048109435379E+01
 0.2890208206332E+01
 0.2719089481658E+01
 0.2535063193546E+01
 0.2338368356814E+01
 0.2129551006247E+01
 0.1909661095323E+01
 0.1680387659714E+01
 0.1444236905005E+01
 0.1204778398299E+01
 0.9669810248525E+00
 0.7376574078056E+00
 0.5260303972902E+00
 0.3444096880143E+00
 0.2089052975662E+00
 0.1400668274946E+00
 0.1627046580576E+00
 0.2946415820584E+00
 0.3122658737300E+01
 0.2974156138764E+01
 0.2814934026125E+01
 0.2645688101933E+01
 0.2464119820709E+01
 0.2270437826283E+01
 0.2065621452897E+01
 0.1851240765961E+01
 0.1629406186276E+01
 0.1402861807025E+01
 0.1175140960626E+01
 0.9507723366285E+00
 0.7355268142543E+00
 0.5366865337543E+00
 0.3632830525086E+00
 0.2261728487890E+00
 0.1376816231558E+00
 0.1105501694421E+00
 0.1538004091371E+00
 0.2692332895094E+00
</DataArray>
<CellData Tensors="'E_Centroid','S_Centroid'">
<DataArray type="Float64" Name="E_Centroid" NumberOfComponents="4" ComponentName0="E11" ComponentName1="E22" ComponentName2="E33" ComponentName3="E12" format="ascii">
 0.2089064008077E-02 -0.1617829235179E-01  0.0000000000000E+00 -0.5407167661201E-02
 0.3566634873944E-02 -0.1320446918099E-01  0.0000000000000E+00 -0.3444223630452E-03
 0.2952089727027E-02 -0.1202774185544E-01  0.0000000000000E+00 -0.3661369475550E-03
 0.2872045884670E-02 -0.1145751179086E-01  0.0000000000000E+00 -0.1972885358967E-03
 0.2766850181719E-02 -0.1108207664693E-01  0.0000000000000E+00 -0.1374456529230E-03
 0.2705636600054E-02 -0.1082440597931E-01  0.0000000000000E+00 -0.9900109885295E-04
 0.2657751052608E-02 -0.1063436593683E-01  0.0000000000000E+00 -0.7506254636770E-04
 0.2621854179195E-02 -0.1048958336606E-01  0.0000000000000E+00 -0.5832288475674E-04
 0.2593754908928E-02 -0.1037696135186E-01  0.0000000000000E+00 -0.4580790566647E-04
 0.2571877277199E-02 -0.1028919093341E-01  0.0000000000000E+00 -0.3563444602855E-04
 0.2555162486743E-02 -0.1022221135535E-01  0.0000000000000E+00 -0.2664536224140E-04
 0.2543160309206E-02 -0.1017414759546E-01  0.0000000000000E+00 -0.1800985827000E-04
 0.2535801715215E-02 -0.1014472895228E-01  0.0000000000000E+00 -0.9063421774674E-05
 0.2533360393737E-02 -0.1013505036035E-01  0.0000000000000E+00  0.8152130811789E-06
 0.2536447682309E-02 -0.1014757570635E-01  0.0000000000000E+00  0.1231586874856E-04
 0.2546081004217E-02 -0.1018641517053E-01  0.0000000000000E+00  0.2635677263216E-04
 0.2563862150807E-02 -0.1025808407309E-01  0.0000000000000E+00  0.4442196551885E-04
 0.2592514559123E-02 -0.1037352142138E-01  0.0000000000000E+00  0.6939027526853E-04
 0.2635471325303E-02 -0.1055408101748E-01  0.0000000000000E+00  0.1135954406494E-03
 0.2695108173188E-02 -0.1083206435243E-01  0.0000000000000E+00  0.2291675042331E-03
 0.2767023477099E-02 -0.1119039769130E-01  0.0000000000000E+00  0.4978636630752E-03
 0.2836371720013E-02 -0.1155297812590E-01  0.0000000000000E+00  0.9519452784176E-03
 0.2887420882328E-02 -0.1186300326388E-01  0.0000000000000E+00  0.1551582780383E-02
 0.2913291872895E-02 -0.1210758522738E-01  0.0000000000000E+00  0.2236077958444E-02
 0.2914879491014E-02 -0.1230000830719E-01  0.0000000000000E+00  0.2960918682403E-02
 0.2896040011237E-02 -0.1246098416162E-01  0.0000000000000E+00  0.3705287151088E-02
 0.2860090354130E-02 -0.1260857014179E-01  0.0000000000000E+00  0.4466604133236E-02
 0.2808107512058E-02 -0.1275468687705E-01  0.0000000000000E+00  0.5253333112115E-02
 0.2738251114822E-02 -0.1290364348995E-01  0.0000000000000E+00  0.6079162503589E-02
 0.2647397512438E-02 -0.1304935052084E-01  0.0000000000000E+00  0.6950939944216E-02
 0.2536546952093E-02 -0.1318553616652E-01  0.0000000000000E+00  0.7856245463418E-02
 0.2410842233393E-02 -0.1333216119389E-01  0.0000000000000E+00  0.8788751711749E-02
 0.2272175240051E-02 -0.1352258806439E-01  0.0000000000000E+00  0.9776652490324E-02
 0.2115759810801E-02 -0.1378208513852E-01  0.0000000000000E+00  0.1087210653030E-01
 0.1932708101865E-02 -0.1413814002730E-01  0.0000000000000E+00  0.1214969956815E-01
 0.1694877062636E-02 -0.1462726593809E-01  0.0000000000000E+00  0.1371934091987E-01
 0.1395806232751E-02 -0.1531331316412E-01  0.0000000000000E+00  0.1578821290772E-01
 0.7741871370396E-03 -0.1624597995659E-01  0.0000000000000E+00  0.1866974856328E-01
 0.4345908241926E-03 -0.1775753042240E-01  0.0000000000000E+00  0.2335632127364E-01
-0.5739968390223E-02 -0.1816907749633E-01  0.0000000000000E+00  0.3212022423641E-01
 0.1658970604672E-01 -0.2143355661870E-01  0.0000000000000E+00  0.3704602165652E-01
 0.1415182302382E-02 -0.1390140533960E-01  0.0000000000000E+00 -0.5920782958854E-02
 0.2998245090247E-02 -0.1332245937090E-01  0.0000000000000E+00 -0.2710960712032E-02
 0.3014689675065E-02 -0.1213768030506E-01  0.0000000000000E+00 -0.1020999592032E-02
 0.2838204565955E-02 -0.1151561367164E-01  0.0000000000000E+00 -0.6809833870215E-03
 0.2764864097654E-02 -0.1111636111091E-01  0.0000000000000E+00 -0.4465835921965E-03
 0.2698319825511E-02 -0.1083595295265E-01  0.0000000000000E+00 -0.3233778460759E-03
 0.2650788503169E-02 -0.1063004795793E-01  0.0000000000000E+00 -0.2427731850289E-03
 0.2613326667068E-02 -0.1047327224409E-01  0.0000000000000E+00 -0.1875464145451E-03
 0.2584054140504E-02 -0.1035176302553E-01  0.0000000000000E+00 -0.1463430477164E-03
 0.2561044432886E-02 -0.1025738341457E-01  0.0000000000000E+00 -0.1131894033866E-03
 0.2543356323454E-02 -0.1018553813108E-01  0.0000000000000E+00 -0.8422010259077E-04
 0.2530487335269E-02 -0.1013394181878E-01  0.0000000000000E+00 -0.5675394425050E-04
 0.2522326516371E-02 -0.1010200643789E-01  0.0000000000000E+00 -0.2866336240986E-04
 0.2519077070902E-02 -0.1009056002270E-01  0.0000000000000E+00  0.2008311530494E-05
 0.2521247420409E-02 -0.1010181376574E-01  0.0000000000000E+00  0.3740205351993E-04
 0.2529670052756E-02 -0.1013958227672E-01  0.0000000000000E+00  0.8034246653663E-04
 0.2545595622542E-02 -0.1020991361257E-01  0.0000000000000E+00  0.1352784704179E-03
 0.2570390444436E-02 -0.1032245031497E-01  0.0000000000000E+00  0.2116143777190E-03
 0.2601572590637E-02 -0.1049016806082E-01  0.0000000000000E+00  0.3323876473771E-03
 0.2632528048178E-02 -0.1071915697132E-01  0.0000000000000E+00  0.5322748017975E-03
 0.2660318398690E-02 -0.1099094970713E-01  0.0000000000000E+00  0.8417472101104E-03
 0.2684845938536E-02 -0.1126606323314E-01  0.0000000000000E+00  0.1272926808657E-02
 0.2702117611991E-02 -0.1151042995735E-01  0.0000000000000E+00  0.1812509598468E-02
 0.2706129515582E-02 -0.1171069287918E-01  0.0000000000000E+00  0.2430649929980E-02
 0.2693057678326E-02 -0.1187021927886E-01  0.0000000000000E+00  0.3098729639992E-02
 0.2661524511884E-02 -0.1199950222533E-01  0.0000000000000E+00  0.3798636393713E-02
 0.2611054953942E-02 -0.1210908537749E-01  0.0000000000000E+00  0.4523286145705E-02
 0.2540572457742E-02 -0.1220585040067E-01  0.0000000000000E+00  0.5273219328105E-02
 0.2448549718538E-02 -0.1229155717616E-01  0.0000000000000E+00  0.6050864592198E-02
 0.2335576072276E-02 -0.1236440128546E-01  0.0000000000000E+00  0.6855604748267E-02
 0.2203378505696E-02 -0.1242452972404E-01  0.0000000000000E+00  0.7687351276167E-02
 0.2049707493689E-02 -0.1247837988687E-01  0.0000000000000E+00  0.8552728614866E-02
 0.1867584573234E-02 -0.1253597718258E-01  0.0000000000000E+00  0.9468282321646E-02
 0.1646308022482E-02 -0.1260386979107E-01  0.0000000000000E+00  0.1046434946202E-01
 0.1364868375365E-02 -0.1267975255301E-01  0.0000000000000E+00  0.1158573373996E-01
 0.9943434310138E-03 -0.1274892697706E-01  0.0000000000000E+00  0.1289041193422E-01
 0.4394415686443E-03 -0.1275792367320E-01  0.0000000000000E+00  0.1445177461133E-01
-0.2905923370944E-03 -0.1260726813046E-01  0.0000000000000E+00  0.1625983302603E-01
-0.2046183365058E-02 -0.1174055569148E-01  0.0000000000000E+00  0.1847722785516E-01
-0.2712965104063E-02 -0.9299800048919E-02  0.0000000000000E+00  0.1468773419273E-01
 0.1914802864821E-01 -0.1297714366799E-01  0.0000000000000E+00  0.1132112400684E-01
 0.1006082175174E-02 -0.1265981407128E-01  0.0000000000000E+00 -0.5706704211136E-02
 0.2447146602669E-02 -0.1276535940439E-01  0.0000000000000E+00 -0.3775295401541E-02
 0.2849633799954E-02 -0.1210836864470E-01  0.0000000000000E+00 -0.1894750001450E-02
 0.2789795119722E-02 -0.1150312819857E-01  0.0000000000000E+00 -0.1135364043590E-02
 0.2727881205747E-02 -0.1110910556706E-01  0.0000000000000E+00 -0.7787858777717E-03
 0.2676313904863E-02 -0.1082247389486E-01  0.0000000000000E+00 -0.5590892050295E-03
 0.2632277861491E-02 -0.1060867676019E-01  0.0000000000000E+00 -0.4208448273758E-03
 0.2596906550018E-02 -0.1044468254078E-01  0.0000000000000E+00 -0.3244362250218E-03
 0.2568141562696E-02 -0.1031703663228E-01  0.0000000000000E+00 -0.2527118355697E-03
 0.2545054472866E-02 -0.1021763507506E-01  0.0000000000000E+00 -0.1950453290459E-03
 0.2526888688632E-02 -0.1014172201379E-01  0.0000000000000E+00 -0.1448926095237E-03
 0.2513271492156E-02 -0.1008680833881E-01  0.0000000000000E+00 -0.9764136872989E-04
 0.2504097945953E-02 -0.1005207650742E-01  0.0000000000000E+00 -0.4966695232933E-04
 0.2499505832758E-02 -0.1003809118937E-01  0.0000000000000E+00  0.2338634829374E-05
 0.2499838043526E-02 -0.1004672184945E-01  0.0000000000000E+00  0.6194946474095E-04
 0.2505589864122E-02 -0.1008125219891E-01  0.0000000000000E+00  0.1337757505658E-03
 0.2517236481118E-02 -0.1014670173400E-01  0.0000000000000E+00  0.2249952235943E-03
 0.2533695698475E-02 -0.1024963629900E-01  0.0000000000000E+00  0.3491028036557E-03
 0.2548800641741E-02 -0.1039447244530E-01  0.0000000000000E+00  0.5274447122337E-03
 0.2554266465494E-02 -0.1057700152182E-01  0.0000000000000E+00  0.7785450705142E-03
 0.2549582937562E-02 -0.1078205037941E-01  0.0000000000000E+00  0.1110406297599E-02
 0.2540725939838E-02 -0.1098789117055E-01  0.0000000000000E+00  0.1526005384263E-02
 0.2529664495472E-02 -0.1117449331535E-01  0.0000000000000E+00  0.2022711115729E-02
 0.2512281904734E-02 -0.1133046544025E-01  0.0000000000000E+00  0.2588092857041E-02
 0.2482950781477E-02 -0.1145386677167E-01  0.0000000000000E+00  0.3204984568335E-02
 0.2437319603416E-02 -0.1154832944047E-01  0.0000000000000E+00  0.3858556409772E-02
 0.2372396955796E-02 -0.1161866596619E-01  0.0000000000000E+00  0.4539229342059E-02
 0.2285891894328E-02 -0.1166789143496E-01  0.0000000000000E+00  0.5241565100758E-02
 0.2176798046973E-02 -0.1169644179690E-01  0.0000000000000E+00  0.5961160096149E-02
 0.2046442863368E-02 -0.1170377587585E-01  0.0000000000000E+00  0.6694788019230E-02
 0.1895293798194E-02 -0.1168943815645E-01  0.0000000000000E+00  0.7444617456362E-02
 0.1717925068783E-02 -0.1165168618747E-01  0.0000000000000E+00  0.8216593828571E-02
 0.1503825409203E-02 -0.1158656634270E-01  0.0000000000000E+00  0.9016344586626E-02
 0.1238624536136E-02 -0.1148459490837E-01  0.0000000000000E+00  0.9850758471219E-02
 0.9025793583477E-03 -0.1132320999933E-01  0.0000000000000E+00  0.1072367130127E-01
 0.4599304148333E-03 -0.1105427191306E-01  0.0000000000000E+00  0.1162109900276E-01
-0.1185205821074E-03 -0.1058535629660E-01  0.0000000000000E+00  0.1244017780463E-01
-0.9006510171430E-03 -0.9730318269244E-02  0.0000000000000E+00  0.1294004029335E-01
-0.1718243387166E-02 -0.8066157800093E-02  0.0000000000000E+00  0.1158404385924E-01
 0.1617149977027E-02 -0.6871760607945E-02  0.0000000000000E+00  0.4951086025217E-02
 0.1892515271534E-01 -0.1036663020204E-01  0.0000000000000E+00  0.4853798909756E-02
 0.7557975047653E-03 -0.1185068041207E-01  0.0000000000000E+00 -0.5382333546685E-02
 0.2009689284205E-02 -0.1217447327410E-01  0.0000000000000E+00 -0.4209611591437E-02
 0.2597531921511E-02 -0.1189423036237E-01  0.0000000000000E+00 -0.2567395833019E-02
 0.2688370466700E-02 -0.1142929591966E-01  0.0000000000000E+00 -0.1597944651595E-02
 0.2668851758341E-02 -0.1106040327201E-01  0.0000000000000E+00 -0.1100464010922E-02
 0.2636570742043E-02 -0.1078333209085E-01  0.0000000000000E+00 -0.8000033894573E-03
 0.2602738831717E-02 -0.1056971456166E-01  0.0000000000000E+00 -0.6032851898486E-03
 0.2572147044661E-02 -0.1040327761779E-01  0.0000000000000E+00 -0.4659831297225E-03
 0.2545816181612E-02 -0.1027234595336E-01  0.0000000000000E+00 -0.3630174745529E-03
 0.2523687189323E-02 -0.1016958487750E-01  0.0000000000000E+00 -0.2801670896208E-03
 0.2505589347624E-02 -0.1009047014920E-01  0.0000000000000E+00 -0.2082059412258E-03
 0.2491374906791E-02 -0.1003251127426E-01  0.0000000000000E+00 -0.1406847878035E-03
 0.2481014592611E-02 -0.9994753990495E-02  0.0000000000000E+00 -0.7251705481021E-04
 0.2474585078916E-02 -0.9977508954933E-02  0.0000000000000E+00  0.8988410691302E-06
 0.2472216365787E-02 -0.9982227172418E-02  0.0000000000000E+00  0.8445194795162E-04
 0.2473942652526E-02 -0.1001146444185E-01  0.0000000000000E+00  0.1842794524750E-03
 0.2479137528441E-02 -0.1006871960669E-01  0.0000000000000E+00  0.3094775876329E-03
 0.2484613027629E-02 -0.1015701041173E-01  0.0000000000000E+00  0.4741005663104E-03
 0.2482771933702E-02 -0.1027517216294E-01  0.0000000000000E+00  0.6939765269593E-03
 0.2466254045315E-02 -0.1041544935544E-01  0.0000000000000E+00  0.9765197461620E-03
 0.2436528683141E-02 -0.1056626172610E-01  0.0000000000000E+00  0.1319618646034E-02
 0.2401906357771E-02 -0.1071542023118E-01  0.0000000000000E+00  0.1722250436113E-02
 0.2367158642026E-02 -0.1085117263670E-01  0.0000000000000E+00  0.2186046926719E-02
 0.2329896536848E-02 -0.1096443490039E-01  0.0000000000000E+00  0.2707710165946E-02
 0.2284234713570E-02 -0.1105066216794E-01  0.0000000000000E+00  0.3277583312703E-02
 0.2224415950293E-02 -0.1110906704929E-01  0.0000000000000E+00  0.3883715841697E-02
 0.2146050095023E-02 -0.1114033709438E-01  0.0000000000000E+00  0.4515160998344E-02
 0.2046270956361E-02 -0.1114467743228E-01  0.0000000000000E+00  0.5162462869791E-02
 0.1924254445063E-02 -0.1112134152330E-01  0.0000000000000E+00  0.5817106286272E-02
 0.1781019396707E-02 -0.1106919957662E-01  0.0000000000000E+00  0.6473475463438E-02
 0.1615904085769E-02 -0.1098563822890E-01  0.0000000000000E+00  0.7131072117786E-02
 0.1422688145490E-02 -0.1086361066596E-01  0.0000000000000E+00  0.7789618564057E-02
 0.1190680771189E-02 -0.1069083121509E-01  0.0000000000000E+00  0.8442099280401E-02
 0.9075190778102E-03 -0.1044800841403E-01  0.0000000000000E+00  0.9071330325203E-02
 0.5589775098438E-03 -0.1010218625656E-01  0.0000000000000E+00  0.9640433229127E-02
 0.1348180546264E-03 -0.9597344959119E-02  0.0000000000000E+00  0.1005823489500E-01
-0.3498743542792E-03 -0.8847353799123E-02  0.0000000000000E+00  0.1011586098013E-01
-0.7774857417863E-03 -0.7722331297234E-02  0.0000000000000E+00  0.9262069961984E-02
-0.2369232428888E-03 -0.6347968506678E-02  0.0000000000000E+00  0.6076495920381E-02
 0.4771603626179E-02 -0.6342142518723E-02  0.0000000000000E+00  0.3946056554240E-03
 0.1783566198426E-01 -0.9098332559144E-02  0.0000000000000E+00  0.2708734393208E-02
 0.5948685406334E-03 -0.1126609735589E-01  0.0000000000000E+00 -0.5063630038675E-02
 0.1675590568256E-02 -0.1165180148442E-01  0.0000000000000E+00 -0.4343582598323E-02
 0.2333138697877E-02 -0.1159900605144E-01  0.0000000000000E+00 -0.3014409697657E-02
 0.2547202688339E-02 -0.1129016195013E-01  0.0000000000000E+00 -0.2006596484915E-02
 0.2587464288901E-02 -0.1097591159823E-01  0.0000000000000E+00 -0.1406537129100E-02
 0.2581573974762E-02 -0.1071901932534E-01  0.0000000000000E+00 -0.1034687264452E-02
 0.2562106336245E-02 -0.1051337202152E-01  0.0000000000000E+00 -0.7856494999715E-03
 0.2539233012818E-02 -0.1034895221675E-01  0.0000000000000E+00 -0.6089550221497E-03
 0.2517013198805E-02 -0.1021752049859E-01  0.0000000000000E+00 -0.4754368990474E-03
 0.2496884690425E-02 -0.1011305652243E-01  0.0000000000000E+00 -0.3674933195887E-03
 0.2479393200656E-02 -0.1003162995584E-01  0.0000000000000E+00 -0.2736853888182E-03
 0.2464755701630E-02 -0.9970936386379E-02  0.0000000000000E+00 -0.1858703661643E-03
 0.2453069975451E-02 -0.9929975746700E-02  0.0000000000000E+00 -0.9762500456992E-04
 0.2444365683423E-02 -0.9908821410913E-02  0.0000000000000E+00 -0.3176734149818E-05
 0.2438534177942E-02 -0.9908454210569E-02  0.0000000000000E+00  0.1034808106084E-03
 0.2435066726449E-02 -0.9930558876679E-02  0.0000000000000E+00  0.2296155530593E-03
 0.2432253539627E-02 -0.9976910912516E-02  0.0000000000000E+00  0.3850598802514E-03
 0.2425581936757E-02 -0.1004755328995E-01  0.0000000000000E+00  0.5822532568080E-03
 0.2407444655656E-02 -0.1013824077903E-01  0.0000000000000E+00  0.8312855367019E-03
 0.2372137006611E-02 -0.1024051982395E-01  0.0000000000000E+00  0.1132626673447E-02
 0.2322473882051E-02 -0.1034577874720E-01  0.0000000000000E+00  0.1479764354226E-02
 0.2267399455276E-02 -0.1044722727148E-01  0.0000000000000E+00  0.1870015887455E-02
 0.2212835717534E-02 -0.1053799616799E-01  0.0000000000000E+00  0.2306463278682E-02
 0.2157723511017E-02 -0.1061095575075E-01  0.0000000000000E+00  0.2790191063359E-02
 0.2096660180353E-02 -0.1066045285156E-01  0.0000000000000E+00  0.3316018465102E-02
 0.2023523019207E-02 -0.1068300113244E-01  0.0000000000000E+00  0.3874106920855E-02
 0.1933374245911E-02 -0.1067648302721E-01  0.0000000000000E+00  0.4452788129379E-02
 0.1823169153078E-02 -0.1063907447481E-01  0.0000000000000E+00  0.5040039707441E-02
 0.1692097344456E-02 -0.1056882596021E-01  0.0000000000000E+00  0.5624503088142E-02
 0.1540758582074E-02 -0.1046338948891E-01  0.0000000000000E+00  0.6197626616895E-02
 0.1368095897884E-02 -0.1031809777912E-01  0.0000000000000E+00  0.6753977737422E-02
 0.1168735219178E-02 -0.1012278309430E-01  0.0000000000000E+00  0.7284932538962E-02
 0.9346961098241E-03 -0.9861114185585E-02  0.0000000000000E+00  0.7770215573789E-02
 0.6593003967942E-03 -0.9510112459071E-02  0.0000000000000E+00  0.8170992217131E-02
 0.3422885562164E-03 -0.9036633992736E-02  0.0000000000000E+00  0.8414531305200E-02
 0.4579557845330E-05 -0.8395911280902E-02  0.0000000000000E+00  0.8359688581685E-02
-0.2696216289682E-03 -0.7539325729748E-02  0.0000000000000E+00  0.7726026570355E-02
-0.1629056678895E-03 -0.6484558635855E-02  0.0000000000000E+00  0.5943462309483E-02
 0.1418130787150E-02 -0.5659591910599E-02  0.0000000000000E+00  0.2326282255291E-02
 0.6782499071984E-02 -0.6285765903295E-02  0.0000000000000E+00 -0.1651970865058E-02
 0.1670572370237E-01 -0.8346357228454E-02  0.0000000000000E+00  0.1709167293990E-02
 0.4859340503577E-03 -0.1081373555522E-01  0.0000000000000E+00 -0.4773322672094E-02
 0.1420539286508E-02 -0.1120374226140E-01  0.0000000000000E+00 -0.4331622520327E-02
 0.2087065082920E-02 -0.1128193886548E-01  0.0000000000000E+00 -0.3286946854097E-02
 0.2386418004555E-02 -0.1110507850754E-01  0.0000000000000E+00 -0.2334525264316E-02
 0.2487440296066E-02 -0.1085907259971E-01  0.0000000000000E+00 -0.1684007841043E-02
 0.2513274717872E-02 -0.1063206706871E-01  0.0000000000000E+00 -0.1256714592618E-02
 0.2511324610912E-02 -0.1044034889524E-01  0.0000000000000E+00 -0.9630389505861E-03
 0.2498493510697E-02 -0.1028201843183E-01  0.0000000000000E+00 -0.7505913920729E-03
 0.2481906019765E-02 -0.1015263599012E-01  0.0000000000000E+00 -0.5881804416394E-03
 0.2464713193586E-02 -0.1004804982982E-01  0.0000000000000E+00 -0.4560089429503E-03
 0.2448343108223E-02 -0.9965183999022E-02  0.0000000000000E+00 -0.3408533726287E-03
 0.2433462499848E-02 -0.9902087248196E-02  0.0000000000000E+00 -0.2331644392622E-03
 0.2420349203829E-02 -0.9857796604002E-02  0.0000000000000E+00 -0.1253609644293E-03
 0.2409005128179E-02 -0.9832173995356E-02  0.0000000000000E+00 -0.1068136812046E-04
 0.2399080578751E-02 -0.9825708132174E-02  0.0000000000000E+00  0.1177438795489E-03
 0.2389533324423E-02 -0.9839158258807E-02  0.0000000000000E+00  0.2678117923523E-03
 0.2377810587516E-02 -0.9872692389654E-02  0.0000000000000E+00  0.4490821809969E-03
 0.2358812218471E-02 -0.9924230414915E-02  0.0000000000000E+00  0.6714703450755E-03
 0.2325659708289E-02 -0.9988083369596E-02  0.0000000000000E+00  0.9402924443125E-03
 0.2274321807280E-02 -0.1005624607593E-01  0.0000000000000E+00  0.1251921715143E-02
 0.2208435916500E-02 -0.1012236005496E-01  0.0000000000000E+00  0.1598156714788E-02
 0.2136807643756E-02 -0.1018278063925E-01  0.0000000000000E+00  0.1975683287278E-02
 0.2065676324733E-02 -0.1023353881613E-01  0.0000000000000E+00  0.2387725733508E-02
 0.1994956616584E-02 -0.1026900518853E-01  0.0000000000000E+00  0.2837084535170E-02
 0.1920049578313E-02 -0.1028321590332E-01  0.0000000000000E+00  0.3320928543950E-02
 0.1835118917735E-02 -0.1027116390948E-01  0.0000000000000E+00  0.3830745976044E-02
 0.1735273896622E-02 -0.1022893697288E-01  0.0000000000000E+00  0.4354475447784E-02
 0.1617582873456E-02 -0.1015327428906E-01  0.0000000000000E+00  0.4878414939481E-02
 0.1481303947612E-02 -0.1004114596441E-01  0.0000000000000E+00  0.5388921425444E-02
 0.1326922630233E-02 -0.9889039923655E-02  0.0000000000000E+00  0.5874122948969E-02
 0.1153812674900E-02 -0.9690917745837E-02  0.0000000000000E+00  0.6322899473029E-02
 0.9587765599159E-03 -0.9435368208502E-02  0.0000000000000E+00  0.6718014730003E-02
 0.7385095720928E-03 -0.9105416441751E-02  0.0000000000000E+00  0.7027168974268E-02
 0.4951788595319E-03 -0.8679575404827E-02  0.0000000000000E+00  0.7194107401969E-02
 0.2460576205338E-03 -0.8132546070024E-02  0.0000000000000E+00  0.7122714585380E-02
 0.4591570113066E-04 -0.7441507620791E-02  0.0000000000000E+00  0.6647862582827E-02
 0.4781540049975E-04 -0.6613276701288E-02  0.0000000000000E+00  0.5488868134076E-02
 0.6709992273509E-03 -0.5785266246752E-02  0.0000000000000E+00  0.3253065567360E-02
 0.2882144282337E-02 -0.5439693619365E-02  0.0000000000000E+00 -0.8660651008513E-04
 0.8015297658313E-02 -0.6315282229324E-02  0.0000000000000E+00 -0.2566866529670E-02
 0.1572297784529E-01 -0.7852790859484E-02  0.0000000000000E+00  0.1053548704269E-02
 0.4087043002573E-03 -0.1044595955190E-01  0.0000000000000E+00 -0.4513095015364E-02
 0.1223520673209E-02 -0.1081889099219E-01  0.0000000000000E+00 -0.4248394959928E-02
 0.1869069917030E-02 -0.1097012800577E-01  0.0000000000000E+00 -0.3437134016767E-02
 0.2221096213747E-02 -0.1089400225720E-01  0.0000000000000E+00 -0.2581161369356E-02
 0.2374915010140E-02 -0.1071627637986E-01  0.0000000000000E+00 -0.1923502817685E-02
 0.2434018687087E-02 -0.1052524325176E-01  0.0000000000000E+00 -0.1460778705582E-02
 0.2451666505720E-02 -0.1035202246216E-01  0.0000000000000E+00 -0.1131666339583E-02
 0.2450545935524E-02 -0.1020308497089E-01  0.0000000000000E+00 -0.8883604757160E-03
 0.2440821822705E-02 -0.1007799950034E-01  0.0000000000000E+00 -0.6996561104886E-03
 0.2427366998802E-02 -0.9974723738214E-02  0.0000000000000E+00 -0.5447594650572E-03
 0.2412577177162E-02 -0.9891241384411E-02  0.0000000000000E+00 -0.4092537009485E-03
 0.2397629312422E-02 -0.9826078058420E-02  0.0000000000000E+00 -0.2825165243598E-03
 0.2383021863623E-02 -0.9778381776232E-02  0.0000000000000E+00 -0.1560453144664E-03
 0.2368755359290E-02 -0.9747837109360E-02  0.0000000000000E+00 -0.2230976099984E-04
 0.2354265458945E-02 -0.9734452508780E-02  0.0000000000000E+00  0.1261301156961E-03
 0.2338068242559E-02 -0.9738109621002E-02  0.0000000000000E+00  0.2973112054504E-03
 0.2317083902522E-02 -0.9757662317858E-02  0.0000000000000E+00  0.4998649669892E-03
 0.2286174927438E-02 -0.9789685892977E-02  0.0000000000000E+00  0.7410426874478E-03
 0.2239502894195E-02 -0.9828020456102E-02  0.0000000000000E+00  0.1022556700804E-02
 0.2174488481391E-02 -0.9865505708843E-02  0.0000000000000E+00  0.1338497971666E-02
 0.2095222507327E-02 -0.9897436544099E-02  0.0000000000000E+00  0.1680248939353E-02
 0.2010048239367E-02 -0.9922031600916E-02  0.0000000000000E+00  0.2044281053075E-02
 0.1925129196878E-02 -0.9937058411428E-02  0.0000000000000E+00  0.2433336029260E-02
 0.1841097577493E-02 -0.9938007843473E-02  0.0000000000000E+00  0.2850456192734E-02
 0.1754273579512E-02 -0.9919025975871E-02  0.0000000000000E+00  0.3293756543623E-02
 0.1659491885176E-02 -0.9874372950371E-02  0.0000000000000E+00  0.3755395359169E-02
 0.1552307990645E-02 -0.9799089262126E-02  0.0000000000000E+00  0.4223037617678E-02
 0.1430151205378E-02 -0.9688966576440E-02  0.0000000000000E+00  0.4681792120251E-02
 0.1292546928291E-02 -0.9540166884355E-02  0.0000000000000E+00  0.5116021850939E-02
 0.1140309314524E-02 -0.9348397161467E-02  0.0000000000000E+00  0.5510494083035E-02
 0.9740000078129E-03 -0.9107099911712E-02  0.0000000000000E+00  0.5848570558433E-02
 0.7935639141127E-03 -0.8805215843154E-02  0.0000000000000E+00  0.6105358294028E-02
 0.6016701529777E-03 -0.8427730099264E-02  0.0000000000000E+00  0.6239039835095E-02
 0.4108711347229E-03 -0.7958449302837E-02  0.0000000000000E+00  0.6182160472548E-02
 0.2564656141621E-03 -0.7384514450243E-02  0.0000000000000E+00  0.5828758023254E-02
 0.2239441040798E-03 -0.6709387603239E-02  0.0000000000000E+00  0.5017060460181E-02
 0.5114228389621E-03 -0.5989977916515E-02  0.0000000000000E+00  0.3525759696851E-02
 0.1547187716518E-02 -0.5421188683595E-02  0.0000000000000E+00  0.1187717973108E-02
 0.4070464351745E-02 -0.5414435584424E-02  0.0000000000000E+00 -0.1612473560922E-02
 0.8759533508296E-02 -0.6339358495421E-02  0.0000000000000E+00 -0.2983994715299E-02
 0.1490553128142E-01 -0.7506964917719E-02  0.0000000000000E+00  0.5262008953562E-03
 0.3517140492011E-03 -0.1013564720704E-01  0.0000000000000E+00 -0.4279795638265E-02
 0.1068889356514E-02 -0.1048447331631E-01  0.0000000000000E+00 -0.4131328004970E-02
 0.1680020418199E-02 -0.1067446667784E-01  0.0000000000000E+00 -0.3504605901819E-02
 0.2060430192020E-02 -0.1067143986020E-01  0.0000000000000E+00 -0.2756950726829E-02
 0.2255939898038E-02 -0.1055490323763E-01  0.0000000000000E+00 -0.2121779464204E-02
 0.2346593289177E-02 -0.1040180202858E-01  0.0000000000000E+00 -0.1643061551149E-02
 0.2384592611769E-02 -0.1025009257803E-01  0.0000000000000E+00 -0.1288686245526E-02
 0.2396204243852E-02 -0.1011304202874E-01  0.0000000000000E+00 -0.1020178705826E-02
 0.2394227213597E-02 -0.9994101606797E-02  0.0000000000000E+00 -0.8084765634418E-03
 0.2385145504698E-02 -0.9893380217124E-02  0.0000000000000E+00 -0.6328940783940E-03
 0.2372320119057E-02 -0.9810024978849E-02  0.0000000000000E+00 -0.4784627953748E-03
 0.2357466415133E-02 -0.9743124104639E-02  0.0000000000000E+00 -0.3338637708760E-03
 0.2341332424333E-02 -0.9691996094938E-02  0.0000000000000E+00 -0.1899409185661E-03
 0.2323948728511E-02 -0.9656189769658E-02  0.0000000000000E+00 -0.3864023807809E-04
 0.2304590110496E-02 -0.9635279701385E-02  0.0000000000000E+00  0.1277510777373E-03
 0.2281470053886E-02 -0.9628394419474E-02  0.0000000000000E+00  0.3170120174820E-03
 0.2251283544402E-02 -0.9633419538554E-02  0.0000000000000E+00  0.5365131714266E-03
 0.2209215850761E-02 -0.9646189446772E-02  0.0000000000000E+00  0.7910808140711E-03
 0.2150542148200E-02 -0.9660615146253E-02  0.0000000000000E+00  0.1079854779629E-02
 0.2073865876546E-02 -0.9670454800247E-02  0.0000000000000E+00  0.1395753986177E-02
 0.1983493229142E-02 -0.9672202833248E-02  0.0000000000000E+00  0.1730308989983E-02
 0.1887203967180E-02 -0.9665193127877E-02  0.0000000000000E+00  0.2079914095697E-02
 0.1790927449178E-02 -0.9648245060596E-02  0.0000000000000E+00  0.2446535945817E-02
 0.1695847972537E-02 -0.9617693491866E-02  0.0000000000000E+00  0.2832667699198E-02
 0.1599224482774E-02 -0.9568016883084E-02  0.0000000000000E+00  0.3236489750142E-02
 0.1496774548914E-02 -0.9493262797052E-02  0.0000000000000E+00  0.3650337127271E-02
 0.1384763093141E-02 -0.9387973223981E-02  0.0000000000000E+00  0.4061607788035E-02
 0.1261200161393E-02 -0.9247417173204E-02  0.0000000000000E+00  0.4454490704798E-02
 0.1126135477601E-02 -0.9067306811339E-02  0.0000000000000E+00  0.4811592026427E-02
 0.9811550857566E-03 -0.8843073769849E-02  0.0000000000000E+00  0.5114595201091E-02
 0.8286030567469E-03 -0.8568469311613E-02  0.0000000000000E+00  0.5342107278922E-02
 0.6721778388853E-03 -0.8234050639371E-02  0.0000000000000E+00  0.5463263181668E-02
 0.5210862656536E-03 -0.7828581891445E-02  0.0000000000000E+00  0.5430086099142E-02
 0.3983162387539E-03 -0.7343355918380E-02  0.0000000000000E+00  0.5170681871463E-02
 0.3552004460695E-03 -0.6779552754227E-02  0.0000000000000E+00  0.4581898384808E-02
 0.4993015130574E-03 -0.6164855416346E-02  0.0000000000000E+00  0.3527741082162E-02
 0.1044874806825E-02 -0.5588701732167E-02  0.0000000000000E+00  0.1873682336876E-02
 0.2373524800430E-02 -0.5252978948325E-02  0.0000000000000E+00 -0.3553066591660E-03
 0.5000156929275E-02 -0.5461198819555E-02  0.0000000000000E+00 -0.2578300026013E-02
 0.9203012686976E-02 -0.6345181840051E-02  0.0000000000000E+00 -0.3186153226069E-02
 0.1422799453985E-01 -0.7254020668725E-02  0.0000000000000E+00  0.6818332286967E-04
 0.3081961253823E-03 -0.9866216280164E-02  0.0000000000000E+00 -0.4069577229988E-02
 0.9454579234767E-03 -0.1018975317688E-01  0.0000000000000E+00 -0.3999723827726E-02
 0.1517378013479E-02 -0.1039826273736E-01  0.0000000000000E+00 -0.3517107103148E-02
 0.1909283133367E-02 -0.1044664044831E-01  0.0000000000000E+00 -0.2875114448171E-02
 0.2135378098882E-02 -0.1038160810150E-01  0.0000000000000E+00 -0.2280141030208E-02
 0.2253835656889E-02 -0.1026523952150E-01  0.0000000000000E+00 -0.1801658054343E-02
 0.2311677287896E-02 -0.1013644954984E-01  0.0000000000000E+00 -0.1432131787368E-02
 0.2336398867576E-02 -0.1001296830233E-01  0.0000000000000E+00 -0.1144457312120E-02
 0.2342695920114E-02 -0.9901583757279E-02  0.0000000000000E+00 -0.9134993932025E-03
 0.2338434488438E-02 -0.9804440131610E-02  0.0000000000000E+00 -0.7196828707889E-03
 0.2327870254641E-02 -0.9721857393757E-02  0.0000000000000E+00 -0.5481021948585E-03
 0.2313250183542E-02 -0.9653529768331E-02  0.0000000000000E+00 -0.3871332357754E-03
 0.2295588714089E-02 -0.9598990848994E-02  0.0000000000000E+00 -0.2272486921510E-03
 0.2274981211378E-02 -0.9557700598388E-02  0.0000000000000E+00 -0.6012246666232E-04
 0.2250613478163E-02 -0.9528873707837E-02  0.0000000000000E+00  0.1219583015717E-03
 0.2220549096630E-02 -0.9511049729776E-02  0.0000000000000E+00  0.3262333690650E-03
 0.2181506112702E-02 -0.9501472323996E-02  0.0000000000000E+00  0.5587107344550E-03
 0.2129203063778E-02 -0.9495665209380E-02  0.0000000000000E+00  0.8221730094467E-03
 0.2059983093604E-02 -0.9487891635006E-02  0.0000000000000E+00  0.1113994926572E-02
 0.1973387695955E-02 -0.9472773382585E-02  0.0000000000000E+00  0.1426579720630E-02
 0.1873797391304E-02 -0.9447678008937E-02  0.0000000000000E+00  0.1751820058783E-02
 0.1768437511304E-02 -0.9412614223442E-02  0.0000000000000E+00  0.2086049402965E-02
 0.1662968209969E-02 -0.9367052699675E-02  0.0000000000000E+00  0.2430338757693E-02
 0.1559027740180E-02 -0.9307986121128E-02  0.0000000000000E+00  0.2786235932919E-02
 0.1454792037801E-02 -0.9230344794122E-02  0.0000000000000E+00  0.3151465491373E-02
 0.1346967308467E-02 -0.9128306907900E-02  0.0000000000000E+00  0.3518199093321E-02
 0.1232698900082E-02 -0.8996321477574E-02  0.0000000000000E+00  0.3873535195116E-02
 0.1110766470220E-02 -0.8829506700011E-02  0.0000000000000E+00  0.4200916624060E-02
 0.9819978725008E-03 -0.8623506027094E-02  0.0000000000000E+00  0.4481465298432E-02
 0.8491208680221E-03 -0.8373984716349E-02  0.0000000000000E+00  0.4694301004607E-02
 0.7166589635673E-03 -0.8075704213391E-02  0.0000000000000E+00  0.4814393037944E-02
 0.5923162119287E-03 -0.7721740131637E-02  0.0000000000000E+00  0.4806973779844E-02
 0.4917216520841E-03 -0.7305678570392E-02  0.0000000000000E+00  0.4621536207364E-02
 0.4471789474268E-03 -0.6827050836491E-02  0.0000000000000E+00  0.4188034747866E-02
 0.5222016604602E-03 -0.6300197922407E-02  0.0000000000000E+00  0.3416287581015E-02
 0.8356433448155E-03 -0.5770860896007E-02  0.0000000000000E+00  0.2209157270625E-02
 0.1594750903843E-02 -0.5342382586610E-02  0.0000000000000E+00  0.5195856213530E-03
 0.3111155156224E-02 -0.5194498096693E-02  0.0000000000000E+00 -0.1493925510416E-02
 0.5716320977982E-02 -0.5528289867828E-02  0.0000000000000E+00 -0.3195983523161E-02
 0.9460569064424E-02 -0.6337668147034E-02  0.0000000000000E+00 -0.3297227676409E-02
 0.1366064858695E-01 -0.7063693452316E-02  0.0000000000000E+00 -0.3383358291542E-03
 0.2739863533883E-03 -0.9626956495037E-02  0.0000000000000E+00 -0.3878956981576E-02
 0.8452875285765E-03 -0.9926347999655E-02  0.0000000000000E+00 -0.3863714060857E-02
 0.1377604591299E-02 -0.1014143776219E-01  0.0000000000000E+00 -0.3493503648397E-02
 0.1769766455082E-02 -0.1022504208483E-01  0.0000000000000E+00 -0.2948140515094E-02
 0.2016705860774E-02 -0.1020167829524E-01  0.0000000000000E+00 -0.2402400617471E-02
 0.2158301052020E-02 -0.1011891376328E-01  0.0000000000000E+00 -0.1936396916917E-02
 0.2234501284942E-02 -0.1001305969557E-01  0.0000000000000E+00 -0.1560902871250E-02
 0.2272117530837E-02 -0.9904052288104E-02  0.0000000000000E+00 -0.1260090556298E-02
 0.2286872381264E-02 -0.9801197450278E-02  0.0000000000000E+00 -0.1013845671833E-02
 0.2287686301475E-02 -0.9708419772678E-02  0.0000000000000E+00 -0.8045285154146E-03
 0.2279585647752E-02 -0.9627144679394E-02  0.0000000000000E+00 -0.6178456746946E-03
 0.2265311594632E-02 -0.9557675155574E-02  0.0000000000000E+00 -0.4422442761945E-03
 0.2246149357956E-02 -0.9499789085359E-02  0.0000000000000E+00 -0.2681056761090E-03
 0.2222294235825E-02 -0.9452906871640E-02  0.0000000000000E+00 -0.8707316304660E-04
 0.2192921719120E-02 -0.9415973396636E-02  0.0000000000000E+00  0.1083363046022E-03
 0.2156088684861E-02 -0.9387112241314E-02  0.0000000000000E+00  0.3246494701011E-03
 0.2108721592579E-02 -0.9363200627052E-02  0.0000000000000E+00  0.5665511779596E-03
 0.2047177816448E-02 -0.9339741755288E-02  0.0000000000000E+00  0.8351794997205E-03
 0.1968771916955E-02 -0.9311482086487E-02  0.0000000000000E+00  0.1126738186083E-02
 0.1873784648049E-02 -0.9273811637888E-02  0.0000000000000E+00  0.1433487720369E-02
 0.1766596843126E-02 -0.9224743979236E-02  0.0000000000000E+00  0.1747728176762E-02
 0.1653940654086E-02 -0.9164704936296E-02  0.0000000000000E+00  0.2065703647825E-02
 0.1541234106080E-02 -0.9093586573095E-02  0.0000000000000E+00  0.2387562623019E-02
 0.1430516501512E-02 -0.9008921052730E-02  0.0000000000000E+00  0.2713741436138E-02
 0.1320843741161E-02 -0.8906156842799E-02  0.0000000000000E+00  0.3041228348961E-02
 0.1209953199796E-02 -0.8779831075866E-02  0.0000000000000E+00  0.3361820801739E-02
 0.1095977938210E-02 -0.8624602172653E-02  0.0000000000000E+00  0.3662293483772E-02
 0.9786185859251E-03 -0.8435756640273E-02  0.0000000000000E+00  0.3925495182443E-02
 0.8596932110453E-03 -0.8209226693963E-02  0.0000000000000E+00  0.4131396650224E-02
 0.7433334711079E-03 -0.7941355987388E-02  0.0000000000000E+00  0.4257232494272E-02
 0.6364352456656E-03 -0.7628442293954E-02  0.0000000000000E+00  0.4275622753812E-02
 0.5506276680664E-03 -0.7266614005555E-02  0.0000000000000E+00  0.4150062231443E-02
 0.5073003441339E-03 -0.6854632489561E-02  0.0000000000000E+00  0.3830932379303E-02
 0.5461439818312E-03 -0.6399876756430E-02  0.0000000000000E+00  0.3255177406921E-02
 0.7381255591814E-03 -0.5927312753413E-02  0.0000000000000E+00  0.2352204020145E-02
 0.1203465817447E-02 -0.5493315699760E-02  0.0000000000000E+00  0.1067632792775E-02
 0.2127904803868E-02 -0.5200794546210E-02  0.0000000000000E+00 -0.5721436153562E-03
 0.3750111703449E-02 -0.5195228578195E-02  0.0000000000000E+00 -0.2330510520916E-02
 0.6264987043465E-02 -0.5595600530529E-02  0.0000000000000E+00 -0.3596929137820E-02
 0.9601623793963E-02 -0.6323379307860E-02  0.0000000000000E+00 -0.3370586511874E-02
 0.1317881468992E-01 -0.6917944800805E-02  0.0000000000000E+00 -0.7008808547432E-03
 0.2464222503629E-03 -0.9410638597698E-02  0.0000000000000E+00 -0.3705019936847E-02
 0.7627162938079E-03 -0.9687850825459E-02  0.0000000000000E+00 -0.3728638283330E-02
 0.1257164118655E-02 -0.9902523247798E-02  0.0000000000000E+00 -0.3446505349485E-02
 0.1642379401106E-02 -0.1000958891351E-01  0.0000000000000E+00 -0.2986609752692E-02
 0.1902193519229E-02 -0.1001901043002E-01  0.0000000000000E+00 -0.2493393113452E-02
 0.2062099540376E-02 -0.9965788481899E-02  0.0000000000000E+00 -0.2048374091737E-02
 0.2154548651735E-02 -0.9881845571427E-02  0.0000000000000E+00 -0.1674683460172E-02
 0.2204353648310E-02 -0.9787527654289E-02  0.0000000000000E+00 -0.1366425687713E-02
 0.2227438876463E-02 -0.9693764114603E-02  0.0000000000000E+00 -0.1108896478921E-02
 0.2233399541478E-02 -0.9605906907199E-02  0.0000000000000E+00 -0.8869705047171E-03
 0.2227870005642E-02 -0.9526359529492E-02  0.0000000000000E+00 -0.6874226328685E-03
 0.2214024221348E-02 -0.9456001911969E-02  0.0000000000000E+00 -0.4991104531684E-03
 0.2193410841991E-02 -0.9394870306168E-02  0.0000000000000E+00 -0.3125858659574E-03
 0.2166357252691E-02 -0.9342393615464E-02  0.0000000000000E+00 -0.1196801003525E-03
 0.2132104318620E-02 -0.9297341433985E-02  0.0000000000000E+00  0.8667947468038E-04
 0.2088823494387E-02 -0.9257583157210E-02  0.0000000000000E+00  0.3122177081370E-03
 0.2033777219355E-02 -0.9219846873113E-02  0.0000000000000E+00  0.5604096313747E-03
 0.1963999098226E-02 -0.9179802274727E-02  0.0000000000000E+00  0.8311087032034E-03
 0.1877664310390E-02 -0.9132726759291E-02  0.0000000000000E+00  0.1119768148508E-02
 0.1775640855958E-02 -0.9074680708074E-02  0.0000000000000E+00  0.1418706032366E-02
 0.1662279998404E-02 -0.9004169961127E-02  0.0000000000000E+00  0.1720599648841E-02
 0.1543903442132E-02 -0.8921890370074E-02  0.0000000000000E+00  0.2021566051872E-02
 0.1425742542216E-02 -0.8828028631606E-02  0.0000000000000E+00  0.2320857501821E-02
 0.1310213099183E-02 -0.8720585663628E-02  0.0000000000000E+00  0.2617767225309E-02
 0.1197210369894E-02 -0.8595566968533E-02  0.0000000000000E+00  0.2908425578333E-02
 0.1085508141112E-02 -0.8448022275947E-02  0.0000000000000E+00  0.3184148710833E-02
 0.9742882345261E-03 -0.8273045408139E-02  0.0000000000000E+00  0.3431395980272E-02
 0.8642810048658E-03 -0.8066355413704E-02  0.0000000000000E+00  0.3632588650104E-02
 0.7584448668943E-03 -0.7824477790023E-02  0.0000000000000E+00  0.3766932774970E-02
 0.6624595369542E-03 -0.7544780744984E-02  0.0000000000000E+00  0.3810535302757E-02
 0.5855962964240E-03 -0.7225433915348E-02  0.0000000000000E+00  0.3734983090104E-02
 0.5430531944667E-03 -0.6865815312385E-02  0.0000000000000E+00  0.3504066729999E-02
 0.5609364063999E-03 -0.6469661554757E-02  0.0000000000000E+00  0.3071936234083E-02
 0.6839808046523E-03 -0.6051025325439E-02  0.0000000000000E+00  0.2386144338537E-02
 0.9859485496662E-03 -0.5642219872025E-02  0.0000000000000E+00  0.1398695279296E-02
 0.1580866932951E-02 -0.5303527556782E-02  0.0000000000000E+00  0.9528590219499E-04
 0.2626034696774E-02 -0.5128439344441E-02  0.0000000000000E+00 -0.1443345937492E-02
 0.4294406870535E-02 -0.5226470800973E-02  0.0000000000000E+00 -0.2945003696864E-02
 0.6684973922710E-02 -0.5656516020930E-02  0.0000000000000E+00 -0.3861384805916E-02
 0.9668501749009E-02 -0.6307149699726E-02  0.0000000000000E+00 -0.3428589251476E-02
 0.1276381877907E-01 -0.6805323555700E-02  0.0000000000000E+00 -0.1024476801473E-02
 0.2237415963000E-03 -0.9212202741928E-02  0.0000000000000E+00 -0.3545384423802E-02
 0.6936640588239E-03 -0.9469377234403E-02  0.0000000000000E+00 -0.3597266721745E-02
 0.1152895259007E-02 -0.9679594809148E-02  0.0000000000000E+00 -0.3384665464095E-02
 0.1526742768795E-02 -0.9801677290106E-02  0.0000000000000E+00 -0.2999033334258E-02
 0.1793186845843E-02 -0.9836328308920E-02  0.0000000000000E+00 -0.2558082853045E-02
 0.1966863319735E-02 -0.9808327633088E-02  0.0000000000000E+00 -0.2139467159620E-02
 0.2073136390860E-02 -0.9744590119184E-02  0.0000000000000E+00 -0.1773792080280E-02
 0.2134062276904E-02 -0.9664617855313E-02  0.0000000000000E+00 -0.1463213841339E-02
 0.2165087142947E-02 -0.9580139516621E-02  0.0000000000000E+00 -0.1198275656006E-02
 0.2176099866130E-02 -0.9497537506867E-02  0.0000000000000E+00 -0.9666815681749E-03
 0.2173158795873E-02 -0.9420024586448E-02  0.0000000000000E+00 -0.7566183915187E-03
 0.2159792302082E-02 -0.9348998893813E-02  0.0000000000000E+00 -0.5576410594688E-03
 0.2137794943639E-02 -0.9284755283604E-02  0.0000000000000E+00 -0.3607036641405E-03
 0.2107652431129E-02 -0.9226774434270E-02  0.0000000000000E+00 -0.1580126719989E-03
 0.2068736992306E-02 -0.9173740425870E-02  0.0000000000000E+00  0.5696128359733E-04
 0.2019429449446E-02 -0.9123408434174E-02  0.0000000000000E+00  0.2891127525649E-03
 0.1957408444414E-02 -0.9072520592573E-02  0.0000000000000E+00  0.5408500443880E-03
 0.1880379732248E-02 -0.9017028031686E-02  0.0000000000000E+00  0.8110427579192E-03
 0.1787272239870E-02 -0.8952743106600E-02  0.0000000000000E+00  0.1094682871644E-02
 0.1679429416947E-02 -0.8876310901061E-02  0.0000000000000E+00  0.1384244145390E-02
 0.1561170737519E-02 -0.8786628344045E-02  0.0000000000000E+00  0.1672723155381E-02
 0.1438495349588E-02 -0.8684581777620E-02  0.0000000000000E+00  0.1956078807506E-02
 0.1316513238359E-02 -0.8570588034310E-02  0.0000000000000E+00  0.2232724335108E-02
 0.1198008592462E-02 -0.8443077921333E-02  0.0000000000000E+00  0.2500856494781E-02
 0.1083676268577E-02 -0.8298638240935E-02  0.0000000000000E+00  0.2755729898472E-02
 0.9733091939768E-03 -0.8132935268141E-02  0.0000000000000E+00  0.2988152879417E-02
 0.8671633337964E-03 -0.7941665159186E-02  0.0000000000000E+00  0.3184318615850E-02
 0.7670629231952E-03 -0.7721187655819E-02  0.0000000000000E+00  0.3326412921130E-02
 0.6771877874962E-03 -0.7468857793143E-02  0.0000000000000E+00  0.3393295610035E-02
 0.6047966871995E-03 -0.7183303338431E-02  0.0000000000000E+00  0.3360714233374E-02
 0.5613785573125E-03 -0.6864719039832E-02  0.0000000000000E+00  0.3200455619654E-02
 0.5651423642240E-03 -0.6515647846557E-02  0.0000000000000E+00  0.2878351206417E-02
 0.6456549762611E-03 -0.6144207115953E-02  0.0000000000000E+00  0.2354479576221E-02
 0.8503005748159E-03 -0.5769530937394E-02  0.0000000000000E+00  0.1589034396727E-02
 0.1251672241725E-02 -0.5427997951892E-02  0.0000000000000E+00  0.5566716473019E-03
 0.1952711695133E-02 -0.5178652493126E-02  0.0000000000000E+00 -0.7231632781927E-03
 0.3080660145665E-02 -0.5101071267705E-02  0.0000000000000E+00 -0.2133960913727E-02
 0.4753850223262E-02 -0.5272310114486E-02  0.0000000000000E+00 -0.3396821102124E-02
 0.7006758076158E-02 -0.5709885550298E-02  0.0000000000000E+00 -0.4038295125199E-02
 0.9687477968749E-02 -0.6291984453938E-02  0.0000000000000E+00 -0.3480084146779E-02
 0.1240187837026E-01 -0.6718171154975E-02  0.0000000000000E+00 -0.1313363147692E-02
 0.2047414696039E-03 -0.9027998384750E-02  0.0000000000000E+00 -0.3398113265978E-02
 0.6351531531444E-03 -0.9267183990384E-02  0.0000000000000E+00 -0.3470965557144E-02
 0.1062109580271E-02 -0.9470696002992E-02  0.0000000000000E+00 -0.3313753019308E-02
 0.1422044284680E-02 -0.9601779441526E-02  0.0000000000000E+00 -0.2992072298035E-02
 0.1690372795020E-02 -0.9655451163956E-02  0.0000000000000E+00 -0.2601098798154E-02
 0.1873787093923E-02 -0.9648493187493E-02  0.0000000000000E+00 -0.2211943884729E-02
 0.1991380996720E-02 -0.9602878480963E-02  0.0000000000000E+00 -0.1859008351425E-02
 0.2062127193354E-02 -0.9536491886449E-02  0.0000000000000E+00 -0.1550544074104E-02
 0.2100494800184E-02 -0.9461183501275E-02  0.0000000000000E+00 -0.1281823185260E-02
 0.2116322916311E-02 -0.9383974485881E-02  0.0000000000000E+00 -0.1043457936938E-02
 0.2115906194802E-02 -0.9308696496039E-02  0.0000000000000E+00 -0.8252717381645E-03
 0.2103039398196E-02 -0.9237188341068E-02  0.0000000000000E+00 -0.6177423681753E-03
 0.2079737211712E-02 -0.9169991805604E-02  0.0000000000000E+00 -0.4124194079368E-03
 0.2046662132531E-02 -0.9106675146713E-02  0.0000000000000E+00 -0.2020364743785E-03
 0.2003370402317E-02 -0.9045915926373E-02  0.0000000000000E+00  0.1930180521320E-04
 0.1948520753964E-02 -0.8985469329270E-02  0.0000000000000E+00  0.2556709313999E-03
 0.1880252042448E-02 -0.8922209061376E-02  0.0000000000000E+00  0.5085592338327E-03
 0.1796914687374E-02 -0.8852433994751E-02  0.0000000000000E+00  0.7760925813678E-03
 0.1698096226278E-02 -0.8772474316036E-02  0.0000000000000E+00  0.1052996293383E-02
 0.1585535626384E-02 -0.8679490323440E-02  0.0000000000000E+00  0.1331939688860E-02
 0.1463534571386E-02 -0.8572705611112E-02  0.0000000000000E+00  0.1606176777904E-02
 0.1337854147228E-02 -0.8453158608661E-02  0.0000000000000E+00  0.1871489607037E-02
 0.1213548084328E-02 -0.8321468878431E-02  0.0000000000000E+00  0.2125527598039E-02
 0.1093769221905E-02 -0.8176478544863E-02  0.0000000000000E+00  0.2365482386271E-02
 0.9799740417805E-03 -0.8015371363837E-02  0.0000000000000E+00  0.2585781898977E-02
 0.8729428321065E-03 -0.7834499436235E-02  0.0000000000000E+00  0.2776760493480E-02
 0.7740021109548E-03 -0.7630280448954E-02  0.0000000000000E+00  0.2924432582865E-02
 0.6860906620793E-03 -0.7399867820076E-02  0.0000000000000E+00  0.3010962858026E-02
 0.6146235261398E-03 -0.7141609272093E-02  0.0000000000000E+00  0.3015289424777E-02
 0.5683708014448E-03 -0.6855518116993E-02  0.0000000000000E+00  0.2913524602159E-02
 0.5607582104797E-03 -0.6543809179095E-02  0.0000000000000E+00  0.2678727990866E-02
 0.6123242727054E-03 -0.6211893745603E-02  0.0000000000000E+00  0.2280139012987E-02
 0.7547843544565E-03 -0.5871439537361E-02  0.0000000000000E+00  0.1685154078362E-02
 0.1035994190488E-02 -0.5544960549422E-02  0.0000000000000E+00  0.8672364679284E-03
 0.1524384514433E-02 -0.5270065822013E-02  0.0000000000000E+00 -0.1782738345275E-03
 0.2309244925562E-02 -0.5101139499725E-02  0.0000000000000E+00 -0.1405851858041E-02
 0.3489348895953E-02 -0.5102472902037E-02  0.0000000000000E+00 -0.2678740164232E-02
 0.5139883249506E-02 -0.5324141166366E-02  0.0000000000000E+00 -0.3729074313191E-02
 0.7253573223967E-02 -0.5756561695219E-02  0.0000000000000E+00 -0.4157695823755E-02
 0.9675228541519E-02 -0.6279583623705E-02  0.0000000000000E+00 -0.3528127897770E-02
 0.1208280378248E-01 -0.6651136089487E-02  0.0000000000000E+00 -0.1571267959004E-02
 0.1885779923645E-03 -0.8855323274019E-02  0.0000000000000E+00 -0.3261624966441E-02
 0.5849813717798E-03 -0.9078377668618E-02  0.0000000000000E+00 -0.3350324676337E-02
 0.9825766574966E-03 -0.9274017057207E-02  0.0000000000000E+00 -0.3237670896072E-02
 0.1327297754027E-02 -0.9409837873198E-02  0.0000000000000E+00 -0.2970861689906E-02
 0.1593993330700E-02 -0.9477535700082E-02  0.0000000000000E+00 -0.2626533435097E-02
 0.1783698928883E-02 -0.9487796843480E-02  0.0000000000000E+00 -0.2268186517453E-02
 0.1910193829710E-02 -0.9458074409030E-02  0.0000000000000E+00 -0.1931409935816E-02
 0.1989340404531E-02 -0.9404233175111E-02  0.0000000000000E+00 -0.1628768994688E-02
 0.2034306992091E-02 -0.9337735406642E-02  0.0000000000000E+00 -0.1359562295550E-02
 0.2054599751802E-02 -0.9265889059623E-02  0.0000000000000E+00 -0.1117205350658E-02
 0.2056573286390E-02 -0.9192951168554E-02  0.0000000000000E+00 -0.8932703059870E-03
 0.2044197983646E-02 -0.9121112920139E-02  0.0000000000000E+00 -0.6793186425947E-03
 0.2019676842992E-02 -0.9051141779974E-02  0.0000000000000E+00 -0.4676462369264E-03
 0.1983859130865E-02 -0.8982720408680E-02  0.0000000000000E+00 -0.2516296012176E-03
 0.1936523253332E-02 -0.8914584936320E-02  0.0000000000000E+00 -0.2606295474220E-04
 0.1876650931650E-02 -0.8844579217624E-02  0.0000000000000E+00  0.2123453758627E-03
 0.1802858866298E-02 -0.8769789636419E-02  0.0000000000000E+00  0.4643004480459E-03
 0.1714102851223E-02 -0.8686897103394E-02  0.0000000000000E+00  0.7273706581023E-03
 0.1610547910363E-02 -0.8592723766425E-02  0.0000000000000E+00  0.9961431097474E-03
 0.1494272585873E-02 -0.8484891119932E-02  0.0000000000000E+00  0.1263491352779E-02
 0.1369583226617E-02 -0.8362910100030E-02  0.0000000000000E+00  0.1522872240946E-02
 0.1242079685390E-02 -0.8227957415855E-02  0.0000000000000E+00  0.1769885716593E-02
 0.1116819150599E-02 -0.8080849349925E-02  0.0000000000000E+00  0.2001502738670E-02
 0.9973264276880E-03 -0.7920832816660E-02  0.0000000000000E+00  0.2214025537512E-02
 0.8857828375115E-03 -0.7745698022848E-02  0.0000000000000E+00  0.2401146435394E-02
 0.7839139470470E-03 -0.7552526463738E-02  0.0000000000000E+00  0.2552802801085E-02
 0.6940890172860E-03 -0.7338536656477E-02  0.0000000000000E+00  0.2654947722697E-02
 0.6203422047862E-03 -0.7101776589861E-02  0.0000000000000E+00  0.2689950878495E-02
 0.5692778550423E-03 -0.6841679241122E-02  0.0000000000000E+00  0.2637234429056E-02
 0.5510309109620E-03 -0.6559672032774E-02  0.0000000000000E+00  0.2473915264730E-02
 0.5806003247468E-03 -0.6259859236985E-02  0.0000000000000E+00  0.2175191891572E-02
 0.6801228456482E-03 -0.5950084240260E-02  0.0000000000000E+00  0.1714669729350E-02
 0.8822171482203E-03 -0.5644638059934E-02  0.0000000000000E+00  0.1067732938260E-02
 0.1233407034339E-02 -0.5367822824179E-02  0.0000000000000E+00  0.2206564043660E-03
 0.1795959697174E-02 -0.5156284231961E-02  0.0000000000000E+00 -0.8136354020459E-03
 0.2644698375772E-02 -0.5057810626913E-02  0.0000000000000E+00 -0.1971074413209E-02
 0.3853149237602E-02 -0.5121937690573E-02  0.0000000000000E+00 -0.3106467412342E-02
 0.5463625005037E-02 -0.5377469593984E-02  0.0000000000000E+00 -0.3972703385201E-02
 0.7442954839370E-02 -0.5797965198008E-02  0.0000000000000E+00 -0.4238194211739E-02
 0.9642586395222E-02 -0.6270831634464E-02  0.0000000000000E+00 -0.3573385228784E-02
 0.1179895240550E-01 -0.6600338466943E-02  0.0000000000000E+00 -0.1801437623825E-02
 0.1746447404015E-03 -0.8692132798892E-02  0.0000000000000E+00 -0.3134618797530E-02
 0.5414983683530E-03 -0.8900699470378E-02  0.0000000000000E+00 -0.3235503514875E-02
 0.9124685467562E-03 -0.9087957045147E-02  0.0000000000000E+00 -0.3159065162759E-02
 0.1241487478609E-02 -0.9225508612031E-02  0.0000000000000E+00 -0.2939327241112E-02
 0.1504004332230E-02 -0.9303269951260E-02  0.0000000000000E+00 -0.2637889853733E-02
 0.1697136774480E-02 -0.9327372201073E-02  0.0000000000000E+00 -0.2310515984368E-02
 0.1830294799654E-02 -0.9311321628963E-02  0.0000000000000E+00 -0.1992237205454E-02
 0.1916392864665E-02 -0.9268821343587E-02  0.0000000000000E+00 -0.1698431101728E-02
 0.1967123390539E-02 -0.9210595401386E-02  0.0000000000000E+00 -0.1431663454352E-02
 0.1991445015803E-02 -0.9143945063824E-02  0.0000000000000E+00 -0.1187922427809E-02
 0.1995617814827E-02 -0.9073370646883E-02  0.0000000000000E+00 -0.9605444484058E-03
 0.1983700258554E-02 -0.9001324003638E-02  0.0000000000000E+00 -0.7422728894025E-03
 0.1958048147665E-02 -0.8928770009508E-02  0.0000000000000E+00 -0.5262575433581E-03
 0.1919699316942E-02 -0.8855523206433E-02  0.0000000000000E+00 -0.3065989513969E-03
 0.1868678536285E-02 -0.8780428569867E-02  0.0000000000000E+00 -0.7880824757531E-04
 0.1804315951338E-02 -0.8701484068961E-02  0.0000000000000E+00  0.1596707695226E-03
 0.1725705288268E-02 -0.8616041821761E-02  0.0000000000000E+00  0.4088807127649E-03
 0.1632363716397E-02 -0.8521178449007E-02  0.0000000000000E+00  0.6659743942410E-03
 0.1524966159581E-02 -0.8414179911322E-02  0.0000000000000E+00  0.9254842409889E-03
 0.1405892152569E-02 -0.8293087882619E-02  0.0000000000000E+00  0.1180481847618E-02
 0.1279478476372E-02 -0.8157677966062E-02  0.0000000000000E+00  0.1424584042824E-02
 0.1151231038598E-02 -0.8009265443163E-02  0.0000000000000E+00  0.1653215768186E-02
 0.1026262306546E-02 -0.7848868828809E-02  0.0000000000000E+00  0.1862759944711E-02
 0.9084720138739E-03 -0.7676139563430E-02  0.0000000000000E+00  0.2048756905122E-02
 0.8007296563351E-03 -0.7489478383801E-02  0.0000000000000E+00  0.2204279381606E-02
 0.7056559677659E-03 -0.7286719472059E-02  0.0000000000000E+00  0.2318973342257E-02
 0.6266148565288E-03 -0.7065927546676E-02  0.0000000000000E+00  0.2378867323417E-02
 0.5686822852807E-03 -0.6826098858810E-02  0.0000000000000E+00  0.2366761014074E-02
 0.5395571153716E-03 -0.6567780987838E-02  0.0000000000000E+00  0.2262926945465E-02
 0.5505358685602E-03 -0.6293763624760E-02  0.0000000000000E+00  0.2046016140084E-02
 0.6177831149208E-03 -0.6009819920623E-02  0.0000000000000E+00  0.1694006409941E-02
 0.7643139243576E-03 -0.5725715925014E-02  0.0000000000000E+00  0.1185432794763E-02
 0.1022555400561E-02 -0.5457449852950E-02  0.0000000000000E+00  0.5037337894518E-03
 0.1436329758156E-02 -0.5229756721500E-02  0.0000000000000E+00 -0.3531994730159E-03
 0.2060607511112E-02 -0.5076784944056E-02  0.0000000000000E+00 -0.1358392086872E-02
 0.2956111985005E-02 -0.5038914702007E-02  0.0000000000000E+00 -0.2435856930450E-02
 0.4174942832815E-02 -0.5152454069451E-02  0.0000000000000E+00 -0.3440323026441E-02
 0.5735066425329E-02 -0.5430075980850E-02  0.0000000000000E+00 -0.4149823046739E-02
 0.7588139085889E-02 -0.5835527331172E-02  0.0000000000000E+00 -0.4291422342879E-02
 0.9596755927462E-02 -0.6266145820543E-02  0.0000000000000E+00 -0.3615617653578E-02
 0.1154447035727E-01 -0.6562880025560E-02  0.0000000000000E+00 -0.2006685928117E-02
 0.1624966286125E-03 -0.8536850503282E-02  0.0000000000000E+00 -0.3016015140586E-02
 0.5034515994537E-03 -0.8732367954136E-02  0.0000000000000E+00 -0.3126424972876E-02
 0.8502952778089E-03 -0.8911132226810E-02  0.0000000000000E+00 -0.3079729609740E-02
 0.1163644111638E-02 -0.9048308257124E-02  0.0000000000000E+00 -0.2900456299841E-02
 0.1420188124209E-02 -0.9133019393236E-02  0.0000000000000E+00 -0.2638104883070E-02
 0.1614418502584E-02 -0.9168048666392E-02  0.0000000000000E+00 -0.2341090617691E-02
 0.1752235546710E-02 -0.9163560355531E-02  0.0000000000000E+00 -0.2042790158995E-02
 0.1843873879058E-02 -0.9131124813436E-02  0.0000000000000E+00 -0.1760196338532E-02
 0.1899490227253E-02 -0.9080511630321E-02  0.0000000000000E+00 -0.1498408241464E-02
 0.1927347898970E-02 -0.9018786431885E-02  0.0000000000000E+00 -0.1255682765924E-02
 0.1933485686264E-02 -0.8950531904747E-02  0.0000000000000E+00 -0.1027060153462E-02
 0.1921970393237E-02 -0.8878371519049E-02  0.0000000000000E+00 -0.8065072635982E-03
 0.1895273672188E-02 -0.8803434851770E-02  0.0000000000000E+00 -0.5880943002035E-03
 0.1854616551873E-02 -0.8725676999551E-02  0.0000000000000E+00 -0.3666953873763E-03
 0.1800281992351E-02 -0.8644087867005E-02  0.0000000000000E+00 -0.1385436536077E-03
 0.1731958345902E-02 -0.8556865059334E-02  0.0000000000000E+00  0.9823615305934E-04
 0.1649203138746E-02 -0.8461658404531E-02  0.0000000000000E+00  0.3431278836499E-03
 0.1552050313371E-02 -0.8355940857710E-02  0.0000000000000E+00  0.5929758705010E-03
 0.1441628962078E-02 -0.8237434843347E-02  0.0000000000000E+00  0.8423117960775E-03
 0.1320593132414E-02 -0.8104571320722E-02  0.0000000000000E+00  0.1084393849031E-02
 0.1193335799673E-02 -0.7957378480077E-02  0.0000000000000E+00  0.1312968665786E-02
 0.1065326135726E-02 -0.7797317859892E-02  0.0000000000000E+00  0.1523303641508E-02
 0.9417748739759E-03 -0.7625621006398E-02  0.0000000000000E+00  0.1711285756861E-02
 0.8269572026799E-03 -0.7442345903469E-02  0.0000000000000E+00  0.1871824782662E-02
 0.7243932411225E-03 -0.7246502509820E-02  0.0000000000000E+00  0.1997502820144E-02
 0.6375421803252E-03 -0.7036684239791E-02  0.0000000000000E+00  0.2077796501159E-02
 0.5706978703917E-03 -0.6811818502816E-02  0.0000000000000E+00  0.2098954950321E-02
 0.5298966698052E-03 -0.6571862475038E-02  0.0000000000000E+00  0.2044419466454E-02
 0.5238005551925E-03 -0.6318454638701E-02  0.0000000000000E+00  0.1895624740662E-02
 0.5646292173510E-03 -0.6055633975189E-02  0.0000000000000E+00  0.1633162447743E-02
 0.6692948104279E-03 -0.5790566297624E-02  0.0000000000000E+00  0.1238207265091E-02
 0.8610279005685E-03 -0.5534412738102E-02  0.0000000000000E+00  0.6944392785581E-03
 0.1171164222750E-02 -0.5304046284971E-02  0.0000000000000E+00 -0.7041156951215E-05
 0.1639878871419E-02 -0.5123568007429E-02  0.0000000000000E+00 -0.8583442475366E-03
 0.2314397843909E-02 -0.5023676832013E-02  0.0000000000000E+00 -0.1821939545770E-02
 0.3242419861233E-02 -0.5037299799582E-02  0.0000000000000E+00 -0.2815328748577E-02
 0.4458432359159E-02 -0.5189450057879E-02  0.0000000000000E+00 -0.3698676031398E-02
 0.5962827992310E-02 -0.5480966283897E-02  0.0000000000000E+00 -0.4276229093243E-02
 0.7699173215613E-02 -0.5870496379528E-02  0.0000000000000E+00 -0.4324669974558E-02
 0.9542653334795E-02 -0.6265709262532E-02  0.0000000000000E+00 -0.3654312286372E-02
 0.1131475962888E-01 -0.6536552698952E-02  0.0000000000000E+00 -0.2189499405595E-02
 0.1518008929551E-03 -0.8388240869711E-02  0.0000000000000E+00 -0.2904908984023E-02
 0.4698790519620E-03 -0.8571964034066E-02  0.0000000000000E+00 -0.3022885510030E-02
 0.7948441916913E-03 -0.8742361100498E-02  0.0000000000000E+00 -0.3000875533512E-02
 0.1092880506342E-02 -0.8877700893059E-02  0.0000000000000E+00 -0.2856515946592E-02
 0.1342230386787E-02 -0.8966933093148E-02  0.0000000000000E+00 -0.2629606393023E-02
 0.1535700734965E-02 -0.9010418054726E-02  0.0000000000000E+00 -0.2361856019051E-02
 0.1676425921484E-02 -0.9015551209988E-02  0.0000000000000E+00 -0.2084355262481E-02
 0.1772276363231E-02 -0.8991901356591E-02  0.0000000000000E+00 -0.1814798331780E-02
 0.1831896547559E-02 -0.8948172442920E-02  0.0000000000000E+00 -0.1560155603272E-02
 0.1862765717981E-02 -0.8891027669603E-02  0.0000000000000E+00 -0.1320617053992E-02
 0.1870604207060E-02 -0.8824997577233E-02  0.0000000000000E+00 -0.1092811571520E-02
 0.1859418202161E-02 -0.8752795376364E-02  0.0000000000000E+00 -0.8719231581752E-03
 0.1831758834606E-02 -0.8675680618130E-02  0.0000000000000E+00 -0.6529718490657E-03
 0.1789019204128E-02 -0.8593749981105E-02  0.0000000000000E+00 -0.4316271775370E-03
 0.1731741991571E-02 -0.8506161704438E-02  0.0000000000000E+00 -0.2048321173984E-03
 0.1659971576633E-02 -0.8411342129834E-02  0.0000000000000E+00  0.2866416479358E-04
 0.1573708097599E-02 -0.8307255213141E-02  0.0000000000000E+00  0.2678744589752E-03
 0.1473459262978E-02 -0.8191762759611E-02  0.0000000000000E+00  0.5094154373206E-03
 0.1360762395534E-02 -0.8062998315598E-02  0.0000000000000E+00  0.7478531135306E-03
 0.1238527664577E-02 -0.7919758658454E-02  0.0000000000000E+00  0.9766209407530E-03
 0.1111227944815E-02 -0.7762318794565E-02  0.0000000000000E+00  0.1189577146345E-02
 0.9843430059989E-03 -0.7592297306345E-02  0.0000000000000E+00  0.1381857156395E-02
 0.8632159352295E-03 -0.7411150940003E-02  0.0000000000000E+00  0.1548943385471E-02
 0.7524943093274E-03 -0.7219345853449E-02  0.0000000000000E+00  0.1685245023654E-02
 0.6563097219842E-03 -0.7016494398758E-02  0.0000000000000E+00  0.1782986861458E-02
 0.5788976933967E-03 -0.6801941602266E-02  0.0000000000000E+00  0.1831604829149E-02
 0.5254043335830E-03 -0.6575469791864E-02  0.0000000000000E+00  0.1817712232122E-02
 0.5027241488116E-03 -0.6337975620514E-02  0.0000000000000E+00  0.1725579968155E-02
 0.5203265401499E-03 -0.6092123128487E-02  0.0000000000000E+00  0.1538052991815E-02
 0.5911003215218E-03 -0.5843045668516E-02  0.0000000000000E+00  0.1237945306742E-02
 0.7323035596301E-03 -0.5598999890873E-02  0.0000000000000E+00  0.8098420123717E-03
 0.9668060246291E-03 -0.5372037476472E-02  0.0000000000000E+00  0.2424989868531E-03
 0.1324160812667E-02 -0.5179198414840E-02  0.0000000000000E+00 -0.4660283502097E-03
 0.1840324135471E-02 -0.5043171715979E-02  0.0000000000000E+00 -0.1299641495536E-02
 0.2554827318368E-02 -0.4990719509482E-02  0.0000000000000E+00 -0.2213430534371E-02
 0.3503779884428E-02 -0.5047745408024E-02  0.0000000000000E+00 -0.3122558134165E-02
 0.4707545769146E-02 -0.5229948058408E-02  0.0000000000000E+00 -0.3895961531751E-02
 0.6154173337118E-02 -0.5529768275572E-02  0.0000000000000E+00 -0.4363220736802E-02
 0.7783742384923E-02 -0.5903873880864E-02  0.0000000000000E+00 -0.4342432718290E-02
 0.9483752499723E-02 -0.6269623191541E-02  0.0000000000000E+00 -0.3688888253991E-02
 0.1110610441012E-01 -0.6519676126574E-02  0.0000000000000E+00 -0.2352209524643E-02
 0.1423046944202E-03 -0.8245321672131E-02  0.0000000000000E+00 -0.2800533910010E-02
 0.4400336444845E-03 -0.8418346399389E-02  0.0000000000000E+00 -0.2924618080679E-02
 0.7451275041833E-03 -0.8580640946293E-02  0.0000000000000E+00 -0.2923312861080E-02
 0.1028404871767E-02 -0.8713147899085E-02  0.0000000000000E+00 -0.2809223110324E-02
 0.1269771143525E-02 -0.8805018971348E-02  0.0000000000000E+00 -0.2614381776829E-02
 0.1461025733304E-02 -0.8854890650615E-02  0.0000000000000E+00 -0.2374527797677E-02
 0.1603160015911E-02 -0.8867901403554E-02  0.0000000000000E+00 -0.2118157006436E-02
 0.1702005543303E-02 -0.8851803888081E-02  0.0000000000000E+00 -0.1862994238907E-02
 0.1764773750583E-02 -0.8814202797179E-02  0.0000000000000E+00 -0.1617312078359E-02
 0.1798119832028E-02 -0.8761247101067E-02  0.0000000000000E+00 -0.1382896165309E-02
 0.1807376997592E-02 -0.8697308613250E-02  0.0000000000000E+00 -0.1157813581140E-02
 0.1796434214426E-02 -0.8625118492242E-02  0.0000000000000E+00 -0.9384209860696E-03
 0.1767887928549E-02 -0.8546031603336E-02  0.0000000000000E+00 -0.7206858695814E-03
 0.1723288015749E-02 -0.8460281074331E-02  0.0000000000000E+00 -0.5010714792969E-03
 0.1663430321037E-02 -0.8367206156716E-02  0.0000000000000E+00 -0.2772053087099E-03
 0.1588704305199E-02 -0.8265477918922E-02  0.0000000000000E+00 -0.4840467596151E-04
 0.1499526743158E-02 -0.8153379552022E-02  0.0000000000000E+00  0.1839461176603E-03
 0.1396838725696E-02 -0.8029149276041E-02  0.0000000000000E+00  0.4162976455691E-03
 0.1282547640246E-02 -0.7891308650971E-02  0.0000000000000E+00  0.6432738626488E-03
 0.1159806499548E-02 -0.7739001942822E-02  0.0000000000000E+00  0.8584750664954E-03
 0.1033188540261E-02 -0.7572748517656E-02  0.0000000000000E+00  0.1055863280271E-02
 0.9082221889815E-03 -0.7394335177025E-02  0.0000000000000E+00  0.1230473512793E-02
 0.7904085001344E-03 -0.7205454992460E-02  0.0000000000000E+00  0.1377472511478E-02
 0.6847602754237E-03 -0.7006981836703E-02  0.0000000000000E+00  0.1490894050334E-02
 0.5959795000112E-03 -0.6799118077364E-02  0.0000000000000E+00  0.1562737078322E-02
 0.5290116742586E-03 -0.6581940731962E-02  0.0000000000000E+00  0.1582524164315E-02
 0.4897681209027E-03 -0.6356059409013E-02  0.0000000000000E+00  0.1537366687951E-02
 0.4858853449060E-03 -0.6123261839652E-02  0.0000000000000E+00  0.1412522212541E-02
 0.5274716046438E-03 -0.5887142073002E-02  0.0000000000000E+00  0.1192426714982E-02
 0.6278314888329E-03 -0.5653748491042E-02  0.0000000000000E+00  0.8622800396491E-03
 0.8042030082578E-03 -0.5432125363935E-02  0.0000000000000E+00  0.4101161066804E-03
 0.1078620343572E-02 -0.5234760854539E-02  0.0000000000000E+00 -0.1705183499902E-03
 0.1478362573860E-02 -0.5078294719576E-02  0.0000000000000E+00 -0.8755058962258E-03
 0.2034900570780E-02 -0.4983484913486E-02  0.0000000000000E+00 -0.1682323497060E-02
 0.2780453588556E-02 -0.4973013183522E-02  0.0000000000000E+00 -0.2541403584469E-02
 0.3741100360400E-02 -0.5066448187421E-02  0.0000000000000E+00 -0.3368633211236E-02
 0.4926106396300E-02 -0.5272007364406E-02  0.0000000000000E+00 -0.4043489388755E-02
 0.6315126392701E-02 -0.5576390793329E-02  0.0000000000000E+00 -0.4418932608419E-02
 0.7847747357299E-02 -0.5936362000324E-02  0.0000000000000E+00 -0.4347338222731E-02
 0.9422649630330E-02 -0.6277988473468E-02  0.0000000000000E+00 -0.3718621127101E-02
 0.1091541879913E-01 -0.6511025096238E-02  0.0000000000000E+00 -0.2497247961027E-02
 0.1338131963007E-03 -0.8107302210612E-02  0.0000000000000E+00 -0.2702234223070E-02
 0.4133292647632E-03 -0.8270588737477E-02  0.0000000000000E+00 -0.2831328124023E-02
 0.7003387892740E-03 -0.8425122803012E-02  0.0000000000000E+00 -0.2847572662456E-02
 0.9695215413460E-03 -0.8554135104568E-02  0.0000000000000E+00 -0.2759874996287E-02
 0.1202437499278E-02 -0.8647196171767E-02  0.0000000000000E+00 -0.2594045833041E-02
 0.1390357437721E-02 -0.8701740434390E-02  0.0000000000000E+00 -0.2380594166196E-02
 0.1532639748232E-02 -0.8721090110874E-02  0.0000000000000E+00 -0.2145328469713E-02
 0.1633389254630E-02 -0.8711389266787E-02  0.0000000000000E+00 -0.1905531574669E-02
 0.1698497479232E-02 -0.8679163838819E-02  0.0000000000000E+00 -0.1670306785502E-02
 0.1733793527002E-02 -0.8629982527574E-02  0.0000000000000E+00 -0.1442715920491E-02
 0.1744180436437E-02 -0.8567978728547E-02  0.0000000000000E+00 -0.1222094737519E-02
 0.1733386035379E-02 -0.8495841327863E-02  0.0000000000000E+00 -0.1005899702129E-02
 0.1704021314668E-02 -0.8414987566441E-02  0.0000000000000E+00 -0.7910174153357E-03
 0.1657774989037E-02 -0.8325777305293E-02  0.0000000000000E+00 -0.5746838629981E-03
 0.1595683528898E-02 -0.8227734823311E-02  0.0000000000000E+00 -0.3551757997255E-03
 0.1518464404242E-02 -0.8119781728467E-02  0.0000000000000E+00 -0.1323237851449E-03
 0.1426922479279E-02 -0.8000517446772E-02  0.0000000000000E+00  0.9215358052980E-04
 0.1322394809435E-02 -0.7868541209440E-02  0.0000000000000E+00  0.3145886241133E-03
 0.1207126662700E-02 -0.7722741474254E-02  0.0000000000000E+00  0.5296803484666E-03
 0.1084503580644E-02 -0.7562594970906E-02  0.0000000000000E+00  0.7311915929408E-03
 0.9592157848802E-03 -0.7388864226535E-02  0.0000000000000E+00  0.9131890105733E-03
 0.8368699467445E-03 -0.7203514154670E-02  0.0000000000000E+00  0.1070642788485E-02
 0.7231429234936E-03 -0.7008482814990E-02  0.0000000000000E+00  0.1198489115727E-02
 0.6234014341724E-03 -0.6805048255835E-02  0.0000000000000E+00  0.1290504349222E-02
 0.5428748619950E-03 -0.6593985118567E-02  0.0000000000000E+00  0.1338586735190E-02
 0.4871494180394E-03 -0.6376072799303E-02  0.0000000000000E+00  0.1332465530685E-02
 0.4628087339959E-03 -0.6152704896465E-02  0.0000000000000E+00  0.1259868281295E-02
 0.4781077270025E-03 -0.5926491849871E-02  0.0000000000000E+00  0.1107161043905E-02
 0.5436219653025E-03 -0.5701842608368E-02  0.0000000000000E+00  0.8604852071126E-03
 0.6728318585953E-03 -0.5485531703117E-02  0.0000000000000E+00  0.5074843738646E-03
 0.8826373490987E-03 -0.5287104355364E-02  0.0000000000000E+00  0.3953811754942E-04
 0.1193867224695E-02 -0.5119096982677E-02  0.0000000000000E+00 -0.5454505263399E-03
 0.1631212919859E-02 -0.4997320806750E-02  0.0000000000000E+00 -0.1238278331124E-02
 0.2221627738251E-02 -0.4940299234703E-02  0.0000000000000E+00 -0.2011661158532E-02
 0.2990601445891E-02 -0.4966727390595E-02  0.0000000000000E+00 -0.2813605157883E-02
 0.3955715696261E-02 -0.5090634570939E-02  0.0000000000000E+00 -0.3562854446891E-02
 0.5117667845804E-02 -0.5314366616635E-02  0.0000000000000E+00 -0.4150127370690E-02
 0.6450636413237E-02 -0.5620845645063E-02  0.0000000000000E+00 -0.4449309306997E-02
 0.7895662825041E-02 -0.5968322297073E-02  0.0000000000000E+00 -0.4340844346725E-02
 0.9361458037974E-02 -0.6290791432944E-02  0.0000000000000E+00 -0.3742256960630E-02
 0.1074005687829E-01 -0.6509853618283E-02  0.0000000000000E+00 -0.2627536677212E-02
 0.1261743966014E-03 -0.7973539008996E-02  0.0000000000000E+00 -0.2609443501304E-02
 0.3893017098817E-03 -0.8127932454946E-02  0.0000000000000E+00 -0.2742713999876E-02
 0.6598176211436E-03 -0.8275088048668E-02  0.0000000000000E+00 -0.2773990539795E-02
 0.9156254075772E-03 -0.8400186243194E-02  0.0000000000000E+00 -0.2709448274041E-02
 0.1139863824837E-02 -0.8493330906968E-02  0.0000000000000E+00 -0.2569902580866E-02
 0.1323608404704E-02 -0.8551140535096E-02  0.0000000000000E+00 -0.2381329632584E-02
 0.1464995155649E-02 -0.8575491426524E-02  0.0000000000000E+00 -0.2166895746717E-02
 0.1566688568938E-02 -0.8571128454938E-02  0.0000000000000E+00 -0.1943124588147E-02
 0.1633391040362E-02 -0.8543554724872E-02  0.0000000000000E+00 -0.1719571327439E-02
 0.1670131468863E-02 -0.8497728886180E-02  0.0000000000000E+00 -0.1500283923293E-02
 0.1681361441993E-02 -0.8437490475116E-02  0.0000000000000E+00 -0.1285690853187E-02
 0.1670615856588E-02 -0.8365437806309E-02  0.0000000000000E+00 -0.1074256133462E-02
 0.1640493615389E-02 -0.8283020468041E-02  0.0000000000000E+00 -0.8637370125485E-03
 0.1592803045844E-02 -0.8190712250713E-02  0.0000000000000E+00 -0.6521060142634E-03
 0.1528804591493E-02 -0.8088219786610E-02  0.0000000000000E+00 -0.4382465664932E-03
 0.1449522645589E-02 -0.7974713349165E-02  0.0000000000000E+00 -0.2224493312655E-03
 0.1356120553853E-02 -0.7849099875040E-02  0.0000000000000E+00 -0.6713165366795E-05
 0.1250296849824E-02 -0.7710322457641E-02  0.0000000000000E+00  0.2052143865988E-03
 0.1134606987773E-02 -0.7557616907348E-02  0.0000000000000E+00  0.4081212191250E-03
 0.1012660178690E-02 -0.7390779292974E-02  0.0000000000000E+00  0.5959327903835E-03
 0.8892762089550E-03 -0.7210813975352E-02  0.0000000000000E+00  0.7628280647856E-03
 0.7701620064669E-03 -0.7019871631504E-02  0.0000000000000E+00  0.9037503899970E-03
 0.6611811252467E-03 -0.6820140751718E-02  0.0000000000000E+00  0.1013485712497E-02
 0.5680390211680E-03 -0.6613296476291E-02  0.0000000000000E+00  0.1085662225486E-02
 0.4964478937378E-03 -0.6400663031710E-02  0.0000000000000E+00  0.1112193130895E-02
 0.4525638639643E-03 -0.6183684541270E-02  0.0000000000000E+00  0.1083122820392E-02
 0.4435474063835E-03 -0.5964483630959E-02  0.0000000000000E+00  0.9868932443750E-03
 0.4781465384241E-03 -0.5746411583844E-02  0.0000000000000E+00  0.8110639775194E-03
 0.5672376699752E-03 -0.5534566898746E-02  0.0000000000000E+00  0.5435343612011E-03
 0.7242595226888E-03 -0.5336263648590E-02  0.0000000000000E+00  0.1743601605054E-03
 0.9655100911499E-03 -0.5161289945344E-02  0.0000000000000E+00 -0.3019439126398E-03
 0.1310343180427E-02 -0.5021913891508E-02  0.0000000000000E+00 -0.8836448333287E-03
 0.1780698286179E-02 -0.4932816415577E-02  0.0000000000000E+00 -0.1557435949788E-02
 0.2399147328914E-02 -0.4910151895954E-02  0.0000000000000E+00 -0.2292751448241E-02
 0.3185135928876E-02 -0.4968873164356E-02  0.0000000000000E+00 -0.3036929929078E-02
 0.4149167168882E-02 -0.5118279929238E-02  0.0000000000000E+00 -0.3712977867055E-02
 0.5285448153059E-02 -0.5356194360872E-02  0.0000000000000E+00 -0.4222818532491E-02
 0.6564771537119E-02 -0.5663233067505E-02  0.0000000000000E+00 -0.4458831598076E-02
 0.7930765730222E-02 -0.5999693516681E-02  0.0000000000000E+00 -0.4323855965231E-02
 0.9301966401698E-02 -0.6307871780285E-02  0.0000000000000E+00 -0.3757800103889E-02
 0.1057815509679E-01 -0.6515162341101E-02  0.0000000000000E+00 -0.2746443289068E-02
 0.1192557225430E-03 -0.7843512585297E-02  0.0000000000000E+00 -0.2521696509956E-02
 0.3675746565874E-03 -0.7989798452005E-02  0.0000000000000E+00 -0.2658518149052E-02
 0.6230247397137E-03 -0.8130008678643E-02  0.0000000000000E+00 -0.2702823823054E-02
 0.8662134091031E-03 -0.8250986056408E-02  0.0000000000000E+00 -0.2658739554153E-02
 0.1081744238528E-02 -0.8343414859813E-02  0.0000000000000E+00 -0.2543057329629E-02
 0.1260722158146E-02 -0.8403379333308E-02  0.0000000000000E+00 -0.2377853204812E-02
 0.1400385008223E-02 -0.8431615128076E-02  0.0000000000000E+00 -0.2183783534750E-02
 0.1502211116028E-02 -0.8431667508828E-02  0.0000000000000E+00 -0.1976417964316E-02
 0.1569850781812E-02 -0.8408094976893E-02  0.0000000000000E+00 -0.1765470284917E-02
 0.1607578631216E-02 -0.8365245186272E-02  0.0000000000000E+00 -0.1555721067464E-02
 0.1619392057103E-02 -0.8306630568076E-02  0.0000000000000E+00 -0.1348518615690E-02
 0.1608613000305E-02 -0.8234723251080E-02  0.0000000000000E+00 -0.1143229879216E-02
 0.1577806628608E-02 -0.8150979795296E-02  0.0000000000000E+00 -0.9384182533968E-03
 0.1528881582693E-02 -0.8055974026155E-02  0.0000000000000E+00 -0.7327432212792E-03
 0.1463302720983E-02 -0.7949587650766E-02  0.0000000000000E+00 -0.5256449016433E-03
 0.1382377025155E-02 -0.7831231991812E-02  0.0000000000000E+00 -0.3178205727539E-03
 0.1287595307465E-02 -0.7700108262920E-02  0.0000000000000E+00 -0.1115000409485E-03
 0.1180984101780E-02 -0.7555484309973E-02  0.0000000000000E+00  0.8952261989889E-04
 0.1065382802429E-02 -0.7396923565333E-02  0.0000000000000E+00  0.2801374916484E-03
 0.9446140060434E-03 -0.7224527698236E-02  0.0000000000000E+00  0.4544369416940E-03
 0.8236339836681E-03 -0.7039539108011E-02  0.0000000000000E+00  0.6067248744980E-03
 0.7082637296787E-03 -0.6844297442769E-02  0.0000000000000E+00  0.7319567652057E-03
 0.6045562837823E-03 -0.6641241292913E-02  0.0000000000000E+00  0.8248437248905E-03
 0.5185344215255E-03 -0.6432429024409E-02  0.0000000000000E+00  0.8789657142347E-03
 0.4563438655811E-03 -0.6219703224968E-02  0.0000000000000E+00  0.8863542866966E-03
 0.4246354951785E-03 -0.6005123836642E-02  0.0000000000000E+00  0.8374602254079E-03
 0.4310472542042E-03 -0.5791473811526E-02  0.0000000000000E+00  0.7215103697009E-03
 0.4846943580871E-03 -0.5582749763297E-02  0.0000000000000E+00  0.5272972763923E-03
 0.5965968381209E-03 -0.5384606566700E-02  0.0000000000000E+00  0.2444618210571E-03
 0.7799633609094E-03 -0.5204718325931E-02  0.0000000000000E+00 -0.1346506815639E-03
 0.1050287358388E-02 -0.5052892339710E-02  0.0000000000000E+00 -0.6126989284650E-03
 0.1425281545914E-02 -0.4940886949788E-02  0.0000000000000E+00 -0.1184717240100E-02
 0.1924110988344E-02 -0.4882070178244E-02  0.0000000000000E+00 -0.1834258890003E-02
 0.2565249499744E-02 -0.4890237304000E-02  0.0000000000000E+00 -0.2528762255349E-02
 0.3362857556000E-02 -0.4976955380458E-02  0.0000000000000E+00 -0.3216236043396E-02
 0.4321677997738E-02 -0.5147590519822E-02  0.0000000000000E+00 -0.3824751394882E-02
 0.5431108118833E-02 -0.5396572160288E-02  0.0000000000000E+00 -0.4266917042692E-02
 0.6660153001814E-02 -0.5703256874762E-02  0.0000000000000E+00 -0.4450975080894E-02
 0.7955300032857E-02 -0.6030329864860E-02  0.0000000000000E+00 -0.4298261147861E-02
 0.9244759111112E-02 -0.6326858845686E-02  0.0000000000000E+00 -0.3762324328860E-02
 0.1043734169238E-01 -0.6531775793920E-02  0.0000000000000E+00 -0.2855848861735E-02
 0.1129845594595E-03 -0.7716781527383E-02  0.0000000000000E+00 -0.2438506489435E-02
 0.3478648472546E-03 -0.7855663648610E-02  0.0000000000000E+00 -0.2578419525304E-02
 0.5895303781252E-03 -0.7989363654140E-02  0.0000000000000E+00 -0.2634133769556E-02
 0.8208492873850E-03 -0.8106140800819E-02  0.0000000000000E+00 -0.2608251270437E-02
 0.1027766926846E-02 -0.8197267631136E-02  0.0000000000000E+00 -0.2514308518214E-02
 0.1201566663708E-02 -0.8258498933465E-02  0.0000000000000E+00 -0.2371039259978E-02
 0.1338843823190E-02 -0.8289678687541E-02  0.0000000000000E+00 -0.2196765605592E-02
 0.1440112035870E-02 -0.8293335153839E-02  0.0000000000000E+00 -0.2005994169139E-02
 0.1508104478413E-02 -0.8273170938623E-02  0.0000000000000E+00 -0.1808373965435E-02
 0.1546399277884E-02 -0.8232941253914E-02  0.0000000000000E+00 -0.1609200801660E-02
 0.1558550128858E-02 -0.8175815039811E-02  0.0000000000000E+00 -0.1410579188288E-02
 0.1547655166879E-02 -0.8104112877375E-02  0.0000000000000E+00 -0.1212669455149E-02
 0.1516228427702E-02 -0.8019276799143E-02  0.0000000000000E+00 -0.1014767426483E-02
 0.1466260058417E-02 -0.7921965930930E-02  0.0000000000000E+00 -0.8161624857239E-03
 0.1399398430714E-02 -0.7812226243009E-02  0.0000000000000E+00 -0.6167988214175E-03
 0.1317207725592E-02 -0.7689698423812E-02  0.0000000000000E+00 -0.4177295765415E-03
 0.1221476056404E-02 -0.7553862037804E-02  0.0000000000000E+00 -0.2213721906356E-03
 0.1114527265614E-02 -0.7404290054176E-02  0.0000000000000E+00 -0.3153899437144E-04
 0.9994612071131E-03 -0.7240854549350E-02  0.0000000000000E+00  0.1467747525498E-03
 0.8803038199396E-03 -0.7063949226650E-02  0.0000000000000E+00  0.3078357333081E-03
 0.7621513304051E-03 -0.6875049254959E-02  0.0000000000000E+00  0.4460889087843E-03
 0.6509466661336E-03 -0.6676683558668E-02  0.0000000000000E+00  0.5565399454878E-03
 0.5529300136134E-03 -0.6471537155397E-02  0.0000000000000E+00  0.6338929109091E-03
 0.4744177079113E-03 -0.6262034733484E-02  0.0000000000000E+00  0.6717669418406E-03
 0.4219401923845E-03 -0.6050503086988E-02  0.0000000000000E+00  0.6624001857469E-03
 0.4025705473804E-03 -0.5839565713595E-02  0.0000000000000E+00  0.5967229562933E-03
 0.4243295979019E-03 -0.5632593787330E-02  0.0000000000000E+00  0.4647932813333E-03
 0.4965830031913E-03 -0.5434132575649E-02  0.0000000000000E+00  0.2566420344385E-03
 0.6303554145279E-03 -0.5250265913556E-02  0.0000000000000E+00 -0.3641010411909E-04
 0.8384709364164E-03 -0.5088867966362E-02  0.0000000000000E+00 -0.4199022454414E-03
 0.1135471625832E-02 -0.4959582463891E-02  0.0000000000000E+00 -0.8940162897368E-03
 0.1537341703953E-02 -0.4873483808494E-02  0.0000000000000E+00 -0.1451147004065E-02
 0.2060537777332E-02 -0.4842533294620E-02  0.0000000000000E+00 -0.2072572113676E-02
 0.2719779505857E-02 -0.4878261883359E-02  0.0000000000000E+00 -0.2724782764355E-02
 0.3524674204607E-02 -0.4989238362700E-02  0.0000000000000E+00 -0.3357415105615E-02
 0.4475326086496E-02 -0.5177606198738E-02  0.0000000000000E+00 -0.3903989284659E-02
 0.5557665738396E-02 -0.5435304243600E-02  0.0000000000000E+00 -0.4287018458101E-02
 0.6739886737255E-02 -0.5741151100970E-02  0.0000000000000E+00 -0.4428370456621E-02
 0.7971982906407E-02 -0.6060366554160E-02  0.0000000000000E+00 -0.4264021783922E-02
 0.9188481708243E-02 -0.6347337534111E-02  0.0000000000000E+00 -0.3759730957799E-02
 0.1032079837726E-01 -0.6553749632057E-02  0.0000000000000E+00 -0.2931046751663E-02
 0.1072745809803E-03 -0.7592968088899E-02  0.0000000000000E+00 -0.2359501123107E-02
 0.3299208114422E-03 -0.7725045050838E-02  0.0000000000000E+00 -0.2502123685384E-02
 0.5589391160660E-03 -0.7852627309635E-02  0.0000000000000E+00 -0.2567923512558E-02
 0.7791040166987E-03 -0.7965179486679E-02  0.0000000000000E+00 -0.2558348278445E-02
 0.9775758187982E-03 -0.8054548588753E-02  0.0000000000000E+00 -0.2484295478225E-02
 0.1145914620139E-02 -0.8116309756697E-02  0.0000000000000E+00 -0.2361639087273E-02
 0.1280273679939E-02 -0.8149617390469E-02  0.0000000000000E+00 -0.2206560185364E-02
 0.1380392066464E-02 -0.8156145408887E-02  0.0000000000000E+00 -0.2032452769548E-02
 0.1448213348627E-02 -0.8138831442973E-02  0.0000000000000E+00 -0.1848733594446E-02
 0.1486682613060E-02 -0.8100868612465E-02  0.0000000000000E+00 -0.1661029978568E-02
 0.1498929278413E-02 -0.8045077770889E-02  0.0000000000000E+00 -0.1472051780054E-02
 0.1487823831222E-02 -0.7973610175814E-02  0.0000000000000E+00 -0.1282643512745E-02
 0.1455815500556E-02 -0.7887874675388E-02  0.0000000000000E+00 -0.1092755644908E-02
 0.1404958245627E-02 -0.7788600181338E-02  0.0000000000000E+00 -0.9022471938073E-03
 0.1337063091191E-02 -0.7675983443808E-02  0.0000000000000E+00 -0.7115140978043E-03
 0.1253926681860E-02 -0.7549880132976E-02  0.0000000000000E+00 -0.5219186502297E-03
 0.1157606618127E-02 -0.7410030997734E-02  0.0000000000000E+00 -0.3360282985187E-03
 0.1050697143929E-02 -0.7256295168403E-02  0.0000000000000E+00 -0.1576494148524E-03
 0.9365385710949E-03 -0.7088836070603E-02  0.0000000000000E+00  0.8349623041026E-05
 0.8193512004718E-03 -0.6908327064007E-02  0.0000000000000E+00  0.1564196205855E-03
 0.7043727992220E-03 -0.6716470608373E-02  0.0000000000000E+00  0.2811644564072E-03
 0.5976729229445E-03 -0.6515983824968E-02  0.0000000000000E+00  0.3776761302388E-03
 0.5056745052665E-03 -0.6309793242946E-02  0.0000000000000E+00  0.4407121010119E-03
 0.4349646541000E-03 -0.6100673098609E-02  0.0000000000000E+00  0.4640067035833E-03
 0.3924141233402E-03 -0.5891401951499E-02  0.0000000000000E+00  0.4400798050730E-03
 0.3854529461964E-03 -0.5685117625492E-02  0.0000000000000E+00  0.3604002165294E-03
 0.4224004032188E-03 -0.5485712100915E-02  0.0000000000000E+00  0.2158870238506E-03
 0.5127701821434E-03 -0.5298190719588E-02  0.0000000000000E+00 -0.2205362355123E-05
 0.6674739405469E-03 -0.5128953742587E-02  0.0000000000000E+00 -0.3009608608819E-03
 0.8988285527373E-03 -0.4985941497353E-02  0.0000000000000E+00 -0.6839947675498E-03
 0.1220321569938E-02 -0.4878492322472E-02  0.0000000000000E+00 -0.1149358115283E-02
 0.1646172638577E-02 -0.4816878085108E-02  0.0000000000000E+00 -0.1687349133790E-02
 0.2190237905341E-02 -0.4811619882883E-02  0.0000000000000E+00 -0.2277707667830E-02
 0.2863826318443E-02 -0.4872117691983E-02  0.0000000000000E+00 -0.2886804629122E-02
 0.3672632000044E-02 -0.5004306983417E-02  0.0000000000000E+00 -0.3466573816664E-02
 0.4613034597181E-02 -0.5207700934185E-02  0.0000000000000E+00 -0.3956118755599E-02
 0.5668471162307E-02 -0.5472429198269E-02  0.0000000000000E+00 -0.4287058282835E-02
 0.6807130927850E-02 -0.5777285917361E-02  0.0000000000000E+00 -0.4392986817893E-02
 0.7982135705103E-02 -0.6089908066575E-02  0.0000000000000E+00 -0.4221780857647E-02
 0.9135644264544E-02 -0.6369844934597E-02  0.0000000000000E+00 -0.3749103234500E-02
 0.1020843089471E-01 -0.6576620865180E-02  0.0000000000000E+00 -0.2987366059936E-02
 0.1020633115575E-03 -0.7471759901915E-02  0.0000000000000E+00 -0.2284331241598E-02
 0.3135452311418E-03 -0.7597576318320E-02  0.0000000000000E+00 -0.2429368522190E-02
 0.5309433956415E-03 -0.7719422847645E-02  0.0000000000000E+00 -0.2504173501992E-02
 0.7406460603995E-03 -0.7827794646217E-02  0.0000000000000E+00 -0.2509314052513E-02
 0.9309065195470E-03 -0.7915084137271E-02  0.0000000000000E+00 -0.2453536354776E-02
 0.1093620812416E-02 -0.7976794294147E-02  0.0000000000000E+00 -0.2350270790167E-02
 0.1224655489538E-02 -0.8011552565094E-02  0.0000000000000E+00 -0.2213755702159E-02
 0.1323136207477E-02 -0.8020321543159E-02  0.0000000000000E+00 -0.2056267586119E-02
 0.1390334922311E-02 -0.8005363817902E-02  0.0000000000000E+00 -0.1886871017523E-02
 0.1428629852163E-02 -0.7969349471724E-02  0.0000000000000E+00 -0.1711373282703E-02
 0.1440752536663E-02 -0.7914756995593E-02  0.0000000000000E+00 -0.1532953582739E-02
 0.1429348305207E-02 -0.7843558215943E-02  0.0000000000000E+00 -0.1353034482626E-02
 0.1396791819258E-02 -0.7757114037016E-02  0.0000000000000E+00 -0.1172141034067E-02
 0.1345184795638E-02 -0.7656208353396E-02  0.0000000000000E+00 -0.9906387570357E-03
 0.1276480474500E-02 -0.7541174032458E-02  0.0000000000000E+00 -0.8093221322811E-03
 0.1192683672452E-02 -0.7412065711320E-02  0.0000000000000E+00 -0.6298174189359E-03
 0.1096094901841E-02 -0.7268867165256E-02  0.0000000000000E+00 -0.4548070299671E-03
 0.9895537065230E-03 -0.7111704636084E-02  0.0000000000000E+00 -0.2880686230378E-03
 0.8766220213416E-03 -0.6941015757483E-02  0.0000000000000E+00 -0.1343305664916E-03
 0.7617047699265E-03 -0.6757740590911E-02  0.0000000000000E+00  0.1054169673304E-05
 0.6501799280484E-03 -0.6563801646690E-02  0.0000000000000E+00  0.1128676976865E-03
 0.5482444067271E-03 -0.6362100535501E-02  0.0000000000000E+00  0.1963227959067E-03
 0.4624962116489E-03 -0.6155797539583E-02  0.0000000000000E+00  0.2462845798467E-03
 0.3997691585641E-03 -0.5947997275993E-02  0.0000000000000E+00  0.2566686104992E-03
 0.3672310171486E-03 -0.5741895904496E-02  0.0000000000000E+00  0.2203389282061E-03
 0.3726070418328E-03 -0.5541095384390E-02  0.0000000000000E+00  0.1293464265326E-03
 0.4244370049950E-03 -0.5349941620239E-02  0.0000000000000E+00 -0.2451819150751E-04
 0.5322913474649E-03 -0.5173815414863E-02  0.0000000000000E+00 -0.2488159435662E-03
 0.7068698252035E-03 -0.5019331538967E-02  0.0000000000000E+00 -0.5491470639293E-03
 0.9598886827027E-03 -0.4894383578056E-02  0.0000000000000E+00 -0.9274181673555E-03
 0.1303718906701E-02 -0.4807896862648E-02  0.0000000000000E+00 -0.1379900678904E-02
 0.1750828384527E-02 -0.4769269042216E-02  0.0000000000000E+00 -0.1895304738056E-02
 0.2312623611722E-02 -0.4787597723060E-02  0.0000000000000E+00 -0.2452471814322E-02
 0.2997356135045E-02 -0.4870318288188E-02  0.0000000000000E+00 -0.3018306928795E-02
 0.3807393321023E-02 -0.5021085381693E-02  0.0000000000000E+00 -0.3547489493016E-02
 0.4736151573611E-02 -0.5237291283854E-02  0.0000000000000E+00 -0.3984645859536E-02
 0.5765358163099E-02 -0.5507796162993E-02  0.0000000000000E+00 -0.4269672030332E-02
 0.6863632041673E-02 -0.5811705544737E-02  0.0000000000000E+00 -0.4346175796122E-02
 0.7987374094002E-02 -0.6119014179125E-02  0.0000000000000E+00 -0.4171953512181E-02
 0.9084877213682E-02 -0.6393884286578E-02  0.0000000000000E+00 -0.3729141361997E-02
 0.1010394155629E-01 -0.6600765580791E-02  0.0000000000000E+00 -0.3029650463909E-02
 0.9729981936583E-04 -0.7352891199192E-02  0.0000000000000E+00 -0.2212679390903E-02
 0.2985758517807E-03 -0.7472945302582E-02  0.0000000000000E+00 -0.2359904185082E-02
 0.5052861723939E-03 -0.7589426345422E-02  0.0000000000000E+00 -0.2442828557995E-02
 0.7051904427207E-03 -0.7693713124771E-02  0.0000000000000E+00 -0.2461343948817E-02
 0.8875212640320E-03 -0.7778707619830E-02  0.0000000000000E+00 -0.2422433312633E-02
 0.1044542803574E-02 -0.7839916630187E-02  0.0000000000000E+00 -0.2337438669651E-02
 0.1171954298864E-02 -0.7875570924567E-02  0.0000000000000E+00 -0.2218849150941E-02
 0.1268403303068E-02 -0.7886045857431E-02  0.0000000000000E+00 -0.2077849170762E-02
 0.1334597149866E-02 -0.7873014813632E-02  0.0000000000000E+00 -0.1923069057019E-02
 0.1372413086176E-02 -0.7838668795442E-02  0.0000000000000E+00 -0.1760373257815E-02
 0.1384215596888E-02 -0.7785157201792E-02  0.0000000000000E+00 -0.1593289971518E-02
 0.1372432220919E-02 -0.7714268589833E-02  0.0000000000000E+00 -0.1423719285565E-02
 0.1339356727696E-02 -0.7627304744400E-02  0.0000000000000E+00 -0.1252681146389E-02
 0.1287124351814E-02 -0.7525090825693E-02  0.0000000000000E+00 -0.1080983546068E-02
 0.1217811001838E-02 -0.7408080689320E-02  0.0000000000000E+00 -0.9097663850793E-03
 0.1133606236845E-02 -0.7276511024840E-02  0.0000000000000E+00 -0.7408762218143E-03
 0.1037028250735E-02 -0.7130589956593E-02  0.0000000000000E+00 -0.5770773391462E-03
 0.9311383456107E-03 -0.6970691790250E-02  0.0000000000000E+00 -0.4220967709050E-03
 0.8197020657474E-03 -0.6797511206964E-02  0.0000000000000E+00 -0.2805088221976E-03
 0.7072984001275E-03 -0.6612241269879E-02  0.0000000000000E+00 -0.1574564735858E-03
 0.5994416900201E-03 -0.6417015593107E-02  0.0000000000000E+00 -0.5795941419706E-04
 0.5024536727240E-03 -0.6214914178957E-02  0.0000000000000E+00  0.1334822040155E-04
 0.4230972098816E-03 -0.6009320835002E-02  0.0000000000000E+00  0.5148734379376E-04
 0.3684281143864E-03 -0.5803649511568E-02  0.0000000000000E+00  0.5061111226393E-04
 0.3458696309928E-03 -0.5601478874493E-02  0.0000000000000E+00  0.3977994856325E-05
 0.3633848700232E-03 -0.5406825141612E-02  0.0000000000000E+00 -0.9574991629813E-04
 0.4296637143153E-03 -0.5224423611940E-02  0.0000000000000E+00 -0.2559168958067E-03
 0.5542543062378E-03 -0.5059952027063E-02  0.0000000000000E+00 -0.4829580249802E-03
 0.7475645099527E-03 -0.4920150089276E-02  0.0000000000000E+00 -0.7811210413516E-03
 0.1020643805191E-02 -0.4812772825557E-02  0.0000000000000E+00 -0.1150831129626E-02
 0.1384719633992E-02 -0.4746255919091E-02  0.0000000000000E+00 -0.1586923575984E-02
 0.1850558561174E-02 -0.4729089563754E-02  0.0000000000000E+00 -0.2076984314659E-02
 0.2427294847140E-02 -0.4769000886146E-02  0.0000000000000E+00 -0.2599499230206E-02
 0.3120470452981E-02 -0.4871643661633E-02  0.0000000000000E+00 -0.3122412309325E-02
 0.3929649188774E-02 -0.5038719934177E-02  0.0000000000000E+00 -0.3603422657975E-02
 0.4845921073569E-02 -0.5265933139384E-02  0.0000000000000E+00 -0.3992493865034E-02
 0.5849887317953E-02 -0.5541292407938E-02  0.0000000000000E+00 -0.4236964388669E-02
 0.6910940562032E-02 -0.5844440581944E-02  0.0000000000000E+00 -0.4289032268573E-02
 0.7988568365571E-02 -0.6147643467263E-02  0.0000000000000E+00 -0.4114454026292E-02
 0.9036213536789E-02 -0.6418863660223E-02  0.0000000000000E+00 -0.3700269630279E-02
 0.1000726848088E-01 -0.6626587523206E-02  0.0000000000000E+00 -0.3058278746569E-02
 0.9294229669770E-04 -0.7236133700906E-02  0.0000000000000E+00 -0.2144254897147E-02
 0.2848784883015E-03 -0.7350884414896E-02  0.0000000000000E+00 -0.2293492671815E-02
 0.4817516408432E-03 -0.7462357607022E-02  0.0000000000000E+00 -0.2383807405265E-02
 0.6724918081639E-03 -0.7562692141811E-02  0.0000000000000E+00 -0.2414564401568E-02
 0.8472071131168E-03 -0.7645261129985E-02  0.0000000000000E+00 -0.2391293201881E-02
 0.9985435346774E-03 -0.7705628241089E-02  0.0000000000000E+00 -0.2323549079507E-02
 0.1122124056728E-02 -0.7741731488789E-02  0.0000000000000E+00 -0.2222254609450E-02
 0.1216230848719E-02 -0.7753465611930E-02  0.0000000000000E+00 -0.2097547228465E-02
 0.1281102150945E-02 -0.7741994690337E-02  0.0000000000000E+00 -0.1957570496976E-02
 0.1318177787656E-02 -0.7709076669180E-02  0.0000000000000E+00 -0.1808148257929E-02
 0.1329488402861E-02 -0.7656550349608E-02  0.0000000000000E+00 -0.1653052910683E-02
 0.1317254679369E-02 -0.7586022134933E-02  0.0000000000000E+00 -0.1494568799313E-02
 0.1283686081112E-02 -0.7498726689389E-02  0.0000000000000E+00 -0.1334133462453E-02
 0.1230938966556E-02 -0.7395518012847E-02  0.0000000000000E+00 -0.1172934014161E-02
 0.1161193546377E-02 -0.7276955867370E-02  0.0000000000000E+00 -0.1012403547927E-02
 0.1076801814688E-02 -0.7143441717376E-02  0.0000000000000E+00 -0.8545668202337E-03
 0.9804757918314E-03 -0.6995389175957E-02  0.0000000000000E+00 -0.7022384340121E-03
 0.8754763479587E-03 -0.6833401624169E-02  0.0000000000000E+00 -0.5590733980447E-03
 0.7657552111484E-03 -0.6658413501014E-02  0.0000000000000E+00 -0.4294770999128E-03
 0.6560540885477E-03 -0.6471856366402E-02  0.0000000000000E+00 -0.3183676711594E-03
 0.5520177362377E-03 -0.6276064407368E-02  0.0000000000000E+00 -0.2305466183197E-03
 0.4600875775268E-03 -0.6074287819851E-02  0.0000000000000E+00 -0.1704651141129E-03
 0.3871792422562E-03 -0.5870121646718E-02  0.0000000000000E+00 -0.1429042485941E-03
 0.3405457684340E-03 -0.5667266767110E-02  0.0000000000000E+00 -0.1534260325922E-03
 0.3278266492708E-03 -0.5469649066121E-02  0.0000000000000E+00 -0.2083387097393E-03
 0.3571705045784E-03 -0.5281650527158E-02  0.0000000000000E+00 -0.3143530007658E-03
 0.4373552529564E-03 -0.5108335062417E-02  0.0000000000000E+00 -0.4779693826295E-03
 0.5778403703952E-03 -0.4955606357655E-02  0.0000000000000E+00 -0.7045707969035E-03
 0.7886802092313E-03 -0.4830252614445E-02  0.0000000000000E+00 -0.9971961240272E-03
 0.1080215947322E-02 -0.4739818699468E-02  0.0000000000000E+00 -0.1355019312882E-02
 0.1462533611041E-02 -0.4692201129600E-02  0.0000000000000E+00 -0.1771765901603E-02
 0.1944776584265E-02 -0.4694979980931E-02  0.0000000000000E+00 -0.2234311944551E-02
 0.2533998563666E-02 -0.4754589787601E-02  0.0000000000000E+00 -0.2721239880325E-02
 0.3233363056080E-02 -0.4875090377472E-02  0.0000000000000E+00 -0.3201911145959E-02
 0.4040091200185E-02 -0.5056529186897E-02  0.0000000000000E+00 -0.3637187786398E-02
 0.4943467386480E-02 -0.5293282083185E-02  0.0000000000000E+00 -0.3982101915546E-02
 0.5923415451124E-02 -0.5572827265900E-02  0.0000000000000E+00 -0.4190650326663E-02
 0.6950299316541E-02 -0.5875494119639E-02  0.0000000000000E+00 -0.4222346514366E-02
 0.7986450919756E-02 -0.6175639884897E-02  0.0000000000000E+00 -0.4049393843246E-02
 0.8989670630109E-02 -0.6444439574581E-02  0.0000000000000E+00 -0.3662601311891E-02
 0.9918061894048E-02 -0.6653778123328E-02  0.0000000000000E+00 -0.3073804177820E-02
 0.8895618065272E-04 -0.7121289552630E-02  0.0000000000000E+00 -0.2078789518194E-02
 0.2723414865857E-03 -0.7231162504343E-02  0.0000000000000E+00 -0.2229907069329E-02
 0.4601577524315E-03 -0.7337972759822E-02  0.0000000000000E+00 -0.2327009756092E-02
 0.6423384041109E-03 -0.7434515351492E-02  0.0000000000000E+00 -0.2369047538769E-02
 0.8097737255727E-03 -0.7514596144685E-02  0.0000000000000E+00 -0.2360344473340E-02
 0.9554927586487E-03 -0.7573872039950E-02  0.0000000000000E+00 -0.2308924329637E-02
 0.1075111127978E-02 -0.7610070972308E-02  0.0000000000000E+00 -0.2224311708912E-02
 0.1166638916878E-02 -0.7622698002474E-02  0.0000000000000E+00 -0.2115654061996E-02
 0.1229929536249E-02 -0.7612480929871E-02  0.0000000000000E+00 -0.1990578341997E-02
 0.1266045235865E-02 -0.7580790683797E-02  0.0000000000000E+00 -0.1854791418150E-02
 0.1276716842782E-02 -0.7529177298770E-02  0.0000000000000E+00 -0.1712219939171E-02
 0.1263971557992E-02 -0.7459069908249E-02  0.0000000000000E+00 -0.1565447465580E-02
 0.1229933504476E-02 -0.7371630772433E-02  0.0000000000000E+00 -0.1416255678354E-02
 0.1176769542721E-02 -0.7267731670157E-02  0.0000000000000E+00 -0.1266149379327E-02
 0.1106747150081E-02 -0.7148023584788E-02  0.0000000000000E+00 -0.1116804193823E-02
 0.1022359710421E-02 -0.7013055496472E-02  0.0000000000000E+00 -0.9703826356151E-03
 0.9264905697411E-03 -0.6863427699125E-02  0.0000000000000E+00 -0.8297194029933E-03
 0.8225791549522E-03 -0.6699953759562E-02  0.0000000000000E+00 -0.6983764431409E-03
 0.7147463903935E-03 -0.6523790399729E-02  0.0000000000000E+00 -0.5805747783860E-03
 0.6078846490489E-03 -0.6336592379810E-02  0.0000000000000E+00 -0.4809922306546E-03
 0.5077614302694E-03 -0.6140882513827E-02  0.0000000000000E+00 -0.4041925990069E-03
 0.4209306698102E-03 -0.5940071204837E-02  0.0000000000000E+00 -0.3544168064508E-03
 0.3544474029550E-03 -0.5737950791624E-02  0.0000000000000E+00 -0.3362114003383E-03
 0.3157375776484E-03 -0.5538485824845E-02  0.0000000000000E+00 -0.3548147745276E-03
 0.3126204844426E-03 -0.5345914581180E-02  0.0000000000000E+00 -0.4160733852726E-03
 0.3533833801406E-03 -0.5164938560388E-02  0.0000000000000E+00 -0.5260662818604E-03
 0.4468388246926E-03 -0.5000894262049E-02  0.0000000000000E+00 -0.6904833073080E-03
 0.6023039039464E-03 -0.4859848702714E-02  0.0000000000000E+00 -0.9137399334821E-03
 0.8294351172557E-03 -0.4748575395298E-02  0.0000000000000E+00 -0.1197816207024E-02
 0.1137845412905E-02 -0.4674356144737E-02  0.0000000000000E+00 -0.1540860824073E-02
 0.1536504999033E-02 -0.4644521871630E-02  0.0000000000000E+00 -0.1935792756710E-02
 0.2033031622493E-02 -0.4665763440758E-02  0.0000000000000E+00 -0.2369141684784E-02
 0.2632594862321E-02 -0.4743316454467E-02  0.0000000000000E+00 -0.2819956593360E-02
 0.3336288022443E-02 -0.4879830920696E-02  0.0000000000000E+00 -0.3259290994555E-02
 0.4139389316946E-02 -0.5073965061402E-02  0.0000000000000E+00 -0.3651215324870E-02
 0.5029801427975E-02 -0.5319065217693E-02  0.0000000000000E+00 -0.3955518187519E-02
 0.5987104317695E-02 -0.5602321792502E-02  0.0000000000000E+00 -0.4132121322442E-02
 0.6982734044421E-02 -0.5904827644434E-02  0.0000000000000E+00 -0.4146761936422E-02
 0.7981608125448E-02 -0.6202839911827E-02  0.0000000000000E+00 -0.3976889674419E-02
 0.8945260156835E-02 -0.6470277725185E-02  0.0000000000000E+00 -0.3616250227181E-02
 0.9835834746114E-02 -0.6681944238069E-02  0.0000000000000E+00 -0.3076663212193E-02
 0.8531268739542E-04 -0.7008185685514E-02  0.0000000000000E+00 -0.2016033869178E-02
 0.2608713354183E-03 -0.7113578206602E-02  0.0000000000000E+00 -0.2168930641369E-02
 0.4403501292297E-03 -0.7216058062636E-02  0.0000000000000E+00 -0.2272321529542E-02
 0.6145468843265E-03 -0.7308989155900E-02  0.0000000000000E+00 -0.2324822499676E-02
 0.7750509741328E-03 -0.7386573369783E-02  0.0000000000000E+00 -0.2329750983786E-02
 0.9152676490870E-03 -0.7444585129884E-02  0.0000000000000E+00 -0.2293814798447E-02
 0.1030856831834E-02 -0.7480607935974E-02  0.0000000000000E+00 -0.2225293759946E-02
 0.1119633324374E-02 -0.7493834296180E-02  0.0000000000000E+00 -0.2132408624856E-02
 0.1181139309705E-02 -0.7484621552416E-02  0.0000000000000E+00 -0.2022257004673E-02
 0.1216114807236E-02 -0.7453998257487E-02  0.0000000000000E+00 -0.1900370437169E-02
 0.1226024478358E-02 -0.7403249356456E-02  0.0000000000000E+00 -0.1770753650974E-02
 0.1212716912792E-02 -0.7333634334371E-02  0.0000000000000E+00 -0.1636213042940E-02
 0.1178231723808E-02 -0.7246240015541E-02  0.0000000000000E+00 -0.1498805848246E-02
 0.1124737278759E-02 -0.7141946239473E-02  0.0000000000000E+00 -0.1360295973746E-02
 0.1054572661706E-02 -0.7021481141139E-02  0.0000000000000E+00 -0.1222553024844E-02
 0.9703529140675E-03 -0.6885524235698E-02  0.0000000000000E+00 -0.1087838619462E-02
 0.8751115067698E-03 -0.6734843903034E-02  0.0000000000000E+00 -0.9589785635762E-03
 0.7724464496413E-03 -0.6570445135514E-02  0.0000000000000E+00 -0.8394210601342E-03
 0.6666312242635E-03 -0.6393689262045E-02  0.0000000000000E+00 -0.7331869697429E-03
 0.5626962286726E-03 -0.6206438216593E-02  0.0000000000000E+00 -0.6446981597193E-03
 0.4665226732773E-03 -0.6011390273995E-02  0.0000000000000E+00 -0.5782620028036E-03
 0.3847683089983E-03 -0.5812104582946E-02  0.0000000000000E+00 -0.5378845206236E-03
 0.3246134586265E-03 -0.5612555587199E-02  0.0000000000000E+00 -0.5278464421030E-03
 0.2936335621724E-03 -0.5416947861942E-02  0.0000000000000E+00 -0.5530314249074E-03
 0.2997943845796E-03 -0.5229798258562E-02  0.0000000000000E+00 -0.6188048001829E-03
 0.3514806880447E-03 -0.5056084441801E-02  0.0000000000000E+00 -0.7306191855354E-03
 0.4574950355296E-03 -0.4901364889757E-02  0.0000000000000E+00 -0.8933961907022E-03
 0.6269706204274E-03 -0.4771816094483E-02  0.0000000000000E+00 -0.1110675435733E-02
 0.8691375850814E-03 -0.4674146512197E-02  0.0000000000000E+00 -0.1383529469266E-02
 0.1192879260480E-02 -0.4615338799983E-02  0.0000000000000E+00 -0.1709298167640E-02
 0.1606094017740E-02 -0.4602151024161E-02  0.0000000000000E+00 -0.2080370321700E-02
 0.2114984106526E-02 -0.4640423297632E-02  0.0000000000000E+00 -0.2483243218128E-02
 0.2723029444261E-02 -0.4734294703563E-02  0.0000000000000E+00 -0.2897730065964E-02
 0.3429534953846E-02 -0.4885180691710E-02  0.0000000000000E+00 -0.3296767165578E-02
 0.4228179047852E-02 -0.5090582917867E-02  0.0000000000000E+00 -0.3647609172918E-02
 0.5105823906286E-02 -0.5343061687945E-02  0.0000000000000E+00 -0.3914469409260E-02
 0.6041948049904E-02 -0.5629698869860E-02  0.0000000000000E+00 -0.4062525121382E-02
 0.7009093819447E-02 -0.5932378699101E-02  0.0000000000000E+00 -0.4062811164994E-02
 0.7974511998273E-02 -0.6229070379822E-02  0.0000000000000E+00 -0.3897066615256E-02
 0.8902961482748E-02 -0.6496058243213E-02  0.0000000000000E+00 -0.3561326380091E-02
 0.9760077968042E-02 -0.6710665684340E-02  0.0000000000000E+00 -0.3067266774566E-02
 0.8198766261900E-04 -0.6896669247829E-02  0.0000000000000E+00 -0.1955754504274E-02
 0.2503891739658E-03 -0.6997954504590E-02  0.0000000000000E+00 -0.2110355895031E-02
 0.4221970982104E-03 -0.7096424711606E-02  0.0000000000000E+00 -0.2219618701625E-02
 0.5889578465161E-03 -0.7185939347238E-02  0.0000000000000E+00 -0.2281884270793E-02
 0.7428865774232E-03 -0.7261062128905E-02  0.0000000000000E+00 -0.2299623279248E-02
 0.8777528619106E-03 -0.7317700642082E-02  0.0000000000000E+00 -0.2278409406822E-02
 0.9892992457437E-03 -0.7353345998226E-02  0.0000000000000E+00 -0.2225415348502E-02
 0.1075208182246E-02 -0.7366943289481E-02  0.0000000000000E+00 -0.2148000850368E-02
 0.1134774398059E-02 -0.7358538099114E-02  0.0000000000000E+00 -0.2052734108889E-02
 0.1168466123618E-02 -0.7328858906178E-02  0.0000000000000E+00 -0.1944927945297E-02
 0.1177514282116E-02 -0.7278949944023E-02  0.0000000000000E+00 -0.1828601535111E-02
 0.1163604451481E-02 -0.7209910536763E-02  0.0000000000000E+00 -0.1706716439816E-02
 0.1128693962633E-02 -0.7122750843349E-02  0.0000000000000E+00 -0.1581542361438E-02
 0.1074945132324E-02 -0.7018350298748E-02  0.0000000000000E+00 -0.1455047261188E-02
 0.1004754334944E-02 -0.6897500853768E-02  0.0000000000000E+00 -0.1329248714336E-02
 0.9208398368956E-03 -0.6760996022738E-02  0.0000000000000E+00 -0.1206470721788E-02
 0.8263652577037E-03 -0.6609753995141E-02  0.0000000000000E+00 -0.1089502450836E-02
 0.7250681374941E-03 -0.6444952583519E-02  0.0000000000000E+00 -0.9816581062944E-03
 0.6213581765887E-03 -0.6268139859579E-02  0.0000000000000E+00 -0.8867424959520E-03
 0.5203906997804E-03 -0.6081368265796E-02  0.0000000000000E+00 -0.8089060446851E-03
 0.4281505622099E-03 -0.5887497355400E-02  0.0000000000000E+00 -0.7521820222659E-03
 0.3513895505480E-03 -0.5690222387290E-02  0.0000000000000E+00 -0.7203194841323E-03
 0.2973988432597E-03 -0.5493683835009E-02  0.0000000000000E+00 -0.7173068855345E-03
 0.2738812082925E-03 -0.5302302668498E-02  0.0000000000000E+00 -0.7476488321873E-03
 0.2889189313175E-03 -0.5120841950931E-02  0.0000000000000E+00 -0.8162180697265E-03
 0.3509589849285E-03 -0.4954515518549E-02  0.0000000000000E+00 -0.9278539130227E-03
 0.4687578848695E-03 -0.4809059000031E-02  0.0000000000000E+00 -0.1086758779287E-02
 0.6512349511085E-03 -0.4690713266094E-02  0.0000000000000E+00 -0.1295691523912E-02
 0.9071796660070E-03 -0.4606083381754E-02  0.0000000000000E+00 -0.1554965744869E-02
 0.1244759924243E-02 -0.4561831536436E-02  0.0000000000000E+00 -0.1861315609918E-02
 0.1670860187181E-02 -0.4564151234650E-02  0.0000000000000E+00 -0.2206847678546E-02
 0.2190384569084E-02 -0.4618082842669E-02  0.0000000000000E+00 -0.2578294309526E-02
 0.2805311092424E-02 -0.4726774858729E-02  0.0000000000000E+00 -0.2956468325867E-02
 0.3513410472304E-02 -0.4890571331596E-02  0.0000000000000E+00 -0.3316313329416E-02
 0.4307053048401E-02 -0.5106018813617E-02  0.0000000000000E+00 -0.3628196111498E-02
 0.5172332167046E-02 -0.5365088079419E-02  0.0000000000000E+00 -0.3860421316083E-02
 0.6088796300810E-02 -0.5654881050364E-02  0.0000000000000E+00 -0.3982820891531E-02
 0.7030083418041E-02 -0.5958068055315E-02  0.0000000000000E+00 -0.3970946126254E-02
 0.7965539271392E-02 -0.6254153472254E-02  0.0000000000000E+00 -0.3810054646318E-02
 0.8862723088711E-02 -0.6521471431064E-02  0.0000000000000E+00 -0.3497951414808E-02
 0.9690291107918E-02 -0.6739525498801E-02  0.0000000000000E+00 -0.3046019672378E-02
 0.7896066794826E-04 -0.6786603865473E-02  0.0000000000000E+00 -0.1897731547200E-02
 0.2408279905520E-03 -0.6884134251035E-02  0.0000000000000E+00 -0.2053983699722E-02
 0.4055856191114E-03 -0.6978904460980E-02  0.0000000000000E+00 -0.2168770166820E-02
 0.5654320042842E-03 -0.7065208072695E-02  0.0000000000000E+00 -0.2240200634092E-02
 0.7131438289435E-03 -0.7137939468219E-02  0.0000000000000E+00 -0.2270027844587E-02
 0.8428402263094E-03 -0.7193148883294E-02  0.0000000000000E+00 -0.2262844639803E-02
 0.9503744361400E-03 -0.7228276271505E-02  0.0000000000000E+00 -0.2224839322181E-02
 0.1033347915826E-02 -0.7242074149087E-02  0.0000000000000E+00 -0.2162576049130E-02
 0.1090862818083E-02 -0.7234328247535E-02  0.0000000000000E+00 -0.2082102701824E-02
 0.1123161015442E-02 -0.7205506370649E-02  0.0000000000000E+00 -0.1988482319938E-02
 0.1131270314570E-02 -0.7156436264373E-02  0.0000000000000E+00 -0.1885696121783E-02
 0.1116729003593E-02 -0.7088067727936E-02  0.0000000000000E+00 -0.1776801648870E-02
 0.1081415335794E-02 -0.7001334413025E-02  0.0000000000000E+00 -0.1664223832154E-02
 0.1027479246791E-02 -0.6897108006994E-02  0.0000000000000E+00 -0.1550083637730E-02
 0.9573613443382E-03 -0.6776231718832E-02  0.0000000000000E+00 -0.1436503475696E-02
 0.8738659285744E-03 -0.6639597067097E-02  0.0000000000000E+00 -0.1325835089052E-02
 0.7802679272663E-03 -0.6488254157759E-02  0.0000000000000E+00 -0.1220804565904E-02
 0.6804261828720E-03 -0.6323535194980E-02  0.0000000000000E+00 -0.1124572413467E-02
 0.5788705555651E-03 -0.6147156972794E-02  0.0000000000000E+00 -0.1040711646439E-02
 0.4808678735204E-03 -0.5961345244920E-02  0.0000000000000E+00 -0.9730861883862E-03
 0.3924958248155E-03 -0.5769105845194E-02  0.0000000000000E+00 -0.9254387159660E-03
 0.3205897455444E-03 -0.5574256611799E-02  0.0000000000000E+00 -0.9012417180169E-03
 0.2725372877489E-03 -0.5381087415693E-02  0.0000000000000E+00 -0.9041692431390E-03
 0.2561479081040E-03 -0.5194212350785E-02  0.0000000000000E+00 -0.9383284326762E-03
 0.2795939619674E-03 -0.5018610116704E-02  0.0000000000000E+00 -0.1008094547574E-02
 0.3513551199183E-03 -0.4859694369446E-02  0.0000000000000E+00 -0.1117712807444E-02
 0.4801140295311E-03 -0.4723338957555E-02  0.0000000000000E+00 -0.1270719705136E-02
 0.6745567915857E-03 -0.4615812507710E-02  0.0000000000000E+00 -0.1469188891244E-02
 0.9430304189271E-03 -0.4543589377931E-02  0.0000000000000E+00 -0.1712817564999E-02
 0.1293014359889E-02 -0.4513002673498E-02  0.0000000000000E+00 -0.1997921499167E-02
 0.1730447285860E-02 -0.4529701953809E-02  0.0000000000000E+00 -0.2316544347141E-02
 0.2259055636597E-02 -0.4597987342446E-02  0.0000000000000E+00 -0.2655878489246E-02
 0.2879493602189E-02 -0.4720122442011E-02  0.0000000000000E+00 -0.2997919174261E-02
 0.3588224496520E-02 -0.4895529312920E-02  0.0000000000000E+00 -0.3319690725822E-02
 0.4376556562134E-02 -0.5119972037338E-02  0.0000000000000E+00 -0.3594569125395E-02
 0.5230028190947E-02 -0.5384988563410E-02  0.0000000000000E+00 -0.3794627855124E-02
 0.6128374349459E-02 -0.5677789869593E-02  0.0000000000000E+00 -0.3893821170899E-02
 0.7046288013006E-02 -0.5981805018391E-02  0.0000000000000E+00 -0.3871559063624E-02
 0.7954987389016E-02 -0.6277909242519E-02  0.0000000000000E+00 -0.3715990611624E-02
 0.8824467667039E-02 -0.6546217760632E-02  0.0000000000000E+00 -0.3426267143061E-02
 0.9625996576904E-02 -0.6768119314230E-02  0.0000000000000E+00 -0.3013334855988E-02
 0.7621424940267E-04 -0.6677866555082E-02  0.0000000000000E+00 -0.1841756767785E-02
 0.2321303609123E-03 -0.6771976461464E-02  0.0000000000000E+00 -0.1999622492973E-02
 0.3904179323867E-03 -0.6863345923097E-02  0.0000000000000E+00 -0.2119639886234E-02
 0.5438469102996E-03 -0.6946651120082E-02  0.0000000000000E+00 -0.2199717669996E-02
 0.6856994760056E-03 -0.7017089114992E-02  0.0000000000000E+00 -0.2240994711099E-02
 0.8104282037816E-03 -0.7070857991763E-02  0.0000000000000E+00 -0.2247212297437E-02
 0.9140172598349E-03 -0.7105379197126E-02  0.0000000000000E+00 -0.2223683135079E-02
 0.9940288521947E-03 -0.7119258739953E-02  0.0000000000000E+00 -0.2176239220994E-02
 0.1049419521303E-02 -0.7112068095045E-02  0.0000000000000E+00 -0.2110423697340E-02
 0.1080245296877E-02 -0.7084050589361E-02  0.0000000000000E+00 -0.2031028808692E-02
 0.1087359316398E-02 -0.7035840938080E-02  0.0000000000000E+00 -0.1941955353018E-02
 0.1072167958034E-02 -0.6968250624376E-02  0.0000000000000E+00 -0.1846305755473E-02
 0.1036474217477E-02 -0.6882137968153E-02  0.0000000000000E+00 -0.1746608914937E-02
 0.9824103296776E-03 -0.6778360535322E-02  0.0000000000000E+00 -0.1645092051494E-02
 0.9124492209161E-03 -0.6657801005113E-02  0.0000000000000E+00 -0.1543942397974E-02
 0.8294651873400E-03 -0.6521433490611E-02  0.0000000000000E+00 -0.1445507020896E-02
 0.7368266651859E-03 -0.6370422539547E-02  0.0000000000000E+00 -0.1352423894561E-02
 0.6384963140624E-03 -0.6206236515027E-02  0.0000000000000E+00 -0.1267680835129E-02
 0.5391083698049E-03 -0.6030742799527E-02  0.0000000000000E+00 -0.1194603700736E-02
 0.4440275403727E-03 -0.5846322840489E-02  0.0000000000000E+00 -0.1136755493128E-02
 0.3594130379897E-03 -0.5656113128099E-02  0.0000000000000E+00 -0.1097573062250E-02
 0.2921728663106E-03 -0.5464039902627E-02  0.0000000000000E+00 -0.1080235016153E-02
 0.2497771072588E-03 -0.5274525523588E-02  0.0000000000000E+00 -0.1088082659640E-02
 0.2401229801211E-03 -0.5092354569678E-02  0.0000000000000E+00 -0.1124812251882E-02
 0.2714499948859E-03 -0.4922692817096E-02  0.0000000000000E+00 -0.1194301930838E-02
 0.3522466099966E-03 -0.4771121160229E-02  0.0000000000000E+00 -0.1300226379075E-02
 0.4911015118037E-03 -0.4643618550252E-02  0.0000000000000E+00 -0.1445511481042E-02
 0.6964578749375E-03 -0.4546452731774E-02  0.0000000000000E+00 -0.1631639200106E-02
 0.9762292375424E-03 -0.4485949920600E-02  0.0000000000000E+00 -0.1857824475389E-02
 0.1337243921294E-02 -0.4468116249903E-02  0.0000000000000E+00 -0.2120134760350E-02
 0.1784570031233E-02 -0.4498087487822E-02  0.0000000000000E+00 -0.2410742328141E-02
 0.2320876848192E-02 -0.4579488334898E-02  0.0000000000000E+00 -0.2717486504889E-02
 0.2945661369074E-02 -0.4713800364534E-02  0.0000000000000E+00 -0.3023684192648E-02
 0.3654280233176E-02 -0.4899658793082E-02  0.0000000000000E+00 -0.3308475453695E-02
 0.4437185479197E-02 -0.5132191859251E-02  0.0000000000000E+00 -0.3548124812151E-02
 0.5279526843398E-02 -0.5402628124521E-02  0.0000000000000E+00 -0.3718171216121E-02
 0.6161300159530E-02 -0.5698345978773E-02  0.0000000000000E+00 -0.3796224052577E-02
 0.7058192790764E-02 -0.6003491234837E-02  0.0000000000000E+00 -0.3764998652088E-02
 0.7943088011492E-02 -0.6300157754302E-02  0.0000000000000E+00 -0.3615021453388E-02
 0.8788098678901E-02 -0.6570008518848E-02  0.0000000000000E+00 -0.3346441602360E-02
 0.9566745746239E-02 -0.6796059736912E-02  0.0000000000000E+00 -0.2969641032249E-02
 0.7373334630054E-04 -0.6570345156368E-02  0.0000000000000E+00 -0.1787632026362E-02
 0.2242466093289E-03 -0.6661353223283E-02  0.0000000000000E+00 -0.1947087587565E-02
 0.3766087872283E-03 -0.6749611427621E-02  0.0000000000000E+00 -0.2072088520604E-02
 0.5240941516710E-03 -0.6830135498133E-02  0.0000000000000E+00 -0.2160364148486E-02
 0.6604417697414E-03 -0.6898400366628E-02  0.0000000000000E+00 -0.2212523737376E-02
 0.7804212071269E-03 -0.6950754230497E-02  0.0000000000000E+00 -0.2231566146927E-02
 0.8801618402451E-03 -0.6984625894776E-02  0.0000000000000E+00 -0.2222024560863E-02
 0.9572204483980E-03 -0.6998513504974E-02  0.0000000000000E+00 -0.2189059187617E-02
 0.1010447945161E-02 -0.6991814117643E-02  0.0000000000000E+00 -0.2137728428475E-02
 0.1039750345027E-02 -0.6964579481710E-02  0.0000000000000E+00 -0.2072540862617E-02
 0.1045832186048E-02 -0.6917273549405E-02  0.0000000000000E+00 -0.1997283128210E-02
 0.1029982630961E-02 -0.6850580819610E-02  0.0000000000000E+00 -0.1915059020013E-02
 0.9939335486991E-03 -0.6765286152624E-02  0.0000000000000E+00 -0.1828456085459E-02
 0.9397949557160E-03 -0.6662227428388E-02  0.0000000000000E+00 -0.1739765507304E-02
 0.8700611886991E-03 -0.6542315734721E-02  0.0000000000000E+00 -0.1651202625986E-02
 0.7876615499805E-03 -0.6406592962407E-02  0.0000000000000E+00 -0.1565079763714E-02
 0.6960411269459E-03 -0.6256321058435E-02  0.0000000000000E+00 -0.1483923269201E-02
 0.5992495826580E-03 -0.6093086524245E-02  0.0000000000000E+00 -0.1410530140048E-02
 0.5020100219648E-03 -0.5918889131229E-02  0.0000000000000E+00 -0.1347964291884E-02
 0.4097713199943E-03 -0.5736248091747E-02  0.0000000000000E+00 -0.1299474177764E-02
 0.3287626150955E-03 -0.5548414472554E-02  0.0000000000000E+00 -0.1268176855654E-02
 0.2659535520482E-03 -0.5359408308449E-02  0.0000000000000E+00 -0.1256941807706E-02
 0.2288831552577E-03 -0.5173767493811E-02  0.0000000000000E+00 -0.1268762516987E-02
 0.2255193037319E-03 -0.4996425287886E-02  0.0000000000000E+00 -0.1306915045456E-02
 0.2641492269054E-03 -0.4832708128570E-02  0.0000000000000E+00 -0.1374784782384E-02
 0.3532515801836E-03 -0.4688335333423E-02  0.0000000000000E+00 -0.1475502177746E-02
 0.5013081219581E-03 -0.4569363412482E-02  0.0000000000000E+00 -0.1611437948868E-02
 0.7165179856881E-03 -0.4482037946816E-02  0.0000000000000E+00 -0.1783571787499E-02
 0.1006379426063E-02 -0.4432528273060E-02  0.0000000000000E+00 -0.1990760351491E-02
 0.1377115120592E-02 -0.4426524570646E-02  0.0000000000000E+00 -0.2228974967956E-02
 0.1833002464211E-02 -0.4468686162332E-02  0.0000000000000E+00 -0.2490681747862E-02
 0.2375772005995E-02 -0.4562030032547E-02  0.0000000000000E+00 -0.2764520472926E-02
 0.3003918024713E-02 -0.4707354124892E-02  0.0000000000000E+00 -0.3035233427750E-02
 0.3711867053081E-02 -0.4902627941958E-02  0.0000000000000E+00 -0.3284083522858E-02
 0.4489386175953E-02 -0.5142467505653E-02  0.0000000000000E+00 -0.3490095454553E-02
 0.5321363870694E-02 -0.5417887911844E-02  0.0000000000000E+00 -0.3631994386020E-02
 0.6188098838378E-02 -0.5716469669345E-02  0.0000000000000E+00 -0.3690638274248E-02
 0.7066198885494E-02 -0.6023023686907E-02  0.0000000000000E+00 -0.3651582595433E-02
 0.7930018664650E-02 -0.6320721090162E-02  0.0000000000000E+00 -0.3507307572288E-02
 0.8753506692257E-02 -0.6592566957127E-02  0.0000000000000E+00 -0.3258672599026E-02
 0.9512121602552E-02 -0.6822978577247E-02  0.0000000000000E+00 -0.2915387341191E-02
 0.7150480921955E-04 -0.6463936182936E-02  0.0000000000000E+00 -0.1735168024150E-02
 0.2171333038450E-03 -0.6552147107016E-02  0.0000000000000E+00 -0.1896200586347E-02
 0.3640831398525E-03 -0.6637574352832E-02  0.0000000000000E+00 -0.2025974695323E-02
 0.5060769505214E-03 -0.6715537297459E-02  0.0000000000000E+00 -0.2122055066624E-02
 0.6372686959672E-03 -0.6781766980221E-02  0.0000000000000E+00 -0.2184589822147E-02
 0.7527288500341E-03 -0.6832762039056E-02  0.0000000000000E+00 -0.2215927635734E-02
 0.8487418082742E-03 -0.6865979150919E-02  0.0000000000000E+00 -0.2219906806869E-02
 0.9228862343409E-03 -0.6879840990609E-02  0.0000000000000E+00 -0.2201072485992E-02
 0.9739413142903E-03 -0.6873604859435E-02  0.0000000000000E+00 -0.2164021211882E-02
 0.1001694499371E-02 -0.6847160565956E-02  0.0000000000000E+00 -0.2112971588292E-02
 0.1006725342273E-02 -0.6800822109764E-02  0.0000000000000E+00 -0.2051569960568E-02
 0.9902195580937E-03 -0.6735158119361E-02  0.0000000000000E+00 -0.1982885001133E-02
 0.9538420812660E-03 -0.6650882294233E-02  0.0000000000000E+00 -0.1909523377737E-02
 0.8996767989506E-03 -0.6548807916902E-02  0.0000000000000E+00 -0.1833802459420E-02
 0.8302294144950E-03 -0.6429864083749E-02  0.0000000000000E+00 -0.1757932387715E-02
 0.7484701798718E-03 -0.6295146222050E-02  0.0000000000000E+00 -0.1684163133613E-02
 0.6579048206498E-03 -0.6145997066638E-02  0.0000000000000E+00 -0.1614887552006E-02
 0.5626537970610E-03 -0.5984103461840E-02  0.0000000000000E+00 -0.1552694717006E-02
 0.4675138584046E-03 -0.5811579350812E-02  0.0000000000000E+00 -0.1500372566756E-02
 0.3780043389974E-03 -0.5631063571447E-02  0.0000000000000E+00 -0.1460842282441E-02
 0.3004125837508E-03 -0.5445905380860E-02  0.0000000000000E+00 -0.1436888401338E-02
 0.2417589020784E-03 -0.5260203751131E-02  0.0000000000000E+00 -0.1431057862884E-02
 0.2096384820421E-03 -0.5078595295115E-02  0.0000000000000E+00 -0.1445983979261E-02
 0.2120746213405E-03 -0.4906141119871E-02  0.0000000000000E+00 -0.1484516549367E-02
 0.2573861796156E-03 -0.4748304095864E-02  0.0000000000000E+00 -0.1549555432029E-02
 0.3540283737470E-03 -0.4610916799574E-02  0.0000000000000E+00 -0.1643714440306E-02
 0.5103695274690E-03 -0.4500090971601E-02  0.0000000000000E+00 -0.1768863031979E-02
 0.7343711579527E-03 -0.4422035391005E-02  0.0000000000000E+00 -0.1925562294942E-02
 0.1033142137407E-02 -0.4382761306741E-02  0.0000000000000E+00 -0.2112423230944E-02
 0.1412351296515E-02 -0.4387661234827E-02  0.0000000000000E+00 -0.2325455291690E-02
 0.1875567891618E-02 -0.4440960665474E-02  0.0000000000000E+00 -0.2557559218421E-02
 0.2423698673815E-02 -0.4545137673356E-02  0.0000000000000E+00 -0.2798299820797E-02
 0.3054377498331E-02 -0.4700399581846E-02  0.0000000000000E+00 -0.3033920098244E-02
 0.3761255487915E-02 -0.4904158073358E-02  0.0000000000000E+00 -0.3247793570422E-02
 0.4533556432829E-02 -0.5150620572236E-02  0.0000000000000E+00 -0.3421576451520E-02
 0.5356003320506E-02 -0.5430662045275E-02  0.0000000000000E+00 -0.3536927774534E-02
 0.6209214863859E-02 -0.5732081597253E-02  0.0000000000000E+00 -0.3577603080160E-02
 0.7070636531336E-02 -0.6040297191793E-02  0.0000000000000E+00 -0.3531607638718E-02
 0.7915912782946E-02 -0.6339425328163E-02  0.0000000000000E+00 -0.3393025672857E-02
 0.8720575038276E-02 -0.6613629616837E-02  0.0000000000000E+00 -0.3163189499343E-02
 0.9461740075320E-02 -0.6848528303787E-02  0.0000000000000E+00 -0.2851046541385E-02
 0.6951700536968E-04 -0.6358543013164E-02  0.0000000000000E+00 -0.1684183304184E-02
 0.2107520183259E-03 -0.6444248987800E-02  0.0000000000000E+00 -0.1846788900049E-02
 0.3527742355633E-03 -0.6527116852919E-02  0.0000000000000E+00 -0.1981155998422E-02
 0.4897081113659E-03 -0.6602739807655E-02  0.0000000000000E+00 -0.2084694523327E-02
 0.6160863850424E-03 -0.6667086100911E-02  0.0000000000000E+00 -0.2157147251003E-02
 0.7272651739281E-03 -0.6716803923793E-02  0.0000000000000E+00 -0.2200290801340E-02
 0.8196903733539E-03 -0.6749394132287E-02  0.0000000000000E+00 -0.2217343070215E-02
 0.8909845267232E-03 -0.6763231083562E-02  0.0000000000000E+00 -0.2212286988914E-02
 0.9398837252598E-03 -0.6757462386766E-02  0.0000000000000E+00 -0.2189281855425E-02
 0.9660842917671E-03 -0.6731842418611E-02  0.0000000000000E+00 -0.2152255250744E-02
 0.9700619661500E-03 -0.6686554428465E-02  0.0000000000000E+00 -0.2104693697675E-02
 0.9529116990529E-03 -0.6622061822205E-02  0.0000000000000E+00 -0.2049600699693E-02
 0.9162355458257E-03 -0.6539009642848E-02  0.0000000000000E+00 -0.1989568080194E-02
 0.8620877854358E-03 -0.6438182171984E-02  0.0000000000000E+00 -0.1926906108616E-02
 0.7929761673304E-03 -0.6320516700849E-02  0.0000000000000E+00 -0.1863789889584E-02
 0.7118986526890E-03 -0.6187148494630E-02  0.0000000000000E+00 -0.1802381986521E-02
 0.6224063405422E-03 -0.6039484884429E-02  0.0000000000000E+00 -0.1744921651417E-02
 0.5286748300167E-03 -0.5879295497063E-02  0.0000000000000E+00 -0.1693774098667E-02
 0.4355595744643E-03 -0.5708790257573E-02  0.0000000000000E+00 -0.1651438151612E-02
 0.3486367380422E-03 -0.5530709368271E-02  0.0000000000000E+00 -0.1620495973812E-02
 0.2742401604052E-03 -0.5348483709233E-02  0.0000000000000E+00 -0.1603388027665E-02
 0.2194300316436E-03 -0.5166276227976E-02  0.0000000000000E+00 -0.1602326870692E-02
 0.1918457257767E-03 -0.4988805710897E-02  0.0000000000000E+00 -0.1619575513981E-02
 0.1995525547667E-03 -0.4821241325888E-02  0.0000000000000E+00 -0.1657553878803E-02
 0.2508880654187E-03 -0.4669160295180E-02  0.0000000000000E+00 -0.1718685286458E-02
 0.3542749312620E-03 -0.4538486735320E-02  0.0000000000000E+00 -0.1805094508998E-02
 0.5179672922961E-03 -0.4435370061108E-02  0.0000000000000E+00 -0.1918200716080E-02
 0.7497019892569E-03 -0.4365973496133E-02  0.0000000000000E+00 -0.2058223029281E-02
 0.1056230779022E-02 -0.4336155402193E-02  0.0000000000000E+00 -0.2223627311225E-02
 0.1442725217277E-02 -0.4351034761336E-02  0.0000000000000E+00 -0.2410577794485E-02
 0.1912130274511E-02 -0.4414449568874E-02  0.0000000000000E+00 -0.2612528277861E-02
 0.2464639532506E-02 -0.4528407639520E-02  0.0000000000000E+00 -0.2820068410205E-02
 0.3097157044535E-02 -0.4692612920671E-02  0.0000000000000E+00 -0.3020994954014E-02
 0.3802693811887E-02 -0.4904015041490E-02  0.0000000000000E+00 -0.3200767336313E-02
 0.4570046993663E-02 -0.5156499297084E-02  0.0000000000000E+00 -0.3343549809963E-02
 0.5383844277508E-02 -0.5440855453293E-02  0.0000000000000E+00 -0.3433711142448E-02
 0.6225022443160E-02 -0.5745103628253E-02  0.0000000000000E+00 -0.3457604129897E-02
 0.7071776037106E-02 -0.6055206597313E-02  0.0000000000000E+00 -0.3405357520703E-02
 0.7900868323024E-02 -0.6356102477348E-02  0.0000000000000E+00 -0.3272370871719E-02
 0.8689184747173E-02 -0.6632947717808E-02  0.0000000000000E+00 -0.3060253845633E-02
 0.9415250785635E-02 -0.6872383240546E-02  0.0000000000000E+00 -0.2777117125622E-02
 0.6775949310028E-04 -0.6254074359271E-02  0.0000000000000E+00 -0.1634503462436E-02
 0.2050683082426E-03 -0.6337556201583E-02  0.0000000000000E+00 -0.1798685361499E-02
 0.3426220037564E-03 -0.6418127913613E-02  0.0000000000000E+00 -0.1937489785306E-02
 0.4749082626135E-03 -0.6491631858113E-02  0.0000000000000E+00 -0.2048178077779E-02
 0.5968076896417E-03 -0.6554257242599E-02  0.0000000000000E+00 -0.2130133340245E-02
 0.7039478795877E-03 -0.6602800232704E-02  0.0000000000000E+00 -0.2184626497940E-02
 0.7929402697610E-03 -0.6634818877324E-02  0.0000000000000E+00 -0.2214320586447E-02
 0.8614689546703E-03 -0.6648661995900E-02  0.0000000000000E+00 -0.2222685243473E-02
 0.9082510384636E-03 -0.6643393518927E-02  0.0000000000000E+00 -0.2213468069884E-02
 0.9329155117722E-03 -0.6618655963054E-02  0.0000000000000E+00 -0.2190308786997E-02
 0.9358531131571E-03 -0.6574519361507E-02  0.0000000000000E+00 -0.2156520283191E-02
 0.9180795368088E-03 -0.6511351907847E-02  0.0000000000000E+00 -0.2115016724720E-02
 0.8811377253183E-03 -0.6429732523181E-02  0.0000000000000E+00 -0.2068346414358E-02
 0.8270491494329E-03 -0.6330412463307E-02  0.0000000000000E+00 -0.2018783643965E-02
 0.7583148729536E-03 -0.6214327908770E-02  0.0000000000000E+00 -0.1968442129597E-02
 0.6779480268824E-03 -0.6082640765015E-02  0.0000000000000E+00 -0.1919374589892E-02
 0.5895304744900E-03 -0.5936807170065E-02  0.0000000000000E+00 -0.1873648429031E-02
 0.4972777870150E-03 -0.5778662214625E-02  0.0000000000000E+00 -0.1833390365819E-02
 0.4060894626023E-03 -0.5610493682715E-02  0.0000000000000E+00 -0.1800797991212E-02
 0.3215849982256E-03 -0.5435124833239E-02  0.0000000000000E+00 -0.1778103728763E-02
 0.2501331175933E-03 -0.5256051521461E-02  0.0000000000000E+00 -0.1767393505626E-02
 0.1988233956745E-03 -0.5077485714611E-02  0.0000000000000E+00 -0.1770534987122E-02
 0.1753282551301E-03 -0.4904212188232E-02  0.0000000000000E+00 -0.1789412494679E-02
 0.1877433733541E-03 -0.4741489447738E-02  0.0000000000000E+00 -0.1826014179555E-02
 0.2444149335384E-03 -0.4594989030179E-02  0.0000000000000E+00 -0.1882296636135E-02
 0.3537280230463E-03 -0.4470708041526E-02  0.0000000000000E+00 -0.1959922069826E-02
 0.5238268900303E-03 -0.4374820283860E-02  0.0000000000000E+00 -0.2059906235450E-02
 0.7622421768182E-03 -0.4313439784550E-02  0.0000000000000E+00 -0.2182194922839E-02
 0.1075405965623E-02 -0.4292282581520E-02  0.0000000000000E+00 -0.2325196845533E-02
 0.1468052627230E-02 -0.4316222858256E-02  0.0000000000000E+00 -0.2485330684265E-02
 0.1942586957741E-02 -0.4388759973232E-02  0.0000000000000E+00 -0.2656701436846E-02
 0.2498595349545E-02 -0.4511499151219E-02  0.0000000000000E+00 -0.2831002414407E-02
 0.3132371878022E-02 -0.4683722473998E-02  0.0000000000000E+00 -0.2997620074149E-02
 0.3836405814942E-02 -0.4902002463236E-02  0.0000000000000E+00 -0.3144068057647E-02
 0.4599163480936E-02 -0.5159974259204E-02  0.0000000000000E+00 -0.3256904300636E-02
 0.5405226892016E-02 -0.5448382456439E-02  0.0000000000000E+00 -0.3323011750774E-02
 0.6235834297592E-02 -0.5755459761430E-02  0.0000000000000E+00 -0.3331086292489E-02
 0.7069836983535E-02 -0.6067648769353E-02  0.0000000000000E+00 -0.3273109177773E-02
 0.7884955104164E-02 -0.6370592346320E-02  0.0000000000000E+00 -0.3145557999912E-02
 0.8659218779669E-02 -0.6650288568381E-02  0.0000000000000E+00 -0.2950159122627E-02
 0.9372337608036E-02 -0.6894240679798E-02  0.0000000000000E+00 -0.2694124660550E-02
 0.6622275148521E-04 -0.6150442966732E-02  0.0000000000000E+00 -0.1585960536193E-02
 0.2000508589844E-03 -0.6231970980962E-02  0.0000000000000E+00 -0.1751727930194E-02
 0.3335717101087E-03 -0.6310501689005E-02  0.0000000000000E+00 -0.1894833846565E-02
 0.4616043490774E-03 -0.6382106364685E-02  0.0000000000000E+00 -0.2012394707359E-02
 0.5793509196874E-03 -0.6443181342344E-02  0.0000000000000E+00 -0.2103471512462E-02
 0.6826975853598E-03 -0.6490668867284E-02  0.0000000000000E+00 -0.2168886046123E-02
 0.7684236181360E-03 -0.6522194630049E-02  0.0000000000000E+00 -0.2210804222878E-02
 0.8342888379625E-03 -0.6536101057347E-02  0.0000000000000E+00 -0.2232227528655E-02
 0.8790116080066E-03 -0.6531390879009E-02  0.0000000000000E+00 -0.2236517754494E-02
 0.9021741251942E-03 -0.6507615615104E-02  0.0000000000000E+00 -0.2227033290540E-02
 0.9040987029694E-03 -0.6464747955117E-02  0.0000000000000E+00 -0.2206904525755E-02
 0.8857320745937E-03 -0.6403070144952E-02  0.0000000000000E+00 -0.2178937459294E-02
 0.8485614353260E-03 -0.6323097414832E-02  0.0000000000000E+00 -0.2145613185190E-02
 0.7945723965210E-03 -0.6225544237685E-02  0.0000000000000E+00 -0.2109145424382E-02
 0.7262510695096E-03 -0.6111336810642E-02  0.0000000000000E+00 -0.2071563623541E-02
 0.6466138070484E-03 -0.5981650937588E-02  0.0000000000000E+00 -0.2034790886802E-02
 0.5592591944556E-03 -0.5837976155267E-02  0.0000000000000E+00 -0.2000706481391E-02
 0.4684280449587E-03 -0.5682195945294E-02  0.0000000000000E+00 -0.1971185410707E-02
 0.3790495137615E-03 -0.5516657928044E-02  0.0000000000000E+00 -0.1948113036212E-02
 0.2967730997173E-03 -0.5344250124877E-02  0.0000000000000E+00 -0.1933362368718E-02
 0.2279909615723E-03 -0.5168516715081E-02  0.0000000000000E+00 -0.1928655344695E-02
 0.1798119053656E-03 -0.4993703814428E-02  0.0000000000000E+00 -0.1935505319477E-02
 0.1599310980150E-03 -0.4824646411747E-02  0.0000000000000E+00 -0.1955410843238E-02
 0.1764645604914E-03 -0.4666674658466E-02  0.0000000000000E+00 -0.1989927476911E-02
 0.2377596564842E-03 -0.4525536252695E-02  0.0000000000000E+00 -0.2040554879505E-02
 0.3521624078619E-03 -0.4407285574793E-02  0.0000000000000E+00 -0.2108517089196E-02
 0.5277157886857E-03 -0.4318111256085E-02  0.0000000000000E+00 -0.2194468278980E-02
 0.7717673422967E-03 -0.4264078833765E-02  0.0000000000000E+00 -0.2298140822806E-02
 0.1090471046075E-02 -0.4250776985707E-02  0.0000000000000E+00 -0.2417961574543E-02
 0.1488186691923E-02 -0.4282867392417E-02  0.0000000000000E+00 -0.2550687085647E-02
 0.1966862592416E-02 -0.4363561239442E-02  0.0000000000000E+00 -0.2691153390291E-02
 0.2525579301553E-02 -0.4494127374582E-02  0.0000000000000E+00 -0.2832218608871E-02
 0.3160131069746E-02 -0.4673502118545E-02  0.0000000000000E+00 -0.2964881997332E-02
 0.3862589415466E-02 -0.4897956416831E-02  0.0000000000000E+00 -0.3078677019748E-02
 0.4621168423969E-02 -0.5160935171305E-02  0.0000000000000E+00 -0.3162452877137E-02
 0.5420437675797E-02 -0.5453165885209E-02  0.0000000000000E+00 -0.3205439546187E-02
 0.6241909076414E-02 -0.5763077082927E-02  0.0000000000000E+00 -0.3198464052091E-02
 0.7064995924454E-02 -0.6077524397370E-02  0.0000000000000E+00 -0.3135137571875E-02
 0.7868221027849E-02 -0.6382744305480E-02  0.0000000000000E+00 -0.3012822246974E-02
 0.8630565684008E-02 -0.6665436950403E-02  0.0000000000000E+00 -0.2833229959220E-02
 0.9332719207470E-02 -0.6913822004721E-02  0.0000000000000E+00 -0.2602622632978E-02
 0.6489795610160E-04 -0.6047564504953E-02  0.0000000000000E+00 -0.1538392537364E-02
 0.1956707752135E-03 -0.6127399121297E-02  0.0000000000000E+00 -0.1705759475525E-02
 0.3255728216227E-03 -0.6204136071779E-02  0.0000000000000E+00 -0.1853046973593E-02
 0.4497283383729E-03 -0.6274059052184E-02  0.0000000000000E+00 -0.1977228447290E-02
 0.5636387203154E-03 -0.6333759884913E-02  0.0000000000000E+00 -0.2077073905257E-02
 0.6634371224671E-03 -0.6380324949551E-02  0.0000000000000E+00 -0.2153004390427E-02
 0.7460717271902E-03 -0.6411456042482E-02  0.0000000000000E+00 -0.2206739663838E-02
 0.8093894440556E-03 -0.6425505334832E-02  0.0000000000000E+00 -0.2240854641680E-02
 0.8521268675529E-03 -0.6421433770601E-02  0.0000000000000E+00 -0.2258351142786E-02
 0.8738370522620E-03 -0.6398720275385E-02  0.0000000000000E+00 -0.2262315447891E-02
 0.8747883832534E-03 -0.6357254461137E-02  0.0000000000000E+00 -0.2255690864632E-02
 0.8558677199997E-03 -0.6297241087804E-02  0.0000000000000E+00 -0.2241161231220E-02
 0.8185093981285E-03 -0.6219133925408E-02  0.0000000000000E+00 -0.2221121424109E-02
 0.7646601599480E-03 -0.6123607083450E-02  0.0000000000000E+00 -0.2197704134647E-02
 0.6967832512325E-03 -0.6011568267113E-02  0.0000000000000E+00 -0.2172835088944E-02
 0.6178867874954E-03 -0.5884194848142E-02  0.0000000000000E+00 -0.2148290704317E-02
 0.5315725174178E-03 -0.5742994712727E-02  0.0000000000000E+00 -0.2125747854744E-02
 0.4420921489543E-03 -0.5589882907432E-02  0.0000000000000E+00 -0.2106818124304E-02
 0.3543903614500E-03 -0.5427248993226E-02  0.0000000000000E+00 -0.2093064851468E-02
 0.2741335058768E-03 -0.5258027519489E-02  0.0000000000000E+00 -0.2085993025091E-02
 0.2077259199255E-03 -0.5085794389715E-02  0.0000000000000E+00 -0.2086952052055E-02
 0.1622858462879E-03 -0.4914815130703E-02  0.0000000000000E+00 -0.2097092436791E-02
 0.1455216771848E-03 -0.4749959588821E-02  0.0000000000000E+00 -0.2117520799394E-02
 0.1655612139914E-03 -0.4596612827258E-02  0.0000000000000E+00 -0.2149359797935E-02
 0.2307478086349E-03 -0.4460582227975E-02  0.0000000000000E+00 -0.2193661215620E-02
 0.3493899843275E-03 -0.4347966192102E-02  0.0000000000000E+00 -0.2251232457369E-02
 0.5294416815169E-03 -0.4264961788131E-02  0.0000000000000E+00 -0.2322402161510E-02
 0.7780942128877E-03 -0.4217590369315E-02  0.0000000000000E+00 -0.2406739975186E-02
 0.1101268243554E-02 -0.4211331741367E-02  0.0000000000000E+00 -0.2502753475145E-02
 0.1503013325575E-02 -0.4250670059858E-02  0.0000000000000E+00 -0.2607605049501E-02
 0.1984904158622E-02 -0.4338579734650E-02  0.0000000000000E+00 -0.2716925103529E-02
 0.2545612476832E-02 -0.4476057786199E-02  0.0000000000000E+00 -0.2824782862895E-02
 0.3180534478465E-02 -0.4661766012387E-02  0.0000000000000E+00 -0.2923804147577E-02
 0.3881415895594E-02 -0.4891741345950E-02  0.0000000000000E+00 -0.3005508470321E-02
 0.4636283276332E-02 -0.5159288529317E-02  0.0000000000000E+00 -0.3060947795552E-02
 0.5429714099692E-02 -0.5455136595387E-02  0.0000000000000E+00 -0.3081559920753E-02
 0.6243457581929E-02 -0.5767886728338E-02  0.0000000000000E+00 -0.3060129948776E-02
 0.7057392806590E-02 -0.6084739644413E-02  0.0000000000000E+00 -0.2991719308062E-02
 0.7850697313011E-02 -0.6392418938792E-02  0.0000000000000E+00 -0.2874419157537E-02
 0.8603122725260E-02 -0.6678196477463E-02  0.0000000000000E+00 -0.2709820852689E-02
 0.9296149728765E-02 -0.6930873877864E-02  0.0000000000000E+00 -0.2503192705545E-02
 0.6377679029528E-04 -0.5945356618581E-02  0.0000000000000E+00 -0.1491643113773E-02
 0.1919009845556E-03 -0.6023748840526E-02  0.0000000000000E+00 -0.1660627633800E-02
 0.3185780467925E-03 -0.6098931462650E-02  0.0000000000000E+00 -0.1811989454766E-02
 0.4392161084918E-03 -0.6167387333600E-02  0.0000000000000E+00 -0.1942559783811E-02
 0.5495970782173E-03 -0.6225894100944E-02  0.0000000000000E+00 -0.2050843603397E-02
 0.6460908735888E-03 -0.6271680467849E-02  0.0000000000000E+00 -0.2136902845327E-02
 0.7258148559290E-03 -0.6302531279479E-02  0.0000000000000E+00 -0.2202056239724E-02
 0.7867121482720E-03 -0.6316822112260E-02  0.0000000000000E+00 -0.2248490433344E-02
 0.8275517926592E-03 -0.6313488905116E-02  0.0000000000000E+00 -0.2278872806374E-02
 0.8478728186453E-03 -0.6291954182915E-02  0.0000000000000E+00 -0.2296028915337E-02
 0.8479022737604E-03 -0.6252037230077E-02  0.0000000000000E+00 -0.2302714121447E-02
 0.8284750580518E-03 -0.6193872962506E-02  0.0000000000000E+00 -0.2301480484890E-02
 0.7909750103724E-03 -0.6117855655822E-02  0.0000000000000E+00 -0.2294622029278E-02
 0.7373069501044E-03 -0.6024615580436E-02  0.0000000000000E+00 -0.2284173926592E-02
 0.6699036007488E-03 -0.5915033745869E-02  0.0000000000000E+00 -0.2271942100510E-02
 0.5917537772261E-03 -0.5790277131152E-02  0.0000000000000E+00 -0.2259541920345E-02
 0.5064492382923E-03 -0.5651857260024E-02  0.0000000000000E+00 -0.2248435706305E-02
 0.4182385692126E-03 -0.5501704164645E-02  0.0000000000000E+00 -0.2239961520313E-02
 0.3320680717558E-03 -0.5342231597824E-02  0.0000000000000E+00 -0.2235352157461E-02
 0.2536079786823E-03 -0.5176402494883E-02  0.0000000000000E+00 -0.2235737046899E-02
 0.1892637492093E-03 -0.5007807969673E-02  0.0000000000000E+00 -0.2242085363158E-02
 0.1461536140099E-03 -0.4840718379496E-02  0.0000000000000E+00 -0.2255176907826E-02
 0.1319903760827E-03 -0.4680023472911E-02  0.0000000000000E+00 -0.2275720807143E-02
 0.1549063122253E-03 -0.4531147337675E-02  0.0000000000000E+00 -0.2304406537717E-02
 0.2232374771576E-03 -0.4399941995771E-02  0.0000000000000E+00 -0.2341845746368E-02
 0.3452589806759E-03 -0.4292538672521E-02  0.0000000000000E+00 -0.2388447238010E-02
 0.5288509074809E-03 -0.4215139073424E-02  0.0000000000000E+00 -0.2444243805721E-02
 0.7810781871474E-03 -0.4173727553400E-02  0.0000000000000E+00 -0.2508683488128E-02
 0.1107675403723E-02 -0.4173696262325E-02  0.0000000000000E+00 -0.2580404557765E-02
 0.1512447342253E-02 -0.4219388758156E-02  0.0000000000000E+00 -0.2657028507807E-02
 0.1996676962652E-02 -0.4313594529546E-02  0.0000000000000E+00 -0.2735028511013E-02
 0.2558720367912E-02 -0.4457101657203E-02  0.0000000000000E+00 -0.2809718675429E-02
 0.3193670491273E-02 -0.4648364474742E-02  0.0000000000000E+00 -0.2875358578131E-02
 0.3893029550000E-02 -0.4883246947250E-02  0.0000000000000E+00 -0.2925423139519E-02
 0.4644690295633E-02 -0.5154955926056E-02  0.0000000000000E+00 -0.2953093866780E-02
 0.5433248492986E-02 -0.5454233262838E-02  0.0000000000000E+00 -0.2951904550468E-02
 0.6240647918120E-02 -0.5769824813844E-02  0.0000000000000E+00 -0.2916461470569E-02
 0.7047136257438E-02 -0.6089207632739E-02  0.0000000000000E+00 -0.2843135275888E-02
 0.7832402849802E-02 -0.6399489559136E-02  0.0000000000000E+00 -0.2730624094443E-02
 0.8576798586242E-02 -0.6688390903601E-02  0.0000000000000E+00 -0.2580314517697E-02
 0.9262419526915E-02 -0.6945169449151E-02  0.0000000000000E+00 -0.2396444459659E-02
 0.6285128720943E-04 -0.5843738115179E-02  0.0000000000000E+00 -0.1445561314866E-02
 0.1887157363327E-03 -0.5920929805208E-02  0.0000000000000E+00 -0.1616184730084E-02
 0.3125425230538E-03 -0.5994789714429E-02  0.0000000000000E+00 -0.1771523521851E-02
 0.4300064917386E-03 -0.6061989334231E-02  0.0000000000000E+00 -0.1908266852481E-02
 0.5371544453219E-03 -0.6119484246171E-02  0.0000000000000E+00 -0.2024676562894E-02
 0.6305841605469E-03 -0.6164643927118E-02  0.0000000000000E+00 -0.2120491492977E-02
 0.7075819547058E-03 -0.6195342062762E-02  0.0000000000000E+00 -0.2196669441700E-02
 0.7661945203232E-03 -0.6209989269747E-02  0.0000000000000E+00 -0.2255044108168E-02
 0.8052352610543E-03 -0.6207511015087E-02  0.0000000000000E+00 -0.2297973511792E-02
 0.8242420957532E-03 -0.6187287658949E-02  0.0000000000000E+00 -0.2328035619722E-02
 0.8234116018789E-03 -0.6149079505340E-02  0.0000000000000E+00 -0.2347800219105E-02
 0.8035335206761E-03 -0.6092958463096E-02  0.0000000000000E+00 -0.2359681937530E-02
 0.7659430100084E-03 -0.6019260977570E-02  0.0000000000000E+00 -0.2365863389530E-02
 0.7124998024898E-03 -0.5928570056672E-02  0.0000000000000E+00 -0.2368269533553E-02
 0.6455986157813E-03 -0.5821732066785E-02  0.0000000000000E+00 -0.2368573704451E-02
 0.5681982126581E-03 -0.5699891967858E-02  0.0000000000000E+00 -0.2368218573609E-02
 0.4838675416716E-03 -0.5564550527237E-02  0.0000000000000E+00 -0.2368441892697E-02
 0.3968383256672E-03 -0.5417636428507E-02  0.0000000000000E+00 -0.2370299772259E-02
 0.3120447885030E-03 -0.5261570029033E-02  0.0000000000000E+00 -0.2374687276600E-02
 0.2351482375109E-03 -0.5099324621196E-02  0.0000000000000E+00 -0.2382351816786E-02
 0.1725443789410E-03 -0.4934490118602E-02  0.0000000000000E+00 -0.2393875402293E-02
 0.1313422891691E-03 -0.4771327286953E-02  0.0000000000000E+00 -0.2409659814501E-02
 0.1192509636674E-03 -0.4614731176309E-02  0.0000000000000E+00 -0.2430011450649E-02
 0.1444008821266E-03 -0.4470149719992E-02  0.0000000000000E+00 -0.2455185980914E-02
 0.2151190480890E-03 -0.4343465698312E-02  0.0000000000000E+00 -0.2485360870903E-02
 0.3396532292846E-03 -0.4240833595710E-02  0.0000000000000E+00 -0.2520560369781E-02
 0.5258271045649E-03 -0.4168457968725E-02  0.0000000000000E+00 -0.2560544338149E-02
 0.7806113143558E-03 -0.4132295545474E-02  0.0000000000000E+00 -0.2604670536973E-02
 0.1109603350621E-02 -0.4137674040147E-02  0.0000000000000E+00 -0.2651745447632E-02
 0.1516429386667E-02 -0.4188834675276E-02  0.0000000000000E+00 -0.2699888914584E-02
 0.2002161512410E-02 -0.4288434007738E-02  0.0000000000000E+00 -0.2746451625025E-02
 0.2564930210920E-02 -0.4437112559845E-02  0.0000000000000E+00 -0.2788015671265E-02
 0.3199614407869E-02 -0.4633180865920E-02  0.0000000000000E+00 -0.2820477122382E-02
 0.3897547603587E-02 -0.4872385884161E-02  0.0000000000000E+00 -0.2839240646112E-02
 0.4646534209482E-02 -0.5147872897005E-02  0.0000000000000E+00 -0.2839560272460E-02
 0.5431191265027E-02 -0.5450402380717E-02  0.0000000000000E+00 -0.2816980792298E-02
 0.6233609666382E-02 -0.5768833313170E-02  0.0000000000000E+00 -0.2767826803251E-02
 0.7034307872496E-02 -0.6090849763686E-02  0.0000000000000E+00 -0.2689672581736E-02
 0.7813347787166E-02 -0.6403843578453E-02  0.0000000000000E+00 -0.2581731334196E-02
 0.8551515696792E-02 -0.6695865365205E-02  0.0000000000000E+00 -0.2445119973451E-02
 0.9231356053521E-02 -0.6956509570217E-02  0.0000000000000E+00 -0.2283014769270E-02
 0.6211369658828E-04 -0.5742628268670E-02  0.0000000000000E+00 -0.1400001447837E-02
 0.1860901786229E-03 -0.5818852295728E-02  0.0000000000000E+00 -0.1572287757549E-02
 0.3074231267165E-03 -0.5891613222287E-02  0.0000000000000E+00 -0.1731513761755E-02
 0.4220404513384E-03 -0.5957763038393E-02  0.0000000000000E+00 -0.1874226482196E-02
 0.5262409655869E-03 -0.6014428950871E-02  0.0000000000000E+00 -0.1998463283223E-02
 0.6168426793212E-03 -0.6059120004066E-02  0.0000000000000E+00 -0.2103671288257E-02
 0.6913003929115E-03 -0.6089803660874E-02  0.0000000000000E+00 -0.2190483164116E-02
 0.7477703487419E-03 -0.6104935568655E-02  0.0000000000000E+00 -0.2260412313938E-02
 0.7851203208545E-03 -0.6103443354251E-02  0.0000000000000E+00 -0.2315531941386E-02
 0.8028981356470E-03 -0.6084677734020E-02  0.0000000000000E+00 -0.2358186988553E-02
 0.8012792296981E-03 -0.6048350103948E-02  0.0000000000000E+00 -0.2390766875011E-02
 0.7810139482854E-03 -0.5994475437020E-02  0.0000000000000E+00 -0.2415546733930E-02
 0.7433900353463E-03 -0.5923333697599E-02  0.0000000000000E+00 -0.2434591015121E-02
 0.6902188153915E-03 -0.5835457225164E-02  0.0000000000000E+00 -0.2449705390289E-02
 0.6238496205811E-03 -0.5731650014787E-02  0.0000000000000E+00 -0.2462421031777E-02
 0.5472006478542E-03 -0.5613023686196E-02  0.0000000000000E+00 -0.2473998963600E-02
 0.4638054819067E-03 -0.5481054158310E-02  0.0000000000000E+00 -0.2485444538604E-02
 0.3778654701609E-03 -0.5337652675635E-02  0.0000000000000E+00 -0.2497525222498E-02
 0.2942892247396E-03 -0.5185228784227E-02  0.0000000000000E+00 -0.2510792548255E-02
 0.2187164551694E-03 -0.5026748228947E-02  0.0000000000000E+00 -0.2525606542474E-02
 0.1575223900262E-03 -0.4865783418794E-02  0.0000000000000E+00 -0.2542155840119E-02
 0.1177980557383E-03 -0.4706571247918E-02  0.0000000000000E+00 -0.2560457302924E-02
 0.1072408888938E-03 -0.4553997755620E-02  0.0000000000000E+00 -0.2580409490595E-02
 0.1339740874433E-03 -0.4413520089157E-02  0.0000000000000E+00 -0.2601833010233E-02
 0.2063149933565E-03 -0.4291038775895E-02  0.0000000000000E+00 -0.2624474975304E-02
 0.3324915568570E-03 -0.4192723186498E-02  0.0000000000000E+00 -0.2647984784981E-02
 0.5202901267082E-03 -0.4124780379782E-02  0.0000000000000E+00 -0.2671865219629E-02
 0.7766207094013E-03 -0.4093150346176E-02  0.0000000000000E+00 -0.2695405187068E-02
 0.1106993852492E-02 -0.4103120921410E-02  0.0000000000000E+00 -0.2717604594006E-02
 0.1514923616457E-02 -0.4158870066962E-02  0.0000000000000E+00 -0.2737107412453E-02
 0.2001351207058E-02 -0.4262973324111E-02  0.0000000000000E+00 -0.2752163931067E-02
 0.2564269077031E-02 -0.4415983797217E-02  0.0000000000000E+00 -0.2760638018664E-02
 0.3198427361838E-02 -0.4616129342865E-02  0.0000000000000E+00 -0.2760062033620E-02
 0.3895060309818E-02 -0.4859092200303E-02  0.0000000000000E+00 -0.2747750997396E-02
 0.4641923629147E-02 -0.5137988197129E-02  0.0000000000000E+00 -0.2720991236662E-02
 0.5423653475647E-02 -0.5443598401974E-02  0.0000000000000E+00 -0.2677279935065E-02
 0.6222437165097E-02 -0.5764860863585E-02  0.0000000000000E+00 -0.2614589650908E-02
 0.7018965590272E-02 -0.6089596872688E-02  0.0000000000000E+00 -0.2531625866616E-02
 0.7793536412790E-02 -0.6405383731050E-02  0.0000000000000E+00 -0.2428052799354E-02
 0.8527212218119E-02 -0.6700487548207E-02  0.0000000000000E+00 -0.2304670360385E-02
 0.9202824832974E-02 -0.6964724008610E-02  0.0000000000000E+00 -0.2163566758278E-02
 0.6155637224911E-04 -0.5641946222334E-02  0.0000000000000E+00 -0.1354823010843E-02
 0.1840000006464E-03 -0.5717426491496E-02  0.0000000000000E+00 -0.1528798408133E-02
 0.3031778860702E-03 -0.5789304141522E-02  0.0000000000000E+00 -0.1691827505281E-02
 0.4152603720969E-03 -0.5854605546551E-02  0.0000000000000E+00 -0.1840315117868E-02
 0.5167877939456E-03 -0.5910624638357E-02  0.0000000000000E+00 -0.1972090274466E-02
 0.6047919820715E-03 -0.5955009217532E-02  0.0000000000000E+00 -0.2086335918760E-02
 0.6768956819523E-03 -0.5985824843268E-02  0.0000000000000E+00 -0.2183391711954E-02
 0.7313696165733E-03 -0.6001580863435E-02  0.0000000000000E+00 -0.2264481042802E-02
 0.7671443804197E-03 -0.6001218103792E-02  0.0000000000000E+00 -0.2331416286973E-02
 0.7837871118562E-03 -0.5984068673632E-02  0.0000000000000E+00 -0.2386325109911E-02
 0.7814600805476E-03 -0.5949803995036E-02  0.0000000000000E+00 -0.2431424266583E-02
 0.7608790485304E-03 -0.5898387468093E-02  0.0000000000000E+00 -0.2468850599000E-02
 0.7232850793205E-03 -0.5830043617183E-02  0.0000000000000E+00 -0.2500547177682E-02
 0.6704375793019E-03 -0.5745250706673E-02  0.0000000000000E+00 -0.2528194763586E-02
 0.6046331635977E-03 -0.5644762826461E-02  0.0000000000000E+00 -0.2553175917591E-02
 0.5287391235501E-03 -0.5529647219026E-02  0.0000000000000E+00 -0.2576563748192E-02
 0.4462413328234E-03 -0.5401341153072E-02  0.0000000000000E+00 -0.2599125593105E-02
 0.3612974279184E-03 -0.5261722586641E-02  0.0000000000000E+00 -0.2621335369603E-02
 0.2787770033898E-03 -0.5113173016901E-02  0.0000000000000E+00 -0.2643396716845E-02
 0.2042855959957E-03 -0.4958632864635E-02  0.0000000000000E+00 -0.2665278023853E-02
 0.1441673353486E-03 -0.4801640828200E-02  0.0000000000000E+00 -0.2686769041170E-02
 0.1054864739198E-03 -0.4646395762769E-02  0.0000000000000E+00 -0.2707495153534E-02
 0.9592146051601E-04 -0.4497760591796E-02  0.0000000000000E+00 -0.2726941965690E-02
 0.1235832572123E-03 -0.4361187415992E-02  0.0000000000000E+00 -0.2744492943615E-02
 0.1967796821356E-03 -0.4242582063651E-02  0.0000000000000E+00 -0.2759466329778E-02
 0.3237273146272E-03 -0.4148121163538E-02  0.0000000000000E+00 -0.2771141823023E-02
 0.5121952450621E-03 -0.4084014791070E-02  0.0000000000000E+00 -0.2778773752376E-02
 0.7690674134416E-03 -0.4056197957547E-02  0.0000000000000E+00 -0.2781593647575E-02
 0.1099818189128E-02 -0.4069943890180E-02  0.0000000000000E+00 -0.2778807909653E-02
 0.1507916101640E-02 -0.4129406717560E-02  0.0000000000000E+00 -0.2769597346958E-02
 0.1994250777944E-02 -0.4237132677226E-02  0.0000000000000E+00 -0.2753121952629E-02
 0.2556762629955E-02 -0.4393646691384E-02  0.0000000000000E+00 -0.2728532753063E-02
 0.3190155685508E-02 -0.4597153404986E-02  0.0000000000000E+00 -0.2694996227274E-02
 0.3885631152151E-02 -0.4843320343935E-02  0.0000000000000E+00 -0.2651725421548E-02
 0.4630932172283E-02 -0.5125263436537E-02  0.0000000000000E+00 -0.2598015873851E-02
 0.5410708765574E-02 -0.5433783983588E-02  0.0000000000000E+00 -0.2533284633275E-02
 0.6207191944811E-02 -0.5757863483516E-02  0.0000000000000E+00 -0.2457113393047E-02
 0.7001146221293E-02 -0.6085390213560E-02  0.0000000000000E+00 -0.2369298177837E-02
 0.7772969381570E-02 -0.6404029141209E-02  0.0000000000000E+00 -0.2269916518787E-02
 0.8503843709635E-02 -0.6702148766084E-02  0.0000000000000E+00 -0.2159420531433E-02
 0.9176730516545E-02 -0.6969672628517E-02  0.0000000000000E+00 -0.2038788406857E-02
 0.6117167692459E-04 -0.5541610477906E-02  0.0000000000000E+00 -0.1309890692150E-02
 0.1824211299496E-03 -0.5616561859527E-02  0.0000000000000E+00 -0.1485583148519E-02
 0.2997654817682E-03 -0.5687763715845E-02  0.0000000000000E+00 -0.1652335201108E-02
 0.4096094492483E-03 -0.5752412430146E-02  0.0000000000000E+00 -0.1806409647349E-02
 0.5087264971392E-03 -0.5807965007864E-02  0.0000000000000E+00 -0.1945441357319E-02
 0.5943570041824E-03 -0.5852207618111E-02  0.0000000000000E+00 -0.2068373460030E-02
 0.6642911989245E-03 -0.5883307808934E-02  0.0000000000000E+00 -0.2175281606878E-02
 0.7169184379645E-03 -0.5899836253072E-02  0.0000000000000E+00 -0.2267127366405E-02
 0.7512393302453E-03 -0.5900756696406E-02  0.0000000000000E+00 -0.2345485728435E-02
 0.7668483747988E-03 -0.5885392411005E-02  0.0000000000000E+00 -0.2412283828036E-02
 0.7639014709936E-03 -0.5853382780748E-02  0.0000000000000E+00 -0.2469575673152E-02
 0.7430837555510E-03 -0.5804644358376E-02  0.0000000000000E+00 -0.2519363994095E-02
 0.7055898402529E-03 -0.5739346984032E-02  0.0000000000000E+00 -0.2563470568862E-02
 0.6531234979718E-03 -0.5657911436422E-02  0.0000000000000E+00 -0.2603448906820E-02
 0.5879213004010E-03 -0.5561034547691E-02  0.0000000000000E+00 -0.2640529542848E-02
 0.5127894134348E-03 -0.5449728417579E-02  0.0000000000000E+00 -0.2675594057783E-02
 0.4311538052920E-03 -0.5325378146690E-02  0.0000000000000E+00 -0.2709168394142E-02
 0.3471151967330E-03 -0.5189812803791E-02  0.0000000000000E+00 -0.2741429855363E-02
 0.2654908463300E-03 -0.5045368783324E-02  0.0000000000000E+00 -0.2772231313610E-02
 0.1918395968549E-03 -0.4894943532316E-02  0.0000000000000E+00 -0.2801146413426E-02
 0.1324639056336E-03 -0.4742025915477E-02  0.0000000000000E+00 -0.2827561212652E-02
 0.9439261366567E-04 -0.4590762655556E-02  0.0000000000000E+00 -0.2850703370743E-02
 0.8527792150978E-04 -0.4445979571419E-02  0.0000000000000E+00 -0.2869640343182E-02
 0.1132138670545E-03 -0.4313109642548E-02  0.0000000000000E+00 -0.2883315461091E-02
 0.1864992317789E-03 -0.4198051804615E-02  0.0000000000000E+00 -0.2890617125405E-02
 0.3133480646858E-03 -0.4106982610365E-02  0.0000000000000E+00 -0.2890455837357E-02
 0.5015326473219E-03 -0.4046115958542E-02  0.0000000000000E+00 -0.2881838828990E-02
 0.7579457070290E-03 -0.4021393874621E-02  0.0000000000000E+00 -0.2863941796047E-02
 0.1088076314938E-02 -0.4038100361240E-02  0.0000000000000E+00 -0.2836178673067E-02
 0.1495413918437E-02 -0.4100405074470E-02  0.0000000000000E+00 -0.2798266983169E-02
 0.1980875439750E-02 -0.4210876366814E-02  0.0000000000000E+00 -0.2750274898358E-02
 0.2542434494249E-02 -0.4370069682633E-02  0.0000000000000E+00 -0.2692638012912E-02
 0.3174830659544E-02 -0.4576225171030E-02  0.0000000000000E+00 -0.2626153243752E-02
 0.3869297101156E-02 -0.4825044743618E-02  0.0000000000000E+00 -0.2551926753181E-02
 0.4613599272727E-02 -0.5109673026705E-02  0.0000000000000E+00 -0.2471257493905E-02
 0.5392394656346E-02 -0.5420930303036E-02  0.0000000000000E+00 -0.2385475800452E-02
 0.6187904353386E-02 -0.5747805189229E-02  0.0000000000000E+00 -0.2295764791847E-02
 0.6980867173770E-02 -0.6078182267182E-02  0.0000000000000E+00 -0.2203001520603E-02
 0.7751645325420E-02 -0.6399716228893E-02  0.0000000000000E+00 -0.2107664869886E-02
 0.8481384487121E-02 -0.6700764934430E-02  0.0000000000000E+00 -0.2009844440624E-02
 0.9153017992306E-02 -0.6971246515106E-02  0.0000000000000E+00 -0.1909390841697E-02
 0.6095190162047E-04 -0.5441538459788E-02  0.0000000000000E+00 -0.1265074426252E-02
 0.1813294757678E-03 -0.5516166632842E-02  0.0000000000000E+00 -0.1442513336409E-02
 0.2971448213974E-03 -0.5586891702180E-02  0.0000000000000E+00 -0.1612910781338E-02
 0.4050311621406E-03 -0.5651077173334E-02  0.0000000000000E+00 -0.1772388153359E-02
 0.5019885273094E-03 -0.5706340577362E-02  0.0000000000000E+00 -0.1918398827563E-02
 0.5854616338586E-03 -0.5750606499749E-02  0.0000000000000E+00 -0.2049667860834E-02
 0.6534079148061E-03 -0.5782148097888E-02  0.0000000000000E+00 -0.2166033222349E-02
 0.7043389634895E-03 -0.5799604183127E-02  0.0000000000000E+00 -0.2268221027096E-02
 0.7373316059892E-03 -0.5801970068949E-02  0.0000000000000E+00 -0.2357591810881E-02
 0.7520146300403E-03 -0.5788568895497E-02  0.0000000000000E+00 -0.2435889782635E-02
 0.7485433545680E-03 -0.5759015085330E-02  0.0000000000000E+00 -0.2505018100503E-02
 0.7275754938489E-03 -0.5713182512122E-02  0.0000000000000E+00 -0.2566852284446E-02
 0.6902589713823E-03 -0.5651186838797E-02  0.0000000000000E+00 -0.2623095987735E-02
 0.6382380019711E-03 -0.5573387954565E-02  0.0000000000000E+00 -0.2675176251688E-02
 0.5736817617119E-03 -0.5480418261299E-02  0.0000000000000E+00 -0.2724171114505E-02
 0.4993251468451E-03 -0.5373224218546E-02  0.0000000000000E+00 -0.2770769643938E-02
 0.4185221314185E-03 -0.5253125524590E-02  0.0000000000000E+00 -0.2815255260461E-02
 0.3353034026171E-03 -0.5121887005314E-02  0.0000000000000E+00 -0.2857507471066E-02
 0.2544206110819E-03 -0.4981783088055E-02  0.0000000000000E+00 -0.2897027050527E-02
 0.1813733911680E-03 -0.4835650720010E-02  0.0000000000000E+00 -0.2932990984889E-02
 0.1224119421036E-03 -0.4686912873103E-02  0.0000000000000E+00 -0.2964377562153E-02
 0.8452105204632E-04 -0.4539650075145E-02  0.0000000000000E+00 -0.2990010787907E-02
 0.7531942317909E-04 -0.4398637073073E-02  0.0000000000000E+00 -0.3008534696926E-02
 0.1028794800958E-03 -0.4269273647903E-02  0.0000000000000E+00 -0.3018448576611E-02
 0.1754914063327E-03 -0.4157439587785E-02  0.0000000000000E+00 -0.3018207576908E-02
 0.3013754305046E-03 -0.4069303879219E-02  0.0000000000000E+00 -0.3006348890188E-02
 0.4883272413271E-03 -0.4011084775797E-02  0.0000000000000E+00 -0.2981626787000E-02
 0.7432828773542E-03 -0.3988742916316E-02  0.0000000000000E+00 -0.2943152815758E-02
 0.1071796611958E-02 -0.4007597986252E-02  0.0000000000000E+00 -0.2890537532897E-02
 0.1477444922016E-02 -0.4071874049669E-02  0.0000000000000E+00 -0.2824022290362E-02
 0.1961250726343E-02 -0.4184212619352E-02  0.0000000000000E+00 -0.2744570318112E-02
 0.2521306201594E-02 -0.4345258212936E-02  0.0000000000000E+00 -0.2653891205627E-02
 0.3152468612979E-02 -0.4553345353871E-02  0.0000000000000E+00 -0.2554407056193E-02
 0.3846068899392E-02 -0.4804259901483E-02  0.0000000000000E+00 -0.2449119590334E-02
 0.4589930663011E-02 -0.5091204409183E-02  0.0000000000000E+00 -0.2341342634184E-02
 0.5368713221947E-02 -0.5405017427896E-02  0.0000000000000E+00 -0.2234339223943E-02
 0.6164574386938E-02 -0.5734658499793E-02  0.0000000000000E+00 -0.2130917450900E-02
 0.6958127396815E-02 -0.6067937367939E-02  0.0000000000000E+00 -0.2033057209216E-02
 0.7729561859456E-02 -0.6392399445377E-02  0.0000000000000E+00 -0.1941652656262E-02
 0.8459828671524E-02 -0.6696277427808E-02  0.0000000000000E+00 -0.1856432354593E-02
 0.9131673524939E-02 -0.6969369017874E-02  0.0000000000000E+00 -0.1776106354069E-02
 0.6088919723319E-04 -0.5341646145418E-02  0.0000000000000E+00 -0.1220249499311E-02
 0.1807007115990E-03 -0.5416147367962E-02  0.0000000000000E+00 -0.1399465372712E-02
 0.2952746776110E-03 -0.5486585881084E-02  0.0000000000000E+00 -0.1573432023546E-02
 0.4014688217349E-03 -0.5550490693474E-02  0.0000000000000E+00 -0.1738130607376E-02
 0.4965047605389E-03 -0.5605638283392E-02  0.0000000000000E+00 -0.1890844511585E-02
 0.5780283218111E-03 -0.5650092136617E-02  0.0000000000000E+00 -0.2030100288566E-02
 0.6441641300764E-03 -0.5682234494001E-02  0.0000000000000E+00 -0.2155522275077E-02
 0.6935492608979E-03 -0.5700778509881E-02  0.0000000000000E+00 -0.2267625905922E-02
 0.7253422009470E-03 -0.5704758855846E-02  0.0000000000000E+00 -0.2367579734102E-02
 0.7392120475024E-03 -0.5693506367867E-02  0.0000000000000E+00 -0.2456963400705E-02
 0.7353184840382E-03 -0.5666616861684E-02  0.0000000000000E+00 -0.2537542894698E-02
 0.7142943518788E-03 -0.5623925229093E-02  0.0000000000000E+00 -0.2611075924684E-02
 0.6772402326055E-03 -0.5565493261556E-02  0.0000000000000E+00 -0.2679154065700E-02
 0.6257366567959E-03 -0.5491616584699E-02  0.0000000000000E+00 -0.2743081647904E-02
 0.5618780074689E-03 -0.5402856188014E-02  0.0000000000000E+00 -0.2803786596622E-02
 0.4883178079616E-03 -0.5300082667408E-02  0.0000000000000E+00 -0.2861767076223E-02
 0.4083260148896E-03 -0.5184537374937E-02  0.0000000000000E+00 -0.2917065125017E-02
 0.3258502111998E-03 -0.5057905798083E-02  0.0000000000000E+00 -0.2969263196398E-02
 0.2455631744765E-03 -0.4922383729936E-02  0.0000000000000E+00 -0.3017510237429E-02
 0.1728927756747E-03 -0.4780730212618E-02  0.0000000000000E+00 -0.3060585916149E-02
 0.1140262961829E-03 -0.4636286310567E-02  0.0000000000000E+00 -0.3097057462279E-02
 0.7589573536690E-04 -0.4493052281939E-02  0.0000000000000E+00 -0.3125339672932E-02
 0.6607890046645E-04 -0.4355737762056E-02  0.0000000000000E+00 -0.3143647880343E-02
 0.9262164951571E-04 -0.4229695068358E-02  0.0000000000000E+00 -0.3150032598692E-02
 0.1638055648619E-03 -0.4120772215712E-02  0.0000000000000E+00 -0.3142510006895E-02
 0.2878651136803E-03 -0.4035122532457E-02  0.0000000000000E+00 -0.3119235419535E-02
 0.4726387641890E-03 -0.3978968318307E-02  0.0000000000000E+00 -0.3078697224957E-02
 0.7251394394823E-03 -0.3958299399353E-02  0.0000000000000E+00 -0.3019924783365E-02
 0.1051036230757E-02 -0.3978494975060E-02  0.0000000000000E+00 -0.2942702453490E-02
 0.1454058193975E-02 -0.4043871488379E-02  0.0000000000000E+00 -0.2847769663989E-02
 0.1935413005400E-02 -0.4157194179577E-02  0.0000000000000E+00 -0.2736959701184E-02
 0.2493397708181E-02 -0.4319255389688E-02  0.0000000000000E+00 -0.2613237130621E-02
 0.3123071367020E-02 -0.4528543928037E-02  0.0000000000000E+00 -0.2480641857176E-02
 0.3815931368618E-02 -0.4780980998158E-02  0.0000000000000E+00 -0.2344080450739E-02
 0.4559898525974E-02 -0.5069858560156E-02  0.0000000000000E+00 -0.2208910098134E-02
 0.5339631130940E-02 -0.5386034731468E-02  0.0000000000000E+00 -0.2080372173117E-02
 0.6137171728104E-02 -0.5718404823313E-02  0.0000000000000E+00 -0.1962955238258E-02
 0.6932907544806E-02 -0.6054632141354E-02  0.0000000000000E+00 -0.1859796151398E-02
 0.7706715986064E-02 -0.6382051830908E-02  0.0000000000000E+00 -0.1772245091855E-02
 0.8439190921232E-02 -0.6688653805880E-02  0.0000000000000E+00 -0.1699687931661E-02
 0.9112725903034E-02 -0.6963996692632E-02  0.0000000000000E+00 -0.1639686212279E-02
 0.6097551671541E-04 -0.5241847754392E-02  0.0000000000000E+00 -0.1175296697157E-02
 0.1805100913758E-03 -0.5316408572288E-02  0.0000000000000E+00 -0.1356320885470E-02
 0.2941133811886E-03 -0.5386741643080E-02  0.0000000000000E+00 -0.1533780912639E-02
 0.3988651827577E-03 -0.5450540932375E-02  0.0000000000000E+00 -0.1703519518896E-02
 0.4922050935094E-03 -0.5505741133799E-02  0.0000000000000E+00 -0.1862660734772E-02
 0.5719777283790E-03 -0.5550545545890E-02  0.0000000000000E+00 -0.2009550360300E-02
 0.6364752195318E-03 -0.5583448924068E-02  0.0000000000000E+00 -0.2143621196920E-02
 0.6844631764157E-03 -0.5603244534147E-02  0.0000000000000E+00 -0.2265201386825E-02
 0.7151866348139E-03 -0.5609013531714E-02  0.0000000000000E+00 -0.2375289568566E-02
 0.7283603086129E-03 -0.5600101570186E-02  0.0000000000000E+00 -0.2475319851440E-02
 0.7241524982883E-03 -0.5576091621724E-02  0.0000000000000E+00 -0.2566936354550E-02
 0.7031731699716E-03 -0.5536782911736E-02  0.0000000000000E+00 -0.2651790672785E-02
 0.6664745474497E-03 -0.5482183521035E-02  0.0000000000000E+00 -0.2731371041418E-02
 0.6155691670552E-03 -0.5412521501631E-02  0.0000000000000E+00 -0.2806865666031E-02
 0.5524691671947E-03 -0.5328279660683E-02  0.0000000000000E+00 -0.2879057510018E-02
 0.4797366107631E-03 -0.5230242796861E-02  0.0000000000000E+00 -0.2948258006723E-02
 0.4005454459811E-03 -0.5119561276654E-02  0.0000000000000E+00 -0.3014271230561E-02
 0.3187470928797E-03 -0.4997826425972E-02  0.0000000000000E+00 -0.3076385291788E-02
 0.2389221609838E-03 -0.4867138945312E-02  0.0000000000000E+00 -0.3133399241633E-02
 0.1664141174137E-03 -0.4730162687687E-02  0.0000000000000E+00 -0.3183696102037E-02
 0.1073365335004E-03 -0.4590140823563E-02  0.0000000000000E+00 -0.3225429629872E-02
 0.6855970292932E-04 -0.4450979215573E-02  0.0000000000000E+00 -0.3256600330007E-02
 0.5761284483938E-04 -0.4317308188165E-02  0.0000000000000E+00 -0.3274989672255E-02
 0.8250977842283E-04 -0.4194417965955E-02  0.0000000000000E+00 -0.3278194034522E-02
 0.1515226546181E-03 -0.4088111494704E-02  0.0000000000000E+00 -0.3263782837713E-02
 0.2729070715904E-03 -0.4004517314018E-02  0.0000000000000E+00 -0.3229516773299E-02
 0.4545621920940E-03 -0.3949860058121E-02  0.0000000000000E+00 -0.3173598645161E-02
 0.7036098085219E-03 -0.3930167648853E-02  0.0000000000000E+00 -0.3094948051795E-02
 0.1025882019733E-02 -0.3950900928663E-02  0.0000000000000E+00 -0.2993488445288E-02
 0.1425325170411E-02 -0.4016505306437E-02  0.0000000000000E+00 -0.2870418455861E-02
 0.1903410683907E-02 -0.4129919676028E-02  0.0000000000000E+00 -0.2728403948312E-02
 0.2458728500663E-02 -0.4292143444444E-02  0.0000000000000E+00 -0.2571636081680E-02
 0.3086627041874E-02 -0.4501881509045E-02  0.0000000000000E+00 -0.2405761951863E-02
 0.3778843754388E-02 -0.4755245027890E-02  0.0000000000000E+00 -0.2237608148088E-02
 0.4523441320325E-02 -0.5045650783038E-02  0.0000000000000E+00 -0.2074620272557E-02
 0.5305079051344E-02 -0.5363981356804E-02  0.0000000000000E+00 -0.1924090263824E-02
 0.6105634975311E-02 -0.5699034718934E-02  0.0000000000000E+00 -0.1792275873496E-02
 0.6905169345407E-02 -0.6038255744828E-02  0.0000000000000E+00 -0.1683559182498E-02
 0.7683103881222E-02 -0.6368665386664E-02  0.0000000000000E+00 -0.1599815746879E-02
 0.8419506828781E-02 -0.6677888397415E-02  0.0000000000000E+00 -0.1540125203515E-02
 0.9096247572305E-02 -0.6955120126011E-02  0.0000000000000E+00 -0.1500898322292E-02
 0.6120256620310E-04 -0.5142055490250E-02  0.0000000000000E+00 -0.1130102490554E-02
 0.1807322945859E-03 -0.5216852393699E-02  0.0000000000000E+00 -0.1312966942005E-02
 0.2936185619161E-03 -0.5287251642681E-02  0.0000000000000E+00 -0.1493844005220E-02
 0.3971621128831E-03 -0.5351112511330E-02  0.0000000000000E+00 -0.1668440551279E-02
 0.4890180923725E-03 -0.5406527909280E-02  0.0000000000000E+00 -0.1833731221435E-02
 0.5672284054796E-03 -0.5451842276161E-02  0.0000000000000E+00 -0.1987897281767E-02
 0.6302533874155E-03 -0.5485666356467E-02  0.0000000000000E+00 -0.2130200408794E-02
 0.6769901808106E-03 -0.5506879010749E-02  0.0000000000000E+00 -0.2260803635162E-02
 0.7067748848116E-03 -0.5514614510405E-02  0.0000000000000E+00 -0.2380557412019E-02
 0.7193725980390E-03 -0.5508239897548E-02  0.0000000000000E+00 -0.2490769975583E-02
 0.7149639399691E-03 -0.5487330596677E-02  0.0000000000000E+00 -0.2592980353431E-02
 0.6941375476022E-03 -0.5451653190924E-02  0.0000000000000E+00 -0.2688747844255E-02
 0.6578959688441E-03 -0.5401162129587E-02  0.0000000000000E+00 -0.2779468599946E-02
 0.6076792788228E-03 -0.5336014689827E-02  0.0000000000000E+00 -0.2866223980321E-02
 0.5454098673891E-03 -0.5256608971704E-02  0.0000000000000E+00 -0.2949659819776E-02
 0.4735482493170E-03 -0.5163634359060E-02  0.0000000000000E+00 -0.3029907523461E-02
 0.3951603798889E-03 -0.5058137920644E-02  0.0000000000000E+00 -0.3106538909807E-02
 0.3139884396284E-03 -0.4941602290647E-02  0.0000000000000E+00 -0.3178552466821E-02
 0.2345075128693E-03 -0.4816016844378E-02  0.0000000000000E+00 -0.3244401011316E-02
 0.1619638972166E-03 -0.4683933088953E-02  0.0000000000000E+00 -0.3302073014047E-02
 0.1023864773489E-03 -0.4548480332897E-02  0.0000000000000E+00 -0.3349307329795E-02
 0.6257466607226E-04 -0.4413455835741E-02  0.0000000000000E+00 -0.3383685695581E-02
 0.5000096646873E-04 -0.4283396176697E-02  0.0000000000000E+00 -0.3402550876450E-02
 0.7264092663190E-04 -0.4163514333046E-02  0.0000000000000E+00 -0.3403039395270E-02
 0.1387552366836E-03 -0.4059553932847E-02  0.0000000000000E+00 -0.3382264419957E-02
 0.2566258426260E-03 -0.3977608134187E-02  0.0000000000000E+00 -0.3337575507234E-02
 0.4342284385488E-03 -0.3923900232039E-02  0.0000000000000E+00 -0.3266863788692E-02
 0.6788234148955E-03 -0.3904502831304E-02  0.0000000000000E+00 -0.3168902271231E-02
 0.9964520435372E-03 -0.3924978176568E-02  0.0000000000000E+00 -0.3043706918374E-02
 0.1391341463714E-02 -0.3989935300554E-02  0.0000000000000E+00 -0.2892883174581E-02
 0.1865306131913E-02 -0.4102535779751E-02  0.0000000000000E+00 -0.2719878637911E-02
 0.2417319329903E-02 -0.4264046020854E-02  0.0000000000000E+00 -0.2530071940285E-02
 0.3043111269630E-02 -0.4473451488843E-02  0.0000000000000E+00 -0.2330701878818E-02
 0.3734740141996E-02 -0.4727112508077E-02  0.0000000000000E+00 -0.2130534610762E-02
 0.4480463291767E-02 -0.5018611820885E-02  0.0000000000000E+00 -0.1939165005678E-02
 0.5264950401767E-02 -0.5338866740607E-02  0.0000000000000E+00 -0.1766034855018E-02
 0.6069870026261E-02 -0.5676548028524E-02  0.0000000000000E+00 -0.1619294886072E-02
 0.6874854131029E-02 -0.6018809899628E-02  0.0000000000000E+00 -0.1504697565901E-02
 0.7658720031580E-02 -0.6352251250707E-02  0.0000000000000E+00 -0.1424744506845E-02
 0.8400832954676E-02 -0.6664002732766E-02  0.0000000000000E+00 -0.1378265499089E-02
 0.9082355727972E-02 -0.6942764623398E-02  0.0000000000000E+00 -0.1360524791294E-02
 0.6156176368366E-04 -0.5042179330215E-02  0.0000000000000E+00 -0.1084559253523E-02
 0.1813412965427E-03 -0.5117378367082E-02  0.0000000000000E+00 -0.1269296286688E-02
 0.2937469315649E-03 -0.5188005514928E-02  0.0000000000000E+00 -0.1453512799263E-02
 0.3963003127709E-03 -0.5252086446163E-02  0.0000000000000E+00 -0.1632783114490E-02
 0.4868706889389E-03 -0.5307872912791E-02  0.0000000000000E+00 -0.1803941943167E-02
 0.5636965111344E-03 -0.5353852224211E-02  0.0000000000000E+00 -0.1965020914470E-02
 0.6254074338252E-03 -0.5388754705893E-02  0.0000000000000E+00 -0.2115129516352E-02
 0.6710352041338E-03 -0.5411550143243E-02  0.0000000000000E+00 -0.2254286807296E-02
 0.7000112851778E-03 -0.5421432212107E-02  0.0000000000000E+00 -0.2383216499916E-02
 0.7121555469764E-03 -0.5417795504116E-02  0.0000000000000E+00 -0.2503121199888E-02
 0.7076642108326E-03 -0.5400212839746E-02  0.0000000000000E+00 -0.2615452980166E-02
 0.6871057760748E-03 -0.5368420981772E-02  0.0000000000000E+00 -0.2721694616917E-02
 0.6514315584357E-03 -0.5322320814159E-02  0.0000000000000E+00 -0.2823163787810E-02
 0.6020045833707E-03 -0.5261995801221E-02  0.0000000000000E+00 -0.2920846844716E-02
 0.5406499476655E-03 -0.5187753100769E-02  0.0000000000000E+00 -0.3015262924805E-02
 0.4697165237886E-03 -0.5100177417257E-02  0.0000000000000E+00 -0.3106372607284E-02
 0.3921502776105E-03 -0.5000200568384E-02  0.0000000000000E+00 -0.3193523464300E-02
 0.3115710316164E-03 -0.4889182287563E-02  0.0000000000000E+00 -0.3275431137352E-02
 0.2323348992110E-03 -0.4768984641935E-02  0.0000000000000E+00 -0.3350207672263E-02
 0.1595780853307E-03 -0.4642029777181E-02  0.0000000000000E+00 -0.3415450611523E-02
 0.9923358534031E-04 -0.4511317190389E-02  0.0000000000000E+00 -0.3468483599227E-02
 0.5802043381667E-04 -0.4380521230498E-02  0.0000000000000E+00 -0.3506465911956E-02
 0.4334573411602E-04 -0.4254070003312E-02  0.0000000000000E+00 -0.3526297340720E-02
 0.6313954963760E-04 -0.4137083419231E-02  0.0000000000000E+00 -0.3524648845098E-02
 0.1256475267467E-03 -0.4035230327719E-02  0.0000000000000E+00 -0.3498166611513E-02
 0.2391810007153E-03 -0.3954556046058E-02  0.0000000000000E+00 -0.3443769328246E-02
 0.4118053252914E-03 -0.3901276340899E-02  0.0000000000000E+00 -0.3359004512121E-02
 0.6509462548146E-03 -0.3881512091701E-02  0.0000000000000E+00 -0.3242452873227E-02
 0.9628976972827E-03 -0.3900943611253E-02  0.0000000000000E+00 -0.3094164477893E-02
 0.1352229405679E-02 -0.3964375642715E-02  0.0000000000000E+00 -0.2916085197905E-02
 0.1821178376144E-02 -0.4075240191580E-02  0.0000000000000E+00 -0.2712378989023E-02
 0.2369194644612E-02 -0.4235131352040E-02  0.0000000000000E+00 -0.2489560261530E-02
 0.2992488893288E-02 -0.4443383005222E-02  0.0000000000000E+00 -0.2256436885133E-02
 0.3683530011178E-02 -0.4696669842916E-02  0.0000000000000E+00 -0.2023736392621E-02
 0.4430833702056E-02 -0.4988789349994E-02  0.0000000000000E+00 -0.1803278377866E-02
 0.5219099434444E-02 -0.5310711225537E-02  0.0000000000000E+00 -0.1606781316444E-02
 0.6029747565029E-02 -0.5650953876329E-02  0.0000000000000E+00 -0.1444450211882E-02
 0.6841880477458E-02 -0.5996308701472E-02  0.0000000000000E+00 -0.1323573819546E-02
 0.7633555678963E-02 -0.6332839671155E-02  0.0000000000000E+00 -0.1247415639119E-02
 0.8383246472846E-02 -0.6647045814979E-02  0.0000000000000E+00 -0.1214634380519E-02
 0.9071213329831E-02 -0.6926990760669E-02  0.0000000000000E+00 -0.1219359515494E-02
 0.6204420529033E-04 -0.4942126858539E-02  0.0000000000000E+00 -0.1038565508546E-02
 0.1823102612805E-03 -0.5017883210539E-02  0.0000000000000E+00 -0.1225207599475E-02
 0.2944541049938E-03 -0.5088889645251E-02  0.0000000000000E+00 -0.1412684107931E-02
 0.3962190824093E-03 -0.5153339912176E-02  0.0000000000000E+00 -0.1596440939622E-02
 0.4856879202798E-03 -0.5209645756809E-02  0.0000000000000E+00 -0.1773181926138E-02
 0.5612955543904E-03 -0.5256439471152E-02  0.0000000000000E+00 -0.1940802784509E-02
 0.6218425326069E-03 -0.5292574736687E-02  0.0000000000000E+00 -0.2098278441219E-02
 0.6664984617831E-03 -0.5317117557858E-02  0.0000000000000E+00 -0.2245504203633E-02
 0.6947943995671E-03 -0.5329327093326E-02  0.0000000000000E+00 -0.2383098280814E-02
 0.7066091335783E-03 -0.5328631358338E-02  0.0000000000000E+00 -0.2512178448067E-02
 0.7021574704236E-03 -0.5314605265217E-02  0.0000000000000E+00 -0.2634129212727E-02
 0.6819887015923E-03 -0.5286958462277E-02  0.0000000000000E+00 -0.2750374404157E-02
 0.6470011831815E-03 -0.5245538394255E-02  0.0000000000000E+00 -0.2862169027167E-02
 0.5984762245490E-03 -0.5190351901609E-02  0.0000000000000E+00 -0.2970418690947E-02
 0.5381340664575E-03 -0.5121609310522E-02  0.0000000000000E+00 -0.3075528784025E-02
 0.4682018417418E-03 -0.5039781783131E-02  0.0000000000000E+00 -0.3177300732039E-02
 0.3914935078851E-03 -0.4945674333225E-02  0.0000000000000E+00 -0.3274868186610E-02
 0.3114933511049E-03 -0.4840509941819E-02  0.0000000000000E+00 -0.3366672820029E-02
 0.2324249598519E-03 -0.4726007666522E-02  0.0000000000000E+00 -0.3450493249510E-02
 0.1593013432385E-03 -0.4604443441252E-02  0.0000000000000E+00 -0.3523541356316E-02
 0.9794815041089E-04 -0.4478671033035E-02  0.0000000000000E+00 -0.3582726541640E-02
 0.5499417225763E-04 -0.4352227470610E-02  0.0000000000000E+00 -0.3624782920047E-02
 0.3777177475733E-04 -0.4229417327418E-02  0.0000000000000E+00 -0.3646163923299E-02
 0.5415714590412E-04 -0.4115250850201E-02  0.0000000000000E+00 -0.3643069700814E-02
 0.1123754212513E-03 -0.4015305207589E-02  0.0000000000000E+00 -0.3611668084905E-02
 0.2207677051524E-03 -0.3935563172497E-02  0.0000000000000E+00 -0.3548424624071E-02
 0.3874987917032E-03 -0.3882223736838E-02  0.0000000000000E+00 -0.3450506105632E-02
 0.6201828484936E-03 -0.3861455955911E-02  0.0000000000000E+00 -0.3316246878411E-02
 0.9254064048853E-03 -0.3879070994089E-02  0.0000000000000E+00 -0.3145660995095E-02
 0.1308141325139E-02 -0.3940098056705E-02  0.0000000000000E+00 -0.2940953829934E-02
 0.1771126606783E-02 -0.4048285488101E-02  0.0000000000000E+00 -0.2706924390794E-02
 0.2314385795054E-02 -0.4205616391764E-02  0.0000000000000E+00 -0.2451156302112E-02
 0.2934716233485E-02 -0.4411844835327E-02  0.0000000000000E+00 -0.2183993819354E-02
 0.3625098995006E-02 -0.4664032436521E-02  0.0000000000000E+00 -0.1918147061468E-02
 0.4374385793544E-02 -0.4956249926729E-02  0.0000000000000E+00 -0.1667748637377E-02
 0.5167338600972E-02 -0.5279546786429E-02  0.0000000000000E+00 -0.1446948444150E-02
 0.5985099551411E-02 -0.5622270516530E-02  0.0000000000000E+00 -0.1268207610010E-02
 0.6806140841415E-02 -0.5970778174054E-02  0.0000000000000E+00 -0.1140562911173E-02
 0.7607596504913E-02 -0.6310479755162E-02  0.0000000000000E+00 -0.1068215922129E-02
 0.8366844361106E-02 -0.6627094215624E-02  0.0000000000000E+00 -0.1049758586806E-02
 0.9063030052247E-02 -0.6907894758899E-02  0.0000000000000E+00 -0.1078205701551E-02
 0.6264063588326E-04 -0.4841803141033E-02  0.0000000000000E+00 -0.9920262005061E-03
 0.1836114536334E-03 -0.4918260670064E-02  0.0000000000000E+00 -0.1180605776329E-02
 0.2956944547561E-03 -0.4989786992727E-02  0.0000000000000E+00 -0.1371260443499E-02
 0.3968561290192E-03 -0.5054746061018E-02  0.0000000000000E+00 -0.1559312647360E-02
 0.4853927076805E-03 -0.5111711193217E-02  0.0000000000000E+00 -0.1741344034711E-02
 0.5599361682976E-03 -0.5159462146263E-02  0.0000000000000E+00 -0.1915127052689E-02
 0.6194600209910E-03 -0.5196979977237E-02  0.0000000000000E+00 -0.2079518506278E-02
 0.6632752751175E-03 -0.5223432273297E-02  0.0000000000000E+00 -0.2234309380621E-02
 0.6910168723027E-03 -0.5238149660034E-02  0.0000000000000E+00 -0.2380033468871E-02
 0.7026265483668E-03 -0.5240599270254E-02  0.0000000000000E+00 -0.2517745057944E-02
 0.6983404868144E-03 -0.5230362648302E-02  0.0000000000000E+00 -0.2648781633193E-02
 0.6786895271752E-03 -0.5207124999239E-02  0.0000000000000E+00 -0.2774527304706E-02
 0.6445172366103E-03 -0.5170680590541E-02  0.0000000000000E+00 -0.2896192236949E-02
 0.5970185156006E-03 -0.5120957127713E-02  0.0000000000000E+00 -0.3014617855836E-02
 0.5378012002795E-03 -0.5058062630221E-02  0.0000000000000E+00 -0.3130111184500E-02
 0.4689605969655E-03 -0.4982346317708E-02  0.0000000000000E+00 -0.3242328610515E-02
 0.3931666107937E-03 -0.4894475300085E-02  0.0000000000000E+00 -0.3350202524451E-02
 0.3137547425486E-03 -0.4795522357219E-02  0.0000000000000E+00 -0.3451911658079E-02
 0.2348023812629E-03 -0.4687048158603E-02  0.0000000000000E+00 -0.3544910501910E-02
 0.1611860460435E-03 -0.4571165776859E-02  0.0000000000000E+00 -0.3626032311557E-02
 0.9861231705061E-04 -0.4450567388478E-02  0.0000000000000E+00 -0.3691774661339E-02
 0.5360948408023E-04 -0.4328638207452E-02  0.0000000000000E+00 -0.3738445029281E-02
 0.3342511388435E-04 -0.4209543874542E-02  0.0000000000000E+00 -0.3762048347596E-02
 0.4587178745494E-04 -0.4098167520585E-02  0.0000000000000E+00 -0.3758309700925E-02
 0.9914647851256E-04 -0.3999976099245E-02  0.0000000000000E+00 -0.3722907253777E-02
 0.2016173125131E-03 -0.3920872548997E-02  0.0000000000000E+00 -0.3651829436681E-02
 0.3615543123871E-03 -0.3867026260437E-02  0.0000000000000E+00 -0.3541820873523E-02
 0.5867785880647E-03 -0.3844649965014E-02  0.0000000000000E+00 -0.3390907815910E-02
 0.8842049082668E-03 -0.3859693716660E-02  0.0000000000000E+00 -0.3198986724311E-02
 0.1259263604466E-02 -0.3917435692501E-02  0.0000000000000E+00 -0.2968426485834E-02
 0.1715274587518E-02 -0.4021983886398E-02  0.0000000000000E+00 -0.2704562339433E-02
 0.2252935139626E-02 -0.4175772008375E-02  0.0000000000000E+00 -0.2415962944648E-02
 0.2869744078856E-02 -0.4379050361966E-02  0.0000000000000E+00 -0.2114462559497E-02
 0.3559309984826E-02 -0.4629348717712E-02  0.0000000000000E+00 -0.1814770768171E-02
 0.4310915569943E-02 -0.4921081523243E-02  0.0000000000000E+00 -0.1533431760538E-02
 0.5109435185827E-02 -0.5245417940956E-02  0.0000000000000E+00 -0.1287209541509E-02
 0.5935714612214E-02 -0.5590525026374E-02  0.0000000000000E+00 -0.1091067332256E-02
 0.6767497081948E-02 -0.5942255532418E-02  0.0000000000000E+00 -0.9560540774798E-03
 0.7580819482012E-02 -0.6285238980404E-02  0.0000000000000E+00 -0.8875329830471E-03
 0.8351742135158E-02 -0.6604251998830E-02  0.0000000000000E+00 -0.8841631384758E-03
 0.9058062982224E-02 -0.6885608654075E-02  0.0000000000000E+00 -0.9378736252061E-03
 0.6334142618026E-04 -0.4741110638955E-02  0.0000000000000E+00 -0.9448529909166E-03
 0.1852161699877E-03 -0.4818401410558E-02  0.0000000000000E+00 -0.1135402227008E-02
 0.2974209983394E-03 -0.4890576964657E-02  0.0000000000000E+00 -0.1329150410093E-02
 0.3981474150038E-03 -0.4956173887710E-02  0.0000000000000E+00 -0.1521302314717E-02
 0.4859056732735E-03 -0.5013928984886E-02  0.0000000000000E+00 -0.1708325740325E-02
 0.5595259098908E-03 -0.5062772319363E-02  0.0000000000000E+00 -0.1887881456683E-02
 0.6181572015542E-03 -0.5101816649000E-02  0.0000000000000E+00 -0.2058723484989E-02
 0.6612558895249E-03 -0.5130336673229E-02  0.0000000000000E+00 -0.2220557229690E-02
 0.6885652637074E-03 -0.5147740473889E-02  0.0000000000000E+00 -0.2373853080105E-02
 0.7000940315439E-03 -0.5153539903071E-02  0.0000000000000E+00 -0.2519623711638E-02
 0.6961024469450E-03 -0.5147327599025E-02  0.0000000000000E+00 -0.2659181192758E-02
 0.6771035605387E-03 -0.5128767034678E-02  0.0000000000000E+00 -0.2793890640954E-02
 0.6438842904885E-03 -0.5097599776154E-02  0.0000000000000E+00 -0.2924937076528E-02
 0.5975484692135E-03 -0.5053672265107E-02  0.0000000000000E+00 -0.3053116456460E-02
 0.5395840382628E-03 -0.4996985235348E-02  0.0000000000000E+00 -0.3178655172335E-02
 0.4719444256331E-03 -0.4927758101581E-02  0.0000000000000E+00 -0.3301081107951E-02
 0.3971434211858E-03 -0.4846509487090E-02  0.0000000000000E+00 -0.3419140408633E-02
 0.3183544155393E-03 -0.4754148980015E-02  0.0000000000000E+00 -0.3530762099556E-02
 0.2394947991327E-03 -0.4652063857004E-02  0.0000000000000E+00 -0.3633087889177E-02
 0.1652911177500E-03 -0.4542187929129E-02  0.0000000000000E+00 -0.3722581340959E-02
 0.1013189016073E-03 -0.4427036024183E-02  0.0000000000000E+00 -0.3795332249426E-02
 0.5399529240122E-04 -0.4309827001382E-02  0.0000000000000E+00 -0.3847221466418E-02
 0.3047223486657E-04 -0.4194571847330E-02  0.0000000000000E+00 -0.3873804933096E-02
 0.3848750552132E-04 -0.4086008231305E-02  0.0000000000000E+00 -0.3870330011538E-02
 0.8619982020730E-04 -0.3989472582583E-02  0.0000000000000E+00 -0.3831974757263E-02
 0.1819980122932E-03 -0.3910767832928E-02  0.0000000000000E+00 -0.3754225780044E-02
 0.3342584870859E-03 -0.3856016872971E-02  0.0000000000000E+00 -0.3633360831147E-02
 0.5510224530413E-03 -0.3831466491091E-02  0.0000000000000E+00 -0.3467029559019E-02
 0.8395631545052E-03 -0.3843207986405E-02  0.0000000000000E+00 -0.3254918229426E-02
 0.1205821568220E-02 -0.3896787705703E-02  0.0000000000000E+00 -0.2999447753522E-02
 0.1653776080497E-02 -0.3996712990456E-02  0.0000000000000E+00 -0.2706371565986E-02
 0.2184901223382E-02 -0.4145929368796E-02  0.0000000000000E+00 -0.2385138400245E-02
 0.2797521604802E-02 -0.4345263796319E-02  0.0000000000000E+00 -0.2049008023035E-02
 0.3486004776145E-02 -0.4592805286780E-02  0.0000000000000E+00 -0.1714697252239E-02
 0.4240180515165E-02 -0.4883396838072E-02  0.0000000000000E+00 -0.1401267090216E-02
 0.5045107200179E-02 -0.5208382948108E-02  0.0000000000000E+00 -0.1128305716589E-02
 0.5881332198909E-02 -0.5555752840721E-02  0.0000000000000E+00 -0.9135725037680E-03
 0.6725774695394E-02 -0.5910788098228E-02  0.0000000000000E+00 -0.7704534756094E-03
 0.7553188816346E-02 -0.6257202450518E-02  0.0000000000000E+00 -0.7057538835878E-03
 0.8338072060151E-02 -0.6578650478379E-02  0.0000000000000E+00 -0.7183687202313E-03
 0.9056617162949E-02 -0.6860300278206E-02  0.0000000000000E+00 -0.7991787287330E-03
 0.6413655394658E-04 -0.4639949160486E-02  0.0000000000000E+00 -0.8969645739256E-03
 0.1870946855642E-03 -0.4718192948512E-02  0.0000000000000E+00 -0.1089515188855E-02
 0.2995853153472E-03 -0.4791135335506E-02  0.0000000000000E+00 -0.1286269107139E-02
 0.4000270429639E-03 -0.4857488138530E-02  0.0000000000000E+00 -0.1482320046594E-02
 0.4871449908729E-03 -0.4916153807626E-02  0.0000000000000E+00 -0.1674029885911E-02
 0.5599690839342E-03 -0.4966215909445E-02  0.0000000000000E+00 -0.1858958236355E-02
 0.6178271547495E-03 -0.5006923598422E-02  0.0000000000000E+00 -0.2035770624502E-02
 0.6603252907066E-03 -0.5037664471328E-02  0.0000000000000E+00 -0.2204105031414E-02
 0.6873198730788E-03 -0.5057930143208E-02  0.0000000000000E+00 -0.2364389460750E-02
 0.6988906880372E-03 -0.5067282761947E-02  0.0000000000000E+00 -0.2517617389723E-02
 0.6953247336321E-03 -0.5065330503376E-02  0.0000000000000E+00 -0.2665098042714E-02
 0.6771179150063E-03 -0.5051717925194E-02  0.0000000000000E+00 -0.2808199608384E-02
 0.6449986829393E-03 -0.5026134661449E-02  0.0000000000000E+00 -0.2948103341952E-02
 0.5999752451392E-03 -0.4988344235407E-02  0.0000000000000E+00 -0.3085580450520E-02
 0.5434082743323E-03 -0.4938235709083E-02  0.0000000000000E+00 -0.3220796690194E-02
 0.4770993403126E-03 -0.4875891458026E-02  0.0000000000000E+00 -0.3353170372678E-02
 0.4033940508032E-03 -0.4801671630976E-02  0.0000000000000E+00 -0.3481278799463E-02
 0.3252902877363E-03 -0.4716310157730E-02  0.0000000000000E+00 -0.3602816787458E-02
 0.2465315224910E-03 -0.4621006352547E-02  0.0000000000000E+00 -0.3714626735192E-02
 0.1716806706611E-03 -0.4517498676066E-02  0.0000000000000E+00 -0.3812813475628E-02
 0.1061700025597E-03 -0.4408109013925E-02  0.0000000000000E+00 -0.3893064889140E-02
 0.5629450738279E-04 -0.4295875349023E-02  0.0000000000000E+00 -0.3950836968503E-02
 0.2909892606320E-04 -0.4184638025883E-02  0.0000000000000E+00 -0.3981238259406E-02
 0.3223348804945E-04 -0.4078970021482E-02  0.0000000000000E+00 -0.3979038009875E-02
 0.7380589703818E-04 -0.3984055069003E-02  0.0000000000000E+00 -0.3938905515640E-02
 0.1622154184489E-03 -0.3905572802729E-02  0.0000000000000E+00 -0.3855801273986E-02
 0.3059407293774E-03 -0.3849578197447E-02  0.0000000000000E+00 -0.3725489432776E-02
 0.5132500261604E-03 -0.3822336648235E-02  0.0000000000000E+00 -0.3545168921935E-02
 0.7917987388125E-03 -0.3830076367878E-02  0.0000000000000E+00 -0.3314212893887E-02
 0.1148085209100E-02 -0.3878624514272E-02  0.0000000000000E+00 -0.3034967055098E-02
 0.1586821357237E-02 -0.3972922556301E-02  0.0000000000000E+00 -0.2713464073646E-02
 0.2110365169800E-02 -0.4116487629121E-02  0.0000000000000E+00 -0.2359903477184E-02
 0.2718001411935E-02 -0.4310807848615E-02  0.0000000000000E+00 -0.1988882700238E-02
 0.3405006446263E-02 -0.4554633420144E-02  0.0000000000000E+00 -0.1619118447717E-02
 0.4161898362589E-02 -0.4843337602020E-02  0.0000000000000E+00 -0.1272295456840E-02
 0.4974018486133E-02 -0.5168515416242E-02  0.0000000000000E+00 -0.9710619522288E-03
 0.5821635275912E-02 -0.5517997091505E-02  0.0000000000000E+00 -0.7363196818461E-03
 0.6680755472050E-02 -0.5876431728941E-02  0.0000000000000E+00 -0.5841877727706E-03
 0.7524650834173E-02 -0.6226471814121E-02  0.0000000000000E+00 -0.5232637619176E-03
 0.8325980841186E-02 -0.6550447798583E-02  0.0000000000000E+00 -0.5528893265413E-03
 0.9059045680510E-02 -0.6832172941255E-02  0.0000000000000E+00 -0.6629400399516E-03
 0.6501558915417E-04 -0.4538215850165E-02  0.0000000000000E+00 -0.8482870119239E-03
 0.1892162176490E-03 -0.4617519628374E-02  0.0000000000000E+00 -0.1042870056182E-02
 0.3021374943366E-03 -0.4691334213385E-02  0.0000000000000E+00 -0.1242538547153E-02
 0.4024271769819E-03 -0.4758549263663E-02  0.0000000000000E+00 -0.1442282561747E-02
 0.4890262692500E-03 -0.4818235187176E-02  0.0000000000000E+00 -0.1638365458991E-02
 0.5611665884606E-03 -0.4869632616251E-02  0.0000000000000E+00 -0.1828255054922E-02
 0.6183585615130E-03 -0.4912132242194E-02  0.0000000000000E+00 -0.2010541651953E-02
 0.6603630216307E-03 -0.4945240684357E-02  0.0000000000000E+00 -0.2184813490722E-02
 0.6871545551968E-03 -0.4968539319381E-02  0.0000000000000E+00 -0.2351477311594E-02
 0.6988882890438E-03 -0.4981646185007E-02  0.0000000000000E+00 -0.2511530353522E-02
 0.6958806796082E-03 -0.4984189459488E-02  0.0000000000000E+00 -0.2666302437779E-02
 0.6786111738958E-03 -0.4975797762907E-02  0.0000000000000E+00 -0.2817188045643E-02
 0.6477480521175E-03 -0.4956109940031E-02  0.0000000000000E+00 -0.2965387527150E-02
 0.6041995221616E-03 -0.4924805518396E-02  0.0000000000000E+00 -0.3111669895902E-02
 0.5491918010734E-03 -0.4881658208262E-02  0.0000000000000E+00 -0.3256162435082E-02
 0.4843647432554E-03 -0.4826606848329E-02  0.0000000000000E+00 -0.3398195195175E-02
 0.4118837282780E-03 -0.4759843812225E-02  0.0000000000000E+00 -0.3536196459126E-02
 0.3345576649197E-03 -0.4681915505820E-02  0.0000000000000E+00 -0.3667644664761E-02
 0.2559420741546E-03 -0.4593819218265E-02  0.0000000000000E+00 -0.3789098585870E-02
 0.1804224404576E-03 -0.4497082358064E-02  0.0000000000000E+00 -0.3896317441580E-02
 0.1132753877455E-03 -0.4393818521296E-02  0.0000000000000E+00 -0.3984595067550E-02
 0.6066245636488E-04 -0.4286870401559E-02  0.0000000000000E+00 -0.4048966398841E-02
 0.2950888833414E-04 -0.4179891539187E-02  0.0000000000000E+00 -0.4084096730990E-02
 0.2736305185000E-04 -0.4077270163164E-02  0.0000000000000E+00 -0.4084279796225E-02
 0.6226607064522E-04 -0.3984013255386E-02  0.0000000000000E+00 -0.4043670282645E-02
 0.1426130599410E-03 -0.3905650581414E-02  0.0000000000000E+00 -0.3956679981250E-02
 0.2769749950318E-03 -0.3848142888988E-02  0.0000000000000E+00 -0.3818512163359E-02
 0.4738467625722E-03 -0.3817752216795E-02  0.0000000000000E+00 -0.3625836782242E-02
 0.7412818912163E-03 -0.3820831616075E-02  0.0000000000000E+00 -0.3377601707206E-02
 0.1086375802604E-02 -0.3863493717200E-02  0.0000000000000E+00 -0.3075934549126E-02
 0.1514644936507E-02 -0.3951142340970E-02  0.0000000000000E+00 -0.2726985728474E-02
 0.2029438526274E-02 -0.4087923100543E-02  0.0000000000000E+00 -0.2341548153600E-02
 0.2631146003538E-02 -0.4276073119421E-02  0.0000000000000E+00 -0.1935439654415E-02
 0.3316122803201E-02 -0.4515117278418E-02  0.0000000000000E+00 -0.1529346939153E-02
 0.4075746177242E-02 -0.4801080231129E-02  0.0000000000000E+00 -0.1147680392685E-02
 0.4895773090299E-02 -0.5125906567721E-02  0.0000000000000E+00 -0.8164068652990E-03
 0.5756241312469E-02 -0.5477307770145E-02  0.0000000000000E+00 -0.5599725220354E-03
 0.6632168198016E-02 -0.5839248574145E-02  0.0000000000000E+00 -0.3977091247313E-03
 0.7495127662681E-02 -0.6193163718979E-02  0.0000000000000E+00 -0.3404444347297E-03
 0.8315626843326E-02 -0.6519828360031E-02  0.0000000000000E+00 -0.3882302773515E-03
 0.9065749074839E-02 -0.6801464672056E-02  0.0000000000000E+00 -0.5299793751432E-03
 0.6596768391784E-04 -0.4435805216708E-02  0.0000000000000E+00 -0.7987540875098E-03
 0.1915489050322E-03 -0.4516262640606E-02  0.0000000000000E+00 -0.9953997220660E-03
 0.3050261102239E-03 -0.4591042049867E-02  0.0000000000000E+00 -0.1197888088084E-02
 0.4052780002699E-03 -0.4659213407117E-02  0.0000000000000E+00 -0.1401113798730E-02
 0.4914624660102E-03 -0.4720017460306E-02  0.0000000000000E+00 -0.1601248381350E-02
 0.5630157791710E-03 -0.4772855862185E-02  0.0000000000000E+00 -0.1795675921579E-02
 0.6196355341037E-03 -0.4817266514260E-02  0.0000000000000E+00 -0.1982923765171E-02
 0.6612430013607E-03 -0.4852881604695E-02  0.0000000000000E+00 -0.2162547751112E-02
 0.6879365353946E-03 -0.4879378693791E-02  0.0000000000000E+00 -0.2334954706275E-02
 0.6999510684419E-03 -0.4896437334637E-02  0.0000000000000E+00 -0.2501169157252E-02
 0.6976353090009E-03 -0.4903710208602E-02  0.0000000000000E+00 -0.2662565720108E-02
 0.6814530292260E-03 -0.4900813177992E-02  0.0000000000000E+00 -0.2820589342008E-02
 0.6520108252569E-03 -0.4887335894849E-02  0.0000000000000E+00 -0.2976483575729E-02
 0.6101128021520E-03 -0.4862873505624E-02  0.0000000000000E+00 -0.3131039443133E-02
 0.5568438105204E-03 -0.4827081527624E-02  0.0000000000000E+00 -0.3284369976559E-02
 0.4936723218806E-03 -0.4779749630502E-02  0.0000000000000E+00 -0.3435740640466E-02
 0.4225714980814E-03 -0.4720893909235E-02  0.0000000000000E+00 -0.3583452998640E-02
 0.3461477576149E-03 -0.4650862070288E-02  0.0000000000000E+00 -0.3724789346542E-02
 0.2677545448140E-03 -0.4570435903350E-02  0.0000000000000E+00 -0.3856042817759E-02
 0.1915860107717E-03 -0.4480916539249E-02  0.0000000000000E+00 -0.3972642408253E-02
 0.1227506467554E-03 -0.4384194283225E-02  0.0000000000000E+00 -0.4069497957419E-02
 0.6726505745092E-04 -0.4282902351827E-02  0.0000000000000E+00 -0.4141229451356E-02
 0.3192207139591E-04 -0.4180491276661E-02  0.0000000000000E+00 -0.4182066105769E-02
 0.2415234279377E-04 -0.4081143774470E-02  0.0000000000000E+00 -0.4185832488407E-02
 0.5191194701820E-04 -0.3989664190894E-02  0.0000000000000E+00 -0.4146166727507E-02
 0.1235726866313E-03 -0.3911402499713E-02  0.0000000000000E+00 -0.4056912441083E-02
 0.2477814521916E-03 -0.3852193729056E-02  0.0000000000000E+00 -0.3912665922354E-02
 0.4332514142068E-03 -0.3818267464215E-02  0.0000000000000E+00 -0.3709487564250E-02
 0.6884409339391E-03 -0.3816080696184E-02  0.0000000000000E+00 -0.3445780050107E-02
 0.1021073398042E-02 -0.3852026615385E-02  0.0000000000000E+00 -0.3123294888020E-02
 0.1437534634135E-02 -0.3931991063326E-02  0.0000000000000E+00 -0.2748114957778E-02
 0.1942272766712E-02 -0.4060800041114E-02  0.0000000000000E+00 -0.2331437048200E-02
 0.2536936009497E-02 -0.4241529493439E-02  0.0000000000000E+00 -0.1890145759777E-02
 0.3219151257641E-02 -0.4474604203191E-02  0.0000000000000E+00 -0.1446836348659E-02
 0.3981360042636E-02 -0.4756843252137E-02  0.0000000000000E+00 -0.1028732929464E-02
 0.4809908978473E-02 -0.5080668503451E-02  0.0000000000000E+00 -0.6653970843735E-03
 0.5684691249366E-02 -0.5433740759237E-02  0.0000000000000E+00 -0.3852796644550E-03
 0.6579676769135E-02 -0.5799303811435E-02  0.0000000000000E+00 -0.2115020587710E-03
 0.7464509386954E-02 -0.6157407459921E-02  0.0000000000000E+00 -0.1576724333683E-03
 0.8307177048328E-02 -0.6487002036850E-02  0.0000000000000E+00 -0.2248863013376E-03
 0.9077173591218E-02 -0.6768446778497E-02  0.0000000000000E+00 -0.4011217189293E-03
 0.6698156495650E-04 -0.4332609201461E-02  0.0000000000000E+00 -0.7483076748503E-03
 0.1940598032324E-03 -0.4414300083769E-02  0.0000000000000E+00 -0.9470449339429E-03
 0.3081982328212E-03 -0.4490123694927E-02  0.0000000000000E+00 -0.1152254886965E-02
 0.4085077088010E-03 -0.4559332433244E-02  0.0000000000000E+00 -0.1358745555305E-02
 0.4943638289105E-03 -0.4621339756523E-02  0.0000000000000E+00 -0.1562602330420E-02
 0.5654103479875E-03 -0.4675712740672E-02  0.0000000000000E+00 -0.1761132126064E-02
 0.6215374518858E-03 -0.4722142813669E-02  0.0000000000000E+00 -0.1952810611158E-02
 0.6628333464317E-03 -0.4760394776806E-02  0.0000000000000E+00 -0.2137178386040E-02
 0.6895262287617E-03 -0.4790249005622E-02  0.0000000000000E+00 -0.2314664100564E-02
 0.7019355238937E-03 -0.4811452204431E-02  0.0000000000000E+00 -0.2486343689916E-02
 0.7004450787186E-03 -0.4823686079317E-02  0.0000000000000E+00 -0.2653661389714E-02
 0.6855039078955E-03 -0.4826557142275E-02  0.0000000000000E+00 -0.2818137495129E-02
 0.6576556750524E-03 -0.4819607982852E-02  0.0000000000000E+00 -0.2981083843286E-02
 0.6175966555720E-03 -0.4802349801234E-02  0.0000000000000E+00 -0.3143339086154E-02
 0.5662638079609E-03 -0.4774318074296E-02  0.0000000000000E+00 -0.3305028163714E-02
 0.5049448294308E-03 -0.4735148689329E-02  0.0000000000000E+00 -0.3465377982366E-02
 0.4354087789260E-03 -0.4684673885888E-02  0.0000000000000E+00 -0.3622588226244E-02
 0.3600460328290E-03 -0.4623032287793E-02  0.0000000000000E+00 -0.3773767783991E-02
 0.2819937570977E-03 -0.4550777390018E-02  0.0000000000000E+00 -0.3914964520886E-02
 0.2052408202053E-03 -0.4468969397038E-02  0.0000000000000E+00 -0.4041294981325E-02
 0.1347150960855E-03 -0.4379260785759E-02  0.0000000000000E+00 -0.4147297392819E-02
 0.7627671617322E-04 -0.4284061475873E-02  0.0000000000000E+00 -0.4227185466959E-02
 0.3657270741286E-04 -0.4186602915029E-02  0.0000000000000E+00 -0.4274763009606E-02
 0.2289871724362E-04 -0.4090841010610E-02  0.0000000000000E+00 -0.4283396314733E-02
 0.4310439541610E-04 -0.4001349894092E-02  0.0000000000000E+00 -0.4246210046632E-02
 0.1055143033314E-03 -0.3923266509083E-02  0.0000000000000E+00 -0.4156464864672E-02
 0.2188279885554E-03 -0.3862263325623E-02  0.0000000000000E+00 -0.4008107101857E-02
 0.3919595010062E-03 -0.3824500725409E-02  0.0000000000000E+00 -0.3796506887049E-02
 0.6337681265837E-03 -0.3816508857591E-02  0.0000000000000E+00 -0.3519396153063E-02
 0.9526251721095E-03 -0.3844945249238E-02  0.0000000000000E+00 -0.3177978370397E-02
 0.1355842029651E-02 -0.3916186492369E-02  0.0000000000000E+00 -0.2778059006774E-02
 0.1849070709853E-02 -0.4035783240691E-02  0.0000000000000E+00 -0.2331013265105E-02
 0.2435380561643E-02 -0.4207739876410E-02  0.0000000000000E+00 -0.1854594852148E-02
 0.3113885602773E-02 -0.4433517589205E-02  0.0000000000000E+00 -0.1373203703730E-02
 0.3878335806389E-02 -0.4710897073256E-02  0.0000000000000E+00 -0.9169405299171E-03
 0.4715891340011E-02 -0.5032939028580E-02  0.0000000000000E+00 -0.5192474314826E-03
 0.5606436160302E-02 -0.5387356981708E-02  0.0000000000000E+00 -0.2130986167130E-03
 0.6522864773739E-02 -0.5756660885358E-02  0.0000000000000E+00 -0.2609354838259E-04
 0.7432644077462E-02 -0.6119341071706E-02  0.0000000000000E+00  0.2468420354632E-04
 0.8300804173312E-02 -0.6452203000910E-02  0.0000000000000E+00 -0.6333892577873E-04
 0.9093807562221E-02 -0.6733421051842E-02  0.0000000000000E+00 -0.2771972550265E-03
 0.6804552939890E-04 -0.4228517292034E-02  0.0000000000000E+00 -0.6968981289790E-03
 0.1967148972003E-03 -0.4311507077919E-02  0.0000000000000E+00 -0.8977546641289E-03
 0.3115994700939E-03 -0.4388440505184E-02  0.0000000000000E+00 -0.1105584383613E-02
 0.4120425424573E-03 -0.4458753995847E-02  0.0000000000000E+00 -0.1315118179340E-02
 0.4976378616261E-03 -0.4522036003719E-02  0.0000000000000E+00 -0.1522359611232E-02
 0.5682402101158E-03 -0.4578023975062E-02  0.0000000000000E+00 -0.1724543196666E-02
 0.6239387977816E-03 -0.4626569962568E-02  0.0000000000000E+00 -0.1920103254404E-02
 0.6649961950477E-03 -0.4667578994900E-02  0.0000000000000E+00 -0.2108582363377E-02
 0.6917770693249E-03 -0.4700941086162E-02  0.0000000000000E+00 -0.2290453327808E-02
 0.7046902331391E-03 -0.4726475674086E-02  0.0000000000000E+00 -0.2466868246282E-02
 0.7041576328803E-03 -0.4743897981642E-02  0.0000000000000E+00 -0.2639366267778E-02
 0.6906145987218E-03 -0.4752808811945E-02  0.0000000000000E+00 -0.2809568333937E-02
 0.6645409547251E-03 -0.4752706434945E-02  0.0000000000000E+00 -0.2978880293017E-02
 0.6265219158985E-03 -0.4743019503000E-02  0.0000000000000E+00 -0.3148215199836E-02
 0.5773405413980E-03 -0.4723162779864E-02  0.0000000000000E+00 -0.3317737851353E-02
 0.5180947487495E-03 -0.4692614958621E-02  0.0000000000000E+00 -0.3486664967918E-02
 0.4503377758601E-03 -0.4651017927142E-02  0.0000000000000E+00 -0.3653121820307E-02
 0.3762303924783E-03 -0.4598291752415E-02  0.0000000000000E+00 -0.3814069236977E-02
 0.2986792288985E-03 -0.4534749617537E-02  0.0000000000000E+00 -0.3965332666613E-02
 0.2214539381635E-03 -0.4461196839163E-02  0.0000000000000E+00 -0.4101736445967E-02
 0.1492894191077E-03 -0.4379034125189E-02  0.0000000000000E+00 -0.4217462041227E-02
 0.8787792100592E-04 -0.4290434813479E-02  0.0000000000000E+00 -0.4306328362038E-02
 0.4370700853332E-04 -0.4198395532584E-02  0.0000000000000E+00 -0.4361728434133E-02
 0.2391875858199E-04 -0.4106623786620E-02  0.0000000000000E+00 -0.4376586497522E-02
 0.3623218935916E-04 -0.4019434448602E-02  0.0000000000000E+00 -0.4343523082972E-02
 0.8889584810878E-04 -0.3941715039971E-02  0.0000000000000E+00 -0.4255207437559E-02
 0.1906314534919E-03 -0.3878933278694E-02  0.0000000000000E+00 -0.4104898238747E-02
 0.3505267227014E-03 -0.3837135573293E-02  0.0000000000000E+00 -0.3887197146980E-02
 0.5778258207512E-03 -0.3822883589467E-02  0.0000000000000E+00 -0.3599036842254E-02
 0.8815546475705E-03 -0.3843069826288E-02  0.0000000000000E+00 -0.3240888925097E-02
 0.1269994499090E-02 -0.3904556652127E-02  0.0000000000000E+00 -0.2818047050465E-02
 0.1750100203772E-02 -0.4013652576445E-02  0.0000000000000E+00 -0.2341799899998E-02
 0.2326530377507E-02 -0.4175376681300E-02  0.0000000000000E+00 -0.1830520288617E-02
 0.3000125387517E-02 -0.4392372943453E-02  0.0000000000000E+00 -0.1310253734450E-02
 0.3766231570713E-02 -0.4663576840904E-02  0.0000000000000E+00 -0.8140006870442E-03
 0.4613106035583E-02 -0.4982888888284E-02  0.0000000000000E+00 -0.3793681987333E-03
 0.5520821600508E-02 -0.5338222375517E-02  0.0000000000000E+00 -0.4442815038405E-04
 0.6461215253585E-02 -0.5711374825476E-02  0.0000000000000E+00  0.1579308598943E-03
 0.7399324285783E-02 -0.6079104256263E-02  0.0000000000000E+00  0.2062708412628E-03
 0.8296684952449E-02 -0.6415687456662E-02  0.0000000000000E+00  0.9594909558014E-04
 0.9116173954577E-02 -0.6696713958937E-02  0.0000000000000E+00 -0.1590462779676E-03
 0.6914744527712E-04 -0.4123416686052E-02  0.0000000000000E+00 -0.6444846910102E-03
 0.1994791344866E-03 -0.4207755932293E-02  0.0000000000000E+00 -0.8474864930727E-03
 0.3151740516988E-03 -0.4285850504585E-02  0.0000000000000E+00 -0.1057830821454E-02
 0.4158068558993E-03 -0.4357321639888E-02  0.0000000000000E+00 -0.1270181327970E-02
 0.5011893094719E-03 -0.4421934938794E-02  0.0000000000000E+00 -0.1480462092905E-02
 0.5713913915408E-03 -0.4479603865694E-02  0.0000000000000E+00 -0.1685837883309E-02
 0.6267089891149E-03 -0.4530349154555E-02  0.0000000000000E+00 -0.1884711123679E-02
 0.6675875336004E-03 -0.4574224308370E-02  0.0000000000000E+00 -0.2076643964624E-02
 0.6945353556439E-03 -0.4611235933109E-02  0.0000000000000E+00 -0.2262176563439E-02
 0.7080556977421E-03 -0.4641281611298E-02  0.0000000000000E+00 -0.2442562617603E-02
 0.7086115862066E-03 -0.4664114453282E-02  0.0000000000000E+00 -0.2619461755453E-02
 0.6966258974715E-03 -0.4679333412868E-02  0.0000000000000E+00 -0.2794620923432E-02
 0.6725141277256E-03 -0.4686395873684E-02  0.0000000000000E+00 -0.2969565955984E-02
 0.6367478357645E-03 -0.4684650462863E-02  0.0000000000000E+00 -0.3145311908937E-02
 0.5899508551840E-03 -0.4673391944734E-02  0.0000000000000E+00 -0.3322093000188E-02
 0.5330228435409E-03 -0.4651939825535E-02  0.0000000000000E+00 -0.3499146472923E-02
 0.4672897474001E-03 -0.4619740408792E-02  0.0000000000000E+00 -0.3674553390715E-02
 0.3946691780606E-03 -0.4576486773316E-02  0.0000000000000E+00 -0.3845154621461E-02
 0.3178229339582E-03 -0.4522240657391E-02  0.0000000000000E+00 -0.4006578630787E-02
 0.2402876047477E-03 -0.4457539332416E-02  0.0000000000000E+00 -0.4153380337358E-02
 0.1665930309385E-03 -0.4383518538199E-02  0.0000000000000E+00 -0.4279401857864E-02
 0.1022525192359E-03 -0.4302102468242E-02  0.0000000000000E+00 -0.4378081765576E-02
 0.5358049662538E-04 -0.4216037783415E-02  0.0000000000000E+00 -0.4442421325846E-02
 0.2754587722792E-04 -0.4128761988572E-02  0.0000000000000E+00 -0.4464925044254E-02
 0.3171018974549E-04 -0.4044300507473E-02  0.0000000000000E+00 -0.4437726069602E-02
 0.7421239806144E-04 -0.3967252196554E-02  0.0000000000000E+00 -0.4352901821778E-02
 0.1637584775606E-03 -0.3902832653603E-02  0.0000000000000E+00 -0.4202993267352E-02
 0.3095721215702E-03 -0.3856921373379E-02  0.0000000000000E+00 -0.3981760931405E-02
 0.5212527336312E-03 -0.3836058224450E-02  0.0000000000000E+00 -0.3685210265526E-02
 0.8084716465162E-03 -0.3847326330176E-02  0.0000000000000E+00 -0.3312888357183E-02
 0.1180508828825E-02 -0.3898052044353E-02  0.0000000000000E+00 -0.2869319336315E-02
 0.1645710321963E-02 -0.3995319649154E-02  0.0000000000000E+00 -0.2365398251542E-02
 0.2210494058787E-02 -0.4145241454592E-02  0.0000000000000E+00 -0.1819806092543E-02
 0.2877688582018E-02 -0.4351797786691E-02  0.0000000000000E+00 -0.1260004722635E-02
 0.3644572630065E-02 -0.4615299205338E-02  0.0000000000000E+00 -0.7218594721138E-03
 0.4500853879692E-02 -0.4930732377526E-02  0.0000000000000E+00 -0.2474103259054E-03
 0.5427070105509E-02 -0.5286410117994E-02  0.0000000000000E+00  0.1195482509993E-03
 0.6394084139910E-02 -0.5663483851522E-02  0.0000000000000E+00  0.3398996294846E-03
 0.7364266668931E-02 -0.6036825050425E-02  0.0000000000000E+00  0.3867514620505E-03
 0.8295000948524E-02 -0.6377727311951E-02  0.0000000000000E+00  0.2525485074413E-03
 0.9144816022065E-02 -0.6658663703028E-02  0.0000000000000E+00 -0.4752721827203E-04
 0.7027475415309E-04 -0.4017192512663E-02  0.0000000000000E+00 -0.5910359137183E-03
 0.2023164820992E-03 -0.4102916379187E-02  0.0000000000000E+00 -0.7962070085442E-03
 0.3188649593853E-03 -0.4182208606946E-02  0.0000000000000E+00 -0.1008957825865E-02
 0.4197232301133E-03 -0.4254874934582E-02  0.0000000000000E+00 -0.1223894828833E-02
 0.5049201567187E-03 -0.4320860113606E-02  0.0000000000000E+00 -0.1436862236578E-02
 0.5747459045383E-03 -0.4380260214798E-02  0.0000000000000E+00 -0.1644955174721E-02
 0.6297121934492E-03 -0.4433273889782E-02  0.0000000000000E+00 -0.1846552928859E-02
 0.6704570239268E-03 -0.4480112042239E-02  0.0000000000000E+00 -0.2041255641467E-02
 0.6976401199928E-03 -0.4520904832858E-02  0.0000000000000E+00 -0.2229695242232E-02
 0.7118642284121E-03 -0.4555633046730E-02  0.0000000000000E+00 -0.2413253193966E-02
 0.7136363546548E-03 -0.4584091789232E-02  0.0000000000000E+00 -0.2593735191926E-02
 0.7033682893740E-03 -0.4605882201667E-02  0.0000000000000E+00 -0.2773039168671E-02
 0.6814112098625E-03 -0.4620424980774E-02  0.0000000000000E+00 -0.2952836687002E-02
 0.6481212182277E-03 -0.4626992554782E-02  0.0000000000000E+00 -0.3134272831057E-02
 0.6039584751194E-03 -0.4624762035636E-02  0.0000000000000E+00 -0.3317682200705E-02
 0.5496165981456E-03 -0.4612893429520E-02  0.0000000000000E+00 -0.3502355599278E-02
 0.4861831238999E-03 -0.4590633706142E-02  0.0000000000000E+00 -0.3686362975393E-02
 0.4153189948668E-03 -0.4557441722154E-02  0.0000000000000E+00 -0.3866456272346E-02
 0.3394268511586E-03 -0.4513117634583E-02  0.0000000000000E+00 -0.4038095107974E-02
 0.2617965238291E-03 -0.4457918435344E-02  0.0000000000000E+00 -0.4195590372792E-02
 0.1867411532587E-03 -0.4392702590112E-02  0.0000000000000E+00 -0.4332464858843E-02
 0.1195846515075E-03 -0.4319133510786E-02  0.0000000000000E+00 -0.4441794407591E-02
 0.6645493272520E-04 -0.4239693604992E-02  0.0000000000000E+00 -0.4516212319274E-02
 0.3412744438164E-04 -0.4157529128239E-02  0.0000000000000E+00 -0.4547832511164E-02
 0.2997699364995E-04 -0.4076345130528E-02  0.0000000000000E+00 -0.4528326069339E-02
 0.6199478846661E-04 -0.4000410166176E-02  0.0000000000000E+00 -0.4449187917047E-02
 0.1388257099167E-03 -0.3934635579717E-02  0.0000000000000E+00 -0.4302221376351E-02
 0.2697807958414E-03 -0.3884672974094E-02  0.0000000000000E+00 -0.4080282139528E-02
 0.4647701298303E-03 -0.3856974893554E-02  0.0000000000000E+00 -0.3778325250347E-02
 0.7340828258493E-03 -0.3858754021897E-02  0.0000000000000E+00 -0.3394776194060E-02
 0.1088006425391E-02 -0.3897758711372E-02  0.0000000000000E+00 -0.2933111357433E-02
 0.1536350371895E-02 -0.3981846569337E-02  0.0000000000000E+00 -0.2403481522248E-02
 0.2087458267575E-02 -0.4118288071729E-02  0.0000000000000E+00 -0.1824495557291E-02
 0.2746428468650E-02 -0.4312556202312E-02  0.0000000000000E+00 -0.1224715343843E-02
 0.3512859869007E-02 -0.4566583998570E-02  0.0000000000000E+00 -0.6427552540754E-03
 0.4378346504377E-02 -0.4876742456875E-02  0.0000000000000E+00 -0.1253194131930E-03
 0.5324263504204E-02 -0.5232006964815E-02  0.0000000000000E+00  0.2774069928076E-03
 0.6320666957316E-02 -0.5613002887843E-02  0.0000000000000E+00  0.5190068755049E-03
 0.7327078204000E-02 -0.5992595011487E-02  0.0000000000000E+00  0.5658053300966E-03
 0.8295941494868E-02 -0.6338592211578E-02  0.0000000000000E+00  0.4060957092137E-03
 0.9180269893945E-02 -0.6619582521048E-02  0.0000000000000E+00  0.5648331390690E-04
 0.7141448207239E-04 -0.3909728118590E-02  0.0000000000000E+00 -0.5365300943952E-03
 0.2051900171185E-03 -0.3996855885885E-02  0.0000000000000E+00 -0.7438922108871E-03
 0.3226141191563E-03 -0.4077366900051E-02  0.0000000000000E+00 -0.9589390579339E-03
 0.4237126282422E-03 -0.4151249613711E-02  0.0000000000000E+00 -0.1176229672832E-02
 0.5087296260917E-03 -0.4218629857137E-02  0.0000000000000E+00 -0.1391524226919E-02
 0.5781815968108E-03 -0.4279794185000E-02  0.0000000000000E+00 -0.1601845335356E-02
 0.6328071190142E-03 -0.4335129857205E-02  0.0000000000000E+00 -0.1805557508868E-02
 0.6734478309294E-03 -0.4385014803258E-02  0.0000000000000E+00 -0.2002318759275E-02
 0.7009230314002E-03 -0.4429709510991E-02  0.0000000000000E+00 -0.2192878880207E-02
 0.7159398904801E-03 -0.4469282409204E-02  0.0000000000000E+00 -0.2378774040497E-02
 0.7190520573375E-03 -0.4503574246293E-02  0.0000000000000E+00 -0.2561981288351E-02
 0.7106616959446E-03 -0.4532192496737E-02  0.0000000000000E+00 -0.2744573611269E-02
 0.6910562507753E-03 -0.4554526209321E-02  0.0000000000000E+00 -0.2928393227536E-02
 0.6604755475026E-03 -0.4569776943277E-02  0.0000000000000E+00 -0.3114743222441E-02
 0.6192127448260E-03 -0.4577008426002E-02  0.0000000000000E+00 -0.3304090663250E-02
 0.5677485609768E-03 -0.4575222841527E-02  0.0000000000000E+00 -0.3495815264268E-02
 0.5069214894916E-03 -0.4563465825161E-02  0.0000000000000E+00 -0.3688012024258E-02
 0.4381223678192E-03 -0.4540956155553E-02  0.0000000000000E+00 -0.3877378174645E-02
 0.3634803157711E-03 -0.4507223386251E-02  0.0000000000000E+00 -0.4059235473352E-02
 0.2860249229525E-03 -0.4462233034920E-02  0.0000000000000E+00 -0.4227678811652E-02
 0.2098416104330E-03 -0.4406555030792E-02  0.0000000000000E+00 -0.4375934296097E-02
 0.1400553499633E-03 -0.4341581502491E-02  0.0000000000000E+00 -0.4496735865812E-02
 0.8259483853434E-04 -0.4269517479044E-02  0.0000000000000E+00 -0.4582377752793E-02
 0.4402142941187E-04 -0.4193197453569E-02  0.0000000000000E+00 -0.4624619915728E-02
 0.3149198154689E-04 -0.4115974943264E-02  0.0000000000000E+00 -0.4614706323645E-02
 0.5280752191283E-04 -0.4041744785965E-02  0.0000000000000E+00 -0.4543570113040E-02
 0.1164992754401E-03 -0.3975057845803E-02  0.0000000000000E+00 -0.4402269673486E-02
 0.2319058828236E-03 -0.3921269313486E-02  0.0000000000000E+00 -0.4182704897288E-02
 0.4091875680131E-03 -0.3886666525164E-02  0.0000000000000E+00 -0.3878667133150E-02
 0.6592024585247E-03 -0.3878512487558E-02  0.0000000000000E+00 -0.3487264576830E-02
 0.9932299214171E-03 -0.3904911869132E-02  0.0000000000000E+00 -0.3010632014321E-02
 0.1422591824528E-02 -0.3974466875010E-02  0.0000000000000E+00 -0.2457782557114E-02
 0.1957712312471E-02 -0.4095649903304E-02  0.0000000000000E+00 -0.1846795797740E-02
 0.2606255737181E-02 -0.4275578918898E-02  0.0000000000000E+00 -0.1206911468940E-02
 0.3370582539527E-02 -0.4518082017857E-02  0.0000000000000E+00 -0.5792677866081E-03
 0.4244704756508E-02 -0.4821271341555E-02  0.0000000000000E+00 -0.1539886571350E-04
 0.5211325307679E-02 -0.5175125561077E-02  0.0000000000000E+00  0.4274166002627E-03
 0.6239966634523E-02 -0.5559924938958E-02  0.0000000000000E+00  0.6942436768794E-03
 0.7287193732053E-02 -0.5946442270758E-02  0.0000000000000E+00  0.7430670738873E-03
 0.8299709650426E-02 -0.6298480491782E-02  0.0000000000000E+00  0.5563667996413E-03
 0.9222980794640E-02 -0.6579660175120E-02  0.0000000000000E+00  0.1521051210585E-03
 0.7255324781528E-04 -0.3800905421975E-02  0.0000000000000E+00 -0.4809557143227E-03
 0.2080620620454E-03 -0.3889440095168E-02  0.0000000000000E+00 -0.6905279284664E-03
 0.3263626682330E-03 -0.3971175017080E-02  0.0000000000000E+00 -0.9077590183042E-03
 0.4276945887519E-03 -0.4046277724928E-02  0.0000000000000E+00 -0.1127169213494E-02
 0.5125141595775E-03 -0.4115057193151E-02  0.0000000000000E+00 -0.1344425258821E-02
 0.5815719485467E-03 -0.4178000092488E-02  0.0000000000000E+00 -0.1556470983180E-02
 0.6358467608271E-03 -0.4235694782318E-02  0.0000000000000E+00 -0.1761664600260E-02
 0.6763964459133E-03 -0.4288696511350E-02  0.0000000000000E+00 -0.1959744206830E-02
 0.7042083408802E-03 -0.4337402368304E-02  0.0000000000000E+00 -0.2151605785710E-02
 0.7200985268107E-03 -0.4381971890478E-02  0.0000000000000E+00 -0.2338967944474E-02
 0.7246695118236E-03 -0.4422294399043E-02  0.0000000000000E+00 -0.2524003649261E-02
 0.7183153094091E-03 -0.4457987859032E-02  0.0000000000000E+00 -0.2708983445122E-02
 0.7012608754464E-03 -0.4488415619533E-02  0.0000000000000E+00 -0.2895943617732E-02
 0.6736301330202E-03 -0.4512715424727E-02  0.0000000000000E+00 -0.3086372582247E-02
 0.6355473168170E-03 -0.4529844138718E-02  0.0000000000000E+00 -0.3280902736950E-02
 0.5872745833562E-03 -0.4538650166078E-02  0.0000000000000E+00 -0.3479040340564E-02
 0.5293914096409E-03 -0.4537977880958E-02  0.0000000000000E+00 -0.3678944914415E-02
 0.4630052051699E-03 -0.4526801722073E-02  0.0000000000000E+00 -0.3877296685363E-02
 0.3899571465754E-03 -0.4504372855389E-02  0.0000000000000E+00 -0.4069313592804E-02
 0.3130033532978E-03 -0.4470355276741E-02  0.0000000000000E+00 -0.4248905226517E-02
 0.2359913194450E-03 -0.4425020300753E-02  0.0000000000000E+00 -0.4409026206745E-02
 0.1638387710134E-03 -0.4369479614489E-02  0.0000000000000E+00 -0.4542092640710E-02
 0.1022635773111E-03 -0.4305649208914E-02  0.0000000000000E+00 -0.4640093945554E-02
 0.5759249871382E-04 -0.4236032457800E-02  0.0000000000000E+00 -0.4694480796727E-02
 0.3673169984381E-04 -0.4163600524672E-02  0.0000000000000E+00 -0.4696115536826E-02
 0.4724586588417E-04 -0.4091830116383E-02  0.0000000000000E+00 -0.4635403078389E-02
 0.9749329172193E-04 -0.4024852256616E-02  0.0000000000000E+00 -0.4502664684627E-02
 0.1967695815172E-03 -0.3967650597304E-02  0.0000000000000E+00 -0.4288810187345E-02
 0.3554079271193E-03 -0.3926257429008E-02  0.0000000000000E+00 -0.3986369729778E-02
 0.5847631948671E-03 -0.3907887707481E-02  0.0000000000000E+00 -0.3590947424231E-02
 0.8970610858178E-03 -0.3920909656354E-02  0.0000000000000E+00 -0.3103034404790E-02
 0.1305153476005E-02 -0.3974608422594E-02  0.0000000000000E+00 -0.2530073694206E-02
 0.1821678070387E-02 -0.4078671369094E-02  0.0000000000000E+00 -0.1889076190543E-02
 0.2457167275175E-02 -0.4241999999897E-02  0.0000000000000E+00 -0.1209411463976E-02
 0.3217237433370E-02 -0.4470610611026E-02  0.0000000000000E+00 -0.5343726449814E-03
 0.4098959809969E-02 -0.4764777849697E-02  0.0000000000000E+00  0.7961537681139E-04
 0.5087006118911E-02 -0.5115922966702E-02  0.0000000000000E+00  0.5674616311376E-03
 0.6150761445482E-02 -0.5504238245523E-02  0.0000000000000E+00  0.8643084729973E-03
 0.7243827170879E-02 -0.5898326213885E-02  0.0000000000000E+00  0.9180153322827E-03
 0.8306420924145E-02 -0.6257439640279E-02  0.0000000000000E+00  0.7030979219222E-03
 0.9273185171569E-02 -0.6538351250057E-02  0.0000000000000E+00  0.2389843024046E-03
 0.7367728856152E-04 -0.3690605293963E-02  0.0000000000000E+00 -0.4243117599818E-03
 0.2108944110510E-03 -0.3780533536769E-02  0.0000000000000E+00 -0.6361102145536E-03
 0.3300513268512E-03 -0.3863480566187E-02  0.0000000000000E+00 -0.8554141317747E-03
 0.4315874479057E-03 -0.3939787774371E-02  0.0000000000000E+00 -0.1076710606323E-02
 0.5161673649378E-03 -0.4009949682573E-02  0.0000000000000E+00 -0.1295557018870E-02
 0.5847857884841E-03 -0.4074665099103E-02  0.0000000000000E+00 -0.1508808193029E-02
 0.6386780846764E-03 -0.4134738226990E-02  0.0000000000000E+00 -0.1714825471093E-02
 0.6791325051352E-03 -0.4190912464985E-02  0.0000000000000E+00 -0.1913452810837E-02
 0.7073128824371E-03 -0.4243726828328E-02  0.0000000000000E+00 -0.2105763609919E-02
 0.7241478806800E-03 -0.4293433975775E-02  0.0000000000000E+00 -0.2293687403714E-02
 0.7302903499087E-03 -0.4339973689535E-02  0.0000000000000E+00 -0.2479616372974E-02
 0.7261275433912E-03 -0.4382978468552E-02  0.0000000000000E+00 -0.2666038765556E-02
 0.7118239125815E-03 -0.4421792884676E-02  0.0000000000000E+00 -0.2855205997265E-02
 0.6873892872214E-03 -0.4455499883906E-02  0.0000000000000E+00 -0.3048817781362E-02
 0.6527788076946E-03 -0.4482958623137E-02  0.0000000000000E+00 -0.3247705044775E-02
 0.6080319501053E-03 -0.4502870582874E-02  0.0000000000000E+00 -0.3451540443961E-02
 0.5534600899148E-03 -0.4513881424392E-02  0.0000000000000E+00 -0.3658591088872E-02
 0.4898740498946E-03 -0.4514718843547E-02  0.0000000000000E+00 -0.3865561825653E-02
 0.4188125276992E-03 -0.4504349203486E-02  0.0000000000000E+00 -0.4067604146060E-02
 0.3427452103097E-03 -0.4482126174460E-02  0.0000000000000E+00 -0.4258475741656E-02
 0.2652724558961E-03 -0.4448013676503E-02  0.0000000000000E+00 -0.4430887394068E-02
 0.1910980456239E-03 -0.4402835335211E-02  0.0000000000000E+00 -0.4576964626179E-02
 0.1257189750798E-03 -0.4348208207069E-02  0.0000000000000E+00 -0.4688431827186E-02
 0.7520754747894E-04 -0.4286286771235E-02  0.0000000000000E+00 -0.4756483552986E-02
 0.4618552589264E-04 -0.4219629980340E-02  0.0000000000000E+00 -0.4771657276763E-02
 0.4593203778921E-04 -0.4151251922377E-02  0.0000000000000E+00 -0.4723877313830E-02
 0.8256726521644E-04 -0.4084802556761E-02  0.0000000000000E+00 -0.4602752922912E-02
 0.1652629268252E-03 -0.4024813717552E-02  0.0000000000000E+00 -0.4398190338869E-02
 0.3044313125024E-03 -0.3976961970795E-02  0.0000000000000E+00 -0.4101383325744E-02
 0.5118263541796E-03 -0.3948296506831E-02  0.0000000000000E+00 -0.3706263207350E-02
 0.8005397207936E-03 -0.3947326363651E-02  0.0000000000000E+00 -0.3211377768109E-02
 0.1184929930093E-02 -0.3983917887141E-02  0.0000000000000E+00 -0.2622136388514E-02
 0.1679946133955E-02 -0.4068944159714E-02  0.0000000000000E+00 -0.1953857747851E-02
 0.2299283346558E-02 -0.4213201429757E-02  0.0000000000000E+00 -0.1235347846541E-02
 0.3052356605775E-02 -0.4425198789648E-02  0.0000000000000E+00 -0.5114998543404E-03
 0.3940059736599E-02 -0.4707864448797E-02  0.0000000000000E+00  0.1564652079294E-03
 0.4949863511037E-02 -0.5054621716267E-02  0.0000000000000E+00  0.6949559901722E-03
 0.6051602346408E-02 -0.5445964669156E-02  0.0000000000000E+00  0.1027527638870E-02
 0.7195864344829E-02 -0.5848165019635E-02  0.0000000000000E+00  0.1089824539366E-02
 0.8316467987657E-02 -0.6215615926769E-02  0.0000000000000E+00  0.8453754221165E-03
 0.9328260395816E-02 -0.6492058677651E-02  0.0000000000000E+00  0.3170872629528E-03
 0.7478912753078E-04 -0.3578699851969E-02  0.0000000000000E+00 -0.3665802731193E-03
 0.2136541508868E-03 -0.3669957837602E-02  0.0000000000000E+00 -0.5806094347165E-03
 0.3336267904667E-03 -0.3754060087555E-02  0.0000000000000E+00 -0.8018611312525E-03
 0.4353135093819E-03 -0.3831508498080E-02  0.0000000000000E+00 -0.1024799356120E-02
 0.5195840626102E-03 -0.3902986763282E-02  0.0000000000000E+00 -0.1244846532712E-02
 0.5876901434129E-03 -0.3969421680165E-02  0.0000000000000E+00 -0.1458753010789E-02
 0.6411441621733E-03 -0.4031851416493E-02  0.0000000000000E+00 -0.1664894736789E-02
 0.6814810474237E-03 -0.4091219469541E-02  0.0000000000000E+00 -0.1863252163901E-02
 0.7100497377765E-03 -0.4148211462807E-02  0.0000000000000E+00 -0.2055111042688E-02
 0.7278944387593E-03 -0.4203174111032E-02  0.0000000000000E+00 -0.2242641243439E-02
 0.7357193196599E-03 -0.4256099093870E-02  0.0000000000000E+00 -0.2428476047669E-02
 0.7339065317136E-03 -0.4306638175752E-02  0.0000000000000E+00 -0.2615339069419E-02
 0.7225631649214E-03 -0.4354126011453E-02  0.0000000000000E+00 -0.2805715683186E-02
 0.7015885853621E-03 -0.4397602795665E-02  0.0000000000000E+00 -0.3001542044772E-02
 0.6707706434401E-03 -0.4435842843305E-02  0.0000000000000E+00 -0.3203882270980E-02
 0.6299234124939E-03 -0.4467411284209E-02  0.0000000000000E+00 -0.3412619307910E-02
 0.5790812360674E-03 -0.4490760579048E-02  0.0000000000000E+00 -0.3626176863187E-02
 0.5187439505809E-03 -0.4504370999811E-02  0.0000000000000E+00 -0.3841332351300E-02
 0.4501311849137E-03 -0.4506918252557E-02  0.0000000000000E+00 -0.4053213411253E-02
 0.3754114040918E-03 -0.4497436750931E-02  0.0000000000000E+00 -0.4255462944848E-02
 0.2979276730312E-03 -0.4475573860810E-02  0.0000000000000E+00 -0.4440578245961E-02
 0.2221628988823E-03 -0.4441857253460E-02  0.0000000000000E+00 -0.4600424641466E-02
 0.1533827778492E-03 -0.4397594895226E-02  0.0000000000000E+00 -0.4726506829693E-02
 0.9738357603467E-04 -0.4344573640596E-02  0.0000000000000E+00 -0.4809824958495E-02
 0.6046515986857E-04 -0.4284908145046E-02  0.0000000000000E+00 -0.4840659287877E-02
 0.4956575459417E-04 -0.4221101582667E-02  0.0000000000000E+00 -0.4808513931637E-02
 0.7249338076679E-04 -0.4156255720831E-02  0.0000000000000E+00 -0.4702326180215E-02
 0.1382022739357E-03 -0.4094360971559E-02  0.0000000000000E+00 -0.4511002536612E-02
 0.2570711864510E-03 -0.4040622310425E-02  0.0000000000000E+00 -0.4224343678402E-02
 0.4411281877626E-03 -0.4001781160364E-02  0.0000000000000E+00 -0.3834452874940E-02
 0.7042138778612E-03 -0.3986328442850E-02  0.0000000000000E+00 -0.3337629867986E-02
 0.1062127632936E-02 -0.4004562103958E-02  0.0000000000000E+00 -0.2736743103626E-02
 0.1532193810003E-02 -0.4068460674448E-02  0.0000000000000E+00 -0.2044688015025E-02
 0.2131567463768E-02 -0.4190794425710E-02  0.0000000000000E+00 -0.1288828169443E-02
 0.2874082218620E-02 -0.4382889630525E-02  0.0000000000000E+00 -0.5148641230116E-03
 0.3765404406305E-02 -0.4650921281693E-02  0.0000000000000E+00  0.2114856829155E-03
 0.4796904354806E-02 -0.4991056470951E-02  0.0000000000000E+00  0.8074309140980E-03
 0.5939771633985E-02 -0.5384676392670E-02  0.0000000000000E+00  0.1183012363563E-02
 0.7141649581313E-02 -0.5795685955606E-02  0.0000000000000E+00  0.1258121293307E-02
 0.8328902128756E-02 -0.6172375156801E-02  0.0000000000000E+00  0.9853532024279E-03
 0.9401566089440E-02 -0.6443682933309E-02  0.0000000000000E+00  0.3525270868213E-03
 0.7584144390219E-04 -0.3465068570761E-02  0.0000000000000E+00 -0.3078304897378E-03
 0.2162891340385E-03 -0.3557575063182E-02  0.0000000000000E+00 -0.5240658026399E-03
 0.3370144475408E-03 -0.3642755288989E-02  0.0000000000000E+00 -0.7471455669828E-03
 0.4387764783796E-03 -0.3721257543918E-02  0.0000000000000E+00 -0.9714853104455E-03
 0.5226402266450E-03 -0.3793958842932E-02  0.0000000000000E+00 -0.1192336718264E-02
 0.5901333409849E-03 -0.3862035016695E-02  0.0000000000000E+00 -0.1406324768919E-02
 0.6430701991972E-03 -0.3926779583481E-02  0.0000000000000E+00 -0.1611855663095E-02
 0.6832503563232E-03 -0.3989347954888E-02  0.0000000000000E+00 -0.1809083983543E-02
 0.7122154453779E-03 -0.4050574623534E-02  0.0000000000000E+00 -0.1999547161261E-02
 0.7311262846850E-03 -0.4110898532638E-02  0.0000000000000E+00 -0.2185685059426E-02
 0.7407379458803E-03 -0.4170362876385E-02  0.0000000000000E+00 -0.2370391039083E-02
 0.7414288943766E-03 -0.4228643058928E-02  0.0000000000000E+00 -0.2556637336318E-02
 0.7332530544305E-03 -0.4285073879746E-02  0.0000000000000E+00 -0.2747157716966E-02
 0.7160051363572E-03 -0.4338667488178E-02  0.0000000000000E+00 -0.2944146855116E-02
 0.6893102992108E-03 -0.4388130008315E-02  0.0000000000000E+00 -0.3148936131210E-02
 0.6527571177026E-03 -0.4431905054572E-02  0.0000000000000E+00 -0.3361665228438E-02
 0.6060955741367E-03 -0.4468261274905E-02  0.0000000000000E+00 -0.3580968713194E-02
 0.5495003181511E-03 -0.4495433682009E-02  0.0000000000000E+00 -0.3803750829622E-02
 0.4838547323183E-03 -0.4511803327784E-02  0.0000000000000E+00 -0.4025163449095E-02
 0.4110110714443E-03 -0.4516077938704E-02  0.0000000000000E+00 -0.4238775923893E-02
 0.3340460538664E-03 -0.4507580860408E-02  0.0000000000000E+00 -0.4436905449258E-02
 0.2572171390541E-03 -0.4486537784008E-02  0.0000000000000E+00 -0.4611191002563E-02
 0.1855507285081E-03 -0.4453939547310E-02  0.0000000000000E+00 -0.4752969783885E-02
 0.1245468049031E-03 -0.4411188743033E-02  0.0000000000000E+00 -0.4853120171252E-02
 0.8014546693325E-04 -0.4359925463534E-02  0.0000000000000E+00 -0.4901747183252E-02
 0.5888637744206E-04 -0.4302095121291E-02  0.0000000000000E+00 -0.4888012909703E-02
 0.6818653287610E-04 -0.4240184740759E-02  0.0000000000000E+00 -0.4800245447933E-02
 0.1166800072922E-03 -0.4177551758723E-02  0.0000000000000E+00 -0.4626385257144E-02
 0.2145825037023E-03 -0.4118805799480E-02  0.0000000000000E+00 -0.4354820624416E-02
 0.3740416158144E-03 -0.4070219452238E-02  0.0000000000000E+00 -0.3975712163706E-02
 0.6094823986737E-03 -0.4040070273283E-02  0.0000000000000E+00 -0.3482837673929E-02
 0.9380134077438E-03 -0.4038880553413E-02  0.0000000000000E+00 -0.2876009950631E-02
 0.1379325043054E-02 -0.4079579302146E-02  0.0000000000000E+00 -0.2164883930378E-02
 0.1954280536762E-02 -0.4176919849014E-02  0.0000000000000E+00 -0.1374300214165E-02
 0.2681780485576E-02 -0.4345346568105E-02  0.0000000000000E+00 -0.5496553608144E-03
 0.3573372589847E-02 -0.4594949032696E-02  0.0000000000000E+00  0.2394816289856E-03
 0.4625763710330E-02 -0.4925584374417E-02  0.0000000000000E+00  0.9006242127330E-03
 0.5812735635966E-02 -0.5320367906490E-02  0.0000000000000E+00  0.1328001095282E-02
 0.7079696429059E-02 -0.5741165546329E-02  0.0000000000000E+00  0.1422216518675E-02
 0.8343034779627E-02 -0.6128063597998E-02  0.0000000000000E+00  0.1116135899535E-02
 0.9508014668796E-02 -0.6408433938753E-02  0.0000000000000E+00  0.3751242002885E-03
 0.7683493874485E-04 -0.3349605277097E-02  0.0000000000000E+00 -0.2480821286222E-03
 0.2187682272607E-03 -0.3443292158143E-02  0.0000000000000E+00 -0.4665281653960E-03
 0.3401656499968E-03 -0.3529478704771E-02  0.0000000000000E+00 -0.6913354344575E-03
 0.4418987918847E-03 -0.3608945657309E-02  0.0000000000000E+00 -0.9168619465708E-03
 0.5252237533849E-03 -0.3682770713902E-02  0.0000000000000E+00 -0.1138129272060E-02
 0.5919691168358E-03 -0.3752406169174E-02  0.0000000000000E+00 -0.1351613523776E-02
 0.6442821593716E-03 -0.3819425487764E-02  0.0000000000000E+00 -0.1555774891367E-02
 0.6842457503303E-03 -0.3885205956264E-02  0.0000000000000E+00 -0.1750990010923E-02
 0.7135992100679E-03 -0.3950728622697E-02  0.0000000000000E+00 -0.1939092653491E-02
 0.7336175987472E-03 -0.4016518186795E-02  0.0000000000000E+00 -0.2122821730371E-02
 0.7451039137242E-03 -0.4082665703171E-02  0.0000000000000E+00 -0.2305344984008E-02
 0.7484333545614E-03 -0.4148873107846E-02  0.0000000000000E+00 -0.2489889907994E-02
 0.7436115933764E-03 -0.4214485747951E-02  0.0000000000000E+00 -0.2679446115197E-02
 0.7303368211471E-03 -0.4278504563942E-02  0.0000000000000E+00 -0.2876482854616E-02
 0.7080796718941E-03 -0.4339587873686E-02  0.0000000000000E+00 -0.3082629127026E-02
 0.6762071279703E-03 -0.4396077370714E-02  0.0000000000000E+00 -0.3298327433973E-02
 0.6341808832545E-03 -0.4446072103984E-02  0.0000000000000E+00 -0.3522480437919E-02
 0.5818383997798E-03 -0.4487568028183E-02  0.0000000000000E+00 -0.3752178153612E-02
 0.5197111303437E-03 -0.4518650716460E-02  0.0000000000000E+00 -0.3982648861320E-02
 0.4493223147790E-03 -0.4537696767188E-02  0.0000000000000E+00 -0.4207432130063E-02
 0.3734770026700E-03 -0.4543701244060E-02  0.0000000000000E+00 -0.4418700492677E-02
 0.2962078333116E-03 -0.4536585871952E-02  0.0000000000000E+00 -0.4607904056101E-02
 0.2222997871306E-03 -0.4517021379531E-02  0.0000000000000E+00 -0.4766271455173E-02
 0.1569416717980E-03 -0.4486015367294E-02  0.0000000000000E+00 -0.4884642296053E-02
 0.1056802741123E-03 -0.4444709945842E-02  0.0000000000000E+00 -0.4953042331409E-02
 0.7460231842921E-04 -0.4394453964360E-02  0.0000000000000E+00 -0.4960388679738E-02
 0.7065663916359E-04 -0.4337062125973E-02  0.0000000000000E+00 -0.4894490044304E-02
 0.1020524529090E-03 -0.4275175503265E-02  0.0000000000000E+00 -0.4742394443242E-02
 0.1787022845340E-03 -0.4212687800979E-02  0.0000000000000E+00 -0.4491115384940E-02
 0.3126916402752E-03 -0.4155232839766E-02  0.0000000000000E+00 -0.4128829306533E-02
 0.5188124009420E-03 -0.4110648644919E-02  0.0000000000000E+00 -0.3646595583451E-02
 0.8152631237100E-03 -0.4089410528440E-02  0.0000000000000E+00 -0.3040710161315E-02
 0.1223972480271E-02 -0.4105143023682E-02  0.0000000000000E+00 -0.2316747489418E-02
 0.1769639178137E-02 -0.4174471942594E-02  0.0000000000000E+00 -0.1495776325537E-02
 0.2476818969087E-02 -0.4315170058218E-02  0.0000000000000E+00 -0.6214186861692E-03
 0.3364149882274E-02 -0.4541927990750E-02  0.0000000000000E+00  0.2340559857988E-03
 0.4435415469277E-02 -0.4859431903975E-02  0.0000000000000E+00  0.9683893425050E-03
 0.5668851037451E-02 -0.5253788004014E-02  0.0000000000000E+00  0.1457781650831E-02
 0.7008253243102E-02 -0.5685293924194E-02  0.0000000000000E+00  0.1578768301110E-02
 0.8362520539835E-02 -0.6087096644645E-02  0.0000000000000E+00  0.1237546384610E-02
 0.9625694683802E-02 -0.6381329887323E-02  0.0000000000000E+00  0.3973293120398E-03
 0.7775524546995E-04 -0.3232198808350E-02  0.0000000000000E+00 -0.1873838910337E-03
 0.2210547642266E-03 -0.3326976378921E-02  0.0000000000000E+00 -0.4080414331247E-03
 0.3430251441233E-03 -0.3414075829490E-02  0.0000000000000E+00 -0.6344926570285E-03
 0.4445965136159E-03 -0.3494386172496E-02  0.0000000000000E+00 -0.8610062941409E-03
 0.5272130481365E-03 -0.3569200361496E-02  0.0000000000000E+00 -0.1082295364619E-02
 0.5930401603958E-03 -0.3640283943996E-02  0.0000000000000E+00 -0.1294659859414E-02
 0.6445958261986E-03 -0.3709518978480E-02  0.0000000000000E+00 -0.1496650800178E-02
 0.6842653729522E-03 -0.3778512051627E-02  0.0000000000000E+00 -0.1688928072961E-02
 0.7139873487238E-03 -0.3848383107950E-02  0.0000000000000E+00 -0.1873672385720E-02
 0.7351448123786E-03 -0.3919731351621E-02  0.0000000000000E+00 -0.2053949394645E-02
 0.7485831758728E-03 -0.3992689191447E-02  0.0000000000000E+00 -0.2233209941278E-02
 0.7546740617778E-03 -0.4066987178708E-02  0.0000000000000E+00 -0.2414936185468E-02
 0.7533808422671E-03 -0.4141992696075E-02  0.0000000000000E+00 -0.2602373747311E-02
 0.7443159790212E-03 -0.4216715245035E-02  0.0000000000000E+00 -0.2798276401078E-02
 0.7268076085715E-03 -0.4289790377976E-02  0.0000000000000E+00 -0.3004597712107E-02
 0.7000091543407E-03 -0.4359483218931E-02  0.0000000000000E+00 -0.3222129815649E-02
 0.6630931077286E-03 -0.4423743045401E-02  0.0000000000000E+00 -0.3450105801041E-02
 0.6155486651824E-03 -0.4480337137871E-02  0.0000000000000E+00 -0.3685867828805E-02
 0.5575390141167E-03 -0.4527057174581E-02  0.0000000000000E+00 -0.3924779207559E-02
 0.4902452586503E-03 -0.4561945647116E-02  0.0000000000000E+00 -0.4160397164462E-02
 0.4161970112442E-03 -0.4583666475012E-02  0.0000000000000E+00 -0.4384786674462E-02
 0.3392061226445E-03 -0.4591837249282E-02  0.0000000000000E+00 -0.4589248711024E-02
 0.2638179418818E-03 -0.4586808076720E-02  0.0000000000000E+00 -0.4764967853867E-02
 0.1948981920361E-03 -0.4569183728105E-02  0.0000000000000E+00 -0.4902836959254E-02
 0.1375684971275E-03 -0.4539588420542E-02  0.0000000000000E+00 -0.4992909993994E-02
 0.9740922888374E-04 -0.4498740422066E-02  0.0000000000000E+00 -0.5023970712137E-02
 0.8082446732385E-04 -0.4447730956161E-02  0.0000000000000E+00 -0.4983419095283E-02
 0.9549269831022E-04 -0.4388408428774E-02  0.0000000000000E+00 -0.4857517176674E-02
 0.1508759644870E-03 -0.4323834337824E-02  0.0000000000000E+00 -0.4631992297802E-02
 0.2587947937754E-03 -0.4258828202013E-02  0.0000000000000E+00 -0.4293066892729E-02
 0.4341433398024E-03 -0.4200535650052E-02  0.0000000000000E+00 -0.3828970412127E-02
 0.6959064568811E-03 -0.4159051889091E-02  0.0000000000000E+00 -0.3232091794132E-02
 0.1067999010759E-02 -0.4148335460952E-02  0.0000000000000E+00 -0.2503083979068E-02
 0.1578943191259E-02 -0.4186633609836E-02  0.0000000000000E+00 -0.1657834244563E-02
 0.2259457928947E-02 -0.4295134943543E-02  0.0000000000000E+00 -0.7363194504155E-03
 0.3136576412081E-02 -0.4493812851702E-02  0.0000000000000E+00  0.1882612741911E-03
 0.4223321091025E-02 -0.4793554137639E-02  0.0000000000000E+00  0.1004398475737E-02
 0.5504825258727E-02 -0.5185158673022E-02  0.0000000000000E+00  0.1568180076519E-02
 0.6925264772131E-02 -0.5628653035339E-02  0.0000000000000E+00  0.1726271725747E-02
 0.8384941934526E-02 -0.6050798419782E-02  0.0000000000000E+00  0.1355160275040E-02
 0.9757434920152E-02 -0.6360070371036E-02  0.0000000000000E+00  0.4110757752437E-03
 0.7858820352183E-04 -0.3112743698365E-02  0.0000000000000E+00 -0.1257999598010E-03
 0.2231148637877E-03 -0.3208501208527E-02  0.0000000000000E+00 -0.3486668282160E-03
 0.3455417140803E-03 -0.3296393856087E-02  0.0000000000000E+00 -0.5767030982627E-03
 0.4467856200969E-03 -0.3377387593822E-02  0.0000000000000E+00 -0.8040262809538E-03
 0.5284805944202E-03 -0.3453014726141E-02  0.0000000000000E+00 -0.1024933170589E-02
 0.5931796232769E-03 -0.3525404049727E-02  0.0000000000000E+00 -0.1235521810773E-02
 0.6438173310687E-03 -0.3596778618477E-02  0.0000000000000E+00 -0.1434490759887E-02
 0.6830995567467E-03 -0.3668976918336E-02  0.0000000000000E+00 -0.1622861615468E-02
 0.7131603313313E-03 -0.3743242689673E-02  0.0000000000000E+00 -0.1803218566451E-02
 0.7354794236956E-03 -0.3820232505493E-02  0.0000000000000E+00 -0.1978978677689E-02
 0.7509361099193E-03 -0.3900110376554E-02  0.0000000000000E+00 -0.2153877222036E-02
 0.7598972324993E-03 -0.3982636613915E-02  0.0000000000000E+00 -0.2331641682242E-02
 0.7622908741269E-03 -0.4067213148417E-02  0.0000000000000E+00 -0.2515765073968E-02
 0.7576574622618E-03 -0.4152880839395E-02  0.0000000000000E+00 -0.2709287882392E-02
 0.7451991491872E-03 -0.4238282645411E-02  0.0000000000000E+00 -0.2914510078182E-02
 0.7238689531687E-03 -0.4321639226422E-02  0.0000000000000E+00 -0.3132619881137E-02
 0.6925532809418E-03 -0.4400776854301E-02  0.0000000000000E+00 -0.3363248426162E-02
 0.6503834093499E-03 -0.4473249831744E-02  0.0000000000000E+00 -0.3604065294444E-02
 0.5971370584992E-03 -0.4536560450969E-02  0.0000000000000E+00 -0.3850635579234E-02
 0.5336393000184E-03 -0.4588415550175E-02  0.0000000000000E+00 -0.4096586071858E-02
 0.4621420037344E-03 -0.4627146145833E-02  0.0000000000000E+00 -0.4333912824340E-02
 0.3862440709909E-03 -0.4652067038649E-02  0.0000000000000E+00 -0.4553809318246E-02
 0.3102574717028E-03 -0.4663209386834E-02  0.0000000000000E+00 -0.4747485932251E-02
 0.2387163330541E-03 -0.4660770030616E-02  0.0000000000000E+00 -0.4905989355685E-02
 0.1762874283576E-03 -0.4644839151605E-02  0.0000000000000E+00 -0.5019519535063E-02
 0.1279933622723E-03 -0.4615476317124E-02  0.0000000000000E+00 -0.5076850998070E-02
 0.9961966180494E-04 -0.4573007022664E-02  0.0000000000000E+00 -0.5065104342204E-02
 0.9821108233857E-04 -0.4518422272627E-02  0.0000000000000E+00 -0.4969894085719E-02
 0.1326307130422E-03 -0.4453846313633E-02  0.0000000000000E+00 -0.4775804577248E-02
 0.2142169078463E-03 -0.4383112461185E-02  0.0000000000000E+00 -0.4467218863212E-02
 0.3576593370001E-03 -0.4312403972754E-02  0.0000000000000E+00 -0.4029537631807E-02
 0.5823366485732E-03 -0.4251045496668E-02  0.0000000000000E+00 -0.3450971020380E-02
 0.9137493085570E-03 -0.4212850786506E-02  0.0000000000000E+00 -0.2726471200634E-02
 0.1384037273705E-02 -0.4217257799484E-02  0.0000000000000E+00 -0.1865225113046E-02
 0.2030426161826E-02 -0.4288763124615E-02  0.0000000000000E+00 -0.9012728654355E-03
 0.2889681300334E-02 -0.4453220716070E-02  0.0000000000000E+00  0.9381037195724E-04
 0.3986632218056E-02 -0.4729293779504E-02  0.0000000000000E+00  0.1000724875607E-02
 0.5316705859390E-02 -0.5114762400584E-02  0.0000000000000E+00  0.1653697978667E-02
 0.6827102660932E-02 -0.5571445881797E-02  0.0000000000000E+00  0.1863886382018E-02
 0.8408010726672E-02 -0.6018515269865E-02  0.0000000000000E+00  0.1470450155997E-02
 0.9906026207661E-02 -0.6344825521136E-02  0.0000000000000E+00  0.4113854949256E-03
 0.7932032955464E-04 -0.2991144042793E-02  0.0000000000000E+00 -0.6341069899838E-04
 0.2249190675098E-03 -0.3087748777124E-02  0.0000000000000E+00 -0.2884842877533E-03
 0.3476700075037E-03 -0.3176283208873E-02  0.0000000000000E+00 -0.5180837103675E-03
 0.4483817944047E-03 -0.3257751749024E-02  0.0000000000000E+00 -0.7460679196880E-03
 0.5288907075130E-03 -0.3333966323690E-02  0.0000000000000E+00 -0.9661716424937E-03
 0.5922087331385E-03 -0.3407486271212E-02  0.0000000000000E+00 -0.1174273993844E-02
 0.6417418369055E-03 -0.3480910588466E-02  0.0000000000000E+00 -0.1369307873687E-02
 0.6805308178921E-03 -0.3556303893299E-02  0.0000000000000E+00 -0.1552756382862E-02
 0.7108937316904E-03 -0.3635008595534E-02  0.0000000000000E+00 -0.1727668684380E-02
 0.7343894851124E-03 -0.3717714568857E-02  0.0000000000000E+00 -0.1897832331417E-02
 0.7519192193996E-03 -0.3804604210853E-02  0.0000000000000E+00 -0.2067258855735E-02
 0.7638427943923E-03 -0.3895467745059E-02  0.0000000000000E+00 -0.2239901446378E-02
 0.7700610470079E-03 -0.3989755064771E-02  0.0000000000000E+00 -0.2419481688206E-02
 0.7700591292200E-03 -0.4086564151601E-02  0.0000000000000E+00 -0.2609319377581E-02
 0.7629348074707E-03 -0.4184581030390E-02  0.0000000000000E+00 -0.2812075480415E-02
 0.7474601249384E-03 -0.4282021832808E-02  0.0000000000000E+00 -0.3029378689539E-02
 0.7222439100785E-03 -0.4376625193264E-02  0.0000000000000E+00 -0.3261330956927E-02
 0.6860520892676E-03 -0.4465755023106E-02  0.0000000000000E+00 -0.3506015193011E-02
 0.6382586634990E-03 -0.4546632467087E-02  0.0000000000000E+00 -0.3759275532181E-02
 0.5793173547337E-03 -0.4616628574610E-02  0.0000000000000E+00 -0.4014866049624E-02
 0.5112011948571E-03 -0.4673740336238E-02  0.0000000000000E+00 -0.4264754121464E-02
 0.4373081203546E-03 -0.4716982010643E-02  0.0000000000000E+00 -0.4500068986510E-02
 0.3617279032379E-03 -0.4746069035840E-02  0.0000000000000E+00 -0.4712121781980E-02
 0.2886582093056E-03 -0.4760787452604E-02  0.0000000000000E+00 -0.4892221457982E-02
 0.2222836959760E-03 -0.4760681026961E-02  0.0000000000000E+00 -0.5030840164922E-02
 0.1670206647315E-03 -0.4745129349518E-02  0.0000000000000E+00 -0.5116876856862E-02
 0.1279673421726E-03 -0.4713661278531E-02  0.0000000000000E+00 -0.5137317009079E-02
 0.1114391262586E-03 -0.4666361948967E-02  0.0000000000000E+00 -0.5077294936092E-02
 0.1255579176108E-03 -0.4604332495842E-02  0.0000000000000E+00 -0.4920450180054E-02
 0.1809583262740E-03 -0.4530263495110E-02  0.0000000000000E+00 -0.4649535112699E-02
 0.2917863444596E-03 -0.4449103221071E-02  0.0000000000000E+00 -0.4247262546691E-02
 0.4773355920530E-03 -0.4368970355852E-02  0.0000000000000E+00 -0.3697564447998E-02
 0.7641242454992E-03 -0.4302935899919E-02  0.0000000000000E+00 -0.2989059571050E-02
 0.1187450301865E-02 -0.4270981253369E-02  0.0000000000000E+00 -0.2122699731408E-02
 0.1791115604001E-02 -0.4300517915892E-02  0.0000000000000E+00 -0.1123905592204E-02
 0.2622855073999E-02 -0.4423668345620E-02  0.0000000000000E+00 -0.5912654380283E-04
 0.3722274900244E-02 -0.4668572544900E-02  0.0000000000000E+00  0.9473278203858E-03
 0.5099548753507E-02 -0.5042969170230E-02  0.0000000000000E+00  0.1707128037259E-02
 0.6708740605583E-02 -0.5513144225125E-02  0.0000000000000E+00  0.1989375056164E-02
 0.8429314682369E-02 -0.5989765914962E-02  0.0000000000000E+00  0.1583492917828E-02
 0.1007455975051E-01 -0.6336450606776E-02  0.0000000000000E+00  0.3947741243377E-03
 0.7993961873858E-04 -0.2867318614044E-02  0.0000000000000E+00 -0.3142027459207E-06
 0.2264449845313E-03 -0.2964614056157E-02  0.0000000000000E+00 -0.2275964046418E-03
 0.3493728786960E-03 -0.3053598715939E-02  0.0000000000000E+00 -0.4587926114125E-03
 0.4492994757253E-03 -0.3135270643912E-02  0.0000000000000E+00 -0.6873253455513E-03
 0.5282960825711E-03 -0.3211788200392E-02  0.0000000000000E+00 -0.9061743268798E-03
 0.5899335541202E-03 -0.3286230766089E-02  0.0000000000000E+00 -0.1111005189500E-02
 0.6381520333623E-03 -0.3361607523715E-02  0.0000000000000E+00 -0.1301115922824E-02
 0.6763340634307E-03 -0.3440189889004E-02  0.0000000000000E+00 -0.1478575854134E-02
 0.7069595359638E-03 -0.3523380785061E-02  0.0000000000000E+00 -0.1646962753041E-02
 0.7316414763394E-03 -0.3611871602943E-02  0.0000000000000E+00 -0.1810444513052E-02
 0.7512872441140E-03 -0.3705846535953E-02  0.0000000000000E+00 -0.1973288879981E-02
 0.7662464957426E-03 -0.3805124943328E-02  0.0000000000000E+00 -0.2139643488501E-02
 0.7764018088847E-03 -0.3909218789071E-02  0.0000000000000E+00 -0.2313428176150E-02
 0.7812028814531E-03 -0.4017311621292E-02  0.0000000000000E+00 -0.2498223155795E-02
 0.7796702693803E-03 -0.4128173807200E-02  0.0000000000000E+00 -0.2697055052460E-02
 0.7704220393978E-03 -0.4240065797026E-02  0.0000000000000E+00 -0.2912032807223E-02
 0.7518051229246E-03 -0.4350684619171E-02  0.0000000000000E+00 -0.3143806352973E-02
 0.7222161441453E-03 -0.4457235480760E-02  0.0000000000000E+00 -0.3390970396344E-02
 0.6806060207340E-03 -0.4556671627172E-02  0.0000000000000E+00 -0.3649739125659E-02
 0.6270395320559E-03 -0.4646029663682E-02  0.0000000000000E+00 -0.3914059639465E-02
 0.5632105068881E-03 -0.4722971372592E-02  0.0000000000000E+00 -0.4175913011504E-02
 0.4923322677984E-03 -0.4786212594678E-02  0.0000000000000E+00 -0.4426408989460E-02
 0.4182888166183E-03 -0.4835156680575E-02  0.0000000000000E+00 -0.4657039326011E-02
 0.3449401298783E-03 -0.4869177245451E-02  0.0000000000000E+00 -0.4859490455556E-02
 0.2759638877341E-03 -0.4887262686394E-02  0.0000000000000E+00 -0.5024638844596E-02
 0.2151250755934E-03 -0.4888098931675E-02  0.0000000000000E+00 -0.5141646964647E-02
 0.1667730321596E-03 -0.4870400874567E-02  0.0000000000000E+00 -0.5197519049804E-02
 0.1364102223792E-03 -0.4833320191954E-02  0.0000000000000E+00 -0.5177099568967E-02
 0.1312898808528E-03 -0.4776876715845E-02  0.0000000000000E+00 -0.5063332814546E-02
 0.1611298241808E-03 -0.4702490999612E-02  0.0000000000000E+00 -0.4837647833014E-02
 0.2391763672701E-03 -0.4613620780746E-02  0.0000000000000E+00 -0.4480373146274E-02
 0.3840850199844E-03 -0.4516720775659E-02  0.0000000000000E+00 -0.3971292189468E-02
 0.6226486296535E-03 -0.4423414704811E-02  0.0000000000000E+00 -0.3292309753151E-02
 0.9925519414670E-03 -0.4353337928697E-02  0.0000000000000E+00 -0.2434739004531E-02
 0.1543829155083E-02 -0.4336036888376E-02  0.0000000000000E+00 -0.1412415502248E-02
 0.2336126052542E-02 -0.4409895916398E-02  0.0000000000000E+00 -0.2821116508468E-03
 0.3427069419759E-02 -0.4614199309361E-02  0.0000000000000E+00  0.8314896193476E-03
 0.4847292686010E-02 -0.4970302913443E-02  0.0000000000000E+00  0.1718491385499E-02
 0.6563609315976E-02 -0.5452877920552E-02  0.0000000000000E+00  0.2098522960549E-02
 0.8445836189340E-02 -0.5964225785027E-02  0.0000000000000E+00  0.1693963274505E-02
 0.1026652622903E-01 -0.6336330959539E-02  0.0000000000000E+00  0.3583517254365E-03
 0.8043687504377E-04 -0.2741208295640E-02  0.0000000000000E+00  0.6337153329213E-04
 0.2276813495194E-03 -0.2839010925802E-02  0.0000000000000E+00 -0.1661349427695E-03
 0.3506243298620E-03 -0.2928200427329E-02  0.0000000000000E+00 -0.3990441959910E-03
 0.4494496015745E-03 -0.3009720958803E-02  0.0000000000000E+00 -0.6280542871746E-03
 0.5265325255780E-03 -0.3086186596168E-02  0.0000000000000E+00 -0.8451427168514E-03
 0.5861407382620E-03 -0.3161313374659E-02  0.0000000000000E+00 -0.1045813364922E-02
 0.6328165479931E-03 -0.3238547481685E-02  0.0000000000000E+00 -0.1229921945563E-02
 0.6702771664784E-03 -0.3320326861385E-02  0.0000000000000E+00 -0.1400275268130E-02
 0.7011279047139E-03 -0.3408060630774E-02  0.0000000000000E+00 -0.1561039870009E-02
 0.7270026077593E-03 -0.3502402006982E-02  0.0000000000000E+00 -0.1716759713227E-02
 0.7487957066811E-03 -0.3603517547953E-02  0.0000000000000E+00 -0.1871924406324E-02
 0.7668425230143E-03 -0.3711254253658E-02  0.0000000000000E+00 -0.2030832101963E-02
 0.7810171247591E-03 -0.3825200647680E-02  0.0000000000000E+00 -0.2197558152920E-02
 0.7907563958467E-03 -0.3944656364380E-02  0.0000000000000E+00 -0.2375910933646E-02
 0.7950366914621E-03 -0.4068522743058E-02  0.0000000000000E+00 -0.2569274230102E-02
 0.7923580221254E-03 -0.4195163251177E-02  0.0000000000000E+00 -0.2780268671984E-02
 0.7808305870154E-03 -0.4322292493268E-02  0.0000000000000E+00 -0.3010171876620E-02
 0.7584831776418E-03 -0.4447000854042E-02  0.0000000000000E+00 -0.3258203276586E-02
 0.7238233735843E-03 -0.4565993992776E-02  0.0000000000000E+00 -0.3521056286535E-02
 0.6765060682167E-03 -0.4675977203717E-02  0.0000000000000E+00 -0.3792948299967E-02
 0.6179454627932E-03 -0.4774274844509E-02  0.0000000000000E+00 -0.4065919888937E-02
 0.5511910033926E-03 -0.4859304689662E-02  0.0000000000000E+00 -0.4331107877103E-02
 0.4799426492802E-03 -0.4930160109848E-02  0.0000000000000E+00 -0.4580269262491E-02
 0.4077247120621E-03 -0.4985800246290E-02  0.0000000000000E+00 -0.4805588428872E-02
 0.3376850811649E-03 -0.5024651902534E-02  0.0000000000000E+00 -0.4998480601682E-02
 0.2728963152981E-03 -0.5044701840995E-02  0.0000000000000E+00 -0.5148511106213E-02
 0.2169062442978E-03 -0.5043849214824E-02  0.0000000000000E+00 -0.5242859711562E-02
 0.1743373593579E-03 -0.5020309676315E-02  0.0000000000000E+00 -0.5266285991125E-02
 0.1514706410491E-03 -0.4972999585031E-02  0.0000000000000E+00 -0.5201331363993E-02
 0.1569180658530E-03 -0.4901986723354E-02  0.0000000000000E+00 -0.5028504749669E-02
 0.2026753154955E-03 -0.4809024363670E-02  0.0000000000000E+00 -0.4726231195428E-02
 0.3061565285091E-03 -0.4698456491857E-02  0.0000000000000E+00 -0.4270556296311E-02
 0.4935215844689E-03 -0.4579681807336E-02  0.0000000000000E+00 -0.3636662224039E-02
 0.8037160534735E-03 -0.4470857185100E-02  0.0000000000000E+00 -0.2805157614062E-02
 0.1292091872867E-02 -0.4402397869319E-02  0.0000000000000E+00 -0.1775276143603E-02
 0.2030557926030E-02 -0.4418304337336E-02  0.0000000000000E+00 -0.5885240193456E-03
 0.3098007334319E-02 -0.4570329284084E-02  0.0000000000000E+00  0.6370832909940E-03
 0.4552696487182E-02 -0.4897776868135E-02  0.0000000000000E+00  0.1673836544550E-02
 0.6383148897198E-02 -0.5389569189019E-02  0.0000000000000E+00  0.2184459713711E-02
 0.8453365127908E-02 -0.5941595313626E-02  0.0000000000000E+00  0.1801389219328E-02
 0.1048603241702E-01 -0.6346324818853E-02  0.0000000000000E+00  0.2993411301620E-03
 0.8080798066325E-04 -0.2612787271425E-02  0.0000000000000E+00  0.1275055851593E-03
 0.2286342472947E-03 -0.2710880828907E-02  0.0000000000000E+00 -0.1042717665651E-03
 0.3514129734932E-03 -0.2799953398446E-02  0.0000000000000E+00 -0.3391322626837E-03
 0.4487350289296E-03 -0.2880854691347E-02  0.0000000000000E+00 -0.5685897780124E-03
 0.5234110650349E-03 -0.2956830447299E-02  0.0000000000000E+00 -0.7833178506191E-03
 0.5805921670196E-03 -0.3032379995367E-02  0.0000000000000E+00 -0.9787966852053E-03
 0.6254885147688E-03 -0.3111393403320E-02  0.0000000000000E+00 -0.1155715798111E-02
 0.6621221280551E-03 -0.3196404094406E-02  0.0000000000000E+00 -0.1317794173220E-02
 0.6931694950718E-03 -0.3288754276296E-02  0.0000000000000E+00 -0.1469834179324E-02
 0.7202435881137E-03 -0.3389012240288E-02  0.0000000000000E+00 -0.1616731380455E-02
 0.7442039056850E-03 -0.3497305754615E-02  0.0000000000000E+00 -0.1763146417772E-02
 0.7653666530635E-03 -0.3613507626827E-02  0.0000000000000E+00 -0.1913470930845E-02
 0.7836076111755E-03 -0.3737297377397E-02  0.0000000000000E+00 -0.2071880256133E-02
 0.7983757282531E-03 -0.3868122313873E-02  0.0000000000000E+00 -0.2242363710413E-02
 0.8086418455160E-03 -0.4005065866310E-02  0.0000000000000E+00 -0.2428636838546E-02
 0.8128340141238E-03 -0.4146663617387E-02  0.0000000000000E+00 -0.2633849810882E-02
 0.8088632489000E-03 -0.4290722952059E-02  0.0000000000000E+00 -0.2859986518262E-02
 0.7944003483500E-03 -0.4434279807905E-02  0.0000000000000E+00 -0.3107019935891E-02
 0.7674891995636E-03 -0.4573822942991E-02  0.0000000000000E+00 -0.3372255844190E-02
 0.7273492596055E-03 -0.4705732093699E-02  0.0000000000000E+00 -0.3650276218928E-02
 0.6751134195805E-03 -0.4826989650404E-02  0.0000000000000E+00 -0.3933233034931E-02
 0.6136920552427E-03 -0.4935711328193E-02  0.0000000000000E+00 -0.4212339696708E-02
 0.5466277017850E-03 -0.5030677978861E-02  0.0000000000000E+00 -0.4479707880524E-02
 0.4771133380644E-03 -0.5110429178245E-02  0.0000000000000E+00 -0.4728143229004E-02
 0.4077455696390E-03 -0.5172825582778E-02  0.0000000000000E+00 -0.4949731509505E-02
 0.3408674906168E-03 -0.5215158077071E-02  0.0000000000000E+00 -0.5134574090356E-02
 0.2791831700964E-03 -0.5234525570542E-02  0.0000000000000E+00 -0.5270178197346E-02
 0.2263884402495E-03 -0.5228233390205E-02  0.0000000000000E+00 -0.5341427310733E-02
 0.1877212879006E-03 -0.5194115562415E-02  0.0000000000000E+00 -0.5330781241418E-02
 0.1705400290984E-03 -0.5130864276678E-02  0.0000000000000E+00 -0.5218315594472E-02
 0.1852713846562E-03 -0.5038384205083E-02  0.0000000000000E+00 -0.4981211122280E-02
 0.2474723182512E-03 -0.4918518446345E-02  0.0000000000000E+00 -0.4592505081636E-02
 0.3816340182322E-03 -0.4777649444081E-02  0.0000000000000E+00 -0.4021139855959E-02
 0.6264730194556E-03 -0.4631122007314E-02  0.0000000000000E+00 -0.3236552805603E-02
 0.1041019999832E-02 -0.4508401430910E-02  0.0000000000000E+00 -0.2220700350726E-02
 0.1708815210232E-02 -0.4457520439499E-02  0.0000000000000E+00 -0.9934478693364E-03
 0.2732760444278E-02 -0.4543184173767E-02  0.0000000000000E+00  0.3437950532875E-03
 0.4207351953288E-02 -0.4827437953179E-02  0.0000000000000E+00  0.1553689121429E-02
 0.6156112366459E-02 -0.5322013511955E-02  0.0000000000000E+00  0.2236420518483E-02
 0.8445715865413E-02 -0.5921410970568E-02  0.0000000000000E+00  0.1904992258312E-02
 0.1073808995256E-01 -0.6368847522374E-02  0.0000000000000E+00  0.2148275631517E-03
 0.8105785093266E-04 -0.2482080331555E-02  0.0000000000000E+00  0.1919196922004E-03
 0.2293367165188E-03 -0.2580205122403E-02  0.0000000000000E+00 -0.4223764069498E-04
 0.3517456008205E-03 -0.2668724932176E-02  0.0000000000000E+00 -0.2794657761880E-03
 0.4470418804617E-03 -0.2748383518584E-02  0.0000000000000E+00 -0.5093686491843E-03
 0.5187064155604E-03 -0.2823336740139E-02  0.0000000000000E+00 -0.7209776587770E-03
 0.5730185789222E-03 -0.2899040413720E-02  0.0000000000000E+00 -0.9100384691185E-03
 0.6159047446203E-03 -0.2979793692642E-02  0.0000000000000E+00 -0.1078456112812E-02
 0.6516271154914E-03 -0.3068111645206E-02  0.0000000000000E+00 -0.1231047640036E-02
 0.6828584490829E-03 -0.3165176790900E-02  0.0000000000000E+00 -0.1373270452636E-02
 0.7111418740719E-03 -0.3271421095293E-02  0.0000000000000E+00 -0.1510320353121E-02
 0.7372783451721E-03 -0.3386912421034E-02  0.0000000000000E+00 -0.1646960288955E-02
 0.7615599426660E-03 -0.3511547756454E-02  0.0000000000000E+00 -0.1787605644582E-02
 0.7838744471704E-03 -0.3645111460184E-02  0.0000000000000E+00 -0.1936463828585E-02
 0.8037089844434E-03 -0.3787229690858E-02  0.0000000000000E+00 -0.2097641894862E-02
 0.8200724343692E-03 -0.3937221851458E-02  0.0000000000000E+00 -0.2275140816477E-02
 0.8313780282758E-03 -0.4093874877047E-02  0.0000000000000E+00 -0.2472637442887E-02
 0.8353910075721E-03 -0.4255183216830E-02  0.0000000000000E+00 -0.2692892923635E-02
 0.8294467728045E-03 -0.4418211114568E-02  0.0000000000000E+00 -0.2936778519306E-02
 0.8111069082940E-03 -0.4579276785511E-02  0.0000000000000E+00 -0.3202376865420E-02
 0.7791239777293E-03 -0.4734444664906E-02  0.0000000000000E+00 -0.3484754253964E-02
 0.7343448990561E-03 -0.4880346699038E-02  0.0000000000000E+00 -0.3776237113683E-02
 0.6795689714941E-03 -0.5014784231431E-02  0.0000000000000E+00 -0.4068170489301E-02
 0.6182116007240E-03 -0.5136213431706E-02  0.0000000000000E+00 -0.4353115246910E-02
 0.5531392845317E-03 -0.5242742175540E-02  0.0000000000000E+00 -0.4624620573814E-02
 0.4863760788107E-03 -0.5331660738631E-02  0.0000000000000E+00 -0.4875564676868E-02
 0.4195028264938E-03 -0.5399577219452E-02  0.0000000000000E+00 -0.5096704239566E-02
 0.3543489794509E-03 -0.5442824737318E-02  0.0000000000000E+00 -0.5276012955943E-02
 0.2936600064975E-03 -0.5457854182271E-02  0.0000000000000E+00 -0.5398698841099E-02
 0.2416007050847E-03 -0.5441486708254E-02  0.0000000000000E+00 -0.5447471070809E-02
 0.2041866963545E-03 -0.5391089652218E-02  0.0000000000000E+00 -0.5402518945692E-02
 0.1900218667072E-03 -0.5304674130334E-02  0.0000000000000E+00 -0.5240599235906E-02
 0.2122284426518E-03 -0.5181303697042E-02  0.0000000000000E+00 -0.4932800873346E-02
 0.2925336875582E-03 -0.5023628559519E-02  0.0000000000000E+00 -0.4442897248103E-02
 0.4676194732140E-03 -0.4842750879807E-02  0.0000000000000E+00 -0.3729577191312E-02
 0.7977268713679E-03 -0.4664828245258E-02  0.0000000000000E+00 -0.2755764891648E-02
 0.1375935211007E-02 -0.4539099748160E-02  0.0000000000000E+00 -0.1513174780657E-02
 0.2330539202910E-02 -0.4542118958896E-02  0.0000000000000E+00 -0.7356738487782E-04
 0.3801901117916E-02 -0.4763270884970E-02  0.0000000000000E+00  0.1330946784356E-02
 0.5867625345768E-02 -0.5249047451097E-02  0.0000000000000E+00  0.2237549876375E-02
 0.8413549688520E-02 -0.5902809231951E-02  0.0000000000000E+00  0.2003110001609E-02
 0.1102901537992E-01 -0.6407080497618E-02  0.0000000000000E+00  0.1016260592469E-03
 0.8120747986983E-04 -0.2349190398309E-02  0.0000000000000E+00  0.2564114587086E-03
 0.2298636424918E-03 -0.2447022628110E-02  0.0000000000000E+00  0.1964454463258E-04
 0.3516496361887E-03 -0.2534376088029E-02  0.0000000000000E+00 -0.2206244449195E-03
 0.4442238524581E-03 -0.2611952934656E-02  0.0000000000000E+00 -0.4509561562389E-03
 0.5121406095651E-03 -0.2685250758912E-02  0.0000000000000E+00 -0.6584254356434E-03
 0.5631127102638E-03 -0.2760862540839E-02  0.0000000000000E+00 -0.8395833618573E-03
 0.6037862186852E-03 -0.2843384762052E-02  0.0000000000000E+00 -0.9980523197779E-03
 0.6385497073112E-03 -0.2935145219541E-02  0.0000000000000E+00 -0.1139916508117E-02
 0.6699761202846E-03 -0.3037057100138E-02  0.0000000000000E+00 -0.1271259534866E-02
 0.6994853827560E-03 -0.3149364407374E-02  0.0000000000000E+00 -0.1397493146594E-02
 0.7277965531770E-03 -0.3272056353788E-02  0.0000000000000E+00 -0.1523395910965E-02
 0.7551729153380E-03 -0.3405053368113E-02  0.0000000000000E+00 -0.1653325915159E-02
 0.7815240917235E-03 -0.3548257274381E-02  0.0000000000000E+00 -0.1791443762716E-02
 0.8064012593251E-03 -0.3701501906112E-02  0.0000000000000E+00 -0.1941895045062E-02
 0.8288980076776E-03 -0.3864396430391E-02  0.0000000000000E+00 -0.2108895100626E-02
 0.8474809212772E-03 -0.4036066811380E-02  0.0000000000000E+00 -0.2296614721384E-02
 0.8598426074290E-03 -0.4214810666427E-02  0.0000000000000E+00 -0.2508644950770E-02
 0.8630247759407E-03 -0.4397833526607E-02  0.0000000000000E+00 -0.2746912985122E-02
 0.8540935424616E-03 -0.4581353549721E-02  0.0000000000000E+00 -0.3010482990623E-02
 0.8312962160857E-03 -0.4761138542386E-02  0.0000000000000E+00 -0.3295063549299E-02
 0.7951837457548E-03 -0.4933455779813E-02  0.0000000000000E+00 -0.3593238835304E-02
 0.7484737134134E-03 -0.5095765458062E-02  0.0000000000000E+00 -0.3896551471183E-02
 0.6944857467975E-03 -0.5246169347625E-02  0.0000000000000E+00 -0.4198111738414E-02
 0.6357621446556E-03 -0.5382318419234E-02  0.0000000000000E+00 -0.4492327167208E-02
 0.5737319860559E-03 -0.5500927177737E-02  0.0000000000000E+00 -0.4772969570412E-02
 0.5091859881437E-03 -0.5597945951540E-02  0.0000000000000E+00 -0.5031546764116E-02
 0.4430604508712E-03 -0.5668997692380E-02  0.0000000000000E+00 -0.5256617773993E-02
 0.3771506464262E-03 -0.5709765216119E-02  0.0000000000000E+00 -0.5433896193640E-02
 0.3145635320375E-03 -0.5716175841698E-02  0.0000000000000E+00 -0.5546657884565E-02
 0.2599576637823E-03 -0.5684405725466E-02  0.0000000000000E+00 -0.5575777460782E-02
 0.2199580818558E-03 -0.5610653673332E-02  0.0000000000000E+00 -0.5498529231137E-02
 0.2047738666197E-03 -0.5491096300547E-02  0.0000000000000E+00 -0.5285417937735E-02
 0.2323155369159E-03 -0.5324125825332E-02  0.0000000000000E+00 -0.4896749854174E-02
 0.3352381361468E-03 -0.5115254950431E-02  0.0000000000000E+00 -0.4282041564443E-02
 0.5717109869511E-03 -0.4884596541366E-02  0.0000000000000E+00 -0.3385090415024E-02
 0.1040322458380E-02 -0.4678330990054E-02  0.0000000000000E+00 -0.2164039166841E-02
 0.1893479192297E-02 -0.4581154703666E-02  0.0000000000000E+00 -0.6454014904353E-03
 0.3326720323327E-02 -0.4712750120701E-02  0.0000000000000E+00  0.9680754106176E-03
 0.5498011993724E-02 -0.5170019984275E-02  0.0000000000000E+00  0.2161152968962E-02
 0.8342475881805E-02 -0.5884208369965E-02  0.0000000000000E+00  0.2091864710468E-02
 0.1136698467041E-01 -0.6465347220678E-02  0.0000000000000E+00 -0.4377738738565E-04
 0.8130673025389E-04 -0.2214343703911E-02  0.0000000000000E+00  0.3207330399936E-03
 0.2303548713603E-03 -0.2311454214400E-02  0.0000000000000E+00  0.8089928641108E-04
 0.3511713928474E-03 -0.2396740899996E-02  0.0000000000000E+00 -0.1634451785542E-03
 0.4400745821058E-03 -0.2471100116990E-02  0.0000000000000E+00 -0.3940729609468E-03
 0.5033607956376E-03 -0.2542021109668E-02  0.0000000000000E+00 -0.5959614691604E-03
 0.5505233187230E-03 -0.2617369258580E-02  0.0000000000000E+00 -0.7674017716412E-03
 0.5888409625172E-03 -0.2701796814195E-02  0.0000000000000E+00 -0.9143432886274E-03
 0.6226516673172E-03 -0.2797212827735E-02  0.0000000000000E+00 -0.1044237565393E-02
 0.6543155713223E-03 -0.2904143779875E-02  0.0000000000000E+00 -0.1163694149428E-02
 0.6850766299936E-03 -0.3022600233767E-02  0.0000000000000E+00 -0.1278220358374E-02
 0.7155512227185E-03 -0.3152479028495E-02  0.0000000000000E+00 -0.1392507531198E-02
 0.7459701696580E-03 -0.3293724952254E-02  0.0000000000000E+00 -0.1510766629707E-02
 0.7762737799592E-03 -0.3446368088249E-02  0.0000000000000E+00 -0.1637024171566E-02
 0.8061010065853E-03 -0.3610474113521E-02  0.0000000000000E+00 -0.1775370593860E-02
 0.8346769810106E-03 -0.3785991484983E-02  0.0000000000000E+00 -0.1930137142347E-02
 0.8605992147242E-03 -0.3972477286041E-02  0.0000000000000E+00 -0.2105915058991E-02
 0.8815842263841E-03 -0.4168671587820E-02  0.0000000000000E+00 -0.2307142783012E-02
 0.8944497604870E-03 -0.4372074426859E-02  0.0000000000000E+00 -0.2536964961758E-02
 0.8957656100671E-03 -0.4578911884868E-02  0.0000000000000E+00 -0.2795681556523E-02
 0.8832286359466E-03 -0.4784689976961E-02  0.0000000000000E+00 -0.3079858808680E-02
 0.8570754648622E-03 -0.4985289666957E-02  0.0000000000000E+00 -0.3382458222358E-02
 0.8199692771370E-03 -0.5177779174552E-02  0.0000000000000E+00 -0.3695307008952E-02
 0.7751612619904E-03 -0.5359845894861E-02  0.0000000000000E+00 -0.4012171899238E-02
 0.7248641149329E-03 -0.5528636590358E-02  0.0000000000000E+00 -0.4328415025197E-02
 0.6698868414009E-03 -0.5680282191983E-02  0.0000000000000E+00 -0.4638765476746E-02
 0.6102090792721E-03 -0.5810116596711E-02  0.0000000000000E+00 -0.4935542477750E-02
 0.5458693029192E-03 -0.5913133217954E-02  0.0000000000000E+00 -0.5207984239438E-02
 0.4777353496198E-03 -0.5984362250571E-02  0.0000000000000E+00 -0.5442463777401E-02
 0.4079177327216E-03 -0.6019001543982E-02  0.0000000000000E+00 -0.5623102251517E-02
 0.3397897628361E-03 -0.6012254571757E-02  0.0000000000000E+00 -0.5732008163942E-02
 0.2779706649662E-03 -0.5958735138106E-02  0.0000000000000E+00 -0.5747970433296E-02
 0.2294423489151E-03 -0.5851854240925E-02  0.0000000000000E+00 -0.5642503017311E-02
 0.2074170474793E-03 -0.5685541751965E-02  0.0000000000000E+00 -0.5374736397916E-02
 0.2385666097802E-03 -0.5458713719723E-02  0.0000000000000E+00 -0.4887897609263E-02
 0.3751206551455E-03 -0.5182695329703E-02  0.0000000000000E+00 -0.4108999038088E-02
 0.7149225760669E-03 -0.4895020375510E-02  0.0000000000000E+00 -0.2960193159810E-02
 0.1428792218900E-02 -0.4681092674167E-02  0.0000000000000E+00 -0.1406680842538E-02
 0.2773562434907E-02 -0.4689522440253E-02  0.0000000000000E+00  0.4136513558446E-03
 0.5021515507215E-02 -0.5086003949506E-02  0.0000000000000E+00  0.1964408115297E-02
 0.8209874261094E-02 -0.5862885954093E-02  0.0000000000000E+00  0.2162202501097E-02
 0.1176277708502E-01 -0.6549766069157E-02  0.0000000000000E+00 -0.2252652109836E-03
 0.8145817118923E-04 -0.2077966658278E-02  0.0000000000000E+00  0.3845707351739E-03
 0.2310509022485E-03 -0.2173735786752E-02  0.0000000000000E+00  0.1407850060313E-03
 0.3503629119900E-03 -0.2255579591010E-02  0.0000000000000E+00 -0.1091554479511E-03
 0.4342802914231E-03 -0.2325186619434E-02  0.0000000000000E+00 -0.3396108231093E-03
 0.4919113694442E-03 -0.2392971731168E-02  0.0000000000000E+00 -0.5338247224555E-03
 0.5348529149390E-03 -0.2468041746804E-02  0.0000000000000E+00 -0.6933404293536E-03
 0.5707706046058E-03 -0.2554664113002E-02  0.0000000000000E+00 -0.8270745571867E-03
 0.6037054264853E-03 -0.2654043292519E-02  0.0000000000000E+00 -0.9437948511383E-03
 0.6356868027658E-03 -0.2766211657889E-02  0.0000000000000E+00 -0.1050445520277E-02
 0.6677372207764E-03 -0.2890914413058E-02  0.0000000000000E+00 -0.1152475405122E-02
 0.7003545718389E-03 -0.3027949943063E-02  0.0000000000000E+00 -0.1254373350287E-02
 0.7337352816955E-03 -0.3177290793814E-02  0.0000000000000E+00 -0.1360108195989E-02
 0.7678576807849E-03 -0.3339103730467E-02  0.0000000000000E+00 -0.1473480411875E-02
 0.8024679088442E-03 -0.3513703408386E-02  0.0000000000000E+00 -0.1598420544185E-02
 0.8369653279028E-03 -0.3701417401262E-02  0.0000000000000E+00 -0.1739249799310E-02
 0.8701610577969E-03 -0.3902322980384E-02  0.0000000000000E+00 -0.1900854369858E-02
 0.8999176895867E-03 -0.4115763104496E-02  0.0000000000000E+00 -0.2088477818158E-02
 0.9229386017454E-03 -0.4339737492082E-02  0.0000000000000E+00 -0.2306627505529E-02
 0.9353208425583E-03 -0.4570646519852E-02  0.0000000000000E+00 -0.2557150337952E-02
 0.9341615502340E-03 -0.4803800373379E-02  0.0000000000000E+00 -0.2837771185572E-02
 0.9193527929135E-03 -0.5034664078777E-02  0.0000000000000E+00 -0.3142012905083E-02
 0.8935224825467E-03 -0.5259823767923E-02  0.0000000000000E+00 -0.3462114381498E-02
 0.8598673319237E-03 -0.5476441637264E-02  0.0000000000000E+00 -0.3792614134821E-02
 0.8202490744063E-03 -0.5681077395993E-02  0.0000000000000E+00 -0.4129887453246E-02
 0.7748276137612E-03 -0.5869267833273E-02  0.0000000000000E+00 -0.4469620573035E-02
 0.7227622446196E-03 -0.6035796522599E-02  0.0000000000000E+00 -0.4804952838264E-02
 0.6632063605454E-03 -0.6175140320627E-02  0.0000000000000E+00 -0.5125869902168E-02
 0.5961421803779E-03 -0.6281818879867E-02  0.0000000000000E+00 -0.5419531939310E-02
 0.5227849787907E-03 -0.6350498548141E-02  0.0000000000000E+00 -0.5671123238137E-02
 0.4453846008221E-03 -0.6375703773346E-02  0.0000000000000E+00 -0.5864453536642E-02
 0.3666805977152E-03 -0.6350843489740E-02  0.0000000000000E+00 -0.5980786366022E-02
 0.2903394258315E-03 -0.6266958923668E-02  0.0000000000000E+00 -0.5994336944284E-02
 0.2243061910753E-03 -0.6113765859293E-02  0.0000000000000E+00 -0.5865790043844E-02
 0.1876491498339E-03 -0.5883219156985E-02  0.0000000000000E+00 -0.5536220371673E-02
 0.2227211301241E-03 -0.5575719096856E-02  0.0000000000000E+00 -0.4921180229817E-02
 0.4183927357404E-03 -0.5213974433042E-02  0.0000000000000E+00 -0.3909851961509E-02
 0.9519175493424E-03 -0.4872212908071E-02  0.0000000000000E+00 -0.2394242674134E-02
 0.2139040408061E-02 -0.4717979729204E-02  0.0000000000000E+00 -0.4011617505744E-03
 0.4405414006095E-02 -0.5002706627009E-02  0.0000000000000E+00  0.1577994957579E-02
 0.7979488895579E-02 -0.5834545590836E-02  0.0000000000000E+00  0.2193289007791E-02
 0.1223064942235E-01 -0.6669420179835E-02  0.0000000000000E+00 -0.4473501382637E-03
 0.8186263878447E-04 -0.1940822279514E-02  0.0000000000000E+00  0.4475044561744E-03
 0.2323469016507E-03 -0.2034257664525E-02  0.0000000000000E+00  0.1980742040820E-03
 0.3492408912592E-03 -0.2110476989439E-02  0.0000000000000E+00 -0.5957383083697E-04
 0.4263411886969E-03 -0.2173294659534E-02  0.0000000000000E+00 -0.2886074313716E-03
 0.4772041195022E-03 -0.2237279007632E-02  0.0000000000000E+00 -0.4720854153226E-03
 0.5156641247065E-03 -0.2312335105347E-02  0.0000000000000E+00 -0.6170608766352E-03
 0.5492817091330E-03 -0.2401640257195E-02  0.0000000000000E+00 -0.7358781875367E-03
 0.5815021347400E-03 -0.2505396295740E-02  0.0000000000000E+00 -0.8383132688541E-03
 0.6139226037420E-03 -0.2623069029264E-02  0.0000000000000E+00 -0.9313612186593E-03
 0.6473125684416E-03 -0.2754126262539E-02  0.0000000000000E+00 -0.1020233768099E-02
 0.6820427766299E-03 -0.2898271940368E-02  0.0000000000000E+00 -0.1109094829119E-02
 0.7182758258968E-03 -0.3055513002957E-02  0.0000000000000E+00 -0.1201575715290E-02
 0.7560334903529E-03 -0.3226158553577E-02  0.0000000000000E+00 -0.1301158871385E-02
 0.7951821413016E-03 -0.3410780318414E-02  0.0000000000000E+00 -0.1411504696502E-02
 0.8353284928281E-03 -0.3610109010208E-02  0.0000000000000E+00 -0.1536775223929E-02
 0.8755769055160E-03 -0.3824816339437E-02  0.0000000000000E+00 -0.1681965702729E-02
 0.9140820608379E-03 -0.4055020811084E-02  0.0000000000000E+00 -0.1852989454377E-02
 0.9475968871176E-03 -0.4299490249054E-02  0.0000000000000E+00 -0.2055806201489E-02
 0.9718142587873E-03 -0.4555056120045E-02  0.0000000000000E+00 -0.2294176375138E-02
 0.9831869789064E-03 -0.4816958433217E-02  0.0000000000000E+00 -0.2567410505985E-02
 0.9812171553043E-03 -0.5080211438378E-02  0.0000000000000E+00 -0.2869890827346E-02
 0.9684974023831E-03 -0.5340764943203E-02  0.0000000000000E+00 -0.3194470172019E-02
 0.9481535689904E-03 -0.5595060384512E-02  0.0000000000000E+00 -0.3536583708311E-02
 0.9216460530073E-03 -0.5838932294435E-02  0.0000000000000E+00 -0.3893607106386E-02
 0.8884524436952E-03 -0.6067311947336E-02  0.0000000000000E+00 -0.4262078611741E-02
 0.8469237226652E-03 -0.6274538413067E-02  0.0000000000000E+00 -0.4635892804704E-02
 0.7953663426751E-03 -0.6454731036391E-02  0.0000000000000E+00 -0.5005830923488E-02
 0.7329326875058E-03 -0.6602065949109E-02  0.0000000000000E+00 -0.5359958784654E-02
 0.6600680506071E-03 -0.6710888378319E-02  0.0000000000000E+00 -0.5684670191583E-02
 0.5781421073081E-03 -0.6775385740842E-02  0.0000000000000E+00 -0.5965796762992E-02
 0.4883053367371E-03 -0.6788281790795E-02  0.0000000000000E+00 -0.6187880410903E-02
 0.3910932614860E-03 -0.6738941673998E-02  0.0000000000000E+00 -0.6329439158529E-02
 0.2890635880347E-03 -0.6613680059974E-02  0.0000000000000E+00 -0.6355607112681E-02
 0.1927248294520E-03 -0.6398068392175E-02  0.0000000000000E+00 -0.6210386168766E-02
 0.1313292492486E-03 -0.6080812836300E-02  0.0000000000000E+00 -0.5806126352091E-02
 0.1758157732353E-03 -0.5664648666191E-02  0.0000000000000E+00 -0.5009658111370E-02
 0.4907079493972E-03 -0.5197178091461E-02  0.0000000000000E+00 -0.3640060664291E-02
 0.1431445856395E-02 -0.4840777352208E-02  0.0000000000000E+00 -0.1564195071191E-02
 0.3611025723286E-02 -0.4937190985455E-02  0.0000000000000E+00  0.8895634864449E-03
 0.7592243982045E-02 -0.5793437513995E-02  0.0000000000000E+00  0.2137721391723E-02
 0.1278892122561E-01 -0.6838569252278E-02  0.0000000000000E+00 -0.7166883046430E-03
 0.8290885387228E-04 -0.1804265054656E-02  0.0000000000000E+00  0.5089183928086E-03
 0.2348702130945E-03 -0.1893594531817E-02  0.0000000000000E+00  0.2506122117546E-03
 0.3476806459905E-03 -0.1960625446348E-02  0.0000000000000E+00 -0.1739226751159E-04
 0.4154475500875E-03 -0.2014079487524E-02  0.0000000000000E+00 -0.2421116968115E-03
 0.4584988180552E-03 -0.2073975039817E-02  0.0000000000000E+00 -0.4104673153508E-03
 0.4925016517999E-03 -0.2149712515470E-02  0.0000000000000E+00 -0.5379778895462E-03
 0.5241017138235E-03 -0.2242417227461E-02  0.0000000000000E+00 -0.6402607359858E-03
 0.5558608500409E-03 -0.2351073705143E-02  0.0000000000000E+00 -0.7274551639349E-03
 0.5888849211556E-03 -0.2474565367651E-02  0.0000000000000E+00 -0.8062648777329E-03
 0.6236766654066E-03 -0.2612094232456E-02  0.0000000000000E+00 -0.8814730454038E-03
 0.6604803117379E-03 -0.2763286367660E-02  0.0000000000000E+00 -0.9567958118542E-03
 0.6994283102027E-03 -0.2928193362856E-02  0.0000000000000E+00 -0.1035437048841E-02
 0.7405891219794E-03 -0.3107269355257E-02  0.0000000000000E+00 -0.1120474314402E-02
 0.7839546004261E-03 -0.3301341019547E-02  0.0000000000000E+00 -0.1215189235222E-02
 0.8293567537214E-03 -0.3511545043781E-02  0.0000000000000E+00 -0.1323422590012E-02
 0.8762569011260E-03 -0.3739190947037E-02  0.0000000000000E+00 -0.1450032956663E-02
 0.9232615952051E-03 -0.3985336475140E-02  0.0000000000000E+00 -0.1601335821886E-02
 0.9674060471380E-03 -0.4249853920256E-02  0.0000000000000E+00 -0.1784706534050E-02
 0.1004126051043E-02 -0.4530400474205E-02  0.0000000000000E+00 -0.2006215560780E-02
 0.1029211640568E-02 -0.4822385865381E-02  0.0000000000000E+00 -0.2267367451592E-02
 0.1041713574103E-02 -0.5120344955321E-02  0.0000000000000E+00 -0.2563904384436E-02
 0.1044150047342E-02 -0.5419330792895E-02  0.0000000000000E+00 -0.2889635834481E-02
 0.1039498647146E-02 -0.5714726814974E-02  0.0000000000000E+00 -0.3241026197284E-02
 0.1028719075075E-02 -0.6001420903855E-02  0.0000000000000E+00 -0.3616307564723E-02
 0.1010571651120E-02 -0.6273733968338E-02  0.0000000000000E+00 -0.4012596716278E-02
 0.9826495268378E-03 -0.6525730522932E-02  0.0000000000000E+00 -0.4424374601636E-02
 0.9424917567319E-03 -0.6751401292915E-02  0.0000000000000E+00 -0.4843258158073E-02
 0.8884865449312E-03 -0.6944774315432E-02  0.0000000000000E+00 -0.5258369591739E-02
 0.8204301393446E-03 -0.7100064796089E-02  0.0000000000000E+00 -0.5657403111728E-02
 0.7391092981375E-03 -0.7211460802726E-02  0.0000000000000E+00 -0.6028320046606E-02
 0.6445337828526E-03 -0.7271618047390E-02  0.0000000000000E+00 -0.6359440495673E-02
 0.5345863495715E-03 -0.7269209389781E-02  0.0000000000000E+00 -0.6634854792312E-02
 0.4068758091604E-03 -0.7188595696836E-02  0.0000000000000E+00 -0.6826802768634E-02
 0.2633605144096E-03 -0.7010734167802E-02  0.0000000000000E+00 -0.6887670998109E-02
 0.1185041947606E-03 -0.6713921943303E-02  0.0000000000000E+00 -0.6736937070966E-02
 0.1809533497921E-04 -0.6279155946097E-02  0.0000000000000E+00 -0.6237454000860E-02
 0.8995000805140E-04 -0.5712806854603E-02  0.0000000000000E+00 -0.5157724840699E-02
 0.6831327209247E-03 -0.5130289168865E-02  0.0000000000000E+00 -0.3176550927432E-02
 0.2600576931139E-02 -0.4932949611445E-02  0.0000000000000E+00 -0.2805658475367E-03
 0.6951132857988E-02 -0.5735260204522E-02  0.0000000000000E+00  0.1888431246731E-02
 0.1345860440519E-01 -0.7081132423463E-02  0.0000000000000E+00 -0.1048770597132E-02
 0.8535492376515E-04 -0.1670748553373E-02  0.0000000000000E+00  0.5677801130870E-03
 0.2395756869583E-03 -0.1752459047735E-02  0.0000000000000E+00  0.2943965551533E-03
 0.3451623425567E-03 -0.1804364739379E-02  0.0000000000000E+00  0.1349751790153E-04
 0.4003038062690E-03 -0.1845599804262E-02  0.0000000000000E+00 -0.2007918310966E-03
 0.4349251201404E-03 -0.1902020115866E-02  0.0000000000000E+00 -0.3480993629686E-03
 0.4649353219308E-03 -0.1979696733372E-02  0.0000000000000E+00 -0.4552279330004E-03
 0.4949965118880E-03 -0.2076744840275E-02  0.0000000000000E+00 -0.5396012717437E-03
 0.5266386816735E-03 -0.2190932441345E-02  0.0000000000000E+00 -0.6108200036443E-03
 0.5604715477823E-03 -0.2320598953445E-02  0.0000000000000E+00 -0.6749587323657E-03
 0.5967366174935E-03 -0.2464721190985E-02  0.0000000000000E+00 -0.7361737858220E-03
 0.6355640167096E-03 -0.2622877788732E-02  0.0000000000000E+00 -0.7976214818005E-03
 0.6770627828606E-03 -0.2795178636620E-02  0.0000000000000E+00 -0.8619996856458E-03
 0.7213490891668E-03 -0.2982222754896E-02  0.0000000000000E+00 -0.9319046120775E-03
 0.7685372814663E-03 -0.3185079225990E-02  0.0000000000000E+00 -0.1010139754048E-02
 0.8186835136002E-03 -0.3405269821847E-02  0.0000000000000E+00 -0.1100065365046E-02
 0.8716371754373E-03 -0.3644737078473E-02  0.0000000000000E+00 -0.1206116266506E-02
 0.9266052199722E-03 -0.3905592820552E-02  0.0000000000000E+00 -0.1334577755513E-02
 0.9812134037319E-03 -0.4189201221194E-02  0.0000000000000E+00 -0.1493960659404E-02
 0.1030917866086E-02 -0.4494642766036E-02  0.0000000000000E+00 -0.1692988483671E-02
 0.1070901926341E-02 -0.4817956229109E-02  0.0000000000000E+00 -0.1936216890156E-02
 0.1099695199790E-02 -0.5153207512144E-02  0.0000000000000E+00 -0.2221613285497E-02
 0.1119625878100E-02 -0.5494111274731E-02  0.0000000000000E+00 -0.2544550054668E-02
 0.1133329032880E-02 -0.5834415973245E-02  0.0000000000000E+00 -0.2902647525671E-02
 0.1141086385853E-02 -0.6167720766322E-02  0.0000000000000E+00 -0.3294610510720E-02
 0.1140913384150E-02 -0.6487757326021E-02  0.0000000000000E+00 -0.3717598705057E-02
 0.1129761877951E-02 -0.6788586547168E-02  0.0000000000000E+00 -0.4166367456396E-02
 0.1104552998490E-02 -0.7064406320880E-02  0.0000000000000E+00 -0.4633416789156E-02
 0.1062989446281E-02 -0.7309338144307E-02  0.0000000000000E+00 -0.5109182896211E-02
 0.1004292069214E-02 -0.7517599437521E-02  0.0000000000000E+00 -0.5582765149002E-02
 0.9289568889979E-03 -0.7683619983224E-02  0.0000000000000E+00 -0.6044100194076E-02
 0.8364268100441E-03 -0.7800613612002E-02  0.0000000000000E+00 -0.6485291844735E-02
 0.7226965664776E-03 -0.7857800074026E-02  0.0000000000000E+00 -0.6896652173864E-02
 0.5814680203634E-03 -0.7839671549072E-02  0.0000000000000E+00 -0.7259452001634E-02
 0.4073927831599E-03 -0.7725676214842E-02  0.0000000000000E+00 -0.7539447540646E-02
 0.2005217417649E-03 -0.7487483982759E-02  0.0000000000000E+00 -0.7674304402499E-02
-0.2117844983970E-04 -0.7087889338252E-02  0.0000000000000E+00 -0.7545409521758E-02
-0.1864293361617E-03 -0.6487475431095E-02  0.0000000000000E+00 -0.6919719489516E-02
-0.2928297330088E-04 -0.5703162684167E-02  0.0000000000000E+00 -0.5327135130396E-02
 0.1359805630102E-02 -0.5092544166186E-02  0.0000000000000E+00 -0.2207864548875E-02
 0.5898693963537E-02 -0.5670713161075E-02  0.0000000000000E+00  0.1205132544604E-02
 0.1425466535470E-01 -0.7440564463920E-02  0.0000000000000E+00 -0.1493894566208E-02
 0.9070546391589E-04 -0.1544925585338E-02  0.0000000000000E+00  0.6220183353719E-03
 0.2477992555520E-03 -0.1611318393878E-02  0.0000000000000E+00  0.3215735237602E-03
 0.3401873533668E-03 -0.1638226172301E-02  0.0000000000000E+00  0.2790704281921E-04
 0.3789440899687E-03 -0.1665269992187E-02  0.0000000000000E+00 -0.1640098744591E-03
 0.4056062071300E-03 -0.1720500952762E-02  0.0000000000000E+00 -0.2832968914740E-03
 0.4326147483005E-03 -0.1801912636781E-02  0.0000000000000E+00 -0.3677073211895E-03
 0.4617851167876E-03 -0.1904452188686E-02  0.0000000000000E+00 -0.4331479606206E-03
 0.4937431253959E-03 -0.2024899008303E-02  0.0000000000000E+00 -0.4879514927190E-03
 0.5286222705114E-03 -0.2161123486246E-02  0.0000000000000E+00 -0.5372293709399E-03
 0.5664367937843E-03 -0.2311959502686E-02  0.0000000000000E+00 -0.5843211278498E-03
 0.6072267406503E-03 -0.2476978123192E-02  0.0000000000000E+00 -0.6317376112916E-03
 0.6510868796788E-03 -0.2656365259706E-02  0.0000000000000E+00 -0.6816066670131E-03
 0.6981802676309E-03 -0.2850861817426E-02  0.0000000000000E+00 -0.7359832462630E-03
 0.7487327645672E-03 -0.3061756959429E-02  0.0000000000000E+00 -0.7971093502572E-03
 0.8030045804463E-03 -0.3290914519279E-02  0.0000000000000E+00 -0.8677249718064E-03
 0.8612164567874E-03 -0.3540847203249E-02  0.0000000000000E+00 -0.9515564144159E-03
 0.9232660310783E-03 -0.3814726407255E-02  0.0000000000000E+00 -0.1054268548754E-02
 0.9877325893481E-03 -0.4115775621788E-02  0.0000000000000E+00 -0.1184813924034E-02
 0.1050572706398E-02 -0.4445371660919E-02  0.0000000000000E+00 -0.1354643830505E-02
 0.1106598193198E-02 -0.4801067829989E-02  0.0000000000000E+00 -0.1572526861946E-02
 0.1153770915917E-02 -0.5176596382512E-02  0.0000000000000E+00 -0.1840194241384E-02
 0.1193963323527E-02 -0.5563567377800E-02  0.0000000000000E+00 -0.2155689725529E-02
 0.1229053553993E-02 -0.5953104270310E-02  0.0000000000000E+00 -0.2517858387739E-02
 0.1258352450983E-02 -0.6337013290337E-02  0.0000000000000E+00 -0.2925053942400E-02
 0.1279135271408E-02 -0.6708529800388E-02  0.0000000000000E+00 -0.3373550486249E-02
 0.1287935203267E-02 -0.7062134536944E-02  0.0000000000000E+00 -0.3857882344032E-02
 0.1281318511861E-02 -0.7392723836859E-02  0.0000000000000E+00 -0.4371495505673E-02
 0.1256418900307E-02 -0.7694848338543E-02  0.0000000000000E+00 -0.4906608282364E-02
 0.1211852475193E-02 -0.7962770266779E-02  0.0000000000000E+00 -0.5454017832167E-02
 0.1148002503255E-02 -0.8191147316699E-02  0.0000000000000E+00 -0.6005223800148E-02
 0.1064359325108E-02 -0.8374218544387E-02  0.0000000000000E+00 -0.6555376148966E-02
 0.9560792523333E-03 -0.8503186254972E-02  0.0000000000000E+00 -0.7100625021656E-02
 0.8145461018969E-03 -0.8565400615387E-02  0.0000000000000E+00 -0.7632091708771E-02
 0.6296961640796E-03 -0.8543060976243E-02  0.0000000000000E+00 -0.8132197488270E-02
 0.3901075513141E-03 -0.8407865072032E-02  0.0000000000000E+00 -0.8566958695973E-02
 0.8809464351536E-04 -0.8113247517242E-02  0.0000000000000E+00 -0.8857779622277E-02
-0.2621034433685E-03 -0.7588633937549E-02  0.0000000000000E+00 -0.8828998710123E-02
-0.5588060580508E-03 -0.6729160409102E-02  0.0000000000000E+00 -0.8022931337553E-02
-0.4096453823058E-04 -0.5643968985972E-02  0.0000000000000E+00 -0.5269970848271E-02
 0.4194023546737E-02 -0.5676222053819E-02  0.0000000000000E+00 -0.4447358311385E-03
 0.1515193807813E-01 -0.8004930323711E-02  0.0000000000000E+00 -0.2233672109336E-02
 0.1019988916505E-03 -0.1436333451266E-02  0.0000000000000E+00  0.6664717573189E-03
 0.2609771667300E-03 -0.1468596103596E-02  0.0000000000000E+00  0.3158990362013E-03
 0.3289876558018E-03 -0.1455127614346E-02  0.0000000000000E+00  0.2071320548841E-04
 0.3487866563295E-03 -0.1470472796073E-02  0.0000000000000E+00 -0.1280671774110E-03
 0.3699484833234E-03 -0.1528884890964E-02  0.0000000000000E+00 -0.2137644592817E-03
 0.3952829294821E-03 -0.1616078469974E-02  0.0000000000000E+00 -0.2741236096396E-03
 0.4243603483806E-03 -0.1725491972820E-02  0.0000000000000E+00 -0.3200053644682E-03
 0.4571458120399E-03 -0.1852976189383E-02  0.0000000000000E+00 -0.3583647389858E-03
 0.4933228112831E-03 -0.1996155753049E-02  0.0000000000000E+00 -0.3928511894567E-03
 0.5327630426938E-03 -0.2153814947454E-02  0.0000000000000E+00 -0.4259093308066E-03
 0.5754401243468E-03 -0.2325570195562E-02  0.0000000000000E+00 -0.4593295566372E-03
 0.6214491571865E-03 -0.2511703151686E-02  0.0000000000000E+00 -0.4946320423670E-03
 0.6709967065805E-03 -0.2713091463152E-02  0.0000000000000E+00 -0.5332895924576E-03
 0.7244021031479E-03 -0.2931213764223E-02  0.0000000000000E+00 -0.5769230073174E-03
 0.7820945767682E-03 -0.3168214185442E-02  0.0000000000000E+00 -0.6275418373827E-03
 0.8446005904720E-03 -0.3427064210667E-02  0.0000000000000E+00 -0.6879392892904E-03
 0.9124735525026E-03 -0.3711832075842E-02  0.0000000000000E+00 -0.7625213350178E-03
 0.9855723906371E-03 -0.4027763745080E-02  0.0000000000000E+00 -0.8593972488920E-03
 0.1061112689868E-02 -0.4379698037139E-02  0.0000000000000E+00 -0.9920530778735E-03
 0.1134174318969E-02 -0.4768432573832E-02  0.0000000000000E+00 -0.1174882022542E-02
 0.1202225517999E-02 -0.5187850158855E-02  0.0000000000000E+00 -0.1416213081525E-02
 0.1266111069712E-02 -0.5626062737442E-02  0.0000000000000E+00 -0.1718850897617E-02
 0.1326123280523E-02 -0.6069853992254E-02  0.0000000000000E+00 -0.2082704001116E-02
 0.1380156732783E-02 -0.6508550427152E-02  0.0000000000000E+00 -0.2504140728871E-02
 0.1424843786805E-02 -0.6935152984310E-02  0.0000000000000E+00 -0.2977063973182E-02
 0.1456680548327E-02 -0.7345207200808E-02  0.0000000000000E+00 -0.3495092285564E-02
 0.1472306852659E-02 -0.7734999217083E-02  0.0000000000000E+00 -0.4052683694605E-02
 0.1468512811212E-02 -0.8100033867791E-02  0.0000000000000E+00 -0.4644601883725E-02
 0.1443138612580E-02 -0.8434610316182E-02  0.0000000000000E+00 -0.5264177534366E-02
 0.1396301978975E-02 -0.8733080092880E-02  0.0000000000000E+00 -0.5904002563401E-02
 0.1328046256508E-02 -0.8990662646558E-02  0.0000000000000E+00 -0.6560359874903E-02
 0.1233957378315E-02 -0.9202152171019E-02  0.0000000000000E+00 -0.7233282860453E-02
 0.1105443328424E-02 -0.9361184479875E-02  0.0000000000000E+00 -0.7922919727199E-02
 0.9307782265422E-03 -0.9457790163278E-02  0.0000000000000E+00 -0.8630065226755E-02
 0.6940547879901E-03 -0.9472203319186E-02  0.0000000000000E+00 -0.9352990037282E-02
 0.3666395986951E-03 -0.9364354085574E-02  0.0000000000000E+00 -0.1007556474178E-01
-0.7406519621514E-04 -0.9058303959388E-02  0.0000000000000E+00 -0.1070854770479E-01
-0.6797339875681E-03 -0.8401958726941E-02  0.0000000000000E+00 -0.1104683384329E-01
-0.1299637704136E-02 -0.7052853124119E-02  0.0000000000000E+00 -0.9819179356855E-02
 0.1535867778390E-02 -0.6074258925292E-02  0.0000000000000E+00 -0.4209840241882E-02
 0.1597816403813E-01 -0.8980795279873E-02  0.0000000000000E+00 -0.3936748843426E-02
 0.1252864447900E-03 -0.1367239587390E-02  0.0000000000000E+00  0.6845826441034E-03
 0.2787019741477E-03 -0.1312250232875E-02  0.0000000000000E+00  0.2423603359018E-03
 0.3029599018842E-03 -0.1242745723529E-02  0.0000000000000E+00 -0.5256535120079E-05
 0.3078588323618E-03 -0.1261016539928E-02  0.0000000000000E+00 -0.8486750392348E-04
 0.3278841846591E-03 -0.1326566927816E-02  0.0000000000000E+00 -0.1378159226924E-03
 0.3526914823741E-03 -0.1422194945910E-02  0.0000000000000E+00 -0.1726217762973E-03
 0.3827652590873E-03 -0.1539933418454E-02  0.0000000000000E+00 -0.1992982676554E-03
 0.4168720877897E-03 -0.1675258242616E-02  0.0000000000000E+00 -0.2215311958395E-03
 0.4546150223732E-03 -0.1825779404595E-02  0.0000000000000E+00 -0.2416056011017E-03
 0.4957437469870E-03 -0.1990349781031E-02  0.0000000000000E+00 -0.2609437108747E-03
 0.5402171425231E-03 -0.2168689956602E-02  0.0000000000000E+00 -0.2806020530486E-03
 0.5881412635886E-03 -0.2361198117087E-02  0.0000000000000E+00 -0.3014752766812E-03
 0.6397628492532E-03 -0.2568881855642E-02  0.0000000000000E+00 -0.3244374052882E-03
 0.6954713058568E-03 -0.2793373121926E-02  0.0000000000000E+00 -0.3504566618466E-03
 0.7558165914458E-03 -0.3037020074922E-02  0.0000000000000E+00 -0.3807429834309E-03
 0.8215418584891E-03 -0.3303111792510E-02  0.0000000000000E+00 -0.4170078564250E-03
 0.8936524974515E-03 -0.3596309562056E-02  0.0000000000000E+00 -0.4619743232639E-03
 0.9733379618927E-03 -0.3923498513367E-02  0.0000000000000E+00 -0.5211019288958E-03
 0.1060090277876E-02 -0.4294128912293E-02  0.0000000000000E+00 -0.6073802887573E-03
 0.1150792134239E-02 -0.4715693254170E-02  0.0000000000000E+00 -0.7419363250058E-03
 0.1242896729026E-02 -0.5183682646339E-02  0.0000000000000E+00 -0.9452000705184E-03
 0.1334977925385E-02 -0.5679947304624E-02  0.0000000000000E+00 -0.1228809299261E-02
 0.1424131312498E-02 -0.6183947443997E-02  0.0000000000000E+00 -0.1592787167985E-02
 0.1506243907120E-02 -0.6681747862125E-02  0.0000000000000E+00 -0.2028420171951E-02
 0.1577621943651E-02 -0.7166720778311E-02  0.0000000000000E+00 -0.2525035046615E-02
 0.1635334844255E-02 -0.7636438805034E-02  0.0000000000000E+00 -0.3074487847864E-02
 0.1676715759594E-02 -0.8089480795636E-02  0.0000000000000E+00 -0.3672316813837E-02
 0.1698686934564E-02 -0.8523127573350E-02  0.0000000000000E+00 -0.4316787530956E-02
 0.1698085033665E-02 -0.8931948785944E-02  0.0000000000000E+00 -0.5005723301252E-02
 0.1673883929498E-02 -0.9308557814466E-02  0.0000000000000E+00 -0.5733119752849E-02
 0.1626623414872E-02 -0.9647688508311E-02  0.0000000000000E+00 -0.6492507724535E-02
 0.1554100171536E-02 -0.9949719881522E-02  0.0000000000000E+00 -0.7282959427003E-02
 0.1450470062105E-02 -0.1021908403357E-01  0.0000000000000E+00 -0.8111646791616E-02
 0.1307095145510E-02 -0.1045891448696E-01  0.0000000000000E+00 -0.8996815972653E-02
 0.1107226633108E-02 -0.1066628783641E-01  0.0000000000000E+00 -0.9969078435980E-02
 0.8278667101310E-03 -0.1082882089036E-01  0.0000000000000E+00 -0.1107062742171E-01
 0.3921833476762E-03 -0.1090277735022E-01  0.0000000000000E+00 -0.1235654478472E-01
-0.1907465046909E-03 -0.1080661228414E-01  0.0000000000000E+00 -0.1381238141264E-01
-0.1607528508887E-02 -0.1008546248436E-01  0.0000000000000E+00 -0.1555464610049E-01
-0.2096204159030E-02 -0.8045597838399E-02  0.0000000000000E+00 -0.1230269637618E-01
 0.1602228834348E-01 -0.1103650906190E-01  0.0000000000000E+00 -0.9235277912276E-02
 0.1700166528009E-03 -0.1403117963769E-02  0.0000000000000E+00  0.6038180908589E-03
 0.2886451335216E-03 -0.1072273188467E-02  0.0000000000000E+00  0.2833999975457E-04
 0.2460285159891E-03 -0.1003014483169E-02  0.0000000000000E+00 -0.4883367326703E-05
 0.2596347080393E-03 -0.1035961109926E-02  0.0000000000000E+00 -0.3534642722571E-04
 0.2781843759806E-03 -0.1113596713026E-02  0.0000000000000E+00 -0.5093785355799E-04
 0.3052060564341E-03 -0.1220494437037E-02  0.0000000000000E+00 -0.6177610946494E-04
 0.3370484786870E-03 -0.1347990746852E-02  0.0000000000000E+00 -0.7000890331663E-04
 0.3730496203272E-03 -0.1491936037273E-02  0.0000000000000E+00 -0.7695226762032E-04
 0.4125888341368E-03 -0.1650148125372E-02  0.0000000000000E+00 -0.8328283254245E-04
 0.4554541591690E-03 -0.1821684383087E-02  0.0000000000000E+00 -0.8944832876107E-04
 0.5016126162914E-03 -0.2006427713481E-02  0.0000000000000E+00 -0.9577819654218E-04
 0.5511992676080E-03 -0.2204913177552E-02  0.0000000000000E+00 -0.1025560709059E-03
 0.6044951986729E-03 -0.2418269800096E-02  0.0000000000000E+00 -0.1100624435930E-03
 0.6619342471138E-03 -0.2648245736610E-02  0.0000000000000E+00 -0.1186142121418E-03
 0.7241315687201E-03 -0.2897307552808E-02  0.0000000000000E+00 -0.1286011827868E-03
 0.7919416398477E-03 -0.3168905376579E-02  0.0000000000000E+00 -0.1405867318373E-03
 0.8665760864529E-03 -0.3467952248457E-02  0.0000000000000E+00 -0.1554753922994E-03
 0.9499165981028E-03 -0.3801995699964E-02  0.0000000000000E+00 -0.1749654144422E-03
 0.1044462829774E-02 -0.4184481459970E-02  0.0000000000000E+00 -0.2053214677387E-03
 0.1152428910423E-02 -0.4636612645722E-02  0.0000000000000E+00 -0.2725107085986E-03
 0.1272993084970E-02 -0.5159998437758E-02  0.0000000000000E+00 -0.4207927604847E-03
 0.1399558557582E-02 -0.5723741954948E-02  0.0000000000000E+00 -0.6788466645219E-03
 0.1522967908765E-02 -0.6295088337467E-02  0.0000000000000E+00 -0.1043207921843E-02
 0.1636559794905E-02 -0.6856309062895E-02  0.0000000000000E+00 -0.1494626008920E-02
 0.1737060367372E-02 -0.7402362445550E-02  0.0000000000000E+00 -0.2014833164495E-02
 0.1823057758178E-02 -0.7934262374060E-02  0.0000000000000E+00 -0.2593051965518E-02
 0.1893353972857E-02 -0.8453979183660E-02  0.0000000000000E+00 -0.3226123203877E-02
 0.1945810714131E-02 -0.8961614853640E-02  0.0000000000000E+00 -0.3916515937188E-02
 0.1976606359621E-02 -0.9453249614776E-02  0.0000000000000E+00 -0.4669751533863E-02
 0.1981261284124E-02 -0.9917623022815E-02  0.0000000000000E+00 -0.5485531726178E-02
 0.1958888761249E-02 -0.1034301057583E-01  0.0000000000000E+00 -0.6347166040570E-02
 0.1912527310173E-02 -0.1073886807423E-01  0.0000000000000E+00 -0.7241107869119E-02
 0.1843473718886E-02 -0.1112800294929E-01  0.0000000000000E+00 -0.8180888624089E-02
 0.1748281914160E-02 -0.1152930463119E-01  0.0000000000000E+00 -0.9200397541492E-02
 0.1620480121981E-02 -0.1196473528805E-01  0.0000000000000E+00 -0.1035337884970E-01
 0.1438073602357E-02 -0.1246445210580E-01  0.0000000000000E+00 -0.1172384049708E-01
 0.1196771840350E-02 -0.1308165886028E-01  0.0000000000000E+00 -0.1347652224746E-01
 0.6848597596755E-03 -0.1385867254622E-01  0.0000000000000E+00 -0.1586418655245E-01
 0.3954626031845E-03 -0.1506711065896E-01  0.0000000000000E+00 -0.1969221036209E-01
-0.4643273152962E-02 -0.1533262199958E-01  0.0000000000000E+00 -0.2679041099606E-01
 0.1366320124474E-01 -0.1786299176963E-01  0.0000000000000E+00 -0.3045792233841E-01
 0.1072447694058E+00 -0.1577785462422E+00  0.0000000000000E+00 -0.5994761846775E+00
 0.1304560907210E+00 -0.1794049659310E+00  0.0000000000000E+00 -0.5325499939274E+00
 0.1546423409679E+00 -0.2018076052834E+00  0.0000000000000E+00 -0.4762605945899E+00
 0.1775572509581E+00 -0.2229014625144E+00  0.0000000000000E+00 -0.4295091654406E+00
 0.1980805065357E+00 -0.2416380301787E+00  0.0000000000000E+00 -0.3916630136460E+00
 0.2156712356714E+00 -0.2575218561659E+00  0.0000000000000E+00 -0.3621794755516E+00
 0.2301180547556E+00 -0.2703634079360E+00  0.0000000000000E+00 -0.3404592137500E+00
 0.2413857444499E+00 -0.2801406041094E+00  0.0000000000000E+00 -0.3258574488241E+00
 0.2495263091834E+00 -0.2869149421556E+00  0.0000000000000E+00 -0.3176898327925E+00
 0.2546412982493E+00 -0.2907942046949E+00  0.0000000000000E+00 -0.3152989740149E+00
 0.2568826985208E+00 -0.2919272394392E+00  0.0000000000000E+00 -0.3180695194566E+00
 0.2563053267337E+00 -0.2903907482025E+00  0.0000000000000E+00 -0.3252462142060E+00
 0.2530633746191E+00 -0.2863305298597E+00  0.0000000000000E+00 -0.3366051629131E+00
 0.2474993842681E+00 -0.2800556593768E+00  0.0000000000000E+00 -0.3517671370711E+00
 0.2397859481308E+00 -0.2717259182521E+00  0.0000000000000E+00 -0.3695224698782E+00
 0.2299133042515E+00 -0.2612878502193E+00  0.0000000000000E+00 -0.3887489962841E+00
 0.2177664124813E+00 -0.2485973530508E+00  0.0000000000000E+00 -0.4083152738138E+00
 0.2032079610019E+00 -0.2335290811861E+00  0.0000000000000E+00 -0.4272313833459E+00
 0.1863110706376E+00 -0.2159972860254E+00  0.0000000000000E+00 -0.4436958592266E+00
 0.1654163585985E+00 -0.1958160609364E+00  0.0000000000000E+00 -0.4531687347632E+00
 0.1026608983206E+00 -0.1544852102762E+00  0.0000000000000E+00 -0.5883590778917E+00
 0.1281747424097E+00 -0.1781920648105E+00  0.0000000000000E+00 -0.5210697279078E+00
 0.1541132771734E+00 -0.2022787386881E+00  0.0000000000000E+00 -0.4660881448923E+00
 0.1786242650790E+00 -0.2249211039908E+00  0.0000000000000E+00 -0.4212765466645E+00
 0.2006206235420E+00 -0.2451004257922E+00  0.0000000000000E+00 -0.3855914928421E+00
 0.2195840434191E+00 -0.2623365922562E+00  0.0000000000000E+00 -0.3582920639139E+00
 0.2353173675115E+00 -0.2764555508849E+00  0.0000000000000E+00 -0.3386828192017E+00
 0.2477943672714E+00 -0.2874440158736E+00  0.0000000000000E+00 -0.3260737689967E+00
 0.2570715601533E+00 -0.2953667200342E+00  0.0000000000000E+00 -0.3197827572085E+00
 0.2632567844928E+00 -0.3003356417111E+00  0.0000000000000E+00 -0.3191762097462E+00
 0.2664898858442E+00 -0.3024958485624E+00  0.0000000000000E+00 -0.3236411734678E+00
 0.2668401081424E+00 -0.3019211232263E+00  0.0000000000000E+00 -0.3325313157210E+00
 0.2644698744950E+00 -0.2987685822737E+00  0.0000000000000E+00 -0.3456138863957E+00
 0.2596689701435E+00 -0.2933080973232E+00  0.0000000000000E+00 -0.3624452382033E+00
 0.2525826264475E+00 -0.2856584584525E+00  0.0000000000000E+00 -0.3819739596190E+00
 0.2432125250125E+00 -0.2757951085249E+00  0.0000000000000E+00 -0.4031404538243E+00
 0.2314275097527E+00 -0.2635718323756E+00  0.0000000000000E+00 -0.4247546869422E+00
 0.2170730198594E+00 -0.2487965899081E+00  0.0000000000000E+00 -0.4454637819183E+00
 0.1992620803946E+00 -0.2308351007003E+00  0.0000000000000E+00 -0.4630250113334E+00
 0.1777855599773E+00 -0.2088600660237E+00  0.0000000000000E+00 -0.4796933689347E+00
 0.9813125623766E-01 -0.1511935272572E+00  0.0000000000000E+00 -0.5763157747156E+00
 0.1261265401864E+00 -0.1772495649592E+00  0.0000000000000E+00 -0.5090746938511E+00
 0.1539451803240E+00 -0.2031120143019E+00  0.0000000000000E+00 -0.4552889038817E+00
 0.1800512104976E+00 -0.2272931889795E+00  0.0000000000000E+00 -0.4123683441191E+00
 0.2034940652292E+00 -0.2488812989990E+00  0.0000000000000E+00 -0.3788180389762E+00
 0.2237961162369E+00 -0.2674331695013E+00  0.0000000000000E+00 -0.3536738324564E+00
 0.2407824874853E+00 -0.2827945160856E+00  0.0000000000000E+00 -0.3361370691108E+00
 0.2544402461077E+00 -0.2949647270693E+00  0.0000000000000E+00 -0.3254810029804E+00
 0.2648364095428E+00 -0.3040179142215E+00  0.0000000000000E+00 -0.3210273629889E+00
 0.2720827906686E+00 -0.3100706878808E+00  0.0000000000000E+00 -0.3221590674643E+00
 0.2763146493246E+00 -0.3132610742789E+00  0.0000000000000E+00 -0.3283020926719E+00
 0.2776231470350E+00 -0.3136826403022E+00  0.0000000000000E+00 -0.3388931473898E+00
 0.2761688353741E+00 -0.3114904214712E+00  0.0000000000000E+00 -0.3536653595053E+00
 0.2721953507127E+00 -0.3069102908836E+00  0.0000000000000E+00 -0.3721671985553E+00
 0.2658250694000E+00 -0.3000430310787E+00  0.0000000000000E+00 -0.3934562742248E+00
 0.2570357216683E+00 -0.2908464212571E+00  0.0000000000000E+00 -0.4165147814535E+00
 0.2456663395538E+00 -0.2791384137380E+00  0.0000000000000E+00 -0.4401515704165E+00
 0.2313376348043E+00 -0.2645655922514E+00  0.0000000000000E+00 -0.4630202783685E+00
 0.2134671203873E+00 -0.2464343454489E+00  0.0000000000000E+00 -0.4844445268517E+00
 0.1926181284643E+00 -0.2251625602167E+00  0.0000000000000E+00 -0.5057390889891E+00
 0.9369178418459E-01 -0.1479914831208E+00  0.0000000000000E+00 -0.5631689060318E+00
 0.1242769821612E+00 -0.1765008396960E+00  0.0000000000000E+00 -0.4963662297333E+00
 0.1540663971642E+00 -0.2042352860486E+00  0.0000000000000E+00 -0.4438956997115E+00
 0.1817926361988E+00 -0.2299684194112E+00  0.0000000000000E+00 -0.4028399454607E+00
 0.2066623448847E+00 -0.2529406147572E+00  0.0000000000000E+00 -0.3713885799218E+00
 0.2282712184259E+00 -0.2727731686936E+00  0.0000000000000E+00 -0.3483572304103E+00
 0.2464780130443E+00 -0.2893428135706E+00  0.0000000000000E+00 -0.3328445793227E+00
 0.2612899116050E+00 -0.3026674504995E+00  0.0000000000000E+00 -0.3240890722498E+00
 0.2727874969316E+00 -0.3128340567754E+00  0.0000000000000E+00 -0.3214170699926E+00
 0.2810899593238E+00 -0.3199655955184E+00  0.0000000000000E+00 -0.3242359412483E+00
 0.2863348944565E+00 -0.3242015722168E+00  0.0000000000000E+00 -0.3320134276746E+00
 0.2886313443317E+00 -0.3256518385115E+00  0.0000000000000E+00 -0.3442505531105E+00
 0.2881363075807E+00 -0.3244677984066E+00  0.0000000000000E+00 -0.3606617530581E+00
 0.2850543485784E+00 -0.3208390953281E+00  0.0000000000000E+00 -0.3807975481423E+00
 0.2794781682278E+00 -0.3148407643235E+00  0.0000000000000E+00 -0.4038108253697E+00
 0.2713569333908E+00 -0.3064032787589E+00  0.0000000000000E+00 -0.4287516895865E+00
 0.2604719523881E+00 -0.2952966588839E+00  0.0000000000000E+00 -0.4545312466841E+00
 0.2464744478123E+00 -0.2811332650295E+00  0.0000000000000E+00 -0.4802139991117E+00
 0.2290678088993E+00 -0.2635538809193E+00  0.0000000000000E+00 -0.5052988820712E+00
 0.2088910678333E+00 -0.2430812292457E+00  0.0000000000000E+00 -0.5300315539307E+00
 0.8936294794348E-01 -0.1448952632136E+00  0.0000000000000E+00 -0.5488977076733E+00
 0.1226175385980E+00 -0.1759349948520E+00  0.0000000000000E+00 -0.4828903767548E+00
 0.1544351283092E+00 -0.2055953628969E+00  0.0000000000000E+00 -0.4318923077352E+00
 0.1838007589226E+00 -0.2328961523404E+00  0.0000000000000E+00 -0.3927264344495E+00
 0.2100834741129E+00 -0.2572336489128E+00  0.0000000000000E+00 -0.3633406573413E+00
 0.2329696736923E+00 -0.2783148043665E+00  0.0000000000000E+00 -0.3423723044897E+00
 0.2523657577448E+00 -0.2960601810898E+00  0.0000000000000E+00 -0.3288248781063E+00
 0.2683060925973E+00 -0.3105130815566E+00  0.0000000000000E+00 -0.3219051769717E+00
 0.2808891216805E+00 -0.3217771314556E+00  0.0000000000000E+00 -0.3209468529220E+00
 0.2902452590075E+00 -0.3299856108934E+00  0.0000000000000E+00 -0.3253847626765E+00
 0.2965185159385E+00 -0.3352836684957E+00  0.0000000000000E+00 -0.3347278779919E+00
 0.2998325556342E+00 -0.3377948659358E+00  0.0000000000000E+00 -0.3485314619024E+00
 0.3003398370733E+00 -0.3376664084885E+00  0.0000000000000E+00 -0.3665039151212E+00
 0.2982111415292E+00 -0.3350567237474E+00  0.0000000000000E+00 -0.3882114657823E+00
 0.2935107147585E+00 -0.3300147447077E+00  0.0000000000000E+00 -0.4129025224854E+00
 0.2861594632394E+00 -0.3224456656635E+00  0.0000000000000E+00 -0.4397284251632E+00
 0.2759369461866E+00 -0.3121062699662E+00  0.0000000000000E+00 -0.4677888636804E+00
 0.2625620905603E+00 -0.2986791638754E+00  0.0000000000000E+00 -0.4963176475206E+00
 0.2458732756474E+00 -0.2819464119076E+00  0.0000000000000E+00 -0.5247262058308E+00
 0.2264016728796E+00 -0.2623551642241E+00  0.0000000000000E+00 -0.5525284764275E+00
 0.8515971185255E-01 -0.1419147131211E+00  0.0000000000000E+00 -0.5334898834737E+00
 0.1211388629787E+00 -0.1755365705614E+00  0.0000000000000E+00 -0.4686288795237E+00
 0.1550195439159E+00 -0.2071550912787E+00  0.0000000000000E+00 -0.4192749918520E+00
 0.1860328413309E+00 -0.2360287344860E+00  0.0000000000000E+00 -0.3820460766507E+00
 0.2137136177347E+00 -0.2617138022140E+00  0.0000000000000E+00 -0.3547036573103E+00
 0.2378493266748E+00 -0.2840135397508E+00  0.0000000000000E+00 -0.3357447653286E+00
 0.2584046837726E+00 -0.3029034934107E+00  0.0000000000000E+00 -0.3240949622273E+00
 0.2754486688431E+00 -0.3184594060376E+00  0.0000000000000E+00 -0.3189351921615E+00
 0.2891021658194E+00 -0.3308060139451E+00  0.0000000000000E+00 -0.3196089694093E+00
 0.2995103351268E+00 -0.3400904086361E+00  0.0000000000000E+00 -0.3255801149965E+00
 0.3068265197121E+00 -0.3464664754846E+00  0.0000000000000E+00 -0.3363979156668E+00
 0.3111866520826E+00 -0.3500695378485E+00  0.0000000000000E+00 -0.3516657833092E+00
 0.3127385521530E+00 -0.3510427568703E+00  0.0000000000000E+00 -0.3710985352933E+00
 0.3116255784640E+00 -0.3495191637717E+00  0.0000000000000E+00 -0.3942921659735E+00
 0.3078883883106E+00 -0.3455263636877E+00  0.0000000000000E+00 -0.4205944263742E+00
 0.3014365996466E+00 -0.3389575606971E+00  0.0000000000000E+00 -0.4492790711272E+00
 0.2920669868466E+00 -0.3295868935337E+00  0.0000000000000E+00 -0.4795880696814E+00
 0.2795471808902E+00 -0.3171482159389E+00  0.0000000000000E+00 -0.5108251724156E+00
 0.2637626936469E+00 -0.3014811018524E+00  0.0000000000000E+00 -0.5422769353553E+00
 0.2450854081211E+00 -0.2828868305504E+00  0.0000000000000E+00 -0.5729944494376E+00
 0.8109571430537E-01 -0.1390568578017E+00  0.0000000000000E+00 -0.5169430658519E+00
 0.1198314538401E+00 -0.1752904345501E+00  0.0000000000000E+00 -0.4535779279794E+00
 0.1557910505297E+00 -0.2088807440371E+00  0.0000000000000E+00 -0.4060473344451E+00
 0.1884492092670E+00 -0.2393223965300E+00  0.0000000000000E+00 -0.3708141312774E+00
 0.2175091526704E+00 -0.2663342367378E+00  0.0000000000000E+00 -0.3454999910074E+00
 0.2428662535850E+00 -0.2898229920023E+00  0.0000000000000E+00 -0.3284962304385E+00
 0.2645514302699E+00 -0.3098271744203E+00  0.0000000000000E+00 -0.3186695346734E+00
 0.2826746969155E+00 -0.3264613860391E+00  0.0000000000000E+00 -0.3151834862549E+00
 0.2973838063489E+00 -0.3398758104755E+00  0.0000000000000E+00 -0.3173944685689E+00
 0.3088418378404E+00 -0.3502345644372E+00  0.0000000000000E+00 -0.3247962901767E+00
 0.3172137679239E+00 -0.3577026897390E+00  0.0000000000000E+00 -0.3369777960961E+00
 0.3226465082652E+00 -0.3624262691003E+00  0.0000000000000E+00 -0.3535873994415E+00
 0.3252844506208E+00 -0.3645457092896E+00  0.0000000000000E+00 -0.3743574807264E+00
 0.3252504114561E+00 -0.3641753505901E+00  0.0000000000000E+00 -0.3989252606179E+00
 0.3225701419875E+00 -0.3613294499984E+00  0.0000000000000E+00 -0.4267384192262E+00
 0.3171524402394E+00 -0.3559018714639E+00  0.0000000000000E+00 -0.4571827163546E+00
 0.3088128376406E+00 -0.3476876985507E+00  0.0000000000000E+00 -0.4896056878237E+00
 0.2973458000804E+00 -0.3364530681725E+00  0.0000000000000E+00 -0.5233429658810E+00
 0.2826361610070E+00 -0.3220442040696E+00  0.0000000000000E+00 -0.5575865095715E+00
 0.2648947654561E+00 -0.3046122563445E+00  0.0000000000000E+00 -0.5911119509405E+00
 0.7718424101437E-01 -0.1363281521863E+00  0.0000000000000E+00 -0.4992619781152E+00
 0.1186856971321E+00 -0.1751812857548E+00  0.0000000000000E+00 -0.4377420241671E+00
 0.1567225530588E+00 -0.2107404714980E+00  0.0000000000000E+00 -0.3922176829667E+00
 0.1910118641393E+00 -0.2427352051522E+00  0.0000000000000E+00 -0.3590452288539E+00
 0.2214268999477E+00 -0.2710486310325E+00  0.0000000000000E+00 -0.3357485784094E+00
 0.2479755703210E+00 -0.2956956875502E+00  0.0000000000000E+00 -0.3206449864600E+00
 0.2707607418446E+00 -0.3167837050311E+00  0.0000000000000E+00 -0.3125614162694E+00
 0.2899386270410E+00 -0.3344713269410E+00  0.0000000000000E+00 -0.3106536542120E+00
 0.3056877251171E+00 -0.3489380758211E+00  0.0000000000000E+00 -0.3142946529122E+00
 0.3181918593863E+00 -0.3603679672780E+00  0.0000000000000E+00 -0.3230092546090E+00
 0.3276296521558E+00 -0.3689393167923E+00  0.0000000000000E+00 -0.3364254602829E+00
 0.3341587496709E+00 -0.3748089125725E+00  0.0000000000000E+00 -0.3542352400911E+00
 0.3379222935327E+00 -0.3781166905891E+00  0.0000000000000E+00 -0.3761973673647E+00
 0.3390296990793E+00 -0.3789652814243E+00  0.0000000000000E+00 -0.4019975744971E+00
 0.3374991564702E+00 -0.3773634043406E+00  0.0000000000000E+00 -0.4311765987521E+00
 0.3332437244340E+00 -0.3732116563124E+00  0.0000000000000E+00 -0.4632176207203E+00
 0.3260942233296E+00 -0.3663242283430E+00  0.0000000000000E+00 -0.4975501423530E+00
 0.3158564709894E+00 -0.3564843458613E+00  0.0000000000000E+00 -0.5335345623676E+00
 0.3023918872307E+00 -0.3435221810565E+00  0.0000000000000E+00 -0.5703104424885E+00
 0.2857643527329E+00 -0.3274522708401E+00  0.0000000000000E+00 -0.6065086034191E+00
 0.7343857401106E-01 -0.1337350247038E+00  0.0000000000000E+00 -0.4804583171309E+00
 0.1176920183454E+00 -0.1751939646117E+00  0.0000000000000E+00 -0.4211316051541E+00
 0.1577878008840E+00 -0.2127034343773E+00  0.0000000000000E+00 -0.3777977996148E+00
 0.1936838584423E+00 -0.2462264512156E+00  0.0000000000000E+00 -0.3467542291907E+00
 0.2254241036697E+00 -0.2758111369144E+00  0.0000000000000E+00 -0.3254665016714E+00
 0.2531318479719E+00 -0.3015836004275E+00  0.0000000000000E+00 -0.3122072477818E+00
 0.2769859171789E+00 -0.3237240790077E+00  0.0000000000000E+00 -0.3057822521132E+00
 0.2971926545073E+00 -0.3424392444574E+00  0.0000000000000E+00 -0.3053493973187E+00
 0.3139644939166E+00 -0.3579411932260E+00  0.0000000000000E+00 -0.3103023363019E+00
 0.3275084554249E+00 -0.3704363615562E+00  0.0000000000000E+00 -0.3201981740662E+00
 0.3380186842941E+00 -0.3801183080608E+00  0.0000000000000E+00 -0.3347039024128E+00
 0.3456641127476E+00 -0.3871552414163E+00  0.0000000000000E+00 -0.3535542748457E+00
 0.3505893742936E+00 -0.3916894722534E+00  0.0000000000000E+00 -0.3765405435082E+00
 0.3528967351726E+00 -0.3938182962565E+00  0.0000000000000E+00 -0.4033996743236E+00
 0.3526022304606E+00 -0.3935507001495E+00  0.0000000000000E+00 -0.4337563685598E+00
 0.3496254139501E+00 -0.3907970254925E+00  0.0000000000000E+00 -0.4671779577783E+00
 0.3438087285684E+00 -0.3853875873990E+00  0.0000000000000E+00 -0.5031625244272E+00
 0.3349606193984E+00 -0.3771143817212E+00  0.0000000000000E+00 -0.5410985488204E+00
 0.3229110680941E+00 -0.3657840337545E+00  0.0000000000000E+00 -0.5801099052310E+00
 0.3075966078192E+00 -0.3512953922163E+00  0.0000000000000E+00 -0.6187731992718E+00
 0.6987204708061E-01 -0.1312840524217E+00  0.0000000000000E+00 -0.4605507018926E+00
 0.1168409552890E+00 -0.1753135489579E+00  0.0000000000000E+00 -0.4037620530854E+00
 0.1589611664659E+00 -0.2147395678740E+00  0.0000000000000E+00 -0.3628022065095E+00
 0.1964290445913E+00 -0.2497563521264E+00  0.0000000000000E+00 -0.3339565850246E+00
 0.2294584512143E+00 -0.2805764254786E+00  0.0000000000000E+00 -0.3146700391139E+00
 0.2582894078730E+00 -0.3074384746962E+00  0.0000000000000E+00 -0.3031982165480E+00
 0.2831792208970E+00 -0.3305982489450E+00  0.0000000000000E+00 -0.2983434413242E+00
 0.3043871556818E+00 -0.3503133090783E+00  0.0000000000000E+00 -0.2992754854082E+00
 0.3221620538984E+00 -0.3668308667431E+00  0.0000000000000E+00 -0.3054130139270E+00
 0.3367361979618E+00 -0.3803819227019E+00  0.0000000000000E+00 -0.3163467191918E+00
 0.3483210090594E+00 -0.3911771271975E+00  0.0000000000000E+00 -0.3317824410345E+00
 0.3570977561565E+00 -0.3993973081130E+00  0.0000000000000E+00 -0.3514969496178E+00
 0.3632153546722E+00 -0.4051900929221E+00  0.0000000000000E+00 -0.3753173935945E+00
 0.3667740128109E+00 -0.4086526993976E+00  0.0000000000000E+00 -0.4030317655947E+00
 0.3677914611556E+00 -0.4097985835308E+00  0.0000000000000E+00 -0.4343395502777E+00
 0.3661947802874E+00 -0.4085493272019E+00  0.0000000000000E+00 -0.4688814900818E+00
 0.3618354696377E+00 -0.4047492497516E+00  0.0000000000000E+00 -0.5062160205873E+00
 0.3545205385488E+00 -0.3981954442776E+00  0.0000000000000E+00 -0.5457642443183E+00
 0.3440482825981E+00 -0.3886715158120E+00  0.0000000000000E+00 -0.5866587618940E+00
 0.3302482817489E+00 -0.3759829171026E+00  0.0000000000000E+00 -0.6274767178933E+00
 0.6649797866216E-01 -0.1289819577033E+00  0.0000000000000E+00 -0.4395646994547E+00
 0.1161231977395E+00 -0.1755254278484E+00  0.0000000000000E+00 -0.3856532060562E+00
 0.1602175913623E+00 -0.2168195264923E+00  0.0000000000000E+00 -0.3472478614018E+00
 0.1992120227833E+00 -0.2532859990242E+00  0.0000000000000E+00 -0.3206685618152E+00
 0.2334881669469E+00 -0.2852997903259E+00  0.0000000000000E+00 -0.3033753455279E+00
 0.2634025985665E+00 -0.3132121281055E+00  0.0000000000000E+00 -0.2936329393057E+00
 0.2892922885500E+00 -0.3373555545635E+00  0.0000000000000E+00 -0.2902570108862E+00
 0.3114711668138E+00 -0.3580403454747E+00  0.0000000000000E+00 -0.2924386772370E+00
 0.3302262550197E+00 -0.3755506803689E+00  0.0000000000000E+00 -0.2996258901508E+00
 0.3458167574699E+00 -0.3901438701286E+00  0.0000000000000E+00 -0.3114442014494E+00
 0.3584729499029E+00 -0.4020493345589E+00  0.0000000000000E+00 -0.3276379885973E+00
 0.3683896904522E+00 -0.4114619201315E+00  0.0000000000000E+00 -0.3480249428946E+00
 0.3757227326747E+00 -0.4185372840226E+00  0.0000000000000E+00 -0.3724694592648E+00
 0.3805742361910E+00 -0.4233767412041E+00  0.0000000000000E+00 -0.4008086296129E+00
 0.3829663988284E+00 -0.4260012415970E+00  0.0000000000000E+00 -0.4328082933076E+00
 0.3828343840665E+00 -0.4263444734312E+00  0.0000000000000E+00 -0.4681737895875E+00
 0.3800371561715E+00 -0.4242634864644E+00  0.0000000000000E+00 -0.5065177513208E+00
 0.3743787117205E+00 -0.4195592763431E+00  0.0000000000000E+00 -0.5472961813716E+00
 0.3656282241258E+00 -0.4119957618450E+00  0.0000000000000E+00 -0.5896638309574E+00
 0.3535281058375E+00 -0.4013055509871E+00  0.0000000000000E+00 -0.6322301294979E+00
 0.6332955568596E-01 -0.1268355352380E+00  0.0000000000000E+00 -0.4175328062130E+00
 0.1155296185387E+00 -0.1758153579060E+00  0.0000000000000E+00 -0.3668290787262E+00
 0.1615326228234E+00 -0.2189147310534E+00  0.0000000000000E+00 -0.3311539981691E+00
 0.2019982064352E+00 -0.2567774271422E+00  0.0000000000000E+00 -0.3069074234667E+00
 0.2374721779669E+00 -0.2899373245774E+00  0.0000000000000E+00 -0.2915989739362E+00
 0.2684260946899E+00 -0.3188567680817E+00  0.0000000000000E+00 -0.2835270234075E+00
 0.2952765435640E+00 -0.3439451597875E+00  0.0000000000000E+00 -0.2815364170894E+00
 0.3183928903136E+00 -0.3655663584978E+00  0.0000000000000E+00 -0.2848485828086E+00
 0.3381014313701E+00 -0.3840426960638E+00  0.0000000000000E+00 -0.2929448275662E+00
 0.3546895247960E+00 -0.3996591166533E+00  0.0000000000000E+00 -0.3054866507724E+00
 0.3684076350538E+00 -0.4126652464779E+00  0.0000000000000E+00 -0.3222563757660E+00
 0.3794654502561E+00 -0.4232713296222E+00  0.0000000000000E+00 -0.3431111197919E+00
 0.3880277629533E+00 -0.4316433973639E+00  0.0000000000000E+00 -0.3679523900370E+00
 0.3942017917296E+00 -0.4378901046346E+00  0.0000000000000E+00 -0.3966635148772E+00
 0.3980162140316E+00 -0.4420420852780E+00  0.0000000000000E+00 -0.4290691332993E+00
 0.3994145670141E+00 -0.4440456345669E+00  0.0000000000000E+00 -0.4649316343783E+00
 0.3982621770166E+00 -0.4437696677301E+00  0.0000000000000E+00 -0.5039123357103E+00
 0.3943592874809E+00 -0.4410186594148E+00  0.0000000000000E+00 -0.5455018617429E+00
 0.3874490368632E+00 -0.4355403377865E+00  0.0000000000000E+00 -0.5888830859059E+00
 0.3772038747434E+00 -0.4270118078493E+00  0.0000000000000E+00 -0.6327123588163E+00
 0.6037969366613E-01 -0.1248515502232E+00  0.0000000000000E+00 -0.3944943757984E+00
 0.1150513062241E+00 -0.1761695210583E+00  0.0000000000000E+00 -0.3473176612706E+00
 0.1628825020275E+00 -0.2209974722417E+00  0.0000000000000E+00 -0.3145420361000E+00
 0.2047539596697E+00 -0.2601937647450E+00  0.0000000000000E+00 -0.2926915874750E+00
 0.2413703354245E+00 -0.2944461549875E+00  0.0000000000000E+00 -0.2793582832828E+00
 0.2733152266834E+00 -0.3243253378138E+00  0.0000000000000E+00 -0.2728972200125E+00
 0.3010836354089E+00 -0.3503165097339E+00  0.0000000000000E+00 -0.2721972278860E+00
 0.3251002281439E+00 -0.3728370875138E+00  0.0000000000000E+00 -0.2765184144375E+00
 0.3457310162595E+00 -0.3922480924879E+00  0.0000000000000E+00 -0.2853791835129E+00
 0.3632922964484E+00 -0.4088629812373E+00  0.0000000000000E+00 -0.2984777983741E+00
 0.3780557544125E+00 -0.4229527199270E+00  0.0000000000000E+00 -0.3156336209653E+00
 0.3902470028838E+00 -0.4347441683162E+00  0.0000000000000E+00 -0.3367413361634E+00
 0.4000416848714E+00 -0.4444156620308E+00  0.0000000000000E+00 -0.3617384121347E+00
 0.4075544509331E+00 -0.4520856682970E+00  0.0000000000000E+00 -0.3905510720635E+00
 0.4128218906461E+00 -0.4577960534286E+00  0.0000000000000E+00 -0.4230560075991E+00
 0.4157959511842E+00 -0.4615058922662E+00  0.0000000000000E+00 -0.4590660105615E+00
 0.4163472734517E+00 -0.4630950781446E+00  0.0000000000000E+00 -0.4982858996448E+00
 0.4142715631421E+00 -0.4623709532792E+00  0.0000000000000E+00 -0.5402390785542E+00
 0.4092881903471E+00 -0.4590674228366E+00  0.0000000000000E+00 -0.5841377901642E+00
 0.4010127226142E+00 -0.4528187805218E+00  0.0000000000000E+00 -0.6286884622975E+00
 0.5766088942254E-01 -0.1230366265203E+00  0.0000000000000E+00 -0.3704954942079E+00
 0.1146796052225E+00 -0.1765745892742E+00  0.0000000000000E+00 -0.3271507593783E+00
 0.1642442867968E+00 -0.2230410503166E+00  0.0000000000000E+00 -0.2974355318249E+00
 0.2074467812185E+00 -0.2634994304231E+00  0.0000000000000E+00 -0.2780407691215E+00
 0.2451436748263E+00 -0.2987847155844E+00  0.0000000000000E+00 -0.2666717784862E+00
 0.2780263347949E+00 -0.3295718853984E+00  0.0000000000000E+00 -0.2617619105901E+00
 0.3066658931822E+00 -0.3564198017654E+00  0.0000000000000E+00 -0.2622577022050E+00
 0.3315413320011E+00 -0.3797985764930E+00  0.0000000000000E+00 -0.2674656334222E+00
 0.3530581855426E+00 -0.4001078311686E+00  0.0000000000000E+00 -0.2769445399736E+00
 0.3715620155547E+00 -0.4176899555496E+00  0.0000000000000E+00 -0.2904299509085E+00
 0.3873464232243E+00 -0.4328380446734E+00  0.0000000000000E+00 -0.3077770572307E+00
 0.4006538173192E+00 -0.4457965492199E+00  0.0000000000000E+00 -0.3289159621868E+00
 0.4116721184199E+00 -0.4567576259059E+00  0.0000000000000E+00 -0.3538182663435E+00
 0.4205251797989E+00 -0.4658513872209E+00  0.0000000000000E+00 -0.3824495454610E+00
 0.4272584615193E+00 -0.4731319528027E+00  0.0000000000000E+00 -0.4147325419598E+00
 0.4318320814742E+00 -0.4785710074529E+00  0.0000000000000E+00 -0.4505246146882E+00
 0.4341207775054E+00 -0.4820582747065E+00  0.0000000000000E+00 -0.4895694480537E+00
 0.4339144874588E+00 -0.4834027618436E+00  0.0000000000000E+00 -0.5314209658579E+00
 0.4309096286846E+00 -0.4823252108227E+00  0.0000000000000E+00 -0.5753200386600E+00
 0.4246733208983E+00 -0.4784247266260E+00  0.0000000000000E+00 -0.6200208224184E+00
 0.5518507312875E-01 -0.1213971338233E+00  0.0000000000000E+00 -0.3455887846931E+00
 0.1144061652161E+00 -0.1770177983625E+00  0.0000000000000E+00 -0.3063638342497E+00
 0.1655959992338E+00 -0.2250199406672E+00  0.0000000000000E+00 -0.2798601386911E+00
 0.2100455212279E+00 -0.2666603643329E+00  0.0000000000000E+00 -0.2629761019343E+00
 0.2487547062578E+00 -0.3029130515567E+00  0.0000000000000E+00 -0.2535593867566E+00
 0.2825171450538E+00 -0.3345519545026E+00  0.0000000000000E+00 -0.2501415012319E+00
 0.3119767959597E+00 -0.3622064724894E+00  0.0000000000000E+00 -0.2517392619316E+00
 0.3376651725635E+00 -0.3863977624520E+00  0.0000000000000E+00 -0.2577124800366E+00
 0.3600265322801E+00 -0.4075633533378E+00  0.0000000000000E+00 -0.2676633052993E+00
 0.3794355683981E+00 -0.4260745262639E+00  0.0000000000000E+00 -0.2813647110754E+00
 0.3962081358388E+00 -0.4422469278343E+00  0.0000000000000E+00 -0.2987062428610E+00
 0.4106040479524E+00 -0.4563432897501E+00  0.0000000000000E+00 -0.3196510580423E+00
 0.4228245674138E+00 -0.4685707130850E+00  0.0000000000000E+00 -0.3442026292722E+00
 0.4330040238577E+00 -0.4790722541172E+00  0.0000000000000E+00 -0.3723623279793E+00
 0.4411973133714E+00 -0.4879148630581E+00  0.0000000000000E+00 -0.4040936728072E+00
 0.4473722295615E+00 -0.4950823423637E+00  0.0000000000000E+00 -0.4392936265531E+00
 0.4514061728299E+00 -0.5004727884293E+00  0.0000000000000E+00 -0.4777409965094E+00
 0.4530815888843E+00 -0.5038950401155E+00  0.0000000000000E+00 -0.5190185952733E+00
 0.4520713410408E+00 -0.5050557156978E+00  0.0000000000000E+00 -0.5623955032090E+00
 0.4478982963459E+00 -0.5035218719626E+00  0.0000000000000E+00 -0.6066705846295E+00
 0.5296346703120E-01 -0.1199390794572E+00  0.0000000000000E+00 -0.3198331538066E+00
 0.1142230002900E+00 -0.1774870308284E+00  0.0000000000000E+00 -0.2849958364500E+00
 0.1669167911690E+00 -0.2269099766524E+00  0.0000000000000E+00 -0.2618435669228E+00
 0.2125206195921E+00 -0.2696442806686E+00  0.0000000000000E+00 -0.2475202358861E+00
 0.2521677240613E+00 -0.3067931420607E+00  0.0000000000000E+00 -0.2400426788086E+00
 0.2867471597680E+00 -0.3392229886503E+00  0.0000000000000E+00 -0.2380587332209E+00
 0.3169714546807E+00 -0.3676296952141E+00  0.0000000000000E+00 -0.2406668587959E+00
 0.3434221230788E+00 -0.3925830772019E+00  0.0000000000000E+00 -0.2472863801030E+00
 0.3665807662462E+00 -0.4145573009943E+00  0.0000000000000E+00 -0.2575651687075E+00
 0.3868506236687E+00 -0.4339520404471E+00  0.0000000000000E+00 -0.2713135101536E+00
 0.4045697830454E+00 -0.4511055442741E+00  0.0000000000000E+00 -0.2884536120273E+00
 0.4200157921966E+00 -0.4662992129573E+00  0.0000000000000E+00 -0.3089791769026E+00
 0.4334039877917E+00 -0.4797558510502E+00  0.0000000000000E+00 -0.3329230368212E+00
 0.4448800424369E+00 -0.4916323122210E+00  0.0000000000000E+00 -0.3603189200675E+00
 0.4545085435457E+00 -0.5020085936981E+00  0.0000000000000E+00 -0.3911665827820E+00
 0.4622642789858E+00 -0.5108798696818E+00  0.0000000000000E+00 -0.4253985915222E+00
 0.4680257447015E+00 -0.5181509289322E+00  0.0000000000000E+00 -0.4628263198261E+00
 0.4715658660428E+00 -0.5236281832560E+00  0.0000000000000E+00 -0.5030612026892E+00
 0.4725323732964E+00 -0.5270020443576E+00  0.0000000000000E+00 -0.5454018816686E+00
 0.4704048231702E+00 -0.5278073432048E+00  0.0000000000000E+00 -0.5886911753779E+00
 0.5100644864417E-01 -0.1186680069713E+00  0.0000000000000E+00 -0.2932934659915E+00
 0.1141225548893E+00 -0.1779709063677E+00  0.0000000000000E+00 -0.2630890200783E+00
 0.1681871197732E+00 -0.2286885436473E+00  0.0000000000000E+00 -0.2434155307670E+00
 0.2148443562683E+00 -0.2724209329559E+00  0.0000000000000E+00 -0.2316974047166E+00
 0.2553491268079E+00 -0.3103892338644E+00  0.0000000000000E+00 -0.2261450315575E+00
 0.2906780549360E+00 -0.3435447425910E+00  0.0000000000000E+00 -0.2255389075143E+00
 0.3216070989374E+00 -0.3726448821952E+00  0.0000000000000E+00 -0.2290692303031E+00
 0.3487645498611E+00 -0.3983050558362E+00  0.0000000000000E+00 -0.2362202152383E+00
 0.3726674273399E+00 -0.4210342519753E+00  0.0000000000000E+00 -0.2466873854670E+00
 0.3937464962449E+00 -0.4412595963301E+00  0.0000000000000E+00 -0.2603179220431E+00
 0.4123617041943E+00 -0.4593416236489E+00  0.0000000000000E+00 -0.2770648345906E+00
 0.4288083843706E+00 -0.4755804876716E+00  0.0000000000000E+00 -0.2969497793961E+00
 0.4433163815767E+00 -0.4902151260712E+00  0.0000000000000E+00 -0.3200323140045E+00
 0.4560432535188E+00 -0.5034166805420E+00  0.0000000000000E+00 -0.3463752951982E+00
 0.4670633133276E+00 -0.5152781403417E+00  0.0000000000000E+00 -0.3760109168382E+00
 0.4763575803237E+00 -0.5258051581752E+00  0.0000000000000E+00 -0.4089043617632E+00
 0.4838041072115E+00 -0.5349074784873E+00  0.0000000000000E+00 -0.4448983492526E+00
 0.4891642694597E+00 -0.5423867258744E+00  0.0000000000000E+00 -0.4836343846867E+00
 0.4920586825485E+00 -0.5479145308171E+00  0.0000000000000E+00 -0.5244444170204E+00
 0.4919225123491E+00 -0.5509913316679E+00  0.0000000000000E+00 -0.5662181544049E+00
 0.4932342610978E-01 -0.1175889040829E+00  0.0000000000000E+00 -0.2660401466210E+00
 0.1140977764020E+00 -0.1784588774931E+00  0.0000000000000E+00 -0.2406887298308E+00
 0.1693889294579E+00 -0.2303347779183E+00  0.0000000000000E+00 -0.2246076777452E+00
 0.2169911068989E+00 -0.2749623833781E+00  0.0000000000000E+00 -0.2155334630100E+00
 0.2582677399644E+00 -0.3136681764011E+00  0.0000000000000E+00 -0.2118917377171E+00
 0.2942740768670E+00 -0.3474796915223E+00  0.0000000000000E+00 -0.2126100305265E+00
 0.3258435604950E+00 -0.3772101822172E+00  0.0000000000000E+00 -0.2169790507815E+00
 0.3536473996318E+00 -0.4035169407635E+00  0.0000000000000E+00 -0.2245524591694E+00
 0.3782355987872E+00 -0.4269414538454E+00  0.0000000000000E+00 -0.2350748910436E+00
 0.4000650150379E+00 -0.4479369377088E+00  0.0000000000000E+00 -0.2484297556787E+00
 0.4195167459219E+00 -0.4668855441941E+00  0.0000000000000E+00 -0.2645988869864E+00
 0.4369036915683E+00 -0.4841059711100E+00  0.0000000000000E+00 -0.2836292746681E+00
 0.4524703788755E+00 -0.4998534271294E+00  0.0000000000000E+00 -0.3056045397279E+00
 0.4663865454247E+00 -0.5143135465843E+00  0.0000000000000E+00 -0.3306137039310E+00
 0.4787361353259E+00 -0.5275920769005E+00  0.0000000000000E+00 -0.3587183138754E+00
 0.4895056748297E+00 -0.5397042313001E+00  0.0000000000000E+00 -0.3899141687895E+00
 0.4985714481777E+00 -0.5505631111915E+00  0.0000000000000E+00 -0.4240754261997E+00
 0.5056815693659E+00 -0.5599634337456E+00  0.0000000000000E+00 -0.4608768282208E+00
 0.5104277222981E+00 -0.5675555912019E+00  0.0000000000000E+00 -0.4996898431457E+00
 0.5121988191830E+00 -0.5728027438661E+00  0.0000000000000E+00 -0.5394581184590E+00
 0.4792272574101E-01 -0.1167061218846E+00  0.0000000000000E+00 -0.2381487339296E+00
 0.1141421911032E+00 -0.1789413275778E+00  0.0000000000000E+00 -0.2178431753095E+00
 0.1705058329494E+00 -0.2318297640122E+00  0.0000000000000E+00 -0.2054535093724E+00
 0.2189375947285E+00 -0.2772432677636E+00  0.0000000000000E+00 -0.1990558998899E+00
 0.2608951315322E+00 -0.3165997491304E+00  0.0000000000000E+00 -0.1973100683252E+00
 0.2975024281956E+00 -0.3509934289362E+00  0.0000000000000E+00 -0.1993028858080E+00
 0.3296437433361E+00 -0.3812869638349E+00  0.0000000000000E+00 -0.2044329792785E+00
 0.3580287720357E+00 -0.4081752700433E+00  0.0000000000000E+00 -0.2123271779181E+00
 0.3832376055353E+00 -0.4322295422269E+00  0.0000000000000E+00 -0.2227802384791E+00
 0.4057513760889E+00 -0.4539273330625E+00  0.0000000000000E+00 -0.2357109189700E+00
 0.4259713039746E+00 -0.4736714092357E+00  0.0000000000000E+00 -0.2511278302603E+00
 0.4442273843578E+00 -0.4917985259801E+00  0.0000000000000E+00 -0.2691006913912E+00
 0.4607787779110E+00 -0.5085800475461E+00  0.0000000000000E+00 -0.2897345573202E+00
 0.4758075197683E+00 -0.5242160902443E+00  0.0000000000000E+00 -0.3131419339271E+00
 0.4894070473413E+00 -0.5388248348823E+00  0.0000000000000E+00 -0.3394112887773E+00
 0.5015688205530E+00 -0.5524302301415E+00  0.0000000000000E+00 -0.3685679195230E+00
 0.5121664124010E+00 -0.5649474520922E+00  0.0000000000000E+00 -0.4005186502476E+00
 0.5209335634582E+00 -0.5761627298950E+00  0.0000000000000E+00 -0.4349760856043E+00
 0.5274318836031E+00 -0.5857034133111E+00  0.0000000000000E+00 -0.4713595849422E+00
 0.5310024745524E+00 -0.5929928796492E+00  0.0000000000000E+00 -0.5086776332203E+00
 0.4681149315474E-01 -0.1160233057444E+00  0.0000000000000E+00 -0.2096993679357E+00
 0.1142499813261E+00 -0.1794096687627E+00  0.0000000000000E+00 -0.1946031793926E+00
 0.1715232874890E+00 -0.2331567261668E+00  0.0000000000000E+00 -0.1859882825323E+00
 0.2206631336507E+00 -0.2792410507440E+00  0.0000000000000E+00 -0.1822938224966E+00
 0.2632059149672E+00 -0.3191569752284E+00  0.0000000000000E+00 -0.1824292849213E+00
 0.3003336371047E+00 -0.3540550466627E+00  0.0000000000000E+00 -0.1856510306293E+00
 0.3329740730294E+00 -0.3848402768488E+00  0.0000000000000E+00 -0.1914716040634E+00
 0.3618704681305E+00 -0.4122404405469E+00  0.0000000000000E+00 -0.1995938934530E+00
 0.3876296854917E+00 -0.4368532308038E+00  0.0000000000000E+00 -0.2098633588272E+00
 0.4107549645179E+00 -0.4591784223236E+00  0.0000000000000E+00 -0.2222330561245E+00
 0.4316663272820E+00 -0.4796380846444E+00  0.0000000000000E+00 -0.2367363018911E+00
 0.4507101574073E+00 -0.4985862860147E+00  0.0000000000000E+00 -0.2534629933744E+00
 0.4681600142499E+00 -0.5163102141367E+00  0.0000000000000E+00 -0.2725370556585E+00
 0.4842102315067E+00 -0.5330243030245E+00  0.0000000000000E+00 -0.2940920654280E+00
 0.4989636314181E+00 -0.5488588260578E+00  0.0000000000000E+00 -0.3182415346931E+00
 0.5124162762625E+00 -0.5638458313673E+00  0.0000000000000E+00 -0.3450398493181E+00
 0.5244385943678E+00 -0.5779017411801E+00  0.0000000000000E+00 -0.3744285800148E+00
 0.5347496497713E+00 -0.5908034752657E+00  0.0000000000000E+00 -0.4061638357970E+00
 0.5428809219938E+00 -0.6021546131439E+00  0.0000000000000E+00 -0.4397227610042E+00
 0.5481253040354E+00 -0.6113374940545E+00  0.0000000000000E+00 -0.4741925838164E+00
 0.4599560964429E-01 -0.1155433389725E+00  0.0000000000000E+00 -0.1807762252268E+00
 0.1144160615094E+00 -0.1798564369848E+00  0.0000000000000E+00 -0.1710219051438E+00
 0.1724287612923E+00 -0.2343012086174E+00  0.0000000000000E+00 -0.1662488945622E+00
 0.2221498559641E+00 -0.2809362644509E+00  0.0000000000000E+00 -0.1652779127224E+00
 0.2651780319401E+00 -0.3213164140013E+00  0.0000000000000E+00 -0.1672806060599E+00
 0.3027419013652E+00 -0.3566374885669E+00  0.0000000000000E+00 -0.1716907230844E+00
 0.3358049156964E+00 -0.3878392821078E+00  0.0000000000000E+00 -0.1781392897350E+00
 0.3651385030872E+00 -0.4156772339184E+00  0.0000000000000E+00 -0.1864073170103E+00
 0.3913726190468E+00 -0.4407719580218E+00  0.0000000000000E+00 -0.1963911517072E+00
 0.4150301274195E+00 -0.4636430127591E+00  0.0000000000000E+00 -0.2080769677649E+00
 0.4365482628504E+00 -0.4847301749123E+00  0.0000000000000E+00 -0.2215207352591E+00
 0.4562888754615E+00 -0.5044038442127E+00  0.0000000000000E+00 -0.2368300609454E+00
 0.4745395320820E+00 -0.5229665152691E+00  0.0000000000000E+00 -0.2541452525583E+00
 0.4915067968728E+00 -0.5406466714107E+00  0.0000000000000E+00 -0.2736187707859E+00
 0.5073028492753E+00 -0.5575863766997E+00  0.0000000000000E+00 -0.2953877254282E+00
 0.5219283223696E+00 -0.5738253955950E+00  0.0000000000000E+00 -0.3195356668486E+00
 0.5352506528465E+00 -0.5892811070618E+00  0.0000000000000E+00 -0.3460414936114E+00
 0.5469748471390E+00 -0.6037211873008E+00  0.0000000000000E+00 -0.3747109613960E+00
 0.5566035343133E+00 -0.6167260299260E+00  0.0000000000000E+00 -0.4050895344574E+00
 0.5633828214853E+00 -0.6276375875104E+00  0.0000000000000E+00 -0.4363588565041E+00
 0.4547962492984E-01 -0.1152682999797E+00  0.0000000000000E+00 -0.1514669036124E+00
 0.1146361509202E+00 -0.1802753816364E+00  0.0000000000000E+00 -0.1471545617339E+00
 0.1732118860543E+00 -0.2352512404093E+00  0.0000000000000E+00 -0.1462737520053E+00
 0.2233829194055E+00 -0.2823127251996E+00  0.0000000000000E+00 -0.1480403583968E+00
 0.2667930085997E+00 -0.3230584255857E+00  0.0000000000000E+00 -0.1518971312636E+00
 0.3047053998803E+00 -0.3587178704821E+00  0.0000000000000E+00 -0.1574607846428E+00
 0.3381109579045E+00 -0.3902576408210E+00  0.0000000000000E+00 -0.1644839333681E+00
 0.3678035725129E+00 -0.4184552945098E+00  0.0000000000000E+00 -0.1728269599894E+00
 0.3944323038241E+00 -0.4439504770440E+00  0.0000000000000E+00 -0.1824369159155E+00
 0.4185368818136E+00 -0.4672798074902E+00  0.0000000000000E+00 -0.1933318269647E+00
 0.4405699227017E+00 -0.4888989182550E+00  0.0000000000000E+00 -0.2055883247282E+00
 0.4609076235356E+00 -0.5091933415298E+00  0.0000000000000E+00 -0.2193293634457E+00
 0.4798510352140E+00 -0.5284802039947E+00  0.0000000000000E+00 -0.2347092163382E+00
 0.4976188479361E+00 -0.5470017010696E+00  0.0000000000000E+00 -0.2518972103322E+00
 0.5143326783452E+00 -0.5649114550665E+00  0.0000000000000E+00 -0.2710528978933E+00
 0.5299980189815E+00 -0.5822568421873E+00  0.0000000000000E+00 -0.2922893111854E+00
 0.5444800754455E+00 -0.5989564772496E+00  0.0000000000000E+00 -0.3156253769419E+00
 0.5574713825582E+00 -0.6147697957118E+00  0.0000000000000E+00 -0.3409226016444E+00
 0.5684483792438E+00 -0.6292559751527E+00  0.0000000000000E+00 -0.3678052207956E+00
 0.5766140853532E+00 -0.6417194213386E+00  0.0000000000000E+00 -0.3955651036380E+00
 0.4526670744975E-01 -0.1151994335874E+00  0.0000000000000E+00 -0.1218617618552E+00
 0.1149068411327E+00 -0.1806615476190E+00  0.0000000000000E+00 -0.1230580904429E+00
 0.1738645917952E+00 -0.2359974807967E+00  0.0000000000000E+00 -0.1261026235427E+00
 0.2243506886183E+00 -0.2833577231624E+00  0.0000000000000E+00 -0.1306147608199E+00
 0.2680361795645E+00 -0.3243674020301E+00  0.0000000000000E+00 -0.1363137265254E+00
 0.3062065648976E+00 -0.3602777594034E+00  0.0000000000000E+00 -0.1430024045783E+00
 0.3398715392465E+00 -0.3920738549621E+00  0.0000000000000E+00 -0.1505566383329E+00
 0.3698414623160E+00 -0.4205495489508E+00  0.0000000000000E+00 -0.1589166333401E+00
 0.3967802623370E+00 -0.4463593762528E+00  0.0000000000000E+00 -0.1680796338087E+00
 0.4212415428671E+00 -0.4700540512910E+00  0.0000000000000E+00 -0.1780942086527E+00
 0.4436912556990E+00 -0.4921029827689E+00  0.0000000000000E+00 -0.1890557588880E+00
 0.4645186424863E+00 -0.5129054360609E+00  0.0000000000000E+00 -0.2011003525209E+00
 0.4840375989760E+00 -0.5327923559004E+00  0.0000000000000E+00 -0.2143938646562E+00
 0.5024788182869E+00 -0.5520192643666E+00  0.0000000000000E+00 -0.2291205767698E+00
 0.5199735426119E+00 -0.5707511835719E+00  0.0000000000000E+00 -0.2454614862998E+00
 0.5365327126287E+00 -0.5890432602351E+00  0.0000000000000E+00 -0.2635594204628E+00
 0.5520206394893E+00 -0.6068161655900E+00  0.0000000000000E+00 -0.2834757667810E+00
 0.5661199118149E+00 -0.6238230152627E+00  0.0000000000000E+00 -0.3051332990125E+00
 0.5782848706256E+00 -0.6396051618907E+00  0.0000000000000E+00 -0.3282447583132E+00
 0.5876812565137E+00 -0.6534344707483E+00  0.0000000000000E+00 -0.3522273357336E+00
 0.4535861316488E-01 -0.1153371370246E+00  0.0000000000000E+00 -0.9205322390107E-01
 0.1152256565989E+00 -0.1810113478569E+00  0.0000000000000E+00 -0.9879083517073E-01
 0.1743812208284E+00 -0.2365333418297E+00  0.0000000000000E+00 -0.1057764804591E+00
 0.2250448867970E+00 -0.2840621806474E+00  0.0000000000000E+00 -0.1130360231514E+00
 0.2688968744566E+00 -0.3252319594662E+00  0.0000000000000E+00 -0.1205668781587E+00
 0.3072323086084E+00 -0.3613034055451E+00  0.0000000000000E+00 -0.1283588957373E+00
 0.3410709299204E+00 -0.3932715509151E+00  0.0000000000000E+00 -0.1364113179856E+00
 0.3712333926814E+00 -0.4219405576773E+00  0.0000000000000E+00 -0.1447438505547E+00
 0.3983940710962E+00 -0.4479755184763E+00  0.0000000000000E+00 -0.1534031280077E+00
 0.4231172587829E+00 -0.4719380795373E+00  0.0000000000000E+00 -0.1624669552167E+00
 0.4458800086969E+00 -0.4943091473289E+00  0.0000000000000E+00 -0.1720477501808E+00
 0.4670831332178E+00 -0.5155001349048E+00  0.0000000000000E+00 -0.1822926112346E+00
 0.4870526270060E+00 -0.5358548641906E+00  0.0000000000000E+00 -0.1933766832628E+00
 0.5060310484517E+00 -0.5556417578290E+00  0.0000000000000E+00 -0.2054973390181E+00
 0.5241595376849E+00 -0.5750371329962E+00  0.0000000000000E+00 -0.2188560687650E+00
 0.5414553128046E+00 -0.5941042737072E+00  0.0000000000000E+00 -0.2336255845455E+00
 0.5577836135357E+00 -0.6127671841329E+00  0.0000000000000E+00 -0.2499115329379E+00
 0.5728204553588E+00 -0.6307754058808E+00  0.0000000000000E+00 -0.2677023200075E+00
 0.5860035315876E+00 -0.6476572181985E+00  0.0000000000000E+00 -0.2868072728026E+00
 0.5964690940763E+00 -0.6626590041319E+00  0.0000000000000E+00 -0.3067819337027E+00
 0.4575567349200E-01 -0.1156809609976E+00  0.0000000000000E+00 -0.6213505452066E-01
 0.1155911070062E+00 -0.1813226248040E+00  0.0000000000000E+00 -0.7441219978913E-01
 0.1747586183720E+00 -0.2368550855629E+00  0.0000000000000E+00 -0.8533732632686E-01
 0.2254607142402E+00 -0.2844207756694E+00  0.0000000000000E+00 -0.9534022302761E-01
 0.2693685629168E+00 -0.3256450872699E+00  0.0000000000000E+00 -0.1046945212878E+00
 0.3077741990545E+00 -0.3617859221238E+00  0.0000000000000E+00 -0.1135754112564E+00
 0.3416985469155E+00 -0.3938396998648E+00  0.0000000000000E+00 -0.1221042422211E+00
 0.3719662881856E+00 -0.4226147902719E+00  0.0000000000000E+00 -0.1303791507481E+00
 0.3992577014508E+00 -0.4487823889478E+00  0.0000000000000E+00 -0.1384951108194E+00
 0.4241444408712E+00 -0.4729117584013E+00  0.0000000000000E+00 -0.1465579033441E+00
 0.4471122639997E+00 -0.4954928535924E+00  0.0000000000000E+00 -0.1546953914463E+00
 0.4685719156396E+00 -0.5169474739419E+00  0.0000000000000E+00 -0.1630637957906E+00
 0.4888606399425E+00 -0.5376312577623E+00  0.0000000000000E+00 -0.1718452068459E+00
 0.5082327026458E+00 -0.5578250595280E+00  0.0000000000000E+00 -0.1812482304556E+00
 0.5268394530405E+00 -0.5777163994656E+00  0.0000000000000E+00 -0.1914938708313E+00
 0.5447053604161E+00 -0.5973771816564E+00  0.0000000000000E+00 -0.2027844211935E+00
 0.5616987566275E+00 -0.6167363319969E+00  0.0000000000000E+00 -0.2152706394006E+00
 0.5774931187580E+00 -0.6355432049155E+00  0.0000000000000E+00 -0.2290092365451E+00
 0.5915160731916E+00 -0.6533188913260E+00  0.0000000000000E+00 -0.2439116999288E+00
 0.6028839514191E+00 -0.6692931623104E+00  0.0000000000000E+00 -0.2596817504563E+00
 0.4645680296093E-01 -0.1162296261506E+00  0.0000000000000E+00 -0.3220161291056E-01
 0.1160027305647E+00 -0.1815946998888E+00  0.0000000000000E+00 -0.4998229410030E-01
 0.1749961981115E+00 -0.2369618940942E+00  0.0000000000000E+00 -0.6482801711537E-01
 0.2255969315203E+00 -0.2844320284496E+00  0.0000000000000E+00 -0.7756447268635E-01
 0.2694489550981E+00 -0.3256042511582E+00  0.0000000000000E+00 -0.8873584966346E-01
 0.3078285813415E+00 -0.3617214087995E+00  0.0000000000000E+00 -0.9869863279106E-01
 0.3417491035175E+00 -0.3937727695386E+00  0.0000000000000E+00 -0.1076935413019E+00
 0.3720329673045E+00 -0.4225648177022E+00  0.0000000000000E+00 -0.1158953600944E+00
 0.3993617638978E+00 -0.4487703434823E+00  0.0000000000000E+00 -0.1234461488463E+00
 0.4243110790837E+00 -0.4729628062184E+00  0.0000000000000E+00 -0.1304784994150E+00
 0.4473728421821E+00 -0.4956386176641E+00  0.0000000000000E+00 -0.1371343722742E+00
 0.4689659306127E+00 -0.5172280330372E+00  0.0000000000000E+00 -0.1435774086677E+00
 0.4894378846121E+00 -0.5380973298417E+00  0.0000000000000E+00 -0.1499943043983E+00
 0.5090544889013E+00 -0.5585392769495E+00  0.0000000000000E+00 -0.1566030220691E+00
 0.5279775924303E+00 -0.5787524635217E+00  0.0000000000000E+00 -0.1636430563555E+00
 0.5462399080755E+00 -0.5988178908450E+00  0.0000000000000E+00 -0.1713454885524E+00
 0.5637151639309E+00 -0.6186711098537E+00  0.0000000000000E+00 -0.1799058705288E+00
 0.5800787221699E+00 -0.6380650414662E+00  0.0000000000000E+00 -0.1894497643790E+00
 0.5947555306420E+00 -0.6565202718202E+00  0.0000000000000E+00 -0.1999932015849E+00
 0.6068530576799E+00 -0.6732603293704E+00  0.0000000000000E+00 -0.2113937901819E+00
 0.4745952694350E-01 -0.1169810548635E+00  0.0000000000000E+00 -0.2347097509533E-02
 0.1164611277447E+00 -0.1818284103182E+00  0.0000000000000E+00 -0.2556157529218E-01
 0.1750959818320E+00 -0.2368559114106E+00  0.0000000000000E+00 -0.4429207723684E-01
 0.2254559060250E+00 -0.2840983495549E+00  0.0000000000000E+00 -0.5974677355790E-01
 0.2691400558219E+00 -0.3251114483677E+00  0.0000000000000E+00 -0.7273111718623E-01
 0.3073966413672E+00 -0.3611110159318E+00  0.0000000000000E+00 -0.8377644467788E-01
 0.3412226880607E+00 -0.3930708031393E+00  0.0000000000000E+00 -0.9323868542497E-01
 0.3714322458537E+00 -0.4217894158561E+00  0.0000000000000E+00 -0.1013668140404E+00
 0.3987036490805E+00 -0.4479367498921E+00  0.0000000000000E+00 -0.1083485694374E+00
 0.4236129350866E+00 -0.4720869878370E+00  0.0000000000000E+00 -0.1143423350253E+00
 0.4466555614289E+00 -0.4947402922148E+00  0.0000000000000E+00 -0.1195030924823E+00
 0.4682565750793E+00 -0.5163332763748E+00  0.0000000000000E+00 -0.1240004466345E+00
 0.4887727532448E+00 -0.5372415659914E+00  0.0000000000000E+00 -0.1280233157030E+00
 0.5084811731557E+00 -0.5577692748757E+00  0.0000000000000E+00 -0.1317971222861E+00
 0.5275543887121E+00 -0.5781258258028E+00  0.0000000000000E+00 -0.1355788306949E+00
 0.5460342227701E+00 -0.5984016494265E+00  0.0000000000000E+00 -0.1396270270237E+00
 0.5638020007168E+00 -0.6185404983394E+00  0.0000000000000E+00 -0.1441804800350E+00
 0.5805394392314E+00 -0.6383026321996E+00  0.0000000000000E+00 -0.1494317442258E+00
 0.5956766001088E+00 -0.6572151961395E+00  0.0000000000000E+00 -0.1555000534701E+00
 0.6083243321925E+00 -0.6745070049059E+00  0.0000000000000E+00 -0.1623976948439E+00
 0.4876002890381E-01 -0.1179324189196E+00  0.0000000000000E+00  0.2733522600141E-01
 0.1169679851565E+00 -0.1820261331113E+00  0.0000000000000E+00 -0.1210475821417E-02
 0.1750626125468E+00 -0.2365422569291E+00  0.0000000000000E+00 -0.2377350387131E-01
 0.2250436213479E+00 -0.2834260495243E+00  0.0000000000000E+00 -0.4192586238063E-01
 0.2684481714282E+00 -0.3241732142984E+00  0.0000000000000E+00 -0.5672143408978E-01
 0.3064844101580E+00 -0.3599609480359E+00  0.0000000000000E+00 -0.6885760295241E-01
 0.3401247687529E+00 -0.3917394225104E+00  0.0000000000000E+00 -0.7879995426752E-01
 0.3701689499097E+00 -0.4202935760637E+00  0.0000000000000E+00 -0.8686855920554E-01
 0.3972875599888E+00 -0.4462860172336E+00  0.0000000000000E+00 -0.9329533247881E-01
 0.4220536067071E+00 -0.4702881758244E+00  0.0000000000000E+00 -0.9826363130282E-01
 0.4449633468314E+00 -0.4928011725092E+00  0.0000000000000E+00 -0.1019407076158E+00
 0.4664458629598E+00 -0.5142657104798E+00  0.0000000000000E+00 -0.1045009658409E+00
 0.4868660036298E+00 -0.5350653622993E+00  0.0000000000000E+00 -0.1061330856800E+00
 0.5065118765373E+00 -0.5555149721147E+00  0.0000000000000E+00 -0.1070680460624E+00
 0.5255668027673E+00 -0.5758344080175E+00  0.0000000000000E+00 -0.1075793786817E+00
 0.5440823090746E+00 -0.5961235776064E+00  0.0000000000000E+00 -0.1079515099666E+00
 0.5619491487422E+00 -0.6163356219042E+00  0.0000000000000E+00 -0.1084636716980E+00
 0.5788595050716E+00 -0.6362415215365E+00  0.0000000000000E+00 -0.1093710773365E+00
 0.5942562672447E+00 -0.6553819183002E+00  0.0000000000000E+00 -0.1108907222989E+00
 0.6072668084526E+00 -0.6730032744504E+00  0.0000000000000E+00 -0.1131847098155E+00
 0.5035322018912E-01 -0.1190802023605E+00  0.0000000000000E+00  0.5675378827473E-01
 0.1175260907988E+00 -0.1821917961963E+00  0.0000000000000E+00  0.2301096853666E-01
 0.1749033433806E+00 -0.2360290114800E+00  0.0000000000000E+00 -0.3316569420477E-02
 0.2243696519479E+00 -0.2824253112609E+00  0.0000000000000E+00 -0.2414105899697E-01
 0.2673838713253E+00 -0.3228005816296E+00  0.0000000000000E+00 -0.4074857142593E-01
 0.3051027095957E+00 -0.3582824063196E+00  0.0000000000000E+00 -0.5399141718831E-01
 0.3384661237087E+00 -0.3897897538286E+00  0.0000000000000E+00 -0.6443791836116E-01
 0.3682538357445E+00 -0.4180884193303E+00  0.0000000000000E+00 -0.7247555995457E-01
 0.3951244316983E+00 -0.4438295084362E+00  0.0000000000000E+00 -0.7837889531260E-01
 0.4196444595121E+00 -0.4675782735496E+00  0.0000000000000E+00 -0.8235570302059E-01
 0.4423081853131E+00 -0.4898339413619E+00  0.0000000000000E+00 -0.8458514203721E-01
 0.4635464065125E+00 -0.5110388540859E+00  0.0000000000000E+00 -0.8524560627824E-01
 0.4837307719818E+00 -0.5315830250064E+00  0.0000000000000E+00 -0.8452294349556E-01
 0.5031601426523E+00 -0.5517913933390E+00  0.0000000000000E+00 -0.8265179625185E-01
 0.5220284868213E+00 -0.5718936984123E+00  0.0000000000000E+00 -0.7992165919895E-01
 0.5403972298851E+00 -0.5919989696970E+00  0.0000000000000E+00 -0.7664096896393E-01
 0.5581677521646E+00 -0.6120702810947E+00  0.0000000000000E+00 -0.7312576966639E-01
 0.5750460148040E+00 -0.6318918833328E+00  0.0000000000000E+00 -0.6968733952391E-01
 0.5904947744393E+00 -0.6510241068446E+00  0.0000000000000E+00 -0.6663075266958E-01
 0.6036717112138E+00 -0.6687439178562E+00  0.0000000000000E+00 -0.6425653063352E-01
 0.5223282561173E-01 -0.1204202779891E+00  0.0000000000000E+00  0.8581945973531E-01
 0.1181393388432E+00 -0.1823308769014E+00  0.0000000000000E+00  0.4704348565075E-01
 0.1746280016818E+00 -0.2353271776876E+00  0.0000000000000E+00  0.1703437412910E-01
 0.2234471042448E+00 -0.2811101285052E+00  0.0000000000000E+00 -0.6432123731046E-02
 0.2659619056681E+00 -0.3210089952499E+00  0.0000000000000E+00 -0.2485478846216E-01
 0.3032670400982E+00 -0.3560914725084E+00  0.0000000000000E+00 -0.3922746645059E-01
 0.3362626953352E+00 -0.3872382763887E+00  0.0000000000000E+00 -0.5021295906768E-01
 0.3657034145765E+00 -0.4151910133228E+00  0.0000000000000E+00 -0.5826194068493E-01
 0.3922317356547E+00 -0.4405853343997E+00  0.0000000000000E+00 -0.6369010539025E-01
 0.4164044226995E+00 -0.4639769983188E+00  0.0000000000000E+00 -0.6672944084883E-01
 0.4387109245996E+00 -0.4858604524930E+00  0.0000000000000E+00 -0.6757111375097E-01
 0.4595812167660E+00 -0.5066770197436E+00  0.0000000000000E+00 -0.6639713045925E-01
 0.4793923740478E+00 -0.5268215486069E+00  0.0000000000000E+00 -0.6338769265838E-01
 0.4984537636202E+00 -0.5466284661662E+00  0.0000000000000E+00 -0.5877922758076E-01
 0.5169696887379E+00 -0.5663366200847E+00  0.0000000000000E+00 -0.5287711832172E-01
 0.5350111824499E+00 -0.5860633258464E+00  0.0000000000000E+00 -0.4601211252383E-01
 0.5524906059745E+00 -0.6057812925475E+00  0.0000000000000E+00 -0.3853297953523E-01
 0.5691297762359E+00 -0.6252893384586E+00  0.0000000000000E+00 -0.3079877182806E-01
 0.5844169655109E+00 -0.6441722021569E+00  0.0000000000000E+00 -0.2318904182824E-01
 0.5975542518828E+00 -0.6617502607057E+00  0.0000000000000E+00 -0.1612391628908E-01
 0.5439148848494E-01 -0.1219479963082E+00  0.0000000000000E+00  0.1144462857775E+00
 0.1188127260673E+00 -0.1824503879594E+00  0.0000000000000E+00  0.7082894377816E-01
 0.1742489336511E+00 -0.2344506182172E+00  0.0000000000000E+00  0.3723510280284E-01
 0.2222925311089E+00 -0.2794982160640E+00  0.0000000000000E+00  0.1116088155164E-01
 0.2642010859801E+00 -0.3188181886630E+00  0.0000000000000E+00 -0.9082687383839E-02
 0.3009974153974E+00 -0.3534089380202E+00  0.0000000000000E+00 -0.2461536248872E-01
 0.3335353721359E+00 -0.3841065965891E+00  0.0000000000000E+00 -0.3618484661853E-01
 0.3625396833635E+00 -0.4116240925025E+00  0.0000000000000E+00 -0.4430028788223E-01
 0.3886331684718E+00 -0.4365780287501E+00  0.0000000000000E+00 -0.4931714787509E-01
 0.4123596494008E+00 -0.4595115238685E+00  0.0000000000000E+00 -0.5149184076777E-01
 0.4342009187447E+00 -0.4809113542226E+00  0.0000000000000E+00 -0.5102820333728E-01
 0.4545833275739E+00 -0.5012149117476E+00  0.0000000000000E+00 -0.4811202056884E-01
 0.4738878965473E+00 -0.5208201752373E+00  0.0000000000000E+00 -0.4291467437385E-01
 0.4924343578198E+00 -0.5400705572991E+00  0.0000000000000E+00 -0.3567246820217E-01
 0.5104368755618E+00 -0.5592131004885E+00  0.0000000000000E+00 -0.2670739455620E-01
 0.5279752787686E+00 -0.5783720665709E+00  0.0000000000000E+00 -0.1637130461448E-01
 0.5449722824402E+00 -0.5975285299536E+00  0.0000000000000E+00 -0.5041725800194E-02
 0.5611660759759E+00 -0.6164956314353E+00  0.0000000000000E+00  0.6883647864118E-02
 0.5760739346224E+00 -0.6348850332207E+00  0.0000000000000E+00  0.1896729878635E-01
 0.5889560548275E+00 -0.6520727375350E+00  0.0000000000000E+00  0.3069652001092E-01
 0.5682089006252E-01 -0.1236582825539E+00  0.0000000000000E+00  0.1425521916329E+00
 0.1195523384126E+00 -0.1825588495897E+00  0.0000000000000E+00  0.9431073521560E-01
 0.1737809334576E+00 -0.2334159768970E+00  0.0000000000000E+00  0.5724174112114E-01
 0.2209258274811E+00 -0.2776109006119E+00  0.0000000000000E+00  0.2859772251296E-01
 0.2621241362272E+00 -0.3162520301662E+00  0.0000000000000E+00  0.6524888430014E-02
 0.2983181496114E+00 -0.3502600841654E+00  0.0000000000000E+00 -0.1020458301599E-01
 0.3303097008229E+00 -0.3804211504048E+00  0.0000000000000E+00 -0.2241240243156E-01
 0.3587897626737E+00 -0.4074156829700E+00  0.0000000000000E+00 -0.3066104092200E-01
 0.3843582244266E+00 -0.4318381028294E+00  0.0000000000000E+00 -0.3534457877625E-01
 0.4075430398220E+00 -0.4542159807575E+00  0.0000000000000E+00 -0.3674460869734E-01
 0.4288155220082E+00 -0.4750255551471E+00  0.0000000000000E+00 -0.3507898990851E-01
 0.4485952506518E+00 -0.4946970484919E+00  0.0000000000000E+00 -0.3053816331231E-01
 0.4672655869227E+00 -0.5136297455372E+00  0.0000000000000E+00 -0.2328095618485E-01
 0.4851566961735E+00 -0.5321757472734E+00  0.0000000000000E+00 -0.1354147558490E-01
 0.5024920501499E+00 -0.5505893171136E+00  0.0000000000000E+00 -0.1660091384299E-02
 0.5193589859408E+00 -0.5689998832355E+00  0.0000000000000E+00  0.1199054641797E-01
 0.5356888777748E+00 -0.5873945724165E+00  0.0000000000000E+00  0.2700731521807E-01
 0.5512350677196E+00 -0.6055988572975E+00  0.0000000000000E+00  0.4296313159034E-01
 0.5655445630907E+00 -0.6232512264520E+00  0.0000000000000E+00  0.5938045609697E-01
 0.5779475983571E+00 -0.6397935396909E+00  0.0000000000000E+00  0.7568940015911E-01
 0.5951187779170E-01 -0.1255457337807E+00  0.0000000000000E+00  0.1700596723514E+00
 0.1203653256150E+00 -0.1826662450661E+00  0.0000000000000E+00  0.1174342031724E+00
 0.1732411642855E+00 -0.2322425907700E+00  0.0000000000000E+00  0.7701102850377E-01
 0.2193701191095E+00 -0.2754730050006E+00  0.0000000000000E+00  0.4583812429256E-01
 0.2597575238622E+00 -0.3133383486553E+00  0.0000000000000E+00  0.2192490617611E-01
 0.2952576012034E+00 -0.3466744175396E+00  0.0000000000000E+00  0.3955610883887E-02
 0.3266155303523E+00 -0.3762128357748E+00  0.0000000000000E+00 -0.8953261538522E-02
 0.3544854417170E+00 -0.4025986322368E+00  0.0000000000000E+00 -0.1741199167580E-01
 0.3794416486158E+00 -0.4264014783324E+00  0.0000000000000E+00 -0.2185246991649E-01
 0.4019936201949E+00 -0.4481308070844E+00  0.0000000000000E+00 -0.2258286437578E-01
 0.4225994257881E+00 -0.4682495253769E+00  0.0000000000000E+00 -0.1983726389336E-01
 0.4416682664449E+00 -0.4871770128916E+00  0.0000000000000E+00 -0.1381262588687E-01
 0.4595840562256E+00 -0.5053118585997E+00  0.0000000000000E+00 -0.4650679534763E-02
 0.4766877817509E+00 -0.5230148536735E+00  0.0000000000000E+00  0.7419176776303E-02
 0.4932117258798E+00 -0.5405465866233E+00  0.0000000000000E+00  0.2203525203024E-01
 0.5092491514444E+00 -0.5580396438607E+00  0.0000000000000E+00  0.3880313219769E-01
 0.5247373447515E+00 -0.5754839078135E+00  0.0000000000000E+00  0.5729545486508E-01
 0.5394414789448E+00 -0.5927130769026E+00  0.0000000000000E+00  0.7706429482917E-01
 0.5529359234865E+00 -0.6093892294803E+00  0.0000000000000E+00  0.9761187670371E-01
 0.5646290244621E+00 -0.6250275252856E+00  0.0000000000000E+00  0.1183546319139E+00
 0.6245458776764E-01 -0.1276046996540E+00  0.0000000000000E+00  0.1968964613765E+00
 0.1212598576038E+00 -0.1827839533472E+00  0.0000000000000E+00  0.1401471403025E+00
 0.1726490851115E+00 -0.2309524101148E+00  0.0000000000000E+00  0.9650065387649E-01
 0.2176516668587E+00 -0.2731127526343E+00  0.0000000000000E+00  0.6284188702558E-01
 0.2571312867545E+00 -0.3101087562151E+00  0.0000000000000E+00  0.3707409708533E-01
 0.2918478819574E+00 -0.3426853693790E+00  0.0000000000000E+00  0.1781612371388E-01
 0.3224865956291E+00 -0.3715165831497E+00  0.0000000000000E+00  0.4136221154787E-02
 0.3496626416957E+00 -0.3972100573961E+00  0.0000000000000E+00 -0.4617943793475E-02
 0.3739227814519E+00 -0.4203088104743E+00  0.0000000000000E+00 -0.8915734952012E-02
 0.3957557808713E+00 -0.4413019554611E+00  0.0000000000000E+00 -0.9094024936361E-02
 0.4156038399642E+00 -0.4606364330587E+00  0.0000000000000E+00 -0.5406374509232E-02
 0.4338615681823E+00 -0.4787165479979E+00  0.0000000000000E+00  0.1940448569496E-02
 0.4509113475357E+00 -0.4959378940965E+00  0.0000000000000E+00  0.1282739104492E-01
 0.4671057522286E+00 -0.5126702881708E+00  0.0000000000000E+00  0.2703310646689E-01
 0.4826855701495E+00 -0.5291799209140E+00  0.0000000000000E+00  0.4417065180385E-01
 0.4977485213265E+00 -0.5456007577303E+00  0.0000000000000E+00  0.6382163038793E-01
 0.5122343344543E+00 -0.5619215833407E+00  0.0000000000000E+00  0.8553261783136E-01
 0.5259140514780E+00 -0.5779776504276E+00  0.0000000000000E+00  0.1088404090279E+00
 0.5383817163763E+00 -0.5934459135070E+00  0.0000000000000E+00  0.1332496929513E+00
 0.5491270887494E+00 -0.6079176281585E+00  0.0000000000000E+00  0.1582238645221E+00
 0.6563854360440E-01 -0.1298293092925E+00  0.0000000000000E+00  0.2229961802592E+00
 0.1222450544982E+00 -0.1829246419028E+00  0.0000000000000E+00  0.1624004719983E+00
 0.1720264190790E+00 -0.2295699656619E+00  0.0000000000000E+00  0.1156697432892E+00
 0.2157998299265E+00 -0.2705617343061E+00  0.0000000000000E+00  0.7956898142688E-01
 0.2542788756455E+00 -0.3065984855277E+00  0.0000000000000E+00  0.5192876761296E-01
 0.2881245308940E+00 -0.3383299506636E+00  0.0000000000000E+00  0.3132782478100E-01
 0.3179600427309E+00 -0.3663708637252E+00  0.0000000000000E+00  0.1680094013464E-01
 0.3443608083751E+00 -0.3912907204815E+00  0.0000000000000E+00  0.7659481788953E-02
 0.3678448027738E+00 -0.4136047107665E+00  0.0000000000000E+00  0.3396349767278E-02
 0.3888783665302E+00 -0.4337799467377E+00  0.0000000000000E+00  0.3643102888321E-02
 0.4078854864558E+00 -0.4522450848960E+00  0.0000000000000E+00  0.8122277577153E-02
 0.4252412277195E+00 -0.4693844476291E+00  0.0000000000000E+00  0.1661193356163E-01
 0.4413238959763E+00 -0.4855879232593E+00  0.0000000000000E+00  0.2902230365351E-01
 0.4564987151437E+00 -0.5012348538345E+00  0.0000000000000E+00  0.4514460500529E-01
 0.4710147858550E+00 -0.5165963691552E+00  0.0000000000000E+00  0.6456228367332E-01
 0.4849735566662E+00 -0.5318067992576E+00  0.0000000000000E+00  0.8683078327731E-01
 0.4983141512984E+00 -0.5468508453743E+00  0.0000000000000E+00  0.1114644837220E+00
 0.5108049355590E+00 -0.5615563306757E+00  0.0000000000000E+00  0.1379824502390E+00
 0.5220429940228E+00 -0.5755973828695E+00  0.0000000000000E+00  0.1659103156759E+00
 0.5315962458130E+00 -0.5886357581790E+00  0.0000000000000E+00  0.1948327831027E+00
 0.6905265809616E-01 -0.1322133492268E+00  0.0000000000000E+00  0.2482990756434E+00
 0.1233308647954E+00 -0.1831021084180E+00  0.0000000000000E+00  0.1841493894946E+00
 0.1713972318601E+00 -0.2281224621404E+00  0.0000000000000E+00  0.1344796554294E+00
 0.2138471625326E+00 -0.2678550450628E+00  0.0000000000000E+00  0.9597953031088E-01
 0.2512370183453E+00 -0.3028462383706E+00  0.0000000000000E+00  0.6644429959477E-01
 0.2841261259609E+00 -0.3336483425180E+00  0.0000000000000E+00  0.4444113769167E-01
 0.3130758926317E+00 -0.3608171293566E+00  0.0000000000000E+00  0.2898688743746E-01
 0.3386222621616E+00 -0.3848843741162E+00  0.0000000000000E+00  0.1936186688393E-01
 0.3612539071384E+00 -0.4063369052859E+00  0.0000000000000E+00  0.1502031921755E-01
 0.3814136279123E+00 -0.4256187898007E+00  0.0000000000000E+00  0.1555886953729E-01
 0.3995053962102E+00 -0.4431386611523E+00  0.0000000000000E+00  0.2067044431411E-01
 0.4158789079004E+00 -0.4592551925664E+00  0.0000000000000E+00  0.3010964390504E-01
 0.4309053726742E+00 -0.4743494183856E+00  0.0000000000000E+00  0.4382363362223E-01
 0.4449637569235E+00 -0.4888108011594E+00  0.0000000000000E+00  0.6162104175578E-01
 0.4583106184471E+00 -0.5029135242670E+00  0.0000000000000E+00  0.8305173463345E-01
 0.4710515679601E+00 -0.5167926024905E+00  0.0000000000000E+00  0.1076464638498E+00
 0.4831250320486E+00 -0.5304288490910E+00  0.0000000000000E+00  0.1348788538086E+00
 0.4942880930712E+00 -0.5436350299530E+00  0.0000000000000E+00  0.1642322448759E+00
 0.5041128006544E+00 -0.5560530520940E+00  0.0000000000000E+00  0.1952509033752E+00
 0.5122303701554E+00 -0.5673959681776E+00  0.0000000000000E+00  0.2277227980397E+00
 0.7268500537438E-01 -0.1347498033847E+00  0.0000000000000E+00  0.2727529190150E+00
 0.1245278588662E+00 -0.1833309370355E+00  0.0000000000000E+00  0.2053557317662E+00
 0.1707883601758E+00 -0.2266403634483E+00  0.0000000000000E+00  0.1528954357561E+00
 0.2118298134245E+00 -0.2650316979862E+00  0.0000000000000E+00  0.1120333797175E+00
 0.2480455809303E+00 -0.2988940506671E+00  0.0000000000000E+00  0.8057407768370E-01
 0.2798937500976E+00 -0.3286832626397E+00  0.0000000000000E+00  0.5710545748732E-01
 0.3078764390143E+00 -0.3548992074430E+00  0.0000000000000E+00  0.4064111922175E-01
 0.3324915681408E+00 -0.3780371216088E+00  0.0000000000000E+00  0.3043392780688E-01
 0.3541984524463E+00 -0.3985553861985E+00  0.0000000000000E+00  0.2589835723299E-01
 0.3734160343842E+00 -0.4168747452991E+00  0.0000000000000E+00  0.2659290564505E-01
 0.3905274711749E+00 -0.4333832169359E+00  0.0000000000000E+00  0.3217390376378E-01
 0.4058502698553E+00 -0.4484072501467E+00  0.0000000000000E+00  0.4236003331032E-01
 0.4197450283246E+00 -0.4623155019991E+00  0.0000000000000E+00  0.5714432620722E-01
 0.4326062139230E+00 -0.4755087110526E+00  0.0000000000000E+00  0.7635732855334E-01
 0.4446939675635E+00 -0.4882598274011E+00  0.0000000000000E+00  0.9950628414410E-01
 0.4561177543200E+00 -0.5007011180731E+00  0.0000000000000E+00  0.1261121968394E+00
 0.4668226064174E+00 -0.5128198564026E+00  0.0000000000000E+00  0.1556073077935E+00
 0.4765536599613E+00 -0.5244144799582E+00  0.0000000000000E+00  0.1873997926517E+00
 0.4848190214497E+00 -0.5350579484629E+00  0.0000000000000E+00  0.2210010552386E+00
 0.4912732684745E+00 -0.5444665300454E+00  0.0000000000000E+00  0.2564800348144E+00
 0.7652202727182E-01 -0.1374290032726E+00  0.0000000000000E+00  0.2963160520710E+00
 0.1258470563050E+00 -0.1836266165997E+00  0.0000000000000E+00  0.2259938279687E+00
 0.1702308020276E+00 -0.2251587731114E+00  0.0000000000000E+00  0.1708884318383E+00
 0.2097885738052E+00 -0.2621361337334E+00  0.0000000000000E+00  0.1276882656587E+00
 0.2447471772736E+00 -0.2947865358872E+00  0.0000000000000E+00  0.9426684664935E-01
 0.2754700518118E+00 -0.3234790188220E+00  0.0000000000000E+00  0.6926887685316E-01
 0.3024056459281E+00 -0.3486626315884E+00  0.0000000000000E+00  0.5171211403519E-01
 0.3260150498275E+00 -0.3707970351803E+00  0.0000000000000E+00  0.4082330809553E-01
 0.3467281623558E+00 -0.3903115687790E+00  0.0000000000000E+00  0.3597751516614E-01
 0.3649409563144E+00 -0.4076050216758E+00  0.0000000000000E+00  0.3669351657711E-01
 0.3810167995895E+00 -0.4230458757878E+00  0.0000000000000E+00  0.4258274829572E-01
 0.3952330544520E+00 -0.4369210931764E+00  0.0000000000000E+00  0.5330944425675E-01
 0.4079356130686E+00 -0.4495827123034E+00  0.0000000000000E+00  0.6892292019078E-01
 0.4195374902248E+00 -0.4614452692351E+00  0.0000000000000E+00  0.8928086125959E-01
 0.4302976981315E+00 -0.4727751576861E+00  0.0000000000000E+00  0.1138288618914E+00
 0.4403166118024E+00 -0.4836896413840E+00  0.0000000000000E+00  0.1420843896253E+00
 0.4495587338204E+00 -0.4941807679262E+00  0.0000000000000E+00  0.1735080433360E+00
 0.4577927367709E+00 -0.5040936464587E+00  0.0000000000000E+00  0.2073839540463E+00
 0.4644211895515E+00 -0.5128871247444E+00  0.0000000000000E+00  0.2430127029908E+00
 0.4690373869303E+00 -0.5201887082812E+00  0.0000000000000E+00  0.2807645563957E+00
 0.8054522437747E-01 -0.1402349268738E+00  0.0000000000000E+00  0.3189592593082E+00
 0.1272994538197E+00 -0.1840023198451E+00  0.0000000000000E+00  0.2460695950702E+00
 0.1697653565720E+00 -0.2237272471550E+00  0.0000000000000E+00  0.1884411978510E+00
 0.2077706071046E+00 -0.2592182007598E+00  0.0000000000000E+00  0.1428886218528E+00
 0.2413851577338E+00 -0.2905688232770E+00  0.0000000000000E+00  0.1074650707104E+00
 0.2708982270926E+00 -0.3180804376906E+00  0.0000000000000E+00  0.8087887051209E-01
 0.2967084385550E+00 -0.3421540447672E+00  0.0000000000000E+00  0.6215010766432E-01
 0.3192406439135E+00 -0.3632136478299E+00  0.0000000000000E+00  0.5048160516106E-01
 0.3388938789095E+00 -0.3816587617343E+00  0.0000000000000E+00  0.4520764391342E-01
 0.3560429416079E+00 -0.3978655065196E+00  0.0000000000000E+00  0.4581518424592E-01
 0.3710376263152E+00 -0.4121927809854E+00  0.0000000000000E+00  0.5186230546446E-01
 0.3841051730146E+00 -0.4248773398405E+00  0.0000000000000E+00  0.6292465172401E-01
 0.3955707344569E+00 -0.4362481879777E+00  0.0000000000000E+00  0.7912469931094E-01
 0.4058721834649E+00 -0.4467401081342E+00  0.0000000000000E+00  0.1003548267735E+00
 0.4152623249560E+00 -0.4566070783399E+00  0.0000000000000E+00  0.1259701431772E+00
 0.4238204639584E+00 -0.4659388502565E+00  0.0000000000000E+00  0.1554672464046E+00
 0.4314830809197E+00 -0.4746934389417E+00  0.0000000000000E+00  0.1883617478168E+00
 0.4381409603802E+00 -0.4827804868632E+00  0.0000000000000E+00  0.2241448543607E+00
 0.4431942249140E+00 -0.4898276841866E+00  0.0000000000000E+00  0.2614323858339E+00
 0.4459450087018E+00 -0.4950360392884E+00  0.0000000000000E+00  0.3003867561555E+00
 0.8472274213161E-01 -0.1430961463386E+00  0.0000000000000E+00  0.3407787581643E+00
 0.1289160344192E+00 -0.1845184358468E+00  0.0000000000000E+00  0.2657138993743E+00
 0.1694609395829E+00 -0.2224193212307E+00  0.0000000000000E+00  0.2055034491436E+00
 0.2058240526776E+00 -0.2563278910770E+00  0.0000000000000E+00  0.1575550219948E+00
 0.2380005811261E+00 -0.2862830356660E+00  0.0000000000000E+00  0.1201065979905E+00
 0.2662211115840E+00 -0.3125321084305E+00  0.0000000000000E+00  0.9188547083045E-01
 0.2908307325345E+00 -0.3354214610730E+00  0.0000000000000E+00  0.7190681127566E-01
 0.3122163297002E+00 -0.3553366077572E+00  0.0000000000000E+00  0.5936314853439E-01
 0.3307492266465E+00 -0.3726515787409E+00  0.0000000000000E+00  0.5354823521816E-01
 0.3467759102672E+00 -0.3877162559603E+00  0.0000000000000E+00  0.5390479491009E-01
 0.3606459299872E+00 -0.4008763412354E+00  0.0000000000000E+00  0.5998857104508E-01
 0.3725444237158E+00 -0.4123566162617E+00  0.0000000000000E+00  0.7121237410775E-01
 0.3827458357930E+00 -0.4224156724648E+00  0.0000000000000E+00  0.8772815908339E-01
 0.3917189437045E+00 -0.4315012767252E+00  0.0000000000000E+00  0.1095741982294E+00
 0.3997319619589E+00 -0.4399068979434E+00  0.0000000000000E+00  0.1359468347987E+00
 0.4068146928769E+00 -0.4476462451811E+00  0.0000000000000E+00  0.1662451507383E+00
 0.4128465413679E+00 -0.4546087975707E+00  0.0000000000000E+00  0.2000260340085E+00
 0.4176376463957E+00 -0.4606450825711E+00  0.0000000000000E+00  0.2370735829031E+00
 0.4211625390222E+00 -0.4656444654295E+00  0.0000000000000E+00  0.2768662475503E+00
 0.4230420814504E+00 -0.4701442768746E+00  0.0000000000000E+00  0.3156333366447E+00
 0.2642812131879E+00 -0.4145709667425E+00  0.0000000000000E+00 -0.2757742919617E+00
 0.1268581913064E+00 -0.1377102603263E+00  0.0000000000000E+00  0.2292789290285E+00
 0.2673556197339E-01 -0.2769112143804E-01  0.0000000000000E+00  0.8159986148234E-01
 0.1169295875159E-02  0.2664708182527E-02  0.0000000000000E+00 -0.5438430902765E-02
-0.1482406451678E-01  0.2008460422773E-01  0.0000000000000E+00 -0.4369892613799E-01
-0.2547677392457E-01  0.3129631679773E-01  0.0000000000000E+00 -0.5726727273910E-01
-0.3332175439115E-01  0.3939063863618E-01  0.0000000000000E+00 -0.5737051999887E-01
-0.3904383832403E-01  0.4522807333170E-01  0.0000000000000E+00 -0.4991208165409E-01
-0.4281274442152E-01  0.4896275922292E-01  0.0000000000000E+00 -0.3830223306059E-01
-0.4460940081312E-01  0.5060460628805E-01  0.0000000000000E+00 -0.2372529075590E-01
-0.4413677233013E-01  0.4996983263702E-01  0.0000000000000E+00 -0.7446127675541E-02
-0.4111397615925E-01  0.4642948344603E-01  0.0000000000000E+00  0.9485002906501E-02
-0.3517916312890E-01  0.3989303460914E-01  0.0000000000000E+00  0.3069690360725E-01
-0.2690790124075E-01  0.3141854445981E-01  0.0000000000000E+00  0.5336032672173E-01
-0.1693224502355E-01  0.2171921757159E-01  0.0000000000000E+00  0.7275832842325E-01
-0.6084136992728E-02  0.1138941083360E-01  0.0000000000000E+00  0.8781352460335E-01
 0.4636216289426E-02  0.1265229221135E-02  0.0000000000000E+00  0.9841760524878E-01
 0.1500995932160E-01 -0.8602074080414E-02  0.0000000000000E+00  0.1045578642581E+00
 0.2540724803902E-01 -0.1861584886416E-01  0.0000000000000E+00  0.1061823843983E+00
 0.3751141002991E-01 -0.3088497073040E-01  0.0000000000000E+00  0.1066783176799E+00
 0.3089417970510E+00 -0.3947666554991E+00  0.0000000000000E+00 -0.4737633597028E+00
 0.2284427712088E+00 -0.2724190258756E+00  0.0000000000000E+00  0.2450889484966E-01
 0.9460578854340E-01 -0.1031111453941E+00  0.0000000000000E+00  0.8544827368925E-01
 0.3708411423598E-01 -0.3815959445385E-01  0.0000000000000E+00  0.2726311029756E-01
 0.1009030889513E-01 -0.8074799370365E-02  0.0000000000000E+00 -0.1432395149555E-01
-0.6642171318029E-02  0.9846138325838E-02  0.0000000000000E+00 -0.3492774091072E-01
-0.1790876235183E-01  0.2172354928756E-01  0.0000000000000E+00 -0.4128374385645E-01
-0.2587608244263E-01  0.3001382880618E-01  0.0000000000000E+00 -0.3858691698125E-01
-0.3139565872894E-01  0.3567766219463E-01  0.0000000000000E+00 -0.3042165237547E-01
-0.3472235339745E-01  0.3903423501659E-01  0.0000000000000E+00 -0.1851615422764E-01
-0.3587451287905E-01  0.4006343577083E-01  0.0000000000000E+00 -0.3690181918170E-02
-0.3506157118313E-01  0.3902714921258E-01  0.0000000000000E+00  0.1270535270573E-01
-0.3177381482678E-01  0.3551760464275E-01  0.0000000000000E+00  0.3154780356921E-01
-0.2570956883626E-01  0.2935073218594E-01  0.0000000000000E+00  0.5051179107988E-01
-0.1741398528789E-01  0.2120858569194E-01  0.0000000000000E+00  0.6616217719216E-01
-0.7839653204418E-02  0.1200567811049E-01  0.0000000000000E+00  0.7786113338207E-01
 0.1918846311539E-02  0.2679115605630E-02  0.0000000000000E+00  0.8561960737192E-01
 0.1154009910276E-01 -0.6540619749432E-02  0.0000000000000E+00  0.8978225070332E-01
 0.2115459769312E-01 -0.1589272487435E-01  0.0000000000000E+00  0.9076396993539E-01
 0.3081276459287E-01 -0.2531100592438E-01  0.0000000000000E+00  0.9172984438952E-01
 0.2917303183557E+00 -0.3577093933339E+00  0.0000000000000E+00 -0.5503259445361E+00
 0.2634562513398E+00 -0.3065386297529E+00  0.0000000000000E+00 -0.1520727517599E+00
 0.1568680430529E+00 -0.1774692746342E+00  0.0000000000000E+00  0.1043570405345E-01
 0.8131903582270E-01 -0.8801860013518E-01  0.0000000000000E+00  0.2641617959805E-01
 0.4042761233283E-01 -0.4227715555898E-01  0.0000000000000E+00  0.1103824768559E-02
 0.1626286245804E-01 -0.1593926461695E-01  0.0000000000000E+00 -0.1908905129218E-01
 0.4294549392894E-03  0.9534353848235E-03  0.0000000000000E+00 -0.2878888225116E-01
-0.1052518085574E-01  0.1250527015197E-01  0.0000000000000E+00 -0.2981352523046E-01
-0.1825807548539E-01  0.2058266342197E-01  0.0000000000000E+00 -0.2483627176933E-01
-0.2350849898339E-01  0.2601410405875E-01  0.0000000000000E+00 -0.1550853064096E-01
-0.2659120527230E-01  0.2914097735492E-01  0.0000000000000E+00 -0.2808228137279E-02
-0.2784902479855E-01  0.3038367753798E-01  0.0000000000000E+00  0.1178307043302E-01
-0.2676086975486E-01  0.2929873428098E-01  0.0000000000000E+00  0.2821811248558E-01
-0.2271070411450E-01  0.2526609264646E-01  0.0000000000000E+00  0.4425348585738E-01
-0.1620347968925E-01  0.1887418252654E-01  0.0000000000000E+00  0.5683171212890E-01
-0.8168067119615E-02  0.1108980480966E-01  0.0000000000000E+00  0.6557986213372E-01
 0.3284599856763E-03  0.2904381119154E-02  0.0000000000000E+00  0.7082151207777E-01
 0.8804539428755E-02 -0.5274911194701E-02  0.0000000000000E+00  0.7320895090063E-01
 0.1696522607646E-01 -0.1315518216516E-01  0.0000000000000E+00  0.7331816970529E-01
 0.2425614971431E-01 -0.2020402465813E-01  0.0000000000000E+00  0.7276030965578E-01
 0.2694907780171E+00 -0.3252063834653E+00  0.0000000000000E+00 -0.5903956389769E+00
 0.2689742006046E+00 -0.3103453498395E+00  0.0000000000000E+00 -0.2772596504243E+00
 0.1950943762430E+00 -0.2206053662969E+00  0.0000000000000E+00 -0.8438555305683E-01
 0.1232795094752E+00 -0.1363514330021E+00  0.0000000000000E+00 -0.1160290506293E-01
 0.7379524260455E-01 -0.7989431913158E-01  0.0000000000000E+00 -0.4113485594608E-02
 0.4226338235298E-01 -0.4515404932401E-01  0.0000000000000E+00 -0.1403344246046E-01
 0.2141050043581E-01 -0.2264801749084E-01  0.0000000000000E+00 -0.2230889227228E-01
 0.6961688733131E-02 -0.7270365377795E-02  0.0000000000000E+00 -0.2493757311007E-01
-0.3380918427158E-02  0.3642181598353E-02  0.0000000000000E+00 -0.2227335225576E-01
-0.1083481853666E-01  0.1145572547744E-01  0.0000000000000E+00 -0.1532247568891E-01
-0.1597722261465E-01  0.1681144102622E-01  0.0000000000000E+00 -0.4966620665861E-02
-0.1927316681656E-01  0.2027528052609E-01  0.0000000000000E+00  0.7461397693854E-02
-0.2025852895557E-01  0.2142992041951E-01  0.0000000000000E+00  0.2142710931623E-01
-0.1816456553027E-01  0.1945441894118E-01  0.0000000000000E+00  0.3474631403428E-01
-0.1347666976944E-01  0.1487885749614E-01  0.0000000000000E+00  0.4461563779375E-01
-0.7133091464349E-02  0.8710713279700E-02  0.0000000000000E+00  0.5076481929699E-01
-0.1582596119691E-03  0.1951190467052E-02  0.0000000000000E+00  0.5373373699230E-01
 0.6820926818648E-02 -0.4794625001750E-02  0.0000000000000E+00  0.5434726152228E-01
 0.1328334793243E-01 -0.1101545341358E-01  0.0000000000000E+00  0.5304760866208E-01
 0.1848836518351E-01 -0.1601214697628E-01  0.0000000000000E+00  0.5046047440293E-01
 0.2483395411271E+00 -0.2981841127052E+00  0.0000000000000E+00 -0.6129681488561E+00
 0.2624366442020E+00 -0.3023101299537E+00  0.0000000000000E+00 -0.3665286463275E+00
 0.2150906452449E+00 -0.2432245902278E+00  0.0000000000000E+00 -0.1728487435580E+00
 0.1552307574101E+00 -0.1728715104195E+00  0.0000000000000E+00 -0.6785053959449E-01
 0.1054002394104E+00 -0.1158681287946E+00  0.0000000000000E+00 -0.2969378422739E-01
 0.6939984087974E-01 -0.7571525171515E-01  0.0000000000000E+00 -0.2239253573998E-01
 0.4416539037544E-01 -0.4821728530289E-01  0.0000000000000E+00 -0.2408062585226E-01
 0.2622929481057E-01 -0.2896445295733E-01  0.0000000000000E+00 -0.2539585031573E-01
 0.1312107650035E-01 -0.1502945358871E-01  0.0000000000000E+00 -0.2361438205736E-01
 0.3327995722946E-02 -0.4681850942092E-02  0.0000000000000E+00 -0.1843726821218E-01
-0.3939240032419E-02  0.2969409590328E-02  0.0000000000000E+00 -0.1026596073202E-01
-0.9261164084977E-02  0.8621805200001E-02  0.0000000000000E+00 -0.3571257804191E-04
-0.1227616990496E-01  0.1194298811024E-01  0.0000000000000E+00  0.1148546164058E-01
-0.1214289032107E-01  0.1201466225092E-01  0.0000000000000E+00  0.2217625567776E-01
-0.9315830433755E-02  0.9314138462494E-02  0.0000000000000E+00  0.2951097066767E-01
-0.4766713752208E-02  0.4895846689783E-02  0.0000000000000E+00  0.3327174520667E-01
 0.5033096077049E-03 -0.2241760434423E-03  0.0000000000000E+00  0.3409738154497E-01
 0.5789327468420E-02 -0.5335653717646E-02  0.0000000000000E+00  0.3285428248788E-01
 0.1048409659883E-01 -0.9840491771274E-02  0.0000000000000E+00  0.2987163315180E-01
 0.1381637403750E-01 -0.1301816830508E-01  0.0000000000000E+00  0.2512240655310E-01
 0.2297644124642E+00 -0.2760248140533E+00  0.0000000000000E+00 -0.6263647248078E+00
 0.2509020333833E+00 -0.2897845461684E+00  0.0000000000000E+00 -0.4304084151520E+00
 0.2233372077016E+00 -0.2530898297268E+00  0.0000000000000E+00 -0.2486873189012E+00
 0.1770663219444E+00 -0.1980778444678E+00  0.0000000000000E+00 -0.1287066506074E+00
 0.1318995630770E+00 -0.1461773022739E+00  0.0000000000000E+00 -0.6815768616535E-01
 0.9521897721136E-01 -0.1049897651596E+00  0.0000000000000E+00 -0.4330648717064E-01
 0.6737200388082E-01 -0.7436212224031E-01  0.0000000000000E+00 -0.3506477984656E-01
 0.4660144281910E-01 -0.5188884541593E-01  0.0000000000000E+00 -0.3226962562930E-01
 0.3093335716249E-01 -0.3511732791771E-01  0.0000000000000E+00 -0.2963315011644E-01
 0.1885910259671E-01 -0.2228192738025E-01  0.0000000000000E+00 -0.2529305809696E-01
 0.9497942237548E-02 -0.1236663554256E-01  0.0000000000000E+00 -0.1885384190449E-01
 0.2190153419487E-02 -0.4578540244727E-02  0.0000000000000E+00 -0.1063691410754E-01
-0.2818373561851E-02  0.8543164837091E-03  0.0000000000000E+00 -0.1458723500240E-02
-0.4656046889718E-02  0.2974201041851E-02  0.0000000000000E+00  0.6670452010684E-02
-0.3727221087641E-02  0.2196160806045E-02  0.0000000000000E+00  0.1156054996725E-01
-0.1038311121258E-02 -0.3839294235615E-03  0.0000000000000E+00  0.1304272887085E-01
 0.2428279189743E-02 -0.3746407049025E-02  0.0000000000000E+00  0.1178643073331E-01
 0.5933507869698E-02 -0.7128482593625E-02  0.0000000000000E+00  0.8645039566871E-02
 0.8858638897790E-02 -0.9918987486401E-02  0.0000000000000E+00  0.3866362839081E-02
 0.1048959431022E-01 -0.1145283430358E-01  0.0000000000000E+00 -0.2971819882804E-02
 0.2137863995777E+00 -0.2578349972446E+00  0.0000000000000E+00 -0.6345548817616E+00
 0.2376871060939E+00 -0.2760092630387E+00  0.0000000000000E+00 -0.4762235667561E+00
 0.2243215358915E+00 -0.2552824588652E+00  0.0000000000000E+00 -0.3111858970610E+00
 0.1906864876353E+00 -0.2143001144901E+00  0.0000000000000E+00 -0.1872154614423E+00
 0.1525001521389E+00 -0.1700247988526E+00  0.0000000000000E+00 -0.1125458775219E+00
 0.1180238505610E+00 -0.1310466217785E+00  0.0000000000000E+00 -0.7320476875659E-01
 0.8965817310202E-01 -0.9960913554332E-01  0.0000000000000E+00 -0.5446926806910E-01
 0.6721620032445E-01 -0.7513877101463E-01  0.0000000000000E+00 -0.4580176839862E-01
 0.4956424781846E-01 -0.5611730828583E-01  0.0000000000000E+00 -0.4075746815812E-01
 0.3549993095235E-01 -0.4108371799762E-01  0.0000000000000E+00 -0.3619943922397E-01
 0.2420863331424E-01 -0.2907080350219E-01  0.0000000000000E+00 -0.3085849447527E-01
 0.1502452434697E-01 -0.1926622302996E-01  0.0000000000000E+00 -0.2431929507956E-01
 0.8095045859531E-02 -0.1180696133899E-01  0.0000000000000E+00 -0.1730722992147E-01
 0.4305057214482E-02 -0.7664044797717E-02  0.0000000000000E+00 -0.1165552309168E-01
 0.3325445895715E-02 -0.6502447540687E-02  0.0000000000000E+00 -0.9147405820537E-02
 0.4131340978492E-02 -0.7206118031472E-02  0.0000000000000E+00 -0.9877129604386E-02
 0.5761921908390E-02 -0.8763374258375E-02  0.0000000000000E+00 -0.1316837706923E-01
 0.7467693383729E-02 -0.1038893572625E-01  0.0000000000000E+00 -0.1820250125704E-01
 0.8656912023914E-02 -0.1149492608062E-01  0.0000000000000E+00 -0.2477392796087E-01
 0.8721295158891E-02 -0.1151698415252E-01  0.0000000000000E+00 -0.3350616769593E-01
 0.2000839238263E+00 -0.2428099875877E+00  0.0000000000000E+00 -0.6396167136032E+00
 0.2243901943550E+00 -0.2624970756999E+00  0.0000000000000E+00 -0.5089949661797E+00
 0.2209949227208E+00 -0.2529996276411E+00  0.0000000000000E+00 -0.3615126554746E+00
 0.1981867302614E+00 -0.2239363456902E+00  0.0000000000000E+00 -0.2401285890901E+00
 0.1676502849398E+00 -0.1879618782781E+00  0.0000000000000E+00 -0.1580298826036E+00
 0.1371546300528E+00 -0.1531617248336E+00  0.0000000000000E+00 -0.1082415862836E+00
 0.1100501634292E+00 -0.1228819409675E+00  0.0000000000000E+00 -0.8027480157778E-01
 0.8725110926698E-01 -0.9783486167861E-01  0.0000000000000E+00 -0.6530615063088E-01
 0.6844693783698E-01 -0.7743551094836E-01  0.0000000000000E+00 -0.5688768788893E-01
 0.5289609687912E-01 -0.6072182323889E-01  0.0000000000000E+00 -0.5121002707362E-01
 0.3998628171825E-01 -0.4693094894858E-01  0.0000000000000E+00 -0.4630200682480E-01
 0.2913090749142E-01 -0.3532444116013E-01  0.0000000000000E+00 -0.4102939691484E-01
 0.2041872733776E-01 -0.2598690588075E-01  0.0000000000000E+00 -0.3594744920471E-01
 0.1474855148309E-01 -0.1989806858775E-01  0.0000000000000E+00 -0.3265336754861E-01
 0.1189555822787E-01 -0.1682713811341E-01  0.0000000000000E+00 -0.3245566332692E-01
 0.1084236458837E-01 -0.1566686365422E-01  0.0000000000000E+00 -0.3533290023097E-01
 0.1065665159450E-01 -0.1542606504398E-01  0.0000000000000E+00 -0.4060016875763E-01
 0.1059031934627E-01 -0.1531258637932E-01  0.0000000000000E+00 -0.4747510697542E-01
 0.1009549262335E-01 -0.1477796946592E-01  0.0000000000000E+00 -0.5575411647937E-01
 0.8693035397293E-02 -0.1338059494899E-01  0.0000000000000E+00 -0.6610498587530E-01
 0.1882698649739E+00 -0.2302852066815E+00  0.0000000000000E+00 -0.6426707233413E+00
 0.2117768807471E+00 -0.2499416810669E+00  0.0000000000000E+00 -0.5322219660869E+00
 0.2152672040046E+00 -0.2482636001165E+00  0.0000000000000E+00 -0.4013243332082E+00
 0.2013598907926E+00 -0.2289624158343E+00  0.0000000000000E+00 -0.2862000215501E+00
 0.1782589344287E+00 -0.2010154072669E+00  0.0000000000000E+00 -0.2016003035782E+00
 0.1526393088844E+00 -0.1713706693365E+00  0.0000000000000E+00 -0.1452435805747E+00
 0.1280743108320E+00 -0.1436562131198E+00  0.0000000000000E+00 -0.1101479661803E+00
 0.1061056346312E+00 -0.1193227810843E+00  0.0000000000000E+00 -0.8946045893383E-01
 0.8706085885919E-01 -0.9851727550156E-01  0.0000000000000E+00 -0.7740460748215E-01
 0.7066490832941E-01 -0.8079453217994E-01  0.0000000000000E+00 -0.7005090718349E-01
 0.5657581170616E-01 -0.6568089414606E-01  0.0000000000000E+00 -0.6502635184763E-01
 0.4435471680184E-01 -0.5258999144265E-01  0.0000000000000E+00 -0.6061947197538E-01
 0.3407809945331E-01 -0.4160167891636E-01  0.0000000000000E+00 -0.5720352255726E-01
 0.2666821674196E-01 -0.3371193066451E-01  0.0000000000000E+00 -0.5610831273333E-01
 0.2203343680114E-01 -0.2881995965776E-01  0.0000000000000E+00 -0.5812023617835E-01
 0.1919411966469E-01 -0.2585958517129E-01  0.0000000000000E+00 -0.6305953890359E-01
 0.1725566147235E-01 -0.2387289891413E-01  0.0000000000000E+00 -0.7021806757237E-01
 0.1547692643328E-01 -0.2206917221087E-01  0.0000000000000E+00 -0.7884074941292E-01
 0.1335723096500E-01 -0.1994251835779E-01  0.0000000000000E+00 -0.8868516648400E-01
 0.1055016344563E-01 -0.1717729777829E-01  0.0000000000000E+00 -0.1003307963247E+00
 0.1779829922787E+00 -0.2197282461416E+00  0.0000000000000E+00 -0.6443257069161E+00
 0.2001834143053E+00 -0.2386258170386E+00  0.0000000000000E+00 -0.5483727216092E+00
 0.2083689611773E+00 -0.2423572144859E+00  0.0000000000000E+00 -0.4322764986593E+00
 0.2016133113622E+00 -0.2308968361149E+00  0.0000000000000E+00 -0.3252174607605E+00
 0.1853151779899E+00 -0.2102702029824E+00  0.0000000000000E+00 -0.2415339858555E+00
 0.1648699687975E+00 -0.1861024148371E+00  0.0000000000000E+00 -0.1818797244583E+00
 0.1436473228193E+00 -0.1618339928063E+00  0.0000000000000E+00 -0.1419500946929E+00
 0.1234482974214E+00 -0.1392363225502E+00  0.0000000000000E+00 -0.1167073589489E+00
 0.1050157760575E+00 -0.1189398572478E+00  0.0000000000000E+00 -0.1013293278719E+00
 0.8846081469953E-01 -0.1009333379347E+00  0.0000000000000E+00 -0.9214251697596E-01
 0.7371322859427E-01 -0.8504108906003E-01  0.0000000000000E+00 -0.8666278905460E-01
 0.6051612453706E-01 -0.7087136399928E-01  0.0000000000000E+00 -0.8280576689149E-01
 0.4897201629984E-01 -0.5853938844137E-01  0.0000000000000E+00 -0.8080191408623E-01
 0.4003549333650E-01 -0.4906664943408E-01  0.0000000000000E+00 -0.8171656955180E-01
 0.3377143187201E-01 -0.4250399750627E-01  0.0000000000000E+00 -0.8580050460787E-01
 0.2926805629553E-01 -0.3785781927822E-01  0.0000000000000E+00 -0.9268350882804E-01
 0.2567866671746E-01 -0.3421617952410E-01  0.0000000000000E+00 -0.1016168348838E+00
 0.2227146771748E-01 -0.3079437562878E-01  0.0000000000000E+00 -0.1118600241598E+00
 0.1858643054689E-01 -0.2712283300909E-01  0.0000000000000E+00 -0.1230935930767E+00
 0.1439634998479E-01 -0.2299841200172E-01  0.0000000000000E+00 -0.1356936390755E+00
 0.1689121072798E+00 -0.2107166735238E+00  0.0000000000000E+00 -0.6449040303437E+00
 0.1897188093190E+00 -0.2286190754710E+00  0.0000000000000E+00 -0.5592045086286E+00
 0.2010862713790E+00 -0.2360915384370E+00  0.0000000000000E+00 -0.4558523539338E+00
 0.2000088561187E+00 -0.2308693392047E+00  0.0000000000000E+00 -0.3574834974724E+00
 0.1897276872966E+00 -0.2167062017954E+00  0.0000000000000E+00 -0.2769498134826E+00
 0.1743881503979E+00 -0.1979405945942E+00  0.0000000000000E+00 -0.2165585273057E+00
 0.1569350102769E+00 -0.1775871244503E+00  0.0000000000000E+00 -0.1739307603814E+00
 0.1391774582914E+00 -0.1574565702905E+00  0.0000000000000E+00 -0.1455294361299E+00
 0.1220763584614E+00 -0.1384432796691E+00  0.0000000000000E+00 -0.1275213503259E+00
 0.1060171848796E+00 -0.1208490921464E+00  0.0000000000000E+00 -0.1166882860548E+00
 0.9115995294659E-01 -0.1047551250531E+00  0.0000000000000E+00 -0.1106511220475E+00
 0.7743058378938E-01 -0.8996978172869E-01  0.0000000000000E+00 -0.1071569257352E+00
 0.6497979736631E-01 -0.7666681336918E-01  0.0000000000000E+00 -0.1063548723269E+00
 0.5479597583928E-01 -0.6589610725298E-01  0.0000000000000E+00 -0.1090751004754E+00
 0.4711305890766E-01 -0.5787209357783E-01  0.0000000000000E+00 -0.1150576757387E+00
 0.4111348553274E-01 -0.5170105960165E-01  0.0000000000000E+00 -0.1237288458562E+00
 0.3600855479490E-01 -0.4652911359713E-01  0.0000000000000E+00 -0.1342874474201E+00
 0.3107656747634E-01 -0.4158040541727E-01  0.0000000000000E+00 -0.1459981244467E+00
 0.2588326369105E-01 -0.3640744116293E-01  0.0000000000000E+00 -0.1584341222792E+00
 0.2029023409938E-01 -0.3088958161157E-01  0.0000000000000E+00 -0.1716677102373E+00
 0.1607984134431E+00 -0.2029161214725E+00  0.0000000000000E+00 -0.6445630456864E+00
 0.1803709829863E+00 -0.2198799601646E+00  0.0000000000000E+00 -0.5659749246716E+00
 0.1939114508819E+00 -0.2299708096770E+00  0.0000000000000E+00 -0.4733178161802E+00
 0.1973283930039E+00 -0.2297040602806E+00  0.0000000000000E+00 -0.3835359989882E+00
 0.1922691906553E+00 -0.2211471822064E+00  0.0000000000000E+00 -0.3074976119145E+00
 0.1817620330217E+00 -0.2074915443278E+00  0.0000000000000E+00 -0.2482614828016E+00
 0.1682365441828E+00 -0.1912298565007E+00  0.0000000000000E+00 -0.2047534324498E+00
 0.1533554260756E+00 -0.1740409165763E+00  0.0000000000000E+00 -0.1745912005746E+00
 0.1381463079208E+00 -0.1569152313000E+00  0.0000000000000E+00 -0.1548325928644E+00
 0.1231592779863E+00 -0.1403480041890E+00  0.0000000000000E+00 -0.1427813164179E+00
 0.1087236525317E+00 -0.1246128217576E+00  0.0000000000000E+00 -0.1362921692162E+00
 0.9492561479331E-01 -0.1096970782065E+00  0.0000000000000E+00 -0.1331110582632E+00
 0.8196956031328E-01 -0.9583796260456E-01  0.0000000000000E+00 -0.1333636407974E+00
 0.7086889395951E-01 -0.8410637836754E-01  0.0000000000000E+00 -0.1376851671622E+00
 0.6202526464711E-01 -0.7487898774828E-01  0.0000000000000E+00 -0.1453634358108E+00
 0.5473553538244E-01 -0.6738281829003E-01  0.0000000000000E+00 -0.1556303891992E+00
 0.4827868726708E-01 -0.6083339462062E-01  0.0000000000000E+00 -0.1676321326326E+00
 0.4194359641043E-01 -0.5446629079994E-01  0.0000000000000E+00 -0.1806391681684E+00
 0.3529920859402E-01 -0.4783463413856E-01  0.0000000000000E+00 -0.1941039680388E+00
 0.2824583383418E-01 -0.4085129106072E-01  0.0000000000000E+00 -0.2077100167783E+00
 0.1534306397216E+00 -0.1960619108940E+00  0.0000000000000E+00 -0.6433631365615E+00
 0.1720648478155E+00 -0.2123107713805E+00  0.0000000000000E+00 -0.5695844643880E+00
 0.1871404009784E+00 -0.2242962613670E+00  0.0000000000000E+00 -0.4857247859272E+00
 0.1941352824519E+00 -0.2279911977170E+00  0.0000000000000E+00 -0.4039976162793E+00
 0.1935675851219E+00 -0.2242571181176E+00  0.0000000000000E+00 -0.3331517144980E+00
 0.1875225751274E+00 -0.2153176252047E+00  0.0000000000000E+00 -0.2763881658860E+00
 0.1779042109792E+00 -0.2031319702290E+00  0.0000000000000E+00 -0.2334498123012E+00
 0.1661451922736E+00 -0.1891546196468E+00  0.0000000000000E+00 -0.2027901536937E+00
 0.1532352020843E+00 -0.1743563574082E+00  0.0000000000000E+00 -0.1822026215475E+00
 0.1397966149211E+00 -0.1593249255032E+00  0.0000000000000E+00 -0.1694949171213E+00
 0.1262645427033E+00 -0.1444581238284E+00  0.0000000000000E+00 -0.1628106856753E+00
 0.1128506053812E+00 -0.1298866948085E+00  0.0000000000000E+00 -0.1600116024826E+00
 0.9980519673728E-01 -0.1159016490086E+00  0.0000000000000E+00 -0.1612388345087E+00
 0.8814827701036E-01 -0.1035771401483E+00  0.0000000000000E+00 -0.1669696887709E+00
 0.7843340870559E-01 -0.9343646269469E-01  0.0000000000000E+00 -0.1761202754775E+00
 0.7008526079609E-01 -0.8484099655877E-01  0.0000000000000E+00 -0.1877570147128E+00
 0.6246090499850E-01 -0.7708750850416E-01  0.0000000000000E+00 -0.2009868129070E+00
 0.5486257872611E-01 -0.6942799105330E-01  0.0000000000000E+00 -0.2151037893997E+00
 0.4683372447593E-01 -0.6138913277759E-01  0.0000000000000E+00 -0.2294556760717E+00
 0.3823713203755E-01 -0.5284342097694E-01  0.0000000000000E+00 -0.2432758295495E+00
 0.1466383495843E+00 -0.1899444361830E+00  0.0000000000000E+00 -0.6413072197428E+00
 0.1646949886561E+00 -0.2057880221082E+00  0.0000000000000E+00 -0.5706747963444E+00
 0.1809364836237E+00 -0.2192329566244E+00  0.0000000000000E+00 -0.4939316423926E+00
 0.1908247607528E+00 -0.2261432416186E+00  0.0000000000000E+00 -0.4194950585579E+00
 0.1941159687120E+00 -0.2265544501600E+00  0.0000000000000E+00 -0.3540769114498E+00
 0.1921339951399E+00 -0.2219076265538E+00  0.0000000000000E+00 -0.3006323548902E+00
 0.1862926097024E+00 -0.2136645997873E+00  0.0000000000000E+00 -0.2593528308418E+00
 0.1777600924312E+00 -0.2030166705295E+00  0.0000000000000E+00 -0.2292572846877E+00
 0.1674226731800E+00 -0.1908422080293E+00  0.0000000000000E+00 -0.2087060145429E+00
 0.1559049206305E+00 -0.1777449197435E+00  0.0000000000000E+00 -0.1959462540379E+00
 0.1436910265559E+00 -0.1641854197286E+00  0.0000000000000E+00 -0.1894124696090E+00
 0.1310796777837E+00 -0.1503974651567E+00  0.0000000000000E+00 -0.1871500938246E+00
 0.1183510519734E+00 -0.1367068915779E+00  0.0000000000000E+00 -0.1893317321062E+00
 0.1065055307856E+00 -0.1241647665964E+00  0.0000000000000E+00 -0.1963017558909E+00
 0.9621958980677E-01 -0.1134121748812E+00  0.0000000000000E+00 -0.2066935849153E+00
 0.8705289140483E-01 -0.1039516405893E+00  0.0000000000000E+00 -0.2194474165379E+00
 0.7845458655511E-01 -0.9517629541685E-01  0.0000000000000E+00 -0.2336548105033E+00
 0.6975095405409E-01 -0.8636737681521E-01  0.0000000000000E+00 -0.2486720455930E+00
 0.6043045469082E-01 -0.7699812209330E-01  0.0000000000000E+00 -0.2638058437194E+00
 0.5020625764238E-01 -0.6679294058000E-01  0.0000000000000E+00 -0.2778255764006E+00
 0.1402853576612E+00 -0.1843977273507E+00  0.0000000000000E+00 -0.6383643989962E+00
 0.1581443649125E+00 -0.2001795916449E+00  0.0000000000000E+00 -0.5696979842949E+00
 0.1753732133035E+00 -0.2148538434159E+00  0.0000000000000E+00 -0.4986282712328E+00
 0.1876632772421E+00 -0.2244376521687E+00  0.0000000000000E+00 -0.4306164774120E+00
 0.1942889732011E+00 -0.2284314793026E+00  0.0000000000000E+00 -0.3705416648800E+00
 0.1959830700963E+00 -0.2276669064931E+00  0.0000000000000E+00 -0.3208887546825E+00
 0.1937286635871E+00 -0.2231687755834E+00  0.0000000000000E+00 -0.2820302437114E+00
 0.1884274328324E+00 -0.2158609704520E+00  0.0000000000000E+00 -0.2533337167263E+00
 0.1808268503969E+00 -0.2064896566180E+00  0.0000000000000E+00 -0.2335678198125E+00
 0.1715050248884E+00 -0.1956212132302E+00  0.0000000000000E+00 -0.2213346393091E+00
 0.1609494069614E+00 -0.1837292364663E+00  0.0000000000000E+00 -0.2153284934922E+00
 0.1495094606169E+00 -0.1711118719505E+00  0.0000000000000E+00 -0.2138064870932E+00
 0.1374747274731E+00 -0.1581062633349E+00  0.0000000000000E+00 -0.2169684663851E+00
 0.1257942205207E+00 -0.1457077884808E+00  0.0000000000000E+00 -0.2250384639843E+00
 0.1152264744460E+00 -0.1346341911461E+00  0.0000000000000E+00 -0.2364524496130E+00
 0.1054669919077E+00 -0.1245291637158E+00  0.0000000000000E+00 -0.2500602771957E+00
 0.9607832042941E-01 -0.1149034140952E+00  0.0000000000000E+00 -0.2649578914071E+00
 0.8643948892022E-01 -0.1050986530592E+00  0.0000000000000E+00 -0.2806183227423E+00
 0.7596868246552E-01 -0.9452216593026E-01  0.0000000000000E+00 -0.2964399340553E+00
 0.6407349542009E-01 -0.8260256155003E-01  0.0000000000000E+00 -0.3108174639726E+00
 0.1342638650391E+00 -0.1792905085644E+00  0.0000000000000E+00 -0.6344845589422E+00
 0.1522950300408E+00 -0.1953543849691E+00  0.0000000000000E+00 -0.5669661891319E+00
 0.1704633388753E+00 -0.2111694647041E+00  0.0000000000000E+00 -0.5003606373956E+00
 0.1848187871538E+00 -0.2230490624764E+00  0.0000000000000E+00 -0.4378899479227E+00
 0.1943600740604E+00 -0.2301737699400E+00  0.0000000000000E+00 -0.3828617036801E+00
 0.1993783445939E+00 -0.2329176103560E+00  0.0000000000000E+00 -0.3371845447132E+00
 0.2004953045394E+00 -0.2319386334295E+00  0.0000000000000E+00 -0.3012269020742E+00
 0.1983638404812E+00 -0.2279102357515E+00  0.0000000000000E+00 -0.2745387876932E+00
 0.1935792918180E+00 -0.2214302760961E+00  0.0000000000000E+00 -0.2561603519921E+00
 0.1866429098028E+00 -0.2129941861907E+00  0.0000000000000E+00 -0.2449604370668E+00
 0.1780113199525E+00 -0.2030512714322E+00  0.0000000000000E+00 -0.2398450761692E+00
 0.1680536783975E+00 -0.1919306939681E+00  0.0000000000000E+00 -0.2392817406434E+00
 0.1570481793163E+00 -0.1799572990857E+00  0.0000000000000E+00 -0.2434795879610E+00
 0.1458579145083E+00 -0.1680349394055E+00  0.0000000000000E+00 -0.2525495399992E+00
 0.1352699306416E+00 -0.1569048500178E+00  0.0000000000000E+00 -0.2648099977390E+00
 0.1251060154931E+00 -0.1463390352125E+00  0.0000000000000E+00 -0.2790351365202E+00
 0.1150697011167E+00 -0.1359935221217E+00  0.0000000000000E+00 -0.2943141877970E+00
 0.1046548824469E+00 -0.1253314612011E+00  0.0000000000000E+00 -0.3102738365896E+00
 0.9324271646684E-01 -0.1137341090214E+00  0.0000000000000E+00 -0.3266215495783E+00
 0.7974504016702E-01 -0.1001551085162E+00  0.0000000000000E+00 -0.3416802003585E+00
 0.1284893918719E+00 -0.1745191000890E+00  0.0000000000000E+00 -0.6296076070604E+00
 0.1470341053649E+00 -0.1911876137515E+00  0.0000000000000E+00 -0.5626880449767E+00
 0.1661789208110E+00 -0.2081482830085E+00  0.0000000000000E+00 -0.4995531396019E+00
 0.1823840808641E+00 -0.2220737439430E+00  0.0000000000000E+00 -0.4417736622367E+00
 0.1945178848342E+00 -0.2319778296421E+00  0.0000000000000E+00 -0.3913630688209E+00
 0.2025544124349E+00 -0.2379038852116E+00  0.0000000000000E+00 -0.3496296177793E+00
 0.2068238280182E+00 -0.2402137516125E+00  0.0000000000000E+00 -0.3168175422249E+00
 0.2077594594965E+00 -0.2393594120678E+00  0.0000000000000E+00 -0.2925373681078E+00
 0.2058063611741E+00 -0.2357906121829E+00  0.0000000000000E+00 -0.2759903140420E+00
 0.2013728641877E+00 -0.2299136106642E+00  0.0000000000000E+00 -0.2662307894940E+00
 0.1948613266711E+00 -0.2221274632015E+00  0.0000000000000E+00 -0.2623224368679E+00
 0.1866357285518E+00 -0.2127654435123E+00  0.0000000000000E+00 -0.2629219040292E+00
 0.1769462081875E+00 -0.2021208552230E+00  0.0000000000000E+00 -0.2682207870201E+00
 0.1665373884403E+00 -0.1909725018565E+00  0.0000000000000E+00 -0.2782299050214E+00
 0.1561628620058E+00 -0.1800233313100E+00  0.0000000000000E+00 -0.2912363375169E+00
 0.1457325711930E+00 -0.1691364926389E+00  0.0000000000000E+00 -0.3059478297170E+00
 0.1351095466852E+00 -0.1581178753554E+00  0.0000000000000E+00 -0.3213446996166E+00
 0.1240058731743E+00 -0.1466627210899E+00  0.0000000000000E+00 -0.3371535453689E+00
 0.1119173163957E+00 -0.1342711433539E+00  0.0000000000000E+00 -0.3536343016381E+00
 0.9711047905798E-01 -0.1193049266629E+00  0.0000000000000E+00 -0.3697566682681E+00
 0.1228964867921E+00 -0.1700019920136E+00  0.0000000000000E+00 -0.6236699965443E+00
 0.1422567707174E+00 -0.1875631190401E+00  0.0000000000000E+00 -0.5569960415380E+00
 0.1624651889302E+00 -0.2057307744653E+00  0.0000000000000E+00 -0.4965281190910E+00
 0.1803948565559E+00 -0.2215482043205E+00  0.0000000000000E+00 -0.4426524047381E+00
 0.1948810191779E+00 -0.2339670287985E+00  0.0000000000000E+00 -0.3963573155561E+00
 0.2056789460989E+00 -0.2427996557061E+00  0.0000000000000E+00 -0.3583807340375E+00
 0.2128916686325E+00 -0.2481771481851E+00  0.0000000000000E+00 -0.3287698233429E+00
 0.2167683296338E+00 -0.2503655801293E+00  0.0000000000000E+00 -0.3071100509068E+00
 0.2176159879687E+00 -0.2496782273010E+00  0.0000000000000E+00 -0.2926814456381E+00
 0.2157443845376E+00 -0.2464247985334E+00  0.0000000000000E+00 -0.2846566814498E+00
 0.2114864106089E+00 -0.2409370532109E+00  0.0000000000000E+00 -0.2822046630230E+00
 0.2051806454391E+00 -0.2335302251803E+00  0.0000000000000E+00 -0.2841371089712E+00
 0.1970399340498E+00 -0.2244545771036E+00  0.0000000000000E+00 -0.2905890335951E+00
 0.1876700191705E+00 -0.2143426499790E+00  0.0000000000000E+00 -0.3014949785487E+00
 0.1777292095645E+00 -0.2037998930176E+00  0.0000000000000E+00 -0.3152211913681E+00
 0.1671627740498E+00 -0.1927254899131E+00  0.0000000000000E+00 -0.3304581704879E+00
 0.1559084346084E+00 -0.1810052779686E+00  0.0000000000000E+00 -0.3459986045816E+00
 0.1440049561586E+00 -0.1685941760154E+00  0.0000000000000E+00 -0.3611951484612E+00
 0.1314489261922E+00 -0.1555668497540E+00  0.0000000000000E+00 -0.3769475186728E+00
 0.1160019531007E+00 -0.1398129708599E+00  0.0000000000000E+00 -0.3942395527914E+00
 0.1174353395492E+00 -0.1656751499059E+00  0.0000000000000E+00 -0.6166075475114E+00
 0.1378676629281E+00 -0.1843755122875E+00  0.0000000000000E+00 -0.5499694610036E+00
 0.1592489637311E+00 -0.2038364989202E+00  0.0000000000000E+00 -0.4915234927399E+00
 0.1788437459706E+00 -0.2214642537139E+00  0.0000000000000E+00 -0.4408338384371E+00
 0.1955125657172E+00 -0.2362067984782E+00  0.0000000000000E+00 -0.3981249317474E+00
 0.2088614466425E+00 -0.2477180340888E+00  0.0000000000000E+00 -0.3636167611531E+00
 0.2188237147883E+00 -0.2559567861746E+00  0.0000000000000E+00 -0.3371168863186E+00
 0.2255027067255E+00 -0.2610422748631E+00  0.0000000000000E+00 -0.3181288869373E+00
 0.2290878256524E+00 -0.2631708870777E+00  0.0000000000000E+00 -0.3059552823765E+00
 0.2297927273543E+00 -0.2625587457189E+00  0.0000000000000E+00 -0.2998423111018E+00
 0.2278693218304E+00 -0.2594556858782E+00  0.0000000000000E+00 -0.2990228490974E+00
 0.2236096287682E+00 -0.2541362374223E+00  0.0000000000000E+00 -0.3024196458654E+00
 0.2171878071877E+00 -0.2468045298389E+00  0.0000000000000E+00 -0.3100492606460E+00
 0.2090717301989E+00 -0.2379457090508E+00  0.0000000000000E+00 -0.3217882628704E+00
 0.1997860364123E+00 -0.2280331773531E+00  0.0000000000000E+00 -0.3362158577416E+00
 0.1892596968796E+00 -0.2169573962381E+00  0.0000000000000E+00 -0.3521146067411E+00
 0.1774303211896E+00 -0.2045963803731E+00  0.0000000000000E+00 -0.3682046848144E+00
 0.1642894810096E+00 -0.1909073049473E+00  0.0000000000000E+00 -0.3832991622291E+00
 0.1509500752328E+00 -0.1766469366578E+00  0.0000000000000E+00 -0.3968218667069E+00
 0.1360581535962E+00 -0.1611873799855E+00  0.0000000000000E+00 -0.4139929580339E+00
 0.1120715617896E+00 -0.1615049570169E+00  0.0000000000000E+00 -0.6083894444715E+00
 0.1337738327751E+00 -0.1815124788336E+00  0.0000000000000E+00 -0.5416803046464E+00
 0.1564379842211E+00 -0.2023661812141E+00  0.0000000000000E+00 -0.4846872125827E+00
 0.1776959412186E+00 -0.2217851621422E+00  0.0000000000000E+00 -0.4365415169718E+00
 0.1964358577505E+00 -0.2387215663797E+00  0.0000000000000E+00 -0.3969068952496E+00
 0.2121631615686E+00 -0.2527214210788E+00  0.0000000000000E+00 -0.3655255405558E+00
 0.2246953428161E+00 -0.2636287654218E+00  0.0000000000000E+00 -0.3419384593509E+00
 0.2340308591745E+00 -0.2714572166454E+00  0.0000000000000E+00 -0.3255388816295E+00
 0.2402640907690E+00 -0.2763082323473E+00  0.0000000000000E+00 -0.3156188160105E+00
 0.2435278848982E+00 -0.2783174021913E+00  0.0000000000000E+00 -0.3114627487841E+00
 0.2439897938707E+00 -0.2776575586692E+00  0.0000000000000E+00 -0.3123767221152E+00
 0.2418457016194E+00 -0.2745002021152E+00  0.0000000000000E+00 -0.3173686472104E+00
 0.2372321317345E+00 -0.2689997882785E+00  0.0000000000000E+00 -0.3261824503015E+00
 0.2305198146195E+00 -0.2615456391107E+00  0.0000000000000E+00 -0.3386453880440E+00
 0.2220814337948E+00 -0.2524528934517E+00  0.0000000000000E+00 -0.3536846890536E+00
 0.2118315855023E+00 -0.2416098066729E+00  0.0000000000000E+00 -0.3702711140150E+00
 0.1996502876295E+00 -0.2288586692751E+00  0.0000000000000E+00 -0.3872263492279E+00
 0.1854582277850E+00 -0.2140464146492E+00  0.0000000000000E+00 -0.4034189758827E+00
 0.1697129660231E+00 -0.1976574176978E+00  0.0000000000000E+00 -0.4171884391837E+00
 0.1560063918837E+00 -0.1812305306313E+00  0.0000000000000E+00 -0.4293656256645E+00
 0.8959714435224E-01 -0.1465495048525E+00  0.0000000000000E+00  0.3604642936745E+00
 0.1318669716261E+00 -0.1860265574814E+00  0.0000000000000E+00  0.2837184988283E+00
 0.1706615661445E+00 -0.2221806023977E+00  0.0000000000000E+00  0.2219749270566E+00
 0.2052221787983E+00 -0.2543148058475E+00  0.0000000000000E+00  0.1725404063137E+00
 0.2356003071441E+00 -0.2824926120017E+00  0.0000000000000E+00  0.1337420982943E+00
 0.2620439377897E+00 -0.3069753881079E+00  0.0000000000000E+00  0.1044910954415E+00
 0.2848826256252E+00 -0.3281002834299E+00  0.0000000000000E+00  0.8388267576566E-01
 0.3044977272013E+00 -0.3462517366094E+00  0.0000000000000E+00  0.7110197737636E-01
 0.3212745700163E+00 -0.3618149584969E+00  0.0000000000000E+00  0.6538252323613E-01
 0.3355590353700E+00 -0.3751374987761E+00  0.0000000000000E+00  0.6609161569884E-01
 0.3476841933604E+00 -0.3865626493094E+00  0.0000000000000E+00  0.7269717610994E-01
 0.3579767588143E+00 -0.3963960804414E+00  0.0000000000000E+00  0.8438114444080E-01
 0.3666059811621E+00 -0.4048517452259E+00  0.0000000000000E+00  0.1012597584399E+00
 0.3740732219496E+00 -0.4124619238479E+00  0.0000000000000E+00  0.1233851678427E+00
 0.3808767228357E+00 -0.4196731508197E+00  0.0000000000000E+00  0.1499048965922E+00
 0.3869167761187E+00 -0.4263912966091E+00  0.0000000000000E+00  0.1802022151545E+00
 0.3920303237231E+00 -0.4324542604859E+00  0.0000000000000E+00  0.2136503188561E+00
 0.3960573483398E+00 -0.4376777091982E+00  0.0000000000000E+00  0.2496190301352E+00
 0.3993642719724E+00 -0.4424608474515E+00  0.0000000000000E+00  0.2866020546650E+00
 0.4058793734028E+00 -0.4487784382676E+00  0.0000000000000E+00  0.3260181753941E+00
 0.9489046032377E-01 -0.1505220332727E+00  0.0000000000000E+00  0.3800181729718E+00
 0.1356280595695E+00 -0.1883777613036E+00  0.0000000000000E+00  0.3017873361475E+00
 0.1728290667824E+00 -0.2228417326966E+00  0.0000000000000E+00  0.2381341636987E+00
 0.2055334049512E+00 -0.2530081367525E+00  0.0000000000000E+00  0.1866215706233E+00
 0.2337918258679E+00 -0.2789724517451E+00  0.0000000000000E+00  0.1458557877600E+00
 0.2579433244153E+00 -0.3010869166370E+00  0.0000000000000E+00  0.1150768578631E+00
 0.2783889981346E+00 -0.3197566549313E+00  0.0000000000000E+00  0.9356768884594E-01
 0.2955673887331E+00 -0.3354225033746E+00  0.0000000000000E+00  0.8056246250119E-01
 0.3099138678607E+00 -0.3485197180112E+00  0.0000000000000E+00  0.7525524964261E-01
 0.3218090253968E+00 -0.3594303583374E+00  0.0000000000000E+00  0.7695182189603E-01
 0.3316304040115E+00 -0.3685334574040E+00  0.0000000000000E+00  0.8501457666903E-01
 0.3397644126773E+00 -0.3762074570692E+00  0.0000000000000E+00  0.9851052912990E-01
 0.3463626796183E+00 -0.3826538471505E+00  0.0000000000000E+00  0.1177626947144E+00
 0.3520706260779E+00 -0.3885474416542E+00  0.0000000000000E+00  0.1424736933382E+00
 0.3576211138436E+00 -0.3945793209254E+00  0.0000000000000E+00  0.1711364295633E+00
 0.3629291679538E+00 -0.4006528236551E+00  0.0000000000000E+00  0.2029138192341E+00
 0.3679079823378E+00 -0.4066611555375E+00  0.0000000000000E+00  0.2370094864038E+00
 0.3725671716807E+00 -0.4126165339125E+00  0.0000000000000E+00  0.2726189409255E+00
 0.3780843139280E+00 -0.4194041247056E+00  0.0000000000000E+00  0.3094071141235E+00
 0.3834195328405E+00 -0.4267508768000E+00  0.0000000000000E+00  0.3526753345873E+00
 0.1002764280741E+00 -0.1545495418119E+00  0.0000000000000E+00  0.3982109022182E+00
 0.1394749934406E+00 -0.1907907730163E+00  0.0000000000000E+00  0.3183738344259E+00
 0.1750285213639E+00 -0.2234898293901E+00  0.0000000000000E+00  0.2524533088884E+00
 0.2057182383883E+00 -0.2515214180021E+00  0.0000000000000E+00  0.1984290541437E+00
 0.2316147423708E+00 -0.2750151042503E+00  0.0000000000000E+00  0.1553820379035E+00
 0.2531760015837E+00 -0.2944485187968E+00  0.0000000000000E+00  0.1228801186416E+00
 0.2709186955674E+00 -0.3103414319877E+00  0.0000000000000E+00  0.1003525472202E+00
 0.2853692055941E+00 -0.3232221094993E+00  0.0000000000000E+00  0.8705523474994E-01
 0.2970254798423E+00 -0.3335865556978E+00  0.0000000000000E+00  0.8211299740473E-01
 0.3063129122638E+00 -0.3418586807902E+00  0.0000000000000E+00  0.8473515733993E-01
 0.3136466034042E+00 -0.3484572798843E+00  0.0000000000000E+00  0.9419344868648E-01
 0.3194270728088E+00 -0.3537663693662E+00  0.0000000000000E+00  0.1093980520331E+00
 0.3238189715946E+00 -0.3580122547722E+00  0.0000000000000E+00  0.1307581053853E+00
 0.3276798494939E+00 -0.3620934400279E+00  0.0000000000000E+00  0.1577267232745E+00
 0.3319823861584E+00 -0.3669366373963E+00  0.0000000000000E+00  0.1882876813283E+00
 0.3366836479251E+00 -0.3724814129199E+00  0.0000000000000E+00  0.2214805539556E+00
 0.3417451795851E+00 -0.3786753819855E+00  0.0000000000000E+00  0.2565624336254E+00
 0.3472834378112E+00 -0.3856030376732E+00  0.0000000000000E+00  0.2932810993545E+00
 0.3534716500980E+00 -0.3935758597798E+00  0.0000000000000E+00  0.3327465520038E+00
 0.3584002689747E+00 -0.4009010118103E+00  0.0000000000000E+00  0.3761130101904E+00
 0.1057869246927E+00 -0.1586911762150E+00  0.0000000000000E+00  0.4150696714382E+00
 0.1434778285349E+00 -0.1933402730237E+00  0.0000000000000E+00  0.3334693463407E+00
 0.1773184268935E+00 -0.2241964211821E+00  0.0000000000000E+00  0.2648114912514E+00
 0.2058014405345E+00 -0.2498826905682E+00  0.0000000000000E+00  0.2077792859503E+00
 0.2290585613255E+00 -0.2706128297665E+00  0.0000000000000E+00  0.1620964896733E+00
 0.2477205124809E+00 -0.2870421796516E+00  0.0000000000000E+00  0.1276835116141E+00
 0.2624595883686E+00 -0.2998467586417E+00  0.0000000000000E+00  0.1040617415941E+00
 0.2739169850444E+00 -0.3096693413908E+00  0.0000000000000E+00  0.9045217927279E-01
 0.2826653796523E+00 -0.3170777018499E+00  0.0000000000000E+00  0.8586045416674E-01
 0.2891728483462E+00 -0.3225360523177E+00  0.0000000000000E+00  0.8936117487260E-01
 0.2938823285790E+00 -0.3264887634261E+00  0.0000000000000E+00  0.1000974468976E+00
 0.2971907522208E+00 -0.3293078793688E+00  0.0000000000000E+00  0.1167952841315E+00
 0.2992882099158E+00 -0.3312552406592E+00  0.0000000000000E+00  0.1399170876301E+00
 0.3012693242867E+00 -0.3334777115971E+00  0.0000000000000E+00  0.1687531706959E+00
 0.3043348285810E+00 -0.3371330652350E+00  0.0000000000000E+00  0.2009702478484E+00
 0.3084539269564E+00 -0.3421741643955E+00  0.0000000000000E+00  0.2356284441042E+00
 0.3135633176460E+00 -0.3485234083659E+00  0.0000000000000E+00  0.2721932882301E+00
 0.3194999763945E+00 -0.3560591374287E+00  0.0000000000000E+00  0.3108146587107E+00
 0.3260032109091E+00 -0.3646030115842E+00  0.0000000000000E+00  0.3519385491107E+00
 0.3316856719112E+00 -0.3729689803462E+00  0.0000000000000E+00  0.3944781231114E+00
 0.1114551999171E+00 -0.1629956199709E+00  0.0000000000000E+00  0.4306042398481E+00
 0.1477130522587E+00 -0.1961167573135E+00  0.0000000000000E+00  0.3469994911553E+00
 0.1797570527979E+00 -0.2250268810380E+00  0.0000000000000E+00  0.2750237064924E+00
 0.2057961976509E+00 -0.2481100636597E+00  0.0000000000000E+00  0.2144225899250E+00
 0.2260963439293E+00 -0.2657407709206E+00  0.0000000000000E+00  0.1657557767046E+00
 0.2415325560190E+00 -0.2788254094600E+00  0.0000000000000E+00  0.1292939794435E+00
 0.2529780568258E+00 -0.2882415433311E+00  0.0000000000000E+00  0.1045748971872E+00
 0.2612119011242E+00 -0.2947694306646E+00  0.0000000000000E+00  0.9070424479827E-01
 0.2668868258904E+00 -0.2990531150709E+00  0.0000000000000E+00  0.8649788912053E-01
 0.2705060735414E+00 -0.3015876197029E+00  0.0000000000000E+00  0.9083801030794E-01
 0.2725280183920E+00 -0.3028289404489E+00  0.0000000000000E+00  0.1026984645486E+00
 0.2733263596866E+00 -0.3031155582417E+00  0.0000000000000E+00  0.1206062298515E+00
 0.2731202899474E+00 -0.3027464912865E+00  0.0000000000000E+00  0.1450549934543E+00
 0.2732369350341E+00 -0.3031134082295E+00  0.0000000000000E+00  0.1752794495889E+00
 0.2750571808435E+00 -0.3055626694816E+00  0.0000000000000E+00  0.2088225087120E+00
 0.2785243061508E+00 -0.3100223190854E+00  0.0000000000000E+00  0.2448514624152E+00
 0.2834704995348E+00 -0.3163247720413E+00  0.0000000000000E+00  0.2829790539029E+00
 0.2895520761386E+00 -0.3241637522746E+00  0.0000000000000E+00  0.3232888691309E+00
 0.2964638364944E+00 -0.3333255356138E+00  0.0000000000000E+00  0.3655913148810E+00
 0.3035664278956E+00 -0.3433375561457E+00  0.0000000000000E+00  0.4078063335681E+00
 0.1173229431598E+00 -0.1675214409701E+00  0.0000000000000E+00  0.4448325663797E+00
 0.1522607034013E+00 -0.1992127991080E+00  0.0000000000000E+00  0.3588397271744E+00
 0.1823922428521E+00 -0.2260367775041E+00  0.0000000000000E+00  0.2828294744081E+00
 0.2056904682758E+00 -0.2461946053523E+00  0.0000000000000E+00  0.2180533392102E+00
 0.2226677685825E+00 -0.2603394045597E+00  0.0000000000000E+00  0.1661008688654E+00
 0.2345349830661E+00 -0.2697209706027E+00  0.0000000000000E+00  0.1275502598381E+00
 0.2424143941529E+00 -0.2754668845364E+00  0.0000000000000E+00  0.1018423522555E+00
 0.2472406342949E+00 -0.2785121155764E+00  0.0000000000000E+00  0.8785957796187E-01
 0.2497436393467E+00 -0.2795724556369E+00  0.0000000000000E+00  0.8413570905426E-01
 0.2504465729138E+00 -0.2791564741483E+00  0.0000000000000E+00  0.8929325930813E-01
 0.2498037155777E+00 -0.2777098983438E+00  0.0000000000000E+00  0.1020960957695E+00
 0.2481416767317E+00 -0.2755119427936E+00  0.0000000000000E+00  0.1208677604502E+00
 0.2457044472651E+00 -0.2728916833360E+00  0.0000000000000E+00  0.1461140438240E+00
 0.2440252868385E+00 -0.2714598389330E+00  0.0000000000000E+00  0.1771170865514E+00
 0.2446018834510E+00 -0.2726909914459E+00  0.0000000000000E+00  0.2114798586031E+00
 0.2473234478740E+00 -0.2764621368411E+00  0.0000000000000E+00  0.2485194463742E+00
 0.2519422185333E+00 -0.2825279334366E+00  0.0000000000000E+00  0.2879073838014E+00
 0.2580430585779E+00 -0.2905135372306E+00  0.0000000000000E+00  0.3296034595047E+00
 0.2654560147509E+00 -0.3003441395875E+00  0.0000000000000E+00  0.3730116807053E+00
 0.2742324421336E+00 -0.3122376405548E+00  0.0000000000000E+00  0.4157820080974E+00
 0.1234452172160E+00 -0.1723421405941E+00  0.0000000000000E+00  0.4577749979864E+00
 0.1572052885049E+00 -0.2027258767994E+00  0.0000000000000E+00  0.3688062682802E+00
 0.1852518305106E+00 -0.2272605683474E+00  0.0000000000000E+00  0.2878885439179E+00
 0.2054322644728E+00 -0.2440858453980E+00  0.0000000000000E+00  0.2183121757549E+00
 0.2186654179577E+00 -0.2542996970709E+00  0.0000000000000E+00  0.1628707955947E+00
 0.2266081454711E+00 -0.2596067323996E+00  0.0000000000000E+00  0.1223419103304E+00
 0.2306788279853E+00 -0.2614318708110E+00  0.0000000000000E+00  0.9590726706383E-01
 0.2319761373315E+00 -0.2608722608656E+00  0.0000000000000E+00  0.8208459940674E-01
 0.2312927369215E+00 -0.2586985351349E+00  0.0000000000000E+00  0.7901428016891E-01
 0.2291457470210E+00 -0.2554039905470E+00  0.0000000000000E+00  0.8498755387554E-01
 0.2259575511797E+00 -0.2513934373276E+00  0.0000000000000E+00  0.9852223021975E-01
 0.2219795666779E+00 -0.2468566237202E+00  0.0000000000000E+00  0.1177485300733E+00
 0.2174720384335E+00 -0.2421406584830E+00  0.0000000000000E+00  0.1431639685134E+00
 0.2141364784249E+00 -0.2390373704021E+00  0.0000000000000E+00  0.1741935458910E+00
 0.2135176740720E+00 -0.2390823190423E+00  0.0000000000000E+00  0.2086828295247E+00
 0.2154437570720E+00 -0.2420919325327E+00  0.0000000000000E+00  0.2461450687840E+00
 0.2196204152726E+00 -0.2477774222719E+00  0.0000000000000E+00  0.2863153748241E+00
 0.2256360387342E+00 -0.2557697347879E+00  0.0000000000000E+00  0.3290797557985E+00
 0.2335218987261E+00 -0.2662073991893E+00  0.0000000000000E+00  0.3736874193907E+00
 0.2439088383105E+00 -0.2799025200779E+00  0.0000000000000E+00  0.4179133005121E+00
 0.1298947682813E+00 -0.1775519753818E+00  0.0000000000000E+00  0.4694494648902E+00
 0.1626340883692E+00 -0.2067569172638E+00  0.0000000000000E+00  0.3766376916939E+00
 0.1883320473364E+00 -0.2287000214792E+00  0.0000000000000E+00  0.2897696571315E+00
 0.2049136644815E+00 -0.2416748807628E+00  0.0000000000000E+00  0.2147918063833E+00
 0.2139209576749E+00 -0.2474485083384E+00  0.0000000000000E+00  0.1558228808151E+00
 0.2175820561534E+00 -0.2483071060556E+00  0.0000000000000E+00  0.1136379447186E+00
 0.2176503036466E+00 -0.2460121317538E+00  0.0000000000000E+00  0.8693502538615E-01
 0.2153812461817E+00 -0.2418137985273E+00  0.0000000000000E+00  0.7368856301544E-01
 0.2115992458744E+00 -0.2365027978503E+00  0.0000000000000E+00  0.7151964909558E-01
 0.2067761395679E+00 -0.2305140034580E+00  0.0000000000000E+00  0.7832075576976E-01
 0.2012663236237E+00 -0.2241717445554E+00  0.0000000000000E+00  0.9234081152619E-01
 0.1952157626432E+00 -0.2175439729910E+00  0.0000000000000E+00  0.1115482524175E+00
 0.1888924532446E+00 -0.2109833565276E+00  0.0000000000000E+00  0.1364153502806E+00
 0.1841228349318E+00 -0.2064193522476E+00  0.0000000000000E+00  0.1666004941175E+00
 0.1824279538020E+00 -0.2053787213093E+00  0.0000000000000E+00  0.2003762328783E+00
 0.1835683774396E+00 -0.2076101457204E+00  0.0000000000000E+00  0.2375168998256E+00
 0.1872242707713E+00 -0.2128028362786E+00  0.0000000000000E+00  0.2778640101062E+00
 0.1930270634305E+00 -0.2206361423923E+00  0.0000000000000E+00  0.3213167505855E+00
 0.2012190677044E+00 -0.2314771219851E+00  0.0000000000000E+00  0.3671786174769E+00
 0.2129113230811E+00 -0.2466466037868E+00  0.0000000000000E+00  0.4135938704540E+00
 0.1367663501499E+00 -0.1832719584769E+00  0.0000000000000E+00  0.4798635158592E+00
 0.1686327381702E+00 -0.2114065129594E+00  0.0000000000000E+00  0.3819674200177E+00
 0.1915814054046E+00 -0.2303077643733E+00  0.0000000000000E+00  0.2879354571594E+00
 0.2039515456005E+00 -0.2387741531906E+00  0.0000000000000E+00  0.2070469322896E+00
 0.2081909090110E+00 -0.2395331394932E+00  0.0000000000000E+00  0.1447630915256E+00
 0.2072310777365E+00 -0.2355869627692E+00  0.0000000000000E+00  0.1015262744950E+00
 0.2031797889827E+00 -0.2290531075293E+00  0.0000000000000E+00  0.7525022580682E-01
 0.1974172571475E+00 -0.2212988456861E+00  0.0000000000000E+00  0.6314901455387E-01
 0.1907458504850E+00 -0.2130754279709E+00  0.0000000000000E+00  0.6219400904352E-01
 0.1835376857510E+00 -0.2046995953554E+00  0.0000000000000E+00  0.6982947237572E-01
 0.1760362866571E+00 -0.1963683985947E+00  0.0000000000000E+00  0.8403888203950E-01
 0.1682532554745E+00 -0.1879974492063E+00  0.0000000000000E+00  0.1026908458304E+00
 0.1604594908790E+00 -0.1799362167848E+00  0.0000000000000E+00  0.1262259464450E+00
 0.1545620978389E+00 -0.1742073176472E+00  0.0000000000000E+00  0.1546218743137E+00
 0.1519877774568E+00 -0.1722586612358E+00  0.0000000000000E+00  0.1867536617187E+00
 0.1524175475839E+00 -0.1737582358422E+00  0.0000000000000E+00  0.2227191427326E+00
 0.1555084706568E+00 -0.1783766931868E+00  0.0000000000000E+00  0.2625173918815E+00
 0.1609468591479E+00 -0.1858562277128E+00  0.0000000000000E+00  0.3061460390598E+00
 0.1691651155542E+00 -0.1967768367888E+00  0.0000000000000E+00  0.3531346380245E+00
 0.1816704112320E+00 -0.2128953946680E+00  0.0000000000000E+00  0.4021862077088E+00
 0.1441813933860E+00 -0.1896570172258E+00  0.0000000000000E+00  0.4890021767759E+00
 0.1752767176114E+00 -0.2167672423609E+00  0.0000000000000E+00  0.3842849691553E+00
 0.1948775646102E+00 -0.2319636167691E+00  0.0000000000000E+00  0.2817247900996E+00
 0.2022632578839E+00 -0.2350915260643E+00  0.0000000000000E+00  0.1946129566080E+00
 0.2011421636041E+00 -0.2302051432451E+00  0.0000000000000E+00  0.1295914298023E+00
 0.1952731045745E+00 -0.2211499875302E+00  0.0000000000000E+00  0.8626754975805E-01
 0.1871007815458E+00 -0.2103809151620E+00  0.0000000000000E+00  0.6138106946664E-01
 0.1780597137059E+00 -0.1993045861844E+00  0.0000000000000E+00  0.5113521630523E-01
 0.1688472237058E+00 -0.1885409060403E+00  0.0000000000000E+00  0.5173654923274E-01
 0.1596660070221E+00 -0.1782120636917E+00  0.0000000000000E+00  0.6017159128398E-01
 0.1506029115643E+00 -0.1683382336049E+00  0.0000000000000E+00  0.7420485334712E-01
 0.1415127057259E+00 -0.1586597146468E+00  0.0000000000000E+00  0.9170539383519E-01
 0.1326715765285E+00 -0.1495218930402E+00  0.0000000000000E+00  0.1130910555472E+00
 0.1260259542446E+00 -0.1429991829498E+00  0.0000000000000E+00  0.1387350782704E+00
 0.1228428084975E+00 -0.1403948308248E+00  0.0000000000000E+00  0.1682610123156E+00
 0.1227062957671E+00 -0.1412776200650E+00  0.0000000000000E+00  0.2021303562322E+00
 0.1252350633489E+00 -0.1452846851985E+00  0.0000000000000E+00  0.2405371361728E+00
 0.1301589278101E+00 -0.1522117131035E+00  0.0000000000000E+00  0.2836459904250E+00
 0.1380563438061E+00 -0.1628119284913E+00  0.0000000000000E+00  0.3313540940112E+00
 0.1507454710314E+00 -0.1792035818510E+00  0.0000000000000E+00  0.3830988225745E+00
 0.1522930484603E+00 -0.1969048968013E+00  0.0000000000000E+00  0.4968085642770E+00
 0.1826162896294E+00 -0.2229098192002E+00  0.0000000000000E+00  0.3828815486626E+00
 0.1979934385394E+00 -0.2334395616154E+00  0.0000000000000E+00  0.2703344121944E+00
 0.1994354475853E+00 -0.2301964011675E+00  0.0000000000000E+00  0.1770411331172E+00
 0.1923387554300E+00 -0.2190046441418E+00  0.0000000000000E+00  0.1103710447024E+00
 0.1813770916641E+00 -0.2046455580441E+00  0.0000000000000E+00  0.6836800083864E-01
 0.1692510441675E+00 -0.1898252633039E+00  0.0000000000000E+00  0.4610949346899E-01
 0.1573237156863E+00 -0.1758504907655E+00  0.0000000000000E+00  0.3852314739059E-01
 0.1460696487825E+00 -0.1630791339034E+00  0.0000000000000E+00  0.4098735359759E-01
 0.1354414142887E+00 -0.1513505050311E+00  0.0000000000000E+00  0.5009244500547E-01
 0.1253282591381E+00 -0.1404644890344E+00  0.0000000000000E+00  0.6349107599707E-01
 0.1154191403708E+00 -0.1299786284472E+00  0.0000000000000E+00  0.7919355214477E-01
 0.1060086648853E+00 -0.1202453034350E+00  0.0000000000000E+00  0.9761829595059E-01
 0.9904817874379E-01 -0.1133563274737E+00  0.0000000000000E+00  0.1195907703086E+00
 0.9559109915038E-01 -0.1104148845596E+00  0.0000000000000E+00  0.1455797148782E+00
 0.9510603437781E-01 -0.1108701509241E+00  0.0000000000000E+00  0.1764128191152E+00
 0.9714356522947E-01 -0.1142954420903E+00  0.0000000000000E+00  0.2124886182732E+00
 0.1014449073209E+00 -0.1205084776044E+00  0.0000000000000E+00  0.2541799405126E+00
 0.1086669102701E+00 -0.1303707423604E+00  0.0000000000000E+00  0.3018618374899E+00
 0.1208324942493E+00 -0.1462655443340E+00  0.0000000000000E+00  0.3558682453001E+00
 0.1612911305670E+00 -0.2052673994766E+00  0.0000000000000E+00  0.5031517807919E+00
 0.1906501403837E+00 -0.2298584882755E+00  0.0000000000000E+00  0.3767725985878E+00
 0.2005465117834E+00 -0.2343466408217E+00  0.0000000000000E+00  0.2528043893693E+00
 0.1948844513225E+00 -0.2234754139239E+00  0.0000000000000E+00  0.1539639256360E+00
 0.1812341773407E+00 -0.2053493058564E+00  0.0000000000000E+00  0.8743447087810E-01
 0.1651860734293E+00 -0.1856918979506E+00  0.0000000000000E+00  0.4867563985383E-01
 0.1495112664021E+00 -0.1672608502762E+00  0.0000000000000E+00  0.3052029839612E-01
 0.1353005382618E+00 -0.1510379244804E+00  0.0000000000000E+00  0.2638971497980E-01
 0.1226541561019E+00 -0.1369502260455E+00  0.0000000000000E+00  0.3088375873889E-01
 0.1111956495867E+00 -0.1244686608551E+00  0.0000000000000E+00  0.4036783806563E-01
 0.1005938869435E+00 -0.1131509234476E+00  0.0000000000000E+00  0.5256129551628E-01
 0.9038492106161E-01 -0.1023891312115E+00  0.0000000000000E+00  0.6578703945748E-01
 0.8090804595823E-01 -0.9256832170374E-01  0.0000000000000E+00  0.8049180961802E-01
 0.7409460129478E-01 -0.8577239191262E-01  0.0000000000000E+00  0.9797847868303E-01
 0.7074774949916E-01 -0.8286481469499E-01  0.0000000000000E+00  0.1195946327788E+00
 0.7020611011140E-01 -0.8315855672323E-01  0.0000000000000E+00  0.1464914790512E+00
 0.7191405685878E-01 -0.8612315602480E-01  0.0000000000000E+00  0.1792450242039E+00
 0.7557479497918E-01 -0.9154757984092E-01  0.0000000000000E+00  0.2184390375846E+00
 0.8183061128299E-01 -0.1003084333954E+00  0.0000000000000E+00  0.2649919519658E+00
 0.9276532522668E-01 -0.1149192370642E+00  0.0000000000000E+00  0.3202524257957E+00
 0.1714053932385E+00 -0.2150644060860E+00  0.0000000000000E+00  0.5077718925988E+00
 0.1992785752620E+00 -0.2375467084526E+00  0.0000000000000E+00  0.3645852706779E+00
 0.2019216108562E+00 -0.2340524570314E+00  0.0000000000000E+00  0.2280176923484E+00
 0.1878083510721E+00 -0.2140763408529E+00  0.0000000000000E+00  0.1252161314792E+00
 0.1671794630388E+00 -0.1885383253956E+00  0.0000000000000E+00  0.6154701239019E-01
 0.1463681061165E+00 -0.1639294160238E+00  0.0000000000000E+00  0.2849981400087E-01
 0.1278674473207E+00 -0.1426751061561E+00  0.0000000000000E+00  0.1603139866443E-01
 0.1122046110909E+00 -0.1251011970756E+00  0.0000000000000E+00  0.1596479173809E-01
 0.9893767652561E-01 -0.1105167349820E+00  0.0000000000000E+00  0.2237677873311E-01
 0.8731083787748E-01 -0.9797292424706E-01  0.0000000000000E+00  0.3172334938637E-01
 0.7678639099075E-01 -0.8680582869263E-01  0.0000000000000E+00  0.4202945420279E-01
 0.6678907855321E-01 -0.7629128070465E-01  0.0000000000000E+00  0.5210341875267E-01
 0.5774107469847E-01 -0.6688546597897E-01  0.0000000000000E+00  0.6243289456750E-01
 0.5153737972378E-01 -0.6064645309066E-01  0.0000000000000E+00  0.7478240571155E-01
 0.4871415761177E-01 -0.5817684265395E-01  0.0000000000000E+00  0.9134674240002E-01
 0.4847584667163E-01 -0.5864698045937E-01  0.0000000000000E+00  0.1135151823183E+00
 0.5012275640019E-01 -0.6138221557280E-01  0.0000000000000E+00  0.1419752877773E+00
 0.5326140582056E-01 -0.6608024870764E-01  0.0000000000000E+00  0.1774744338455E+00
 0.5840438172598E-01 -0.7351283593565E-01  0.0000000000000E+00  0.2214700863084E+00
 0.6750656189181E-01 -0.8614023720657E-01  0.0000000000000E+00  0.2763422760094E+00
 0.1829026657929E+00 -0.2267004033918E+00  0.0000000000000E+00  0.5101820258294E+00
 0.2082180689745E+00 -0.2457348355130E+00  0.0000000000000E+00  0.3443915599153E+00
 0.2011512542441E+00 -0.2315500097237E+00  0.0000000000000E+00  0.1947392088358E+00
 0.1771366505782E+00 -0.2008436143621E+00  0.0000000000000E+00  0.9105953743099E-01
 0.1494694512886E+00 -0.1677955133335E+00  0.0000000000000E+00  0.3415279202383E-01
 0.1247147815757E+00 -0.1391267779919E+00  0.0000000000000E+00  0.9737889396731E-02
 0.1045015396070E+00 -0.1162682226061E+00  0.0000000000000E+00  0.4364708007074E-02
 0.8842230428898E-01 -0.9846027043959E-01  0.0000000000000E+00  0.8508992026777E-02
 0.7536046217120E-01 -0.8425022510063E-01  0.0000000000000E+00  0.1629973862164E-01
 0.6420285161001E-01 -0.7230304591083E-01  0.0000000000000E+00  0.2473973790703E-01
 0.5427328702678E-01 -0.6181587487943E-01  0.0000000000000E+00  0.3240437651320E-01
 0.4495438465100E-01 -0.5202615673146E-01  0.0000000000000E+00  0.3871162064597E-01
 0.3679382539835E-01 -0.4350387013072E-01  0.0000000000000E+00  0.4416445936911E-01
 0.3163716931639E-01 -0.3826443481183E-01  0.0000000000000E+00  0.5093156744184E-01
 0.2975595705303E-01 -0.3664600508097E-01  0.0000000000000E+00  0.6196988878504E-01
 0.3023123188972E-01 -0.3768564196311E-01  0.0000000000000E+00  0.7879250953749E-01
 0.3219298841561E-01 -0.4053622314434E-01  0.0000000000000E+00  0.1021014608206E+00
 0.3509913704422E-01 -0.4474636673007E-01  0.0000000000000E+00  0.1327029444724E+00
 0.3920973328042E-01 -0.5084844324377E-01  0.0000000000000E+00  0.1724863222370E+00
 0.4612083580344E-01 -0.6101926468053E-01  0.0000000000000E+00  0.2246963446251E+00
 0.1960659603120E+00 -0.2406807282944E+00  0.0000000000000E+00  0.5094869062082E+00
 0.2168385369017E+00 -0.2538506099830E+00  0.0000000000000E+00  0.3134548264382E+00
 0.1967292421324E+00 -0.2252446079932E+00  0.0000000000000E+00  0.1517576113614E+00
 0.1615017833034E+00 -0.1822670390524E+00  0.0000000000000E+00  0.5259964264603E-01
 0.1274743641242E+00 -0.1424031709469E+00  0.0000000000000E+00  0.7725377711497E-02
 0.1003133666934E+00 -0.1113727116333E+00  0.0000000000000E+00 -0.5052828485179E-02
 0.7990167568470E-01 -0.8857555204968E-01  0.0000000000000E+00 -0.2620207580576E-02
 0.6453856628701E-01 -0.7174840060191E-01  0.0000000000000E+00  0.5084430341809E-02
 0.5244122206169E-01 -0.5870106152627E-01  0.0000000000000E+00  0.1320246523390E-01
 0.4228291759411E-01 -0.4789003222755E-01  0.0000000000000E+00  0.1977347705889E-01
 0.3337071467486E-01 -0.3851187798926E-01  0.0000000000000E+00  0.2406039496125E-01
 0.2512578451616E-01 -0.2985363335048E-01  0.0000000000000E+00  0.2611797815937E-01
 0.1825558186136E-01 -0.2263166666196E-01  0.0000000000000E+00  0.2638581780742E-01
 0.1453747633657E-01 -0.1879324825206E-01  0.0000000000000E+00  0.2734969303594E-01
 0.1399561584948E-01 -0.1842174767129E-01  0.0000000000000E+00  0.3261414143160E-01
 0.1561412207682E-01 -0.2044753761469E-01  0.0000000000000E+00  0.4369740003612E-01
 0.1834887018414E-01 -0.2384830500777E-01  0.0000000000000E+00  0.6121108080927E-01
 0.2148944307763E-01 -0.2799784393416E-01  0.0000000000000E+00  0.8586534408543E-01
 0.2494641421891E-01 -0.3307227513264E-01  0.0000000000000E+00  0.1197418985049E+00
 0.2971837256849E-01 -0.4071167956121E-01  0.0000000000000E+00  0.1664990710652E+00
 0.2111182967555E+00 -0.2576154275734E+00  0.0000000000000E+00  0.5040235275544E+00
 0.2238381923059E+00 -0.2606597045312E+00  0.0000000000000E+00  0.2678412526106E+00
 0.1863229869569E+00 -0.2126068778274E+00  0.0000000000000E+00  0.9828612339554E-01
 0.1393120392907E+00 -0.1565166858054E+00  0.0000000000000E+00  0.1256406236124E-01
 0.1009495688714E+00 -0.1120427338321E+00  0.0000000000000E+00 -0.1381544336927E-01
 0.7380530469769E-01 -0.8136894743666E-01  0.0000000000000E+00 -0.1280825252830E-01
 0.5494479551648E-01 -0.6056274947502E-01  0.0000000000000E+00 -0.3347833760729E-02
 0.4129299788363E-01 -0.4575474546380E-01  0.0000000000000E+00  0.6226365409390E-02
 0.3070507710007E-01 -0.3441927065392E-01  0.0000000000000E+00  0.1321956482006E-01
 0.2190211633107E-01 -0.2509726660241E-01  0.0000000000000E+00  0.1693262912635E-01
 0.1430983722845E-01 -0.1713417158993E-01  0.0000000000000E+00  0.1724878179142E-01
 0.7455181076773E-02 -0.9937150721739E-02  0.0000000000000E+00  0.1477719817372E-01
 0.2218209878522E-02 -0.4377711262071E-02  0.0000000000000E+00  0.9762709472293E-02
 0.2743280899158E-03 -0.2291119218957E-02  0.0000000000000E+00  0.4913648122466E-02
 0.1425622078778E-02 -0.3520748133208E-02  0.0000000000000E+00  0.4365331339459E-02
 0.4594882856152E-02 -0.6928907022852E-02  0.0000000000000E+00  0.9548663348855E-02
 0.8585519161321E-02 -0.1134613792853E-01  0.0000000000000E+00  0.2091344694085E-01
 0.1256139651957E-01 -0.1601406078344E-01  0.0000000000000E+00  0.3891013570537E-01
 0.1607303093365E-01 -0.2071453624369E-01  0.0000000000000E+00  0.6543724251635E-01
 0.1934944044309E-01 -0.2634022228356E-01  0.0000000000000E+00  0.1037314743435E+00
 0.2279947369133E+00 -0.2781738241979E+00  0.0000000000000E+00  0.4906077220203E+00
 0.2265278361601E+00 -0.2635307167691E+00  0.0000000000000E+00  0.2017979318460E+00
 0.1663823545552E+00 -0.1896069261363E+00  0.0000000000000E+00  0.3510016316995E-01
 0.1091640902996E+00 -0.1218516057315E+00  0.0000000000000E+00 -0.2332880991946E-01
 0.7066786585033E-01 -0.7750235684023E-01  0.0000000000000E+00 -0.2487639708787E-01
 0.4666071305936E-01 -0.5078406744163E-01  0.0000000000000E+00 -0.1074627176993E-01
 0.3080462427037E-01 -0.3348870626264E-01  0.0000000000000E+00  0.2728954870423E-02
 0.1942703070576E-01 -0.2125757582313E-01  0.0000000000000E+00  0.1171092704714E-01
 0.1058363405178E-01 -0.1184857707559E-01  0.0000000000000E+00  0.1606475904507E-01
 0.3296466935706E-02 -0.4164847524952E-02  0.0000000000000E+00  0.1612905194927E-01
-0.2788314770193E-02  0.2192580587679E-02  0.0000000000000E+00  0.1214556303050E-01
-0.8004272193131E-02  0.7661983065775E-02  0.0000000000000E+00  0.5124984684432E-02
-0.1131315563159E-01  0.1123656762946E-01  0.0000000000000E+00 -0.5063882039879E-02
-0.1119935091790E-01  0.1126714595839E-01  0.0000000000000E+00 -0.1556775416293E-01
-0.8054913915954E-02  0.8134828811343E-02  0.0000000000000E+00 -0.2181872731849E-01
-0.2990496107785E-02  0.3015401464681E-02  0.0000000000000E+00 -0.2251767614707E-01
 0.2677111785825E-02 -0.2825330100803E-02  0.0000000000000E+00 -0.1735412207971E-01
 0.8109897302184E-02 -0.8629083429804E-02  0.0000000000000E+00 -0.6228662386690E-02
 0.1265551925007E-01 -0.1392242928198E-01  0.0000000000000E+00  0.1214555194753E-01
 0.1582134564117E-01 -0.1882093087618E-01  0.0000000000000E+00  0.3931051318506E-01
 0.2454190858800E+00 -0.3027809416034E+00  0.0000000000000E+00  0.4625383414837E+00
 0.2191926238964E+00 -0.2564998109067E+00  0.0000000000000E+00  0.1070453742144E+00
 0.1317868259542E+00 -0.1500874986224E+00  0.0000000000000E+00 -0.3247754682534E-01
 0.7132853602863E-01 -0.7806618379957E-01  0.0000000000000E+00 -0.4399599211251E-01
 0.3947292635924E-01 -0.4219685356843E-01  0.0000000000000E+00 -0.1955147161150E-01
 0.2092813002120E-01 -0.2181426072669E-01  0.0000000000000E+00  0.1639335453769E-02
 0.8578861574314E-02 -0.8509123286840E-02  0.0000000000000E+00  0.1472289964577E-01
-0.4988744547250E-03  0.1171689649069E-02  0.0000000000000E+00  0.2064018784586E-01
-0.7666192855296E-02  0.8752658582602E-02  0.0000000000000E+00  0.2117846055173E-01
-0.1344545978913E-01  0.1482052366504E-01  0.0000000000000E+00  0.1717245663704E-01
-0.1792694357488E-01  0.1947518488215E-01  0.0000000000000E+00  0.8911298104758E-02
-0.2129631288110E-01  0.2298209563058E-01  0.0000000000000E+00 -0.2369740620023E-02
-0.2239990274865E-01  0.2425577628553E-01  0.0000000000000E+00 -0.1744460889246E-01
-0.1997759516270E-01  0.2195076515571E-01  0.0000000000000E+00 -0.3334808708071E-01
-0.1458913684868E-01  0.1666754215411E-01  0.0000000000000E+00 -0.4513403010142E-01
-0.7365954174726E-02  0.9590522923577E-02  0.0000000000000E+00 -0.5162966581336E-01
 0.2506393962565E-03  0.2085209575664E-02  0.0000000000000E+00 -0.5254178042199E-01
 0.7591925429493E-02 -0.5318580423900E-02  0.0000000000000E+00 -0.4795925598283E-01
 0.1421442629416E-01 -0.1228457345517E-01  0.0000000000000E+00 -0.3752344417189E-01
 0.1939975870406E-01 -0.1857467551310E-01  0.0000000000000E+00 -0.2290657021284E-01
 0.2583202502967E+00 -0.3305754355911E+00  0.0000000000000E+00  0.4044609292119E+00
 0.1876744019073E+00 -0.2245585744032E+00  0.0000000000000E+00 -0.2862244445688E-01
 0.7808017875564E-01 -0.8558847040373E-01  0.0000000000000E+00 -0.8283135266802E-01
 0.3234424326056E-01 -0.3384649087153E-01  0.0000000000000E+00 -0.3422353892399E-01
 0.1131632716794E-01 -0.1028680382752E-01  0.0000000000000E+00  0.2019396342052E-02
-0.1800960655487E-02  0.3849488135337E-02  0.0000000000000E+00  0.2200914876702E-01
-0.1103427353375E-01  0.1368213908574E-01  0.0000000000000E+00  0.3073182819068E-01
-0.1820949889847E-01  0.2126291824308E-01  0.0000000000000E+00  0.3184455467283E-01
-0.2397609483451E-01  0.2731423800464E-01  0.0000000000000E+00  0.2791434295695E-01
-0.2839116208039E-01  0.3193699552857E-01  0.0000000000000E+00  0.1983323504470E-01
-0.3124614825787E-01  0.3486265967832E-01  0.0000000000000E+00  0.7735872993043E-02
-0.3256543543983E-01  0.3617334469199E-01  0.0000000000000E+00 -0.7121124439814E-02
-0.3113861599460E-01  0.3474992193413E-01  0.0000000000000E+00 -0.2662934741992E-01
-0.2614269795920E-01  0.2981054592860E-01  0.0000000000000E+00 -0.4772057671670E-01
-0.1830626449016E-01  0.2218829986307E-01  0.0000000000000E+00 -0.6495381625221E-01
-0.8761598647975E-02  0.1302068966452E-01  0.0000000000000E+00 -0.7716933064188E-01
 0.9481197757923E-03  0.3712663616339E-02  0.0000000000000E+00 -0.8402168665772E-01
 0.1028564049479E-01 -0.5294319972834E-02  0.0000000000000E+00 -0.8552437830057E-01
 0.1959265992967E-01 -0.1470111991473E-01  0.0000000000000E+00 -0.8148915220112E-01
 0.2942600669313E-01 -0.2510916252929E-01  0.0000000000000E+00 -0.7852228640312E-01
 0.2197568332108E+00 -0.3434344429584E+00  0.0000000000000E+00  0.2468370489374E+00
 0.1019389410152E+00 -0.1102056624706E+00  0.0000000000000E+00 -0.1851436521048E+00
 0.2091516687176E-01 -0.2165032336858E-01  0.0000000000000E+00 -0.6777333642996E-01
 0.8777158149362E-03  0.2217871180008E-02  0.0000000000000E+00  0.2215517118819E-02
-0.1192131394784E-01  0.1616373379600E-01  0.0000000000000E+00  0.3406491774072E-01
-0.2076163506768E-01  0.2549817091707E-01  0.0000000000000E+00  0.4675398477515E-01
-0.2783570655353E-01  0.3289350043327E-01  0.0000000000000E+00  0.4872767530341E-01
-0.3370231247141E-01  0.3903195441262E-01  0.0000000000000E+00  0.4424707955101E-01
-0.3839778883438E-01  0.4390130799125E-01  0.0000000000000E+00  0.3576546369092E-01
-0.4172175132443E-01  0.4731839733973E-01  0.0000000000000E+00  0.2370389897325E-01
-0.4312136946646E-01  0.4881858540816E-01  0.0000000000000E+00  0.8730622839951E-02
-0.4210004094692E-01  0.4753137109607E-01  0.0000000000000E+00 -0.8070445915688E-02
-0.3754908895087E-01  0.4267016199218E-01  0.0000000000000E+00 -0.3156963565209E-01
-0.2964248218485E-01  0.3475529022339E-01  0.0000000000000E+00 -0.5809565984284E-01
-0.1927772064747E-01  0.2477236779312E-01  0.0000000000000E+00 -0.8092070626627E-01
-0.7419676830247E-02  0.1353445013475E-01  0.0000000000000E+00 -0.9876833784705E-01
 0.4431382785966E-02  0.2406983780366E-02  0.0000000000000E+00 -0.1113564394398E+00
 0.1583839364977E-01 -0.8335944104278E-02  0.0000000000000E+00 -0.1187074506667E+00
 0.2722750752024E-01 -0.1914642650882E-01  0.0000000000000E+00 -0.1201390777354E+00
 0.4341723494004E-01 -0.3650537358261E-01  0.0000000000000E+00 -0.1227178454937E+00
 0.1468895803782E+00 -0.1752522522651E+00  0.0000000000000E+00 -0.4585326035981E+00
 0.1278251166094E+00 -0.1534641417356E+00  0.0000000000000E+00 -0.4387524937288E+00
 0.1101377954936E+00 -0.1339171429072E+00  0.0000000000000E+00 -0.4163095491095E+00
 0.9359297152076E-01 -0.1156163403080E+00  0.0000000000000E+00 -0.3912596716950E+00
 0.7807127518156E-01 -0.9836096772672E-01  0.0000000000000E+00 -0.3636053907110E+00
 0.6373485030441E-01 -0.8226160121181E-01  0.0000000000000E+00 -0.3335594404764E+00
 0.5078609134453E-01 -0.6750583393171E-01  0.0000000000000E+00 -0.3013970422311E+00
 0.3942302393683E-01 -0.5428968450189E-01  0.0000000000000E+00 -0.2674549601940E+00
 0.2981560790800E-01 -0.4278851480969E-01  0.0000000000000E+00 -0.2321296196765E+00
 0.2209582922715E-01 -0.3314336669383E-01  0.0000000000000E+00 -0.1958757662741E+00
 0.1635072319685E-01 -0.2545226034052E-01  0.0000000000000E+00 -0.1591988250149E+00
 0.1261693289184E-01 -0.1976377309285E-01  0.0000000000000E+00 -0.1226410541594E+00
 0.1087691148349E-01 -0.1607266256169E-01  0.0000000000000E+00 -0.8676224250789E-01
 0.1105784806299E-01 -0.1431837616304E-01  0.0000000000000E+00 -0.5211708172217E-01
 0.1303445512989E-01 -0.1438757015312E-01  0.0000000000000E+00 -0.1923312092959E-01
 0.1663656358895E-01 -0.1612148634377E-01  0.0000000000000E+00  0.1140505445807E-01
 0.2166095764038E-01 -0.1932861633608E-01  0.0000000000000E+00  0.3935623886909E-01
 0.2789443583715E-01 -0.2380508271612E-01  0.0000000000000E+00  0.6420107425005E-01
 0.3513192156468E-01 -0.2937469779015E-01  0.0000000000000E+00  0.8542907141252E-01
 0.4357350613443E-01 -0.3613886743167E-01  0.0000000000000E+00  0.1022646874007E+00
 0.1604406306309E+00 -0.1904581268076E+00  0.0000000000000E+00 -0.4894731170911E+00
 0.1422364260438E+00 -0.1702557927027E+00  0.0000000000000E+00 -0.4685418289093E+00
 0.1231646771126E+00 -0.1491743678862E+00  0.0000000000000E+00 -0.4460757494758E+00
 0.1046687310809E+00 -0.1288290752661E+00  0.0000000000000E+00 -0.4221905544928E+00
 0.8725296120461E-01 -0.1095840659104E+00  0.0000000000000E+00 -0.3959995865164E+00
 0.7112983530133E-01 -0.9161361517036E-01  0.0000000000000E+00 -0.3672305848526E+00
 0.5648768160035E-01 -0.7508102706789E-01  0.0000000000000E+00 -0.3358974243094E+00
 0.4351292546192E-01 -0.6016389678058E-01  0.0000000000000E+00 -0.3022091186747E+00
 0.3238926376555E-01 -0.4704565775796E-01  0.0000000000000E+00 -0.2665096858815E+00
 0.2328492683833E-01 -0.3590010267081E-01  0.0000000000000E+00 -0.2292486571572E+00
 0.1633867453655E-01 -0.2687535739911E-01  0.0000000000000E+00 -0.1909617017088E+00
 0.1164614088169E-01 -0.2007899997738E-01  0.0000000000000E+00 -0.1522531972271E+00
 0.9248109575172E-02 -0.1556538256654E-01  0.0000000000000E+00 -0.1137756607149E+00
 0.9122483136934E-02 -0.1332670994589E-01  0.0000000000000E+00 -0.7620406434593E-01
 0.1118230636913E-01 -0.1329009704387E-01  0.0000000000000E+00 -0.4020597806257E-01
 0.1528220297473E-01 -0.1532316115444E-01  0.0000000000000E+00 -0.6412039445425E-02
 0.2123618579556E-01 -0.1925031053658E-01  0.0000000000000E+00  0.2460712593887E-01
 0.2884566237699E-01 -0.2488186812307E-01  0.0000000000000E+00  0.5234922823450E-01
 0.3797753104274E-01 -0.3207098375815E-01  0.0000000000000E+00  0.7639728471638E-01
 0.4860074491215E-01 -0.4076363644539E-01  0.0000000000000E+00  0.9669685620547E-01
 0.1745230340267E+00 -0.2062219059783E+00  0.0000000000000E+00 -0.5164064074265E+00
 0.1562691046613E+00 -0.1862773105354E+00  0.0000000000000E+00 -0.4997234897848E+00
 0.1369574927372E+00 -0.1651632081647E+00  0.0000000000000E+00 -0.4793626240960E+00
 0.1174953393192E+00 -0.1438657739780E+00  0.0000000000000E+00 -0.4567556442747E+00
 0.9864384598011E-01 -0.1231692047980E+00  0.0000000000000E+00 -0.4317946557687E+00
 0.8085365015042E-01 -0.1034925896928E+00  0.0000000000000E+00 -0.4041418705862E+00
 0.6443200366441E-01 -0.8512718442748E-01  0.0000000000000E+00 -0.3736438408389E+00
 0.4963810947181E-01 -0.6832229715826E-01  0.0000000000000E+00 -0.3403416970787E+00
 0.3671287711379E-01 -0.5331633344711E-01  0.0000000000000E+00 -0.3044522274662E+00
 0.2588400883532E-01 -0.4034009628016E-01  0.0000000000000E+00 -0.2663432876646E+00
 0.1735780324237E-01 -0.2960761673002E-01  0.0000000000000E+00 -0.2265150595464E+00
 0.1130498719844E-01 -0.2130111349020E-01  0.0000000000000E+00 -0.1855833073462E+00
 0.7844206595704E-02 -0.1555368288613E-01  0.0000000000000E+00 -0.1442595940868E+00
 0.7026339520920E-02 -0.1243262453407E-01  0.0000000000000E+00 -0.1033235560948E+00
 0.8823333915146E-02 -0.1192697951864E-01  0.0000000000000E+00 -0.6358432163068E-01
 0.1312634861504E-01 -0.1394392156645E-01  0.0000000000000E+00 -0.2583182520228E-01
 0.1975701391266E-01 -0.1831859970833E-01  0.0000000000000E+00  0.9216140435620E-02
 0.2849662642472E-01 -0.2483976875118E-01  0.0000000000000E+00  0.4096537644760E-01
 0.3911035063700E-01 -0.3327761698102E-01  0.0000000000000E+00  0.6901850573055E-01
 0.5132153254346E-01 -0.4337086346221E-01  0.0000000000000E+00  0.9322338728327E-01
 0.1900825135499E+00 -0.2235901911202E+00  0.0000000000000E+00 -0.5421657604004E+00
 0.1712913877887E+00 -0.2033042889900E+00  0.0000000000000E+00 -0.5298970810857E+00
 0.1516723725461E+00 -0.1820484563488E+00  0.0000000000000E+00 -0.5131174857821E+00
 0.1316266720071E+00 -0.1602741882294E+00  0.0000000000000E+00 -0.4930335067072E+00
 0.1117496212176E+00 -0.1385951296745E+00  0.0000000000000E+00 -0.4699953181333E+00
 0.9255820221571E-01 -0.1175287356308E+00  0.0000000000000E+00 -0.4439052253026E+00
 0.7446165188540E-01 -0.9747372799826E-01  0.0000000000000E+00 -0.4146032915128E+00
 0.5780786917059E-01 -0.7877085719820E-01  0.0000000000000E+00 -0.3820337309974E+00
 0.4291770592764E-01 -0.6173757367516E-01  0.0000000000000E+00 -0.3462894685194E+00
 0.3009846437194E-01 -0.4668243773691E-01  0.0000000000000E+00 -0.3076241698617E+00
 0.1964299337040E-01 -0.3390415395642E-01  0.0000000000000E+00 -0.2664531532864E+00
 0.1181843681135E-01 -0.2368023902270E-01  0.0000000000000E+00 -0.2233506033158E+00
 0.6847873929383E-02 -0.1624841895075E-01  0.0000000000000E+00 -0.1790412843817E+00
 0.4887554068240E-02 -0.1178330031890E-01  0.0000000000000E+00 -0.1343812692433E+00
 0.6003452404448E-02 -0.1037170948974E-01  0.0000000000000E+00 -0.9032061155700E-01
 0.1015300785410E-01 -0.1199246789257E-01  0.0000000000000E+00 -0.4784257507022E-01
 0.1718053414764E-01 -0.1650896597512E-01  0.0000000000000E+00 -0.7880941000955E-02
 0.2683054290376E-01 -0.2368132599416E-01  0.0000000000000E+00  0.2877186308020E-01
 0.3877299501159E-01 -0.3319343231262E-01  0.0000000000000E+00  0.6152719389970E-01
 0.5263393091623E-01 -0.4468379519995E-01  0.0000000000000E+00  0.8999201503732E-01
 0.2072214768963E+00 -0.2426453351030E+00  0.0000000000000E+00 -0.5668748385453E+00
 0.1878735700464E+00 -0.2219654703306E+00  0.0000000000000E+00 -0.5587887740115E+00
 0.1678469880603E+00 -0.2004599709617E+00  0.0000000000000E+00 -0.5460883655196E+00
 0.1472886132195E+00 -0.1782990626636E+00  0.0000000000000E+00 -0.5294747988106E+00
 0.1265960127892E+00 -0.1558943191888E+00  0.0000000000000E+00 -0.5092929261451E+00
 0.1062231348065E+00 -0.1337013509910E+00  0.0000000000000E+00 -0.4855596990205E+00
 0.8660152271173E-01 -0.1121473604109E+00  0.0000000000000E+00 -0.4581510776399E+00
 0.6813322084901E-01 -0.9162796730482E-01  0.0000000000000E+00 -0.4269543102897E+00
 0.5120579580524E-01 -0.7252629470903E-01  0.0000000000000E+00 -0.3919528932715E+00
 0.3620417553558E-01 -0.5522604896974E-01  0.0000000000000E+00 -0.3532700316693E+00
 0.2351303768136E-01 -0.4011486854320E-01  0.0000000000000E+00 -0.3111954343475E+00
 0.1350919359032E-01 -0.2757737348612E-01  0.0000000000000E+00 -0.2662048819696E+00
 0.6544027117299E-02 -0.1797818646577E-01  0.0000000000000E+00 -0.2189742646401E+00
 0.2916205022029E-02 -0.1163497028997E-01  0.0000000000000E+00 -0.1703833668674E+00
 0.2835688892778E-02 -0.8782139500621E-02  0.0000000000000E+00 -0.1214993137027E+00
 0.6383235426304E-02 -0.9528656115223E-02  0.0000000000000E+00 -0.7352525678604E-01
 0.1347559447997E-01 -0.1381999782578E-01  0.0000000000000E+00 -0.2770207736897E-01
 0.2385410507650E-01 -0.2142231294906E-01  0.0000000000000E+00  0.1482899342258E-01
 0.3711616954775E-01 -0.3195100428935E-01  0.0000000000000E+00  0.5315643588106E-01
 0.5278629737195E-01 -0.4494494881051E-01  0.0000000000000E+00  0.8664586377320E-01
 0.2258962772243E+00 -0.2633350365556E+00  0.0000000000000E+00 -0.5901325209580E+00
 0.2061851348606E+00 -0.2424496589459E+00  0.0000000000000E+00 -0.5860765424594E+00
 0.1858045531117E+00 -0.2207499571656E+00  0.0000000000000E+00 -0.5776396631980E+00
 0.1648007593111E+00 -0.1982889265111E+00  0.0000000000000E+00 -0.5650701067049E+00
 0.1434294196425E+00 -0.1753267728855E+00  0.0000000000000E+00 -0.5485332546684E+00
 0.1220513315856E+00 -0.1522234396796E+00  0.0000000000000E+00 -0.5280091479639E+00
 0.1010640981944E+00 -0.1293710163537E+00  0.0000000000000E+00 -0.5033517575784E+00
 0.8087755908296E-01 -0.1071719441151E+00  0.0000000000000E+00 -0.4743829045503E+00
 0.6191343019844E-01 -0.8604076035157E-01  0.0000000000000E+00 -0.4409708732365E+00
 0.4461198982490E-01 -0.6641263625403E-01  0.0000000000000E+00 -0.4030879230599E+00
 0.2943622022150E-01 -0.4874880433324E-01  0.0000000000000E+00 -0.3608553689510E+00
 0.1686895361738E-01 -0.3353498499197E-01  0.0000000000000E+00 -0.3145847340575E+00
 0.7400153147550E-02 -0.2127005798165E-01  0.0000000000000E+00 -0.2648184416361E+00
 0.1501207757213E-02 -0.1244189553702E-01  0.0000000000000E+00 -0.2123681359133E+00
-0.4173515382560E-03 -0.7486455844618E-02  0.0000000000000E+00 -0.1583413804076E+00
 0.1932618027541E-02 -0.6726679194422E-02  0.0000000000000E+00 -0.1041367791672E+00
 0.8640450000968E-02 -0.1029313748124E-01  0.0000000000000E+00 -0.5137303640800E-01
 0.1952864525150E-01 -0.1804892810336E-01  0.0000000000000E+00 -0.1717494437542E-02
 0.3414098246881E-01 -0.2956664084603E-01  0.0000000000000E+00  0.4337679225936E-01
 0.5183799852270E-01 -0.4421954529319E-01  0.0000000000000E+00  0.8291112848845E-01
 0.2460293981459E+00 -0.2855690881806E+00  0.0000000000000E+00 -0.6113793467516E+00
 0.2262406902837E+00 -0.2647736529862E+00  0.0000000000000E+00 -0.6112902617517E+00
 0.2056886031170E+00 -0.2430743154563E+00  0.0000000000000E+00 -0.6071882881370E+00
 0.1843887654914E+00 -0.2204832531662E+00  0.0000000000000E+00 -0.5990055216395E+00
 0.1625074837072E+00 -0.1971633001014E+00  0.0000000000000E+00 -0.5866990173762E+00
 0.1403185976961E+00 -0.1733821657689E+00  0.0000000000000E+00 -0.5701373886583E+00
 0.1181608979314E+00 -0.1494696132858E+00  0.0000000000000E+00 -0.5490963846896E+00
 0.9641575152671E-01 -0.1257960013362E+00  0.0000000000000E+00 -0.5233041062957E+00
 0.7550237482317E-01 -0.1027689828564E+00  0.0000000000000E+00 -0.4924970283891E+00
 0.5588242748696E-01 -0.8083942520711E-01  0.0000000000000E+00 -0.4564733357199E+00
 0.3806687830936E-01 -0.6050962647754E-01  0.0000000000000E+00 -0.4151439537727E+00
 0.2262018237523E-01 -0.4233897030495E-01  0.0000000000000E+00 -0.3685864720264E+00
 0.1015759337948E-01 -0.2694313791140E-01  0.0000000000000E+00 -0.3171073680251E+00
 0.1330461703609E-02 -0.1498197647397E-01  0.0000000000000E+00 -0.2613156925744E+00
-0.3208283335508E-02 -0.7128423021605E-02  0.0000000000000E+00 -0.2022064420848E+00
-0.2869992171040E-02 -0.4006623840205E-02  0.0000000000000E+00 -0.1412403398915E+00
 0.2758033729687E-02 -0.6083344948883E-02  0.0000000000000E+00 -0.8038082245873E-01
 0.1375428815393E-01 -0.1350279052233E-01  0.0000000000000E+00 -0.2199065044446E-01
 0.2971354032914E-01 -0.2592029301413E-01  0.0000000000000E+00  0.3152843060173E-01
 0.4974111460208E-01 -0.4246465809448E-01  0.0000000000000E+00  0.7834735837791E-01
 0.2675267961748E+00 -0.3092428838690E+00  0.0000000000000E+00 -0.6300198406461E+00
 0.2479896278079E+00 -0.2888836783115E+00  0.0000000000000E+00 -0.6338572543257E+00
 0.2275417438193E+00 -0.2674796628298E+00  0.0000000000000E+00 -0.6341030718446E+00
 0.2061914013480E+00 -0.2450292375432E+00  0.0000000000000E+00 -0.6304953058957E+00
 0.1840478166844E+00 -0.2216318276798E+00  0.0000000000000E+00 -0.6228196823922E+00
 0.1613114381831E+00 -0.1974764410488E+00  0.0000000000000E+00 -0.6108198731348E+00
 0.1382537287196E+00 -0.1728207840304E+00  0.0000000000000E+00 -0.5941704689417E+00
 0.1152037440548E+00 -0.1479780647618E+00  0.0000000000000E+00 -0.5724906321284E+00
 0.9254553522477E-01 -0.1233150254400E+00  0.0000000000000E+00 -0.5453764154790E+00
 0.7072419179306E-01 -0.9925882145650E-01  0.0000000000000E+00 -0.5124402641866E+00
 0.5025696153239E-01 -0.7630909866967E-01  0.0000000000000E+00 -0.4733556767854E+00
 0.3174618374353E-01 -0.5505215896847E-01  0.0000000000000E+00 -0.4279107991236E+00
 0.1589081231362E-01 -0.3617426050632E-01  0.0000000000000E+00 -0.3760779884038E+00
 0.3492016409356E-02 -0.2047001984552E-01  0.0000000000000E+00 -0.3181085624414E+00
-0.4555284411498E-02 -0.8838506562559E-02  0.0000000000000E+00 -0.2546632856058E+00
-0.7301027429897E-02 -0.2252122466630E-02  0.0000000000000E+00 -0.1869873247193E+00
-0.3839617771444E-02 -0.1668211689632E-02  0.0000000000000E+00 -0.1171233200845E+00
 0.6470127133029E-02 -0.7824251214163E-02  0.0000000000000E+00 -0.4809538098609E-01
 0.2362635663567E-01 -0.2083740488193E-01  0.0000000000000E+00  0.1624639288426E-01
 0.4659899485822E-01 -0.3977817664695E-01  0.0000000000000E+00  0.7212571280007E-01
 0.2902736054682E+00 -0.3342294399979E+00  0.0000000000000E+00 -0.6454376946318E+00
 0.2713422765828E+00 -0.3146826022129E+00  0.0000000000000E+00 -0.6531271443120E+00
 0.2513439238396E+00 -0.2939439477863E+00  0.0000000000000E+00 -0.6576672233512E+00
 0.2302822212337E+00 -0.2720032654139E+00  0.0000000000000E+00 -0.6586965437997E+00
 0.2082253885638E+00 -0.2489145328905E+00  0.0000000000000E+00 -0.6558861953158E+00
 0.1853120074600E+00 -0.2248003481791E+00  0.0000000000000E+00 -0.6488787681633E+00
 0.1617450684254E+00 -0.1998453370040E+00  0.0000000000000E+00 -0.6372576251475E+00
 0.1377869587007E+00 -0.1742909281423E+00  0.0000000000000E+00 -0.6205428049745E+00
 0.1137607073125E+00 -0.1484366890925E+00  0.0000000000000E+00 -0.5982034545466E+00
 0.9005851941710E-01 -0.1226490991176E+00  0.0000000000000E+00 -0.5696796230302E+00
 0.6715696530395E-01 -0.9737708945497E-01  0.0000000000000E+00 -0.5344114997716E+00
 0.4563798632309E-01 -0.7317357415212E-01  0.0000000000000E+00 -0.4918790619650E+00
 0.2621501306308E-01 -0.5072248395581E-01  0.0000000000000E+00 -0.4416596219050E+00
 0.9763072657488E-02 -0.3087062550911E-01  0.0000000000000E+00 -0.3835161336817E+00
-0.2650361025756E-02 -0.1466205280461E-01  0.0000000000000E+00 -0.3175371454518E+00
-0.9743318300877E-02 -0.3367354378375E-02  0.0000000000000E+00 -0.2443622530125E+00
-0.1003357477427E-01  0.1515102221362E-02  0.0000000000000E+00 -0.1655459075855E+00
-0.1963649375420E-02 -0.1648366653162E-02  0.0000000000000E+00 -0.8412988534952E-01
 0.1562428186662E-01 -0.1422621017198E-01  0.0000000000000E+00 -0.5393638394981E-02
 0.4243074751180E-01 -0.3617002720638E-01  0.0000000000000E+00  0.6335506633830E-01
 0.3141108525257E+00 -0.3603500528821E+00  0.0000000000000E+00 -0.6570050102608E+00
 0.2961363813991E+00 -0.3419902757390E+00  0.0000000000000E+00 -0.6683640683844E+00
 0.2769675109818E+00 -0.3223242009996E+00  0.0000000000000E+00 -0.6770280191479E+00
 0.2565982276120E+00 -0.3013303392148E+00  0.0000000000000E+00 -0.6826007094052E+00
 0.2350645892613E+00 -0.2790277537279E+00  0.0000000000000E+00 -0.6846942213659E+00
 0.2124538940226E+00 -0.2554845898943E+00  0.0000000000000E+00 -0.6828910074506E+00
 0.1889057169017E+00 -0.2308184540894E+00  0.0000000000000E+00 -0.6767163933165E+00
 0.1646119765313E+00 -0.2051960207019E+00  0.0000000000000E+00 -0.6656255043756E+00
 0.1398206111608E+00 -0.1788363495610E+00  0.0000000000000E+00 -0.6490009496211E+00
 0.1148450718417E+00 -0.1520200430674E+00  0.0000000000000E+00 -0.6261572174737E+00
 0.9008080439415E-01 -0.1251053416400E+00  0.0000000000000E+00 -0.5963500607882E+00
 0.6602995240242E-01 -0.9855236083197E-01  0.0000000000000E+00 -0.5587923507456E+00
 0.4333631170141E-01 -0.7295752530225E-01  0.0000000000000E+00 -0.5126817753992E+00
 0.2283384098740E-01 -0.4910164214004E-01  0.0000000000000E+00 -0.4572514612116E+00
 0.5613581843295E-02 -0.2801687414776E-01  0.0000000000000E+00 -0.3918647982050E+00
-0.6885003186467E-02 -0.1107981079830E-01  0.0000000000000E+00 -0.3161963264612E+00
-0.1275446872860E-01 -0.1380961962649E-03  0.0000000000000E+00 -0.2305864680501E+00
-0.9487759325768E-02  0.2334075675078E-02  0.0000000000000E+00 -0.1367619788331E+00
 0.6038271678137E-02 -0.6873790652684E-02  0.0000000000000E+00 -0.3942888490497E-01
 0.3644640658735E-01 -0.3098059923424E-01  0.0000000000000E+00  0.5057532233016E-01
 0.3388259313493E+00 -0.3873717238204E+00  0.0000000000000E+00 -0.6641714179573E+00
 0.3221325482895E+00 -0.3705442587173E+00  0.0000000000000E+00 -0.6788581144789E+00
 0.3041642601052E+00 -0.3523482735552E+00  0.0000000000000E+00 -0.6913038563771E+00
 0.2849040072821E+00 -0.3327508559694E+00  0.0000000000000E+00 -0.7011130536590E+00
 0.2643637901802E+00 -0.3117460541279E+00  0.0000000000000E+00 -0.7078816188540E+00
 0.2425924640847E+00 -0.2893621567366E+00  0.0000000000000E+00 -0.7111724801468E+00
 0.2196789939734E+00 -0.2656643442072E+00  0.0000000000000E+00 -0.7104932524207E+00
 0.1957545728406E+00 -0.2407561659644E+00  0.0000000000000E+00 -0.7052801211572E+00
 0.1709967057271E+00 -0.2147829355645E+00  0.0000000000000E+00 -0.6948869018798E+00
 0.1456374397930E+00 -0.1879391370783E+00  0.0000000000000E+00 -0.6785766617160E+00
 0.1199775059498E+00 -0.1604814990943E+00  0.0000000000000E+00 -0.6555137301214E+00
 0.9440852888812E-01 -0.1327497488084E+00  0.0000000000000E+00 -0.6247551877886E+00
 0.6944677161029E-01 -0.1051983114242E+00  0.0000000000000E+00 -0.5852427148264E+00
 0.4578444605319E-01 -0.7844467479933E-01  0.0000000000000E+00 -0.5357985164680E+00
 0.2436935292917E-01 -0.5334467151524E-01  0.0000000000000E+00 -0.4751346353326E+00
 0.6532662175643E-02 -0.3111363537483E-01  0.0000000000000E+00 -0.4018978666325E+00
-0.5796459611934E-02 -0.1353055189286E-01  0.0000000000000E+00 -0.3148052559186E+00
-0.9711160731064E-02 -0.3303178314294E-02  0.0000000000000E+00 -0.2130250900680E+00
-0.5831834118926E-03 -0.4783066900305E-02  0.0000000000000E+00 -0.9726877119604E-01
 0.2924764134675E-01 -0.2550676800743E-01  0.0000000000000E+00  0.2571122243844E-01
 0.3641520522089E+00 -0.4150053211217E+00  0.0000000000000E+00 -0.6664980109004E+00
 0.3490164194341E+00 -0.4000039216475E+00  0.0000000000000E+00 -0.6840077441809E+00
 0.3325741148378E+00 -0.3836260896635E+00  0.0000000000000E+00 -0.6997024600200E+00
 0.3148006445979E+00 -0.3658323170906E+00  0.0000000000000E+00 -0.7132018693810E+00
 0.2956932946961E+00 -0.3466026454387E+00  0.0000000000000E+00 -0.7241086712605E+00
 0.2752773932108E+00 -0.3259424457408E+00  0.0000000000000E+00 -0.7319914627133E+00
 0.2536101952334E+00 -0.3038857125044E+00  0.0000000000000E+00 -0.7363675433824E+00
 0.2307840051253E+00 -0.2804974944661E+00  0.0000000000000E+00 -0.7366879453662E+00
 0.2069304503768E+00 -0.2558773355551E+00  0.0000000000000E+00 -0.7323242044519E+00
 0.1822276070414E+00 -0.2301653449559E+00  0.0000000000000E+00 -0.7225548740118E+00
 0.1569116330864E+00 -0.2035524183350E+00  0.0000000000000E+00 -0.7065491856719E+00
 0.1312950463156E+00 -0.1762965426404E+00  0.0000000000000E+00 -0.6833449445261E+00
 0.1057950721217E+00 -0.1487482778110E+00  0.0000000000000E+00 -0.6518171787423E+00
 0.8097810368649E-01 -0.1213908785609E+00  0.0000000000000E+00 -0.6106328086812E+00
 0.5763149554659E-01 -0.9490517115121E-01  0.0000000000000E+00 -0.5581840786520E+00
 0.3688474582536E-01 -0.7027892696086E-01  0.0000000000000E+00 -0.4924886263856E+00
 0.2042655875677E-01 -0.4900194676182E-01  0.0000000000000E+00 -0.4110341999373E+00
 0.1093167324392E-01 -0.3344464684710E-01  0.0000000000000E+00 -0.3105247624992E+00
 0.1299310119383E-01 -0.2767725431103E-01  0.0000000000000E+00 -0.1864320191769E+00
 0.3620163001779E-01 -0.3992417819191E-01  0.0000000000000E+00 -0.3208427849197E-01
 0.3897781645481E+00 -0.4429157423452E+00  0.0000000000000E+00 -0.6636787388909E+00
 0.3764112096188E+00 -0.4299635672305E+00  0.0000000000000E+00 -0.6833733579139E+00
 0.3617454399507E+00 -0.4156715632913E+00  0.0000000000000E+00 -0.7016171511556E+00
 0.3457527337571E+00 -0.3999986022623E+00  0.0000000000000E+00 -0.7180444773594E+00
 0.3284225735672E+00 -0.3829191737828E+00  0.0000000000000E+00 -0.7322663607424E+00
 0.3097676693380E+00 -0.3644285707937E+00  0.0000000000000E+00 -0.7438572022890E+00
 0.2898283139035E+00 -0.3445467372487E+00  0.0000000000000E+00 -0.7523409495863E+00
 0.2686763826575E+00 -0.3233216655177E+00  0.0000000000000E+00 -0.7571776434699E+00
 0.2464201735843E+00 -0.3008335013400E+00  0.0000000000000E+00 -0.7577497380488E+00
 0.2232112809148E+00 -0.2772004819808E+00  0.0000000000000E+00 -0.7533463585407E+00
 0.1992547343655E+00 -0.2525878335520E+00  0.0000000000000E+00 -0.7431426303573E+00
 0.1748239309165E+00 -0.2272209875234E+00  0.0000000000000E+00 -0.7261699315710E+00
 0.1502826091558E+00 -0.2014050957086E+00  0.0000000000000E+00 -0.7012707125198E+00
 0.1261175230203E+00 -0.1755540299608E+00  0.0000000000000E+00 -0.6670272571975E+00
 0.1029880720427E+00 -0.1502342581222E+00  0.0000000000000E+00 -0.6216451425105E+00
 0.8180408392157E-01 -0.1262330217914E+00  0.0000000000000E+00 -0.5627535849000E+00
 0.6385294349190E-01 -0.1046681427009E+00  0.0000000000000E+00 -0.4870420939136E+00
 0.5101733409585E-01 -0.8717098877293E-01  0.0000000000000E+00 -0.3895346244273E+00
 0.4618468628917E-01 -0.7621160704152E-01  0.0000000000000E+00 -0.2619603501662E+00
 0.5388625015978E-01 -0.7550378595369E-01  0.0000000000000E+00 -0.8747496854739E-01
 0.4153663531970E+00 -0.4707399689660E+00  0.0000000000000E+00 -0.6555527214423E+00
 0.4039030147304E+00 -0.4599786973742E+00  0.0000000000000E+00 -0.6767088413829E+00
 0.3911736624663E+00 -0.4479428558009E+00  0.0000000000000E+00 -0.6966942021849E+00
 0.3771467576242E+00 -0.4345909012640E+00  0.0000000000000E+00 -0.7151487429459E+00
 0.3618049104390E+00 -0.4198939336134E+00  0.0000000000000E+00 -0.7316802688868E+00
 0.3451501171767E+00 -0.4038405953302E+00  0.0000000000000E+00 -0.7458522498236E+00
 0.3272081058836E+00 -0.3864410548467E+00  0.0000000000000E+00 -0.7571705324411E+00
 0.3080323636705E+00 -0.3677306279208E+00  0.0000000000000E+00 -0.7650689570498E+00
 0.2877085171084E+00 -0.3477736866659E+00  0.0000000000000E+00 -0.7688928959668E+00
 0.2663596732673E+00 -0.3266684339788E+00  0.0000000000000E+00 -0.7678786861055E+00
 0.2441532085324E+00 -0.3045529882786E+00  0.0000000000000E+00 -0.7611257410764E+00
 0.2213093578445E+00 -0.2816130739033E+00  0.0000000000000E+00 -0.7475564578093E+00
 0.1981117587463E+00 -0.2580913954726E+00  0.0000000000000E+00 -0.7258562700163E+00
 0.1749196379034E+00 -0.2342982960689E+00  0.0000000000000E+00 -0.6943812618266E+00
 0.1521800577333E+00 -0.2106220352203E+00  0.0000000000000E+00 -0.6510114579272E+00
 0.1304349216917E+00 -0.1875335380563E+00  0.0000000000000E+00 -0.5929096995403E+00
 0.1103066396734E+00 -0.1655702744456E+00  0.0000000000000E+00 -0.5161070637245E+00
 0.9240854410694E-01 -0.1452518669263E+00  0.0000000000000E+00 -0.4147539056588E+00
 0.7699453096440E-01 -0.1267602460572E+00  0.0000000000000E+00 -0.2796338164437E+00
 0.6217669134755E-01 -0.1085667047646E+00  0.0000000000000E+00 -0.9557475151778E-01
 0.4405706375561E+00 -0.4981065269299E+00  0.0000000000000E+00 -0.6420988664166E+00
 0.4310692768413E+00 -0.4895953703841E+00  0.0000000000000E+00 -0.6639597086068E+00
 0.4203449641217E+00 -0.4798874972077E+00  0.0000000000000E+00 -0.6848417945851E+00
 0.4083590354982E+00 -0.4689379540687E+00  0.0000000000000E+00 -0.7043817580323E+00
 0.3950827483320E+00 -0.4567108034453E+00  0.0000000000000E+00 -0.7221728657758E+00
 0.3805017823682E+00 -0.4431834150365E+00  0.0000000000000E+00 -0.7377526744818E+00
 0.3646197643717E+00 -0.4283497993581E+00  0.0000000000000E+00 -0.7505889509800E+00
 0.3474611154000E+00 -0.4122232786179E+00  0.0000000000000E+00 -0.7600634296575E+00
 0.3290734302038E+00 -0.3948387066073E+00  0.0000000000000E+00 -0.7654522753803E+00
 0.3095293823663E+00 -0.3762542414695E+00  0.0000000000000E+00 -0.7659012967790E+00
 0.2889277954352E+00 -0.3565523362993E+00  0.0000000000000E+00 -0.7603929648836E+00
 0.2673929543463E+00 -0.3358390758466E+00  0.0000000000000E+00 -0.7477009569323E+00
 0.2450702458889E+00 -0.3142400668251E+00  0.0000000000000E+00 -0.7263259805539E+00
 0.2221143511344E+00 -0.2918893636450E+00  0.0000000000000E+00 -0.6944036349967E+00
 0.1986623899365E+00 -0.2689044454489E+00  0.0000000000000E+00 -0.6495705706187E+00
 0.1747762844368E+00 -0.2453328989877E+00  0.0000000000000E+00 -0.5887689337767E+00
 0.1503191865023E+00 -0.2210397981185E+00  0.0000000000000E+00 -0.5079640833261E+00
 0.1246875563688E+00 -0.1954657762050E+00  0.0000000000000E+00 -0.4017606944763E+00
 0.9617414938297E-01 -0.1670801060757E+00  0.0000000000000E+00 -0.2630568255135E+00
 0.6081957211337E-01 -0.1323124321616E+00  0.0000000000000E+00 -0.8394239180778E-01
 0.4650523795474E+00 -0.5246514413136E+00  0.0000000000000E+00 -0.6234167769127E+00
 0.4575009842344E+00 -0.5183731375077E+00  0.0000000000000E+00 -0.6452340991063E+00
 0.4487682209437E+00 -0.5109753968806E+00  0.0000000000000E+00 -0.6661864228159E+00
 0.4388021049198E+00 -0.5024040630992E+00  0.0000000000000E+00 -0.6859029188680E+00
 0.4275550748521E+00 -0.4926091241657E+00  0.0000000000000E+00 -0.7039579195258E+00
 0.4149872735361E+00 -0.4815479092306E+00  0.0000000000000E+00 -0.7198585428064E+00
 0.4010685763881E+00 -0.4691870850512E+00  0.0000000000000E+00 -0.7330302222626E+00
 0.3857794270084E+00 -0.4555035205719E+00  0.0000000000000E+00 -0.7427997647449E+00
 0.3691103246800E+00 -0.4404838856213E+00  0.0000000000000E+00 -0.7483750850602E+00
 0.3510594820375E+00 -0.4241225403179E+00  0.0000000000000E+00 -0.7488202722076E+00
 0.3316276793949E+00 -0.4064168082687E+00  0.0000000000000E+00 -0.7430241398634E+00
 0.3108085811319E+00 -0.3873580156056E+00  0.0000000000000E+00 -0.7296599174452E+00
 0.2885715452740E+00 -0.3669155343792E+00  0.0000000000000E+00 -0.7071333465491E+00
 0.2648318580781E+00 -0.3450091469206E+00  0.0000000000000E+00 -0.6735165322628E+00
 0.2393996908852E+00 -0.3214617288985E+00  0.0000000000000E+00 -0.6264665788777E+00
 0.2118925561224E+00 -0.2959184617678E+00  0.0000000000000E+00 -0.5631346781815E+00
 0.1815859453783E+00 -0.2677093444841E+00  0.0000000000000E+00 -0.4800926104276E+00
 0.1471601598728E+00 -0.2356187688156E+00  0.0000000000000E+00 -0.3733698301761E+00
 0.1063444648079E+00 -0.1975451577318E+00  0.0000000000000E+00 -0.2389064100600E+00
 0.5571348035982E-01 -0.1502465012601E+00  0.0000000000000E+00 -0.7383044426644E-01
 0.4884911576391E+00 -0.5500295806818E+00  0.0000000000000E+00 -0.5997043296647E+00
 0.4828172721046E+00 -0.5459002824695E+00  0.0000000000000E+00 -0.6207683302227E+00
 0.4759943129601E+00 -0.5407190493105E+00  0.0000000000000E+00 -0.6410203422956E+00
 0.4679500286870E+00 -0.5344156844479E+00  0.0000000000000E+00 -0.6600837046255E+00
 0.4586100162791E+00 -0.5269181432585E+00  0.0000000000000E+00 -0.6775174616739E+00
 0.4478994551067E+00 -0.5181542876889E+00  0.0000000000000E+00 -0.6928047170495E+00
 0.4357433441681E+00 -0.5080522132198E+00  0.0000000000000E+00 -0.7053389642379E+00
 0.4220651333118E+00 -0.4965390563406E+00  0.0000000000000E+00 -0.7144083605686E+00
 0.4067833856059E+00 -0.4835379492457E+00  0.0000000000000E+00 -0.7191776693681E+00
 0.3898057662840E+00 -0.4689624644325E+00  0.0000000000000E+00 -0.7186674573113E+00
 0.3710191835243E+00 -0.4527074486726E+00  0.0000000000000E+00 -0.7117301667835E+00
 0.3502742471433E+00 -0.4346345278928E+00  0.0000000000000E+00 -0.6970230319574E+00
 0.3273612737132E+00 -0.4145496908651E+00  0.0000000000000E+00 -0.6729787924300E+00
 0.3019737632749E+00 -0.3921691433558E+00  0.0000000000000E+00 -0.6377774773475E+00
 0.2736535870918E+00 -0.3670680620771E+00  0.0000000000000E+00 -0.5893276882816E+00
 0.2417107712668E+00 -0.3386054568986E+00  0.0000000000000E+00 -0.5252769815485E+00
 0.2051118725111E+00 -0.3058192663483E+00  0.0000000000000E+00 -0.4430940004175E+00
 0.1623489102307E+00 -0.2672987036991E+00  0.0000000000000E+00 -0.3403098112551E+00
 0.1113597663732E+00 -0.2210933014627E+00  0.0000000000000E+00 -0.2150170088027E+00
 0.4961125790292E-01 -0.1647774191911E+00  0.0000000000000E+00 -0.6654801155517E-01
 0.5105917574467E+00 -0.5739220845741E+00  0.0000000000000E+00 -0.5712368046170E+00
 0.5066739742966E+00 -0.5718029570020E+00  0.0000000000000E+00 -0.5908958724521E+00
 0.5016261429256E+00 -0.5686843420493E+00  0.0000000000000E+00 -0.6097557739918E+00
 0.4953495471127E+00 -0.5644736544880E+00  0.0000000000000E+00 -0.6274408209109E+00
 0.4877362122087E+00 -0.5590698513439E+00  0.0000000000000E+00 -0.6435052260596E+00
 0.4786690212724E+00 -0.5523636396898E+00  0.0000000000000E+00 -0.6574230632057E+00
 0.4680202518521E+00 -0.5442361761141E+00  0.0000000000000E+00 -0.6685766179860E+00
 0.4556483598787E+00 -0.5345561035813E+00  0.0000000000000E+00 -0.6762435437548E+00
 0.4413926115906E+00 -0.5231745529972E+00  0.0000000000000E+00 -0.6795832001303E+00
 0.4250648925088E+00 -0.5099174769613E+00  0.0000000000000E+00 -0.6776226855943E+00
 0.4064377009331E+00 -0.4945743775369E+00  0.0000000000000E+00 -0.6692434770413E+00
 0.3852269639411E+00 -0.4768821371463E+00  0.0000000000000E+00 -0.6531704267788E+00
 0.3610679410530E+00 -0.4565023001283E+00  0.0000000000000E+00 -0.6279664365534E+00
 0.3334822592107E+00 -0.4329899206104E+00  0.0000000000000E+00 -0.5920389382013E+00
 0.3018345400815E+00 -0.4057523969022E+00  0.0000000000000E+00 -0.5436691444884E+00
 0.2652792615391E+00 -0.3739986069099E+00  0.0000000000000E+00 -0.4810826029668E+00
 0.2227057354193E+00 -0.3366847088658E+00  0.0000000000000E+00 -0.4025891972732E+00
 0.1727052082100E+00 -0.2924779128488E+00  0.0000000000000E+00 -0.3068181083349E+00
 0.1135989113457E+00 -0.2397767851786E+00  0.0000000000000E+00 -0.1930254854766E+00
 0.4355820504440E-01 -0.1768212615534E+00  0.0000000000000E+00 -0.6138270236130E-01
 0.5310881440136E+00 -0.5960407276769E+00  0.0000000000000E+00 -0.5383484332609E+00
 0.5287676283470E+00 -0.5957497138736E+00  0.0000000000000E+00 -0.5560209605066E+00
 0.5253220693749E+00 -0.5944946823222E+00  0.0000000000000E+00 -0.5728870806093E+00
 0.5206218866058E+00 -0.5921559007968E+00  0.0000000000000E+00 -0.5885826148269E+00
 0.5145212630649E+00 -0.5885985940720E+00  0.0000000000000E+00 -0.6026719657137E+00
 0.5068567731568E+00 -0.5836716938746E+00  0.0000000000000E+00 -0.6146403583428E+00
 0.4974445657167E+00 -0.5772052112689E+00  0.0000000000000E+00 -0.6238849836816E+00
 0.4860759683003E+00 -0.5690061068308E+00  0.0000000000000E+00 -0.6297059125090E+00
 0.4725112019305E+00 -0.5588523605030E+00  0.0000000000000E+00 -0.6312977012863E+00
 0.4564707452340E+00 -0.5464848021422E+00  0.0000000000000E+00 -0.6277428560888E+00
 0.4376237619316E+00 -0.5315961394063E+00  0.0000000000000E+00 -0.6180088486598E+00
 0.4155729478410E+00 -0.5138165552938E+00  0.0000000000000E+00 -0.6009512608119E+00
 0.3898352768552E+00 -0.4926953456972E+00  0.0000000000000E+00 -0.5753269909568E+00
 0.3598186667243E+00 -0.4676785389312E+00  0.0000000000000E+00 -0.5398233936182E+00
 0.3247959767729E+00 -0.4380836897936E+00  0.0000000000000E+00 -0.4931115885567E+00
 0.2838807713437E+00 -0.4030757490888E+00  0.0000000000000E+00 -0.4339339618294E+00
 0.2360144309121E+00 -0.3616528166283E+00  0.0000000000000E+00 -0.3612329653487E+00
 0.1799789547848E+00 -0.3126557980868E+00  0.0000000000000E+00 -0.2743130588786E+00
 0.1144471011909E+00 -0.2548146604117E+00  0.0000000000000E+00 -0.1730009142550E+00
 0.3807351401849E-01 -0.1868335687281E+00  0.0000000000000E+00 -0.5773484402856E-01
 0.5497451021548E+00 -0.6161299018834E+00  0.0000000000000E+00 -0.5014161692436E+00
 0.5488361080949E+00 -0.6174525948656E+00  0.0000000000000E+00 -0.5165964337447E+00
 0.5467946834384E+00 -0.6178303458468E+00  0.0000000000000E+00 -0.5309604418465E+00
 0.5434584086774E+00 -0.6171138047875E+00  0.0000000000000E+00 -0.5441679449769E+00
 0.5386423997812E+00 -0.6151326163750E+00  0.0000000000000E+00 -0.5558107421772E+00
 0.5321366229807E+00 -0.6116928630822E+00  0.0000000000000E+00 -0.5654073830313E+00
 0.5237021834380E+00 -0.6065735440933E+00  0.0000000000000E+00 -0.5723972191330E+00
 0.5130664791942E+00 -0.5995219576818E+00  0.0000000000000E+00 -0.5761350661094E+00
 0.4999170469710E+00 -0.5902478250769E+00  0.0000000000000E+00 -0.5758876597941E+00
 0.4838939250640E+00 -0.5784159830482E+00  0.0000000000000E+00 -0.5708333530589E+00
 0.4645803955369E+00 -0.5636375026720E+00  0.0000000000000E+00 -0.5600669528469E+00
 0.4414921208431E+00 -0.5454592264857E+00  0.0000000000000E+00 -0.5426122204367E+00
 0.4140650632396E+00 -0.5233520536871E+00  0.0000000000000E+00 -0.5174452932421E+00
 0.3816433246633E+00 -0.4966989920411E+00  0.0000000000000E+00 -0.4835329308994E+00
 0.3434693579717E+00 -0.4647852150708E+00  0.0000000000000E+00 -0.4398894965095E+00
 0.2986808775943E+00 -0.4267941841876E+00  0.0000000000000E+00 -0.3856546521472E+00
 0.2463204475071E+00 -0.3818156638190E+00  0.0000000000000E+00 -0.3201879545149E+00
 0.1853630073172E+00 -0.3288711982878E+00  0.0000000000000E+00 -0.2431668521766E+00
 0.1147622880866E+00 -0.2669583599062E+00  0.0000000000000E+00 -0.1546652206208E+00
 0.3349866903044E-01 -0.1951021326541E+00  0.0000000000000E+00 -0.5518704557755E-01
 0.5663583766132E+00 -0.6339670486184E+00  0.0000000000000E+00 -0.4608468641712E+00
 0.5666571291461E+00 -0.6366660012128E+00  0.0000000000000E+00 -0.4731072577817E+00
 0.5658065562918E+00 -0.6384247205604E+00  0.0000000000000E+00 -0.4845518634222E+00
 0.5636123155948E+00 -0.6390645668667E+00  0.0000000000000E+00 -0.4948769561072E+00
 0.5598523776758E+00 -0.6383807736183E+00  0.0000000000000E+00 -0.5037190778556E+00
 0.5542733105810E+00 -0.6361389229734E+00  0.0000000000000E+00 -0.5106515861920E+00
 0.5465861641170E+00 -0.6320709830783E+00  0.0000000000000E+00 -0.5151812372549E+00
 0.5364617588010E+00 -0.6258707633849E+00  0.0000000000000E+00 -0.5167458963675E+00
 0.5235253910229E+00 -0.6171887910625E+00  0.0000000000000E+00 -0.5147145368605E+00
 0.5073510492695E+00 -0.6056266939426E+00  0.0000000000000E+00 -0.5083909067369E+00
 0.4874553689661E+00 -0.5907312958811E+00  0.0000000000000E+00 -0.4970225331296E+00
 0.4632917780620E+00 -0.5719888383988E+00  0.0000000000000E+00 -0.4798170167199E+00
 0.4342456598808E+00 -0.5488200926406E+00  0.0000000000000E+00 -0.4559676946446E+00
 0.3996319260846E+00 -0.5205776628063E+00  0.0000000000000E+00 -0.4246904457122E+00
 0.3586971079666E+00 -0.4865474848944E+00  0.0000000000000E+00 -0.3852722081650E+00
 0.3106286595982E+00 -0.4459571503161E+00  0.0000000000000E+00 -0.3371291354794E+00
 0.2545739691199E+00 -0.3979936276593E+00  0.0000000000000E+00 -0.2798682628898E+00
 0.1896700398716E+00 -0.3418315154124E+00  0.0000000000000E+00 -0.2133427242745E+00
 0.1150808827712E+00 -0.2766696782976E+00  0.0000000000000E+00 -0.1376901469825E+00
 0.3003883776393E-01 -0.2017706285477E+00  0.0000000000000E+00 -0.5336202118982E-01
 0.5807534531647E+00 -0.6493618010913E+00  0.0000000000000E+00 -0.4170690792098E+00
 0.5820444752578E+00 -0.6531836016189E+00  0.0000000000000E+00 -0.4260604890297E+00
 0.5821629249926E+00 -0.6560581830285E+00  0.0000000000000E+00 -0.4342531268659E+00
 0.5808863593071E+00 -0.6577806056678E+00  0.0000000000000E+00 -0.4413918224666E+00
 0.5779602132300E+00 -0.6581155085646E+00  0.0000000000000E+00 -0.4471733673172E+00
 0.5730937463689E+00 -0.6567931716885E+00  0.0000000000000E+00 -0.4512444371619E+00
 0.5659558799615E+00 -0.6535054703435E+00  0.0000000000000E+00 -0.4532000913069E+00
 0.5561709660051E+00 -0.6479017393603E+00  0.0000000000000E+00 -0.4525835105461E+00
 0.5433146582534E+00 -0.6395847110723E+00  0.0000000000000E+00 -0.4488878959498E+00
 0.5269101973768E+00 -0.6281068198593E+00  0.0000000000000E+00 -0.4415616128419E+00
 0.5064255743287E+00 -0.6129673107638E+00  0.0000000000000E+00 -0.4300178046920E+00
 0.4812722296377E+00 -0.5936107741699E+00  0.0000000000000E+00 -0.4136497339796E+00
 0.4508061827443E+00 -0.5694279575911E+00  0.0000000000000E+00 -0.3918528903204E+00
 0.4143327294600E+00 -0.5397599509601E+00  0.0000000000000E+00 -0.3640542382601E+00
 0.3711159868382E+00 -0.5039070038792E+00  0.0000000000000E+00 -0.3297476586556E+00
 0.3203943931199E+00 -0.4611431132445E+00  0.0000000000000E+00 -0.2885326750920E+00
 0.2614025943487E+00 -0.4107368924573E+00  0.0000000000000E+00 -0.2401514936202E+00
 0.1933988956739E+00 -0.3519780676502E+00  0.0000000000000E+00 -0.1845183276334E+00
 0.1156968152107E+00 -0.2842078605132E+00  0.0000000000000E+00 -0.1217373387730E+00
 0.2770282356123E-01 -0.2068543939496E+00  0.0000000000000E+00 -0.5210661510932E-01
 0.5927825284526E+00 -0.6621533234209E+00  0.0000000000000E+00 -0.3705296060512E+00
 0.5948418373174E+00 -0.6668332739452E+00  0.0000000000000E+00 -0.3759816503390E+00
 0.5957026238965E+00 -0.6705504308964E+00  0.0000000000000E+00 -0.3806701382358E+00
 0.5951198179802E+00 -0.6730782999110E+00  0.0000000000000E+00 -0.3843990897283E+00
 0.5928129915631E+00 -0.6741567751299E+00  0.0000000000000E+00 -0.3869380271287E+00
 0.5884622679546E+00 -0.6734881344578E+00  0.0000000000000E+00 -0.3880212921086E+00
 0.5817043298155E+00 -0.6707331180284E+00  0.0000000000000E+00 -0.3873478607314E+00
 0.5721287354978E+00 -0.6655072834241E+00  0.0000000000000E+00 -0.3845821003647E+00
 0.5592748662167E+00 -0.6573779405359E+00  0.0000000000000E+00 -0.3793560337484E+00
 0.5426299597543E+00 -0.6458621008229E+00  0.0000000000000E+00 -0.3712737890771E+00
 0.5216288224157E+00 -0.6304260070585E+00  0.0000000000000E+00 -0.3599189647745E+00
 0.4956559333107E+00 -0.6104869312996E+00  0.0000000000000E+00 -0.3448655759479E+00
 0.4640507331278E+00 -0.5854180124340E+00  0.0000000000000E+00 -0.3256929875103E+00
 0.4261168615526E+00 -0.5545568926872E+00  0.0000000000000E+00 -0.3020046828172E+00
 0.3811358855280E+00 -0.5172187195239E+00  0.0000000000000E+00 -0.2734498316909E+00
 0.3283855746650E+00 -0.4727136257524E+00  0.0000000000000E+00 -0.2397455407880E+00
 0.2671620475688E+00 -0.4203680980046E+00  0.0000000000000E+00 -0.2006967296082E+00
 0.1968044364079E+00 -0.3595489070139E+00  0.0000000000000E+00 -0.1562102988375E+00
 0.1167207104655E+00 -0.2896882126168E+00  0.0000000000000E+00 -0.1062998830961E+00
 0.2641262781722E-01 -0.2103084766359E+00  0.0000000000000E+00 -0.5107339285235E-01
 0.6023242872858E+00 -0.6722101176183E+00  0.0000000000000E+00 -0.3216856718456E+00
 0.6049220085172E+00 -0.6774756726121E+00  0.0000000000000E+00 -0.3234023511524E+00
 0.6062958150570E+00 -0.6817572488093E+00  0.0000000000000E+00 -0.3244080587980E+00
 0.6061845720552E+00 -0.6848126316990E+00  0.0000000000000E+00 -0.3245737246442E+00
 0.6042900203244E+00 -0.6863642101073E+00  0.0000000000000E+00 -0.3237503808861E+00
 0.6002727158440E+00 -0.6860949873983E+00  0.0000000000000E+00 -0.3217697357097E+00
 0.5937482140830E+00 -0.6836448119043E+00  0.0000000000000E+00 -0.3184448959468E+00
 0.5842837698325E+00 -0.6786070836372E+00  0.0000000000000E+00 -0.3135713958929E+00
 0.5713959582875E+00 -0.6705263240996E+00  0.0000000000000E+00 -0.3069287196509E+00
 0.5545497531984E+00 -0.6588971231395E+00  0.0000000000000E+00 -0.2982825508525E+00
 0.5331597110770E+00 -0.6431650893159E+00  0.0000000000000E+00 -0.2873880078233E+00
 0.5065939795760E+00 -0.6227305024996E+00  0.0000000000000E+00 -0.2739940946276E+00
 0.4741818277168E+00 -0.5969553575443E+00  0.0000000000000E+00 -0.2578494971360E+00
 0.4352252225766E+00 -0.5651743348699E+00  0.0000000000000E+00 -0.2387096626804E+00
 0.3890145918316E+00 -0.5267098758870E+00  0.0000000000000E+00 -0.2163448285573E+00
 0.3348483022404E+00 -0.4808909608946E+00  0.0000000000000E+00 -0.1905483412149E+00
 0.2720546521246E+00 -0.4270744654645E+00  0.0000000000000E+00 -0.1611442786876E+00
 0.2000145318775E+00 -0.3646673344723E+00  0.0000000000000E+00 -0.1279929034113E+00
 0.1181822730503E+00 -0.2931472850682E+00  0.0000000000000E+00 -0.9099138458019E-01
 0.2610109551662E-01 -0.2120786594987E+00  0.0000000000000E+00 -0.5006687166744E-01
 0.6092822727187E+00 -0.6794284552779E+00  0.0000000000000E+00 -0.2710034231544E+00
 0.6121843626649E+00 -0.6850016872503E+00  0.0000000000000E+00 -0.2688591085132E+00
 0.6138399177712E+00 -0.6895662522644E+00  0.0000000000000E+00 -0.2660708720421E+00
 0.6139790542487E+00 -0.6928708024130E+00  0.0000000000000E+00 -0.2625806633932E+00
 0.6122945248041E+00 -0.6946282916961E+00  0.0000000000000E+00 -0.2583255533945E+00
 0.6084377024474E+00 -0.6945120257625E+00  0.0000000000000E+00 -0.2532394300568E+00
 0.6020148242201E+00 -0.6921519494865E+00  0.0000000000000E+00 -0.2472544339827E+00
 0.5925837555589E+00 -0.6871314189435E+00  0.0000000000000E+00 -0.2403019422227E+00
 0.5796516913304E+00 -0.6789848572769E+00  0.0000000000000E+00 -0.2323128699789E+00
 0.5626743502039E+00 -0.6671968316175E+00  0.0000000000000E+00 -0.2232170710432E+00
 0.5410573303485E+00 -0.6512031981649E+00  0.0000000000000E+00 -0.2129416478588E+00
 0.5141603578829E+00 -0.6303950279998E+00  0.0000000000000E+00 -0.2014080405430E+00
 0.4813051355085E+00 -0.6041260101614E+00  0.0000000000000E+00 -0.1885278909242E+00
 0.4417873270416E+00 -0.5717238730949E+00  0.0000000000000E+00 -0.1741979211006E+00
 0.3948928279405E+00 -0.5325060059188E+00  0.0000000000000E+00 -0.1582944429064E+00
 0.3399178394312E+00 -0.4857988588152E+00  0.0000000000000E+00 -0.1406685454345E+00
 0.2761914296170E+00 -0.4309598998519E+00  0.0000000000000E+00 -0.1211432541294E+00
 0.2030983426056E+00 -0.3674000147257E+00  0.0000000000000E+00 -0.9951367222754E-01
 0.1200989771902E+00 -0.2946033859310E+00  0.0000000000000E+00 -0.7555040924555E-01
 0.2674316348148E-01 -0.2121414607284E+00  0.0000000000000E+00 -0.4900639014266E-01
 0.6135833029111E+00 -0.6837308742707E+00  0.0000000000000E+00 -0.2189587591176E+00
 0.6165522618411E+00 -0.6893299734647E+00  0.0000000000000E+00 -0.2128963371165E+00
 0.6182557484977E+00 -0.6938931522270E+00  0.0000000000000E+00 -0.2062671706037E+00
 0.6184227685918E+00 -0.6971668592526E+00  0.0000000000000E+00 -0.1990844890553E+00
 0.6167462515888E+00 -0.6988630238118E+00  0.0000000000000E+00 -0.1913714397342E+00
 0.6128790932389E+00 -0.6986551730779E+00  0.0000000000000E+00 -0.1831638760651E+00
 0.6064303314670E+00 -0.6961746691071E+00  0.0000000000000E+00 -0.1745126127539E+00
 0.5969616170169E+00 -0.6910072177658E+00  0.0000000000000E+00 -0.1654845568764E+00
 0.5839843438316E+00 -0.6826900025934E+00  0.0000000000000E+00 -0.1561620308957E+00
 0.5669579662402E+00 -0.6707099553357E+00  0.0000000000000E+00 -0.1466396077392E+00
 0.5452901579571E+00 -0.6545037987149E+00  0.0000000000000E+00 -0.1370178151873E+00
 0.5183395707727E+00 -0.6334605958065E+00  0.0000000000000E+00 -0.1273931716465E+00
 0.4854220159472E+00 -0.6069276038355E+00  0.0000000000000E+00 -0.1178442901937E+00
 0.4458208688823E+00 -0.5742202129575E+00  0.0000000000000E+00 -0.1084143681007E+00
 0.3988022951912E+00 -0.5346365650510E+00  0.0000000000000E+00 -0.9909135991044E-01
 0.3436353860578E+00 -0.4874769754866E+00  0.0000000000000E+00 -0.8978844847097E-01
 0.2796163703385E+00 -0.4320674128033E+00  0.0000000000000E+00 -0.8032869879373E-01
 0.2060947814109E+00 -0.3677850533029E+00  0.0000000000000E+00 -0.7043837754512E-01
 0.1224981832855E+00 -0.2940826387324E+00  0.0000000000000E+00 -0.5975273449768E-01
 0.2835151166680E-01 -0.2105077510622E+00  0.0000000000000E+00 -0.4783588909099E-01
 0.6151767327468E+00 -0.6850655194785E+00  0.0000000000000E+00 -0.1660393627125E+00
 0.6179716991447E+00 -0.6904056814912E+00  0.0000000000000E+00 -0.1560708829403E+00
 0.6194854088858E+00 -0.6946797510226E+00  0.0000000000000E+00 -0.1456180420830E+00
 0.6194532721039E+00 -0.6976388023653E+00  0.0000000000000E+00 -0.1347618049010E+00
 0.6175773639510E+00 -0.6990019737524E+00  0.0000000000000E+00 -0.1236069270417E+00
 0.6135226472905E+00 -0.6984527822825E+00  0.0000000000000E+00 -0.1122858962658E+00
 0.6069130468174E+00 -0.6956352900465E+00  0.0000000000000E+00 -0.1009624603169E+00
 0.5973273453078E+00 -0.6901500896350E+00  0.0000000000000E+00 -0.8983363158868E-01
 0.5842951724039E+00 -0.6815503760316E+00  0.0000000000000E+00 -0.7912898447732E-01
 0.5672935455243E+00 -0.6693385577684E+00  0.0000000000000E+00 -0.6910611867999E-01
 0.5457445561359E+00 -0.6529639853921E+00  0.0000000000000E+00 -0.6004119239083E-01
 0.5190149421114E+00 -0.6318225108583E+00  0.0000000000000E+00 -0.5221346617008E-01
 0.4864184903807E+00 -0.6052587790300E+00  0.0000000000000E+00 -0.4588300038892E-01
 0.4472224685321E+00 -0.5725723894366E+00  0.0000000000000E+00 -0.4126126368728E-01
 0.4006594930442E+00 -0.5330292705942E+00  0.0000000000000E+00 -0.3847573685644E-01
 0.3459461800447E+00 -0.4858795668666E+00  0.0000000000000E+00 -0.3753182342564E-01
 0.2823092196227E+00 -0.4303827159347E+00  0.0000000000000E+00 -0.3827832573621E-01
 0.2090178805706E+00 -0.3658388628109E+00  0.0000000000000E+00 -0.4038537211639E-01
 0.1254195296456E+00 -0.2916234607391E+00  0.0000000000000E+00 -0.4334421090710E-01
 0.3097251696117E-01 -0.2072196374269E+00  0.0000000000000E+00 -0.4649480159406E-01
 0.6140345256970E+00 -0.6834062469495E+00  0.0000000000000E+00 -0.1127476103858E+00
 0.6164111225789E+00 -0.6882003444346E+00  0.0000000000000E+00 -0.9895747048020E-01
 0.6174919134920E+00 -0.6918936720013E+00  0.0000000000000E+00 -0.8476594981784E-01
 0.6170255995200E+00 -0.6942481642142E+00  0.0000000000000E+00 -0.7031483300905E-01
 0.6147315723199E+00 -0.6949976266746E+00  0.0000000000000E+00 -0.5578169476283E-01
 0.6102966853638E+00 -0.6938446226355E+00  0.0000000000000E+00 -0.4138513302566E-01
 0.6033713892061E+00 -0.6904567330963E+00  0.0000000000000E+00 -0.2739041240848E-01
 0.5935649349168E+00 -0.6844619018232E+00  0.0000000000000E+00 -0.1411356943638E-01
 0.5804398436204E+00 -0.6754430780843E+00  0.0000000000000E+00 -0.1922220521581E-02
 0.5635060308121E+00 -0.6629325529115E+00  0.0000000000000E+00  0.8768400549996E-02
 0.5422150430363E+00 -0.6464064434881E+00  0.0000000000000E+00  0.1750561205331E-01
 0.5159549865869E+00 -0.6252798839592E+00  0.0000000000000E+00  0.2381727615470E-01
 0.4840470285923E+00 -0.5989037539511E+00  0.0000000000000E+00  0.2723942094117E-01
 0.4457449106942E+00 -0.5665642928514E+00  0.0000000000000E+00  0.2735517452373E-01
 0.4002397518982E+00 -0.5274877230718E+00  0.0000000000000E+00  0.2384572936435E-01
 0.3466733037576E+00 -0.4808528663956E+00  0.0000000000000E+00  0.1655146365642E-01
 0.2841631713329E+00 -0.4258151047483E+00  0.0000000000000E+00  0.5536563108888E-02
 0.2118422101691E+00 -0.3615439813710E+00  0.0000000000000E+00 -0.8856163451151E-02
 0.1289105398847E+00 -0.2872732147659E+00  0.0000000000000E+00 -0.2597894618620E-01
 0.3469278639914E-01 -0.2023564668619E+00  0.0000000000000E+00 -0.4489916791462E-01
 0.6101521738889E+00 -0.6787535640688E+00  0.0000000000000E+00 -0.5960336056833E-01
 0.6118625823217E+00 -0.6827130825472E+00  0.0000000000000E+00 -0.4215329199335E-01
 0.6122608253303E+00 -0.6855301168907E+00  0.0000000000000E+00 -0.2438213456716E-01
 0.6111145262927E+00 -0.6869824807671E+00  0.0000000000000E+00 -0.6483203429413E-02
 0.6081669882887E+00 -0.6868245616217E+00  0.0000000000000E+00  0.1130584105553E-01
 0.6031353656552E+00 -0.6847856385611E+00  0.0000000000000E+00  0.2869606982686E-01
 0.5957072675240E+00 -0.6805666185973E+00  0.0000000000000E+00  0.4533812590118E-01
 0.5855353104368E+00 -0.6738347578727E+00  0.0000000000000E+00  0.6081438878304E-01
 0.5722299408045E+00 -0.6642167255952E+00  0.0000000000000E+00  0.7463484238330E-01
 0.5553509224297E+00 -0.6512904376822E+00  0.0000000000000E+00  0.8623814589691E-01
 0.5343977225122E+00 -0.6345759069703E+00  0.0000000000000E+00  0.9499930336008E-01
 0.5087989660733E+00 -0.6135252815958E+00  0.0000000000000E+00  0.1002458626565E+00
 0.4779013613181E+00 -0.5875124494697E+00  0.0000000000000E+00  0.1012854708772E+00
 0.4409591999302E+00 -0.5558232332787E+00  0.0000000000000E+00  0.9744858091720E-01
 0.3971269187264E+00 -0.5176484777673E+00  0.0000000000000E+00  0.8815064684622E-01
 0.3454595160736E+00 -0.4720844328469E+00  0.0000000000000E+00  0.7297709241506E-01
 0.2849282973772E+00 -0.4181474607076E+00  0.0000000000000E+00  0.5178916278177E-01
 0.2144609153729E+00 -0.3548115250468E+00  0.0000000000000E+00  0.2483767726570E-01
 0.1330113549475E+00 -0.2810744853141E+00  0.0000000000000E+00 -0.7145100136548E-02
 0.3965528104850E-01 -0.1960494949081E+00  0.0000000000000E+00 -0.4291743218779E-01
 0.6035502781218E+00 -0.6711362179515E+00  0.0000000000000E+00 -0.7146967903651E-02
 0.6043439713847E+00 -0.6739729225708E+00  0.0000000000000E+00  0.1371824967599E-01
 0.6038038213606E+00 -0.6756156225620E+00  0.0000000000000E+00  0.3482754332259E-01
 0.6017197084784E+00 -0.6758607441714E+00  0.0000000000000E+00  0.5594599197171E-01
 0.5978628251092E+00 -0.6744866193047E+00  0.0000000000000E+00  0.7679216703618E-01
 0.5919868422135E+00 -0.6712547911225E+00  0.0000000000000E+00  0.9702788399641E-01
 0.5838254708709E+00 -0.6659076592769E+00  0.0000000000000E+00  0.1162431665495E+00
 0.5730863813291E+00 -0.6581625198716E+00  0.0000000000000E+00  0.1339428929479E+00
 0.5594424639394E+00 -0.6477030843135E+00  0.0000000000000E+00  0.1495378499696E+00
 0.5425210171828E+00 -0.6341690961136E+00  0.0000000000000E+00  0.1623409210827E+00
 0.5218907754040E+00 -0.6171439935733E+00  0.0000000000000E+00  0.1715689953626E+00
 0.4970462330371E+00 -0.5961401081971E+00  0.0000000000000E+00  0.1763521810500E+00
 0.4673886373387E+00 -0.5705808108866E+00  0.0000000000000E+00  0.1757536323457E+00
 0.4322034591952E+00 -0.5397794326245E+00  0.0000000000000E+00  0.1688056657861E+00
 0.3906354931678E+00 -0.5029160306675E+00  0.0000000000000E+00  0.1545708706052E+00
 0.3416657566094E+00 -0.4590158465158E+00  0.0000000000000E+00  0.1322401567406E+00
 0.2841006449953E+00 -0.4069388093879E+00  0.0000000000000E+00  0.1012802590225E+00
 0.2165916365412E+00 -0.3453973206468E+00  0.0000000000000E+00  0.6163175305658E-01
 0.1377089732243E+00 -0.2730239493109E+00  0.0000000000000E+00  0.1393006995334E-01
 0.4608259970979E-01 -0.1885040475501E+00  0.0000000000000E+00 -0.4032560458983E-01
 0.5942766026480E+00 -0.6606132324899E+00  0.0000000000000E+00  0.4406072330580E-01
 0.5939026323234E+00 -0.6620425902138E+00  0.0000000000000E+00  0.6801006676800E-01
 0.5921648899098E+00 -0.6622146104174E+00  0.0000000000000E+00  0.9212466013555E-01
 0.5888745349569E+00 -0.6609427586801E+00  0.0000000000000E+00  0.1161368754063E+00
 0.5838308211890E+00 -0.6580289859652E+00  0.0000000000000E+00  0.1397417998534E+00
 0.5768273966500E+00 -0.6532700913619E+00  0.0000000000000E+00  0.1625782643644E+00
 0.5676506953643E+00 -0.6464559484051E+00  0.0000000000000E+00  0.1842041818239E+00
 0.5560727864989E+00 -0.6373623457642E+00  0.0000000000000E+00  0.2040764816719E+00
 0.5418412615052E+00 -0.6257410618018E+00  0.0000000000000E+00  0.2215371663988E+00
 0.5246671056796E+00 -0.6113081651999E+00  0.0000000000000E+00  0.2358039769691E+00
 0.5042100171798E+00 -0.5937300194698E+00  0.0000000000000E+00  0.2459643099162E+00
 0.4800596548674E+00 -0.5726055449434E+00  0.0000000000000E+00  0.2509726229541E+00
 0.4517107127082E+00 -0.5474427498496E+00  0.0000000000000E+00  0.2496538995900E+00
 0.4185294283765E+00 -0.5176273231755E+00  0.0000000000000E+00  0.2407190336756E+00
 0.3797093316293E+00 -0.4823813244145E+00  0.0000000000000E+00  0.2228031728698E+00
 0.3342157090118E+00 -0.4407115804965E+00  0.0000000000000E+00  0.1945465918024E+00
 0.2807240588628E+00 -0.3913527473246E+00  0.0000000000000E+00  0.1547511650555E+00
 0.2175766653751E+00 -0.3327253453113E+00  0.0000000000000E+00  0.1026569820375E+00
 0.1428052732406E+00 -0.2629546821855E+00  0.0000000000000E+00  0.3835335135579E-01
 0.5428521415491E-01 -0.1800087210025E+00  0.0000000000000E+00 -0.3674179308753E-01
 0.5824083344816E+00 -0.6472762466030E+00  0.0000000000000E+00  0.9344583729219E-01
 0.5806211771986E+00 -0.6470247731567E+00  0.0000000000000E+00  0.1200661350983E+00
 0.5774301727700E+00 -0.6454399069902E+00  0.0000000000000E+00  0.1467538355116E+00
 0.5726591693065E+00 -0.6423428806581E+00  0.0000000000000E+00  0.1732184635284E+00
 0.5661314409255E+00 -0.6375551817519E+00  0.0000000000000E+00  0.1991580229787E+00
 0.5576816672578E+00 -0.6309097710104E+00  0.0000000000000E+00  0.2242186535990E+00
 0.5471530008007E+00 -0.6222476296366E+00  0.0000000000000E+00  0.2479562928925E+00
 0.5343874802788E+00 -0.6114078982871E+00  0.0000000000000E+00  0.2698108017909E+00
 0.5192147390469E+00 -0.5982166623381E+00  0.0000000000000E+00  0.2890894688687E+00
 0.5014402215219E+00 -0.5824754790077E+00  0.0000000000000E+00  0.3049539682283E+00
 0.4808316546895E+00 -0.5639484243644E+00  0.0000000000000E+00  0.3164063211107E+00
 0.4571011562290E+00 -0.5423450705022E+00  0.0000000000000E+00  0.3222718643893E+00
 0.4298794232319E+00 -0.5172960187811E+00  0.0000000000000E+00  0.3211796281697E+00
 0.3986772906068E+00 -0.4883165933572E+00  0.0000000000000E+00  0.3115432646667E+00
 0.3628281576492E+00 -0.4547527728707E+00  0.0000000000000E+00  0.2915504180578E+00
 0.3214023742243E+00 -0.4157014328799E+00  0.0000000000000E+00  0.2591786218785E+00
 0.2730830806257E+00 -0.3698958543863E+00  0.0000000000000E+00  0.2122782804813E+00
 0.2159999347032E+00 -0.3155546288663E+00  0.0000000000000E+00  0.1488163753749E+00
 0.1475831826837E+00 -0.2502397442478E+00  0.0000000000000E+00  0.6744498318859E-01
 0.6457586475043E-01 -0.1708615944386E+00  0.0000000000000E+00 -0.3154600747347E-01
 0.5680553544111E+00 -0.6312531229280E+00  0.0000000000000E+00  0.1404447195852E+00
 0.5646278418579E+00 -0.6290736968744E+00  0.0000000000000E+00  0.1692526599356E+00
 0.5597420533127E+00 -0.6254676702761E+00  0.0000000000000E+00  0.1979736168844E+00
 0.5532165092246E+00 -0.6202466484235E+00  0.0000000000000E+00  0.2263167344961E+00
 0.5448925887076E+00 -0.6132462501685E+00  0.0000000000000E+00  0.2540176865028E+00
 0.5346465645376E+00 -0.6043365728151E+00  0.0000000000000E+00  0.2807601099164E+00
 0.5223799827390E+00 -0.5934113410719E+00  0.0000000000000E+00  0.3061221309497E+00
 0.5080050872773E+00 -0.5803729149568E+00  0.0000000000000E+00  0.3295500328263E+00
 0.4914327014484E+00 -0.5651200309506E+00  0.0000000000000E+00  0.3503455768359E+00
 0.4725631505059E+00 -0.5475389260722E+00  0.0000000000000E+00  0.3676540431925E+00
 0.4512776055390E+00 -0.5274949298873E+00  0.0000000000000E+00  0.3804451186771E+00
 0.4274262410636E+00 -0.5048210163421E+00  0.0000000000000E+00  0.3874826510740E+00
 0.4008089676388E+00 -0.4792991689095E+00  0.0000000000000E+00  0.3872808075836E+00
 0.3711430416641E+00 -0.4506291888167E+00  0.0000000000000E+00  0.3780444793961E+00
 0.3380085438045E+00 -0.4183765582659E+00  0.0000000000000E+00  0.3575921250277E+00
 0.3007558600725E+00 -0.3818849125971E+00  0.0000000000000E+00  0.3232623908152E+00
 0.2583462542917E+00 -0.3401273126805E+00  0.0000000000000E+00  0.2718196218737E+00
 0.2090706449074E+00 -0.2914496676484E+00  0.0000000000000E+00  0.1994206034064E+00
 0.1500658357249E+00 -0.2331456192383E+00  0.0000000000000E+00  0.1019160487977E+00
 0.7682211275362E-01 -0.1609683426744E+00  0.0000000000000E+00 -0.2385001576615E-01
 0.5513665526611E+00 -0.6127167257338E+00  0.0000000000000E+00  0.1845384271311E+00
 0.5461103875022E+00 -0.6084090126478E+00  0.0000000000000E+00  0.2149824495825E+00
 0.5393117714684E+00 -0.6025491539071E+00  0.0000000000000E+00  0.2450774120574E+00
 0.5307631229574E+00 -0.5949197833952E+00  0.0000000000000E+00  0.2745800218822E+00
 0.5203221156472E+00 -0.5853704849077E+00  0.0000000000000E+00  0.3033062947523E+00
 0.5079107707372E+00 -0.5738134066708E+00  0.0000000000000E+00  0.3309982922951E+00
 0.4934894522234E+00 -0.5601959609483E+00  0.0000000000000E+00  0.3572613565190E+00
 0.4770341886425E+00 -0.5444771458953E+00  0.0000000000000E+00  0.3815508603838E+00
 0.4585251825892E+00 -0.5266162780774E+00  0.0000000000000E+00  0.4031738314229E+00
 0.4379435070400E+00 -0.5065695876095E+00  0.0000000000000E+00  0.4212843340033E+00
 0.4152710045388E+00 -0.4842900182512E+00  0.0000000000000E+00  0.4348638684358E+00
 0.3904891965228E+00 -0.4597257066669E+00  0.0000000000000E+00  0.4426828335662E+00
 0.3635738159091E+00 -0.4328139014401E+00  0.0000000000000E+00  0.4432392092444E+00
 0.3344810308455E+00 -0.4034664334915E+00  0.0000000000000E+00  0.4346668067727E+00
 0.3031185771895E+00 -0.3715401714971E+00  0.0000000000000E+00  0.4145990799216E+00
 0.2692881354635E+00 -0.3367792927235E+00  0.0000000000000E+00  0.3799640793376E+00
 0.2325677562998E+00 -0.2987004416849E+00  0.0000000000000E+00  0.3266692020524E+00
 0.1920609582143E+00 -0.2563529377615E+00  0.0000000000000E+00  0.2491114130014E+00
 0.1457799280567E+00 -0.2077621740791E+00  0.0000000000000E+00  0.1394467913244E+00
 0.8907529257043E-01 -0.1486303323236E+00  0.0000000000000E+00 -0.1258600739901E-01
 0.5325310091261E+00 -0.5918792016121E+00  0.0000000000000E+00  0.2251901297795E+00
 0.5253053176502E+00 -0.5852946569873E+00  0.0000000000000E+00  0.2566050721766E+00
 0.5163985682926E+00 -0.5769754037181E+00  0.0000000000000E+00  0.2872544143101E+00
 0.5055630892149E+00 -0.5666644565909E+00  0.0000000000000E+00  0.3170264148576E+00
 0.4926865619640E+00 -0.5542407852779E+00  0.0000000000000E+00  0.3458659114730E+00
 0.4777510530764E+00 -0.5396752253390E+00  0.0000000000000E+00  0.3735682785212E+00
 0.4607762137597E+00 -0.5229692569190E+00  0.0000000000000E+00  0.3997362986391E+00
 0.4417887256573E+00 -0.5041258815103E+00  0.0000000000000E+00  0.4238046260552E+00
 0.4208158776774E+00 -0.4831428169786E+00  0.0000000000000E+00  0.4450668614965E+00
 0.3978920258279E+00 -0.4600194114688E+00  0.0000000000000E+00  0.4626818285465E+00
 0.3730692145100E+00 -0.4347664711787E+00  0.0000000000000E+00  0.4756550442243E+00
 0.3464284299110E+00 -0.4074161913325E+00  0.0000000000000E+00  0.4827974703260E+00
 0.3180909575265E+00 -0.3780314180484E+00  0.0000000000000E+00  0.4826584025182E+00
 0.2882302827046E+00 -0.3467144588736E+00  0.0000000000000E+00  0.4734228836811E+00
 0.2570852766988E+00 -0.3136155453607E+00  0.0000000000000E+00  0.4527530830627E+00
 0.2249743837441E+00 -0.2789396352166E+00  0.0000000000000E+00  0.4175329303782E+00
 0.1923075954067E+00 -0.2429453672334E+00  0.0000000000000E+00  0.3634324817572E+00
 0.1595747566652E+00 -0.2059122854913E+00  0.0000000000000E+00  0.2841069428343E+00
 0.1272477601623E+00 -0.1679853966662E+00  0.0000000000000E+00  0.1695282805026E+00
 0.9472659146134E-01 -0.1282101865270E+00  0.0000000000000E+00  0.1906133468577E-02
 0.5117924909208E+00 -0.5690090352996E+00  0.0000000000000E+00  0.2618471728953E+00
 0.5025132290681E+00 -0.5600573585325E+00  0.0000000000000E+00  0.2934100804778E+00
 0.4913248797097E+00 -0.5490975773529E+00  0.0000000000000E+00  0.3235957145205E+00
 0.4779512800169E+00 -0.5358461226258E+00  0.0000000000000E+00  0.3525872542787E+00
 0.4623586242706E+00 -0.5202688640007E+00  0.0000000000000E+00  0.3804873611396E+00
 0.4446162071814E+00 -0.5024205795697E+00  0.0000000000000E+00  0.4070848386343E+00
 0.4248006146395E+00 -0.4823566341956E+00  0.0000000000000E+00  0.4318990676411E+00
 0.4029676966582E+00 -0.4601016475060E+00  0.0000000000000E+00  0.4542769661307E+00
 0.3791631525743E+00 -0.4356645381608E+00  0.0000000000000E+00  0.4734485450060E+00
 0.3534423285399E+00 -0.4090575455612E+00  0.0000000000000E+00  0.4885317689440E+00
 0.3258899568810E+00 -0.3803149039282E+00  0.0000000000000E+00  0.4985096063218E+00
 0.2966405586382E+00 -0.3495110653215E+00  0.0000000000000E+00  0.5021852216336E+00
 0.2659024361167E+00 -0.3167815302911E+00  0.0000000000000E+00  0.4981152311351E+00
 0.2339906886701E+00 -0.2823511397520E+00  0.0000000000000E+00  0.4845135550636E+00
 0.2013783455065E+00 -0.2465778572259E+00  0.0000000000000E+00  0.4591096135650E+00
 0.1687828209850E+00 -0.2100266168425E+00  0.0000000000000E+00  0.4189286805277E+00
 0.1373212182311E+00 -0.1736020968247E+00  0.0000000000000E+00  0.3599289107213E+00
 0.1088166718343E+00 -0.1388039608401E+00  0.0000000000000E+00  0.2763450156273E+00
 0.8646120503826E-01 -0.1082766076214E+00  0.0000000000000E+00  0.1593725380802E+00
 0.7689324621184E-01 -0.8722265846062E-01  0.0000000000000E+00 -0.6897906801543E-02
 0.4894764877038E+00 -0.5444618434184E+00  0.0000000000000E+00  0.2940001068163E+00
 0.4781180407883E+00 -0.5331177136324E+00  0.0000000000000E+00  0.3246771557719E+00
 0.4644790522478E+00 -0.5193308840206E+00  0.0000000000000E+00  0.3532057451920E+00
 0.4483441613020E+00 -0.5029168894891E+00  0.0000000000000E+00  0.3803164805788E+00
 0.4298599401802E+00 -0.4840175250391E+00  0.0000000000000E+00  0.4062295508441E+00
 0.4092158196617E+00 -0.4628178664766E+00  0.0000000000000E+00  0.4305603170498E+00
 0.3865252090790E+00 -0.4393978546654E+00  0.0000000000000E+00  0.4526212252757E+00
 0.3618498166884E+00 -0.4137829767061E+00  0.0000000000000E+00  0.4716153028703E+00
 0.3352420929524E+00 -0.3859841605182E+00  0.0000000000000E+00  0.4866675926225E+00
 0.3067764190003E+00 -0.3560292855659E+00  0.0000000000000E+00  0.4968142629411E+00
 0.2765762013967E+00 -0.3239884022565E+00  0.0000000000000E+00  0.5009688661028E+00
 0.2448416649774E+00 -0.2899991998768E+00  0.0000000000000E+00  0.4978769328632E+00
 0.2118851848309E+00 -0.2542991662742E+00  0.0000000000000E+00  0.4860600852122E+00
 0.1781827701117E+00 -0.2172727352904E+00  0.0000000000000E+00  0.4637485369066E+00
 0.1444558091550E+00 -0.1795266064135E+00  0.0000000000000E+00  0.4288006247047E+00
 0.1118088145556E+00 -0.1420175443655E+00  0.0000000000000E+00  0.3786110966568E+00
 0.8197710322983E-01 -0.1062818017683E+00  0.0000000000000E+00  0.3100189360948E+00
 0.5779608917052E-01 -0.7487533709210E-01  0.0000000000000E+00  0.2192652319197E+00
 0.4419328117419E-01 -0.5229376647884E-01  0.0000000000000E+00  0.1022108476531E+00
 0.5089360288791E-01 -0.4758964706360E-01  0.0000000000000E+00 -0.4337524845513E-01
 0.4659862928932E+00 -0.5186979797456E+00  0.0000000000000E+00  0.3211340605840E+00
 0.4525450467395E+00 -0.5049210753706E+00  0.0000000000000E+00  0.3496704470944E+00
 0.4362231646233E+00 -0.4880782712467E+00  0.0000000000000E+00  0.3752545751751E+00
 0.4171568305029E+00 -0.4683053384333E+00  0.0000000000000E+00  0.3996616139629E+00
 0.3958404114148E+00 -0.4461824255605E+00  0.0000000000000E+00  0.4227976632680E+00
 0.3725214793110E+00 -0.4219026052888E+00  0.0000000000000E+00  0.4438021221748E+00
 0.3472932720504E+00 -0.3955221299297E+00  0.0000000000000E+00  0.4617719545280E+00
 0.3202182660809E+00 -0.3670623621662E+00  0.0000000000000E+00  0.4757884509888E+00
 0.2913789207789E+00 -0.3365649207755E+00  0.0000000000000E+00  0.4849033784435E+00
 0.2609132658784E+00 -0.3041244845474E+00  0.0000000000000E+00  0.4881029458741E+00
 0.2290447797860E+00 -0.2699169509117E+00  0.0000000000000E+00  0.4842750447760E+00
 0.1961173041359E+00 -0.2342323283593E+00  0.0000000000000E+00  0.4721815161379E+00
 0.1626419641461E+00 -0.1975196542497E+00  0.0000000000000E+00  0.4504383684466E+00
 0.1293642601005E+00 -0.1604520308937E+00  0.0000000000000E+00  0.4175108689909E+00
 0.9736287052704E-01 -0.1240235809709E+00  0.0000000000000E+00  0.3717409557487E+00
 0.6819941567604E-01 -0.8969789144521E-01  0.0000000000000E+00  0.3114464526918E+00
 0.4414991279673E-01 -0.5964250585431E-01  0.0000000000000E+00  0.2351838291738E+00
 0.2857611045906E-01 -0.3710988805118E-01  0.0000000000000E+00  0.1423872904082E+00
 0.2645393310244E-01 -0.2704739396482E-01  0.0000000000000E+00  0.3495487749896E-01
 0.4426648058593E-01 -0.3655605589986E-01  0.0000000000000E+00 -0.7789640461690E-01
 0.4419399586216E+00 -0.4923596961823E+00  0.0000000000000E+00  0.3426653203871E+00
 0.4260673656826E+00 -0.4758882450041E+00  0.0000000000000E+00  0.3671618028089E+00
 0.4065861043307E+00 -0.4552707989533E+00  0.0000000000000E+00  0.3893567099625E+00
 0.3847660936572E+00 -0.4324155848996E+00  0.0000000000000E+00  0.4111006660426E+00
 0.3611293581437E+00 -0.4076367167455E+00  0.0000000000000E+00  0.4308635697953E+00
 0.3357432563655E+00 -0.3809550622027E+00  0.0000000000000E+00  0.4475836426375E+00
 0.3086671769117E+00 -0.3523794697773E+00  0.0000000000000E+00  0.4603089309389E+00
 0.2799974041018E+00 -0.3219685195249E+00  0.0000000000000E+00  0.4681309283213E+00
 0.2498998449364E+00 -0.2898537061892E+00  0.0000000000000E+00  0.4701211679921E+00
 0.2186302785900E+00 -0.2562574998208E+00  0.0000000000000E+00  0.4653056616095E+00
 0.1865607200118E+00 -0.2215174844611E+00  0.0000000000000E+00  0.4526593946751E+00
 0.1542149776660E+00 -0.1861206479067E+00  0.0000000000000E+00  0.4311200335647E+00
 0.1223166639620E+00 -0.1507508222571E+00  0.0000000000000E+00  0.3996253501105E+00
 0.9185221710286E-01 -0.1163523192993E+00  0.0000000000000E+00  0.3571877328427E+00
 0.6415076138183E-01 -0.8421265078924E-01  0.0000000000000E+00  0.3030327425058E+00
 0.4097863102736E-01 -0.5606531387285E-01  0.0000000000000E+00  0.2368548096950E+00
 0.2463606217372E-01 -0.3420481021544E-01  0.0000000000000E+00  0.1592909202271E+00
 0.1799502708832E-01 -0.2157613010402E-01  0.0000000000000E+00  0.7281447275738E-01
 0.2432450336439E-01 -0.2167957251277E-01  0.0000000000000E+00 -0.1666715286382E-01
 0.4591136936724E-01 -0.3729462376277E-01  0.0000000000000E+00 -0.9883070041358E-01
 0.4169554709025E+00 -0.4659959340363E+00  0.0000000000000E+00  0.3547671053842E+00
 0.3971744761961E+00 -0.4437886254864E+00  0.0000000000000E+00  0.3769863198350E+00
 0.3752779436772E+00 -0.4206406995265E+00  0.0000000000000E+00  0.3979052495639E+00
 0.3519720236381E+00 -0.3960644176464E+00  0.0000000000000E+00  0.4165440743822E+00
 0.3269725028700E+00 -0.3696945085282E+00  0.0000000000000E+00  0.4319180981491E+00
 0.3003484777847E+00 -0.3415220504943E+00  0.0000000000000E+00  0.4432832935122E+00
 0.2722571102350E+00 -0.3116674230124E+00  0.0000000000000E+00  0.4498664499832E+00
 0.2429340767218E+00 -0.2803395011135E+00  0.0000000000000E+00  0.4508508507585E+00
 0.2126883305392E+00 -0.2478266982784E+00  0.0000000000000E+00  0.4453772878193E+00
 0.1819171618704E+00 -0.2145084139741E+00  0.0000000000000E+00  0.4325679188078E+00
 0.1511289684575E+00 -0.1808763989837E+00  0.0000000000000E+00  0.4115659764680E+00
 0.1209727974558E+00 -0.1475637586514E+00  0.0000000000000E+00  0.3815973532521E+00
 0.9227325425958E-01 -0.1153803735858E+00  0.0000000000000E+00  0.3420632342598E+00
 0.6606811707144E-01 -0.8535259545711E-01  0.0000000000000E+00  0.2926778025741E+00
 0.4364097173368E-01 -0.5876098294306E-01  0.0000000000000E+00  0.2336715138548E+00
 0.2653000773168E-01 -0.3715966587067E-01  0.0000000000000E+00  0.1660878519290E+00
 0.1646548799189E-01 -0.2233706863136E-01  0.0000000000000E+00  0.9220978601087E-01
 0.1514449562727E-01 -0.1612520182292E-01  0.0000000000000E+00  0.1612032310126E-01
 0.2360025815783E-01 -0.1985640538161E-01  0.0000000000000E+00 -0.5569966818367E-01
 0.4215595613060E-01 -0.3385982795101E-01  0.0000000000000E+00 -0.1147810271325E+00
</DataArray>
<DataArray type="Float64" Name="S_Centroid" NumberOfComponents="4" ComponentName0="S11" ComponentName1="S22" ComponentName2="S33" ComponentName3="S12" format="ascii">
-0.1086393979162E+01 -0.8697792443538E+01 -0.1956837313699E+01 -0.1126493259953E+01
 0.1475097323317E+00 -0.6840450273203E+01 -0.1338588128121E+01 -0.7175465878954E-01
-0.3046988502610E-01 -0.6272066362221E+01 -0.1260507268232E+01 -0.7627853055118E-01
 0.4259935350456E-02 -0.5966389081291E+01 -0.1192425846957E+01 -0.4110177820973E-01
-0.2038350906018E-02 -0.5772424515177E+01 -0.1154892590426E+01 -0.2863451095451E-01
-0.2583028781975E-03 -0.5637776030279E+01 -0.1127606883434E+01 -0.2062522887648E-01
-0.4669339563532E-03 -0.5538848999132E+01 -0.1107863203126E+01 -0.1563803045443E-01
-0.3009506484273E-03 -0.5463399914270E+01 -0.1092740189267E+01 -0.1215060096081E-01
-0.2697096444024E-03 -0.5404734804882E+01 -0.1081000919014E+01 -0.9543313656813E-02
-0.2336133713674E-03 -0.5359012021151E+01 -0.1071849142876E+01 -0.7423842904178E-02
-0.2168887210323E-03 -0.5324122643040E+01 -0.1064867922220E+01 -0.5551117119838E-02
-0.2092427983529E-03 -0.5299087523248E+01 -0.1059859369002E+01 -0.3752053796931E-02
-0.2114278316723E-03 -0.5283765859500E+01 -0.1056795473214E+01 -0.1888212865034E-02
-0.2234686372162E-03 -0.5278727936398E+01 -0.1055790296740E+01  0.1698360581572E-03
-0.2479397411914E-03 -0.5285257671892E+01 -0.1057101138079E+01  0.2565805982911E-02
-0.2904643614801E-03 -0.5305497190663E+01 -0.1061157546817E+01  0.5490994284729E-02
-0.3660640199683E-03 -0.5342843644043E+01 -0.1068641957537E+01  0.9254576126776E-02
-0.4810247392468E-03 -0.5402996003197E+01 -0.1080695421691E+01  0.1445630731171E-01
-0.1693876791806E-02 -0.5497340672638E+01 -0.1099806926274E+01  0.2366571674318E-01
-0.7171091893423E-02 -0.5643492963568E+01 -0.1130132827933E+01  0.4774322993000E-01
-0.1698666552672E-01 -0.5832578804581E+01 -0.1169913111455E+01  0.1037215962164E+00
-0.2881825858435E-01 -0.6024380679489E+01 -0.1210639805655E+01  0.1983219325111E+00
-0.4351666065239E-01 -0.6189526706308E+01 -0.1246608691968E+01  0.3232464117770E+00
-0.6311360597486E-01 -0.6321812382214E+01 -0.1276985216666E+01  0.4658495735190E+00
-0.8895702425278E-01 -0.6428493591091E+01 -0.1303490142492E+01  0.6168580573019E+00
-0.1217811600056E+00 -0.6520541216136E+01 -0.1328464495024E+01  0.7719348212263E+00
-0.1622512450653E+00 -0.6607526435690E+01 -0.1353955556327E+01  0.9305425254464E+00
-0.2114245933415E+00 -0.6695922239364E+01 -0.1381469387127E+01  0.1094444395639E+01
-0.2709221219826E+00 -0.6788378191117E+01 -0.1411860083658E+01  0.1266492185102E+01
-0.3416334337935E+00 -0.6881945098082E+01 -0.1444715727903E+01  0.1448112484782E+01
-0.4221317520931E+00 -0.6972999701912E+01 -0.1479026312840E+01  0.1636717800814E+01
-0.5123322947762E+00 -0.7071917039854E+01 -0.1516849889529E+01  0.1830989935400E+01
-0.6158176906357E+00 -0.7196969051140E+01 -0.1562557371639E+01  0.2036802597092E+01
-0.7387564127552E+00 -0.7362858458520E+01 -0.1620322998400E+01  0.2265022188186E+01
-0.8899038759801E+00 -0.7586090579837E+01 -0.1695198916424E+01  0.2531187403745E+01
-0.1089966387394E+01 -0.7890859287473E+01 -0.1796165161738E+01  0.2858196017874E+01
-0.1351401188138E+01 -0.8313534252876E+01 -0.1932987117007E+01  0.3289211014274E+01
-0.1826282188892E+01 -0.8918018460292E+01 -0.2148860161857E+01  0.3889530941024E+01
-0.2224884377232E+01 -0.9804934877822E+01 -0.2405963886862E+01  0.4865900253257E+01
-0.5712354381786E+01 -0.1089114982980E+02 -0.3320700891800E+01  0.6691713365965E+01
 0.6239620463376E+01 -0.9603405607870E+01 -0.6727570389238E+00  0.7717921159273E+01
-0.1144538391626E+01 -0.7526449893269E+01 -0.1734197682820E+01 -0.1233496446698E+01
-0.1846498976412E+00 -0.6984943406232E+01 -0.1433918682142E+01 -0.5647834802707E+00
-0.1096136544031E-01 -0.6324448841478E+01 -0.1267082060265E+01 -0.2127082478118E+00
-0.2261050318349E-01 -0.6003368087328E+01 -0.1205195736061E+01 -0.1418715386105E+00
-0.7903462162236E-02 -0.5791747284701E+01 -0.1159930166657E+01 -0.9303824814321E-01
-0.5926923971572E-02 -0.5645207234198E+01 -0.1130226848476E+01 -0.6737038443183E-01
-0.3735297688503E-02 -0.5537417142738E+01 -0.1108230504599E+01 -0.5057774675541E-01
-0.2773023746610E-02 -0.5455522556521E+01 -0.1091659132320E+01 -0.3907216959987E-01
-0.2159257831166E-02 -0.5392083063625E+01 -0.1078848480367E+01 -0.3048813486519E-01
-0.1834149185116E-02 -0.5342845739027E+01 -0.1068935993571E+01 -0.2358112564697E-01
-0.1682364865641E-02 -0.5305388374417E+01 -0.1061414163673E+01 -0.1754585466283E-01
-0.1665648125897E-02 -0.5278511115873E+01 -0.1056035368536E+01 -0.1182373835616E-01
-0.1763966752567E-02 -0.5261902684631E+01 -0.1052733345964E+01 -0.5971533820558E-02
-0.1979434319470E-02 -0.5255994876940E+01 -0.1051594877922E+01  0.4183982344804E-03
-0.2336704489932E-02 -0.5261945518990E+01 -0.1052856460385E+01  0.7792094463967E-02
-0.2903090922397E-02 -0.5281758215095E+01 -0.1056932276953E+01  0.1673801382023E-01
-0.3823793427814E-02 -0.5318619294858E+01 -0.1064488633519E+01  0.2818301460040E-01
-0.5678990229022E-02 -0.5377695959974E+01 -0.1076675006084E+01  0.4408632858197E-01
-0.1164970749641E-01 -0.5466541632055E+01 -0.1095638284237E+01  0.6924742636493E-01
-0.2625624707960E-01 -0.5589458324721E+01 -0.1123142931096E+01  0.1108905834324E+00
-0.4856615533262E-01 -0.5736594518631E+01 -0.1157032152034E+01  0.1753640016708E+00
-0.7314995705549E-01 -0.5886028764149E+01 -0.1191835762001E+01  0.2651930844783E+00
-0.9749440644384E-01 -0.6019389212294E+01 -0.1223376741977E+01  0.3776061654096E+00
-0.1230798664282E+00 -0.6130089182661E+01 -0.1250633828454E+01  0.5063854008216E+00
-0.1524984431588E+00 -0.6220530493581E+01 -0.1274605806341E+01  0.6455686733950E+00
-0.1879728342144E+00 -0.6296733959549E+01 -0.1296941378079E+01  0.7913825800581E+00
-0.2312313602046E+00 -0.6364623149735E+01 -0.1319170921645E+01  0.9423512780149E+00
-0.2838278895364E+00 -0.6428170731947E+01 -0.1342399744300E+01  0.1098587357294E+01
-0.3468553528136E+00 -0.6488566543684E+01 -0.1367084399671E+01  0.1260596786911E+01
-0.4197357274893E+00 -0.6544726278003E+01 -0.1392892421854E+01  0.1428250985675E+01
-0.5015299925179E+00 -0.6596491739770E+01 -0.1419604367611E+01  0.1601531511891E+01
-0.5943819667341E+00 -0.6647751693600E+01 -0.1448426753650E+01  0.1781818457005E+01
-0.7035609919470E+00 -0.6705045041966E+01 -0.1481721228862E+01  0.1972558812111E+01
-0.8359219386574E+00 -0.6773496012893E+01 -0.1521883612988E+01  0.2180072799173E+01
-0.1002816571476E+01 -0.6854741943764E+01 -0.1571511726465E+01  0.2413694523163E+01
-0.1218271322659E+01 -0.6944633978467E+01 -0.1632581084553E+01  0.2685502479626E+01
-0.1527799677394E+01 -0.7026701847839E+01 -0.1710900330541E+01  0.3010786369883E+01
-0.1912449689578E+01 -0.7044397924067E+01 -0.1791369549423E+01  0.3387465205344E+01
-0.2767401311753E+01 -0.6806723104395E+01 -0.1914824911763E+01  0.3849422460264E+01
-0.2798841765759E+01 -0.5543356319299E+01 -0.1668439641873E+01  0.3059944615885E+01
 0.8835412627795E+01 -0.4550075804048E+01  0.8570673775208E+00  0.2358567495567E+01
-0.1199373005356E+01 -0.6893496427236E+01 -0.1618573910637E+01 -0.1188896707701E+01
-0.4134407281362E+00 -0.6751984882004E+01 -0.1433085143383E+01 -0.7865198733678E+00
-0.9858801014822E-01 -0.6331089013276E+01 -0.1285935423847E+01 -0.3947395826551E+00
-0.4777054655859E-01 -0.6003155247722E+01 -0.1210185176889E+01 -0.2365341751604E+00
-0.2744179885168E-01 -0.5792852939870E+01 -0.1164058965090E+01 -0.1622470574662E+00
-0.1628034408743E-01 -0.5640775246671E+01 -0.1131411135011E+01 -0.1164769174252E+00
-0.1105076557302E-01 -0.5528115177572E+01 -0.1107833205137E+01 -0.8767600548555E-01
-0.7924518815595E-02 -0.5441919959820E+01 -0.1089968911969E+01 -0.6759088004501E-01
-0.6176468588104E-02 -0.5375000703162E+01 -0.1076235450387E+01 -0.5264829894627E-01
-0.5196857508067E-02 -0.5322984155939E+01 -0.1065636218569E+01 -0.4063444345031E-01
-0.4745478929943E-02 -0.5283333258496E+01 -0.1057615763245E+01 -0.3018596024247E-01
-0.4683688638259E-02 -0.5254716938503E+01 -0.1051880141103E+01 -0.2034195176821E-01
-0.4956237635965E-02 -0.5236695580216E+01 -0.1048330379192E+01 -0.1034728170958E-01
-0.5565006314366E-02 -0.5229563752561E+01 -0.1047025767377E+01  0.4872155882429E-03
-0.6579147591693E-02 -0.5234312423350E+01 -0.1048178329807E+01  0.1290613845564E-01
-0.8179573669503E-02 -0.5252697086908E+01 -0.1052175347794E+01  0.2786994796532E-01
-0.1079944428011E-01 -0.5287440354142E+01 -0.1059647975474E+01  0.4687400479908E-01
-0.1595190228284E-01 -0.5342340221334E+01 -0.1071658440692E+01  0.7272975058098E-01
-0.2767639898431E-01 -0.5420706838524E+01 -0.1089676663739E+01  0.1098843147758E+00
-0.4999109141532E-01 -0.5521352739206E+01 -0.1114268782728E+01  0.1621968892876E+00
-0.8107206002333E-01 -0.5635919261633E+01 -0.1143398281369E+01  0.2313346447585E+00
-0.1145816137418E+00 -0.5751505395739E+01 -0.1173217419378E+01  0.3179177875985E+00
-0.1466438257689E+00 -0.5856709566097E+01 -0.1200670696265E+01  0.4213981480636E+00
-0.1779636162690E+00 -0.5945774995689E+01 -0.1224747740642E+01  0.5391860105445E+00
-0.2113977589972E+00 -0.6018405058388E+01 -0.1245960582043E+01  0.6677051167449E+00
-0.2498682289741E+00 -0.6077221982788E+01 -0.1265418061209E+01  0.8038659167061E+00
-0.2957053287984E+00 -0.6125314865147E+01 -0.1284204057925E+01  0.9456727772470E+00
-0.3506005672751E+00 -0.6164676940038E+01 -0.1303055520880E+01  0.1091992726613E+01
-0.4151735886126E+00 -0.6195690175871E+01 -0.1322172772599E+01  0.1241908350280E+01
-0.4886117574277E+00 -0.6217869551204E+01 -0.1341296281713E+01  0.1394747500542E+01
-0.5705921106539E+00 -0.6230897077697E+01 -0.1360297857940E+01  0.1550961966224E+01
-0.6638869648857E+00 -0.6234558307824E+01 -0.1379689075101E+01  0.1711790376701E+01
-0.7737867975647E+00 -0.6228116680647E+01 -0.1400380716510E+01  0.1878405117549E+01
-0.9069579169549E+00 -0.6208299339001E+01 -0.1423051472396E+01  0.2052241343074E+01
-0.1071235111887E+01 -0.6165313998269E+01 -0.1447309843598E+01  0.2234098182216E+01
-0.1279798679716E+01 -0.6077382971090E+01 -0.1471436352087E+01  0.2421062286229E+01
-0.1536033175472E+01 -0.5897214712349E+01 -0.1486649599717E+01  0.2591703702862E+01
-0.1851794801212E+01 -0.5530822813784E+01 -0.1476523545001E+01  0.2695841721086E+01
-0.2074879382591E+01 -0.4719843714741E+01 -0.1358944639716E+01  0.2413342464682E+01
-0.5599455963012E-01 -0.3593040627917E+01 -0.7298070483845E+00  0.1031476252692E+01
 0.9074163987448E+01 -0.3130745531148E+01  0.1188683708973E+01  0.1011208103688E+01
-0.1226040367587E+01 -0.6478739486557E+01 -0.1540955993791E+01 -0.1121319486108E+01
-0.5744050527026E+00 -0.6484472770653E+01 -0.1411775585708E+01 -0.8770024127047E+00
-0.2089031810388E+00 -0.6247137450995E+01 -0.1291208145647E+01 -0.5348741305506E+00
-0.9386309281430E-01 -0.5976224072522E+01 -0.1214017451158E+01 -0.3329051349223E+00
-0.5347172862500E-01 -0.5773994643733E+01 -0.1165493291839E+01 -0.2292633350393E+00
-0.3292351727980E-01 -0.5624549683765E+01 -0.1131494657069E+01 -0.1666673723897E+00
-0.2204992114667E-01 -0.5510572154754E+01 -0.1106524431669E+01 -0.1256844142397E+00
-0.1592911574333E-01 -0.5422356045006E+01 -0.1087657048357E+01 -0.9707981845108E-01
-0.1237241924676E-01 -0.5353273295553E+01 -0.1073129158951E+01 -0.7562864034403E-01
-0.1039393193143E-01 -0.5299257279972E+01 -0.1061930258205E+01 -0.5836814352604E-01
-0.9460131515012E-02 -0.5257818242158E+01 -0.1053455690432E+01 -0.4337623764764E-01
-0.9307199197077E-02 -0.5227593095010E+01 -0.1047380074449E+01 -0.2930933071961E-01
-0.9818862011062E-02 -0.5208055758729E+01 -0.1043574939698E+01 -0.1510771971461E-01
-0.1099567019571E-01 -0.5199368171414E+01 -0.1042072783850E+01  0.1872585556037E-03
-0.1296692993740E-01 -0.5202318391302E+01 -0.1043057079791E+01  0.1759415577956E-01
-0.1606861370181E-01 -0.5218321556771E+01 -0.1046878049694E+01  0.3839155250362E-01
-0.2113467792187E-01 -0.5249408471241E+01 -0.1054108645540E+01  0.6447449726341E-01
-0.3035534600247E-01 -0.5297698432654E+01 -0.1065610771610E+01  0.9877095106936E-01
-0.4778953066763E-01 -0.5363599557735E+01 -0.1082277833808E+01  0.1445784427575E+00
-0.7644907919936E-01 -0.5443825482852E+01 -0.1104054928862E+01  0.2034416132785E+00
-0.1139093324174E+00 -0.5531738656146E+01 -0.1129129614538E+01  0.2749205505742E+00
-0.1538604171961E+00 -0.5619413149018E+01 -0.1154654730448E+01  0.3588021732991E+00
-0.1920192049821E+00 -0.5699657224108E+01 -0.1178335303377E+01  0.4554264419355E+00
-0.2284512449108E+00 -0.5767755996671E+01 -0.1199241466186E+01  0.5641062831712E+00
-0.2657949342534E+00 -0.5822001954417E+01 -0.1217559395877E+01  0.6828298551173E+00
-0.3071393699003E+00 -0.5862757272597E+01 -0.1233979346887E+01  0.8091074650108E+00
-0.3550190182378E+00 -0.5891013666740E+01 -0.1249206555610E+01  0.9406585389854E+00
-0.4110546979794E+00 -0.5907283179597E+01 -0.1263667594345E+01  0.1075513095202E+01
-0.4756005504098E+00 -0.5911265523726E+01 -0.1277373233862E+01  0.1211897139964E+01
-0.5479336403703E+00 -0.5902191532624E+01 -0.1290025053822E+01  0.1348640718200E+01
-0.6280586260131E+00 -0.5878701244085E+01 -0.1301351993411E+01  0.1485640020849E+01
-0.7184525424480E+00 -0.5837743701173E+01 -0.1311239268263E+01  0.1622837196815E+01
-0.8233483821597E+00 -0.5773978364148E+01 -0.1319465368923E+01  0.1758770679049E+01
-0.9469350448326E+00 -0.5678404821348E+01 -0.1325067992981E+01  0.1889860479724E+01
-0.1092538393702E+01 -0.5534689952005E+01 -0.1325445688892E+01  0.2008423584413E+01
-0.1258065687934E+01 -0.5313133600257E+01 -0.1314239877222E+01  0.2095465597921E+01
-0.1423173808223E+01 -0.4963790234781E+01 -0.1277392827636E+01  0.2107471032292E+01
-0.1504482562302E+01 -0.4398168203218E+01 -0.1180530170695E+01  0.1929597903954E+01
-0.1013286336618E+01 -0.3559555190207E+01 -0.9145683189932E+00  0.1265936646935E+01
 0.1770037766019E+01 -0.2860689782856E+01 -0.2181304066177E+00  0.8220951134251E-01
 0.8645043811152E+01 -0.2577453887394E+01  0.1213518002835E+01  0.5643196638501E+00
-0.1234253255044E+01 -0.6176322366323E+01 -0.1482115146359E+01 -0.1054922922104E+01
-0.6874221453983E+00 -0.6240502153556E+01 -0.1385584880438E+01 -0.9049130390699E+00
-0.3147849283927E+00 -0.6119845226193E+01 -0.1286926050094E+01 -0.6280020187856E+00
-0.1529654737742E+00 -0.5918534058819E+01 -0.1214299924613E+01 -0.4180409333190E+00
-0.8695203463934E-01 -0.5738358640243E+01 -0.1165062152337E+01 -0.2930285678348E+00
-0.5454494825144E-01 -0.5596458809530E+01 -0.1130200768398E+01 -0.2155598462255E+00
-0.3679817685466E-01 -0.5484914145727E+01 -0.1104342480972E+01 -0.1636769787542E+00
-0.2666949430016E-01 -0.5396746659951E+01 -0.1084683247013E+01 -0.1268656292995E+00
-0.2075942975672E-01 -0.5326815123829E+01 -0.1069514926654E+01 -0.9904935372222E-01
-0.1743304855126E-01 -0.5271575207527E+01 -0.1057801666978E+01 -0.7656110805751E-01
-0.1584129729063E-01 -0.5228767599551E+01 -0.1048921794998E+01 -0.5701778919552E-01
-0.1554357861121E-01 -0.5197081935746E+01 -0.1042525118406E+01 -0.3872299285473E-01
-0.1634667087460E-01 -0.5175949042290E+01 -0.1038459158107E+01 -0.2033854256822E-01
-0.1824428642727E-01 -0.5165405562951E+01 -0.1036729985324E+01 -0.6618196129017E-03
-0.2143301165798E-01 -0.5166011494094E+01 -0.1037488916610E+01  0.2155850215654E-01
-0.2642946618914E-01 -0.5178773454697E+01 -0.1041040599690E+01  0.4783657343523E-01
-0.3443013066204E-01 -0.5204915306214E+01 -0.1047869102990E+01  0.8022080818647E-01
-0.4794801824339E-01 -0.5245087683129E+01 -0.1058607156049E+01  0.1213027615337E+00
-0.7061977043530E-01 -0.5297988688570E+01 -0.1073721707801E+01  0.1731844863828E+00
-0.1044405543129E+00 -0.5359714220662E+01 -0.1092830971279E+01  0.2359638897155E+00
-0.1466504743930E+00 -0.5425089056804E+01 -0.1114347922844E+01  0.3082842396981E+00
-0.1913374514031E+00 -0.5489098574393E+01 -0.1136087222088E+01  0.3895866422522E+00
-0.2342574306151E+00 -0.5547104036390E+01 -0.1156272310631E+01  0.4805131818653E+00
-0.2750085988469E+00 -0.5595291611368E+01 -0.1174060059538E+01  0.5812898034228E+00
-0.3158072690532E+00 -0.5631271019149E+01 -0.1189415675364E+01  0.6908371785138E+00
-0.3595707311450E+00 -0.5653955781183E+01 -0.1202705320387E+01  0.8071056065071E+00
-0.4087480907495E+00 -0.5662855274835E+01 -0.1214320691212E+01  0.9276641913167E+00
-0.4647775101566E+00 -0.5657379008879E+01 -0.1224431322053E+01  0.1050008269776E+01
-0.5278384435284E+00 -0.5636556474452E+01 -0.1232879001967E+01  0.1171771473786E+01
-0.5972715793790E+00 -0.5598999929866E+01 -0.1239254320315E+01  0.1291172208646E+01
-0.6730158885867E+00 -0.5542263241911E+01 -0.1243055844623E+01  0.1407078691802E+01
-0.7566447814487E+00 -0.5461444067045E+01 -0.1243617788230E+01  0.1517694275181E+01
-0.8503236045518E+00 -0.5348577883134E+01 -0.1239780316011E+01  0.1618794907186E+01
-0.9545709825885E+00 -0.5191826328676E+01 -0.1229279480571E+01  0.1702290041008E+01
-0.1064927772883E+01 -0.4972812158574E+01 -0.1207548004285E+01  0.1753027350896E+01
-0.1163554616266E+01 -0.4663759123718E+01 -0.1165462765364E+01  0.1741601783526E+01
-0.1196918391410E+01 -0.4225961759212E+01 -0.1084576046286E+01  0.1609588864827E+01
-0.9911363131642E+00 -0.3625158376608E+01 -0.9232589517121E+00  0.1238221311401E+01
 0.1795990643380E-02 -0.2947255126095E+01 -0.5890918358684E+00  0.4846421353153E+00
 0.2895031992390E+01 -0.2550078400453E+01  0.6899071941554E-01 -0.3441605960323E+00
 0.8121741339359E+01 -0.2316625689225E+01  0.1161023147327E+01  0.3560765186970E+00
-0.1231944387257E+01 -0.5940140044554E+01 -0.1434416907737E+01 -0.9944422208831E+00
-0.7668868534200E+00 -0.6027004151985E+01 -0.1358778221328E+01 -0.9024213561603E+00
-0.4074553826212E+00 -0.5977873680622E+01 -0.1277065831678E+01 -0.6847805929029E+00
-0.2165842641641E+00 -0.5838041130243E+01 -0.1210925096926E+01 -0.4863594288580E+00
-0.1262932807079E+00 -0.5687340306803E+01 -0.1162726734828E+01 -0.3508349660126E+00
-0.8041227741804E-01 -0.5557638008223E+01 -0.1127610073931E+01 -0.2618155394786E+00
-0.5486814549039E-01 -0.5451398759652E+01 -0.1101253397439E+01 -0.2006331142072E+00
-0.4000619189312E-01 -0.5365219488053E+01 -0.1081045152098E+01 -0.1563732062935E+00
-0.3125168069496E-01 -0.5295644171738E+01 -0.1065379186362E+01 -0.1225375917039E+00
-0.2627739490787E-01 -0.5239928641711E+01 -0.1053241223018E+01 -0.9500186287871E-01
-0.2386274338677E-01 -0.5196165691893E+01 -0.1044005702613E+01 -0.7101111912129E-01
-0.2336631025987E-01 -0.5163178692514E+01 -0.1037309016012E+01 -0.4857592472565E-01
-0.2449999624413E-01 -0.5140394070135E+01 -0.1032978828668E+01 -0.2611686752458E-01
-0.2724356479306E-01 -0.5127734853599E+01 -0.1030995699041E+01 -0.2225285019570E-02
-0.3185916681151E-01 -0.5125521117047E+01 -0.1031476072142E+01  0.2452997484509E-01
-0.3903127019891E-01 -0.5134319417224E+01 -0.1034670152902E+01  0.5579412326816E-01
-0.5020142011541E-01 -0.5154577647926E+01 -0.1040955829120E+01  0.9355878747533E-01
-0.6791412884796E-01 -0.5185848546715E+01 -0.1050752550770E+01  0.1398896548766E+00
-0.9520065625520E-01 -0.5225926925965E+01 -0.1064225532302E+01  0.1958942587453E+00
-0.1331887552352E+00 -0.5270925360479E+01 -0.1080822839248E+01  0.2608170233404E+00
-0.1789745253196E+00 -0.5316806167334E+01 -0.1099156154909E+01  0.3329493147540E+00
-0.2271597583322E+00 -0.5360321530171E+01 -0.1117496274353E+01  0.4116006838275E+00
-0.2737269048823E+00 -0.5398399867513E+01 -0.1134425371383E+01  0.4974428599120E+00
-0.3179415169434E+00 -0.5427925589715E+01 -0.1149173438456E+01  0.5910592766925E+00
-0.3615302487925E+00 -0.5446224186846E+01 -0.1161550904436E+01  0.6918601116046E+00
-0.4070400612181E+00 -0.5451324560029E+01 -0.1171672941709E+01  0.7980720763605E+00
-0.4566446651617E+00 -0.5441732515072E+01 -0.1179675453625E+01  0.9071823827020E+00
-0.5115198608444E+00 -0.5416043666381E+01 -0.1185512723110E+01  0.1016336443201E+01
-0.5716569967121E+00 -0.5372677781465E+01 -0.1188866973351E+01  0.1122691960846E+01
-0.6362985561093E+00 -0.5309616275290E+01 -0.1189182984000E+01  0.1223775611329E+01
-0.7049537841186E+00 -0.5223591448203E+01 -0.1185709064133E+01  0.1317270720276E+01
-0.7778141896456E+00 -0.5108707832397E+01 -0.1177304421952E+01  0.1399586398608E+01
-0.8543581035969E+00 -0.4955993932512E+01 -0.1162070424538E+01  0.1463993532670E+01
-0.9303972435172E+00 -0.4753211510839E+01 -0.1136721767810E+01  0.1498772371688E+01
-0.9928216341665E+00 -0.4483906496562E+01 -0.1095345642468E+01  0.1483898868269E+01
-0.1008034025266E+01 -0.4127793734985E+01 -0.1027165567356E+01  0.1384971367983E+01
-0.8919465619993E+00 -0.3667401597518E+01 -0.9118696454914E+00  0.1143514191759E+01
-0.4307318689807E+00 -0.3120842476509E+01 -0.7103148796825E+00  0.6777219915170E+00
 0.8456782543534E+00 -0.2621754196078E+01 -0.3552151936380E+00 -0.1804302288959E-01
 0.3575820608640E+01 -0.2395254329713E+01  0.2361132593038E+00 -0.5347638590198E+00
 0.7644322302837E+01 -0.2178914633087E+01  0.1093081550238E+01  0.2194893128443E+00
-0.1223769802537E+01 -0.5746546396372E+01 -0.1394063260555E+01 -0.9402281258658E+00
-0.8228900726312E+00 -0.5840561587421E+01 -0.1332690351869E+01 -0.8850822811201E+00
-0.4852567437495E+00 -0.5834922531629E+01 -0.1264035873911E+01 -0.7160695850480E+00
-0.2791135573072E+00 -0.5743737906629E+01 -0.1204570310737E+01 -0.5377419506137E+00
-0.1689745199219E+00 -0.5623637585542E+01 -0.1158522438356E+01 -0.4007297526892E+00
-0.1096067642231E+00 -0.5509299225334E+01 -0.1123781214657E+01 -0.3043288962405E+00
-0.7574397696359E-01 -0.5410614367000E+01 -0.1097271685143E+01 -0.2357638201609E+00
-0.5568075282481E-01 -0.5328026950738E+01 -0.1076741556757E+01 -0.1850750986479E+00
-0.4371005533541E-01 -0.5259885593651E+01 -0.1060719145603E+01 -0.1457616893231E+00
-0.3684110135956E-01 -0.5204378895616E+01 -0.1048244015015E+01 -0.1134915549384E+00
-0.3346289734692E-01 -0.5160053951937E+01 -0.1038703385335E+01 -0.8526118748585E-01
-0.3271680453260E-01 -0.5125928196401E+01 -0.1031729015561E+01 -0.5885760909544E-01
-0.3420757011020E-01 -0.5101459074132E+01 -0.1027133344154E+01 -0.3250944043310E-01
-0.3789109094226E-01 -0.5086471273675E+01 -0.1024872488195E+01 -0.4647866863425E-02
-0.4408206326401E-01 -0.5081047870640E+01 -0.1025026002055E+01  0.2627710737143E-01
-0.5358844910975E-01 -0.5085329213097E+01 -0.1027783547757E+01  0.6193983431500E-01
-0.6796206824200E-01 -0.5099106314239E+01 -0.1033413691895E+01  0.1041385345308E+00
-0.8958143999650E-01 -0.5121190102673E+01 -0.1042154324063E+01  0.1543838928349E+00
-0.1208345924478E+00 -0.5148969309251E+01 -0.1053960796045E+01  0.2130326454717E+00
-0.1621599960261E+00 -0.5178824229498E+01 -0.1068196861022E+01  0.2788537434046E+00
-0.2106314867774E+00 -0.5207572745795E+01 -0.1083640862662E+01  0.3500518614959E+00
-0.2613665048990E+00 -0.5233066426003E+01 -0.1098886602555E+01  0.4258918849996E+00
-0.3106308079641E+00 -0.5253208965816E+01 -0.1112767971338E+01  0.5069450048369E+00
-0.3574469066945E+00 -0.5265407486575E+01 -0.1124570895411E+01  0.5938450386780E+00
-0.4030460907484E+00 -0.5266920893412E+01 -0.1133993413730E+01  0.6861992782173E+00
-0.4495007785621E+00 -0.5255277781438E+01 -0.1140955729002E+01  0.7823740312172E+00
-0.4985913188114E+00 -0.5228340162386E+01 -0.1145386313307E+01  0.8797995014979E+00
-0.5511613819700E+00 -0.5184127112888E+01 -0.1147057716064E+01  0.9753733559632E+00
-0.6069415784958E+00 -0.5120572322555E+01 -0.1145502797280E+01  0.1065837882965E+01
-0.6648833465737E+00 -0.5035177700716E+01 -0.1140012226446E+01  0.1148019597781E+01
-0.7237638985425E+00 -0.4924222187913E+01 -0.1129597234123E+01  0.1218452196647E+01
-0.7820778294014E+00 -0.4781569384996E+01 -0.1112729459460E+01  0.1271949641430E+01
-0.8362568981615E+00 -0.4598506993919E+01 -0.1086952794613E+01  0.1299799962417E+01
-0.8770784632928E+00 -0.4364295303616E+01 -0.1048274769002E+01  0.1287950095249E+01
-0.8831461326152E+00 -0.4066887818210E+01 -0.9900068049174E+00  0.1214324585162E+01
-0.8074460185485E+00 -0.3696334222757E+01 -0.9007560616833E+00  0.1045220926608E+01
-0.5478175954073E+00 -0.3256734570128E+01 -0.7609104444456E+00  0.7345332683530E+00
 0.1066058450499E+00 -0.2796884314453E+01 -0.5380557018983E+00  0.2474412437829E+00
 0.1509364133637E+01 -0.2442677496618E+01 -0.1866626753777E+00 -0.3359319910245E+00
 0.3985941045360E+01 -0.2305263940564E+01  0.3361354259680E+00 -0.6216655641433E+00
 0.7238216703095E+01 -0.2100323356688E+01  0.1027578684594E+01  0.1096251862603E+00
-0.1212332115493E+01 -0.5582065961408E+01 -0.1358879635629E+01 -0.8916240890909E+00
-0.8623494595373E+00 -0.5676250561257E+01 -0.1307720023645E+01 -0.8606933322313E+00
-0.5492201692509E+00 -0.5696923113151E+01 -0.1249228675095E+01 -0.7301262277324E+00
-0.3374610138813E+00 -0.5642406855800E+01 -0.1195973591758E+01 -0.5743647333297E+00
-0.2126588677469E+00 -0.5550510161017E+01 -0.1152633822928E+01 -0.4420373872779E+00
-0.1410318151945E+00 -0.5452863184400E+01 -0.1118779016590E+01 -0.3423044889727E+00
-0.9885032285141E-01 -0.5363302472195E+01 -0.1092430575288E+01 -0.2684763004844E+00
-0.7336461717568E-01 -0.5285550551142E+01 -0.1071783049634E+01 -0.2125372298526E+00
-0.5794346390547E-01 -0.5219747126250E+01 -0.1055538133760E+01 -0.1684326169654E+00
-0.4899977554527E-01 -0.5165052146932E+01 -0.1042810400035E+01 -0.1318529326713E+00
-0.4454787313100E-01 -0.5120524984652E+01 -0.1033014586950E+01 -0.9967974878886E-01
-0.4350814260456E-01 -0.5085420846655E+01 -0.1025785813137E+01 -0.6955495209308E-01
-0.4537035824321E-01 -0.5059257228820E+01 -0.1020925532626E+01 -0.3957102460299E-01
-0.5005486622448E-01 -0.5041779228065E+01 -0.1018366834033E+01 -0.8050049579610E-02
-0.5790547783667E-01 -0.5032851220432E+01 -0.1018151354825E+01  0.2661480779583E-01
-0.6979366460334E-01 -0.5032237182846E+01 -0.1020406184695E+01  0.6604417014473E-01
-0.8726188093382E-01 -0.5039221486534E+01 -0.1025296688772E+01  0.1117735771030E+00
-0.1124064203355E+00 -0.5052158615373E+01 -0.1032913022533E+01  0.1648085025222E+00
-0.1470064912970E+00 -0.5068322018430E+01 -0.1043065717488E+01  0.2249697451972E+00
-0.1909710387931E+00 -0.5084437975304E+01 -0.1055081818541E+01  0.2907820797314E+00
-0.2414208476828E+00 -0.5097960861617E+01 -0.1067876357773E+01  0.3604810386845E+00
-0.2939413120932E+00 -0.5107440089745E+01 -0.1080276296465E+01  0.4333154355275E+00
-0.3450743684517E+00 -0.5111396235687E+01 -0.1091294137089E+01  0.5096949874460E+00
-0.3936530265859E+00 -0.5107628625047E+01 -0.1100256346722E+01  0.5901391025339E+00
-0.4404332141696E+00 -0.5093450438388E+01 -0.1106776747004E+01  0.6742686962718E+00
-0.4869673321229E+00 -0.5066149548236E+01 -0.1110623392621E+01  0.7604868996260E+00
-0.5345723667530E+00 -0.5023212487740E+01 -0.1111556987462E+01  0.8461682870726E+00
-0.5836967660464E+00 -0.4962287311254E+01 -0.1109196831988E+01  0.9280188945281E+00
-0.6337173731702E+00 -0.4880984983014E+01 -0.1102940487672E+01  0.1002415003016E+01
-0.6831185569250E+00 -0.4776547236594E+01 -0.1091933174975E+01  0.1065540664248E+01
-0.7297301755276E+00 -0.4645176985953E+01 -0.1074981448315E+01  0.1112939013678E+01
-0.7701860358137E+00 -0.4481114559204E+01 -0.1050260134654E+01  0.1138179826687E+01
-0.7978106938956E+00 -0.4276839084046E+01 -0.1014929970712E+01  0.1131267934512E+01
-0.7986237668841E+00 -0.4024320491012E+01 -0.9645888659527E+00  0.1077225387213E+01
-0.7442709883599E+00 -0.3717084814434E+01 -0.8922711738546E+00  0.9545621611310E+00
-0.5788402075655E+00 -0.3355572254588E+01 -0.7868825041561E+00  0.7349460569585E+00
-0.1957225853073E+00 -0.2959712803023E+01 -0.6310870870699E+00  0.3903504858798E+00
 0.5890444682429E+00 -0.2588665419179E+01 -0.3999241961466E+00 -0.7402222047575E-01
 0.2019365118054E+01 -0.2339533099800E+01 -0.6403359730348E-01 -0.5371458374187E+00
 0.4231509569884E+01 -0.2246904800288E+01  0.3969209598337E+00 -0.6637819204491E+00
 0.6896938547296E+01 -0.2053901100712E+01  0.9686075037501E+00  0.1420485889590E-01
-0.1199087777024E+01 -0.5438426268806E+01 -0.1327502828947E+01 -0.8478285874753E+00
-0.8899891245342E+00 -0.5529660404828E+01 -0.1283929925004E+01 -0.8332757953735E+00
-0.6012154018409E+00 -0.5566065702360E+01 -0.1233456239220E+01 -0.7327306446695E+00
-0.3902094610962E+00 -0.5538510940676E+01 -0.1185744098023E+01 -0.5989821752146E+00
-0.2555688758613E+00 -0.5470979779735E+01 -0.1145309748186E+01 -0.4750293801135E+00
-0.1735968180281E+00 -0.5389878129400E+01 -0.1112695006066E+01 -0.3753454270559E+00
-0.1235750819972E+00 -0.5310294584840E+01 -0.1086773949562E+01 -0.2983607882941E+00
-0.9269069736400E-01 -0.5238260338713E+01 -0.1066190223103E+01 -0.2384286060996E+00
-0.7372225878230E-01 -0.5175505445025E+01 -0.1049845556405E+01 -0.1903123731112E+00
-0.6259755029988E-01 -0.5122128629421E+01 -0.1036945251396E+01 -0.1499339310420E+00
-0.5699674413965E-01 -0.5077716585170E+01 -0.1026942681165E+01 -0.1141879569786E+00
-0.5562905770370E-01 -0.5041787358601E+01 -0.1019483298452E+01 -0.8065275725291E-01
-0.5786613513707E-01 -0.5013940940780E+01 -0.1014361430299E+01 -0.4734347741389E-01
-0.6357999063993E-01 -0.4993864065798E+01 -0.1011488826360E+01 -0.1252551385687E-01
-0.7311388536609E-01 -0.4981233534010E+01 -0.1010869498938E+01  0.2540797943101E-01
-0.8734076704931E-01 -0.4975506932579E+01 -0.1012569555014E+01  0.6796528505309E-01
-0.1077011184801E+00 -0.4975608788348E+01 -0.1016661996515E+01  0.1163980693891E+00
-0.1359518242756E+00 -0.4979646926062E+01 -0.1023119765313E+01  0.1712860432093E+00
-0.1733277002727E+00 -0.4984942158577E+01 -0.1031653987143E+01  0.2320822757927E+00
-0.2193364973738E+00 -0.4988570268254E+01 -0.1041581368646E+01  0.2972041077264E+00
-0.2711789759682E+00 -0.4988460381020E+01 -0.1051927887073E+01  0.3649625113400E+00
-0.3248422725362E+00 -0.4983613817110E+01 -0.1061691233750E+01  0.4345936245384E+00
-0.3771083394984E+00 -0.4972950373769E+01 -0.1070011758598E+01  0.5063205732619E+00
-0.4266493535036E+00 -0.4954571784470E+01 -0.1076244243632E+01  0.5804658179166E+00
-0.4737745593825E+00 -0.4925914894960E+01 -0.1079937906961E+01  0.6565553090721E+00
-0.5195052580547E+00 -0.4884202837368E+01 -0.1080741635189E+01  0.7329581426215E+00
-0.5646563972165E+00 -0.4826748210655E+01 -0.1078280937642E+01  0.8069864969783E+00
-0.6092279166577E+00 -0.4751008393968E+01 -0.1072047278100E+01  0.8751909611722E+00
-0.6521548215567E+00 -0.4654448103115E+01 -0.1061320600749E+01  0.9336386015213E+00
-0.6913196414973E+00 -0.4534280292108E+01 -0.1045120002294E+01  0.9779793735310E+00
-0.7234817401318E+00 -0.4386966388099E+01 -0.1022089640877E+01  0.1002998547081E+01
-0.7433993677348E+00 -0.4207589502284E+01 -0.9901977887588E+00  0.1001452868314E+01
-0.7414989052810E+00 -0.3990415656577E+01 -0.9463829264739E+00  0.9628200408097E+00
-0.6997687767662E+00 -0.3730697845871E+01 -0.8860933377313E+00  0.8725072369719E+00
-0.5849154741118E+00 -0.3427581959913E+01 -0.8024994987632E+00  0.7117265776104E+00
-0.3372621712891E+00 -0.3089972264795E+01 -0.6854468974308E+00  0.4602410969038E+00
 0.1439751295991E+00 -0.2746497150911E+01 -0.5205044120185E+00  0.1082470041797E+00
 0.1006961452563E+01 -0.2453727394224E+01 -0.2893531926439E+00 -0.3112344805638E+00
 0.2407915834127E+01 -0.2277338673325E+01  0.2611543254951E-01 -0.6658298990049E+00
 0.4375640015275E+01 -0.2206958806485E+01  0.4337362482211E+00 -0.6869224308793E+00
 0.6608180686270E+01 -0.2026961808644E+01  0.9162437891784E+00 -0.7048663089873E-01
-0.1184862679525E+01 -0.5310255522790E+01 -0.1299023659820E+01 -0.8081160358213E+00
-0.9090552909201E+00 -0.5397236749870E+01 -0.1261258426952E+01 -0.8049404273461E+00
-0.6431971671036E+00 -0.5442798135805E+01 -0.1217199078719E+01 -0.7278132582751E+00
-0.4369411759283E+00 -0.5434778055148E+01 -0.1174343863714E+01 -0.6141959391191E+00
-0.2965076458497E+00 -0.5387501031546E+01 -0.1136801752419E+01 -0.5005001273968E+00
-0.2063485762799E+00 -0.5321854736618E+01 -0.1105640679055E+01 -0.4034160233558E+00
-0.1493131592109E+00 -0.5252463555086E+01 -0.1080355358958E+01 -0.3251880973695E+00
-0.1132753267042E+00 -0.5186679405330E+01 -0.1059990962202E+01 -0.2625188652434E+00
-0.9079279308622E-01 -0.5127488543720E+01 -0.1043656282913E+01 -0.2112178477739E+00
-0.7745482634573E-01 -0.5075832344829E+01 -0.1030657449593E+01 -0.1676101069618E+00
-0.7066698188880E-01 -0.5031804605879E+01 -0.1020494332760E+01 -0.1287178485750E+00
-0.6894846623882E-01 -0.4995192933257E+01 -0.1012828294991E+01 -0.9213422397838E-01
-0.7155442116692E-01 -0.4965695427060E+01 -0.1007449984658E+01 -0.5585534905066E-01
-0.7829584812719E-01 -0.4942962964156E+01 -0.1004251777421E+01 -0.1814024225632E-01
-0.8948426360340E-01 -0.4926523883155E+01 -0.1003201644301E+01  0.2257006340274E-01
-0.1059385666057E+00 -0.4915605607234E+01 -0.1004308849733E+01  0.6763530610308E-01
-0.1289325603608E+00 -0.4908900140002E+01 -0.1007566555087E+01  0.1180314951151E+00
-0.1598653705209E+00 -0.4904415180294E+01 -0.1012856125256E+01  0.1739957286763E+00
-0.1994992496472E+00 -0.4899605072742E+01 -0.1019820879674E+01  0.2347371215176E+00
-0.2470379479242E+00 -0.4891869722196E+01 -0.1027781549339E+01  0.2986432743352E+00
-0.2997717759164E+00 -0.4879497107193E+01 -0.1035853792057E+01  0.3641100359212E+00
-0.3540197916882E+00 -0.4861788776485E+01 -0.1043161729179E+01  0.4303549255614E+00
-0.4067569901484E+00 -0.4837932262133E+01 -0.1048937866087E+01  0.4974088785604E+00
-0.4565076703795E+00 -0.4806273307177E+01 -0.1052556211196E+01  0.5653627977913E+00
-0.5031641746583E+00 -0.4764414407392E+01 -0.1053515732109E+01  0.6335892377933E+00
-0.5472247854024E+00 -0.4709634889924E+01 -0.1051371950732E+01  0.7003793319563E+00
-0.5889848050356E+00 -0.4639226507836E+01 -0.1045642278156E+01  0.7629778072242E+00
-0.6279558986867E+00 -0.4550612233194E+01 -0.1035713641809E+01  0.8178114943112E+00
-0.6625630583975E+00 -0.4441279676100E+01 -0.1020768562110E+01  0.8607076333258E+00
-0.6900030929698E+00 -0.4308623691689E+01 -0.9997253718289E+00  0.8869234341040E+00
-0.7059307600439E+00 -0.4149629726333E+01 -0.9711121117460E+00  0.8907547381652E+00
-0.7033477065980E+00 -0.3960531729184E+01 -0.9327759010559E+00  0.8645962960701E+00
-0.6701987859276E+00 -0.3737670792349E+01 -0.8815739287918E+00  0.7981109103726E+00
-0.5854584672243E+00 -0.3479633767645E+01 -0.8130184590888E+00  0.6781619580910E+00
-0.4131681441908E+00 -0.3190434100874E+01 -0.7207204597526E+00  0.4900425029799E+00
-0.9436840761426E-01 -0.2884694032854E+01 -0.5958124969720E+00  0.2224234979423E+00
 0.4598367478784E+00 -0.2593787973737E+01 -0.4267902515314E+00 -0.1191965862365E+00
 0.1361835857689E+01 -0.2365389250406E+01 -0.2007106815344E+00 -0.4855230239850E+00
 0.2703381612724E+01 -0.2238529864166E+01  0.9297035109689E-01 -0.7493602351848E+00
 0.4455988315240E+01 -0.2179429627374E+01  0.4553117443580E+00 -0.7022055215631E+00
 0.6360738055644E+01 -0.2012911711363E+01  0.8695652818137E+00 -0.1460168443755E+00
-0.1170131917072E+01 -0.5193907260437E+01 -0.1272807854468E+01 -0.7718791515928E+00
-0.9218035910282E+00 -0.5276206546575E+01 -0.1239602045992E+01 -0.7767996404311E+00
-0.6769259688590E+00 -0.5326795693333E+01 -0.1200744350331E+01 -0.7180219460262E+00
-0.4777877094928E+00 -0.5332774495193E+01 -0.1162112458254E+01 -0.6222103635990E+00
-0.3347550762079E+00 -0.5301923376058E+01 -0.1127335707252E+01 -0.5194568973457E+00
-0.2385264600584E+00 -0.5250146456893E+01 -0.1097734599748E+01 -0.4267446013854E+00
-0.1755071046190E+00 -0.5190671351815E+01 -0.1073235707279E+01 -0.3488923866694E+00
-0.1347379509680E+00 -0.5131355147975E+01 -0.1053218635483E+01 -0.2846720175666E+00
-0.1088901100321E+00 -0.5076058010640E+01 -0.1036989639587E+01 -0.2310200992015E+00
-0.9337623926630E-01 -0.5026420580630E+01 -0.1023959379238E+01 -0.1847855213571E+00
-0.8539995648019E-01 -0.4982995583956E+01 -0.1013679123192E+01 -0.1432130481586E+00
-0.8332016735327E-01 -0.4945831044159E+01 -0.1005830257291E+01 -0.1039813441518E+00
-0.8628154382113E-01 -0.4914732010229E+01 -0.1000202725714E+01 -0.6512205524606E-01
-0.9402288628321E-01 -0.4889335736105E+01 -0.9966717393292E+00 -0.2493335417817E-01
-0.1067950466036E+00 -0.4869064098362E+01 -0.9951718438222E+00  0.1805822384690E-01
-0.1253179660358E+00 -0.4852987392460E+01 -0.9956610865356E+00  0.6504535570034E-01
-0.1506580793707E+00 -0.4839668106254E+01 -0.9980652519972E+00  0.1167520062464E+00
-0.1838619524644E+00 -0.4827112512996E+01 -0.1002194908026E+01  0.1731476460707E+00
-0.2252874574836E+00 -0.4812950391791E+01 -0.1007647584870E+01  0.2332850303599E+00
-0.2739052028636E+00 -0.4794872509982E+01 -0.1013755557675E+01  0.2955637560089E+00
-0.3270902977777E+00 -0.4771444436545E+01 -0.1019706962059E+01  0.3584582592850E+00
-0.3814273302722E+00 -0.4742174741195E+01 -0.1024720429563E+01  0.4211595930941E+00
-0.4340359220581E+00 -0.4706440567206E+01 -0.1028095313173E+01  0.4835119783452E+00
-0.4832963114296E+00 -0.4662795785554E+01 -0.1029218434733E+01  0.5453681705850E+00
-0.5287118976729E+00 -0.4609035778550E+01 -0.1027549550556E+01  0.6059219939812E+00
-0.5702763727988E+00 -0.4542580703375E+01 -0.1022571430472E+01  0.6633643131094E+00
-0.6077628667269E+00 -0.4460818541602E+01 -0.1013716296771E+01  0.7148741607812E+00
-0.6401710502304E+00 -0.4361269548726E+01 -0.1000288134697E+01  0.7567893002256E+00
-0.6653747897271E+00 -0.4241592554561E+01 -0.9813934834815E+00  0.7847776595030E+00
-0.6798531605465E+00 -0.4099536602861E+01 -0.9558779669252E+00  0.7938615194362E+00
-0.6782012336704E+00 -0.3932797147159E+01 -0.9221996899078E+00  0.7781214751725E+00
-0.6518892610957E+00 -0.3738917797951E+01 -0.8781614248949E+00  0.7300139002702E+00
-0.5869327868621E+00 -0.3516348596736E+01 -0.8206562889483E+00  0.6399867138445E+00
-0.4604308655402E+00 -0.3266683412776E+01 -0.7454228667708E+00  0.4971134026273E+00
-0.2358924701085E+00 -0.2997629305621E+01 -0.6467043647825E+00  0.2913948491297E+00
 0.1416583444494E+00 -0.2726839352482E+01 -0.5170362093109E+00  0.1985122957465E-01
 0.7466249121053E+00 -0.2484405930377E+01 -0.3475562088332E+00 -0.3006970695641E+00
 0.1659882865047E+01 -0.2307149488229E+01 -0.1294533265655E+00 -0.6135424353229E+00
 0.2928247172651E+01 -0.2214040291094E+01  0.1428413784399E+00 -0.8044551659013E+00
 0.4495396847140E+01 -0.2161124573302E+01  0.4668544617243E+00 -0.7142894256170E+00
 0.6145826610928E+01 -0.2007982674977E+01  0.8275687995218E+00 -0.2134326664434E+00
-0.1155171744348E+01 -0.5086815208845E+01 -0.1248397409241E+01 -0.7386217531243E+00
-0.9298223889484E+00 -0.5164422917276E+01 -0.1218849079407E+01 -0.7494305651690E+00
-0.7038908294854E+00 -0.5217428346674E+01 -0.1184263852879E+01 -0.7051386366019E+00
-0.5131536682307E+00 -0.5233328681050E+01 -0.1149296486982E+01 -0.6247986097521E+00
-0.3699418220397E+00 -0.5215573124490E+01 -0.1117103005952E+01 -0.5329339263942E+00
-0.2695659088990E+00 -0.5175895460390E+01 -0.1089092290087E+01 -0.4457223238139E+00
-0.2016728809253E+00 -0.5125725581214E+01 -0.1065479708305E+01 -0.3695400158072E+00
-0.1567179072107E+00 -0.5072834616758E+01 -0.1045910520379E+01 -0.3048362161886E+00
-0.1277487675977E+00 -0.5021593196931E+01 -0.1029868408252E+01 -0.2496407610479E+00
-0.1101580864179E+00 -0.4974173646420E+01 -0.1016866361720E+01 -0.2013919928696E+00
-0.1010263307124E+00 -0.4931519394683E+01 -0.1006509160077E+01 -0.1576288311749E+00
-0.9858748087075E-01 -0.4893917133918E+01 -0.9985009378365E+00 -0.1161752204341E+00
-0.1018855117669E+00 -0.4861281427965E+01 -0.9926334027377E+00 -0.7514659650930E-01
-0.1105784561917E+00 -0.4833256305046E+01 -0.9887669669813E+00 -0.3291930658469E-01
-0.1248323098427E+00 -0.4809197889116E+01 -0.9868060544963E+00  0.1186693405331E-01
-0.1452348347530E+00 -0.4788083941397E+01 -0.9866637699325E+00  0.6023182330143E-01
-0.1726231928522E+00 -0.4768426946850E+01 -0.9882100426659E+00  0.1126770923010E+00
-0.2077096216973E+00 -0.4748296178726E+01 -0.9912011748548E+00  0.1689672408135E+00
-0.2505075445273E+00 -0.4725513927776E+01 -0.9952043092904E+00  0.2280589310261E+00
-0.2998046398125E+00 -0.4698029761392E+01 -0.9995668951357E+00  0.2883841962401E+00
-0.3530479954308E+00 -0.4664630935375E+01 -0.1003535801115E+01  0.3484839898389E+00
-0.4070278544371E+00 -0.4624976646965E+01 -0.1006400915277E+01  0.4075164172184E+00
-0.4589632295592E+00 -0.4578588749607E+01 -0.1007510410846E+01  0.4651509019923E+00
-0.5070894058818E+00 -0.4524208776653E+01 -0.1006259651501E+01  0.5210117684520E+00
-0.5505462966621E+00 -0.4459843999250E+01 -0.1002078074115E+01  0.5741103940891E+00
-0.5888470360438E+00 -0.4383115552503E+01 -0.9943925325270E+00  0.6225318483326E+00
-0.6212516650817E+00 -0.4291596861376E+01 -0.9825697199329E+00  0.6633997099878E+00
-0.6462411283597E+00 -0.4183012194165E+01 -0.9658506788973E+00  0.6930026901810E+00
-0.6611259444457E+00 -0.4055311594616E+01 -0.9432875218684E+00  0.7069365836682E+00
-0.6616828807195E+00 -0.3906724550006E+01 -0.9136814997601E+00  0.7001487968807E+00
-0.6415562438410E+00 -0.3735763568300E+01 -0.8754639754736E+00  0.6667615857720E+00
-0.5909831287327E+00 -0.3541312375897E+01 -0.8264591132412E+00  0.5996564998475E+00
-0.4946649081419E+00 -0.3323774106205E+01 -0.7636878142492E+00  0.4905165771611E+00
-0.3289345492249E+00 -0.3087197672462E+01 -0.6832264545183E+00  0.3310488318293E+00
-0.5851515106483E-01 -0.2841711058160E+01 -0.5800452504883E+00  0.1159732595665E+00
 0.3655825278819E+00 -0.2605819209846E+01 -0.4480473430693E+00 -0.1506590159160E+00
 0.1002995728728E+01 -0.2406059018376E+01 -0.2806126621111E+00 -0.4445751892557E+00
 0.1908762601605E+01 -0.2268804195415E+01 -0.7200831983506E-01 -0.7076710611849E+00
 0.3099603712655E+01 -0.2198997785209E+01  0.1801211881732E+00 -0.8413114823271E+00
 0.4508045475663E+01 -0.2150063850587E+01  0.4715963320425E+00 -0.7250175287785E+00
 0.5956853105655E+01 -0.2009834176742E+01  0.7894037975457E+00 -0.2736173217563E+00
-0.1140143431260E+01 -0.4987118361020E+01 -0.1225452376717E+01 -0.7079402619871E+00
-0.9342460521500E+00 -0.5060219851706E+01 -0.1198893198636E+01 -0.7231178226090E+00
-0.7253135941342E+00 -0.5113982576261E+01 -0.1167859251482E+01 -0.6903652106414E+00
-0.5435559022542E+00 -0.5136815776766E+01 -0.1136074352733E+01 -0.6233483938758E+00
-0.4019389131255E+00 -0.5129365550958E+01 -0.1106260909301E+01 -0.5418955816030E+00
-0.2990756943808E+00 -0.5100025799714E+01 -0.1079820314910E+01 -0.4608216415074E+00
-0.2274103720902E+00 -0.5058351809127E+01 -0.1057152451996E+01 -0.3872934055851E+00
-0.1788865688139E+00 -0.5011644506730E+01 -0.1038106230578E+01 -0.3230300146360E+00
-0.1471117334324E+00 -0.4964477680409E+01 -0.1022317898002E+01 -0.2670464962659E+00
-0.1275948609514E+00 -0.4919385433298E+01 -0.1009396073891E+01 -0.2173870696556E+00
-0.1173710963009E+00 -0.4877622205663E+01 -0.9989986752789E+00 -0.1719316116906E+00
-0.1145876282519E+00 -0.4839682507877E+01 -0.9908540419906E+00 -0.1286963263836E+00
-0.1182004351014E+00 -0.4805587514008E+01 -0.9847576044960E+00 -0.8592070977345E-01
-0.1277814985611E+00 -0.4775005353371E+01 -0.9805573849979E+00 -0.4209093205765E-01
-0.1433936790898E+00 -0.4747262971277E+01 -0.9781313446486E+00  0.4021209409430E-02
-0.1654703451691E+00 -0.4721299535202E+01 -0.9773539906380E+00  0.5326477724269E-01
-0.1946112587489E+00 -0.4695636707497E+01 -0.9780496078234E+00  0.1059498401187E+00
-0.2312188078261E+00 -0.4668447414358E+01 -0.9799332590389E+00  0.1616859540501E+00
-0.2750124419029E+00 -0.4637750157032E+01 -0.9825525344281E+00  0.2193742272434E+00
-0.3246316650389E+00 -0.4601725800177E+01 -0.9852715077248E+00  0.2774874344901E+00
-0.3775788188022E+00 -0.4559345551124E+01 -0.9873848886985E+00  0.3346201612323E+00
-0.4307975262162E+00 -0.4510386164372E+01 -0.9882367528434E+00  0.3898936671644E+00
-0.4815662095884E+00 -0.4454489934204E+01 -0.9872112434691E+00  0.4428182484918E+00
-0.5279724755142E+00 -0.4390575702075E+01 -0.9837096501762E+00  0.4928088292493E+00
-0.5688160223985E+00 -0.4316876598764E+01 -0.9771385387930E+00  0.5387045609490E+00
-0.6031567041549E+00 -0.4231257640287E+01 -0.9668828832960E+00  0.5784917680384E+00
-0.6297600227988E+00 -0.4131544414064E+01 -0.9522609015624E+00  0.6092567865837E+00
-0.6465979620743E+00 -0.4015747321272E+01 -0.9324690705641E+00  0.6272839271975E+00
-0.6504326830560E+00 -0.3882196340960E+01 -0.9065258183115E+00  0.6281852952685E+00
-0.6363937577745E+00 -0.3729680799441E+01 -0.8732149244551E+00  0.6069842906089E+00
-0.5973300659841E+00 -0.3557566470955E+01 -0.8309793197704E+00  0.5580683300445E+00
-0.5225828867367E+00 -0.3366007053970E+01 -0.7777179997303E+00  0.4750289598591E+00
-0.3961530888229E+00 -0.3157079703557E+01 -0.7106465690654E+00  0.3510737654534E+00
-0.1945810966625E+00 -0.2936645564815E+01 -0.6262453416274E+00  0.1806742637030E+00
 0.1149266861999E+00 -0.2716094280288E+01 -0.5202335265697E+00 -0.3714038210099E-01
 0.5744222392937E+00 -0.2513237930241E+01 -0.3877631439676E+00 -0.2928858030311E+00
 0.1229850363850E+01 -0.2350075376421E+01 -0.2240450058528E+00 -0.5580708661623E+00
 0.2116026637395E+01 -0.2243983525057E+01 -0.2559137791362E-01 -0.7768904799853E+00
 0.3230240441676E+01 -0.2190649094522E+01  0.2079182725290E+00 -0.8661866277978E+00
 0.4502962575859E+01 -0.2144875809808E+01  0.4716173602378E+00 -0.7350266435433E+00
 0.5788899871086E+01 -0.2016908389515E+01  0.7543983075557E+00 -0.3273474906462E+00
-0.1125140486067E+01 -0.4893432671035E+01 -0.1203714649357E+01 -0.6795051996543E+00
-0.9358961632916E+00 -0.4962295753458E+01 -0.1179638400928E+01 -0.6979843058368E+00
-0.7421820305374E+00 -0.5015762734384E+01 -0.1151588970144E+01 -0.6745147683398E+00
-0.5695343121719E+00 -0.5043340812405E+01 -0.1122575041643E+01 -0.6189295171933E+00
-0.4307725785236E+00 -0.5043909663226E+01 -0.1094936464666E+01 -0.5471944642862E+00
-0.3268057379777E+00 -0.5023262298132E+01 -0.1070013623166E+01 -0.4725388566291E+00
-0.2524026768236E+00 -0.4989181097868E+01 -0.1048316770559E+01 -0.4023770689623E+00
-0.2009544079925E+00 -0.4948276721053E+01 -0.1029846241155E+01 -0.3393268730507E+00
-0.1667371689830E+00 -0.4905088156688E+01 -0.1014365080249E+01 -0.2832421442027E+00
-0.1454847540147E+00 -0.4862355080394E+01 -0.1001567981806E+01 -0.2327511141423E+00
-0.1342580830314E+00 -0.4821559927617E+01 -0.9911636168991E+00 -0.1860979799518E+00
-0.1311557165231E+00 -0.4783368581546E+01 -0.9829048742603E+00 -0.1415247168557E+00
-0.1350603583637E+00 -0.4747901439810E+01 -0.9765923741871E+00 -0.9742629911770E-01
-0.1454561189495E+00 -0.4714864249079E+01 -0.9720640880905E+00 -0.5242283345681E-01
-0.1622905685266E+00 -0.4683585636319E+01 -0.9691752554110E+00 -0.5429782224472E-02
-0.1858299528821E+00 -0.4653009170652E+01 -0.9677678391277E+00  0.4423861986152E-01
-0.2164381028307E+00 -0.4621708301356E+01 -0.9676292952561E+00  0.9672925976933E-01
-0.2542341482120E+00 -0.4587984118540E+01 -0.9684436677813E+00  0.1515355533950E+00
-0.2986850406993E+00 -0.4550048228803E+01 -0.9697466683508E+00  0.2075298140153E+00
-0.3483056866423E+00 -0.4506290553735E+01 -0.9709192625432E+00  0.2632273645085E+00
-0.4006357444554E+00 -0.4455841287154E+01 -0.9712954207952E+00  0.3172650494091E+00
-0.4527276166244E+00 -0.4398576399010E+01 -0.9702608175850E+00  0.3687261900411E+00
-0.5018851265983E+00 -0.4334246992299E+01 -0.9672264381922E+00  0.4169797361873E+00
-0.5460454539016E+00 -0.4261945129818E+01 -0.9615981310729E+00  0.4612553191694E+00
-0.5836898378795E+00 -0.4180140187431E+01 -0.9527660192593E+00  0.5002388394646E+00
-0.6134542823168E+00 -0.4086971111518E+01 -0.9400850927752E+00  0.5318339155719E+00
-0.6336362140305E+00 -0.3980563569786E+01 -0.9228399705147E+00  0.5531141075215E+00
-0.6417233222512E+00 -0.3859272812030E+01 -0.9001992402702E+00  0.5604064316280E+00
-0.6339677729712E+00 -0.3721866555371E+01 -0.8711668786498E+00  0.5494238380222E+00
-0.6049372954632E+00 -0.3567730181328E+01 -0.8345335077939E+00  0.5153990122054E+00
-0.5468691762868E+00 -0.3397060653263E+01 -0.7887859776638E+00  0.4531649762853E+00
-0.4485545806289E+00 -0.3211140859563E+01 -0.7319390989451E+00  0.3572228593940E+00
-0.2938568861214E+00 -0.3013379882765E+01 -0.6614473636336E+00  0.2224443615851E+00
-0.6030483172547E-01 -0.2810817265944E+01 -0.5742244280904E+00  0.4597008412875E-01
 0.2816047872565E+00 -0.2615163509356E+01 -0.4667117513745E+00 -0.1695073750052E+00
 0.7668031670186E+00 -0.2442575576129E+01 -0.3351544868163E+00 -0.4106405017321E+00
 0.1429258222606E+01 -0.2310361321512E+01 -0.1762206224071E+00 -0.6471807092974E+00
 0.2288476442692E+01 -0.2228646295681E+01  0.1196602958044E-01 -0.8276465365280E+00
 0.3329701963998E+01 -0.2187348037874E+01  0.2284707886293E+00 -0.8829571252528E+00
 0.4486043604159E+01 -0.2144547225076E+01  0.4682992827949E+00 -0.7444552541477E+00
 0.5638259886577E+01 -0.2028111291235E+01  0.7220297298273E+00 -0.3752995040314E+00
-0.1110215837357E+01 -0.4804706469554E+01 -0.1182984479010E+01 -0.6530455811969E+00
-0.9353758594226E+00 -0.4869624949123E+01 -0.1161000179009E+01 -0.6740632305916E+00
-0.7552893121745E+00 -0.4922133298452E+01 -0.1135484539045E+01 -0.6581385739404E+00
-0.5916054007363E+00 -0.4952853761005E+01 -0.1108891848872E+01 -0.6123598403776E+00
-0.4565628899824E+00 -0.4959593830253E+01 -0.1083231360189E+01 -0.5495603848295E+00
-0.3526146231039E+00 -0.4946160018176E+01 -0.1059754944048E+01 -0.4813574955478E+00
-0.2764086959995E+00 -0.4918748863061E+01 -0.1039031527295E+01 -0.4150494167721E+00
-0.2226736199365E+00 -0.4883179528467E+01 -0.1021170644897E+01 -0.3538398119813E+00
-0.1864030577488E+00 -0.4843785876151E+01 -0.1006037801771E+01 -0.2982632189158E+00
-0.1636340521276E+00 -0.4803379907116E+01 -0.9934028066516E+00 -0.2474838385123E+00
-0.1515138278674E+00 -0.4763592342126E+01 -0.9830212486468E+00 -0.2001134262542E+00
-0.1481282140357E+00 -0.4725221645249E+01 -0.9746699863806E+00 -0.1546401849081E+00
-0.1523024429507E+00 -0.4688476663840E+01 -0.9681558357848E+00 -0.1096369879273E+00
-0.1634341816658E+00 -0.4653110221922E+01 -0.9633088950719E+00 -0.6387478138239E-01
-0.1813492490472E+00 -0.4618477198924E+01 -0.9599653038989E+00 -0.1641838487075E-01
-0.2061417265579E+00 -0.4583558390811E+01 -0.9579400377482E+00  0.3326474356793E-01
-0.2379473382719E+00 -0.4547008623416E+01 -0.9569912065978E+00  0.8518348161447E-01
-0.2766282985495E+00 -0.4507270856961E+01 -0.9567798453592E+00  0.1387446651223E+00
-0.3214326997703E+00 -0.4462743552361E+01 -0.9568352646843E+00  0.1928092163938E+00
-0.3707665884387E+00 -0.4412008259731E+01 -0.9565549838877E+00  0.2459337176430E+00
-0.4221894755341E+00 -0.4354337983450E+01 -0.9553055060319E+00  0.2967883415179E+00
-0.4728252014773E+00 -0.4289698726065E+01 -0.9525047997019E+00  0.3444199508501E+00
-0.5199749670514E+00 -0.4217946264265E+01 -0.9475842603835E+00  0.3880749875176E+00
-0.5614238424962E+00 -0.4138345324156E+01 -0.9399538473369E+00  0.4268243541737E+00
-0.5953555436016E+00 -0.4049608885079E+01 -0.9289928995793E+00  0.4592248700273E+00
-0.6200132990765E+00 -0.3950169724066E+01 -0.9140366182487E+00  0.4831194451037E+00
-0.6332594818277E+00 -0.3838485475203E+01 -0.8943490047329E+00  0.4955973578144E+00
-0.6321347030261E+00 -0.3713293505412E+01 -0.8690856546379E+00  0.4930752100408E+00
-0.6124378701545E+00 -0.3573828739137E+01 -0.8372533343344E+00  0.4714431124676E+00
-0.5682805948599E+00 -0.3420072043327E+01 -0.7976705395237E+00  0.4262533614588E+00
-0.4914843869533E+00 -0.3252985644905E+01 -0.7488940175311E+00  0.3529180011945E+00
-0.3706194922464E+00 -0.3074798589435E+01 -0.6890836266045E+00  0.2469651649622E+00
-0.1898928274239E+00 -0.2889895009681E+01 -0.6159575765995E+00  0.1049445392085E+00
 0.7160586328236E-01 -0.2705930163010E+01 -0.5268648677963E+00 -0.7358322336224E-01
 0.4396729191140E+00 -0.2534240596487E+01 -0.4189135417168E+00 -0.2829983507289E+00
 0.9424351624213E+00 -0.2388825948894E+01 -0.2892781616050E+00 -0.5074701925835E+00
 0.1603794056785E+01 -0.2282621309507E+01 -0.1357654525673E+00 -0.7167339620618E+00
 0.2431970789521E+01 -0.2220171868166E+01  0.4235978490222E-01 -0.8645464659235E+00
 0.3405142915975E+01 -0.2188051410576E+01  0.2434183047071E+00 -0.8940463192127E+00
 0.4461233040590E+01 -0.2148309337997E+01  0.4625847474116E+00 -0.7532536759580E+00
 0.5502083531785E+01 -0.2042645775656E+01  0.6918875615357E+00 -0.4180595673194E+00
-0.1095397802392E+01 -0.4720125765013E+01 -0.1163104730813E+01 -0.6283364860616E+00
-0.9331335755559E+00 -0.4781391713327E+01 -0.1142905074807E+01 -0.6513385343983E+00
-0.7652710141783E+00 -0.4832532464335E+01 -0.1119560712385E+01 -0.6416103337690E+00
-0.6102405549276E+00 -0.4865220698011E+01 -0.1095092266906E+01 -0.6042617276328E+00
-0.4794815388020E+00 -0.4876651326817E+01 -0.1071226589086E+01 -0.5496051826080E+00
-0.3764409495722E+00 -0.4869135592155E+01 -0.1049115323978E+01 -0.4877272108076E+00
-0.2992525482501E+00 -0.4847500829555E+01 -0.1029350690900E+01 -0.4255812820670E+00
-0.2438374269202E+00 -0.4816753537436E+01 -0.1012118207953E+01 -0.3667075696167E+00
-0.2059098466623E+00 -0.4780910609290E+01 -0.9973641060522E+00 -0.3121683828631E+00
-0.1818604178986E+00 -0.4742749711095E+01 -0.9849220404751E+00 -0.2616005755844E+00
-0.1689707404083E+00 -0.4703978058733E+01 -0.9745897743509E+00 -0.2139708647732E+00
-0.1653458494317E+00 -0.4665488301708E+01 -0.9661668446249E+00 -0.1680223461657E+00
-0.1697694904929E+00 -0.4627564697737E+01 -0.9594668519432E+00 -0.1225196455715E+00
-0.1815570777024E+00 -0.4590012713181E+01 -0.9543139723970E+00 -0.7639487218033E-01
-0.2004111199977E+00 -0.4552231883922E+01 -0.9505286149478E+00 -0.2886326109660E-01
-0.2262544223859E+00 -0.4513264163921E+01 -0.9479037313862E+00  0.2046586516987E-01
-0.2590063908478E+00 -0.4471865356750E+01 -0.9461743636187E+00  0.7148497558287E-01
-0.2982971899819E+00 -0.4426626834346E+01 -0.9449848189470E+00  0.1235366393809E+00
-0.3431832163436E+00 -0.4376126458588E+01 -0.9438619490510E+00  0.1754816237470E+00
-0.3919720767417E+00 -0.4319123922462E+01 -0.9422192138808E+00  0.2259153846537E+00
-0.4422271446476E+00 -0.4255024751741E+01 -0.9394503932766E+00  0.2735351380261E+00
-0.4911129826941E+00 -0.4183881305031E+01 -0.9349988714775E+00  0.3173549245261E+00
-0.5359057870704E+00 -0.4105654061694E+01 -0.9283119835858E+00  0.3565178651272E+00
-0.5742385064968E+00 -0.4019781458835E+01 -0.9188040067576E+00  0.3899634954194E+00
-0.6040180134039E+00 -0.3925224568048E+01 -0.9058485297887E+00  0.4161464198299E+00
-0.6231271758711E+00 -0.3820721509645E+01 -0.8887697503469E+00  0.4328742699998E+00
-0.6290315506946E+00 -0.3705080031892E+01 -0.8668223294339E+00  0.4372822802308E+00
-0.6183716576130E+00 -0.3577437960615E+01 -0.8391619361502E+00  0.4259207211202E+00
-0.5865628543548E+00 -0.3437502511397E+01 -0.8048130851429E+00  0.3949218199905E+00
-0.5273773934340E+00 -0.3285820383475E+01 -0.7626395667460E+00  0.3402421757681E+00
-0.4324148854678E+00 -0.3124023673805E+01 -0.7112877224535E+00  0.2579598462534E+00
-0.2903196175974E+00 -0.2955086543759E+01 -0.6490812419433E+00  0.1446748493403E+00
-0.8602631876013E-01 -0.2784030690277E+01 -0.5740114103608E+00 -0.1466907694527E-02
 0.1994371372448E+00 -0.2618665721943E+01 -0.4838457241495E+00 -0.1788217177927E+00
 0.5880436758088E+00 -0.2469487431566E+01 -0.3762887567585E+00 -0.3795707377595E+00
 0.1101719386260E+01 -0.2348163797178E+01 -0.2492888858984E+00 -0.5865268211635E+00
 0.1756149906833E+01 -0.2263801090282E+01 -0.1015302382028E+00 -0.7705575046276E+00
 0.2551436896068E+01 -0.2216810707176E+01  0.6692523877551E-01 -0.8908810588798E+00
 0.3461971731449E+01 -0.2192057252484E+01  0.2539828995776E+00 -0.9009729091286E+00
 0.4431236677610E+01 -0.2155581054917E+01  0.4551311313206E+00 -0.7613150577701E+00
 0.5378123033204E+01 -0.2059923751587E+01  0.6636398662123E+00 -0.4561457083660E+00
-0.1080699650433E+01 -0.4639050376041E+01 -0.1143950022341E+01 -0.6051893701686E+00
-0.9295066681687E+00 -0.4696941277990E+01 -0.1125289606000E+01 -0.6297678130255E+00
-0.7726367385133E+00 -0.4746472267056E+01 -0.1103821817562E+01 -0.6251824012622E+00
-0.6258582013663E+00 -0.4780267107466E+01 -0.1081225077878E+01 -0.5951074873953E+00
-0.4997238508924E+00 -0.4795208623531E+01 -0.1058986510665E+01 -0.5478346638525E+00
-0.3982799018586E+00 -0.4792496053317E+01 -0.1038155206505E+01 -0.4920533360802E+00
-0.3208121806370E+00 -0.4775802641020E+01 -0.1019322979520E+01 -0.4342406786051E+00
-0.2642772330895E+00 -0.4749351271877E+01 -0.1002725715935E+01 -0.3780829848486E+00
-0.2250814479716E+00 -0.4716776849516E+01 -0.9883716742253E+00 -0.3250324165411E+00
-0.1999951345347E+00 -0.4680742368234E+01 -0.9761475150994E+00 -0.2751285522317E+00
-0.1864695719965E+00 -0.4642970304384E+01 -0.9658879896690E+00 -0.2276690768346E+00
-0.1826559355072E+00 -0.4604411582245E+01 -0.9574135178170E+00 -0.1816506575020E+00
-0.1873118675453E+00 -0.4565411628645E+01 -0.9505447134024E+00 -0.1360358015508E+00
-0.1996768513918E+00 -0.4525830667828E+01 -0.9451015179271E+00 -0.8992232843022E-01
-0.2193324864552E+00 -0.4485125682531E+01 -0.9408916478177E+00 -0.4267335768535E-01
-0.2460355536909E+00 -0.4442416254297E+01 -0.9376903755703E+00  0.5971700983831E-02
-0.2795031923578E+00 -0.4396571228275E+01 -0.9352148980623E+00  0.5580717881456E-01
-0.3191563706727E+00 -0.4346332203417E+01 -0.9330977287221E+00  0.1061282158449E+00
-0.3638817907509E+00 -0.4290448743971E+01 -0.9308661208154E+00  0.1558027315986E+00
-0.4118955775986E+00 -0.4227848202718E+01 -0.9279487698908E+00  0.2034626954849E+00
-0.4607509961453E+00 -0.4158062128371E+01 -0.9237626386684E+00  0.2478285715398E+00
-0.5076285329698E+00 -0.4081228654238E+01 -0.9177714511174E+00  0.2878869068674E+00
-0.5497621322047E+00 -0.3997414988322E+01 -0.9094354376571E+00  0.3226965378383E+00
-0.5846345508738E+00 -0.3906234610448E+01 -0.8981738456482E+00  0.3510927123894E+00
-0.6098966191490E+00 -0.3806898328185E+01 -0.8833590026299E+00  0.3714555952146E+00
-0.6231043016789E+00 -0.3698454000567E+01 -0.8643116733285E+00  0.3815843384583E+00
-0.6213684162051E+00 -0.3580065961127E+01 -0.8402868879876E+00  0.3786900474182E+00
-0.6009832165891E+00 -0.3451274780063E+01 -0.8104516114070E+00  0.3594958258061E+00
-0.5570579300422E+00 -0.3312245285132E+01 -0.7738606545662E+00  0.3204277058323E+00
-0.4831450700310E+00 -0.3164039225889E+01 -0.7294368700534E+00  0.2579052715975E+00
-0.3708035786928E+00 -0.3008846676518E+01 -0.6759300611142E+00  0.1687170854918E+00
-0.2090018727255E+00 -0.2850186658292E+01 -0.6118377153205E+00  0.5052062213560E-01
 0.1631176941618E-01 -0.2693421235315E+01 -0.5354219011583E+00 -0.9708923938590E-01
 0.3219617695284E+00 -0.2546161494786E+01 -0.4448399516802E+00 -0.2707586442309E+00
 0.7261930125709E+00 -0.2417784824559E+01 -0.3383183674389E+00 -0.4611313601820E+00
 0.1245468620705E+01 -0.2317666908968E+01 -0.2144396608481E+00 -0.6505329430021E+00
 0.1888921523809E+01 -0.2251700894055E+01 -0.7255587513042E-01 -0.8116586504324E+00
 0.2650961811250E+01 -0.2217347181947E+01  0.8672292715301E-01 -0.9090043179095E+00
 0.3504318839285E+01 -0.2198854590629E+01  0.2610928536219E+00 -0.9046734807302E+00
 0.4397970390074E+01 -0.2165936131651E+01  0.4464068583365E+00 -0.7685183843395E+00
 0.5264547435231E+01 -0.2079527770151E+01  0.6370039425080E+00 -0.4900436497502E+00
-0.1066125427309E+01 -0.4560969738026E+01 -0.1125419049837E+01 -0.5834445631363E+00
-0.9247516670915E+00 -0.4615743342872E+01 -0.1108099018505E+01 -0.6092954319616E+00
-0.7777959875346E+00 -0.4663532832249E+01 -0.1088265780173E+01 -0.6090235112126E+00
-0.6388234154790E+00 -0.4697803726587E+01 -0.1067325444318E+01 -0.5852548131973E+00
-0.5174909132130E+00 -0.4715320117318E+01 -0.1046562221701E+01 -0.5446628688200E+00
-0.4181649852154E+00 -0.4716463467840E+01 -0.1026925705913E+01 -0.4946932899542E+00
-0.3410085436437E+00 -0.4703950790919E+01 -0.1008991881948E+01 -0.4412827085783E+00
-0.2838585954666E+00 -0.4681279180955E+01 -0.9930275700817E+00 -0.3881237988085E+00
-0.2437649952172E+00 -0.4651671879171E+01 -0.9790873894671E+00 -0.3369400154879E+00
-0.2178844363873E+00 -0.4617620647584E+01 -0.9671010312051E+00 -0.2881033670572E+00
-0.2038612208821E+00 -0.4580813547862E+01 -0.9569349680084E+00 -0.2412111621384E+00
-0.1999141389658E+00 -0.4542227755960E+01 -0.9484283931178E+00 -0.1955043716123E+00
-0.2047888963632E+00 -0.4502255357309E+01 -0.9414088647625E+00 -0.1501428891232E+00
-0.2176568298275E+00 -0.4460810606823E+01 -0.9356935012730E+00 -0.1043898912609E+00
-0.2379840326113E+00 -0.4417415887962E+01 -0.9310799979889E+00 -0.5775110583780E-01
-0.2653695637778E+00 -0.4371278813631E+01 -0.9273296893001E+00 -0.1008430746694E-01
-0.2993434360121E+00 -0.4321387715681E+01 -0.9241462441096E+00  0.3832210775073E-01
-0.3391381294316E+00 -0.4266633120401E+01 -0.9211542636928E+00  0.8672867594484E-01
-0.3834886454527E+00 -0.4205928757300E+01 -0.9178834942280E+00  0.1340153877190E+00
-0.4305244583790E+00 -0.4138361300158E+01 -0.9137771653237E+00  0.1788489717424E+00
-0.4777770153444E+00 -0.4063584113905E+01 -0.9082722393841E+00  0.2199715161768E+00
-0.5224231351170E+00 -0.3981822029028E+01 -0.9008490462527E+00  0.2563486478620E+00
-0.5616418251665E+00 -0.3893251605473E+01 -0.8909786994046E+00  0.2869734391786E+00
-0.5927695668643E+00 -0.3797662105624E+01 -0.8780863475822E+00  0.3106029263816E+00
-0.6132222528347E+00 -0.3694512902422E+01 -0.8615470438894E+00  0.3255702238419E+00
-0.6202630797449E+00 -0.3583159908312E+01 -0.8406846101385E+00  0.3296925334134E+00
-0.6106926472462E+00 -0.3463120777627E+01 -0.8147626971155E+00  0.3202847258610E+00
-0.5805167485629E+00 -0.3334328068623E+01 -0.7829689751043E+00  0.2942754602151E+00
-0.5246188580770E+00 -0.3197374550458E+01 -0.7443986927994E+00  0.2484222316709E+00
-0.4364475906564E+00 -0.3053772575771E+01 -0.6980440436870E+00  0.1796416744808E+00
-0.3076824222690E+00 -0.2906152570896E+01 -0.6427670082110E+00  0.8544085534622E-01
-0.1278166084977E+00 -0.2758392101178E+01 -0.5772417505367E+00 -0.3552465615973E-01
 0.1159938172757E+00 -0.2615946714871E+01 -0.4999905869695E+00 -0.1823970612607E+00
 0.4383496234121E+00 -0.2485977654436E+01 -0.4095256123073E+00 -0.3504840610170E+00
 0.8540001529138E+00 -0.2376610994096E+01 -0.3045221727741E+00 -0.5294590787827E+00
 0.1374715721761E+01 -0.2295096164050E+01 -0.1840760912007E+00 -0.7017985839313E+00
 0.2004502524494E+01 -0.2244711531914E+01 -0.4804180219974E-01 -0.8423936205652E+00
 0.2733904825963E+01 -0.2220893989244E+01  0.1026021688728E+00 -0.9206109578009E+00
 0.3535364918489E+01 -0.2208013966256E+01  0.2654701944025E+00 -0.9056954608197E+00
 0.4362862506658E+01 -0.2179070020344E+01  0.4367585037709E+00 -0.7747127328887E+00
 0.5159812516308E+01 -0.2101205755397E+01  0.6117213612974E+00 -0.5202599905886E+00
-0.1051673556198E+01 -0.4485471633884E+01 -0.1107429054518E+01 -0.5629654617414E+00
-0.9190655357122E+00 -0.4537364694326E+01 -0.1091286062269E+01 -0.5898600243732E+00
-0.7810788644161E+00 -0.4583354518426E+01 -0.1072886692556E+01 -0.5932443032049E+00
-0.6494512661023E+00 -0.4617641525378E+01 -0.1053418573993E+01 -0.5749739561319E+00
-0.5329786597249E+00 -0.4636992679134E+01 -0.1033994283180E+01 -0.5404262138747E+00
-0.4361542857344E+00 -0.4641195055337E+01 -0.1015469883346E+01 -0.4959571167258E+00
-0.3597960125057E+00 -0.4632183443189E+01 -0.9983959060162E+00 -0.4469434300801E+00
-0.3024767248116E+00 -0.4612801098030E+01 -0.9830555792170E+00 -0.3969857437368E+00
-0.2618297348023E+00 -0.4585855273251E+01 -0.9695370160580E+00 -0.3479805794488E+00
-0.2353900814759E+00 -0.4553630093491E+01 -0.9578040492658E+00 -0.3005658160225E+00
-0.2210079372664E+00 -0.4517740912005E+01 -0.9477497839769E+00 -0.2546030696841E+00
-0.2169857431129E+00 -0.4479163800545E+01 -0.9392299227272E+00 -0.2095624374231E+00
-0.2220697875650E+00 -0.4438323477556E+01 -0.9320786669132E+00 -0.1647952944523E+00
-0.2353718764639E+00 -0.4395185322104E+01 -0.9261114535137E+00 -0.1197258044939E+00
-0.2562501205339E+00 -0.4349341090456E+01 -0.9211182559237E+00 -0.7399495809238E-01
-0.2841561486618E+00 -0.4300092027317E+01 -0.9168496488578E+00 -0.2756745517005E-01
-0.3184482898914E+00 -0.4246548249324E+01 -0.9129993214478E+00  0.1919866256270E-01
-0.3581891844265E+00 -0.4187745849447E+01 -0.9091870203226E+00  0.6553929652751E-01
-0.4019770802895E+00 -0.4122755461446E+01 -0.9049465218319E+00  0.1103500723232E+00
-0.4478584446121E+00 -0.4050816165477E+01 -0.8997349354248E+00  0.1523315814844E+00
-0.4933335052603E+00 -0.3971700168045E+01 -0.8930067479678E+00  0.1902477100636E+00
-0.5355603494767E+00 -0.3885720383412E+01 -0.8842561597542E+00  0.2230505803805E+00
-0.5716543426239E+00 -0.3793165058991E+01 -0.8729638933312E+00  0.2496852318230E+00
-0.5988114808279E+00 -0.3693998843978E+01 -0.8585620777547E+00  0.2688550720870E+00
-0.6142341402617E+00 -0.3587925791444E+01 -0.8404319988645E+00  0.2788722358054E+00
-0.6149271197781E+00 -0.3474603036569E+01 -0.8179060434571E+00  0.2775969848699E+00
-0.5974264015429E+00 -0.3353890407389E+01 -0.7902633735623E+00  0.2624725579513E+00
-0.5575084815561E+00 -0.3226091631959E+01 -0.7567200339791E+00  0.2306585502406E+00
-0.4899103981254E+00 -0.3092187297358E+01 -0.7164195497723E+00  0.1792677510366E+00
-0.3880839418502E+00 -0.2954068752858E+01 -0.6684305489020E+00  0.1057259109592E+00
-0.2439659811101E+00 -0.2814691684919E+01 -0.6117315423213E+00  0.8237107802339E-02
-0.4772613618429E-01 -0.2678127882723E+01 -0.5451708119052E+00 -0.1136355260386E+00
 0.2121570535133E+00 -0.2549731992381E+01 -0.4675149947401E+00 -0.2579746516768E+00
 0.5480849501365E+00 -0.2436051281183E+01 -0.3775932718359E+00 -0.4190960736532E+00
 0.9716219897942E+00 -0.2343931683841E+01 -0.2744619428991E+00 -0.5861677397699E+00
 0.1490587244342E+01 -0.2278725357630E+01 -0.1576276250063E+00 -0.7422613412590E+00
 0.2105042322785E+01 -0.2241638692436E+01 -0.2731927433721E-01 -0.8646098667465E+00
 0.2803013885885E+01 -0.2226770292582E+01  0.1152487203780E+00 -0.9269394366555E+00
 0.3557545692686E+01 -0.2219114760515E+01  0.2676861904232E+00 -0.9043425699883E+00
 0.4327088988588E+01 -0.2194681608097E+01  0.4264814824534E+00 -0.7796368648616E+00
 0.5062551931865E+01 -0.2124910757192E+01  0.5875282436893E+00 -0.5474034730596E+00
-0.1037339110963E+01 -0.4412219688247E+01 -0.1089911776083E+01 -0.5436340614216E+00
-0.9126008043460E+00 -0.4461448364210E+01 -0.1074809849727E+01 -0.5713987485550E+00
-0.7827524637812E+00 -0.4505629816957E+01 -0.1057676471908E+01 -0.5779146943553E+00
-0.6580117759722E+00 -0.4539599954153E+01 -0.1039522361515E+01 -0.5644683890233E+00
-0.5463716361770E+00 -0.4560202764461E+01 -0.1021314895346E+01 -0.5353963696841E+00
-0.4523204288455E+00 -0.4566799143544E+01 -0.1003823929436E+01 -0.4961103388895E+00
-0.3771543019134E+00 -0.4560690367429E+01 -0.9875689485844E+00 -0.4514366127782E+00
-0.3200519926972E+00 -0.4544142408821E+01 -0.9728388948002E+00 -0.4048176215252E+00
-0.2791653791734E+00 -0.4519559437490E+01 -0.9597449776339E+00 -0.3582440256601E+00
-0.2523893299696E+00 -0.4488997800716E+01 -0.9482774402675E+00 -0.3125591499099E+00
-0.2377840098167E+00 -0.4453972298141E+01 -0.9383512755741E+00 -0.2678522604154E+00
-0.2337464641729E+00 -0.4415435479995E+01 -0.9298364026892E+00 -0.2238033605821E+00
-0.2390341898859E+00 -0.4373831714380E+01 -0.9225731946005E+00 -0.1799452105007E+00
-0.2527083648165E+00 -0.4329173061592E+01 -0.9163762989367E+00 -0.1358554193008E+00
-0.2740279970335E+00 -0.4281121477958E+01 -0.9110299085737E+00 -0.9130136779266E-01
-0.3023087393693E+00 -0.4229073727431E+01 -0.9062765068646E+00 -0.4634361056522E-01
-0.3367524742861E+00 -0.4172260976800E+01 -0.9018027036551E+00 -0.1398576114609E-02
-0.3762687794517E+00 -0.4109860148290E+01 -0.8972257989180E+00  0.4275299710190E-01
-0.4193318205939E+00 -0.4041091767899E+01 -0.8920847309918E+00  0.8502525377320E-01
-0.4639081567111E+00 -0.3965341261209E+01 -0.8858498967842E+00  0.1241526643549E+00
-0.5074596232577E+00 -0.3882497191670E+01 -0.8779913760687E+00  0.1589225131023E+00
-0.5471144098703E+00 -0.3792961750963E+01 -0.8680152451012E+00  0.1882813307818E+00
-0.5799189435168E+00 -0.3697136384510E+01 -0.8554110783520E+00  0.2111428562458E+00
-0.6029361848574E+00 -0.3595159301368E+01 -0.8396191097563E+00  0.2261796297479E+00
-0.6131766100593E+00 -0.3486972821859E+01 -0.8200298986030E+00  0.2317069016944E+00
-0.6074207245675E+00 -0.3372524219881E+01 -0.7959890007509E+00  0.2256505870212E+00
-0.5819852961294E+00 -0.3251998221724E+01 -0.7667967149969E+00  0.2056027587342E+00
-0.5324757710368E+00 -0.3126041648874E+01 -0.7317034948853E+00  0.1689716615636E+00
-0.4535578241805E+00 -0.2995976388167E+01 -0.6899068527499E+00  0.1132363249690E+00
-0.3387813425440E+00 -0.2863999324305E+01 -0.6405561429149E+00  0.3632503334840E-01
-0.1804513446834E+00 -0.2733284686883E+01 -0.5827472149968E+00 -0.6290498164373E-01
 0.3048038020510E-01 -0.2607960059882E+01 -0.5154959436169E+00 -0.1840926731529E+00
 0.3041634229747E+00 -0.2493134362477E+01 -0.4377941944240E+00 -0.3244658220666E+00
 0.6508940757919E+00 -0.2394647260339E+01 -0.3487506421063E+00 -0.4776565505306E+00
 0.1079398678826E+01 -0.2318105101583E+01 -0.2477412882430E+00 -0.6326937336532E+00
 0.1594220651905E+01 -0.2267215629389E+01 -0.1345989975025E+00 -0.7735370537155E+00
 0.2192444195889E+01 -0.2241573507237E+01 -0.9825862415854E-02 -0.8797538587507E+00
 0.2860535146140E+01 -0.2234466759800E+01  0.1252136791339E+00 -0.9289232472921E+00
 0.3572690192817E+01 -0.2231667812311E+01  0.2682044800977E+00 -0.9008033238527E+00
 0.4291665808906E+01 -0.2212433417434E+01  0.4158464844911E+00 -0.7828750196992E+00
 0.4971869174729E+01 -0.2150346406703E+01  0.5643045620141E+00 -0.5721756838015E+00
-0.1023123592870E+01 -0.4340943712897E+01 -0.1072813477140E+01 -0.5253534382695E+00
-0.9054861109394E+00 -0.4387724897538E+01 -0.1058642217470E+01 -0.5538579463436E+00
-0.7830430405867E+00 -0.4430140289178E+01 -0.1042636681489E+01 -0.5630882950712E+00
-0.6647406377099E+00 -0.4463573738905E+01 -0.1025662890607E+01 -0.5539040724062E+00
-0.5578386216763E+00 -0.4484988236232E+01 -0.1008565386610E+01 -0.5298036090236E+00
-0.4667348430232E+00 -0.4493443787795E+01 -0.9920357409462E+00 -0.4953860831055E+00
-0.3930660087188E+00 -0.4489732722003E+01 -0.9765597606962E+00 -0.4549549019431E+00
-0.3365032237216E+00 -0.4475619307132E+01 -0.9624245205119E+00 -0.4117537415431E+00
-0.2956516686373E+00 -0.4453129057772E+01 -0.9497561594344E+00 -0.3678063084443E+00
-0.2687403922823E+00 -0.4424083639249E+01 -0.9385648202920E+00 -0.3241085549168E+00
-0.2540364585003E+00 -0.4389879208720E+01 -0.9287831472840E+00 -0.2809413775710E+00
-0.2500376958264E+00 -0.4351427790384E+01 -0.9202931109556E+00 -0.2381728909118E+00
-0.2555213110473E+00 -0.4309182310940E+01 -0.9129407380013E+00 -0.1955038023055E+00
-0.2695066462036E+00 -0.4263196473305E+01 -0.9065406374103E+00 -0.1526548373874E+00
-0.2911634614885E+00 -0.4213201106643E+01 -0.9008729270504E+00 -0.1095093542370E+00
-0.3196838952270E+00 -0.4158687642762E+01 -0.8956743209444E+00 -0.6621261915929E-01
-0.3541287758313E+00 -0.4099005254191E+01 -0.8906268192758E+00 -0.2322917513990E-01
-0.3932705630740E+00 -0.4033465725597E+01 -0.8853472709269E+00  0.1865054576595E-01
-0.4354711812604E+00 -0.3961432159071E+01 -0.8793806811701E+00  0.5836197728181E-01
-0.4786210863149E+00 -0.3882430121311E+01 -0.8722102545221E+00  0.9467436261779E-01
-0.5201393497794E+00 -0.3796461463175E+01 -0.8633201754554E+00  0.1264010152065E+00
-0.5571170370115E+00 -0.3704017517716E+01 -0.8522269236447E+00  0.1524909923725E+00
-0.5865300412804E+00 -0.3605612357406E+01 -0.8384284922308E+00  0.1718424422587E+00
-0.6053182603273E+00 -0.3501553022274E+01 -0.8213742687597E+00  0.1831178566774E+00
-0.6103233187313E+00 -0.3392009599552E+01 -0.8004665955845E+00  0.1846571426032E+00
-0.5981363866424E+00 -0.3277202768247E+01 -0.7750678425274E+00  0.1744708798600E+00
-0.5649006830189E+00 -0.3157617787301E+01 -0.7445037051579E+00  0.1503146599810E+00
-0.5061072845153E+00 -0.3034208995480E+01 -0.7080632665500E+00  0.1098535989756E+00
-0.4164193507891E+00 -0.2908587429942E+01 -0.6650013660554E+00  0.5092954592709E-01
-0.2895645815285E+00 -0.2783181944852E+01 -0.6145493144336E+00 -0.2805222525615E-01
-0.1182976393678E+00 -0.2661289173926E+01 -0.5559173709426E+00 -0.1276456097799E+00
 0.1055887700927E+00 -0.2546981429862E+01 -0.4882785392297E+00 -0.2468160910746E+00
 0.3908852353726E+00 -0.2445023576996E+01 -0.4108276744465E+00 -0.3821372678017E+00
 0.7459389755411E+00 -0.2360513851637E+01 -0.3229149800310E+00 -0.5268254685561E+00
 0.1177010386446E+01 -0.2297911661782E+01 -0.2241802584078E+00 -0.6700491740434E+00
 0.1685989086176E+01 -0.2259539453008E+01 -0.1147100750757E+00 -0.7968232052881E+00
 0.2267758371576E+01 -0.2243775066853E+01  0.4796661016154E-02 -0.8889410483532E+00
 0.2907965986703E+01 -0.2243454782410E+01  0.1329022428390E+00 -0.9272864728833E+00
 0.3582065312545E+01 -0.2245280463698E+01  0.2673569737533E+00 -0.8954710702470E+00
 0.4257246888209E+01 -0.2230927244343E+01  0.4052639348120E+00 -0.7838175665660E+00
 0.4891332081266E+01 -0.2179133520464E+01  0.5424397202435E+00 -0.5949685113839E+00
-0.1009006036159E+01 -0.4271408564241E+01 -0.1056082935817E+01 -0.5080221840373E+00
-0.8978061708328E+00 -0.4315943035621E+01 -0.1042749856829E+01 -0.5371707331042E+00
-0.7821169876987E+00 -0.4356656158932E+01 -0.1027754644641E+01 -0.5487778672945E+00
-0.6698255305880E+00 -0.4389404724769E+01 -0.1011846066149E+01 -0.5433856799916E+00
-0.5675277905085E+00 -0.4411292180122E+01 -0.9957640089641E+00 -0.5238142733271E+00
-0.4794767285166E+00 -0.4421170717549E+01 -0.9801295038182E+00 -0.4939665112686E+00
-0.4075421611274E+00 -0.4419426530635E+01 -0.9653937527380E+00 -0.4576595000283E+00
-0.3517898853154E+00 -0.4407392870955E+01 -0.9518365654376E+00 -0.4179154508660E+00
-0.3112157204747E+00 -0.4386747134118E+01 -0.9395925849196E+00 -0.3767445751966E+00
-0.2843533754661E+00 -0.4359078586929E+01 -0.9286864063175E+00 -0.3352501661799E+00
-0.2696687060971E+00 -0.4325654182969E+01 -0.9190645915084E+00 -0.2938706634968E+00
-0.2657628288803E+00 -0.4287332837332E+01 -0.9106191468118E+00 -0.2526394691954E+00
-0.2714393395812E+00 -0.4244566507566E+01 -0.9032011828882E+00 -0.2114098799922E+00
-0.2856841461783E+00 -0.4197444965358E+01 -0.8966258356680E+00 -0.1700338507702E+00
-0.3075878713775E+00 -0.4145764809230E+01 -0.8906705493935E+00 -0.1284997541428E+00
-0.3362316213464E+00 -0.4089109174278E+01 -0.8850681723134E+00 -0.8702699489668E-01
-0.3705497170593E+00 -0.4026940580565E+01 -0.8794980726305E+00 -0.4611920626788E-01
-0.4091918250849E+00 -0.3958699032849E+01 -0.8735781846041E+00 -0.6570623811066E-02
-0.4504180372014E+00 -0.3883882927201E+01 -0.8668602057977E+00  0.3057807337193E-01
-0.4920464016203E+00 -0.3802151829479E+01 -0.8588396590175E+00  0.6413244427990E-01
-0.5314505660627E+00 -0.3713617468728E+01 -0.8490136196095E+00  0.9293518909925E-01
-0.5656801435652E+00 -0.3618859396317E+01 -0.8369079204473E+00  0.1159458216887E+00
-0.5916412829659E+00 -0.3518502596118E+01 -0.8220287880660E+00  0.1320610227781E+00
-0.6061616714912E+00 -0.3413016848435E+01 -0.8038357159633E+00  0.1399514458692E+00
-0.6059364508891E+00 -0.3302787810596E+01 -0.7817448639460E+00  0.1380000383545E+00
-0.5874005067498E+00 -0.3188290609030E+01 -0.7551382344084E+00  0.1243172822524E+00
-0.5465660437913E+00 -0.3070284114704E+01 -0.7233700424780E+00  0.9683193337062E-01
-0.4788612051315E+00 -0.2949992690178E+01 -0.6857707892807E+00  0.5346709037524E-01
-0.3790061615839E+00 -0.2829265042200E+01 -0.6416542503182E+00 -0.7585438339305E-02
-0.2409700447149E+00 -0.2710694581405E+01 -0.5903329340207E+00 -0.8747963424969E-01
-0.5801334090259E-01 -0.2597619205313E+01 -0.5311265171576E+00 -0.1862533932326E+00
 0.1772059612909E+00 -0.2493971328928E+01 -0.4633530804319E+00 -0.3023222917627E+00
 0.4721691301630E+00 -0.2404110476007E+01 -0.3863882749264E+00 -0.4317858559434E+00
 0.8334522321612E+00 -0.2332398338817E+01 -0.2997892257983E+00 -0.5676630744974E+00
 0.1265202555101E+01 -0.2282261005799E+01 -0.2034116931706E+00 -0.6994614785994E+00
 0.1767180291417E+01 -0.2254874817441E+01 -0.9753890665820E-01 -0.8133310989507E+00
 0.2332688704349E+01 -0.2247715443441E+01  0.1699465243485E-01 -0.8931288432195E+00
 0.2946999419466E+01 -0.2253433000212E+01  0.1387132859178E+00 -0.9225771761715E+00
 0.3587161813167E+01 -0.2259650447549E+01  0.2655022770799E+00 -0.8883378694442E+00
 0.4223137401931E+01 -0.2250120599640E+01  0.3946033663383E+00 -0.7832772809294E+00
 0.4823533872820E+01 -0.2207527780269E+01  0.5232012263065E+00 -0.6106347384133E+00
-0.9949819351521E+00 -0.4203416372967E+01 -0.1039679677116E+01 -0.4915627327598E+00
-0.8896336073364E+00 -0.4245869374951E+01 -0.1027100611763E+01 -0.5212757664938E+00
-0.7801209739669E+00 -0.4284940309305E+01 -0.1013012271749E+01 -0.5349840637876E+00
-0.6734393869875E+00 -0.4316890837679E+01 -0.9980660598057E+00 -0.5329892233523E+00
-0.5755896498648E+00 -0.4338974810331E+01 -0.9829129066857E+00 -0.5175615566781E+00
-0.4906460334001E+00 -0.4349906180830E+01 -0.9681104572721E+00 -0.4920081419599E+00
-0.4206281713602E+00 -0.4349749440939E+01 -0.9540755366767E+00 -0.4597000374758E+00
-0.3659135145506E+00 -0.4339470786079E+01 -0.9410768741490E+00 -0.4234276592709E+00
-0.3258303067784E+00 -0.4320432293358E+01 -0.9292525338741E+00 -0.3851528312198E+00
-0.2991858776583E+00 -0.4293998878373E+01 -0.9186369648949E+00 -0.3460479113422E+00
-0.2846334464891E+00 -0.4261303040489E+01 -0.9091873109435E+00 -0.3066774534162E+00
-0.2808770843029E+00 -0.4223141244111E+01 -0.9008036791057E+00 -0.2672173978249E+00
-0.2867517816359E+00 -0.4179956011944E+01 -0.8933415720277E+00 -0.2276574254572E+00
-0.3012176877754E+00 -0.4131867022830E+01 -0.8866169553328E+00 -0.1879681649097E+00
-0.3232960042629E+00 -0.4078732051186E+01 -0.8804056242088E+00 -0.1482321033411E+00
-0.3519685493894E+00 -0.4020221379794E+01 -0.8744379988669E+00 -0.1087330518612E+00
-0.3860562046669E+00 -0.3955905202410E+01 -0.8683922943554E+00 -0.7000589535087E-01
-0.4240981582252E+00 -0.3885344946434E+01 -0.8618886337750E+00 -0.3284362801269E-01
-0.4642613792661E+00 -0.3808167471669E+01 -0.8544857829198E+00  0.1739504795894E-02
-0.5042947783783E+00 -0.3724160713915E+01 -0.8456911110604E+00  0.3258742087438E-01
-0.5415249376547E+00 -0.3633543016474E+01 -0.8350136032683E+00  0.5857592827268E-01
-0.5729572597121E+00 -0.3536980897314E+01 -0.8219876436539E+00  0.7868252693768E-01
-0.5954299104694E+00 -0.3435208131838E+01 -0.8061276204738E+00  0.9181502081612E-01
-0.6056686961234E+00 -0.3328851086322E+01 -0.7869039682149E+00  0.9666806300645E-01
-0.6002424422186E+00 -0.3218499133566E+01 -0.7637483265376E+00  0.9168329249585E-01
-0.5754591613938E+00 -0.3104863559982E+01 -0.7360645552434E+00  0.7508337825716E-01
-0.5272375839390E+00 -0.2988951121214E+01 -0.7032377515097E+00  0.4497646319051E-01
-0.4509875141384E+00 -0.2872221217180E+01 -0.6646417561676E+00 -0.4594504895096E-03
-0.3415358451521E+00 -0.2756714040460E+01 -0.6196499863559E+00 -0.6270017919469E-01
-0.1931426922854E+00 -0.2645130207067E+01 -0.5676545883291E+00 -0.1424989095523E+00
 0.3880370032208E-03 -0.2540784411857E+01 -0.5080792825417E+00 -0.2394496067559E+00
 0.2455294980644E+00 -0.2447408296783E+01 -0.4403757663059E+00 -0.3515310686666E+00
 0.5485182866072E+00 -0.2368922451241E+01 -0.3640808383519E+00 -0.4745224296195E+00
 0.9143315993838E+00 -0.2308978396955E+01 -0.2789293636706E+00 -0.6014176295734E+00
 0.1345308466615E+01 -0.2270082767514E+01 -0.1849548629358E+00 -0.7222028766781E+00
 0.1839505195400E+01 -0.2252467932507E+01 -0.8259254865217E-01 -0.8241914053696E+00
 0.2389091029598E+01 -0.2252950775780E+01  0.2722805116945E-01 -0.8931371400391E+00
 0.2979338578659E+01 -0.2264168427157E+01  0.1430340324316E+00 -0.9152055847882E+00
 0.3588699268981E+01 -0.2274652287990E+01  0.2628094001142E+00 -0.8795376764922E+00
 0.4190657238519E+01 -0.2269963245078E+01  0.3841388044122E+00 -0.7810631719144E+00
 0.4757930933164E+01 -0.2235840616088E+01  0.5044180709317E+00 -0.6223679276078E+00
-0.9810426140516E+00 -0.4136802278495E+01 -0.1023568993762E+01 -0.4759023408178E+00
-0.8810271609583E+00 -0.4177327798381E+01 -0.1011671006943E+01 -0.5061184408660E+00
-0.7771735319042E+00 -0.4214826124736E+01 -0.9983999462054E+00 -0.5217028116192E+00
-0.6757236900761E+00 -0.4245907308966E+01 -0.9843262144761E+00 -0.5227737596418E+00
-0.5821469752955E+00 -0.4267976406482E+01 -0.9700246908101E+00 -0.5111534059755E+00
-0.5003210009004E+00 -0.4279660619249E+01 -0.9559963382754E+00 -0.4896397467355E+00
-0.4323514955227E+00 -0.4280771508728E+01 -0.9426246148964E+00 -0.4611991034711E+00
-0.3788578990003E+00 -0.4271965285430E+01 -0.9301646507466E+00 -0.4283890793776E+00
-0.3394478176215E+00 -0.4254322282988E+01 -0.9187540338123E+00 -0.3930981276745E+00
-0.3131708638769E+00 -0.4228995572438E+01 -0.9084333007997E+00 -0.3565360996777E+00
-0.2988537506082E+00 -0.4196982712701E+01 -0.8991673060604E+00 -0.3193653289442E+00
-0.2953007151574E+00 -0.4159011756041E+01 -0.8908625075146E+00 -0.2818821831804E+00
-0.3013815156327E+00 -0.4115508946274E+01 -0.8833781055448E+00 -0.2441960481575E+00
-0.3160374058233E+00 -0.4066617875273E+01 -0.8765310692806E+00 -0.2063830738699E+00
-0.3382294838883E+00 -0.4012252185996E+01 -0.8700963469423E+00 -0.1686087771398E+00
-0.3668515513074E+00 -0.3952163785642E+01 -0.8638030802615E+00 -0.1312119619525E+00
-0.4006232922264E+00 -0.3886024144861E+01 -0.8573295001927E+00 -0.9475146434116E-01
-0.4379847158618E+00 -0.3813509016898E+01 -0.8502987592224E+00 -0.6001429631716E-01
-0.4770177519719E+00 -0.3734366818392E+01 -0.8422769266237E+00 -0.2798553461625E-01
-0.5154057848475E+00 -0.3648508010748E+01 -0.8327827715286E+00  0.2196186813928E-03
-0.5504280654889E+00 -0.3556253714165E+01 -0.8213363681696E+00  0.2351410362629E-01
-0.5790448670315E+00 -0.3458355252475E+01 -0.8074800359338E+00  0.4090058237898E-01
-0.5980295588457E+00 -0.3355651948344E+01 -0.7907363132208E+00  0.5130928734063E-01
-0.6040167734344E+00 -0.3248919447931E+01 -0.7705872557558E+00  0.5347262705453E-01
-0.5934683276070E+00 -0.3138937871971E+01 -0.7464812510390E+00  0.4590394326226E-01
-0.5625926854667E+00 -0.3026635356940E+01 -0.7178456191781E+00  0.2694717212737E-01
-0.5072491268770E+00 -0.2913240214749E+01 -0.6840978785191E+00 -0.5107956551378E-02
-0.4228680739882E+00 -0.2800412552387E+01 -0.6446561348811E+00 -0.5183665478090E-01
-0.3044239360848E+00 -0.2690341165231E+01 -0.5989530291882E+00 -0.1144056380345E+00
-0.1465040197693E+00 -0.2585784122361E+01 -0.5464576365688E+00 -0.1932121177192E+00
 0.5652481612736E-01 -0.2489981748110E+01 -0.4866913936488E+00 -0.2874793073910E+00
 0.3102839465805E+00 -0.2406423307815E+01 -0.4192278784939E+00 -0.3948551527810E+00
 0.6198467571217E+00 -0.2338578791690E+01 -0.3437464120358E+00 -0.5109316267148E+00
 0.9887647483050E+00 -0.2289432919901E+01 -0.2601336381954E+00 -0.6288139419372E+00
 0.1417845534292E+01 -0.2260687249371E+01 -0.1685683455276E+00 -0.7390603092096E+00
 0.1903793745014E+01 -0.2251807435276E+01 -0.6960273908951E-01 -0.8301345520083E+00
 0.2438005062806E+01 -0.2259142561400E+01  0.3577250081433E-01 -0.8895150041101E+00
 0.3005947582546E+01 -0.2275443065342E+01  0.1461009056178E+00 -0.9054532886099E+00
 0.3587566969324E+01 -0.2290094796548E+01  0.2594944384220E+00 -0.8691569795458E+00
 0.4159114522307E+01 -0.2290369420117E+01  0.3737490260072E+00 -0.7769044484866E+00
 0.4696527867692E+01 -0.2263766755471E+01  0.4865522296944E+00 -0.6311771784136E+00
-0.9671794561984E+00 -0.4071425706221E+01 -0.1007721047500E+01 -0.4609748719599E+00
-0.8720336191727E+00 -0.4110167425448E+01 -0.9964402237724E+00 -0.4916467040045E+00
-0.7733724747158E+00 -0.4146169348763E+01 -0.9839083793571E+00 -0.5089226149850E+00
-0.6767988215760E+00 -0.4176341966006E+01 -0.9706281719799E+00 -0.5127799880634E+00
-0.5873087117145E+00 -0.4198237404356E+01 -0.9571092374761E+00 -0.5046736055451E+00
-0.5085757743839E+00 -0.4210433862590E+01 -0.9438019414586E+00 -0.4869663883013E+00
-0.4427435955113E+00 -0.4212545762579E+01 -0.9310578854918E+00 -0.4622602386313E+00
-0.3906156670173E+00 -0.4204969474419E+01 -0.9191170419832E+00 -0.4328852428337E+00
-0.3520314403132E+00 -0.4188536415576E+01 -0.9081135847098E+00 -0.4006393858839E+00
-0.3262523063186E+00 -0.4164203080795E+01 -0.8980910908053E+00 -0.3667444278006E+00
-0.3122631899482E+00 -0.4132835179909E+01 -0.8890196872189E+00 -0.3319354099085E+00
-0.3089638691850E+00 -0.4095089197596E+01 -0.8808106264812E+00 -0.2966081837561E+00
-0.3152608311310E+00 -0.4051369768559E+01 -0.8733261329515E+00 -0.2609752381829E+00
-0.3300824399246E+00 -0.4001838754767E+01 -0.8663842518484E+00 -0.2252049048715E+00
-0.3523384485283E+00 -0.3946459977585E+01 -0.8597596980341E+00 -0.1895346630875E+00
-0.3808453087794E+00 -0.3885060825779E+01 -0.8531812396250E+00 -0.1543492124946E+00
-0.4142329302197E+00 -0.3817407174821E+01 -0.8463280336195E+00 -0.1202244453569E+00
-0.4508525763527E+00 -0.3743281791451E+01 -0.8388268860603E+00 -0.8793682705348E-01
-0.4887087616244E+00 -0.3662547617372E+01 -0.8302512881709E+00 -0.5843933781270E-01
-0.5254233064756E+00 -0.3575231494737E+01 -0.8201309724635E+00 -0.3280343191556E-01
-0.5582290232675E+00 -0.3481752883976E+01 -0.8079963934889E+00 -0.1207487792773E-01
-0.5840416138178E+00 -0.3382944878400E+01 -0.7933973102662E+00  0.2780879243417E-02
-0.5995739060402E+00 -0.3279748084752E+01 -0.7758644097197E+00  0.1072652993039E-01
-0.6013801636464E+00 -0.3173079168074E+01 -0.7548918775928E+00  0.1054398169547E-01
-0.5858333986904E+00 -0.3063895269822E+01 -0.7299457445795E+00  0.8287489263427E-03
-0.5490674690217E+00 -0.2953321634565E+01 -0.7004778311553E+00 -0.1994789917924E-01
-0.4869123423682E+00 -0.2842782055790E+01 -0.6659388895549E+00 -0.5331601982731E-01
-0.3948520704100E+00 -0.2734104703476E+01 -0.6257913641021E+00 -0.1006162549543E+00
-0.2680405761528E+00 -0.2629588319967E+01 -0.5795257878595E+00 -0.1627335498774E+00
-0.1014163468274E+00 -0.2532006603603E+01 -0.5266845979343E+00 -0.2397564847433E+00
 0.1100864626976E+00 -0.2444486678076E+01 -0.4668800500327E+00 -0.3306090775090E+00
 0.3712700837242E+00 -0.2370249961521E+01 -0.3997959815167E+00 -0.4327050644793E+00
 0.6861358933319E+00 -0.2312320654757E+01 -0.3252369571315E+00 -0.5415623382812E+00
 0.1056977512209E+01 -0.2273070027277E+01 -0.2432185066379E+00 -0.6505025628272E+00
 0.1483316217618E+01 -0.2253504240997E+01 -0.1540376069711E+00 -0.7507130518803E+00
 0.1960798765194E+01 -0.2252473813072E+01 -0.5833501044481E-01 -0.8317695531496E+00
 0.2480313448220E+01 -0.2266011425780E+01  0.4286040512676E-01 -0.8827009121138E+00
 0.3027683560907E+01 -0.2287058569217E+01  0.1481250005452E+00 -0.8935483870669E+00
 0.3584254163423E+01 -0.2305834085629E+01  0.2556840193689E+00 -0.8571779200153E+00
 0.4128609788626E+01 -0.2311005694135E+01  0.3635208243151E+00 -0.7708895043937E+00
 0.4639234222408E+01 -0.2291539095417E+01  0.4695390323949E+00 -0.6371414039528E+00
-0.9533839825653E+00 -0.4007165640649E+01 -0.9921099394265E+00 -0.4467197691295E+00
-0.8626903641320E+00 -0.4044258232563E+01 -0.9813897339628E+00 -0.4778109721081E+00
-0.7687987782316E+00 -0.4078844289955E+01 -0.9695286280844E+00 -0.4966265415302E+00
-0.6767673705797E+00 -0.4108094007881E+01 -0.9569722899521E+00 -0.5030342490773E+00
-0.5911712271915E+00 -0.4129699653029E+01 -0.9441741901135E+00 -0.4981860824879E+00
-0.5154797582964E+00 -0.4142217989192E+01 -0.9315395633787E+00 -0.4840727236951E+00
-0.4518382525274E+00 -0.4145111387321E+01 -0.9193899416696E+00 -0.4629697091522E+00
-0.4011864405882E+00 -0.4138559956577E+01 -0.9079492929625E+00 -0.4369890048448E+00
-0.3635536445157E+00 -0.4123177319046E+01 -0.8973462060839E+00 -0.4078271858572E+00
-0.3383841210037E+00 -0.4099740135344E+01 -0.8876248644961E+00 -0.3766975527997E+00
-0.3248051235406E+00 -0.4068987927771E+01 -0.8787586233568E+00 -0.3443860222037E+00
-0.3218060510263E+00 -0.4031504714439E+01 -0.8706621660669E+00 -0.3113684990836E+00
-0.3283309046420E+00 -0.3987669549929E+01 -0.8632001037770E+00 -0.2779444706540E+00
-0.3433003185533E+00 -0.3937657384378E+01 -0.8561915533445E+00 -0.2443612523433E+00
-0.3655808093347E+00 -0.3881476389664E+01 -0.8494114524570E+00 -0.2109174052943E+00
-0.3939214725343E+00 -0.3819022935721E+01 -0.8425888942067E+00 -0.1780347537732E+00
-0.4268730764418E+00 -0.3750150138100E+01 -0.8354046553569E+00 -0.1462996733892E+00
-0.4627078294482E+00 -0.3674740309857E+01 -0.8274896401917E+00 -0.1164736243034E+00
-0.4993601102551E+00 -0.3592763732640E+01 -0.8184247807745E+00 -0.8947439559295E-01
-0.5343944648740E+00 -0.3504357147061E+01 -0.8077503344233E+00 -0.6632659799348E-01
-0.5649991103434E+00 -0.3410033329780E+01 -0.7950064998712E+00 -0.4803054536399E-01
-0.5880468942582E+00 -0.3310703303070E+01 -0.7797500510849E+00 -0.3551356535200E-01
-0.6001951115460E+00 -0.3207403808810E+01 -0.7615197954187E+00 -0.2977171838317E-01
-0.5979283076351E+00 -0.3101183524562E+01 -0.7398223774636E+00 -0.3196375671066E-01
-0.5775475814457E+00 -0.2993162456860E+01 -0.7141420183027E+00 -0.4340389775456E-01
-0.5351345307744E+00 -0.2884643288163E+01 -0.6839555739792E+00 -0.6549020833023E-01
-0.4665158553131E+00 -0.2777220147647E+01 -0.6487472102591E+00 -0.9957695446717E-01
-0.3672562469764E+00 -0.2672859044605E+01 -0.6080230673765E+00 -0.1467855823237E+00
-0.2327127602406E+00 -0.2573934764291E+01 -0.5613295132709E+00 -0.2077491919897E+00
-0.5818819444827E-01 -0.2483202624588E+01 -0.5082781713812E+00 -0.2822956894827E+00
 0.1608240599274E+00 -0.2403648742304E+01 -0.4485649431595E+00 -0.3691178952507E+00
 0.4283508722455E+00 -0.2338214356382E+01 -0.3819727025191E+00 -0.4654816539588E+00
 0.7474172775762E+00 -0.2289494527909E+01 -0.3084154546624E+00 -0.5669249736598E+00
 0.1119216914731E+01 -0.2259305340859E+01 -0.2280176886233E+00 -0.6670648204182E+00
 0.1542199383476E+01 -0.2248059101729E+01 -0.1411719457543E+00 -0.7577474536176E+00
 0.2011192696956E+01 -0.2254119571478E+01 -0.4858537562837E-01 -0.8296045636785E+00
 0.2516782569764E+01 -0.2273318550433E+01  0.4869280459168E-01 -0.8730521492199E+00
 0.3045236544273E+01 -0.2298844040864E+01  0.1492785029063E+00 -0.8796555216415E+00
 0.3579189413208E+01 -0.2321681740742E+01  0.2515015382409E+00 -0.8436237152478E+00
 0.4099200407746E+01 -0.2331678828237E+01  0.3535043211693E+00 -0.7630419380823E+00
 0.4585898534990E+01 -0.2319034788434E+01  0.4533727560670E+00 -0.6403758687888E+00
-0.9396479149815E+00 -0.3943916963055E+01 -0.9767129901615E+00 -0.4330811485483E+00
-0.8530273216071E+00 -0.3979487310063E+01 -0.9665029407360E+00 -0.4645639716232E+00
-0.7635197093411E+00 -0.4012740748044E+01 -0.9552521057114E+00 -0.4847936979819E+00
-0.6757169293960E+00 -0.4041072652539E+01 -0.9433579304442E+00 -0.4935515693512E+00
-0.5938196386517E+00 -0.4062307075978E+01 -0.9312253568023E+00 -0.4917384307246E+00
-0.5210973833898E+00 -0.4074999373980E+01 -0.9192193651714E+00 -0.4810259008131E+00
-0.4596703631216E+00 -0.4078496229253E+01 -0.9076333319998E+00 -0.4633982715392E+00
-0.4105753455499E+00 -0.4072799052851E+01 -0.8966748930418E+00 -0.4407612618212E+00
-0.3739948523194E+00 -0.4058332537386E+01 -0.8864654911504E+00 -0.4147038202194E+00
-0.3495291515160E+00 -0.4035710775554E+01 -0.8770479984829E+00 -0.3864148778216E+00
-0.3364319551261E+00 -0.4005554504994E+01 -0.8683973049641E+00 -0.3567124864413E+00
-0.3337755311348E+00 -0.3968376133042E+01 -0.8604303456567E+00 -0.3261348878526E+00
-0.3405412362459E+00 -0.3924526342724E+01 -0.8530135285048E+00 -0.2950532655910E+00
-0.3556463394703E+00 -0.3874188502764E+01 -0.8459669810528E+00 -0.2637811200380E+00
-0.3779215455196E+00 -0.3817409343173E+01 -0.8390661902416E+00 -0.2326675398019E+00
-0.4060578883762E+00 -0.3754147549600E+01 -0.8320410999936E+00 -0.2021630485844E+00
-0.4385368833006E+00 -0.3684336153934E+01 -0.8245746197340E+00 -0.1728582085276E+00
-0.4735607329516E+00 -0.3607949439548E+01 -0.8163020466637E+00 -0.1454950919597E+00
-0.5090006907392E+00 -0.3525057679133E+01 -0.8068116859969E+00 -0.1209530785300E+00
-0.5423685994709E+00 -0.3435900687643E+01 -0.7956538692789E+00 -0.1002067144709E+00
-0.5708106836725E+00 -0.3341078986833E+01 -0.7823779457594E+00 -0.8420679125064E-01
-0.5911595350131E+00 -0.3241576976200E+01 -0.7665473136651E+00 -0.7383683449387E-01
-0.6000224031632E+00 -0.3138521644600E+01 -0.7477088206944E+00 -0.7004404156320E-01
-0.5938243935196E+00 -0.3033084138500E+01 -0.7253817172130E+00 -0.7391974450968E-01
-0.5688101053113E+00 -0.2926533043465E+01 -0.6990686401723E+00 -0.8668195504984E-01
-0.5210284930563E+00 -0.2820329295900E+01 -0.6682715677492E+00 -0.1095971417821E+00
-0.4463248706110E+00 -0.2716213651116E+01 -0.6325077137705E+00 -0.1438506886652E+00
-0.3403657203583E+00 -0.2616262634148E+01 -0.5913256797127E+00 -0.1903624856693E+00
-0.1987270861187E+00 -0.2522898127244E+01 -0.5443250507836E+00 -0.2495450425103E+00
-0.1707980286701E-01 -0.2438830445870E+01 -0.4911820570665E+00 -0.3210126708846E+00
 0.2085413949422E+00 -0.2366886461438E+01 -0.4316690197315E+00 -0.4032901566464E+00
 0.4814393021140E+00 -0.2309725300642E+01 -0.3656572051544E+00 -0.4935711831042E+00
 0.8037587400035E+00 -0.2269537634359E+01 -0.2931557832395E+00 -0.5874909554910E+00
 0.1175739043016E+01 -0.2247643841456E+01 -0.2143809628825E+00 -0.6790189555127E+00
 0.1594943354813E+01 -0.2243954293298E+01 -0.1298021896312E+00 -0.7606698574588E+00
 0.2055575062537E+01 -0.2256452695782E+01 -0.4017552724780E-01 -0.8240662870199E+00
 0.2548068811426E+01 -0.2280858722496E+01  0.5344201858248E-01 -0.8608586067041E+00
 0.3059181736850E+01 -0.2310635620170E+01  0.1497092255667E+00 -0.8639087346091E+00
 0.3572721190313E+01 -0.2337465477207E+01  0.2470511463027E+00 -0.8285186801129E+00
 0.4070939290393E+01 -0.2352201477830E+01  0.3437475676348E+00 -0.7533854621250E+00
 0.4536304825500E+01 -0.2346103067484E+01  0.4380403581306E+00 -0.6409715009484E+00
-0.9259632071259E+00 -0.3881587521831E+01 -0.9615101601190E+00 -0.4200070550356E+00
-0.8430684750059E+00 -0.3915755776550E+01 -0.9517648644936E+00 -0.4518605491630E+00
-0.7575913472843E+00 -0.3947761419306E+01 -0.9410705673410E+00 -0.4734003174789E+00
-0.6737224684452E+00 -0.3975195810340E+01 -0.9297836696120E+00 -0.4843380195630E+00
-0.5953291148341E+00 -0.3996005916353E+01 -0.9182670199208E+00 -0.4853647870833E+00
-0.5254881508746E+00 -0.4008760133462E+01 -0.9068496703804E+00 -0.4778780818230E+00
-0.4662751056223E+00 -0.4012718750068E+01 -0.8957987844865E+00 -0.4636028655040E+00
-0.4187918263194E+00 -0.4007736659304E+01 -0.8853057103167E+00 -0.4442517957417E+00
-0.3833422865682E+00 -0.3994075970151E+01 -0.8754836643896E+00 -0.4213035415939E+00
-0.3596582190324E+00 -0.3972205320362E+01 -0.8663727207888E+00 -0.3959105067604E+00
-0.3471043875322E+00 -0.3942635143108E+01 -0.8579479189125E+00 -0.3689070097033E+00
-0.3448287262569E+00 -0.3905808403731E+01 -0.8501274386655E+00 -0.3408777164326E+00
-0.3518490645440E+00 -0.3862045613889E+01 -0.8427789482449E+00 -0.3122512176091E+00
-0.3670829537933E+00 -0.3811534411169E+01 -0.8357234854457E+00 -0.2833949938266E+00
-0.3893320327145E+00 -0.3754354442209E+01 -0.8287373073339E+00 -0.2546985462098E+00
-0.4172378776212E+00 -0.3690520015228E+01 -0.8215515908118E+00 -0.2266330451584E+00
-0.4492219463125E+00 -0.3620036692523E+01 -0.8138517398944E+00 -0.1997872002489E+00
-0.4834249267083E+00 -0.3542963079591E+01 -0.8052776132595E+00 -0.1748793870936E+00
-0.5176617358288E+00 -0.3459461931151E+01 -0.7954247452488E+00 -0.1527472849838E+00
-0.5493963100337E+00 -0.3369868988556E+01 -0.7838530713984E+00 -0.1343121162746E+00
-0.5757360705971E+00 -0.3274866458591E+01 -0.7701205173132E+00 -0.1204712502849E+00
-0.5934765932125E+00 -0.3175506958443E+01 -0.7537967215636E+00 -0.1120592748516E+00
-0.5991808157370E+00 -0.3073001245354E+01 -0.7344364231621E+00 -0.1099680084983E+00
-0.5892241291605E+00 -0.2968633049966E+01 -0.7115714464285E+00 -0.1152148799029E+00
-0.5598084489821E+00 -0.2863805377902E+01 -0.6847227755801E+00 -0.1289176663846E+00
-0.5069669163051E+00 -0.2760119048145E+01 -0.6534172026267E+00 -0.1522123299418E+00
-0.4265812292188E+00 -0.2659439525876E+01 -0.6172041602160E+00 -0.1861242059340E+00
-0.3144352375124E+00 -0.2563929696472E+01 -0.5756729953750E+00 -0.2313907152031E+00
-0.1663328143605E+00 -0.2476034515824E+01 -0.5284734739117E+00 -0.2882353053813E+00
 0.2169141063209E-01 -0.2398399441884E+01 -0.4753416133335E+00 -0.3561037840406E+00
 0.2530868010922E+00 -0.2333681959942E+01 -0.4161190379707E+00 -0.4334104826112E+00
 0.5304879244815E+00 -0.2284265153594E+01 -0.3507554510491E+00 -0.5173423358252E+00
 0.8552531955884E+00 -0.2251965191622E+01 -0.2793424033692E+00 -0.6036937622433E+00
 0.1226799870220E+01 -0.2237664973491E+01 -0.2021730236667E+00 -0.6868264911231E+00
 0.1641962947606E+01 -0.2240854528467E+01 -0.1197783179572E+00 -0.7599185758041E+00
 0.2094476929702E+01 -0.2259225390415E+01 -0.3294969263363E-01 -0.8155144582372E+00
 0.2574735179716E+01 -0.2288451024775E+01  0.5725683184146E-01 -0.8463593981859E+00
 0.3069999520907E+01 -0.2322280681763E+01  0.1495437700573E+00 -0.8464189906049E+00
 0.3565135776787E+01 -0.2353023532721E+01  0.2424224524256E+00 -0.8118888761621E+00
 0.4043859399340E+01 -0.2372398803876E+01  0.3342921240741E+00 -0.7419429940098E+00
 0.4490228636565E+01 -0.2372581201550E+01  0.4235294933141E+00 -0.6390139097809E+00
-0.9123220486506E+00 -0.3820095754116E+01 -0.9464835746570E+00 -0.4074488540452E+00
-0.8328330501962E+00 -0.3852976242094E+01 -0.9371618724228E+00 -0.4396574770396E+00
-0.7510606209849E+00 -0.3883819700628E+01 -0.9269760781356E+00 -0.4624205616901E+00
-0.6708483490299E+00 -0.3910388838382E+01 -0.9162474511355E+00 -0.4753925552345E+00
-0.5957661070055E+00 -0.3930744726360E+01 -0.9053021801631E+00 -0.4790881819868E+00
-0.5287068534616E+00 -0.3943479138311E+01 -0.8944372116827E+00 -0.4746686252423E+00
-0.4716873840096E+00 -0.3947789560364E+01 -0.8838954020458E+00 -0.4636281964531E+00
-0.4258487096025E+00 -0.3943411814086E+01 -0.8738521177592E+00 -0.4475001760486E+00
-0.3915889797843E+00 -0.3930469178151E+01 -0.8644116444677E+00 -0.4276529382897E+00
-0.3687492441816E+00 -0.3909301331137E+01 -0.8556101278133E+00 -0.4051933209306E+00
-0.3567906889874E+00 -0.3880317441128E+01 -0.8474216386506E+00 -0.3809586522021E+00
-0.3549295659242E+00 -0.3843894135694E+01 -0.8397647528372E+00 -0.3555659240785E+00
-0.3622187687782E+00 -0.3800320762732E+01 -0.8325079187075E+00 -0.3294879911481E+00
-0.3775791542093E+00 -0.3749785575448E+01 -0.8254729582319E+00 -0.3031348453279E+00
-0.3997893962764E+00 -0.3692395716729E+01 -0.8184370347968E+00 -0.2769268147990E+00
-0.4274495572991E+00 -0.3628214490864E+01 -0.8111328217194E+00 -0.2513480664150E+00
-0.4589295971877E+00 -0.3557312611511E+01 -0.8032484537091E+00 -0.2269796766938E+00
-0.4923166898325E+00 -0.3479825316168E+01 -0.7944284130380E+00 -0.2045121049701E+00
-0.5253760116763E+00 -0.3396000186284E+01 -0.7842752512786E+00 -0.1847380195312E+00
-0.5555285548401E+00 -0.3306261450332E+01 -0.7723580125434E+00 -0.1685220922242E+00
-0.5798465599689E+00 -0.3211366519104E+01 -0.7582426271134E+00 -0.1567045875829E+00
-0.5950922648678E+00 -0.3112430566049E+01 -0.7415045772326E+00 -0.1500665588215E+00
-0.5977900806016E+00 -0.3010741190554E+01 -0.7217062649854E+00 -0.1494389341152E+00
-0.5842747152448E+00 -0.2907684658137E+01 -0.6983918850833E+00 -0.1557601729855E+00
-0.5507175466411E+00 -0.2804784575313E+01 -0.6711004343911E+00 -0.1700454307707E+00
-0.4931499561594E+00 -0.2703764327118E+01 -0.6393828661831E+00 -0.1933028980663E+00
-0.4075038279248E+00 -0.2606594191172E+01 -0.6028196128020E+00 -0.2264080784558E+00
-0.2896907717780E+00 -0.2515502523418E+01 -0.5610386673993E+00 -0.2699357334780E+00
-0.1357451121058E+00 -0.2432938042968E+01 -0.5137366386700E+00 -0.3239511960432E+00
 0.5794556626650E-01 -0.2361467536341E+01 -0.4607044008800E+00 -0.3877740844365E+00
 0.2943457551328E+00 -0.2303575664178E+01 -0.4018459877970E+00 -0.4597599318886E+00
 0.5754799115397E+00 -0.2261381502979E+01 -0.3371803233122E+00 -0.5371446464840E+00
 0.9020096454331E+00 -0.2236359493086E+01 -0.2668699735073E+00 -0.6159308996927E+00
 0.1272648680647E+01 -0.2229010395615E+01 -0.1912723458437E+00 -0.6908986085791E+00
 0.1683637962505E+01 -0.2238475303595E+01 -0.1109674698714E+00 -0.7558741880182E+00
 0.2128366742489E+01 -0.2262225015967E+01 -0.2677165509460E-01 -0.8042544388532E+00
 0.2597264460724E+01 -0.2295934423446E+01  0.6026600835352E-01 -0.8297543503416E+00
 0.3078092442838E+01 -0.2333637324287E+01  0.1488910259288E+00 -0.8272804409150E+00
 0.3556667165586E+01 -0.2368204796219E+01  0.2376924774152E+00 -0.7937613826782E+00
 0.4017975126400E+01 -0.2392105907587E+01  0.3251738486081E+00 -0.7287398762751E+00
 0.4447449850920E+01 -0.2398307051544E+01  0.4098285659821E+00 -0.6345874301694E+00
-0.8987168533605E+00 -0.3759368735181E+01 -0.9316171315906E+00 -0.3953607380182E+00
-0.8223364498765E+00 -0.3791070709831E+01 -0.9226814456906E+00 -0.4279132697127E+00
-0.7439669631225E+00 -0.3820837822186E+01 -0.9129609706659E+00 -0.4518271169654E+00
-0.6671500284794E+00 -0.3846583385991E+01 -0.9027466963461E+00 -0.4667084642767E+00
-0.5951894863005E+00 -0.3866474185327E+01 -0.8923327476224E+00 -0.4729224664478E+00
-0.5308039064273E+00 -0.3879132693779E+01 -0.8819873331840E+00 -0.4714259654548E+00
-0.4759414825483E+00 -0.3883712602271E+01 -0.8719308299566E+00 -0.4635081909699E+00
-0.4317614767027E+00 -0.3879853995186E+01 -0.8623231072274E+00 -0.4505366757832E+00
-0.3987329334231E+00 -0.3867562535482E+01 -0.8532591064956E+00 -0.4337713951360E+00
-0.3767864518335E+00 -0.3847064520753E+01 -0.8447702071053E+00 -0.4142671489583E+00
-0.3654659929438E+00 -0.3818677058927E+01 -0.8368286228439E+00 -0.3928533577291E+00
-0.3640488687992E+00 -0.3782714165113E+01 -0.8293526191407E+00 -0.3701670092620E+00
-0.3716212791980E+00 -0.3739433666175E+01 -0.8222110013266E+00 -0.3467132975044E+00
-0.3871098831502E+00 -0.3689021230694E+01 -0.8152262349166E+00 -0.3229340903917E+00
-0.4092758998159E+00 -0.3631606334801E+01 -0.8081764589661E+00 -0.2992715566935E+00
-0.4366852066922E+00 -0.3567294780447E+01 -0.8007960093606E+00 -0.2762156428666E+00
-0.4676642475127E+00 -0.3496215108752E+01 -0.7927758830662E+00 -0.2543342839317E+00
-0.5002542492631E+00 -0.3418571482787E+01 -0.7837651580890E+00 -0.2342859188905E+00
-0.5321770665705E+00 -0.3334688529760E+01 -0.7733731307903E+00 -0.2168149258030E+00
-0.5608158162387E+00 -0.3245071275589E+01 -0.7611774297080E+00 -0.2027262887436E+00
-0.5832114818101E+00 -0.3150545504605E+01 -0.7467514084104E+00 -0.1927997320141E+00
-0.5960969096442E+00 -0.3052282885771E+01 -0.7296759699560E+00 -0.1877586907872E+00
-0.5959636640157E+00 -0.2951640617933E+01 -0.7095208669624E+00 -0.1883685918528E+00
-0.5791140042572E+00 -0.2850097439821E+01 -0.6858422990355E+00 -0.1954850896554E+00
-0.5416992190060E+00 -0.2749284246303E+01 -0.6581967028697E+00 -0.2100196968898E+00
-0.4797602768278E+00 -0.2651030892004E+01 -0.6261582430968E+00 -0.2328568343059E+00
-0.3892892969237E+00 -0.2557394702825E+01 -0.5893368087315E+00 -0.2647332712459E+00
-0.2663313103454E+00 -0.2470651846244E+01 -0.5473966394747E+00 -0.3060810182491E+00
-0.1071483041288E+00 -0.2393239880475E+01 -0.5000776443726E+00 -0.3568369918218E+00
 0.9153537284073E-01 -0.2327638385063E+01 -0.4472206091085E+00 -0.4162336446261E+00
 0.3322343214123E+00 -0.2276161188638E+01 -0.3887853792385E+00 -0.4826134044558E+00
 0.6164215465042E+00 -0.2240679687668E+01 -0.3248516330734E+00 -0.5533080172187E+00
 0.9441460977983E+00 -0.2222360579421E+01 -0.2556429001339E+00 -0.6245664930867E+00
 0.1313523419056E+01 -0.2221373992765E+01 -0.1815701174473E+00 -0.6916022328287E+00
 0.1720313078052E+01 -0.2236573828568E+01 -0.1032521516418E+00 -0.7488685659308E+00
 0.2157656133048E+01 -0.2265267503616E+01 -0.2152227443438E-01 -0.7905474678543E+00
 0.2616070485091E+01 -0.2303164593964E+01  0.6258117915795E-01 -0.8112127419226E+00
 0.3083798195129E+01 -0.2344573887805E+01  0.1478448636677E+00 -0.8065748029185E+00
 0.3547505596078E+01 -0.2382867985666E+01  0.2329275255532E+00 -0.7741647088323E+00
 0.3993285123986E+01 -0.2411167121638E+01  0.3164236051847E+00 -0.7138056530315E+00
 0.4407759303548E+01 -0.2423122300793E+01  0.3969274064657E+00 -0.6277780934384E+00
-0.8851402368886E+00 -0.3699340565102E+01 -0.9168961740608E+00 -0.3836993256689E+00
-0.8115909952391E+00 -0.3729968830648E+01 -0.9083119787123E+00 -0.4165880183348E+00
-0.7363436584916E+00 -0.3758745257437E+01 -0.8990177965821E+00 -0.4415916418686E+00
-0.6626755036180E+00 -0.3783716341859E+01 -0.8892783823467E+00 -0.4582745134444E+00
-0.5936515774439E+00 -0.3803146815722E+01 -0.8793596917367E+00 -0.4668738969861E+00
-0.5318257392508E+00 -0.3815694979239E+01 -0.8695041566545E+00 -0.4681692274700E+00
-0.4790708754145E+00 -0.3820486057516E+01 -0.8599113993999E+00 -0.4632673186576E+00
-0.4365477049292E+00 -0.3817084193262E+01 -0.8507263923150E+00 -0.4533831699143E+00
-0.4047764101614E+00 -0.3805396241861E+01 -0.8420345429518E+00 -0.4396716025205E+00
-0.3837596589024E+00 -0.3785549603053E+01 -0.8338618648166E+00 -0.4231310007600E+00
-0.3731116407706E+00 -0.3757778405064E+01 -0.8261780214779E+00 -0.4045740308741E+00
-0.3721637405581E+00 -0.3722338141575E+01 -0.8189003886292E+00 -0.3846470314348E+00
-0.3800335050873E+00 -0.3679455240906E+01 -0.8118977612968E+00 -0.3638768563749E+00
-0.3956554657612E+00 -0.3629309984813E+01 -0.8049931021103E+00 -0.3427275098768E+00
-0.4177783689814E+00 -0.3572049288660E+01 -0.7979655434189E+00 -0.3216546654457E+00
-0.4449406770355E+00 -0.3507815118575E+01 -0.7905511709022E+00 -0.3011472952721E+00
-0.4754327791963E+00 -0.3436786607147E+01 -0.7824438889280E+00 -0.2817549773337E+00
-0.5072571372199E+00 -0.3359229142258E+01 -0.7732972674185E+00 -0.2641001733293E+00
-0.5380985343156E+00 -0.3275536514739E+01 -0.7627270211764E+00 -0.2488757703685E+00
-0.5653073337579E+00 -0.3186286652608E+01 -0.7503188084538E+00 -0.2368240604802E+00
-0.5858973746123E+00 -0.3092366604258E+01 -0.7356528067361E+00 -0.2286610540675E+00
-0.5965761882169E+00 -0.2994998169318E+01 -0.7183148822106E+00 -0.2250489611397E+00
-0.5938079456564E+00 -0.2895600702793E+01 -0.6978817400891E+00 -0.2266838868620E+00
-0.5738698276997E+00 -0.2795735467931E+01 -0.6739210691684E+00 -0.2343358852268E+00
-0.5329017977136E+00 -0.2697127963998E+01 -0.6460059619685E+00 -0.2488129016400E+00
-0.4669631696718E+00 -0.2601699735298E+01 -0.6137325901392E+00 -0.2708804949679E+00
-0.3721128610433E+00 -0.2511579548253E+01 -0.5767384904534E+00 -0.3011482244692E+00
-0.2445307393426E+00 -0.2429076820047E+01 -0.5347215198458E+00 -0.3399248325113E+00
-0.8069903557674E-01 -0.2356607012484E+01 -0.4874612168759E+00 -0.3870467647449E+00
 0.1223415771289E+00 -0.2296558488196E+01 -0.4348433886930E+00 -0.4416947406426E+00
 0.3666934115503E+00 -0.2251080548221E+01 -0.3768774329501E+00 -0.5022379837821E+00
 0.6533359708463E+00 -0.2221816181634E+01 -0.3136960468320E+00 -0.5661430204458E+00
 0.9817840347628E+00 -0.2209658346314E+01 -0.2455748659697E+00 -0.6299342052371E+00
 0.1349647511744E+01 -0.2214493740345E+01 -0.1729692482976E+00 -0.6892657178081E+00
 0.1752298612353E+01 -0.2234941935431E+01 -0.9652866605395E-01 -0.7391926673624E+00
 0.2182705445415E+01 -0.2268192446831E+01 -0.1709740053812E-01 -0.7746190014347E+00
 0.2631507586638E+01 -0.2310011625383E+01  0.6429919320905E-01 -0.7908800089894E+00
 0.3087399986001E+01 -0.2354968344484E+01  0.1464863304863E+00 -0.7843747172370E+00
 0.3537804759612E+01 -0.2396880961397E+01  0.2281847630433E+00 -0.7531294675854E+00
 0.3969775858452E+01 -0.2429435458051E+01  0.3080680846709E+00 -0.6971753320936E+00
 0.4370961560930E+01 -0.2446874040117E+01  0.3848175098968E+00 -0.6186752135154E+00
-0.8715849884619E+00 -0.3639951024365E+01 -0.9023072160108E+00 -0.3724233379004E+00
-0.8006065182665E+00 -0.3669606441396E+01 -0.8940426052548E+00 -0.4056432464019E+00
-0.7282189477724E+00 -0.3697477363252E+01 -0.8851392753944E+00 -0.4316851073871E+00
-0.6574665328201E+00 -0.3721728879295E+01 -0.8758390954740E+00 -0.4500758631501E+00
-0.5911990877795E+00 -0.3740716636778E+01 -0.8663831578216E+00 -0.4609424441420E+00
-0.5318152146835E+00 -0.3753138305693E+01 -0.8569907168455E+00 -0.4649096127885E+00
-0.4811081495554E+00 -0.3758103031009E+01 -0.8478422487467E+00 -0.4629217823635E+00
-0.4402266463260E+00 -0.3755115785332E+01 -0.8390684988346E+00 -0.4560539962876E+00
-0.4097253441971E+00 -0.3744001195418E+01 -0.8307453203021E+00 -0.4453600881596E+00
-0.3896636446913E+00 -0.3724801064216E+01 -0.8228929540434E+00 -0.4317793453062E+00
-0.3797145755889E+00 -0.3697675290454E+01 -0.8154779853601E+00 -0.4161006506770E+00
-0.3792570046584E+00 -0.3662825100908E+01 -0.8084164331597E+00 -0.3989706281785E+00
-0.3874377908656E+00 -0.3620445991721E+01 -0.8015767684617E+00 -0.3809283501912E+00
-0.4032010750601E+00 -0.3570710393903E+01 -0.7947823056359E+00 -0.3624511464549E+00
-0.4252876546100E+00 -0.3513778031698E+01 -0.7878131490009E+00 -0.3440005462261E+00
-0.4522148463815E+00 -0.3449820885765E+01 -0.7804071580583E+00 -0.3260582832973E+00
-0.4822439833498E+00 -0.3379061553397E+01 -0.7722611188570E+00 -0.3091506803157E+00
-0.5133456001215E+00 -0.3301818971073E+01 -0.7630329256089E+00 -0.2938604451136E+00
-0.5431734955815E+00 -0.3218548136101E+01 -0.7523443375473E+00 -0.2808258934450E+00
-0.5690504074832E+00 -0.3129891822682E+01 -0.7397884570568E+00 -0.2707237863619E+00
-0.5879672404569E+00 -0.3036791020896E+01 -0.7249516630731E+00 -0.2642035109384E+00
-0.5966103077897E+00 -0.2940511077176E+01 -0.7074242875346E+00 -0.2618628759550E+00
-0.5914215256962E+00 -0.2842525957218E+01 -0.6867895068167E+00 -0.2643255237159E+00
-0.5686594696218E+00 -0.2744469710726E+01 -0.6626258459434E+00 -0.2722739671272E+00
-0.5244599062544E+00 -0.2648150465762E+01 -0.6345220838583E+00 -0.2864134956186E+00
-0.4549068211413E+00 -0.2555568029927E+01 -0.6020949791856E+00 -0.3073962862670E+00
-0.3561293082379E+00 -0.2468909109008E+01 -0.5650076918684E+00 -0.3357162385137E+00
-0.2244397352178E+00 -0.2390504701715E+01 -0.5229888951797E+00 -0.3715774548062E+00
-0.5652925734525E-01 -0.2322740793019E+01 -0.4758540171635E+00 -0.4147417388640E+00
 0.1502688657364E+00 -0.2267914332940E+01 -0.4235290997519E+00 -0.4643697838376E+00
 0.3976838363808E+00 -0.2228019751491E+01 -0.3660671884768E+00 -0.5188920295160E+00
 0.6862580451202E+00 -0.2204492797093E+01 -0.3036469549192E+00 -0.5759417637626E+00
 0.1015044154654E+01 -0.2197985899703E+01 -0.2365883525352E+00 -0.6323402958774E+00
 0.1381227807791E+01 -0.2208145097895E+01 -0.1653834604851E+00 -0.6841840655629E+00
 0.1779871826404E+01 -0.2233400530964E+01 -0.9070574226365E-01 -0.7271032178927E+00
 0.2203828823490E+01 -0.2270859408121E+01 -0.1340611712604E-01 -0.7566654952083E+00
 0.2643878562306E+01 -0.2316358303593E+01  0.6550405271869E-01 -0.7688829718922E+00
 0.3089134975797E+01 -0.2364707749159E+01  0.1448854474867E+00 -0.7607463721592E+00
 0.3527687992406E+01 -0.2410120224019E+01  0.2235135570081E+00 -0.7306890757454E+00
 0.3947424971525E+01 -0.2446772366505E+01  0.3001305254764E+00 -0.6788901231111E+00
 0.4336876086416E+01 -0.2469415638263E+01  0.3734920951961E+00 -0.6073723612397E+00
-0.8580440402045E+00 -0.3581144446840E+01 -0.8878377106386E+00 -0.3614933374667E+00
-0.7893908381739E+00 -0.3609924335694E+01 -0.8798630478846E+00 -0.3950417878412E+00
-0.7196169356052E+00 -0.3636974216978E+01 -0.8713182435004E+00 -0.4220780604773E+00
-0.6515596719355E+00 -0.3660565601121E+01 -0.8624250674624E+00 -0.4420948044487E+00
-0.5878739358945E+00 -0.3679138793295E+01 -0.8534025585547E+00 -0.4551228784836E+00
-0.5308120528372E+00 -0.3691433248775E+01 -0.8444490729058E+00 -0.4616515896313E+00
-0.4820850081446E+00 -0.3696552066492E+01 -0.8357274273806E+00 -0.4624805836159E+00
-0.4428189157319E+00 -0.3693955251387E+01 -0.8273548457523E+00 -0.4585567667761E+00
-0.4135888529720E+00 -0.3683399750570E+01 -0.8193977329184E+00 -0.4508377513557E+00
-0.3944975981375E+00 -0.3664853867235E+01 -0.8118703051723E+00 -0.4402024131342E+00
-0.3852667885670E+00 -0.3638411552170E+01 -0.8047356801388E+00 -0.4274104073903E+00
-0.3853166698296E+00 -0.3604224027441E+01 -0.7979081513439E+00 -0.4131010408768E+00
-0.3938214032799E+00 -0.3562456551869E+01 -0.7912556028203E+00 -0.3978173693739E+00
-0.4097362297320E+00 -0.3513271520296E+01 -0.7846015616971E+00 -0.3820421780971E+00
-0.4317981329328E+00 -0.3456837083022E+01 -0.7777270547799E+00 -0.3662359131977E+00
-0.4585091155718E+00 -0.3393349275751E+01 -0.7703716897439E+00 -0.3508673186313E+00
-0.4881080432790E+00 -0.3323067155941E+01 -0.7622350512023E+00 -0.3364349058323E+00
-0.5185400554121E+00 -0.3246355573180E+01 -0.7529791369386E+00 -0.3234780652396E+00
-0.5474338944619E+00 -0.3163722725138E+01 -0.7422313349801E+00 -0.3125776172980E+00
-0.5720897688456E+00 -0.3075868058646E+01 -0.7295915763700E+00 -0.3043421414193E+00
-0.5894798837647E+00 -0.2983779029740E+01 -0.7146517933500E+00 -0.2993517495354E+00
-0.5962733689986E+00 -0.2888757802142E+01 -0.6970062446144E+00 -0.2981370540271E+00
-0.5888946496302E+00 -0.2792325384640E+01 -0.6762440169309E+00 -0.3012466615978E+00
-0.5635892695847E+00 -0.2696179156460E+01 -0.6519536949238E+00 -0.3092742803500E+00
-0.5164943721805E+00 -0.2602198648451E+01 -0.6237386134206E+00 -0.3228240475376E+00
-0.4437226947740E+00 -0.2512449845187E+01 -0.5912345168022E+00 -0.3424405075466E+00
-0.3414740214868E+00 -0.2429165890914E+01 -0.5541279907374E+00 -0.3685131307470E+00
-0.2061876176515E+00 -0.2354690341048E+01 -0.5121755993719E+00 -0.4011588104499E+00
-0.3474900551121E-01 -0.2291375434968E+01 -0.4652248950283E+00 -0.4400881720203E+00
 0.1752422047511E+00 -0.2241429677307E+01 -0.4132375006688E+00 -0.4844698512323E+00
 0.4251820596783E+00 -0.2206704832574E+01 -0.3563045598884E+00 -0.5328248358477E+00
 0.7152301328374E+00 -0.2188451671273E+01 -0.2946443120776E+00 -0.5829791278848E+00
 0.1044043104434E+01 -0.2187114004281E+01 -0.2286141833759E+00 -0.6320666855643E+00
 0.1408453308991E+01 -0.2202135665906E+01 -0.1587364737485E+00 -0.6766236588241E+00
 0.1803278487709E+01 -0.2231795254380E+01 -0.8570335461113E-01 -0.7128284256296E+00
 0.2221298777107E+01 -0.2273145114139E+01 -0.1036926756082E-01 -0.7368599511978E+00
 0.2653441364248E+01 -0.2322098815525E+01  0.6626851073200E-01 -0.7453339731822E+00
 0.3089201236653E+01 -0.2373687801084E+01  0.1431026892461E+00 -0.7357515895724E+00
 0.3517253580539E+01 -0.2422470617672E+01  0.2189565958361E+00 -0.7068803467562E+00
 0.3926204238665E+01 -0.2463047685098E+01  0.2926313150740E+00 -0.6589978107266E+00
 0.4305337775751E+01 -0.2490607365332E+01  0.3629460874921E+00 -0.5939680279800E+00
-0.8445104351074E+00 -0.3522868769511E+01 -0.8734758539395E+00 -0.3508715208337E+00
-0.7779501465827E+00 -0.3550867225582E+01 -0.8657634873338E+00 -0.3847476865548E+00
-0.7105583404585E+00 -0.3577179620207E+01 -0.8575476049115E+00 -0.4127408319796E+00
-0.6449871531217E+00 -0.3600173778708E+01 -0.8490321990175E+00 -0.4343113579479E+00
-0.5837139861920E+00 -0.3618369181136E+01 -0.8404166459888E+00 -0.4494056761762E+00
-0.5288532454689E+00 -0.3630548695150E+01 -0.8318804005197E+00 -0.4583939158073E+00
-0.4820323302108E+00 -0.3635817533062E+01 -0.8235699849267E+00 -0.4619464718143E+00
-0.4443462659114E+00 -0.3633602762276E+01 -0.8155898177907E+00 -0.4608931215457E+00
-0.4163788364948E+00 -0.3623606375207E+01 -0.8079970543805E+00 -0.4561003854142E+00
-0.3982646371688E+00 -0.3605734091860E+01 -0.8007997577387E+00 -0.4483865094581E+00
-0.3897648192870E+00 -0.3580021642454E+01 -0.7939573041790E+00 -0.4384778525933E+00
-0.3903354388624E+00 -0.3546574398215E+01 -0.7873819791483E+00 -0.4270001447090E+00
-0.3991760544514E+00 -0.3505528208684E+01 -0.7809408642640E+00 -0.4144933490110E+00
-0.4152543279582E+00 -0.3457033469329E+01 -0.7744575709977E+00 -0.4014387716314E+00
-0.4373072445814E+00 -0.3401262598962E+01 -0.7677139801485E+00 -0.3882895593656E+00
-0.4638269460500E+00 -0.3338429916960E+01 -0.7604513839337E+00 -0.3754962462593E+00
-0.4930360622192E+00 -0.3268824065730E+01 -0.7523720368010E+00 -0.3635253431425E+00
-0.5228605972959E+00 -0.3192848226948E+01 -0.7431417759225E+00 -0.3528696030126E+00
-0.5509100112260E+00 -0.3111055768217E+01 -0.7323931668020E+00 -0.3440496140648E+00
-0.5744670186844E+00 -0.3024194556898E+01 -0.7197323258412E+00 -0.3376033270390E+00
-0.5904893309825E+00 -0.2933290937513E+01 -0.7047560642008E+00 -0.3340391716006E+00
-0.5956328074455E+00 -0.2839677076714E+01 -0.6870619870699E+00 -0.3338180972317E+00
-0.5863087383944E+00 -0.2744913498314E+01 -0.6662444572695E+00 -0.3374115645748E+00
-0.5587543349460E+00 -0.2650751780023E+01 -0.6419012325589E+00 -0.3453237238930E+00
-0.5091122408515E+00 -0.2559132386010E+01 -0.6136489345163E+00 -0.3580594337894E+00
-0.4335259870050E+00 -0.2472176676351E+01 -0.5811405413309E+00 -0.3760613551073E+00
-0.3282640254643E+00 -0.2392154584257E+01 -0.5440837300517E+00 -0.3996251481909E+00
-0.1898841146557E+00 -0.2321415561608E+01 -0.5022599427369E+00 -0.4287964633687E+00
-0.1544893990079E-01 -0.2262276509827E+01 -0.4555450967337E+00 -0.4632556886880E+00
 0.1972036155580E+00 -0.2216863036202E+01 -0.4039318901478E+00 -0.5022037059371E+00
 0.4491765915269E+00 -0.2186898336670E+01 -0.3475443542074E+00 -0.5442767232026E+00
 0.7402986702795E+00 -0.2173470977495E+01 -0.2866344657143E+00 -0.5875142506670E+00
 0.1068890999824E+01 -0.2176846477618E+01 -0.2215910988608E+00 -0.6293739471899E+00
 0.1431494465710E+01 -0.2196300880854E+01 -0.1529612853082E+00 -0.6668265267424E+00
 0.1822734532002E+01 -0.2229993079078E+01 -0.8145171062906E-01 -0.6965728753457E+00
 0.2235350224354E+01 -0.2274941318944E+01 -0.7918219036042E-02 -0.7153564862334E+00
 0.2660414737324E+01 -0.2327137780044E+01  0.6665539244923E-01 -0.7203341919396E+00
 0.3087763544603E+01 -0.2381812539487E+01  0.1411902031271E+00 -0.7094494817178E+00
 0.3506579276446E+01 -0.2433825208956E+01  0.2145508166951E+00 -0.6817439299150E+00
 0.3906082118348E+01 -0.2478139726206E+01  0.2855884826840E+00 -0.6375528829235E+00
 0.4276197206762E+01 -0.2510316953959E+01  0.3531760558232E+00 -0.5785660664010E+00
-0.8309772952291E+00 -0.3465074727175E+01 -0.8592104172841E+00 -0.3405215538285E+00
-0.7662893204462E+00 -0.3492382859437E+01 -0.8517344486684E+00 -0.3747261160484E+00
-0.7010611162414E+00 -0.3518040241482E+01 -0.8438202841187E+00 -0.4036437042697E+00
-0.6377776313447E+00 -0.3540502674438E+01 -0.8356560736089E+00 -0.4267037651442E+00
-0.5787536974497E+00 -0.3558364078483E+01 -0.8274235675161E+00 -0.4437777781155E+00
-0.5259734515899E+00 -0.3570451824150E+01 -0.8192850673563E+00 -0.4551305192738E+00
-0.4809802687172E+00 -0.3575879905650E+01 -0.8113720469638E+00 -0.4613167876973E+00
-0.4448314323598E+00 -0.3574052653992E+01 -0.8037768292477E+00 -0.4630594245734E+00
-0.4181096527820E+00 -0.3564628210547E+01 -0.7965475845353E+00 -0.4611391800807E+00
-0.4009713958336E+00 -0.3547459502530E+01 -0.7896861914400E+00 -0.4563143294911E+00
-0.3932093113729E+00 -0.3522531168044E+01 -0.7831481075533E+00 -0.4492750578822E+00
-0.3943102628432E+00 -0.3489906690428E+01 -0.7768434022302E+00 -0.4406284832223E+00
-0.4034974656241E+00 -0.3449693394934E+01 -0.7706381835949E+00 -0.4309055019212E+00
-0.4197522214927E+00 -0.3402027886061E+01 -0.7643560329006E+00 -0.4205799247815E+00
-0.4418150756329E+00 -0.3347082894136E+01 -0.7577796052455E+00 -0.4100921093142E+00
-0.4681734421307E+00 -0.3285085431759E+01 -0.7506517859635E+00 -0.3998697052344E+00
-0.4970396383360E+00 -0.3216346983481E+01 -0.7426773354301E+00 -0.3903434217455E+00
-0.5263265539331E+00 -0.3141301548122E+01 -0.7335256313414E+00 -0.3819563252637E+00
-0.5536299932859E+00 -0.3060539630942E+01 -0.7228339356166E+00 -0.3751662472375E+00
-0.5762201329208E+00 -0.2974849223407E+01 -0.7102138818487E+00 -0.3704382759056E+00
-0.5910443284503E+00 -0.2885287922358E+01 -0.6952664605220E+00 -0.3682069794243E+00
-0.5947489225613E+00 -0.2793211046387E+01 -0.6775920038866E+00 -0.3688614547343E+00
-0.5837360103774E+00 -0.2700211189855E+01 -0.6567894498335E+00 -0.3727942687989E+00
-0.5542383413201E+00 -0.2608085345008E+01 -0.6324647466900E+00 -0.3804196197959E+00
-0.5024068604291E+00 -0.2518825173637E+01 -0.6042464158171E+00 -0.3921451315543E+00
-0.4244161172219E+00 -0.2434597805801E+01 -0.5718027931251E+00 -0.4083170968664E+00
-0.3165990019053E+00 -0.2357701985957E+01 -0.5348602055426E+00 -0.4291471313197E+00
-0.1756209947683E+00 -0.2290488473419E+01 -0.4932219009871E+00 -0.4546239411291E+00
 0.1297389035578E-02 -0.2235239500053E+01 -0.4467884288611E+00 -0.4844160082829E+00
 0.2161093855645E+00 -0.2194005394069E+01 -0.3955792075955E+00 -0.5177772246026E+00
 0.4696649706366E+00 -0.2168396244050E+01 -0.3397462597454E+00 -0.5534794646350E+00
 0.7615114143546E+00 -0.2159361287043E+01 -0.2795699787037E+00 -0.5897921682034E+00
 0.1089689580566E+01 -0.2167016391354E+01 -0.2154653653682E+00 -0.6245041805633E+00
 0.1450502881129E+01 -0.2190500559069E+01 -0.1479995377934E+00 -0.6550141770496E+00
 0.1838427724686E+01 -0.2227879656940E+01 -0.7789038761155E-01 -0.6785217276141E+00
 0.2246184037554E+01 -0.2276153179738E+01 -0.5993828526109E-02 -0.6922941130252E+00
 0.2664982971280E+01 -0.2331389540904E+01  0.6671868706938E-01 -0.6939763092117E+00
 0.3084958213127E+01 -0.2388994170315E+01  0.1391928106365E+00 -0.6818977436759E+00
 0.3495726117422E+01 -0.2444085305528E+01  0.2103281655129E+00 -0.6553245816875E+00
 0.3887025907039E+01 -0.2491935472139E+01  0.2790180911377E+00 -0.6146164823543E+00
 0.4249320796932E+01 -0.2528420139500E+01  0.3441801366151E+00 -0.5612759695541E+00
-0.8174377912886E+00 -0.3407715167446E+01 -0.8450306043389E+00 -0.3304084442196E+00
-0.7544121779637E+00 -0.3434421271285E+01 -0.8377667023335E+00 -0.3649433178841E+00
-0.6911409700903E+00 -0.3459504879512E+01 -0.8301291822904E+00 -0.3947570503873E+00
-0.6299568200206E+00 -0.3481502943673E+01 -0.8222919649918E+00 -0.4192488963253E+00
-0.5730246943024E+00 -0.3499079796215E+01 -0.8144209102393E+00 -0.4382232306745E+00
-0.5222053695485E+00 -0.3511108050727E+01 -0.8066626960753E+00 -0.4518512584868E+00
-0.4789583738663E+00 -0.3516715969732E+01 -0.7991348806278E+00 -0.4605842119558E+00
-0.4442980332165E+00 -0.3515293815302E+01 -0.7919183815042E+00 -0.4650474006482E+00
-0.4187978583156E+00 -0.3506465553570E+01 -0.7850526940754E+00 -0.4659411976958E+00
-0.4026276731028E+00 -0.3490040057226E+01 -0.7785335576668E+00 -0.4639652677103E+00
-0.3956046214258E+00 -0.3465957388003E+01 -0.7723124133942E+00 -0.4597717750572E+00
-0.3972419411804E+00 -0.3434242858449E+01 -0.7662969713445E+00 -0.4539453028923E+00
-0.4067849725300E+00 -0.3394976152675E+01 -0.7603522363711E+00 -0.4470027458045E+00
-0.4232298304046E+00 -0.3348278420726E+01 -0.7543016614661E+00 -0.4394052956549E+00
-0.4453239803306E+00 -0.3294318923318E+01 -0.7479285918747E+00 -0.4315757538326E+00
-0.4715549768693E+00 -0.3233331946942E+01 -0.7409773958037E+00 -0.4239147670310E+00
-0.5001304860556E+00 -0.3165645208487E+01 -0.7331551498333E+00 -0.4168138492547E+00
-0.5289560952064E+00 -0.3091716084780E+01 -0.7241344467878E+00 -0.4106636262107E+00
-0.5556194431467E+00 -0.3012164204465E+01 -0.7135567401551E+00 -0.4058568815362E+00
-0.5773830334776E+00 -0.2927809371221E+01 -0.7010384913860E+00 -0.4027838258159E+00
-0.5911879140166E+00 -0.2839732773704E+01 -0.6861841477691E+00 -0.4018031958136E+00
-0.5936744863756E+00 -0.2749306030936E+01 -0.6685961134252E+00 -0.4032302738895E+00
-0.5812391840477E+00 -0.2658146474624E+01 -0.6478771413885E+00 -0.4073772579962E+00
-0.5501134053026E+00 -0.2568088074857E+01 -0.6236403053248E+00 -0.4145682233269E+00
-0.4964580172735E+00 -0.2481164641169E+01 -0.5955245405626E+00 -0.4251155988411E+00
-0.4164772273067E+00 -0.2399580548488E+01 -0.5632115635514E+00 -0.4392743924915E+00
-0.3065622486106E+00 -0.2325656845584E+01 -0.5264438266836E+00 -0.4571808903188E+00
-0.1634735483872E+00 -0.2261742783202E+01 -0.4850432735455E+00 -0.4787793368955E+00
 0.1543154442080E-01 -0.2210088463294E+01 -0.4389313903153E+00 -0.5037419934453E+00
 0.2319276807947E+00 -0.2172678181709E+01 -0.3881501059667E+00 -0.5313931415235E+00
 0.4866512586106E+00 -0.2151025331446E+01 -0.3328748195273E+00 -0.5606569549183E+00
 0.7789152456684E+00 -0.2145962528791E+01 -0.2734094606985E+00 -0.5900455420494E+00
 0.1106530847648E+01 -0.2157482972700E+01 -0.2101904281424E+00 -0.6176837479102E+00
 0.1465611276821E+01 -0.2184616144237E+01 -0.1438009756260E+00 -0.6413910441878E+00
 0.1850519233066E+01 -0.2225357254842E+01 -0.7496760547237E-01 -0.6588443477672E+00
 0.2253970107898E+01 -0.2276698031269E+01 -0.4545584742024E-02 -0.6677999037971E+00
 0.2667299887073E+01 -0.2334777666896E+01  0.6650444502627E-01 -0.6663466758642E+00
 0.3080897120817E+01 -0.2395152999677E+01  0.1371488262717E+00 -0.6531536591851E+00
 0.3484741636180E+01 -0.2453160571294E+01  0.2063162160517E+00 -0.6276712998942E+00
 0.3869003578507E+01 -0.2504330836669E+01  0.2729345524346E+00 -0.5902562400382E+00
 0.4224590945790E+01 -0.2544801209144E+01  0.3359579523354E+00 -0.5422130471906E+00
-0.8038851131602E+00 -0.3350744465608E+01 -0.8309259281353E+00 -0.3204984444881E+00
-0.7423216881229E+00 -0.3376934138459E+01 -0.8238511775928E+00 -0.3553665565186E+00
-0.6808117943209E+00 -0.3401523826481E+01 -0.8164671363268E+00 -0.3860514518732E+00
-0.6215480322538E+00 -0.3423126104695E+01 -0.8089348394438E+00 -0.4119225921625E+00
-0.5665562690032E+00 -0.3440472347378E+01 -0.8014057352181E+00 -0.4327237291872E+00
-0.5175800822789E+00 -0.3452480938331E+01 -0.7940122159537E+00 -0.4485425802251E+00
-0.4759957313765E+00 -0.3458298961333E+01 -0.7868589502670E+00 -0.4597374288244E+00
-0.4427705125236E+00 -0.3457309996240E+01 -0.7800161133758E+00 -0.4668447158572E+00
-0.4184620043364E+00 -0.3449112262707E+01 -0.7735148649350E+00 -0.4704898202452E+00
-0.4032461383803E+00 -0.3433478350708E+01 -0.7673449092519E+00 -0.4713157171401E+00
-0.3969584801645E+00 -0.3410309657844E+01 -0.7614536389481E+00 -0.4699355956312E+00
-0.3991347688619E+00 -0.3379596764711E+01 -0.7557463179761E+00 -0.4669085886779E+00
-0.4090411749591E+00 -0.3341392552483E+01 -0.7500867566656E+00 -0.4627336288734E+00
-0.4256898012690E+00 -0.3295801145557E+01 -0.7442982004560E+00 -0.4578550269144E+00
-0.4478382480791E+00 -0.3242984707115E+01 -0.7381646020383E+00 -0.4526739757392E+00
-0.4739788639549E+00 -0.3183179538742E+01 -0.7314316914386E+00 -0.4475605622879E+00
-0.5023201060418E+00 -0.3116723112109E+01 -0.7238086544158E+00 -0.4428641353052E+00
-0.5307658930515E+00 -0.3044088826971E+01 -0.7149709546584E+00 -0.4389204414732E+00
-0.5569010643686E+00 -0.2965917456167E+01 -0.7045637146060E+00 -0.4360551763062E+00
-0.5779852235310E+00 -0.2883052311709E+01 -0.6922075173627E+00 -0.4345818791479E+00
-0.5909570584159E+00 -0.2796590515288E+01 -0.6775095248365E+00 -0.4347816764316E+00
-0.5924544240261E+00 -0.2707913159185E+01 -0.6600735264781E+00 -0.4368942565798E+00
-0.5788712477893E+00 -0.2618655103559E+01 -0.6395052797991E+00 -0.4411501654448E+00
-0.5464400099400E+00 -0.2530679188866E+01 -0.6154238489318E+00 -0.4477832901243E+00
-0.4913320957914E+00 -0.2446052939524E+01 -0.5874770158172E+00 -0.4570127521191E+00
-0.4097786592736E+00 -0.2367010394592E+01 -0.5553578190486E+00 -0.4690067607871E+00
-0.2982215485422E+00 -0.2295889655934E+01 -0.5188222486263E+00 -0.4838337824462E+00
-0.1535018889500E+00 -0.2235037126365E+01 -0.4777078101814E+00 -0.5014041602518E+00
 0.2690849376791E-01 -0.2186674827785E+01 -0.4319532732400E+00 -0.5214069726936E+00
 0.2446365513651E+00 -0.2152731519945E+01 -0.3816189994025E+00 -0.5432510506303E+00
 0.5001440045058E+00 -0.2134640944481E+01 -0.3268993928661E+00 -0.5660260618295E+00
 0.7925544526411E+00 -0.2133141483023E+01 -0.2681174100716E+00 -0.5884964283082E+00
 0.1119496089537E+01 -0.2148129106869E+01 -0.2057266065320E+00 -0.6091258625657E+00
 0.1476933636795E+01 -0.2178548538103E+01 -0.1403229823526E+00 -0.6261475964285E+00
 0.1859145073580E+01 -0.2222343168637E+01 -0.7263962009378E-01 -0.6376974558230E+00
 0.2258849966994E+01 -0.2276504478025E+01 -0.3530902258867E-02 -0.6419916485624E+00
 0.2667492161596E+01 -0.2337234621920E+01  0.6605150891946E-01 -0.6375270710783E+00
 0.3075671048765E+01 -0.2400217458887E+01  0.1350907199886E+00 -0.6232748542983E+00
 0.3473662539910E+01 -0.2460969216935E+01  0.2025386676130E+00 -0.5988373229997E+00
 0.3851985333681E+01 -0.2515230984974E+01  0.2673508737253E+00 -0.5645460095748E+00
 0.4201906252889E+01 -0.2559353566415E+01  0.3285105421900E+00 -0.5214984790267E+00
-0.7903124429637E+00 -0.3294118023777E+01 -0.8168861055208E+00 -0.3107589812642E+00
-0.7300201436230E+00 -0.3319874230975E+01 -0.8099788869893E+00 -0.3459640895159E+00
-0.6700860287576E+00 -0.3344048317718E+01 -0.8028268812582E+00 -0.3774978021387E+00
-0.6125726431862E+00 -0.3365324070555E+01 -0.7955793546032E+00 -0.4046999539555E+00
-0.5593758220895E+00 -0.3382497139729E+01 -0.7883746041113E+00 -0.4272590829798E+00
-0.5121273755624E+00 -0.3394532094003E+01 -0.7813319055558E+00 -0.4451880916709E+00
-0.4721211091416E+00 -0.3400598658288E+01 -0.7745439650276E+00 -0.4587617154699E+00
-0.4402741178668E+00 -0.3400080052404E+01 -0.7680708454994E+00 -0.4684355057833E+00
-0.4171224810091E+00 -0.3392556097693E+01 -0.7619357270941E+00 -0.4747651668156E+00
-0.4028420883799E+00 -0.3377769998308E+01 -0.7561224286048E+00 -0.4783393561738E+00
-0.3972817030756E+00 -0.3355589822327E+01 -0.7505743162650E+00 -0.4797321074435E+00
-0.3999962300552E+00 -0.3325974564687E+01 -0.7451941700528E+00 -0.4794750998279E+00
-0.4102716304570E+00 -0.3288951067555E+01 -0.7398445506270E+00 -0.4780462549123E+00
-0.4271372088462E+00 -0.3244604922908E+01 -0.7343484372934E+00 -0.4758695668581E+00
-0.4493638145977E+00 -0.3193087702208E+01 -0.7284903142165E+00 -0.4733212697642E+00
-0.4754530753962E+00 -0.3134632613950E+01 -0.7220171486281E+00 -0.4707378989027E+00
-0.5036195035607E+00 -0.3069580538153E+01 -0.7146400189918E+00 -0.4684241043169E+00
-0.5317708339632E+00 -0.2998413633611E+01 -0.7060369040356E+00 -0.4666586489061E+00
-0.5574943646196E+00 -0.2921785887739E+01 -0.6958560608409E+00 -0.4656983649812E+00
-0.5780514850106E+00 -0.2840555843377E+01 -0.6837214758657E+00 -0.4657785502806E+00
-0.5903823724928E+00 -0.2755828916649E+01 -0.6692422678009E+00 -0.4671011161646E+00
-0.5911255596496E+00 -0.2668988885117E+01 -0.6520228986692E+00 -0.4698285212969E+00
-0.5766752876695E+00 -0.2581681053104E+01 -0.6316712775673E+00 -0.4741085003107E+00
-0.5432669705200E+00 -0.2495789319796E+01 -0.6078112671203E+00 -0.4800846941655E+00
-0.4870822475222E+00 -0.2413407023125E+01 -0.5800978627736E+00 -0.4878845292817E+00
-0.4043753945304E+00 -0.2336791078563E+01 -0.5482333027881E+00 -0.4975931733496E+00
-0.2916299346994E+00 -0.2268292421834E+01 -0.5119844789358E+00 -0.5092174582606E+00
-0.1457520675641E+00 -0.2210254454332E+01 -0.4712013114006E+00 -0.5226423920620E+00
 0.3569517719230E-01 -0.2164876344863E+01 -0.4258362398795E+00 -0.5375842815327E+00
 0.2542222970948E+00 -0.2134042738811E+01 -0.3759640939455E+00 -0.5535476044185E+00
 0.5101546186665E+00 -0.2119125163220E+01 -0.3217941137057E+00 -0.5697976050460E+00
 0.8024694101318E+00 -0.2120789759739E+01 -0.2636640738504E+00 -0.5853580559273E+00
 0.1128655199172E+01 -0.2138859361886E+01 -0.2020408355533E+00 -0.5990330356229E+00
 0.1484565444668E+01 -0.2172216420104E+01 -0.1375301971365E+00 -0.6094631525527E+00
 0.1864417390342E+01 -0.2218768525221E+01 -0.7087022803171E-01 -0.6152278873846E+00
 0.2260938981688E+01 -0.2275511738639E+01 -0.2914551433498E-02 -0.6149801131536E+00
 0.2665662058703E+01 -0.2338701567187E+01  0.6539209927772E-01 -0.6075961381929E+00
 0.3069352411933E+01 -0.2404124195380E+01  0.1330456452931E+00 -0.5923198476723E+00
 0.3462516918575E+01 -0.2467438237088E+01  0.1990157392629E+00 -0.5688800182629E+00
 0.3835944919399E+01 -0.2524550685572E+01  0.2622788506737E+00 -0.5375655231851E+00
 0.4181181755735E+01 -0.2571980300854E+01  0.3218402957721E+00 -0.4992592611889E+00
-0.7767129300031E+00 -0.3237791841553E+01 -0.8029009662753E+00 -0.3011586065159E+00
-0.7175093040845E+00 -0.3263194940071E+01 -0.7961408606945E+00 -0.3367051512645E+00
-0.6589749654931E+00 -0.3287030057917E+01 -0.7892010164421E+00 -0.3690673994690E+00
-0.6030504856062E+00 -0.3308048739709E+01 -0.7822198567190E+00 -0.3975555932795E+00
-0.5515092491195E+00 -0.3325108697020E+01 -0.7753236007811E+00 -0.4218076162221E+00
-0.5058760296284E+00 -0.3337221059124E+01 -0.7686194292038E+00 -0.4417690599398E+00
-0.4673631072044E+00 -0.3343581440673E+01 -0.7621889209330E+00 -0.4576394658843E+00
-0.4368349049779E+00 -0.3343578143621E+01 -0.7560826209864E+00 -0.4698008547015E+00
-0.4148014024472E+00 -0.3336779010249E+01 -0.7503160937199E+00 -0.4787444804344E+00
-0.4014332502709E+00 -0.3322903974141E+01 -0.7448674559818E+00 -0.4850074195709E+00
-0.3965879476386E+00 -0.3301792568431E+01 -0.7396761142360E+00 -0.4891250444321E+00
-0.3998367367508E+00 -0.3273375056186E+01 -0.7346423695344E+00 -0.4916004024313E+00
-0.4104845917589E+00 -0.3237652912895E+01 -0.7296275118031E+00 -0.4928882049280E+00
-0.4275793011957E+00 -0.3194691735641E+01 -0.7244542181625E+00 -0.4933894849316E+00
-0.4499080172452E+00 -0.3144629128289E+01 -0.7189074398193E+00 -0.4934528538685E+00
-0.4759860050223E+00 -0.3087690240418E+01 -0.7127352597086E+00 -0.4933788682766E+00
-0.5040389552386E+00 -0.3024213144358E+01 -0.7056504304344E+00 -0.4934253930864E+00
-0.5319837834747E+00 -0.2954681591697E+01 -0.6973330854254E+00 -0.4938124513275E+00
-0.5574154149967E+00 -0.2879754916536E+01 -0.6874340765501E+00 -0.4947265147296E+00
-0.5776016363370E+00 -0.2800298655278E+01 -0.6755800683899E+00 -0.4963232939312E+00
-0.5894878764668E+00 -0.2717418911825E+01 -0.6613813675137E+00 -0.4987240409057E+00
-0.5897164215233E+00 -0.2632495406501E+01 -0.6444423752078E+00 -0.5020124601075E+00
-0.5746843643069E+00 -0.2547176917732E+01 -0.6243722657116E+00 -0.5062523842946E+00
-0.5406314290624E+00 -0.2463360841836E+01 -0.6007984631324E+00 -0.5114970780867E+00
-0.4837485555326E+00 -0.2383158861816E+01 -0.5733814920137E+00 -0.5177835134856E+00
-0.4003084400417E+00 -0.2308844612383E+01 -0.5418306185588E+00 -0.5251167424002E+00
-0.2868263383058E+00 -0.2242778447319E+01 -0.5059209646637E+00 -0.5334467357895E+00
-0.1402569956642E+00 -0.2187301515509E+01 -0.4655117091713E+00 -0.5426396938551E+00
 0.4176934533164E-01 -0.2144596228725E+01 -0.4205653829456E+00 -0.5524469668846E+00
 0.2606781667167E+00 -0.2116515186523E+01 -0.3711674094920E+00 -0.5624768558080E+00
 0.5166961077617E+00 -0.2104385352457E+01 -0.3175378536708E+00 -0.5721774204591E+00
 0.8086955865109E+00 -0.2108822227395E+01 -0.2600253320516E+00 -0.5808365967377E+00
 0.1134066209677E+01 -0.2129598479629E+01 -0.1991064569574E+00 -0.5875993990370E+00
 0.1488583955467E+01 -0.2165554988687E+01 -0.1353942086616E+00 -0.5915084664709E+00
 0.1866425540986E+01 -0.2214577409915E+01 -0.6963037482351E-01 -0.5915750552934E+00
 0.2260328144235E+01 -0.2273669196898E+01 -0.2668210572215E-02 -0.5868709969379E+00
 0.2661889627264E+01 -0.2339128268463E+01  0.6455227272223E-01 -0.5766305825786E+00
 0.3061997457635E+01 -0.2406818210525E+01  0.1310358513747E+00 -0.5603484531368E+00
 0.3451326047709E+01 -0.2472503673254E+01  0.1957644778081E+00 -0.5378606932885E+00
 0.3820860749962E+01 -0.2532214676758E+01  0.2577292184812E+00 -0.5093999932038E+00
 0.4162349253602E+01 -0.2582594739537E+01  0.3159509075210E+00 -0.4756280757501E+00
-0.7630796680207E+00 -0.3181722147538E+01 -0.7889603748682E+00 -0.2916669675750E+00
-0.7047905150729E+00 -0.3206849873172E+01 -0.7823280893066E+00 -0.3275599486759E+00
-0.6474890059066E+00 -0.3230420811576E+01 -0.7755819750537E+00 -0.3607320328030E+00
-0.5930001888773E+00 -0.3251251636330E+01 -0.7688503764982E+00 -0.3904638494878E+00
-0.5429812798771E+00 -0.3268260404966E+01 -0.7622483483271E+00 -0.4163465163040E+00
-0.4988540851418E+00 -0.3280505196311E+01 -0.7558718675540E+00 -0.4382648506317E+00
-0.4617503076451E+00 -0.3287210323039E+01 -0.7497921373095E+00 -0.4563506580574E+00
-0.4324797637500E+00 -0.3287773888907E+01 -0.7440507416187E+00 -0.4709192309009E+00
-0.4115225271605E+00 -0.3281757384659E+01 -0.7386559933708E+00 -0.4824024865907E+00
-0.3990396271487E+00 -0.3268862899049E+01 -0.7335805161708E+00 -0.4912889547283E+00
-0.3948935150566E+00 -0.3248905730321E+01 -0.7287598599349E+00 -0.4980764310570E+00
-0.3986694119760E+00 -0.3221789982175E+01 -0.7240918896200E+00 -0.5032389016522E+00
-0.4096907885463E+00 -0.3187492337041E+01 -0.7194366358380E+00 -0.5072064602238E+00
-0.4270252894091E+00 -0.3146056966221E+01 -0.7146164617747E+00 -0.5103552883762E+00
-0.4494793960110E+00 -0.3097604237504E+01 -0.7094167372742E+00 -0.5130043803461E+00
-0.4755862794564E+00 -0.3042346412269E+01 -0.7035865488294E+00 -0.5154164494700E+00
-0.5035878258726E+00 -0.2980612669811E+01 -0.6968401095205E+00 -0.5178009442566E+00
-0.5314154039815E+00 -0.2912881292149E+01 -0.6888593494908E+00 -0.5203177533949E+00
-0.5566766662197E+00 -0.2839809164286E+01 -0.6792971762234E+00 -0.5230817795873E+00
-0.5766503496343E+00 -0.2762260629255E+01 -0.6677822057286E+00 -0.5261680283752E+00
-0.5882908284863E+00 -0.2681334910297E+01 -0.6539251575008E+00 -0.5296157987094E+00
-0.5882471011680E+00 -0.2598400972699E+01 -0.6373296242704E+00 -0.5334286034510E+00
-0.5729214305884E+00 -0.2515104194312E+01 -0.6176051341832E+00 -0.5375853092056E+00
-0.5385588661162E+00 -0.2433348101660E+01 -0.5943814024123E+00 -0.5420485424524E+00
-0.4813581799038E+00 -0.2355255579105E+01 -0.5673227602555E+00 -0.5467656184971E+00
-0.3976051455320E+00 -0.2283111283914E+01 -0.5361432938784E+00 -0.5516634955010E+00
-0.2838361051934E+00 -0.2219282144758E+01 -0.5006236574501E+00 -0.5566385860403E+00
-0.1370371650677E+00 -0.2166108433186E+01 -0.4606291265146E+00 -0.5615427459113E+00
 0.4511866851986E-01 -0.2125762481881E+01 -0.4161287688731E+00 -0.5661676223451E+00
 0.2640033789560E+00 -0.2100077316597E+01 -0.3672147930002E+00 -0.5702307095115E+00
 0.5197821442579E+00 -0.2090353070580E+01 -0.3141141899451E+00 -0.5733674842149E+00
 0.8112628403351E+00 -0.2097175850045E+01 -0.2571826057742E+00 -0.5751329191266E+00
 0.1135775006801E+01 -0.2120290278739E+01 -0.1969030573216E+00 -0.5750129222427E+00
 0.1489048470611E+01 -0.2158515066214E+01 -0.1338933211157E+00 -0.5724481230358E+00
 0.1865236982470E+01 -0.2209726268358E+01 -0.6889785820415E-01 -0.5668731728967E+00
 0.2257085480522E+01 -0.2270936123908E+01 -0.2770128718494E-02 -0.5577666517532E+00
 0.2656234411204E+01 -0.2338473088342E+01  0.6355226551946E-01 -0.5447061759196E+00
 0.3053647980122E+01 -0.2408253032547E+01  0.1290789914385E+00 -0.5274220542351E+00
 0.3440105818482E+01 -0.2476110893425E+01  0.1927989878843E+00 -0.5058443319424E+00
 0.3806716847440E+01 -0.2538158039439E+01  0.2537117653808E+00 -0.4801396572210E+00
 0.4145357681215E+01 -0.2591120986048E+01  0.3108473436653E+00 -0.4507430735218E+00
-0.7494056747955E+00 -0.3125865083303E+01 -0.7750541631689E+00 -0.2822547932247E+00
-0.6918648074949E+00 -0.3150792506447E+01 -0.7685314742405E+00 -0.3184996675701E+00
-0.6356378780729E+00 -0.3174172049932E+01 -0.7619619969550E+00 -0.3524640627248E+00
-0.5824394698384E+00 -0.3194883596120E+01 -0.7554646244491E+00 -0.3833989819369E+00
-0.5338157759704E+00 -0.3211904282779E+01 -0.7491440229130E+00 -0.4108521394934E+00
-0.4910890851860E+00 -0.3224339578233E+01 -0.7430857437566E+00 -0.4346533153289E+00
-0.4553114221064E+00 -0.3231444967387E+01 -0.7373512888861E+00 -0.4548732721940E+00
-0.4272364611652E+00 -0.3232632487535E+01 -0.7319738006472E+00 -0.4717668827454E+00
-0.4073112090027E+00 -0.3227462237087E+01 -0.7269547000504E+00 -0.4857117252464E+00
-0.3956833817059E+00 -0.3215623285323E+01 -0.7222613441683E+00 -0.4971510633302E+00
-0.3922171936374E+00 -0.3196910551498E+01 -0.7178255597236E+00 -0.5065467209467E+00
-0.3965099158990E+00 -0.3171204290934E+01 -0.7135428519993E+00 -0.5143438735142E+00
-0.4079032526993E+00 -0.3138456869461E+01 -0.7092720350010E+00 -0.5209473273900E+00
-0.4254861816516E+00 -0.3098689627502E+01 -0.7048351723336E+00 -0.5267072411057E+00
-0.4480875401710E+00 -0.3052002529562E+01 -0.7000180243777E+00 -0.5319116481772E+00
-0.4742626167423E+00 -0.2998590253213E+01 -0.6945705843410E+00 -0.5367841128736E+00
-0.5022744355358E+00 -0.2938767131941E+01 -0.6882083237505E+00 -0.5414844972187E+00
-0.5300740259989E+00 -0.2872999026247E+01 -0.6806146205910E+00 -0.5461115339777E+00
-0.5552868213161E+00 -0.2801932657524E+01 -0.6714439057734E+00 -0.5507076479750E+00
-0.5752070261725E+00 -0.2726423046092E+01 -0.6603260242926E+00 -0.5552662535904E+00
-0.5868016099975E+00 -0.2647555006358E+01 -0.6468713329102E+00 -0.5597435488536E+00
-0.5867291624129E+00 -0.2566680089449E+01 -0.6306818597704E+00 -0.5640614889187E+00
-0.5713992845605E+00 -0.2485433468270E+01 -0.6113665596762E+00 -0.5681129081077E+00
-0.5370631226085E+00 -0.2405717565136E+01 -0.5885561463191E+00 -0.5717693618332E+00
-0.4799254759730E+00 -0.2329659532124E+01 -0.5619170099926E+00 -0.5748888172761E+00
-0.3962794434615E+00 -0.2259549638069E+01 -0.5311658242211E+00 -0.5773212116961E+00
-0.2826713742325E+00 -0.2197758884531E+01 -0.4960860591450E+00 -0.5789111969740E+00
-0.1361011643032E+00 -0.2146628397222E+01 -0.4565459191081E+00 -0.5794986751390E+00
 0.4574010996548E-01 -0.2108327417730E+01 -0.4125174676999E+00 -0.5789183130732E+00
 0.2642024471072E+00 -0.2084682055059E+01 -0.3640959270159E+00 -0.5769994458500E+00
 0.5194264402167E+00 -0.2076983326322E+01 -0.3115113818630E+00 -0.5735670720399E+00
 0.8101949678238E+00 -0.2085808908875E+01 -0.2551227920119E+00 -0.5684443221431E+00
 0.1133815178032E+01 -0.2110896934949E+01 -0.1954163542955E+00 -0.5614575459544E+00
 0.1486000585321E+01 -0.2151062529015E+01 -0.1330123907209E+00 -0.5524427947838E+00
 0.1860897945422E+01 -0.2204183548157E+01 -0.6865712156991E-01 -0.5412533057082E+00
 0.2251257088594E+01 -0.2267281545668E+01 -0.3204891462492E-02 -0.5277676306215E+00
 0.2648736702711E+01 -0.2336703046710E+01  0.6240673213024E-01 -0.5118986222802E+00
 0.3044332588877E+01 -0.2408390912103E+01  0.1271883372502E+00 -0.4936037858234E+00
 0.3428867827466E+01 -0.2478214875688E+01  0.1901305931889E+00 -0.4728992735729E+00
 0.3793503617968E+01 -0.2542326564513E+01  0.2502354144196E+00 -0.4498792762647E+00
 0.4130173530364E+01 -0.2597494430037E+01  0.3065358246333E+00 -0.4247475837071E+00
-0.7356838740501E+00 -0.3070176432765E+01 -0.7611720727054E+00 -0.2728938935203E+00
-0.6787329809098E+00 -0.3094975887191E+01 -0.7547417848667E+00 -0.3094964885062E+00
-0.6234308210329E+00 -0.3118234647176E+01 -0.7483331047928E+00 -0.3442364993759E+00
-0.5713853827258E+00 -0.3138894492763E+01 -0.7420559861553E+00 -0.3763353422631E+00
-0.5240359918812E+00 -0.3155990779096E+01 -0.7360053651627E+00 -0.4053002817683E+00
-0.4826082949071E+00 -0.3168676880858E+01 -0.7302570460348E+00 -0.4309111364361E+00
-0.4480754353944E+00 -0.3176241681893E+01 -0.7248634342589E+00 -0.4531836669741E+00
-0.4211336975559E+00 -0.3178114811974E+01 -0.7198497126326E+00 -0.4723182001613E+00
-0.4021943744615E+00 -0.3173859378683E+01 -0.7152107612863E+00 -0.4886428588771E+00
-0.3913887544349E+00 -0.3163155741636E+01 -0.7109089098076E+00 -0.5025591295928E+00
-0.3885801411422E+00 -0.3145781905854E+01 -0.7068724199324E+00 -0.5144949306289E+00
-0.3933763131727E+00 -0.3121596353867E+01 -0.7029945438833E+00 -0.5248674974663E+00
-0.4051371862209E+00 -0.3090527523004E+01 -0.6991329522628E+00 -0.5340563671867E+00
-0.4229746612871E+00 -0.3052572544087E+01 -0.6951094514328E+00 -0.5423851875737E+00
-0.4457429807813E+00 -0.3007807911123E+01 -0.6907101886733E+00 -0.5501103200605E+00
-0.4720237330569E+00 -0.2956406156476E+01 -0.6856859881241E+00 -0.5574154273204E+00
-0.5001059775178E+00 -0.2898660951553E+01 -0.6797533959433E+00 -0.5644100807112E+00
-0.5279655732899E+00 -0.2835018901112E+01 -0.6725969049028E+00 -0.5711312184489E+00
-0.5532507648361E+00 -0.2766108938363E+01 -0.6638719505322E+00 -0.5775481889011E+00
-0.5732757293678E+00 -0.2692768694592E+01 -0.6532088945255E+00 -0.5835721680145E+00
-0.5850236662446E+00 -0.2616061086663E+01 -0.6402169601216E+00 -0.5890752511729E+00
-0.5851655975137E+00 -0.2537313621508E+01 -0.6244958531100E+00 -0.5938965340964E+00
-0.5701205532617E+00 -0.2458144503960E+01 -0.6056530204692E+00 -0.5978417366783E+00
-0.5361464262567E+00 -0.2380447884011E+01 -0.5833188707456E+00 -0.6006907195688E+00
-0.4794520789659E+00 -0.2306348339593E+01 -0.5571600920141E+00 -0.6022118996305E+00
-0.3963320053820E+00 -0.2238136448746E+01 -0.5268936986769E+00 -0.6021782979538E+00
-0.2833313128081E+00 -0.2178184893879E+01 -0.4923032486732E+00 -0.6003830878819E+00
-0.1374459895967E+00 -0.2128837477005E+01 -0.4532567000745E+00 -0.5966545393614E+00
 0.4363955895368E-01 -0.2092267384149E+01 -0.4097255711444E+00 -0.5908705554214E+00
 0.2612847958207E+00 -0.2070306445433E+01 -0.3618043353138E+00 -0.5829722867124E+00
 0.5156424066086E+00 -0.2064254173052E+01 -0.3097223579039E+00 -0.5729739357349E+00
 0.8055094770236E+00 -0.2074700589524E+01 -0.2538382262826E+00 -0.5609662512968E+00
 0.1128207973912E+01 -0.2101398614140E+01 -0.1946381309458E+00 -0.5471152577561E+00
 0.1479464390391E+01 -0.2143178035935E+01 -0.1327427310868E+00 -0.5316514055923E+00
 0.1853433891492E+01 -0.2197929556543E+01 -0.6889913403695E-01 -0.5148453099515E+00
 0.2242867816880E+01 -0.2262684238340E+01 -0.3963284351093E-02 -0.4969741238600E+00
 0.2639418359451E+01 -0.2333793937621E+01  0.6112488527692E-01 -0.4782843304469E+00
 0.3034067555009E+01 -0.2407203031874E+01  0.1253729064952E+00 -0.4589586489857E+00
 0.3417620145174E+01 -0.2478780487813E+01  0.1877679342701E+00 -0.4390968468023E+00
 0.3781218470925E+01 -0.2544677105677E+01  0.2473082767349E+00 -0.4187175907568E+00
 0.4116781310373E+01 -0.2601662217696E+01  0.3030238230509E+00 -0.3977897576990E+00
-0.7219070797257E+00 -0.3014611391285E+01 -0.7473037053379E+00 -0.2635571714813E+00
-0.6653956736617E+00 -0.3039352379687E+01 -0.7409496217107E+00 -0.3005236110055E+00
-0.6108767412554E+00 -0.3062558619990E+01 -0.7346870831969E+00 -0.3360230786110E+00
-0.5598545340343E+00 -0.3083233000882E+01 -0.7286175178405E+00 -0.3692475310328E+00
-0.5136648039153E+00 -0.3100468591104E+01 -0.7228266897748E+00 -0.3996664214165E+00
-0.4734389005731E+00 -0.3113467283020E+01 -0.7173812474083E+00 -0.4270141366133E+00
-0.4400717441900E+00 -0.3121553409486E+01 -0.7123250413497E+00 -0.4512569202020E+00
-0.4142011733757E+00 -0.3124177477736E+01 -0.7076757407675E+00 -0.4725460461381E+00
-0.3962005227346E+00 -0.3120909547192E+01 -0.7034220244672E+00 -0.4911649593803E+00
-0.3861820129881E+00 -0.3111425141860E+01 -0.6995214413934E+00 -0.5074770367886E+00
-0.3840058034205E+00 -0.3095488479977E+01 -0.6958988670493E+00 -0.5218787696421E+00
-0.3892889796645E+00 -0.3072938142154E+01 -0.6924454346820E+00 -0.5347608912647E+00
-0.4014098707355E+00 -0.3043678951748E+01 -0.6890177747638E+00 -0.5464783294210E+00
-0.4195050085757E+00 -0.3007682484038E+01 -0.6854375087365E+00 -0.5573283843843E+00
-0.4424571289444E+00 -0.2964998798934E+01 -0.6814911957307E+00 -0.5675356474458E+00
-0.4688782977536E+00 -0.2915773860590E+01 -0.6769304417557E+00 -0.5772436743868E+00
-0.4970884875133E+00 -0.2860275004981E+01 -0.6714727085046E+00 -0.5865115111394E+00
-0.5250935422684E+00 -0.2798922873259E+01 -0.6648032930119E+00 -0.5953140549936E+00
-0.5505695487899E+00 -0.2732321084678E+01 -0.6565781364775E+00 -0.6035473006943E+00
-0.5708551751001E+00 -0.2661281882900E+01 -0.6464274212324E+00 -0.6110397870010E+00
-0.5829535010590E+00 -0.2586838835752E+01 -0.6339584768088E+00 -0.6175786572482E+00
-0.5835508287735E+00 -0.2510288793651E+01 -0.6187679337053E+00 -0.6229189126002E+00
-0.5690777052154E+00 -0.2433226240691E+01 -0.6004607981288E+00 -0.6267780603030E+00
-0.5357994196406E+00 -0.2357529885116E+01 -0.5786658695740E+00 -0.6288434518989E+00
-0.4799269517729E+00 -0.2285314861505E+01 -0.5530483708967E+00 -0.6287932436274E+00
-0.3977503116202E+00 -0.2218866686149E+01 -0.5233234073519E+00 -0.6263226839003E+00
-0.2858022073426E+00 -0.2160557209822E+01 -0.4892718907236E+00 -0.6211722457490E+00
-0.1410571506915E+00 -0.2112734559824E+01 -0.4507583488199E+00 -0.6131568350935E+00
 0.3883172055200E-01 -0.2077582690113E+01 -0.4077501999881E+00 -0.6021953178579E+00
 0.2552646624165E+00 -0.2056951570043E+01 -0.3603373868948E+00 -0.5883379756976E+00
 0.5084430863503E+00 -0.2052166634663E+01 -0.3087447142633E+00 -0.5717854815199E+00
 0.7972175741509E+00 -0.2063850924798E+01 -0.2533266739042E+00 -0.5528939997991E+00
 0.1118962367117E+01 -0.2091793444429E+01 -0.1945662183616E+00 -0.5321681353852E+00
 0.1469446617502E+01 -0.2134857040578E+01 -0.1330820865983E+00 -0.5102332467192E+00
 0.1842849749647E+01 -0.2190956520416E+01 -0.6962135519127E-01 -0.4877797142436E+00
 0.2231921585984E+01 -0.2257132840302E+01 -0.5042250938866E-02 -0.4654873371654E+00
 0.2628283196061E+01 -0.2329730494430E+01  0.5971054121601E-01 -0.4439411345016E+00
 0.3022857248247E+01 -0.2404669723588E+01  0.1236375067741E+00 -0.4235535842013E+00
 0.3406367772881E+01 -0.2477782756186E+01  0.1857170061065E+00 -0.4045109690500E+00
 0.3769866282594E+01 -0.2545177909778E+01  0.2449376782131E+00 -0.3867567395797E+00
 0.4105184036413E+01 -0.2603583673098E+01  0.3003200771383E+00 -0.3700221561787E+00
-0.7080679826351E+00 -0.2959124369816E+01 -0.7334384814193E+00 -0.2542186450584E+00
-0.6518534222130E+00 -0.2983873449572E+01 -0.7271453851922E+00 -0.2915552852575E+00
-0.5979843456771E+00 -0.3007092905817E+01 -0.7210154610428E+00 -0.3277983374247E+00
-0.5478632673076E+00 -0.3027846392485E+01 -0.7151419426151E+00 -0.3621105423039E+00
-0.5027249109908E+00 -0.3045284506314E+01 -0.7096018940349E+00 -0.3939259389351E+00
-0.4636081898679E+00 -0.3058658374435E+01 -0.7044533233577E+00 -0.4229375590675E+00
-0.4313302904312E+00 -0.3067329710584E+01 -0.6997320106298E+00 -0.4490671395258E+00
-0.4064696643579E+00 -0.3070772895565E+01 -0.6954485223476E+00 -0.4724220625604E+00
-0.3893597456612E+00 -0.3068568512671E+01 -0.6915856619718E+00 -0.4932457767128E+00
-0.3800914297364E+00 -0.3060390762817E+01 -0.6880964487641E+00 -0.5118673738756E+00
-0.3785198668379E+00 -0.3045992920931E+01 -0.6849025677596E+00 -0.5286547684157E+00
-0.3842705467553E+00 -0.3025195365601E+01 -0.6818931926323E+00 -0.5439741496249E+00
-0.3967406174224E+00 -0.2997879566863E+01 -0.6789240469738E+00 -0.5581570956347E+00
-0.4150930654081E+00 -0.2963990243034E+01 -0.6758166717588E+00 -0.5714753418940E+00
-0.4382422597957E+00 -0.2923548168408E+01 -0.6723580956596E+00 -0.5841222061789E+00
-0.4648349370488E+00 -0.2876668462463E+01 -0.6683006898608E+00 -0.5962014727325E+00
-0.4932268646081E+00 -0.2823586604582E+01 -0.6633627037228E+00 -0.6077218995359E+00
-0.5214590363168E+00 -0.2764690701280E+01 -0.6572299573129E+00 -0.6185964977133E+00
-0.5472404358881E+00 -0.2700551640712E+01 -0.6495584249992E+00 -0.6286479645697E+00
-0.5679387797501E+00 -0.2631948353079E+01 -0.6399774361023E+00 -0.6376220642809E+00
-0.5805807260785E+00 -0.2559877640642E+01 -0.6280916827034E+00 -0.6452203030391E+00
-0.5818707555234E+00 -0.2485599091340E+01 -0.6134939785144E+00 -0.6511124302439E+00
-0.5682530911894E+00 -0.2410676695998E+01 -0.5957859663154E+00 -0.6549266401116E+00
-0.5360011893688E+00 -0.2336966484010E+01 -0.5745935432379E+00 -0.6562567897643E+00
-0.4813263952681E+00 -0.2266567132740E+01 -0.5495787137911E+00 -0.6546895831438E+00
-0.4005086338386E+00 -0.2201753481922E+01 -0.5204524309075E+00 -0.6498407107892E+00
-0.2900574088118E+00 -0.2144893688578E+01 -0.4869902267348E+00 -0.6413952536064E+00
-0.1469085720963E+00 -0.2098341416765E+01 -0.4490500044635E+00 -0.6291509949718E+00
 0.3134026037525E-01 -0.2064297736844E+01 -0.4065915013524E+00 -0.6130630096213E+00
 0.2461612803892E+00 -0.2044642748236E+01 -0.3596962989293E+00 -0.5932853451910E+00
 0.4978413580478E+00 -0.2040744962722E+01 -0.3085807255330E+00 -0.5701999363305E+00
 0.7853243588399E+00 -0.2053281091556E+01 -0.2535913503219E+00 -0.5444244008606E+00
 0.1106075206300E+01 -0.2082097825389E+01 -0.1952045267267E+00 -0.5168003856282E+00
 0.1455936725877E+01 -0.2126110084717E+01 -0.1340346737654E+00 -0.4883500926912E+00
 0.1829129930329E+01 -0.2183268845594E+01 -0.7082778410836E-01 -0.4601896026350E+00
 0.2218401354371E+01 -0.2250626077200E+01 -0.6444944661842E-02 -0.4334108683230E+00
 0.2615316951769E+01 -0.2324506599053E+01  0.5816207140987E-01 -0.4089490069547E+00
 0.3010694167479E+01 -0.2400780688315E+01  0.1219826976504E+00 -0.3874575305790E+00
 0.3395112789658E+01 -0.2475207119501E+01  0.1839811367728E+00 -0.3692177265527E+00
 0.3759459702125E+01 -0.2543808918518E+01  0.2431301603444E+00 -0.3541016515501E+00
 0.4095403736061E+01 -0.2603230662164E+01  0.2984346192263E+00 -0.3416012933764E+00
-0.6941591394147E+00 -0.2903668830222E+01 -0.7195656046497E+00 -0.2448534779662E+00
-0.6381067115175E+00 -0.2928489482356E+01 -0.7133192494040E+00 -0.2825668504378E+00
-0.5847622547702E+00 -0.2951785175670E+01 -0.7073094966278E+00 -0.3195376893395E+00
-0.5354278218375E+00 -0.2972680363757E+01 -0.7016216475738E+00 -0.3548998988885E+00
-0.4912390104847E+00 -0.2990383265657E+01 -0.6963244656043E+00 -0.3880543187804E+00
-0.4531437149882E+00 -0.3004195072931E+01 -0.6914677678876E+00 -0.4186563240228E+00
-0.4218816890634E+00 -0.3013516742460E+01 -0.6870796965430E+00 -0.4465877482492E+00
-0.3979711032677E+00 -0.3017849309496E+01 -0.6831640927326E+00 -0.4719169544165E+00
-0.3817037648851E+00 -0.3016787161061E+01 -0.6796981953175E+00 -0.4948519922223E+00
-0.3731472847296E+00 -0.3010006394347E+01 -0.6766307458979E+00 -0.5156916344359E+00
-0.3721502420022E+00 -0.2997251952154E+01 -0.6738804488729E+00 -0.5347784058697E+00
-0.3783458812678E+00 -0.2978327575522E+01 -0.6713347013617E+00 -0.5524563887916E+00
-0.3911507560891E+00 -0.2953091611595E+01 -0.6688484835035E+00 -0.5690356322155E+00
-0.4097562423912E+00 -0.2921460681439E+01 -0.6662433946939E+00 -0.5847636789709E+00
-0.4331115420512E+00 -0.2883423547582E+01 -0.6633070278106E+00 -0.5998036464308E+00
-0.4599022866063E+00 -0.2839060367208E+01 -0.6597925405945E+00 -0.6142204165419E+00
-0.4885249446100E+00 -0.2788569406662E+01 -0.6554188800209E+00 -0.6279731714739E+00
-0.5170608557518E+00 -0.2732299816438E+01 -0.6498721441219E+00 -0.6409136008642E+00
-0.5432570009174E+00 -0.2670782456590E+01 -0.6428079010801E+00 -0.6527915070524E+00
-0.5645147668444E+00 -0.2604755097236E+01 -0.6338539822612E+00 -0.6632700196105E+00
-0.5778881653555E+00 -0.2535170392604E+01 -0.6226117208696E+00 -0.6719645045545E+00
-0.5801028475447E+00 -0.2463244058911E+01 -0.6086693903609E+00 -0.6784584003998E+00
-0.5676190145067E+00 -0.2390502773731E+01 -0.5916243664635E+00 -0.6822895133587E+00
-0.5367192978870E+00 -0.2318772520285E+01 -0.5710983721444E+00 -0.6829570888294E+00
-0.4836140229653E+00 -0.2250128247462E+01 -0.5467484622327E+00 -0.6799547561681E+00
-0.4045679323747E+00 -0.2186828088619E+01 -0.5182792119216E+00 -0.6728159927663E+00
-0.2960571348968E+00 -0.2131233067929E+01 -0.4854580477990E+00 -0.6611663827665E+00
-0.1549622905732E+00 -0.2085702893018E+01 -0.4481330433959E+00 -0.6447808425227E+00
 0.2119820517321E-01 -0.2052461351508E+01 -0.4062526353207E+00 -0.6236434245528E+00
 0.2339993481488E+00 -0.2033430011573E+01 -0.3598861380476E+00 -0.5980038434858E+00
 0.4838504160626E+00 -0.2030037227667E+01 -0.3092373669289E+00 -0.5684174878199E+00
 0.7698292359597E+00 -0.2043034067516E+01 -0.2546409701056E+00 -0.5357575156861E+00
 0.1089531472753E+01 -0.2072347082278E+01 -0.1965631248340E+00 -0.5012004053933E+00
 0.1438906936067E+01 -0.2116963381051E+01 -0.1356112910176E+00 -0.4661683630273E+00
 0.1812238118457E+01 -0.2174883581376E+01 -0.7252909366460E-01 -0.4322125557093E+00
 0.2202268723296E+01 -0.2243173102392E+01 -0.8180875941171E-02 -0.4008521373011E+00
 0.2600486825821E+01 -0.2318125534566E+01  0.5647225909240E-01 -0.3733908060511E+00
 0.2997558556212E+01 -0.2395535217992E+01  0.1204046694383E+00 -0.3507414954827E+00
 0.3383854181995E+01 -0.2471049665084E+01  0.1825609061025E+00 -0.3332949464388E+00
 0.3750019290820E+01 -0.2540562037805E+01  0.2418914542074E+00 -0.3208594166021E+00
 0.4087481964347E+01 -0.2600587893342E+01  0.2973788186322E+00 -0.3126871497010E+00
-0.6801729638138E+00 -0.2848197148618E+01 -0.7056740330018E+00 -0.2354380182806E+00
-0.6241560179539E+00 -0.2873149632487E+01 -0.6994611405110E+00 -0.2735347789051E+00
-0.5712190984473E+00 -0.2896581677921E+01 -0.6935601656085E+00 -0.3112175003146E+00
-0.5225644685397E+00 -0.2917678889347E+01 -0.6880486818300E+00 -0.3475917806533E+00
-0.4792299518540E+00 -0.2935707446442E+01 -0.6829874898365E+00 -0.3820273368502E+00
-0.4420734399512E+00 -0.2950019551073E+01 -0.6784186083140E+00 -0.4141452660063E+00
-0.4117573500039E+00 -0.2960057236960E+01 -0.6743629274415E+00 -0.4437917507298E+00
-0.3887386667370E+00 -0.2965350823488E+01 -0.6708179080409E+00 -0.4710007561557E+00
-0.3732659838733E+00 -0.2965511558776E+01 -0.6677555184802E+00 -0.4959494596056E+00
-0.3653818913600E+00 -0.2960220424744E+01 -0.6651204731318E+00 -0.5189104102911E+00
-0.3649270762219E+00 -0.2949216460073E+01 -0.6628287171359E+00 -0.5402042389565E+00
-0.3715420988924E+00 -0.2932288233585E+01 -0.6607660763417E+00 -0.5601557994953E+00
-0.3846636618239E+00 -0.2909271196567E+01 -0.6587869814948E+00 -0.5790559568840E+00
-0.4035135673264E+00 -0.2880052714780E+01 -0.6567132662070E+00 -0.5971299944172E+00
-0.4270791127104E+00 -0.2844586956329E+01 -0.6543332235582E+00 -0.6145124609271E+00
-0.4540890930766E+00 -0.2802915174067E+01 -0.6514008631354E+00 -0.6312307324867E+00
-0.4829856261470E+00 -0.2755193245726E+01 -0.6476357840251E+00 -0.6471956046025E+00
-0.5118956441539E+00 -0.2701725109664E+01 -0.6427241603408E+00 -0.6621984289432E+00
-0.5386092912574E+00 -0.2642994434884E+01 -0.6363207547103E+00 -0.6759168756789E+00
-0.5605663336621E+00 -0.2579690072885E+01 -0.6280512906681E+00 -0.6879318762180E+00
-0.5748520171725E+00 -0.2512713183295E+01 -0.6175130492952E+00 -0.6977723586410E+00
-0.5782162873844E+00 -0.2443228991841E+01 -0.6042890648498E+00 -0.7049345181620E+00
-0.5671378341414E+00 -0.2372719972643E+01 -0.5879715701183E+00 -0.7088647641666E+00
-0.5379098220135E+00 -0.2302974509162E+01 -0.5681768747017E+00 -0.7089665389205E+00
-0.4867407048310E+00 -0.2236036187791E+01 -0.5445553866389E+00 -0.7046384190744E+00
-0.4098756734396E+00 -0.2174139826063E+01 -0.5168031076016E+00 -0.6953282289469E+00
-0.3037481332054E+00 -0.2119635074774E+01 -0.4846766488181E+00 -0.6805966209539E+00
-0.1651679512333E+00 -0.2074887215740E+01 -0.4480110400706E+00 -0.6601879715335E+00
 0.8448600652606E-02 -0.2042147319299E+01 -0.4067397497901E+00 -0.6341056064198E+00
 0.2188097897016E+00 -0.2023388856508E+01 -0.3609158187393E+00 -0.6026839932076E+00
 0.4664845394438E+00 -0.2020116250907E+01 -0.3107263469229E+00 -0.5666413814908E+00
 0.7507265610377E+00 -0.2033175661530E+01 -0.2564898239205E+00 -0.5270983195836E+00
 0.1069304657643E+01 -0.2062596483942E+01 -0.1986583682200E+00 -0.4855628902144E+00
 0.1418312223597E+01 -0.2107459705177E+01 -0.1378294983698E+00 -0.4438613761398E+00
 0.1792116847329E+01 -0.2165831106446E+01 -0.7474285293708E-01 -0.4039927085129E+00
 0.2183463170220E+01 -0.2234793961463E+01 -0.1026615840173E-01 -0.3679239272151E+00
 0.2583740561123E+01 -0.2310600282882E+01  0.5462805646230E-01 -0.3373531004271E+00
 0.2983417582278E+01 -0.2388942417153E+01  0.1188950347965E+00 -0.3134786587842E+00
 0.3372587339966E+01 -0.2465317346488E+01  0.1814540013994E+00 -0.2968217715222E+00
 0.3741573480857E+01 -0.2535441373322E+01  0.2412264251015E+00 -0.2871386449305E+00
 0.4081480315089E+01 -0.2595653148065E+01  0.2971654378330E+00 -0.2834426641490E+00
-0.6661017204534E+00 -0.2792660504297E+01 -0.6917524552579E+00 -0.2259498439227E+00
-0.6100018461932E+00 -0.2817801700554E+01 -0.6855607195650E+00 -0.2644367257366E+00
-0.5573635972573E+00 -0.2841427110957E+01 -0.6797581517720E+00 -0.3028151657610E+00
-0.5092896259122E+00 -0.2862784102956E+01 -0.6744147558233E+00 -0.3401631480072E+00
-0.4667208706139E+00 -0.2881197365338E+01 -0.6695836571680E+00 -0.3758212372264E+00
-0.4304258737419E+00 -0.2896071174012E+01 -0.6652994194646E+00 -0.4093793561645E+00
-0.4009895946834E+00 -0.2906890480009E+01 -0.6615760247967E+00 -0.4406519814791E+00
-0.3788068663425E+00 -0.2913217421455E+01 -0.6584048673705E+00 -0.4696430836869E+00
-0.3640815530754E+00 -0.2914683003943E+01 -0.6557529211752E+00 -0.4965034362495E+00
-0.3568296425966E+00 -0.2910975907542E+01 -0.6535611197665E+00 -0.5214835820148E+00
-0.3568827925798E+00 -0.2901831557334E+01 -0.6517428796944E+00 -0.5448860361813E+00
-0.3638886093372E+00 -0.2887024752174E+01 -0.6501826819907E+00 -0.5670197104495E+00
-0.3773048180101E+00 -0.2866368300409E+01 -0.6487346333508E+00 -0.5881591209998E+00
-0.3963857744976E+00 -0.2839719262009E+01 -0.6472210169458E+00 -0.6085097578045E+00
-0.4201601969452E+00 -0.2806994794532E+01 -0.6454310079130E+00 -0.6281797744409E+00
-0.4474043651529E+00 -0.2768193501492E+01 -0.6431195829121E+00 -0.6471609582435E+00
-0.4766110505364E+00 -0.2723423897454E+01 -0.6400069991349E+00 -0.6653173867436E+00
-0.5059580924634E+00 -0.2672938636740E+01 -0.6357793553145E+00 -0.6823814852537E+00
-0.5332840483644E+00 -0.2617167185333E+01 -0.6300902561286E+00 -0.6979599299881E+00
-0.5560718801719E+00 -0.2556741817916E+01 -0.6225627488945E+00 -0.7115522089667E+00
-0.5714420761646E+00 -0.2492504894614E+01 -0.6127894032870E+00 -0.7226007480444E+00
-0.5761721655943E+00 -0.2425564521132E+01 -0.6003473462912E+00 -0.7305137298432E+00
-0.5667621057344E+00 -0.2357351991882E+01 -0.5848228282379E+00 -0.7346452774921E+00
-0.5395174044738E+00 -0.2289610303823E+01 -0.5658255500908E+00 -0.7343018409050E+00
-0.4906444873687E+00 -0.2224343589091E+01 -0.5429976233832E+00 -0.7287847089219E+00
-0.4163655733366E+00 -0.2163756005152E+01 -0.5160243233872E+00 -0.7174519416029E+00
-0.3130632112218E+00 -0.2110180567671E+01 -0.4846487630004E+00 -0.6997926049539E+00
-0.1774621040973E+00 -0.2065986410455E+01 -0.4486897095965E+00 -0.6755110135781E+00
-0.6854568745441E-02 -0.2033455108936E+01 -0.4080619416168E+00 -0.6446175979602E+00
 0.2006308210471E+00 -0.2014621276949E+01 -0.3627980965865E+00 -0.6075177480547E+00
 0.4457601734783E+00 -0.2011080890305E+01 -0.3130641480303E+00 -0.5650789546430E+00
 0.7280065509792E+00 -0.2023795940792E+01 -0.2591578818243E+00 -0.5186583865307E+00
 0.1045357293501E+01 -0.2052922656517E+01 -0.2015130756061E+00 -0.4700910165685E+00
 0.1394090298848E+01 -0.2097659631686E+01 -0.1407138686644E+00 -0.4216117474157E+00
 0.1768686862882E+01 -0.2156156065725E+01 -0.7749384172344E-01 -0.3756829944557E+00
 0.2161900898793E+01 -0.2225520198637E+01 -0.1272386015843E-01 -0.3347461067611E+00
 0.2565005048240E+01 -0.2301953873572E+01  0.5261023571750E-01 -0.3009271267281E+00
 0.2968224052262E+01 -0.2381021425674E+01  0.1174405270676E+00 -0.2757445450539E+00
 0.3361303196791E+01 -0.2458028184639E+01  0.1806550051223E+00 -0.2598782575045E+00
 0.3734158340660E+01 -0.2528463430380E+01  0.2411389856491E+00 -0.2530488286463E+00
 0.4077480908194E+01 -0.2588437446293E+01  0.2978086968180E+00 -0.2540332317636E+00
-0.6519375204053E+00 -0.2737008791823E+01 -0.6777892725454E+00 -0.2163678137430E+00
-0.5956447603971E+00 -0.2762392034941E+01 -0.6716073690753E+00 -0.2552515825900E+00
-0.5432046298103E+00 -0.2786264520175E+01 -0.6658938399196E+00 -0.2943091884213E+00
-0.4956199571974E+00 -0.2807936199199E+01 -0.6607112411246E+00 -0.3325918615952E+00
-0.4537353034579E+00 -0.2826790996351E+01 -0.6561052697386E+00 -0.3694129003613E+00
-0.4182301892663E+00 -0.2842286443889E+01 -0.6521033363481E+00 -0.4043339124352E+00
-0.3896117660127E+00 -0.2853952288765E+01 -0.6487128206221E+00 -0.4371413408349E+00
-0.3682116416169E+00 -0.2861384976942E+01 -0.6459193333368E+00 -0.4678133745950E+00
-0.3541874449756E+00 -0.2864238060781E+01 -0.6436851107429E+00 -0.4964788072698E+00
-0.3475270739722E+00 -0.2862210606025E+01 -0.6419475455652E+00 -0.5233705087141E+00
-0.3480521516458E+00 -0.2855036618603E+01 -0.6406177635957E+00 -0.5487769179553E+00
-0.3554171894331E+00 -0.2842478501535E+01 -0.6395791477241E+00 -0.5729946661096E+00
-0.3691019123799E+00 -0.2824326730214E+01 -0.6386857380360E+00 -0.5962852125123E+00
-0.3883954320151E+00 -0.2800407145257E+01 -0.6377605249579E+00 -0.6188372257437E+00
-0.4123712709930E+00 -0.2770597672211E+01 -0.6365937981268E+00 -0.6407351617472E+00
-0.4398575724770E+00 -0.2734850743807E+01 -0.6349416727183E+00 -0.6619376508642E+00
-0.4694028342216E+00 -0.2693222762494E+01 -0.6325251287686E+00 -0.6822642038492E+00
-0.4992412001322E+00 -0.2645909233519E+01 -0.6290300961036E+00 -0.7013901690974E+00
-0.5272649901785E+00 -0.2593278579370E+01 -0.6241087232096E+00 -0.7188527585294E+00
-0.5510053012280E+00 -0.2535898956503E+01 -0.6173808607458E+00 -0.7340711140760E+00
-0.5676220180609E+00 -0.2474546673094E+01 -0.6084337472974E+00 -0.7464013609880E+00
-0.5739237330610E+00 -0.2410266079695E+01 -0.5968379714448E+00 -0.7551631064677E+00
-0.5664347669946E+00 -0.2344430221819E+01 -0.5821730064377E+00 -0.7596174821342E+00
-0.5414753274667E+00 -0.2278728654862E+01 -0.5640408048707E+00 -0.7589728524514E+00
-0.4952505014803E+00 -0.2215117425893E+01 -0.5420735935521E+00 -0.7524308491533E+00
-0.4239572828561E+00 -0.2155761810909E+01 -0.5159438264411E+00 -0.7392551281789E+00
-0.3239206459758E+00 -0.2102971695116E+01 -0.4853784754511E+00 -0.7188554368880E+00
-0.1917673109730E+00 -0.2059116808171E+01 -0.4501768305369E+00 -0.6908847646197E+00
-0.2464520103647E-01 -0.2026510778971E+01 -0.4102312021144E+00 -0.6553460390171E+00
 0.1795093298992E+00 -0.2007257073771E+01 -0.3655495542215E+00 -0.6126987130479E+00
 0.4216973437409E+00 -0.2003057689772E+01 -0.3162720739191E+00 -0.5639425800149E+00
 0.7016564901299E+00 -0.2015011080964E+01 -0.2626709220809E+00 -0.5106575616717E+00
 0.1017641672741E+01 -0.2043425431662E+01 -0.2051567548413E+00 -0.4549987112354E+00
 0.1366161596288E+01 -0.2087643158271E+01 -0.1442963145468E+00 -0.3996139701466E+00
 0.1741846278035E+01 -0.2145918595757E+01 -0.8081446474873E-01 -0.3474476319239E+00
 0.2137473274507E+01 -0.2215395626100E+01 -0.1558447055075E-01 -0.3014475917826E+00
 0.2544184396199E+01 -0.2292219786765E+01  0.5039292263767E-01 -0.2642099180959E+00
 0.2951914605496E+01 -0.2371801637728E+01  0.1160225952823E+00 -0.2376172725709E+00
 0.3349986977334E+01 -0.2449211449962E+01  0.1801551081589E+00 -0.2225449832241E+00
 0.3727817111854E+01 -0.2519657279601E+01  0.2416319700513E+00 -0.2186997050415E+00
 0.4075586865380E+01 -0.2578965122738E+01  0.2993243529887E+00 -0.2246261872653E+00
-0.6376723201096E+00 -0.2681190555416E+01 -0.6637725849962E+00 -0.2066721245922E+00
-0.5810854114897E+00 -0.2706865457751E+01 -0.6575901836470E+00 -0.2459595361244E+00
-0.5287512890038E+00 -0.2731035219986E+01 -0.6519573115128E+00 -0.2856792583528E+00
-0.4815724516680E+00 -0.2753073358542E+01 -0.6469291716820E+00 -0.3248568007265E+00
-0.4402972874330E+00 -0.2772423907015E+01 -0.6425442484643E+00 -0.3627800063304E+00
-0.4055163305628E+00 -0.2788598955711E+01 -0.6388230667741E+00 -0.3989848016527E+00
-0.3776583333616E+00 -0.2801174993271E+01 -0.6357666748002E+00 -0.4332330210652E+00
-0.3569904555133E+00 -0.2809785261261E+01 -0.6333551527926E+00 -0.4654811198067E+00
-0.3436225385566E+00 -0.2814108587561E+01 -0.6315462346344E+00 -0.4958403047834E+00
-0.3375129421463E+00 -0.2813857027088E+01 -0.6302740032387E+00 -0.5245302191023E+00
-0.3384723343814E+00 -0.2808765301212E+01 -0.6294475364981E+00 -0.5518295055448E+00
-0.3461620828907E+00 -0.2798584796139E+01 -0.6289493851780E+00 -0.5780265203782E+00
-0.3600849652874E+00 -0.2783084053916E+01 -0.6286338132081E+00 -0.6033733811993E+00
-0.3795671070662E+00 -0.2762056952530E+01 -0.6283248212820E+00 -0.6280453850728E+00
-0.4037302686313E+00 -0.2735340192216E+01 -0.6278141015246E+00 -0.6521064951513E+00
-0.4314588936420E+00 -0.2702836769115E+01 -0.6268591418923E+00 -0.6754851255131E+00
-0.4613623556182E+00 -0.2664546479679E+01 -0.6251817763754E+00 -0.6979588575272E+00
-0.4917365957690E+00 -0.2620602048718E+01 -0.6224677381730E+00 -0.7191482603137E+00
-0.5205331576134E+00 -0.2571304210798E+01 -0.6183674828966E+00 -0.7385230193972E+00
-0.5453363461746E+00 -0.2517149600820E+01 -0.6124971985259E+00 -0.7554233963650E+00
-0.5633497525395E+00 -0.2458841291802E+01 -0.6044382178752E+00 -0.7691197192021E+00
-0.5714167176506E+00 -0.2397353251254E+01 -0.5937540026286E+00 -0.7788427124993E+00
-0.5660893767495E+00 -0.2333993117536E+01 -0.5800165075001E+00 -0.7837600704693E+00
-0.5437056196782E+00 -0.2270388660407E+01 -0.5628188644037E+00 -0.7829811857481E+00
-0.5004708712672E+00 -0.2208438607758E+01 -0.5417819038781E+00 -0.7756056759440E+00
-0.4325560254969E+00 -0.2150260130193E+01 -0.5165632388355E+00 -0.7607977974191E+00
-0.3362234849911E+00 -0.2098132052625E+01 -0.4868711147782E+00 -0.7378793468180E+00
-0.2079910680481E+00 -0.2054419627245E+01 -0.4524821458012E+00 -0.7064391265601E+00
-0.4484363287330E-01 -0.2021468055017E+01 -0.4132623437361E+00 -0.6664555659096E+00
 0.1555025911896E+00 -0.2001455443856E+01 -0.3691905760347E+00 -0.6184221830129E+00
 0.3943214443521E+00 -0.1996202913843E+01 -0.3203762986721E+00 -0.5634504859825E+00
 0.6716622903287E+00 -0.2006965681353E+01 -0.2670606821843E+00 -0.5033256122182E+00
 0.9861008192141E+00 -0.2034230190294E+01 -0.2096258773396E+00 -0.4405130321346E+00
 0.1334429329327E+01 -0.2077511788257E+01 -0.1486164940005E+00 -0.3780772424299E+00
 0.1711469543163E+01 -0.2135195902778E+01 -0.8474527318585E-01 -0.3194649493188E+00
 0.2110044827951E+01 -0.2204477297494E+01 -0.1888649419003E-01 -0.2681686538151E+00
 0.2521157414719E+01 -0.2281442422766E+01  0.4794299910501E-01 -0.2273056936555E+00
 0.2934407328250E+01 -0.2361322914584E+01  0.1146168844410E+00 -0.1991779323136E+00
 0.3338616516683E+01 -0.2438907828308E+01  0.1799417403564E+00 -0.1849027043423E+00
 0.3722599516477E+01 -0.2509064690541E+01  0.2427069688038E+00 -0.1842006533917E+00
 0.4075922674429E+01 -0.2567273824197E+01  0.3017297745427E+00 -0.1953903380994E+00
-0.6232979221197E+00 -0.2625152944288E+01 -0.6496901829626E+00 -0.1968443726188E+00
-0.5663245604926E+00 -0.2651165213876E+01 -0.6434979644625E+00 -0.2365421300392E+00
-0.5140129272473E+00 -0.2675678739794E+01 -0.6379383429143E+00 -0.2769063347483E+00
-0.4671644906307E+00 -0.2698131694554E+01 -0.6330592464703E+00 -0.3169379814457E+00
-0.4264314439752E+00 -0.2718029212517E+01 -0.6288921406697E+00 -0.3559011950171E+00
-0.3923151089756E+00 -0.2734939365347E+01 -0.6254509041844E+00 -0.3933086358321E+00
-0.3651649927231E+00 -0.2748487424535E+01 -0.6227304927310E+00 -0.4289007249742E+00
-0.3451823916594E+00 -0.2758345953480E+01 -0.6207056782771E+00 -0.4626160883698E+00
-0.3324277116473E+00 -0.2764221762940E+01 -0.6193299041462E+00 -0.4945527237936E+00
-0.3268283168964E+00 -0.2765842450262E+01 -0.6185341626485E+00 -0.5249216052877E+00
-0.3281830438783E+00 -0.2762945556986E+01 -0.6182257293850E+00 -0.5539960804486E+00
-0.3361601245932E+00 -0.2755272866592E+01 -0.6182866074503E+00 -0.5820605487531E+00
-0.3502864886868E+00 -0.2742571510513E+01 -0.6185716090574E+00 -0.6093618894300E+00
-0.3699275683760E+00 -0.2724602868495E+01 -0.6189060965966E+00 -0.6360659268496E+00
-0.3942568313817E+00 -0.2701160689657E+01 -0.6190835134328E+00 -0.6622198259252E+00
-0.4222195141889E+00 -0.2672095561607E+01 -0.6188630243810E+00 -0.6877252291152E+00
-0.4524910978829E+00 -0.2637346470905E+01 -0.6179675229660E+00 -0.7123209166962E+00
-0.4834349193580E+00 -0.2596977995590E+01 -0.6160825921700E+00 -0.7355754355806E+00
-0.5130673279008E+00 -0.2551216762896E+01 -0.6128568272916E+00 -0.7568933083655E+00
-0.5390310496099E+00 -0.2500480647605E+01 -0.6079023485014E+00 -0.7755377774404E+00
-0.5585778493328E+00 -0.2445392397060E+01 -0.6007940582310E+00 -0.7906942166666E+00
-0.5685897121257E+00 -0.2386848996687E+01 -0.5910877505703E+00 -0.8015044701798E+00
-0.5656504168286E+00 -0.2326085446705E+01 -0.5783471813248E+00 -0.8070426923907E+00
-0.5461192083300E+00 -0.2264659094406E+01 -0.5621556689240E+00 -0.8063187504012E+00
-0.5062046374502E+00 -0.2204401467729E+01 -0.5421212291140E+00 -0.7983280724471E+00
-0.4420522039522E+00 -0.2147371301892E+01 -0.5178847088860E+00 -0.7821303689000E+00
-0.3498587508105E+00 -0.2095806813165E+01 -0.4891331200837E+00 -0.7569501712757E+00
-0.2260245494937E+00 -0.2052061605014E+01 -0.4556172376907E+00 -0.7222978230018E+00
-0.6735492246892E-01 -0.2018509559669E+01 -0.4171729026440E+00 -0.6781079627796E+00
 0.1286803469505E+00 -0.1997406845237E+01 -0.3737453052266E+00 -0.6248849470985E+00
 0.3636654537279E+00 -0.1990704986655E+01 -0.3254079114344E+00 -0.5638274081801E+00
 0.6380104811975E+00 -0.1999835592326E+01 -0.2723650262842E+00 -0.4969038321503E+00
 0.9506698010348E+00 -0.2025490775374E+01 -0.2149641980711E+00 -0.4268766704054E+00
 0.1298779689873E+01 -0.2067391161319E+01 -0.1537222965798E+00 -0.3572285933292E+00
 0.1677406274530E+01 -0.2124084279877E+01 -0.8933560240062E-01 -0.2919306430700E+00
 0.2079450807135E+01 -0.2192836744041E+01 -0.2267718771925E-01 -0.2350636903722E+00
 0.2495774433107E+01 -0.2269677654904E+01  0.4521935631454E-01 -0.1903276044790E+00
 0.2915598701591E+01 -0.2349635782676E+01  0.1131925854697E+00 -0.1605111403533E+00
 0.3327160109383E+01 -0.2427169570853E+01  0.1799981103883E+00 -0.1470320587156E+00
 0.3718560797143E+01 -0.2496740245142E+01  0.2443641140414E+00 -0.1496601496765E+00
 0.4078634493779E+01 -0.2553414423565E+01  0.3050440185882E+00 -0.1664955680725E+00
-0.6088059788132E+00 -0.2568841688292E+01 -0.6355295428912E+00 -0.1868676191037E+00
-0.5513630984621E+00 -0.2595232940918E+01 -0.6293192172535E+00 -0.2269823304478E+00
-0.4989991912144E+00 -0.2620132790469E+01 -0.6238264056324E+00 -0.2679727299884E+00
-0.4524138985121E+00 -0.2643045218694E+01 -0.6190918326664E+00 -0.3088166756068E+00
-0.4121630481611E+00 -0.2663537541944E+01 -0.6151401271873E+00 -0.3487562253654E+00
-0.3786582883844E+00 -0.2681235363241E+01 -0.6119787394442E+00 -0.3872829649454E+00
-0.3521687614071E+00 -0.2695814902741E+01 -0.6095967419134E+00 -0.4241188790513E+00
-0.3328282515642E+00 -0.2706990646516E+01 -0.6079637886753E+00 -0.4591885470708E+00
-0.3206459380145E+00 -0.2714500105522E+01 -0.6070292177527E+00 -0.4925811364329E+00
-0.3155166823121E+00 -0.2718088947172E+01 -0.6067211349377E+00 -0.5245036215563E+00
-0.3172266210702E+00 -0.2717499630529E+01 -0.6069452593640E+00 -0.5552287575198E+00
-0.3254508844435E+00 -0.2712465811932E+01 -0.6075833483288E+00 -0.5850415836269E+00
-0.3397416711699E+00 -0.2702713892130E+01 -0.6084911217272E+00 -0.6141881947146E+00
-0.3595060218622E+00 -0.2687972466307E+01 -0.6094957067160E+00 -0.6428292589286E+00
-0.3839725991715E+00 -0.2667990919922E+01 -0.6103927129143E+00 -0.6709993087907E+00
-0.4121519720348E+00 -0.2642564799137E+01 -0.6109433633380E+00 -0.6985771592396E+00
-0.4427910457053E+00 -0.2611568407727E+01 -0.6108718997892E+00 -0.7252664147536E+00
-0.4743262649104E+00 -0.2574993111971E+01 -0.6098638844639E+00 -0.7505868288562E+00
-0.5048444947496E+00 -0.2532985270979E+01 -0.6075659621991E+00 -0.7738805679096E+00
-0.5320522349774E+00 -0.2485876957928E+01 -0.6035858475752E+00 -0.7943361387832E+00
-0.5532540417545E+00 -0.2434203627285E+01 -0.5974915427112E+00 -0.8110551832232E+00
-0.5653746409269E+00 -0.2378778743259E+01 -0.5888306856115E+00 -0.8230910330606E+00
-0.5650336687125E+00 -0.2320757394330E+01 -0.5771582212088E+00 -0.8294246353163E+00
-0.5486161333300E+00 -0.2261617591380E+01 -0.5620467533172E+00 -0.8289662499985E+00
-0.5123377178891E+00 -0.2203113116207E+01 -0.5430901749120E+00 -0.8206053137204E+00
-0.4523210019184E+00 -0.2147232756533E+01 -0.5199107594376E+00 -0.8032919300854E+00
-0.3646965779755E+00 -0.2096162793185E+01 -0.4921718815661E+00 -0.7761436299008E+00
-0.2457411974141E+00 -0.2052235640592E+01 -0.4595953744498E+00 -0.7385768569021E+00
-0.9206687311647E-01 -0.2017848162788E+01 -0.4219830134690E+00 -0.6904610178451E+00
 0.9912725729715E-01 -0.1995335122240E+01 -0.3792415786396E+00 -0.6322848015750E+00
 0.3297726121517E+00 -0.1986787346069E+01 -0.3314029517218E+00 -0.5653050139390E+00
 0.6006906929880E+00 -0.1993831300119E+01 -0.2786281255780E+00 -0.4916465565256E+00
 0.9112774643433E+00 -0.2017393053613E+01 -0.2212231211503E+00 -0.4143505615205E+00
 0.1259082265812E+01 -0.2057434336955E+01 -0.1596704166078E+00 -0.3373163424366E+00
 0.1639479972513E+01 -0.2112701670088E+01 -0.9464434092529E-01 -0.2650615528501E+00
 0.2045494234290E+01 -0.2180561547871E+01 -0.2701346311892E-01 -0.2023045728786E+00
 0.2467853329938E+01 -0.2256993478085E+01  0.4217197099919E-01 -0.1533999333370E+00
 0.2895359739925E+01 -0.2336801580827E+01  0.1117116334843E+00 -0.1217057856916E+00
 0.3315573818823E+01 -0.2414060603737E+01  0.1803026457040E+00 -0.1090132834621E+00
 0.3715760492197E+01 -0.2482751425646E+01  0.2466018169847E+00 -0.1151852760767E+00
 0.4083890244870E+01 -0.2537450831088E+01  0.3092878873653E+00 -0.1381125079802E+00
-0.5941879991690E+00 -0.2512201094122E+01 -0.6212778279160E+00 -0.1767264603786E+00
-0.5362020636345E+00 -0.2539008661170E+01 -0.6150421541258E+00 -0.2172645944984E+00
-0.4837200467216E+00 -0.2564333253105E+01 -0.6096106690492E+00 -0.2588621966806E+00
-0.4373389800139E+00 -0.2587745824942E+01 -0.6050169700066E+00 -0.3004755329511E+00
-0.3975180848035E+00 -0.2608877019489E+01 -0.6012790298183E+00 -0.3413261364422E+00
-0.3645786615127E+00 -0.2627411657856E+01 -0.5983980727906E+00 -0.3808864688294E+00
-0.3387080689892E+00 -0.2643079231477E+01 -0.5963574689797E+00 -0.4188628431167E+00
-0.3199706525734E+00 -0.2655638857601E+01 -0.5951219109028E+00 -0.4551694761034E+00
-0.3083223888070E+00 -0.2664861497362E+01 -0.5946367860946E+00 -0.4898911053654E+00
-0.3036240458009E+00 -0.2670513404111E+01 -0.5948274988459E+00 -0.5232354890176E+00
-0.3056481725126E+00 -0.2672344057925E+01 -0.5955984549626E+00 -0.5554796731578E+00
-0.3140768289486E+00 -0.2670080546765E+01 -0.5968314840363E+00 -0.5869141747180E+00
-0.3284885878731E+00 -0.2663429412136E+01 -0.5983836089184E+00 -0.6177890666220E+00
-0.3483343792811E+00 -0.2652086473792E+01 -0.6000841795566E+00 -0.6482645600363E+00
-0.3729015423469E+00 -0.2635755707283E+01 -0.6017314588926E+00 -0.6783671722908E+00
-0.4012705522185E+00 -0.2614175376549E+01 -0.6030891947403E+00 -0.7079573305699E+00
-0.4322651388008E+00 -0.2587151608659E+01 -0.6038833584905E+00 -0.7367075938216E+00
-0.4644006869173E+00 -0.2554597836201E+01 -0.6037997136210E+00 -0.7640926365941E+00
-0.4958404195156E+00 -0.2516574286338E+01 -0.6024829501485E+00 -0.7893955367625E+00
-0.5243600963976E+00 -0.2473320424275E+01 -0.5995361130683E+00 -0.8117327983133E+00
-0.5473218148383E+00 -0.2425277605608E+01 -0.5945198929484E+00 -0.8301239703446E+00
-0.5616973154186E+00 -0.2373169335055E+01 -0.5869733388412E+00 -0.8435346643303E+00
-0.5641466776164E+00 -0.2318063518061E+01 -0.5764420477251E+00 -0.8508534835099E+00
-0.5510858397903E+00 -0.2261349675132E+01 -0.5624871113662E+00 -0.8508916221003E+00
-0.5187429251287E+00 -0.2204692640121E+01 -0.5446871211665E+00 -0.8424313067923E+00
-0.4632220037254E+00 -0.2149998516768E+01 -0.5226441118866E+00 -0.8243083273800E+00
-0.3805893042704E+00 -0.2099388418343E+01 -0.4959955519137E+00 -0.7955233653907E+00
-0.2669951728859E+00 -0.2055161409848E+01 -0.4644313234673E+00 -0.7553826610910E+00
-0.1188477952175E+00 -0.2019728418535E+01 -0.4277152491239E+00 -0.7036670205870E+00
 0.6694575320102E-01 -0.1995499874929E+01 -0.3857108300931E+00 -0.6408196961432E+00
 0.2926996304601E+00 -0.1984711729499E+01 -0.3384024248504E+00 -0.5681220253544E+00
 0.5596987421419E+00 -0.1989201929368E+01 -0.2859006417055E+00 -0.4878225307886E+00
 0.8678487275500E+00 -0.2010159233202E+01 -0.2284621045348E+00 -0.4032165936685E+00
 0.1215190817067E+01 -0.2047825875504E+01 -0.1665270141690E+00 -0.3186139448657E+00
 0.1597486726564E+01 -0.2101190934405E+01 -0.1007408430693E+00 -0.2391000812156E+00
 0.2007942465535E+01 -0.2167757381603E+01 -0.3196298368982E-01 -0.1700847631816E+00
 0.2437174644872E+01 -0.2243470794593E+01  0.3874077063309E-01 -0.1166609418010E+00
 0.2873531136976E+01 -0.2322892505186E+01  0.1101277279991E+00 -0.8285606744659E-01
 0.3303798181251E+01 -0.2399656546943E+01  0.1808283295561E+00 -0.7092592372588E-01
 0.3714260971036E+01 -0.2467178681678E+01  0.2494164615882E+00 -0.8088130758070E-01
 0.4091879390329E+01 -0.2519459654458E+01  0.3144839518603E+00 -0.1104123695473E+00
-0.5794353582224E+00 -0.2455174062158E+01 -0.6069218931199E+00 -0.1664071011513E+00
-0.5208426553568E+00 -0.2482430794501E+01 -0.6006546989220E+00 -0.2073749415821E+00
-0.4681857926451E+00 -0.2508214187617E+01 -0.5952800049227E+00 -0.2495600177310E+00
-0.4219585422417E+00 -0.2532163290079E+01 -0.5908243752681E+00 -0.2918987073438E+00
-0.3825232908947E+00 -0.2553973254800E+01 -0.5872993178904E+00 -0.3335934119527E+00
-0.3501101171934E+00 -0.2573389962237E+01 -0.5847000245988E+00 -0.3740991494000E+00
-0.3248228439286E+00 -0.2590198691787E+01 -0.5830043158306E+00 -0.4131091167179E+00
-0.3066541247041E+00 -0.2604206038188E+01 -0.5821720412535E+00 -0.4505307803627E+00
-0.2955045348645E+00 -0.2615219207931E+01 -0.5821447572336E+00 -0.4864488959326E+00
-0.2911990499838E+00 -0.2623027545475E+01 -0.5828453277769E+00 -0.5210769064667E+00
-0.2934957044180E+00 -0.2627389664290E+01 -0.5841770824465E+00 -0.5547011903116E+00
-0.3020834945104E+00 -0.2628027741741E+01 -0.5860222559827E+00 -0.5876227781256E+00
-0.3165684296314E+00 -0.2624629557276E+01 -0.5882396061470E+00 -0.6201007434035E+00
-0.3364475550859E+00 -0.2616858510996E+01 -0.5906612220179E+00 -0.6522998823661E+00
-0.3610703312692E+00 -0.2604372549925E+01 -0.5930885850765E+00 -0.6842437434171E+00
-0.3895917281193E+00 -0.2586850869488E+01 -0.5952885283920E+00 -0.7157792983195E+00
-0.4209177800184E+00 -0.2564028361078E+01 -0.5969892371151E+00 -0.7465527061960E+00
-0.4536487692535E+00 -0.2535736192375E+01 -0.5978770012348E+00 -0.7759977786023E+00
-0.4860302530919E+00 -0.2501942934820E+01 -0.5975946464873E+00 -0.8033422517047E+00
-0.5159128602033E+00 -0.2462788917877E+01 -0.5957403644932E+00 -0.8276338329973E+00
-0.5407210822734E+00 -0.2418614798435E+01 -0.5918671849611E+00 -0.8478120723567E+00
-0.5574780856598E+00 -0.2370047835024E+01 -0.5855051928614E+00 -0.8627561335564E+00
-0.5628893172282E+00 -0.2318061541226E+01 -0.5761901802768E+00 -0.8712637698713E+00
-0.5534075686328E+00 -0.2263947613245E+01 -0.5634710447719E+00 -0.8720484329190E+00
-0.5252800682255E+00 -0.2209270121507E+01 -0.5469100460961E+00 -0.8637847327521E+00
-0.4745988664962E+00 -0.2155838523298E+01 -0.5260874857981E+00 -0.8451900897932E+00
-0.3973705559307E+00 -0.2105693543875E+01 -0.5006128274208E+00 -0.8151387317993E+00
-0.2896197064273E+00 -0.2061085901370E+01 -0.4701411285651E+00 -0.7728099072995E+00
-0.1475440327034E+00 -0.2024428040593E+01 -0.4343944211323E+00 -0.7178708419895E+00
 0.3225929248575E-01 -0.1998199041399E+01 -0.3931879556417E+00 -0.6506864333881E+00
 0.2525204731597E+00 -0.1984781895226E+01 -0.3464522895758E+00 -0.5725239481152E+00
 0.5150404116543E+00 -0.1986239918728E+01 -0.2942399057993E+00 -0.4857160505020E+00
 0.8203075677147E+00 -0.2004053051494E+01 -0.2367491002837E+00 -0.3937803656422E+00
 0.1166944552129E+01 -0.2038786881923E+01 -0.1743684685571E+00 -0.3014242385554E+00
 0.1551194009918E+01 -0.2089724020528E+01 -0.1077060037270E+00 -0.2143193597728E+00
 0.1966523245632E+01 -0.2154550694934E+01 -0.3760549042080E-01 -0.1386243922335E+00
 0.2403475583539E+01 -0.2229204408540E+01  0.3485423551925E-01 -0.8026659656212E-01
 0.2849917115767E+01 -0.2307991446660E+01  0.1083851354365E+00 -0.4406292880119E-01
 0.3291754175208E+01 -0.2384044496894E+01  0.1815419383678E+00 -0.3284842353682E-01
 0.3714125852118E+01 -0.2450115418064E+01  0.2528020905780E+00 -0.4685131266232E-01
 0.4102812162548E+01 -0.2499529641769E+01  0.3206565089340E+00 -0.8356702456940E-01
-0.5645393107609E+00 -0.2397702125549E+01 -0.5924482960902E+00 -0.1558974318733E+00
-0.5052862453632E+00 -0.2425436193512E+01 -0.5861444965092E+00 -0.1973010274148E+00
-0.4524070638072E+00 -0.2451707862071E+01 -0.5808229938305E+00 -0.2400531008549E+00
-0.4062919019253E+00 -0.2476225289303E+01 -0.5765034468363E+00 -0.2830719899856E+00
-0.3672061856680E+00 -0.2498749340972E+01 -0.5731911138692E+00 -0.3255421513623E+00
-0.3352877006677E+00 -0.2519088982186E+01 -0.5708753450774E+00 -0.3669025253522E+00
-0.3105545975572E+00 -0.2537088036009E+01 -0.5695285351998E+00 -0.4068355429808E+00
-0.2929252066119E+00 -0.2552603585682E+01 -0.5691057669392E+00 -0.4452454959859E+00
-0.2822422482460E+00 -0.2565481923569E+01 -0.5695448428498E+00 -0.4822216864198E+00
-0.2782930841584E+00 -0.2575537965255E+01 -0.5707662183877E+00 -0.5179882674460E+00
-0.2808202585865E+00 -0.2582541568718E+01 -0.5726723739944E+00 -0.5528461214840E+00
-0.2895196678279E+00 -0.2586211766362E+01 -0.5751462954083E+00 -0.5871119766937E+00
-0.3040257473012E+00 -0.2586218932427E+01 -0.5780489445592E+00 -0.6210591324756E+00
-0.3238837884839E+00 -0.2582194806544E+01 -0.5812157276665E+00 -0.6548623079891E+00
-0.3485087417679E+00 -0.2573751187182E+01 -0.5844519944990E+00 -0.6885475323971E+00
-0.3771346486001E+00 -0.2560506942661E+01 -0.5875283270071E+00 -0.7219537445333E+00
-0.4087553983897E+00 -0.2542123170097E+01 -0.5901757224917E+00 -0.7547058785932E+00
-0.4420622575617E+00 -0.2518344885998E+01 -0.5920814375346E+00 -0.7862016197123E+00
-0.4753892304365E+00 -0.2489043870067E+01 -0.5928866289354E+00 -0.8156176064922E+00
-0.5066675295899E+00 -0.2454255115271E+01 -0.5921845377964E+00 -0.8419364523518E+00
-0.5333889579575E+00 -0.2414212237389E+01 -0.5895202478538E+00 -0.8640202880249E+00
-0.5526325980277E+00 -0.2369440173535E+01 -0.5844145630209E+00 -0.8806636367626E+00
-0.5611544692236E+00 -0.2320810974204E+01 -0.5763930972745E+00 -0.8905756247896E+00
-0.5554508656572E+00 -0.2269509081339E+01 -0.5649919978184E+00 -0.8923742300199E+00
-0.5317961668365E+00 -0.2216985449946E+01 -0.5497563315486E+00 -0.8846270908512E+00
-0.4862790808162E+00 -0.2164937748486E+01 -0.5302433737618E+00 -0.8659301779895E+00
-0.4148543686762E+00 -0.2115309078694E+01 -0.5060326970145E+00 -0.8350223108131E+00
-0.3134253890316E+00 -0.2070283812342E+01 -0.4767418473786E+00 -0.7909389328375E+00
-0.1779772815441E+00 -0.2032259353678E+01 -0.4420473336315E+00 -0.7332075300672E+00
-0.4783976742541E-02 -0.2003771647340E+01 -0.4017111308024E+00 -0.6620788255217E+00
 0.2093307720700E+00 -0.1987347773316E+01 -0.3556034055481E+00 -0.5787622916406E+00
 0.4667360466762E+00 -0.1985286426628E+01 -0.3037100805159E+00 -0.4856277623574E+00
 0.7685808767224E+00 -0.1999385965592E+01 -0.2461610214420E+00 -0.3863739265713E+00
 0.1114170106832E+01 -0.2030581215349E+01 -0.1832822244346E+00 -0.2860841042333E+00
 0.1500339736777E+01 -0.2078507287520E+01 -0.1156335118717E+00 -0.1910292765916E+00
 0.1920920317950E+01 -0.2141092325542E+01 -0.4403440217444E-01 -0.1081765479569E+00
 0.2366442725365E+01 -0.2214304405763E+01  0.3042766437369E-01 -0.4439554503829E-01
 0.2824277524740E+01 -0.2292191487177E+01  0.1064172090982E+00 -0.5436155899540E-02
 0.3279338223906E+01 -0.2367322240891E+01  0.1824031993210E+00  0.5142542392711E-02
 0.3715418565529E+01 -0.2431667741797E+01  0.2567501685723E+00 -0.1319560950446E-01
 0.4116917941951E+01 -0.2477760630864E+01  0.3278314671025E+00 -0.5774942798710E-01
-0.5494910094359E+00 -0.2339725513920E+01 -0.5778433132817E+00 -0.1451871098434E+00
-0.4895343864661E+00 -0.2367960204767E+01 -0.5714989267627E+00 -0.1870322212290E+00
-0.4363948219798E+00 -0.2394744806815E+01 -0.5662279341965E+00 -0.2303300793474E+00
-0.3903588777137E+00 -0.2419857430300E+01 -0.5620432699779E+00 -0.2739829533486E+00
-0.3515950903992E+00 -0.2443125862432E+01 -0.5589441988951E+00 -0.3171582515524E+00
-0.3201476706192E+00 -0.2464424409118E+01 -0.5569144242461E+00 -0.3592798317465E+00
-0.2959465091050E+00 -0.2483658487151E+01 -0.5559210075350E+00 -0.4000215103408E+00
-0.2788325429346E+00 -0.2500738866561E+01 -0.5559142901830E+00 -0.4392879912793E+00
-0.2685879032817E+00 -0.2515553795821E+01 -0.5568283481179E+00 -0.4771777754416E+00
-0.2649603939825E+00 -0.2527946183040E+01 -0.5585813237279E+00 -0.5139308833658E+00
-0.2676760480087E+00 -0.2537699215089E+01 -0.5610750609802E+00 -0.5498679710881E+00
-0.2764375712500E+00 -0.2544530653395E+01 -0.5641936533361E+00 -0.5853267347832E+00
-0.2909087100519E+00 -0.2548095116809E+01 -0.5678007738330E+00 -0.6206000595040E+00
-0.3106849911229E+00 -0.2547993910108E+01 -0.5717357887657E+00 -0.6558781650037E+00
-0.3352500987833E+00 -0.2543793143824E+01 -0.5758086571017E+00 -0.6911953839819E+00
-0.3639216751098E+00 -0.2535050714455E+01 -0.5797944865526E+00 -0.7263885331790E+00
-0.3957870723541E+00 -0.2521351943326E+01 -0.5834278118298E+00 -0.7610670440071E+00
-0.4296347610661E+00 -0.2502352316291E+01 -0.5863974242094E+00 -0.7945977557302E+00
-0.4638934442850E+00 -0.2477822125298E+01 -0.5883431226836E+00 -0.8261109701594E+00
-0.4965807198507E+00 -0.2447685205558E+01 -0.5888531938563E+00 -0.8545284241209E+00
-0.5252606311684E+00 -0.2412062103273E+01 -0.5874645556421E+00 -0.8786379230735E+00
-0.5470726700062E+00 -0.2371369638178E+01 -0.5836884703344E+00 -0.8971517398631E+00
-0.5588288321723E+00 -0.2326371553248E+01 -0.5770400856827E+00 -0.9086934215209E+00
-0.5570762282952E+00 -0.2278135617855E+01 -0.5670423776796E+00 -0.9117888513860E+00
-0.5381258028426E+00 -0.2227986897796E+01 -0.5532225483715E+00 -0.9049006400386E+00
-0.4980738519882E+00 -0.2177495051184E+01 -0.5351137886082E+00 -0.8865015472897E+00
-0.4328343817481E+00 -0.2128486349281E+01 -0.5122641538391E+00 -0.8551871309484E+00
-0.3381984393099E+00 -0.2083057724974E+01 -0.4842512400727E+00 -0.8098327369430E+00
-0.2099417199028E+00 -0.2043570636273E+01 -0.4507024779512E+00 -0.7497993402741E+00
-0.4400712621789E-01 -0.2012600652103E+01 -0.4113215617934E+00 -0.6751851910518E+00
 0.1632529549838E+00 -0.1992810019335E+01 -0.3659114183228E+00 -0.5870931340554E+00
 0.4148261354179E+00 -0.1986737517042E+01 -0.3143822810094E+00 -0.4878749779545E+00
 0.7126034402873E+00 -0.1996524494154E+01 -0.2567842145998E+00 -0.3813583925148E+00
 0.1056684521270E+01 -0.2023523108985E+01 -0.1933677204244E+00 -0.2729695273324E+00
 0.1444631860254E+01 -0.2067788302530E+01 -0.1246312903123E+00 -0.1695834760464E+00
 0.1870768779363E+01 -0.2127562428985E+01 -0.5135873068981E-01 -0.7903504120649E-01
 0.2325703331870E+01 -0.2198898313570E+01  0.2536100403790E-01 -0.9255864640357E-02
 0.2796317521873E+01 -0.2275594998473E+01  0.1041445062318E+00  0.3290226239627E-01
 0.3266415675173E+01 -0.2349596203398E+01  0.1833638970873E+00  0.4297309182302E-01
 0.3718201712967E+01 -0.2411953442271E+01  0.2612496580320E+00  0.1998939486288E-01
 0.4134441922990E+01 -0.2454261357944E+01  0.3360361180165E+00 -0.3313464116097E-01
-0.5342815272332E+00 -0.2281183244282E+01 -0.5630929626937E+00 -0.1342676436270E+00
-0.4735888174202E+00 -0.2309936757351E+01 -0.5567051232498E+00 -0.1765596856183E+00
-0.4201603317902E+00 -0.2337253892147E+01 -0.5514828530052E+00 -0.2203814205890E+00
-0.3741797649289E+00 -0.2362983299901E+01 -0.5474326211233E+00 -0.2646211093366E+00
-0.3357191378161E+00 -0.2387020902832E+01 -0.5445480162441E+00 -0.3084296019226E+00
-0.3047275543254E+00 -0.2409308906280E+01 -0.5428073002095E+00 -0.3512162248172E+00
-0.2810435125025E+00 -0.2429817733695E+01 -0.5421722573185E+00 -0.3926481497913E+00
-0.2644269814253E+00 -0.2448515243489E+01 -0.5425884530680E+00 -0.4326341582223E+00
-0.2545964726740E+00 -0.2465334504164E+01 -0.5439862034736E+00 -0.4712867828793E+00
-0.2512581824333E+00 -0.2480148722331E+01 -0.5462813890931E+00 -0.5088672107368E+00
-0.2541205836316E+00 -0.2492756427859E+01 -0.5493754104844E+00 -0.5457211976974E+00
-0.2628930440545E+00 -0.2502876084466E+01 -0.5531538339468E+00 -0.5822126909358E+00
-0.2772693690985E+00 -0.2510148530807E+01 -0.5574835882882E+00 -0.6186595726268E+00
-0.2968971131982E+00 -0.2514146398786E+01 -0.5622087107745E+00 -0.6552733127345E+00
-0.3213317527313E+00 -0.2514391247251E+01 -0.5671446084475E+00 -0.6921027066537E+00
-0.3499789649177E+00 -0.2510380071667E+01 -0.5720718158415E+00 -0.7289888467152E+00
-0.3820252104844E+00 -0.2501621103634E+01 -0.5767292714175E+00 -0.7655319544977E+00
-0.4163625218729E+00 -0.2487677496469E+01 -0.5808080123231E+00 -0.8010738774815E+00
-0.4515206969309E+00 -0.2468213854985E+01 -0.5839469190846E+00 -0.8347038793409E+00
-0.4856095846498E+00 -0.2443037470273E+01 -0.5857294197127E+00 -0.8652875681340E+00
-0.5162703486030E+00 -0.2412150164368E+01 -0.5856841113216E+00 -0.8915420515074E+00
-0.5407072897130E+00 -0.2375855196604E+01 -0.5833125059555E+00 -0.9121003655630E+00
-0.5557938736599E+00 -0.2334801485925E+01 -0.5781190805317E+00 -0.9255044405860E+00
-0.5581359127132E+00 -0.2289930852496E+01 -0.5696133615297E+00 -0.9301927152427E+00
-0.5440916442244E+00 -0.2242429430514E+01 -0.5573042232522E+00 -0.9245262622043E+00
-0.5097781516497E+00 -0.2193721728557E+01 -0.5406999840985E+00 -0.9068545439516E+00
-0.4510831705772E+00 -0.2145496137687E+01 -0.5193158693913E+00 -0.8756235951903E+00
-0.3636990234298E+00 -0.2099737975347E+01 -0.4926874070970E+00 -0.8295335253159E+00
-0.2432010233196E+00 -0.2058747251345E+01 -0.4603896617932E+00 -0.7677521367446E+00
-0.8519997473039E-01 -0.2025115793534E+01 -0.4220631599422E+00 -0.6901850726990E+00
 0.1144421113071E+00 -0.2001624913929E+01 -0.3774365661486E+00 -0.5977748602477E+00
 0.3593779963775E+00 -0.1991051152417E+01 -0.3263346360707E+00 -0.4927913011808E+00
 0.6523242667838E+00 -0.1995898857214E+01 -0.2687149220902E+00 -0.3791262683383E+00
 0.9942995120821E+00 -0.2017986467399E+01 -0.2047373941142E+00 -0.2625009832304E+00
 0.1383748786954E+01 -0.2057864469250E+01 -0.1348231384681E+00 -0.1503873896502E+00
 0.1815650430292E+01 -0.2114177167123E+01 -0.5970534825588E-01 -0.5154381776895E-01
 0.2280815314827E+01 -0.2183134767213E+01  0.1953610981378E-01  0.2490588556299E-01
 0.2765673982890E+01 -0.2258312667730E+01  0.1014722645441E+00  0.7081242263342E-01
 0.3252811333347E+01 -0.2330976869184E+01  0.1843668955801E+00  0.8057322106042E-01
 0.3722538397666E+01 -0.2391098362348E+01  0.2662880110317E+00  0.5261427225294E-01
 0.4155638940649E+01 -0.2429144261787E+01  0.3452989409177E+00 -0.9901503782082E-02
-0.5189018867770E+00 -0.2222013243721E+01 -0.5481830342681E+00 -0.1231324817188E+00
-0.4574514638171E+00 -0.2251298484898E+01 -0.5417499978157E+00 -0.1658764597014E+00
-0.4037151191851E+00 -0.2279162433832E+01 -0.5365755185990E+00 -0.2101995465331E+00
-0.3577752920804E+00 -0.2305524522533E+01 -0.5326599708599E+00 -0.2549780887070E+00
-0.3196082744148E+00 -0.2330350048723E+01 -0.5299916725251E+00 -0.2993462985436E+00
-0.2890662063871E+00 -0.2353652084317E+01 -0.5285436660166E+00 -0.3426989938825E+00
-0.2658923896795E+00 -0.2375469919120E+01 -0.5282724696318E+00 -0.3846985258902E+00
-0.2497616717610E+00 -0.2395832110667E+01 -0.5291187643701E+00 -0.4252615909161E+00
-0.2403256171585E+00 -0.2414719342113E+01 -0.5310089997669E+00 -0.4645198409781E+00
-0.2372466978195E+00 -0.2432037223678E+01 -0.5338567922546E+00 -0.5027610808277E+00
-0.2402147864502E+00 -0.2447601507588E+01 -0.5375632668179E+00 -0.5403614969758E+00
-0.2489457134221E+00 -0.2461133412528E+01 -0.5420158332668E+00 -0.5777164920383E+00
-0.2631639214507E+00 -0.2472262328730E+01 -0.5470852581883E+00 -0.6151743082642E+00
-0.2825705243937E+00 -0.2480534591022E+01 -0.5526210313179E+00 -0.6529735048485E+00
-0.3067955874347E+00 -0.2485429128172E+01 -0.5584449514428E+00 -0.6911837900969E+00
-0.3353371016463E+00 -0.2486382941165E+01 -0.5643440169716E+00 -0.7296574147042E+00
-0.3674862924869E+00 -0.2482826633084E+01 -0.5700625936088E+00 -0.7679922846330E+00
-0.4022452553285E+00 -0.2474228882275E+01 -0.5752948360932E+00 -0.8055117214048E+00
-0.4382514341342E+00 -0.2460144964838E+01 -0.5796792884324E+00 -0.8412698120719E+00
-0.4737128383012E+00 -0.2440260733072E+01 -0.5827947229590E+00 -0.8740813254943E+00
-0.5063525100665E+00 -0.2414454065065E+01 -0.5841613237310E+00 -0.9025968433507E+00
-0.5334437499325E+00 -0.2382909646295E+01 -0.5832706879369E+00 -0.9253738326166E+00
-0.5519269399813E+00 -0.2346155492907E+01 -0.5796164952147E+00 -0.9408775641788E+00
-0.5584749226572E+00 -0.2304998490245E+01 -0.5726946911143E+00 -0.9474651041395E+00
-0.5495051731382E+00 -0.2260472720630E+01 -0.5619955871280E+00 -0.9434012621027E+00
-0.5211709862225E+00 -0.2213839713120E+01 -0.5470021480194E+00 -0.9269141470828E+00
-0.4693517813789E+00 -0.2166627314511E+01 -0.5271958270338E+00 -0.8962961178472E+00
-0.3896597046580E+00 -0.2120682104499E+01 -0.5020683693127E+00 -0.8500587769571E+00
-0.2774853407663E+00 -0.2078212429371E+01 -0.4711395610480E+00 -0.7871510918674E+00
-0.1281142769182E+00 -0.2041796292060E+01 -0.4339821202625E+00 -0.7072450386727E+00
 0.6309262767798E-01 -0.2014309507480E+01 -0.3902433817755E+00 -0.6110648646142E+00
 0.3004937294635E+00 -0.1998754990340E+01 -0.3396522572364E+00 -0.5007253158914E+00
 0.5877145746704E+00 -0.1998013060285E+01 -0.2820597013259E+00 -0.3801032401582E+00
 0.9268274467804E+00 -0.2014416158815E+01 -0.2175177456483E+00 -0.2551490293336E+00
 0.1317341031630E+01 -0.2049093904833E+01 -0.1463505768215E+00 -0.1339073442665E+00
 0.1755089377344E+01 -0.2101197680268E+01 -0.6922166161629E-01 -0.2610821101703E-01
 0.2231256529777E+01 -0.2167189488057E+01  0.1281340853485E-01  0.5779312335805E-01
 0.2731897904187E+01 -0.2240464518947E+01  0.9828667851262E-01  0.1081264321283E+00
 0.3238294136076E+01 -0.2311569689927E+01  0.1853448919918E+00  0.1178761101440E+00
 0.3728496354144E+01 -0.2369226008398E+01  0.2718540732001E+00  0.8460327254273E-01
 0.4180763478273E+01 -0.2402508344957E+01  0.3556510319628E+00  0.1176735703471E-01
-0.5033430939757E+00 -0.2162152506799E+01 -0.5330991280987E+00 -0.1117771027214E+00
-0.4411244310681E+00 -0.2191976886305E+01 -0.5266202713218E+00 -0.1549775435499E+00
-0.3870709041327E+00 -0.2220396324249E+01 -0.5214934534473E+00 -0.1997789699067E+00
-0.3411665537800E+00 -0.2247400816526E+01 -0.5177134817758E+00 -0.2450478478982E+00
-0.3032932554838E+00 -0.2273026368604E+01 -0.5152639324956E+00 -0.2899008798882E+00
-0.2732038728892E+00 -0.2297360443617E+01 -0.5141128709620E+00 -0.3337177773705E+00
-0.2505418706412E+00 -0.2320515605592E+01 -0.5142115029089E+00 -0.3761578134133E+00
-0.2348921621553E+00 -0.2342584921165E+01 -0.5154954243456E+00 -0.4171497404796E+00
-0.2258357602718E+00 -0.2363599314292E+01 -0.5178870226300E+00 -0.4568497655751E+00
-0.2229892967377E+00 -0.2383498582907E+01 -0.5212975836969E+00 -0.4955779238727E+00
-0.2260230704015E+00 -0.2402117358177E+01 -0.5256280935481E+00 -0.5337461004142E+00
-0.2346591393988E+00 -0.2419181714258E+01 -0.5307681786404E+00 -0.5717861675944E+00
-0.2486529580172E+00 -0.2434312310962E+01 -0.5365930617918E+00 -0.6100819208881E+00
-0.2677603952177E+00 -0.2447032260964E+01 -0.5429585393270E+00 -0.6489048363969E+00
-0.2916885471910E+00 -0.2456780696326E+01 -0.5496938568944E+00 -0.6883522198009E+00
-0.3200317626978E+00 -0.2462936508419E+01 -0.5565936625173E+00 -0.7282948449138E+00
-0.3521916613392E+00 -0.2464853037197E+01 -0.5634089481028E+00 -0.7683358364789E+00
-0.3872870526731E+00 -0.2461903098926E+01 -0.5698380388111E+00 -0.8077871177115E+00
-0.4240697525687E+00 -0.2453529623371E+01 -0.5755198837638E+00 -0.8456740548482E+00
-0.4608518664703E+00 -0.2439292677337E+01 -0.5800289174045E+00 -0.8807664169067E+00
-0.4954428728371E+00 -0.2418941468570E+01 -0.5828768769671E+00 -0.9116529760895E+00
-0.5251889163324E+00 -0.2392537600217E+01 -0.5835453120055E+00 -0.9368199697176E+00
-0.5471025304315E+00 -0.2360482658252E+01 -0.5815170464020E+00 -0.9546620294608E+00
-0.5579321984710E+00 -0.2323440061995E+01 -0.5762744606804E+00 -0.9634624800505E+00
-0.5541676539731E+00 -0.2282278868352E+01 -0.5672893129184E+00 -0.9613971483718E+00
-0.5320159427593E+00 -0.2238079400138E+01 -0.5540190768350E+00 -0.9465771045325E+00
-0.4873695598828E+00 -0.2192185022834E+01 -0.5359109245290E+00 -0.9171395130318E+00
-0.4157841481088E+00 -0.2146273808940E+01 -0.5124115990453E+00 -0.8713968514375E+00
-0.3124883797067E+00 -0.2102427580752E+01 -0.4829831992888E+00 -0.8080556507327E+00
-0.1724587125455E+00 -0.2063173268718E+01 -0.4471264029153E+00 -0.7265134517020E+00
 0.9445520007593E-02 -0.2031446887653E+01 -0.4044002795551E+00 -0.6272150014258E+00
 0.2383194938144E+00 -0.2010454958741E+01 -0.3544270982668E+00 -0.5120380314604E+00
 0.5187776783620E+00 -0.2003456571947E+01 -0.2969357831417E+00 -0.3847491235737E+00
 0.8540894407079E+00 -0.2013341658871E+01 -0.2318504470874E+00 -0.2514398887380E+00
 0.1245034456874E+01 -0.2041909100540E+01 -0.1593749311081E+00 -0.1206807885770E+00
 0.1688548283329E+01 -0.2088941748150E+01 -0.8007869415748E-01 -0.3208097015679E-02
 0.2176413282169E+01 -0.2151274569064E+01  0.5027742695996E-02  0.8904512483358E-01
 0.2694436328867E+01 -0.2222185147873E+01  0.9445023760631E-01  0.1446340989907E+00
 0.3222546199045E+01 -0.2291468788432E+01  0.1862154848976E+00  0.1548056400087E+00
 0.3736160846224E+01 -0.2346418364589E+01  0.2779485004687E+00  0.1159097496374E+00
 0.4210036526917E+01 -0.2374397194130E+01  0.3671278720280E+00  0.3168856680849E-01
-0.4875961825819E+00 -0.2101537290986E+01 -0.5178267024298E+00 -0.1001991069017E+00
-0.4246099903919E+00 -0.2131902551657E+01 -0.5113025160289E+00 -0.1438599847399E+00
-0.3702395038955E+00 -0.2160880201662E+01 -0.5062239486548E+00 -0.1891164616770E+00
-0.3243749241650E+00 -0.2188530050235E+01 -0.5025810023691E+00 -0.2348269188948E+00
-0.2868056443309E+00 -0.2214960369846E+01 -0.5003532102912E+00 -0.2800885948920E+00
-0.2571822754196E+00 -0.2240337287592E+01 -0.4995039200455E+00 -0.3242647873572E+00
-0.2350427533624E+00 -0.2264851724632E+01 -0.4999789030491E+00 -0.3670134574761E+00
-0.2198765018718E+00 -0.2288665228927E+01 -0.5017083536358E+00 -0.4082800420755E+00
-0.2111901515608E+00 -0.2311861275170E+01 -0.5046102928655E+00 -0.4482512042430E+00
-0.2085524820069E+00 -0.2334415150598E+01 -0.5085935340995E+00 -0.4872849872218E+00
-0.2116133944161E+00 -0.2356181685285E+01 -0.5135590235928E+00 -0.5258340922901E+00
-0.2201009319910E+00 -0.2376893913485E+01 -0.5193989768348E+00 -0.5643715496655E+00
-0.2338016955029E+00 -0.2396166896374E+01 -0.5259937262133E+00 -0.6033215855291E+00
-0.2525270810382E+00 -0.2413504391399E+01 -0.5332063024329E+00 -0.6429942863711E+00
-0.2760631893374E+00 -0.2428309623798E+01 -0.5408745706868E+00 -0.6835214018336E+00
-0.3041044340762E+00 -0.2439906407703E+01 -0.5488021765336E+00 -0.7248000691509E+00
-0.3361683799913E+00 -0.2447572245830E+01 -0.5567481334606E+00 -0.7664468552663E+00
-0.3714973605106E+00 -0.2450583575032E+01 -0.5644161955189E+00 -0.8077701407779E+00
-0.4089644949940E+00 -0.2448268657414E+01 -0.5714466389969E+00 -0.8477736630621E+00
-0.4469919387230E+00 -0.2440058029623E+01 -0.5774100022732E+00 -0.8851885866592E+00
-0.4834798775505E+00 -0.2425568047810E+01 -0.5818095937417E+00 -0.9185471241239E+00
-0.5158506424527E+00 -0.2404733298387E+01 -0.5841167968720E+00 -0.9462692977978E+00
-0.5411937492200E+00 -0.2377824072252E+01 -0.5838035729938E+00 -0.9666862362564E+00
-0.5563420217735E+00 -0.2345352415878E+01 -0.5803388961780E+00 -0.9780168302225E+00
-0.5578713635852E+00 -0.2308009786120E+01 -0.5731762384821E+00 -0.9783574010756E+00
-0.5420620477224E+00 -0.2266677036051E+01 -0.5617478251253E+00 -0.9657089722660E+00
-0.5048443303109E+00 -0.2222488304519E+01 -0.5454665350941E+00 -0.9380551403009E+00
-0.4417461606926E+00 -0.2176921230892E+01 -0.5237334861212E+00 -0.8935021201446E+00
-0.3478646948602E+00 -0.2131891922149E+01 -0.4959513307922E+00 -0.8304936916412E+00
-0.2178937509232E+00 -0.2089831622252E+01 -0.4615450815127E+00 -0.7481140448568E+00
-0.4620352602144E-01 -0.2053691330274E+01 -0.4199789775172E+00 -0.6464654993925E+00
 0.1730563072268E+00 -0.2026844478392E+01 -0.3707576397579E+00 -0.5270986849838E+00
 0.4455612289493E+00 -0.2012917698062E+01 -0.3134712984937E+00 -0.3935575387191E+00
 0.7759262559171E+00 -0.2015393435097E+01 -0.2478934395299E+00 -0.2519607210358E+00
 0.1166435982009E+01 -0.2036834028534E+01 -0.1740796118988E+00 -0.1113276340946E+00
 0.1615425186772E+01 -0.2077798828917E+01 -0.9247472980692E-01  0.1658653679451E-01
 0.2115569648666E+01 -0.2135650793115E+01 -0.4016228949620E-02  0.1182211728601E+00
 0.2652612153476E+01 -0.2203637705715E+01  0.8979489089026E-01  0.1800642647606E+00
 0.3205136450796E+01 -0.2270760779256E+01  0.1868751370927E+00  0.1912531937506E+00
 0.3745589450029E+01 -0.2322685770076E+01  0.2845807402312E+00  0.1464787333700E+00
 0.4243665198369E+01 -0.2344474960947E+01  0.3798380531445E+00  0.4978839621065E-01
-0.4716522529321E+00 -0.2040103325089E+01 -0.5023511230898E+00 -0.8839828311000E-01
-0.4079105519338E+00 -0.2071005526062E+01 -0.4957832229868E+00 -0.1325229610362E+00
-0.3532326861416E+00 -0.2100537637235E+01 -0.4907540719880E+00 -0.1782112770105E+00
-0.3074219533859E+00 -0.2128828291478E+01 -0.4872500562333E+00 -0.2243147090936E+00
-0.2701778201055E+00 -0.2156059918551E+01 -0.4852475549621E+00 -0.2699077115944E+00
-0.2410447260457E+00 -0.2182482591052E+01 -0.4847054706422E+00 -0.3143350394337E+00
-0.2194480515536E+00 -0.2208371509809E+01 -0.4855639195079E+00 -0.3572553055905E+00
-0.2047753511109E+00 -0.2233960750288E+01 -0.4877472275478E+00 -0.3986360012678E+00
-0.1964549142909E+00 -0.2259388121986E+01 -0.4911686145744E+00 -0.4387007509769E+00
-0.1940059080875E+00 -0.2284665009751E+01 -0.4957341909548E+00 -0.4778515412537E+00
-0.1970572744478E+00 -0.2309667285636E+01 -0.5013449194874E+00 -0.5165867430867E+00
-0.2053428308520E+00 -0.2334136997208E+01 -0.5078959731803E+00 -0.5554247414448E+00
-0.2186801836914E+00 -0.2357687177237E+01 -0.5152734798638E+00 -0.5948345812863E+00
-0.2369365033841E+00 -0.2379806986032E+01 -0.5233487056817E+00 -0.6351703695395E+00
-0.2599782615046E+00 -0.2399868852370E+01 -0.5319694307018E+00 -0.6766052159812E+00
-0.2876031769499E+00 -0.2417145893736E+01 -0.5409498221979E+00 -0.7190709240394E+00
-0.3194501607471E+00 -0.2430842453131E+01 -0.5500585309722E+00 -0.7622064749553E+00
-0.3548920468862E+00 -0.2440139080642E+01 -0.5590062338354E+00 -0.8053253783443E+00
-0.3929304426567E+00 -0.2444247825556E+01 -0.5674356620980E+00 -0.8474175283246E+00
-0.4321035317079E+00 -0.2442466603702E+01 -0.5749140356489E+00 -0.8871824439750E+00
-0.4704061039425E+00 -0.2434275320898E+01 -0.5809362936247E+00 -0.9231015381384E+00
-0.5053393400388E+00 -0.2419478243966E+01 -0.5849635255176E+00 -0.9535342947525E+00
-0.5340739447315E+00 -0.2398210265997E+01 -0.5864568508846E+00 -0.9767566282379E+00
-0.5535356494451E+00 -0.2370824944396E+01 -0.5848721274835E+00 -0.9909340710777E+00
-0.5604011069996E+00 -0.2337824230182E+01 -0.5796450760737E+00 -0.9940952635234E+00
-0.5510449810171E+00 -0.2299871626743E+01 -0.5701833300484E+00 -0.9841411046038E+00
-0.5214629980510E+00 -0.2257867086229E+01 -0.5558660251391E+00 -0.9589068565585E+00
-0.4671891802431E+00 -0.2213054444398E+01 -0.5360487329159E+00 -0.9162896516553E+00
-0.3832273340473E+00 -0.2167141197657E+01 -0.5100737139416E+00 -0.8544548574080E+00
-0.2640265514913E+00 -0.2122411072297E+01 -0.4772875318698E+00 -0.7721381662803E+00
-0.1034954939968E+00 -0.2081773024269E+01 -0.4370537101657E+00 -0.6690370333612E+00
 0.1049724669222E+00 -0.2048714118243E+01 -0.3887483360570E+00 -0.5462784129171E+00
 0.3681722653041E+00 -0.2027198684442E+01 -0.3318052887719E+00 -0.4070536964581E+00
 0.6922127634117E+00 -0.2021322553314E+01 -0.2658219619415E+00 -0.2573641340569E+00
 0.1081142719448E+01 -0.2034505354241E+01 -0.1906725297999E+00 -0.1065624693896E+00
 0.1535052007095E+01 -0.2068249727871E+01 -0.1066395457443E+00  0.3259691823766E-01
 0.2047893373425E+01 -0.2120642127599E+01 -0.1454975105166E-01  0.1447824975930E+00
 0.2605617317351E+01 -0.2185035593903E+01  0.8411634594304E-01  0.2140682575662E+00
 0.3185457268915E+01 -0.2249554952780E+01  0.1871804660163E+00  0.2270467784707E+00
 0.3756980001230E+01 -0.2298054948076E+01  0.2917850149787E+00  0.1761198791702E+00
 0.4280692069376E+01 -0.2311107528198E+01  0.3939169141054E+00  0.6605984628445E-01
-0.4554921417669E+00 -0.1977779212778E+01 -0.4866542781606E+00 -0.7637089004352E-01
-0.3910196267918E+00 -0.2009191284643E+01 -0.4800421894402E+00 -0.1209602985989E+00
-0.3360490284204E+00 -0.2039251890033E+01 -0.4750601907696E+00 -0.1670544019294E+00
-0.2903131305149E+00 -0.2068155629209E+01 -0.4716937589735E+00 -0.2134998653280E+00
-0.2534236933803E+00 -0.2096161532926E+01 -0.4699170522635E+00 -0.2593430270043E+00
-0.2248140536777E+00 -0.2123610642119E+01 -0.4696849461583E+00 -0.3039068764929E+00
-0.2037881733840E+00 -0.2150869659659E+01 -0.4709315736261E+00 -0.3468530693030E+00
-0.1896243557135E+00 -0.2178249566177E+01 -0.4735747914349E+00 -0.3881775331820E+00
-0.1816684158111E+00 -0.2205943911027E+01 -0.4775224724832E+00 -0.4281481328300E+00
-0.1793883943190E+00 -0.2234000284963E+01 -0.4826777430488E+00 -0.4672169245560E+00
-0.1823919304721E+00 -0.2262316264277E+01 -0.4889416462357E+00 -0.5059325086746E+00
-0.1904183519753E+00 -0.2290645308203E+01 -0.4962127394298E+00 -0.5448623047758E+00
-0.2033157553226E+00 -0.2318602906892E+01 -0.5043837399588E+00 -0.5845240992120E+00
-0.2210067419523E+00 -0.2345669812104E+01 -0.5133353184605E+00 -0.6253212577746E+00
-0.2434389387081E+00 -0.2371194552901E+01 -0.5229267061140E+00 -0.6674754714632E+00
-0.2705163506530E+00 -0.2394405802338E+01 -0.5329844385402E+00 -0.7109623540488E+00
-0.3020049620175E+00 -0.2414439046403E+01 -0.5432888097797E+00 -0.7554535112877E+00
-0.3374160125608E+00 -0.2430380570026E+01 -0.5535593247661E+00 -0.8002775711999E+00
-0.3758880009627E+00 -0.2441325261446E+01 -0.5634426608777E+00 -0.8444194585805E+00
-0.4160821152077E+00 -0.2446435508091E+01 -0.5725035331908E+00 -0.8865547779750E+00
-0.4560921200393E+00 -0.2445051087534E+01 -0.5802286501606E+00 -0.9251204656109E+00
-0.4935007991532E+00 -0.2436842524469E+01 -0.5860686734576E+00 -0.9584217979251E+00
-0.5255644277552E+00 -0.2421805120160E+01 -0.5894739183669E+00 -0.9846889204072E+00
-0.5493110322382E+00 -0.2400126534571E+01 -0.5898875221519E+00 -0.1002046863865E+01
-0.5615343889507E+00 -0.2372106594835E+01 -0.5867282055001E+00 -0.1008470682470E+01
-0.5587275913751E+00 -0.2338172310815E+01 -0.5793799890714E+00 -0.1001773733270E+01
-0.5369836513310E+00 -0.2298962439288E+01 -0.5671892265755E+00 -0.9796512851118E+00
-0.4918822173990E+00 -0.2255450231975E+01 -0.5494664980625E+00 -0.9397921927935E+00
-0.4183802293201E+00 -0.2209085848571E+01 -0.5254932234087E+00 -0.8800715974815E+00
-0.3107317350260E+00 -0.2161943958814E+01 -0.4945351461372E+00 -0.7988443469620E+00
-0.1624268069463E+00 -0.2116819435722E+01 -0.4558492553264E+00 -0.6953395541036E+00
 0.3388171584805E-01 -0.2077239002615E+01 -0.4086714634430E+00 -0.5701548118395E+00
 0.2861547913137E+00 -0.2047451238079E+01 -0.3522592946021E+00 -0.4259766687389E+00
 0.6021493565905E+00 -0.2032168090816E+01 -0.2860037511069E+00 -0.2685058679671E+00
 0.9879776651133E+00 -0.2035760597854E+01 -0.2095565896708E+00 -0.1072633586944E+00
 0.1445930041067E+01 -0.2060872320223E+01 -0.1229884576640E+00  0.4405951716464E-01
 0.1971744570582E+01 -0.2106572430021E+01 -0.2696557228959E-01  0.1682147733526E+00
 0.2552001404365E+01 -0.2166518595023E+01  0.7709656301712E-01  0.2464609084636E+00
 0.3162626714795E+01 -0.2227929745534E+01  0.1869393966377E+00  0.2621086021213E+00
 0.3769893520051E+01 -0.2272305333925E+01  0.2995176416885E+00  0.2052819166627E+00
 0.4328136308405E+01 -0.2274050768010E+01  0.4108171142007E+00  0.7344314290538E-01
-0.4391253988156E+00 -0.1914504567928E+01 -0.4707260003631E+00 -0.6413135186944E-01
-0.3739470282393E+00 -0.1946390439843E+01 -0.4640675005316E+00 -0.1091803752788E+00
-0.3187079965592E+00 -0.1976945382662E+01 -0.4591306826858E+00 -0.1556553260682E+00
-0.2730766259775E+00 -0.2006424130963E+01 -0.4559001581816E+00 -0.2023927725068E+00
-0.2365830574119E+00 -0.2035165998602E+01 -0.4543498179732E+00 -0.2484034823548E+00
-0.2085419069840E+00 -0.2063612051410E+01 -0.4544307984504E+00 -0.2929843261305E+00
-0.1881248423444E+00 -0.2092228913731E+01 -0.4560707580111E+00 -0.3358032623108E+00
-0.1744925845255E+00 -0.2121408542695E+01 -0.4591802322864E+00 -0.3768924956355E+00
-0.1669045724927E+00 -0.2151400429611E+01 -0.4636610073298E+00 -0.4165723242281E+00
-0.1647768715124E+00 -0.2182287207053E+01 -0.4694128227079E+00 -0.4553510529161E+00
-0.1676959965334E+00 -0.2213988000729E+01 -0.4763368065504E+00 -0.4938314652492E+00
-0.1754066062348E+00 -0.2246269914969E+01 -0.4843353114578E+00 -0.5326327770767E+00
-0.1877863537328E+00 -0.2278755904447E+01 -0.4933084589868E+00 -0.5723245229465E+00
-0.2048120873690E+00 -0.2310925675695E+01 -0.5031475601103E+00 -0.6133639266258E+00
-0.2265123471226E+00 -0.2342112470004E+01 -0.5137249710804E+00 -0.6560283590394E+00
-0.2528995379300E+00 -0.2371508771116E+01 -0.5248816696306E+00 -0.7003469208519E+00
-0.2838720929445E+00 -0.2398187441461E+01 -0.5364119148743E+00 -0.7460351467292E+00
-0.3190878474580E+00 -0.2421143675638E+01 -0.5480463127857E+00 -0.7924480875365E+00
-0.3578311794649E+00 -0.2439355366004E+01 -0.5594373174301E+00 -0.8385757164789E+00
-0.3988935760756E+00 -0.2451847325206E+01 -0.5701481887521E+00 -0.8830783152845E+00
-0.4404717695440E+00 -0.2457816312148E+01 -0.5796576249760E+00 -0.9243552996332E+00
-0.4802318505890E+00 -0.2456796396956E+01 -0.5874056582621E+00 -0.9606647898147E+00
-0.5155189902869E+00 -0.2448639933743E+01 -0.5928317936399E+00 -0.9902020358502E+00
-0.5434724472447E+00 -0.2433362254191E+01 -0.5953669491588E+00 -0.1011066699833E+01
-0.5610199572303E+00 -0.2411049506997E+01 -0.5944139017029E+00 -0.1021197327308E+01
-0.5647985703896E+00 -0.2381874190349E+01 -0.5893345609295E+00 -0.1018336020326E+01
-0.5510331531965E+00 -0.2346187846086E+01 -0.5794442084909E+00 -0.1000051132502E+01
-0.5153933084988E+00 -0.2304656539895E+01 -0.5640099780831E+00 -0.9638302595113E+00
-0.4528438713245E+00 -0.2258422326500E+01 -0.5422532476450E+00 -0.9072542945002E+00
-0.3575073714420E+00 -0.2209282811865E+01 -0.5133580443110E+00 -0.8282733653817E+00
-0.2225195499734E+00 -0.2159833158477E+01 -0.4764705487901E+00 -0.7255911802666E+00
-0.3983708315777E-01 -0.2113542895156E+01 -0.4306760020804E+00 -0.5991687382266E+00
 0.1996834443661E+00 -0.2074860027152E+01 -0.3750353221455E+00 -0.4510174843753E+00
 0.5055836435827E+00 -0.2049083177480E+01 -0.3086999113794E+00 -0.2863125439067E+00
 0.8863576829213E+00 -0.2041611915507E+01 -0.2310508499601E+00 -0.1145115332186E+00
 0.1347019621838E+01 -0.2056447712435E+01 -0.1418856202337E+00  0.4989200591476E-01
 0.1885759781352E+01 -0.2093968577408E+01 -0.4164175983176E-01  0.1876300438534E+00
 0.2490357584038E+01 -0.2148435547132E+01  0.6838440840021E-01  0.2766668941633E+00
 0.3135780575983E+01 -0.2206245233828E+01  0.1859070712012E+00  0.2962951073214E+00
 0.3783899376091E+01 -0.2245724932944E+01  0.3076348932136E+00  0.2325283118255E+00
 0.4392170102066E+01 -0.2239683467943E+01  0.4304973332394E+00  0.7815087486601E-01
-0.4225368883114E+00 -0.1850220308033E+01 -0.4545514460423E+00 -0.5168377666794E-01
-0.3566971281672E+00 -0.1882555618296E+01 -0.4478505559661E+00 -0.9719336754946E-01
-0.3012244692506E+00 -0.1913576279733E+01 -0.4429601563973E+00 -0.1440282151543E+00
-0.2557431338683E+00 -0.1943594983507E+01 -0.4398676300296E+00 -0.1910129050612E+00
-0.2197049687295E+00 -0.1973035992411E+01 -0.4385481987631E+00 -0.2371102644236E+00
-0.1922958023447E+00 -0.2002452167020E+01 -0.4389496004138E+00 -0.2815861500874E+00
-0.1725412397289E+00 -0.2032419421416E+01 -0.4409921388004E+00 -0.3241197682299E+00
-0.1594754210539E+00 -0.2063413627406E+01 -0.4445778163168E+00 -0.3647895847031E+00
-0.1522683139025E+00 -0.2095738239395E+01 -0.4496013173590E+00 -0.4039776351406E+00
-0.1502844264792E+00 -0.2129507665539E+01 -0.4559584251980E+00 -0.4422545260622E+00
-0.1530902956147E+00 -0.2164660964325E+01 -0.4635502588954E+00 -0.4802802038089E+00
-0.1604360793309E+00 -0.2200980433600E+01 -0.4722833096237E+00 -0.5187270628772E+00
-0.1722277024397E+00 -0.2238101589529E+01 -0.4820658655771E+00 -0.5582179392796E+00
-0.1884940783476E+00 -0.2275511316952E+01 -0.4928010864031E+00 -0.5992672598901E+00
-0.2093429545216E+00 -0.2312537759957E+01 -0.5043761504115E+00 -0.6422143998687E+00
-0.2348956870857E+00 -0.2348347556289E+01 -0.5166486563736E+00 -0.6871515470378E+00
-0.2651873140130E+00 -0.2381959386772E+01 -0.5294293480461E+00 -0.7338500894105E+00
-0.3000297945415E+00 -0.2412282467613E+01 -0.5424624605143E+00 -0.7817037800610E+00
-0.3388619844917E+00 -0.2438179415446E+01 -0.5554082882638E+00 -0.8297185107144E+00
-0.3806121670559E+00 -0.2458536779382E+01 -0.5678297977488E+00 -0.8765483582529E+00
-0.4235824068576E+00 -0.2472406671240E+01 -0.5791978242502E+00 -0.9205626003549E+00
-0.4655214771796E+00 -0.2479185516039E+01 -0.5889414074195E+00 -0.9599800093036E+00
-0.5038642123138E+00 -0.2478581360185E+01 -0.5964891233882E+00 -0.9929732173616E+00
-0.5358678858380E+00 -0.2470433313989E+01 -0.6012602489248E+00 -0.1017633809150E+01
-0.5586095759952E+00 -0.2454605496267E+01 -0.6026430234326E+00 -0.1031883816481E+01
-0.5688951094104E+00 -0.2431001889281E+01 -0.5999794086787E+00 -0.1033414305712E+01
-0.5631160646121E+00 -0.2399665545525E+01 -0.5925563308571E+00 -0.1019685423364E+01
-0.5370785813425E+00 -0.2360923558552E+01 -0.5796004366156E+00 -0.9879988398883E+00
-0.4858164936585E+00 -0.2315562358078E+01 -0.5602757786960E+00 -0.9356490362055E+00
-0.4033981065115E+00 -0.2265033301905E+01 -0.5336862896359E+00 -0.8601727700582E+00
-0.2826943229584E+00 -0.2211636420610E+01 -0.4988661561473E+00 -0.7597074113321E+00
-0.1150497378968E+00 -0.2158663754551E+01 -0.4547427052657E+00 -0.6334812820340E+00
 0.1098259477615E+00 -0.2110638840038E+01 -0.4001625844181E+00 -0.4826557257633E+00
 0.4033450976415E+00 -0.2073367863179E+01 -0.3340045580845E+00 -0.3116200670462E+00
 0.7766813553593E+00 -0.2053314065656E+01 -0.2553265458640E+00 -0.1294622259637E+00
 0.1238148817633E+01 -0.2056050287946E+01 -0.1635802965001E+00  0.4876166358699E-01
 0.1789198601474E+01 -0.2083654461096E+01 -0.5889117280210E-01  0.2017477791875E+00
 0.2419668904560E+01 -0.2131430684748E+01  0.5764764482140E-01  0.3037045098356E+00
 0.3103849864662E+01 -0.2185128108576E+01  0.1837443539554E+00  0.3289100619143E+00
 0.3800414653229E+01 -0.2220259158685E+01  0.3160311036180E+00  0.2578221628200E+00
 0.4461312340095E+01 -0.2208281214643E+01  0.4506062318050E+00  0.8277693980270E-01
-0.4057191524384E+00 -0.1784866671438E+01 -0.4381171713038E+00 -0.3903831053507E-01
-0.3392718601506E+00 -0.1817618166124E+01 -0.4313780116830E+00 -0.8500863168986E-01
-0.2836076839162E+00 -0.1849066419034E+01 -0.4265348269459E+00 -0.1321859698860E+00
-0.2383333596545E+00 -0.1879576141458E+01 -0.4235819065344E+00 -0.1793763108339E+00
-0.2028261445656E+00 -0.1909665061007E+01 -0.4224982474102E+00 -0.2254782004023E+00
-0.1761282465198E+00 -0.1940013285636E+01 -0.4232283127377E+00 -0.2697208033747E+00
-0.1571021870825E+00 -0.1971316684526E+01 -0.4256837806649E+00 -0.3118022492627E+00
-0.1446459213998E+00 -0.2004136510357E+01 -0.4297564927551E+00 -0.3518600143263E+00
-0.1378380261713E+00 -0.2038825711731E+01 -0.4353327540674E+00 -0.3903484127223E+00
-0.1359933581618E+00 -0.2075525088345E+01 -0.4423036958921E+00 -0.4279061228218E+00
-0.1386606341729E+00 -0.2114190782317E+01 -0.4505702900119E+00 -0.4652520699441E+00
-0.1455959737855E+00 -0.2154621485665E+01 -0.4600434987453E+00 -0.5031117040564E+00
-0.1567318622724E+00 -0.2196470831516E+01 -0.4706405457707E+00 -0.5421611960101E+00
-0.1721460294597E+00 -0.2239242367683E+01 -0.4822776866150E+00 -0.5829742487768E+00
-0.1920222262145E+00 -0.2282271382085E+01 -0.4948587290338E+00 -0.6259578551343E+00
-0.2165898178582E+00 -0.2324711634819E+01 -0.5082602981091E+00 -0.6712770432597E+00
-0.2460237088173E+00 -0.2365538767357E+01 -0.5223125030180E+00 -0.7187720400984E+00
-0.2802975789045E+00 -0.2403583324904E+01 -0.5367761887603E+00 -0.7678891290940E+00
-0.3190140570824E+00 -0.2437595797111E+01 -0.5513219790541E+00 -0.8176623328775E+00
-0.3612450982191E+00 -0.2466324637061E+01 -0.5655139554827E+00 -0.8667494071102E+00
-0.4053997953175E+00 -0.2488676242750E+01 -0.5788152162385E+00 -0.9134972215776E+00
-0.4493073411507E+00 -0.2503908741017E+01 -0.5906432252349E+00 -0.9560934790889E+00
-0.4904911677479E+00 -0.2511585337146E+01 -0.6004153099257E+00 -0.9927016337568E+00
-0.5263320915535E+00 -0.2511366220016E+01 -0.6075396713669E+00 -0.1021424363975E+01
-0.5540714627014E+00 -0.2502886840224E+01 -0.6113916696955E+00 -0.1040189579499E+01
-0.5707088341159E+00 -0.2485771183922E+01 -0.6112960127167E+00 -0.1046660562429E+01
-0.5728379423716E+00 -0.2459736030804E+01 -0.6065148036729E+00 -0.1038212308939E+01
-0.5564496850276E+00 -0.2424741816673E+01 -0.5962383092247E+00 -0.1011982742627E+01
-0.5167125797601E+00 -0.2381175201092E+01 -0.5795775648069E+00 -0.9649983929789E+00
-0.4477290442010E+00 -0.2330071954438E+01 -0.5555602080063E+00 -0.8943889337640E+00
-0.3422169969809E+00 -0.2273333237958E+01 -0.5231100547826E+00 -0.7977021672121E+00
-0.1910314089109E+00 -0.2213930714709E+01 -0.4809924318913E+00 -0.6733524554385E+00
 0.1717507017710E-01 -0.2156297620971E+01 -0.4278245165339E+00 -0.5214758276773E+00
 0.2957137618263E+00 -0.2106609899330E+01 -0.3621792328977E+00 -0.3453821334263E+00
 0.6587078763766E+00 -0.2072372480378E+01 -0.2827329250134E+00 -0.1533998851223E+00
 0.1118401769849E+01 -0.2060927082164E+01 -0.1885050652719E+00  0.3922109869240E-01
 0.1680518080868E+01 -0.2076513255078E+01 -0.7919903602221E-01  0.2092496819255E+00
 0.2338075323336E+01 -0.2116084637164E+01  0.4439813789591E-01  0.3267041817968E+00
 0.3065611948690E+01 -0.2165187124765E+01  0.1800849674686E+00  0.3596399419708E+00
 0.3817912403892E+01 -0.2196979395465E+01  0.3241866065163E+00  0.2823250565989E+00
 0.4537454071224E+01 -0.2178173116760E+01  0.4718561979240E+00  0.8564078629642E-01
-0.3886654100947E+00 -0.1718387032579E+01 -0.4214104948142E+00 -0.2620832489345E-01
-0.3216724752454E+00 -0.1751512501825E+01 -0.4146370015927E+00 -0.7263892236461E-01
-0.2658648705968E+00 -0.1783338021065E+01 -0.4098405844394E+00 -0.1201464785063E+00
-0.2208673864260E+00 -0.1814272888268E+01 -0.4070280610040E+00 -0.1675054747827E+00
-0.1859850580230E+00 -0.1844941437470E+01 -0.4061853051512E+00 -0.2135277433425E+00
-0.1600952259138E+00 -0.1876171752070E+01 -0.4072534016653E+00 -0.2574003766050E+00
-0.1418763006948E+00 -0.1908791275284E+01 -0.4101335213072E+00 -0.2988522409009E+00
-0.1300803837747E+00 -0.1943445577222E+01 -0.4147051983790E+00 -0.3380961690496E+00
-0.1236946440818E+00 -0.1980529231555E+01 -0.4208447813985E+00 -0.3756705337442E+00
-0.1219881784916E+00 -0.2020201477606E+01 -0.4284379376037E+00 -0.4122872234947E+00
-0.1244952795641E+00 -0.2062431310782E+01 -0.4373853245867E+00 -0.4487244201432E+00
-0.1309788557796E+00 -0.2107034620211E+01 -0.4476027018679E+00 -0.4857586825940E+00
-0.1413957960361E+00 -0.2153689133765E+01 -0.4590169928001E+00 -0.5241177224418E+00
-0.1558682044280E+00 -0.2201925825037E+01 -0.4715588129197E+00 -0.5644349740964E+00
-0.1746508517070E+00 -0.2251101594299E+01 -0.4851504964305E+00 -0.6071895981132E+00
-0.1980782638274E+00 -0.2300373333436E+01 -0.4996903268986E+00 -0.6526291402827E+00
-0.2264671970249E+00 -0.2348688081439E+01 -0.5150310633673E+00 -0.7006767537102E+00
-0.2599605950887E+00 -0.2394807773576E+01 -0.5309536816448E+00 -0.7508469344777E+00
-0.2983350429826E+00 -0.2437375666615E+01 -0.5471421500726E+00 -0.8022157436815E+00
-0.3408136728762E+00 -0.2475003188490E+01 -0.5631633806650E+00 -0.8534554295175E+00
-0.3859136426992E+00 -0.2506450366419E+01 -0.5784728104436E+00 -0.9028985028285E+00
-0.4315403962378E+00 -0.2530836686708E+01 -0.5924754254176E+00 -0.9487102722785E+00
-0.4753027221710E+00 -0.2547580574748E+01 -0.6045766683927E+00 -0.9890595667626E+00
-0.5147089998637E+00 -0.2556161646323E+01 -0.6141741383892E+00 -0.1022081113229E+01
-0.5471791026900E+00 -0.2555981839352E+01 -0.6206321976566E+00 -0.1045733233874E+01
-0.5699309679572E+00 -0.2546376662797E+01 -0.6232615354382E+00 -0.1057677288638E+01
-0.5797956216909E+00 -0.2526723402051E+01 -0.6213038140065E+00 -0.1055230068672E+01
-0.5729969503894E+00 -0.2496594176848E+01 -0.6139182345955E+00 -0.1035394598620E+01
-0.5449060498666E+00 -0.2455938139569E+01 -0.6001688468302E+00 -0.9949592844557E+00
-0.4897562395247E+00 -0.2405310138530E+01 -0.5790132842390E+00 -0.9306705941912E+00
-0.4002453771964E+00 -0.2346105084761E+01 -0.5492701005763E+00 -0.8394870045417E+00
-0.2669026373216E+00 -0.2280811859504E+01 -0.5095429069579E+00 -0.7189522941270E+00
-0.7747967122586E-01 -0.2213563038864E+01 -0.4582085488457E+00 -0.5680148320547E+00
 0.1831793363468E+00 -0.2150693605019E+01 -0.3935028595981E+00 -0.3885885642529E+00
 0.5323529801505E+00 -0.2100642549328E+01 -0.3136579185093E+00 -0.1877651798327E+00
 0.9868756151093E+00 -0.2072666884127E+01 -0.2171582570394E+00  0.1954382744255E-01
 0.1557949312002E+01 -0.2073686511295E+01 -0.1031474413955E+00  0.2084843485670E+00
 0.2243341805816E+01 -0.2103103291712E+01  0.2804770323889E-01  0.3445204113668E+00
 0.3019022880435E+01 -0.2147038999539E+01  0.1743967787779E+00  0.3883096619559E+00
 0.3835212170498E+01 -0.2175840313130E+01  0.3318743764190E+00  0.3063437817386E+00
 0.4622122127125E+01 -0.2149066076390E+01  0.4946112175173E+00  0.8570531122999E-01
-0.3713698319791E+00 -0.1650729983947E+01 -0.4044199692115E+00 -0.1321056225852E-01
-0.3038989684375E+00 -0.1684177233607E+01 -0.3976152463338E+00 -0.6010089313267E-01
-0.2480004506491E+00 -0.1716314287160E+01 -0.3928629534158E+00 -0.1079341060585E+00
-0.2033645329918E+00 -0.1747586838919E+01 -0.3901902801964E+00 -0.1554308162157E+00
-0.1692227167052E+00 -0.1778746475709E+01 -0.3895938442883E+00 -0.2012857583529E+00
-0.1442571397218E+00 -0.1810796720729E+01 -0.3910107779166E+00 -0.2446404147767E+00
-0.1269365707063E+00 -0.1844708410345E+01 -0.3943290020862E+00 -0.2852724729763E+00
-0.1158584293166E+00 -0.1881206221262E+01 -0.3994129360674E+00 -0.3234909122928E+00
-0.1099213526983E+00 -0.1920713984545E+01 -0.4061270735003E+00 -0.3599309750186E+00
-0.1083550973003E+00 -0.1963398448514E+01 -0.4143507153371E+00 -0.3953817347299E+00
-0.1106843620958E+00 -0.2009235786653E+01 -0.4239840360675E+00 -0.4306789272086E+00
-0.1166800893304E+00 -0.2058059475947E+01 -0.4349479195367E+00 -0.4666461335032E+00
-0.1263209658949E+00 -0.2109577674211E+01 -0.4471797346846E+00 -0.5040586837910E+00
-0.1397677381373E+00 -0.2163360766787E+01 -0.4606257078487E+00 -0.5436082023126E+00
-0.1573391503710E+00 -0.2218804077693E+01 -0.4752286526943E+00 -0.5858490569649E+00
-0.1794696413371E+00 -0.2275087118527E+01 -0.4909113592880E+00 -0.6311205587532E+00
-0.2066180055574E+00 -0.2331146793341E+01 -0.5075529673427E+00 -0.6794439476723E+00
-0.2391037160597E+00 -0.2385690007551E+01 -0.5249587525446E+00 -0.7304198300632E+00
-0.2768885979452E+00 -0.2437259896991E+01 -0.5428297070759E+00 -0.7831824005927E+00
-0.3193554514211E+00 -0.2484332916604E+01 -0.5607376819607E+00 -0.8364304249277E+00
-0.3651299518970E+00 -0.2525522251154E+01 -0.5781304492251E+00 -0.8884904397651E+00
-0.4121874483529E+00 -0.2559808330935E+01 -0.5943991647148E+00 -0.9375143698613E+00
-0.4582163227196E+00 -0.2586465042050E+01 -0.6089362820278E+00 -0.9816920354745E+00
-0.5008548218739E+00 -0.2604790509111E+01 -0.6211290754525E+00 -0.1019212801215E+01
-0.5377147702992E+00 -0.2613950066366E+01 -0.6303329767258E+00 -0.1048091698422E+01
-0.5662564991896E+00 -0.2612985666710E+01 -0.6358484426549E+00 -0.1066016009199E+01
-0.5835822240683E+00 -0.2600927477685E+01 -0.6369019498411E+00 -0.1070274374233E+01
-0.5861952148019E+00 -0.2576945657869E+01 -0.6326281839610E+00 -0.1057769775726E+01
-0.5697362397836E+00 -0.2540523907161E+01 -0.6220520386582E+00 -0.1025093784965E+01
-0.5286708734134E+00 -0.2491679960782E+01 -0.6040701758404E+00 -0.9686531460734E+00
-0.4558274914346E+00 -0.2431198138833E+01 -0.5774051346575E+00 -0.8848463616963E+00
-0.3416150108585E+00 -0.2360909150804E+01 -0.5405048403866E+00 -0.7703259247531E+00
-0.1731165281547E+00 -0.2284391583502E+01 -0.4915016296553E+00 -0.6227207424223E+00
 0.6650276060031E-01 -0.2207843715099E+01 -0.4282681972814E+00 -0.4422291096117E+00
 0.3977700598165E+00 -0.2140410567169E+01 -0.3485281066640E+00 -0.2341469977944E+00
 0.8427433181363E+00 -0.2093308099413E+01 -0.2501129599823E+00 -0.1231802992833E-01
 0.1419517639888E+01 -0.2076668786906E+01 -0.1314302313621E+00  0.1973599620902E+00
 0.2132670250982E+01 -0.2093378873413E+01  0.7858275630833E-02  0.3556516735458E+00
 0.2961363635270E+01 -0.2131088364877E+01  0.1660550565530E+00  0.4144531356715E+00
 0.3851040667533E+01 -0.2156909566434E+01  0.3388262252688E+00  0.3298943570616E+00
 0.4716915056076E+01 -0.2121005909143E+01  0.5191818371229E+00  0.8224460903276E-01
-0.3538278058317E+00 -0.1581852066441E+01 -0.3871359802234E+00 -0.6545890523758E-04
-0.2859491917947E+00 -0.1615557122113E+01 -0.3803012684484E+00 -0.4741591751595E-01
-0.2300148978058E+00 -0.1647919725382E+01 -0.3755869302343E+00 -0.9558179380689E-01
-0.1858434450548E+00 -0.1679414324528E+01 -0.3730515594755E+00 -0.1431927799676E+00
-0.1525838797257E+00 -0.1710952327090E+01 -0.3727072469170E+00 -0.1887863176311E+00
-0.1286800853154E+00 -0.1743748548058E+01 -0.3744857322550E+00 -0.2314594139044E+00
-0.1123610355409E+00 -0.1778927513517E+01 -0.3782577154481E+00 -0.2710658165817E+00
-0.1020630141802E+00 -0.1817281323435E+01 -0.3838688732431E+00 -0.3080366355130E+00
-0.9660315408684E-01 -0.1859244950136E+01 -0.3911696266735E+00 -0.3431172393648E+00
-0.9518135658541E-01 -0.1904978468458E+01 -0.4000319709697E+00 -0.3771759392825E+00
-0.9731911543526E-01 -0.1954458185851E+01 -0.4103554663720E+00 -0.4111018489751E+00
-0.1027970880542E+00 -0.2007535182936E+01 -0.4220664604874E+00 -0.4457590589973E+00
-0.1116127262972E+00 -0.2063954637263E+01 -0.4351134791958E+00 -0.4819642021677E+00
-0.1239583574490E+00 -0.2123339395294E+01 -0.4494595572461E+00 -0.5204631561646E+00
-0.1402073347684E+00 -0.2185142361598E+01 -0.4650699462034E+00 -0.5618864678670E+00
-0.1608857948233E+00 -0.2248589054815E+01 -0.4818949771085E+00 -0.6066734999980E+00
-0.1865922518772E+00 -0.2312629639137E+01 -0.4998443856511E+00 -0.6549596552428E+00
-0.2178293045895E+00 -0.2375934142941E+01 -0.5187526972360E+00 -0.7064521641504E+00
-0.2547566161033E+00 -0.2436955630645E+01 -0.5383424573715E+00 -0.7603623159572E+00
-0.2969266152724E+00 -0.2494038774707E+01 -0.5581930863135E+00 -0.8154290895302E+00
-0.3430735336409E+00 -0.2545649311288E+01 -0.5777445775948E+00 -0.8699818752360E+00
-0.3912338365456E+00 -0.2590627523782E+01 -0.5963722809521E+00 -0.9221685371806E+00
-0.4391668772143E+00 -0.2628102495608E+01 -0.6134538837057E+00 -0.9702165238427E+00
-0.4846412263378E+00 -0.2657190127329E+01 -0.6283662800968E+00 -0.1012393842393E+01
-0.5254732278589E+00 -0.2676817628403E+01 -0.6404581807959E+00 -0.1046799756691E+01
-0.5593887132436E+00 -0.2685732044325E+01 -0.6490241611849E+00 -0.1071176448308E+01
-0.5837928961535E+00 -0.2682615352077E+01 -0.6532816593808E+00 -0.1082816466020E+01
-0.5955110289497E+00 -0.2666232029779E+01 -0.6523486214666E+00 -0.1078562407523E+01
-0.5905162912846E+00 -0.2635585701496E+01 -0.6452204081707E+00 -0.1054861000411E+01
-0.5636071952217E+00 -0.2590115866769E+01 -0.6307446217970E+00 -0.1007843296042E+01
-0.5079049182255E+00 -0.2529903724877E+01 -0.6075617376739E+00 -0.9334110698223E+00
-0.4139417765215E+00 -0.2455944186302E+01 -0.5739772011176E+00 -0.8273525374178E+00
-0.2684472605264E+00 -0.2370973644665E+01 -0.5278841889044E+00 -0.6858978635363E+00
-0.5321253407557E-01 -0.2280666641112E+01 -0.4667758419930E+00 -0.5072372913509E+00
 0.2554555080615E+00 -0.2194488670628E+01 -0.3878066382921E+00 -0.2942532289042E+00
 0.6853622541683E+00 -0.2125480225909E+01 -0.2880235986401E+00 -0.5877326044712E-01
 0.1263066433001E+01 -0.2087462195811E+01 -0.1648791550189E+00  0.1732270036005E+00
 0.2002620526629E+01 -0.2088044296317E+01 -0.1708475419210E-01  0.3580190377564E+00
 0.2889105461010E+01 -0.2117764208442E+01  0.1542682528125E+00  0.4371922823618E+00
 0.3863766522899E+01 -0.2140425951509E+01  0.3446681194141E+00  0.3529090146453E+00
 0.4823579717768E+01 -0.2094277426954E+01  0.5458604662967E+00  0.7465660928052E-01
-0.3360362299357E+00 -0.1511721714801E+01 -0.3695515944541E+00  0.1320240273640E-01
-0.2678174427484E+00 -0.1545605887626E+01 -0.3626846714792E+00 -0.3461144632436E-01
-0.2119032177926E+00 -0.1578080196563E+01 -0.3579966882057E+00 -0.8313420729166E-01
-0.1683225851501E+00 -0.1609643648395E+01 -0.3555932520077E+00 -0.1308446428364E+00
-0.1361189659711E+00 -0.1641418596294E+01 -0.3555075177504E+00 -0.1760713989068E+00
-0.1134375671581E+00 -0.1674876776997E+01 -0.3576628741607E+00 -0.2178777838176E+00
-0.9823352120414E-01 -0.1711301862897E+01 -0.3619070822131E+00 -0.2562337380225E+00
-0.8878031384710E-01 -0.1751531987994E+01 -0.3680624658528E+00 -0.2917240134692E+00
-0.8382626078430E-01 -0.1795988146319E+01 -0.3759628870229E+00 -0.3252166387775E+00
-0.8255439491621E-01 -0.1844806313349E+01 -0.3854721473969E+00 -0.3576582727007E+00
-0.8449094314099E-01 -0.1897954794735E+01 -0.3964891534833E+00 -0.3899842503490E+00
-0.8942836571203E-01 -0.1955302018025E+01 -0.4089460828411E+00 -0.4230900201916E+00
-0.9737947534804E-01 -0.2016636875765E+01 -0.4228032765228E+00 -0.4578246140546E+00
-0.1085598413028E+00 -0.2081648486497E+01 -0.4380416720873E+00 -0.4949814432804E+00
-0.1233855633752E+00 -0.2149868656059E+01 -0.4546508506617E+00 -0.5352654632753E+00
-0.1424626728664E+00 -0.2220596531581E+01 -0.4726118479320E+00 -0.5792226385582E+00
-0.1665236430808E+00 -0.2292824921251E+01 -0.4918697201959E+00 -0.6271191394049E+00
-0.1962594766071E+00 -0.2365211151089E+01 -0.5122941331729E+00 -0.6787923476029E+00
-0.2320417485709E+00 -0.2436132312414E+01 -0.5336348201487E+00 -0.7335533912064E+00
-0.2736045868452E+00 -0.2503805944612E+01 -0.5554821145688E+00 -0.7901975605306E+00
-0.3197907070613E+00 -0.2566549162857E+01 -0.5772679825857E+00 -0.8470666414248E+00
-0.3686862189572E+00 -0.2623059418798E+01 -0.5983491364671E+00 -0.9023141388222E+00
-0.4181096688574E+00 -0.2672319146229E+01 -0.6180857722275E+00 -0.9542227606491E+00
-0.4659585421399E+00 -0.2713260602539E+01 -0.6358438384106E+00 -0.1001164253529E+01
-0.5102655118267E+00 -0.2744572582819E+01 -0.6509676286294E+00 -0.1041350122764E+01
-0.5490439845131E+00 -0.2764709877466E+01 -0.6627507822716E+00 -0.1072606477797E+01
-0.5800311593249E+00 -0.2772012595182E+01 -0.6704087608912E+00 -0.1092262437196E+01
-0.6004111595137E+00 -0.2764847419002E+01 -0.6730517257324E+00 -0.1097142912093E+01
-0.6065440457962E+00 -0.2741739968027E+01 -0.6696568127433E+00 -0.1083610698141E+01
-0.5936548009961E+00 -0.2701531791264E+01 -0.6590373282725E+00 -0.1047605153579E+01
-0.5553226675220E+00 -0.2643530861988E+01 -0.6397707154354E+00 -0.9846314966021E+00
-0.4824764553162E+00 -0.2567731875290E+01 -0.6100416752115E+00 -0.8896992261886E+00
-0.3618882728431E+00 -0.2475723014179E+01 -0.5675222658611E+00 -0.7576379614599E+00
-0.1744434804390E+00 -0.2372182324386E+01 -0.5093251685546E+00 -0.5844078348115E+00
 0.1063846587501E+00 -0.2266319394601E+01 -0.4319869536073E+00 -0.3698491956655E+00
 0.5144343469840E+00 -0.2172591589412E+01 -0.3316314534273E+00 -0.1226091703925E+00
 0.1086347221833E+01 -0.2108793027899E+01 -0.2044891642604E+00  0.1327256852941E+00
 0.1849029033189E+01 -0.2088668188414E+01 -0.4792783175919E-01  0.3487159459152E+00
 0.2797642552003E+01 -0.2107656638405E+01  0.1379971847761E+00  0.4550957725595E+00
 0.3871092387662E+01 -0.2126807781415E+01  0.3488569264478E+00  0.3752894197613E+00
 0.4944139564391E+01 -0.2069342599803E+01  0.5749594014853E+00  0.6236273529553E-01
-0.3179938063844E+00 -0.1440325158634E+01 -0.3516637982438E+00  0.2656366350888E-01
-0.2494922079047E+00 -0.1474290153280E+01 -0.3447564773742E+00 -0.2172328464711E-01
-0.1936529946974E+00 -0.1506722313078E+01 -0.3400750666225E+00 -0.7065255455030E-01
-0.1508214768520E+00 -0.1538150523522E+01 -0.3377944051083E+00 -0.1184562034584E+00
-0.1198869785347E+00 -0.1569987605072E+01 -0.3379749217576E+00 -0.1631912184737E+00
-0.9861269255783E-01 -0.1604017756480E+01 -0.3405260948818E+00 -0.2039159755780E+00
-0.8464436173184E-01 -0.1641678490402E+01 -0.3452645755716E+00 -0.2407741240085E+00
-0.7609939496723E-01 -0.1683818650333E+01 -0.3519836143050E+00 -0.2745404520722E+00
-0.7167727210953E-01 -0.1730812172725E+01 -0.3604978943388E+00 -0.3062154532653E+00
-0.7056082678490E-01 -0.1782750751033E+01 -0.3706623210870E+00 -0.3368190367582E+00
-0.7229030541062E-01 -0.1839585992813E+01 -0.3823752653426E+00 -0.3673221694570E+00
-0.7667237276897E-01 -0.1901203318192E+01 -0.3955751440868E+00 -0.3986397762694E+00
-0.8373152841023E-01 -0.1967441935637E+01 -0.4102346989225E+00 -0.4316417189558E+00
-0.9369714936424E-01 -0.2038071328754E+01 -0.4263537019769E+00 -0.4671591051759E+00
-0.1070136891273E+00 -0.2112725230740E+01 -0.4439477905889E+00 -0.5059660067738E+00
-0.1243510613145E+00 -0.2190808402645E+01 -0.4630318996917E+00 -0.5487187092376E+00
-0.1465652833765E+00 -0.2271392861832E+01 -0.4835916362479E+00 -0.5958305231582E+00
-0.1745386808030E+00 -0.2353155407165E+01 -0.5055388251268E+00 -0.6472958183696E+00
-0.2088703104908E+00 -0.2434417031028E+01 -0.5286574761814E+00 -0.7025532991280E+00
-0.2494909930027E+00 -0.2513274884591E+01 -0.5525531837524E+00 -0.7604742103880E+00
-0.2953522319325E+00 -0.2587895172066E+01 -0.5766494893924E+00 -0.8194235469089E+00
-0.3445754456110E+00 -0.2656826849633E+01 -0.6002804679937E+00 -0.8775707679681E+00
-0.3950232327806E+00 -0.2718900593945E+01 -0.6227847746254E+00 -0.9332724727913E+00
-0.4447188795980E+00 -0.2772861588945E+01 -0.6435161032977E+00 -0.9850298369295E+00
-0.4919226963566E+00 -0.2817160670755E+01 -0.6618166832842E+00 -0.1031194061919E+01
-0.5349566980684E+00 -0.2849967345522E+01 -0.6769848188060E+00 -0.1069702932834E+01
-0.5719156948607E+00 -0.2869294331088E+01 -0.6882420154453E+00 -0.1097953788387E+01
-0.6003721864853E+00 -0.2873131276864E+01 -0.6947007030216E+00 -0.1112797353639E+01
-0.6171153505712E+00 -0.2859547365967E+01 -0.6953325536689E+00 -0.1110579422537E+01
-0.6178755933926E+00 -0.2826794048647E+01 -0.6889339386738E+00 -0.1087149079482E+01
-0.5968470522659E+00 -0.2773370209252E+01 -0.6740434623476E+00 -0.1037752314564E+01
-0.5456429554987E+00 -0.2698139102068E+01 -0.6487564211806E+00 -0.9567718896314E+00
-0.4515435378131E+00 -0.2601244975105E+01 -0.6105577116816E+00 -0.8377374679109E+00
-0.2951708366209E+00 -0.2485835425668E+01 -0.5562012607458E+00 -0.6742818328259E+00
-0.4782243289424E-01 -0.2360081356628E+01 -0.4815807650805E+00 -0.4626459052523E+00
 0.3302417121194E+00 -0.2239064802221E+01 -0.3817646237091E+00 -0.2069683055977E+00
 0.8872024364606E+00 -0.2144441146862E+01 -0.2514477458272E+00  0.7162396925702E-01
 0.1666940252051E+01 -0.2097555532961E+01 -0.8612305746532E-01  0.3236852328272E+00
 0.2680893878703E+01 -0.2101658558759E+01  0.1158470657150E+00  0.4659209401935E+00
 0.3869646178414E+01 -0.2116656655044E+01  0.3505979098983E+00  0.3968733861627E+00
 0.5081043375767E+01 -0.2046847221087E+01  0.6068392399787E+00  0.4475574221213E-01
-0.2997012475132E+00 -0.1367675487564E+01 -0.3334753519846E+00  0.3998326910912E-01
-0.2309525431365E+00 -0.1401594973113E+01 -0.3265095081153E+00 -0.8799508456268E-02
-0.1752420254588E+00 -0.1433771411082E+01 -0.3218026921034E+00 -0.5822203656123E-01
-0.1333633404871E+00 -0.1464790586783E+01 -0.3196307902169E+00 -0.1061184683165E+00
-0.1039598796215E+00 -0.1496477857704E+01 -0.3200875522349E+00 -0.1502036785388E+00
-0.8430085476263E-01 -0.1530992098104E+01 -0.3230585953872E+00 -0.1895913472622E+00
-0.7169094049816E-01 -0.1569898618970E+01 -0.3283179167859E+00 -0.2246783562778E+00
-0.6411156140382E-01 -0.1614002707845E+01 -0.3356228588509E+00 -0.2564682577039E+00
-0.6024209099169E-01 -0.1663590103669E+01 -0.3447664440696E+00 -0.2860980102553E+00
-0.5928523076816E-01 -0.1718686463882E+01 -0.3555943442289E+00 -0.3146500727854E+00
-0.6080543125873E-01 -0.1779218246244E+01 -0.3680047409842E+00 -0.3431167260134E+00
-0.6462611846269E-01 -0.1845087655341E+01 -0.3819427604521E+00 -0.3724178416963E+00
-0.7077968629112E-01 -0.1916190476439E+01 -0.3973940384676E+00 -0.4034299632865E+00
-0.7949914246655E-01 -0.1992390252425E+01 -0.4143778851530E+00 -0.4370087270110E+00
-0.9124058191183E-01 -0.2073446529417E+01 -0.4329374287170E+00 -0.4739876689222E+00
-0.1067170615363E+00 -0.2158905766991E+01 -0.4531245724575E+00 -0.5151327993222E+00
-0.1268915651673E+00 -0.2247964153401E+01 -0.4749711507912E+00 -0.5610193576972E+00
-0.1528366819089E+00 -0.2339360796217E+01 -0.4984395030525E+00 -0.6118288566693E+00
-0.1853957281393E+00 -0.2431388928313E+01 -0.5233569390891E+00 -0.6671618453055E+00
-0.2247151178058E+00 -0.2522035379865E+01 -0.5493501077201E+00 -0.7259904677728E+00
-0.2698565556882E+00 -0.2609311382417E+01 -0.5758335962017E+00 -0.7867160633967E+00
-0.3189595065857E+00 -0.2691606668579E+01 -0.6021132440050E+00 -0.8475355164995E+00
-0.3699121020002E+00 -0.2767589192891E+01 -0.6275002683288E+00 -0.9068990075206E+00
-0.4208590481049E+00 -0.2835809650470E+01 -0.6513337494207E+00 -0.9634626171519E+00
-0.4702995187935E+00 -0.2894481520040E+01 -0.6729562177946E+00 -0.1015742638492E+01
-0.5168841705438E+00 -0.2941500850333E+01 -0.6916770144821E+00 -0.1061813380606E+01
-0.5590873522071E+00 -0.2974576394862E+01 -0.7067327599449E+00 -0.1099169363092E+01
-0.5948908713746E+00 -0.2991355110743E+01 -0.7172492071114E+00 -0.1124728922436E+01
-0.6215394452696E+00 -0.2989492528280E+01 -0.7222064054716E+00 -0.1134889803600E+01
-0.6353254144803E+00 -0.2966690553929E+01 -0.7204032044167E+00 -0.1125524777557E+01
-0.6311926082282E+00 -0.2920649267976E+01 -0.7103683858262E+00 -0.1091791504769E+01
-0.6017208387616E+00 -0.2849025891386E+01 -0.6901493563136E+00 -0.1027666846062E+01
-0.5352074885020E+00 -0.2750275085950E+01 -0.6570965246819E+00 -0.9256035910560E+00
-0.4128157066981E+00 -0.2625470014962E+01 -0.6076571533867E+00 -0.7769952462602E+00
-0.2047112294675E+00 -0.2480775855742E+01 -0.5370974250453E+00 -0.5741176843341E+00
 0.1339779187379E+00 -0.2330619974794E+01 -0.4393284177577E+00 -0.3152447451872E+00
 0.6638941369369E+00 -0.2199713423370E+01 -0.3071638618637E+00 -0.1532653847815E-01
 0.1450601880122E+01 -0.2118219778884E+01 -0.1335235817420E+00  0.2772805793855E+00
 0.2530757486401E+01 -0.2101189500790E+01  0.8591359840243E-01  0.4661562230870E+00
 0.3854359654939E+01 -0.2110789880442E+01  0.3487139600956E+00  0.4173145826322E+00
 0.5237358478224E+01 -0.2027681452709E+01  0.6419354146687E+00  0.2117209562386E-01
-0.2811611847400E+00 -0.1293826964799E+01 -0.3149976346017E+00  0.5341905376496E-01
-0.2121622374185E+00 -0.1327531514066E+01 -0.3079387548855E+00  0.4092613454958E-02
-0.1566357770392E+00 -0.1359146492477E+01 -0.3031564584205E+00 -0.4596342591074E-01
-0.1159802189703E+00 -0.1389387210439E+01 -0.3010734903682E+00 -0.9394919898311E-01
-0.8842894069999E-01 -0.1420675340923E+01 -0.3018208608222E+00 -0.1371719654184E+00
-0.7061274348645E-01 -0.1455602428006E+01 -0.3052430388470E+00 -0.1749131999525E+00
-0.5947776970396E-01 -0.1495799008111E+01 -0.3110553601980E+00 -0.2079275661040E+00
-0.5290922866479E-01 -0.1541948777822E+01 -0.3189716060504E+00 -0.2374826052678E+00
-0.4960453845836E-01 -0.1594201709799E+01 -0.3287612545503E+00 -0.2648457357727E+00
-0.4880874115560E-01 -0.1652496149727E+01 -0.3402609832468E+00 -0.2911444048173E+00
-0.5012086157934E-01 -0.1716726235342E+01 -0.3533694246500E+00 -0.3173741473296E+00
-0.5338357939124E-01 -0.1786811193191E+01 -0.3680389600006E+00 -0.3444428981361E+00
-0.5863346877096E-01 -0.1862709033501E+01 -0.3842685061803E+00 -0.3732174496389E+00
-0.6609679715700E-01 -0.1944389778091E+01 -0.4020973210413E+00 -0.4045614667165E+00
-0.7622284357012E-01 -0.2031762187909E+01 -0.4215970125780E+00 -0.4393531448726E+00
-0.8974211164668E-01 -0.2124553661867E+01 -0.4428591613019E+00 -0.4784613991000E+00
-0.1077000441815E+00 -0.2222138903037E+01 -0.4659677963871E+00 -0.5226343634457E+00
-0.1313520150394E+00 -0.2323376302324E+01 -0.4909456707883E+00 -0.5722735371459E+00
-0.1618027041040E+00 -0.2426572320222E+01 -0.5176750125791E+00 -0.6271839548222E+00
-0.1994380238994E+00 -0.2529619167476E+01 -0.5458114464082E+00 -0.6864715710657E+00
-0.2434334576689E+00 -0.2630366587394E+01 -0.5747600175772E+00 -0.7485914221625E+00
-0.2919264871048E+00 -0.2727026135839E+01 -0.6037905335859E+00 -0.8117815544804E+00
-0.3428092315761E+00 -0.2818082181438E+01 -0.6321782920230E+00 -0.8746066099974E+00
-0.3943430488115E+00 -0.2901876610871E+01 -0.6592439417601E+00 -0.9359014908439E+00
-0.4452776872110E+00 -0.2976385665839E+01 -0.6843326808073E+00 -0.9943686580329E+00
-0.4946114050697E+00 -0.3039249706952E+01 -0.7067722329360E+00 -0.1048238906588E+01
-0.5412161123619E+00 -0.3087906999058E+01 -0.7258246330997E+00 -0.1095128700195E+01
-0.5834948267246E+00 -0.3119709763153E+01 -0.7406409290119E+00 -0.1132061704197E+01
-0.6191558106426E+00 -0.3131963876792E+01 -0.7502239486660E+00 -0.1155553723081E+01
-0.6450798879888E+00 -0.3121897960691E+01 -0.7533955809625E+00 -0.1161620301445E+01
-0.6570585372277E+00 -0.3086480095856E+01 -0.7487077377733E+00 -0.1145526920309E+01
-0.6488890213545E+00 -0.3022168251780E+01 -0.7342114655675E+00 -0.1101128734293E+01
-0.6103977490569E+00 -0.2925581644244E+01 -0.7071958891982E+00 -0.1020156217086E+01
-0.5242086826644E+00 -0.2795247463098E+01 -0.6638912390453E+00 -0.8920919903768E+00
-0.3607989853086E+00 -0.2634260449795E+01 -0.5990118959466E+00 -0.7052271680451E+00
-0.7181128411122E-01 -0.2454583548375E+01 -0.5052789740264E+00 -0.4508414919721E+00
 0.4156613876858E+00 -0.2282102728932E+01 -0.3732882738117E+00 -0.1344586435068E+00
 0.1193629321783E+01 -0.2156150021576E+01 -0.1925041428270E+00  0.2016823767111E+00
 0.2336392771804E+01 -0.2108620541323E+01  0.4555444677497E-01  0.4502402007488E+00
 0.3817457659729E+01 -0.2110327430454E+01  0.3414260509427E+00  0.4358051469319E+00
 0.5417026595255E+01 -0.2013111674246E+01  0.6807829943462E+00 -0.9120289016026E-02
-0.2623773376637E+00 -0.1218898349524E+01 -0.2962551418520E+00  0.6681938316606E-01
-0.1930603857210E+00 -0.1252147502157E+01 -0.2890415818827E+00  0.1685401796045E-01
-0.1377854690201E+00 -0.1282748921528E+01 -0.2841068823432E+00 -0.3405107878090E-01
-0.9872247739479E-01 -0.1311711932339E+01 -0.2820868861501E+00 -0.8209853332668E-01
-0.7341360783836E-01 -0.1342322731898E+01 -0.2831472721665E+00 -0.1241586391001E+00
-0.5767722694271E-01 -0.1377632464208E+01 -0.2870619425076E+00 -0.1598753686949E+00
-0.4811569663082E-01 -0.1419214766856E+01 -0.2934660970703E+00 -0.1904881846576E+00
-0.4258419607089E-01 -0.1467527732137E+01 -0.3020223901421E+00 -0.2175494922498E+00
-0.3984465968731E-01 -0.1522536052337E+01 -0.3124761470612E+00 -0.2424362805287E+00
-0.3920746821449E-01 -0.1584072824278E+01 -0.3246560633362E+00 -0.2662959073332E+00
-0.4031586075301E-01 -0.1651995128089E+01 -0.3384622028119E+00 -0.2901057349458E+00
-0.4303393557309E-01 -0.1726240232189E+01 -0.3538548388253E+00 -0.3147430470740E+00
-0.4739903248297E-01 -0.1806833139867E+01 -0.3708464399960E+00 -0.3410467015626E+00
-0.5362085498168E-01 -0.1893860483789E+01 -0.3894962735580E+00 -0.3698688728022E+00
-0.6212272682313E-01 -0.1987401249539E+01 -0.4099048013805E+00 -0.4021119036570E+00
-0.7362229209893E-01 -0.2087404162417E+01 -0.4322052973435E+00 -0.4387323028668E+00
-0.8921316143392E-01 -0.2193486412126E+01 -0.4565399215150E+00 -0.4806547452671E+00
-0.1103160374037E+00 -0.2304701110015E+01 -0.4830034366810E+00 -0.5285343657203E+00
-0.1383124352219E+00 -0.2419428052446E+01 -0.5115481051563E+00 -0.5824336561624E+00
-0.1738577120777E+00 -0.2535490461591E+01 -0.5418696428082E+00 -0.6416372502149E+00
-0.2162483203010E+00 -0.2650567119180E+01 -0.5733630964400E+00 -0.7046787945744E+00
-0.2635975235442E+00 -0.2762659372208E+01 -0.6052513881694E+00 -0.7698556249530E+00
-0.3137779104375E+00 -0.2870030886110E+01 -0.6367617687980E+00 -0.8358691435987E+00
-0.3651639226943E+00 -0.2970789210094E+01 -0.6671906364996E+00 -0.9017531280099E+00
-0.4167687421335E+00 -0.3062672499472E+01 -0.6958882586907E+00 -0.9664094719221E+00
-0.4679556111661E+00 -0.3143091302849E+01 -0.7222093935647E+00 -0.1028238013644E+01
-0.5180077958767E+00 -0.3209258839557E+01 -0.7454533381949E+00 -0.1084996713855E+01
-0.5657529137130E+00 -0.3258293573772E+01 -0.7648093088935E+00 -0.1133846617476E+01
-0.6093514918823E+00 -0.3287234517192E+01 -0.7793172134275E+00 -0.1171479632823E+01
-0.6462632846853E+00 -0.3292948417526E+01 -0.7878423521820E+00 -0.1194168364522E+01
-0.6731739732343E+00 -0.3271801384727E+01 -0.7889950833492E+00 -0.1197493837296E+01
-0.6852895795340E+00 -0.3219163152341E+01 -0.7808905580112E+00 -0.1175521459020E+01
-0.6744269008387E+00 -0.3129826394509E+01 -0.7608506704071E+00 -0.1119736746785E+01
-0.6256176943138E+00 -0.2999484492378E+01 -0.7250204481420E+00 -0.1018311999401E+01
-0.5114184471353E+00 -0.2827175101738E+01 -0.6677187197244E+00 -0.8560414641423E+00
-0.2826847458335E+00 -0.2620160969852E+01 -0.5805691517883E+00 -0.6167069067621E+00
 0.1436216830682E+00 -0.2402163682720E+01 -0.4517084066614E+00 -0.2930585081343E+00
 0.8895454494285E+00 -0.2220073240832E+01 -0.2661055622459E+00  0.8617736558694E-01
 0.2083341394514E+01 -0.2128125035327E+01 -0.8956728296134E-02  0.4092516896706E+00
 0.3746751539108E+01 -0.2116898535991E+01  0.3259706054807E+00  0.4504588532765E+00
 0.5625186430528E+01 -0.2005039864763E+01  0.7240293239419E+00 -0.4693025217170E-01
-0.2433519470491E+00 -0.1143112290426E+01 -0.2772928516270E+00  0.8011890296226E-01
-0.1735461420697E+00 -0.1175540593331E+01 -0.2698173511008E+00  0.2933020951701E-01
-0.1186288872562E+00 -0.1204438260809E+01 -0.2646134335562E+00 -0.2274071826668E-01
-0.8167576378369E-01 -0.1231453640452E+01 -0.2626258847606E+00 -0.7075225463872E-01
-0.5907309715939E-01 -0.1261107719429E+01 -0.2640361672521E+00 -0.1112134835687E+00
-0.4564307420042E-01 -0.1296849180153E+01 -0.2684984548715E+00 -0.1444459224233E+00
-0.3771968655208E-01 -0.1339984148988E+01 -0.2755407712139E+00 -0.1723071989860E+00
-0.3322522734782E-01 -0.1390620523562E+01 -0.2847691544253E+00 -0.1966239268322E+00
-0.3103673599756E-01 -0.1448494424417E+01 -0.2959062364922E+00 -0.2188428161808E+00
-0.3055077564153E-01 -0.1513322286057E+01 -0.3087746169407E+00 -0.2400990421375E+00
-0.3146273790982E-01 -0.1584922948594E+01 -0.3232771421180E+00 -0.2613277806608E+00
-0.3365968432170E-01 -0.1663253878403E+01 -0.3393827176022E+00 -0.2833558734608E+00
-0.3717681534999E-01 -0.1748410732455E+01 -0.3571175148825E+00 -0.3069750850450E+00
-0.4219886660949E-01 -0.1840603577656E+01 -0.3765604944642E+00 -0.3330042792116E+00
-0.4910502221006E-01 -0.1940097821332E+01 -0.3978405746368E+00 -0.3623437072896E+00
-0.5856650325746E-01 -0.2047101514228E+01 -0.4211336097724E+00 -0.3960113260703E+00
-0.7167950343519E-01 -0.2161546495779E+01 -0.4466452064984E+00 -0.4350995443691E+00
-0.8999766227060E-01 -0.2282779362586E+01 -0.4745554120428E+00 -0.4805473957918E+00
-0.1151893385893E+00 -0.2409342400563E+01 -0.5049063553541E+00 -0.5327396524169E+00
-0.1482158702633E+00 -0.2539033332498E+01 -0.5374498485608E+00 -0.5912023288592E+00
-0.1885073619385E+00 -0.2669347718981E+01 -0.5715710247011E+00 -0.6545860202665E+00
-0.2341297141650E+00 -0.2798023978827E+01 -0.6064307476349E+00 -0.7212738276874E+00
-0.2829128359951E+00 -0.2923041566600E+01 -0.6411908900735E+00 -0.7901279427921E+00
-0.3333446129343E+00 -0.3042230635540E+01 -0.6751150597548E+00 -0.8603932172894E+00
-0.3847163191487E+00 -0.3153089415204E+01 -0.7075611574140E+00 -0.9311709504031E+00
-0.4367705094807E+00 -0.3252836655495E+01 -0.7379214439910E+00 -0.1001031838819E+01
-0.4892104175817E+00 -0.3338521527661E+01 -0.7655464004560E+00 -0.1067889560299E+01
-0.5412847624836E+00 -0.3407101863802E+01 -0.7896773370242E+00 -0.1129069151219E+01
-0.5915776065462E+00 -0.3455445735655E+01 -0.8094046805013E+00 -0.1181484005011E+01
-0.6380785424901E+00 -0.3480198691335E+01 -0.8236554590385E+00 -0.1221761150433E+01
-0.6783501715788E+00 -0.3477318534400E+01 -0.8311337535807E+00 -0.1245997156494E+01
-0.7091112994573E+00 -0.3441318938296E+01 -0.8300860599200E+00 -0.1248820193624E+01
-0.7245196150421E+00 -0.3365382962804E+01 -0.8179805277580E+00 -0.1222039589433E+01
-0.7128642619935E+00 -0.3242392716886E+01 -0.7910514075634E+00 -0.1153379241234E+01
-0.6506714857872E+00 -0.3066688241029E+01 -0.7434719564418E+00 -0.1025245878666E+01
-0.4917227222760E+00 -0.2838542370107E+01 -0.6660530284016E+00 -0.8145524899580E+00
-0.1478531674193E+00 -0.2574574185315E+01 -0.5444854786603E+00 -0.4988005558725E+00
 0.5330808096472E+00 -0.2324010907117E+01 -0.3581860248314E+00 -0.8357536449544E-01
 0.1752631854333E+01 -0.2167418399725E+01 -0.8295731031452E-01  0.3287489486791E+00
 0.3622695830552E+01 -0.2133151857826E+01  0.2979087989842E+00  0.4569352088216E+00
 0.5868496880937E+01 -0.2006532100416E+01  0.7723929676138E+00 -0.9319794524015E-01
-0.2240794120190E+00 -0.1066864792550E+01 -0.2581888447611E+00  0.9323009480480E-01
-0.1534541805458E+00 -0.1097872747440E+01 -0.2502653893265E+00  0.4126545908126E-01
-0.9909909255152E-01 -0.1123981540297E+01 -0.2446161302148E+00 -0.1241121472688E-01
-0.6499027041260E-01 -0.1148171871152E+01 -0.2426324319285E+00 -0.6012654805310E-01
-0.4561980173887E-01 -0.1176654435236E+01 -0.2444548510376E+00 -0.9835112794795E-01
-0.3467759035022E-01 -0.1213010599946E+01 -0.2495376417777E+00 -0.1285543489797E+00
-0.2840464807757E-01 -0.1257955464327E+01 -0.2572720263146E+00 -0.1533079553561E+00
-0.2491497279378E-01 -0.1311122648966E+01 -0.2672075283337E+00 -0.1746485972442E+00
-0.2324703663577E-01 -0.1371993547039E+01 -0.2790481208930E+00 -0.1940335867388E+00
-0.2289945009537E-01 -0.1440165626151E+01 -0.2926130196095E+00 -0.2125487011595E+00
-0.2362512339810E-01 -0.1515422918442E+01 -0.3078096129548E+00 -0.2310614221592E+00
-0.2533468846702E-01 -0.1597746696584E+01 -0.3246162818474E+00 -0.2503282733970E+00
-0.2805897958472E-01 -0.1687305660435E+01 -0.3430729331161E+00 -0.2710747641986E+00
-0.3195164133263E-01 -0.1784435995195E+01 -0.3632775327188E+00 -0.2940634777075E+00
-0.3733265376952E-01 -0.1889598275434E+01 -0.3853861915835E+00 -0.3201615041900E+00
-0.4479288747454E-01 -0.2003290068007E+01 -0.4096165972002E+00 -0.3504095205315E+00
-0.5537397843723E-01 -0.2125833503262E+01 -0.4362415028404E+00 -0.3860394687031E+00
-0.7070871980066E-01 -0.2256995021109E+01 -0.4655407551191E+00 -0.4282929575799E+00
-0.9274988503170E-01 -0.2395612537159E+01 -0.4976724918541E+00 -0.4779534103001E+00
-0.1228070292511E+00 -0.2539534278300E+01 -0.5324682694447E+00 -0.5348771874186E+00
-0.1604642939016E+00 -0.2686059534997E+01 -0.5693047742630E+00 -0.5978939208789E+00
-0.2037188109187E+00 -0.2832578115051E+01 -0.6072593942428E+00 -0.6655146175179E+00
-0.2503397527057E+00 -0.2976678893227E+01 -0.6454037388039E+00 -0.7367882707350E+00
-0.2989372498865E+00 -0.3115844887658E+01 -0.6829564376858E+00 -0.8111681451492E+00
-0.3490975409626E+00 -0.3247332696694E+01 -0.7192860582496E+00 -0.8879330419074E+00
-0.4009505069490E+00 -0.3368226389468E+01 -0.7538353905164E+00 -0.9658109985815E+00
-0.4546202497379E+00 -0.3475494150179E+01 -0.7860228916961E+00 -0.1042881439803E+01
-0.5097687966294E+00 -0.3566018220962E+01 -0.8151574156650E+00 -0.1116658077363E+01
-0.5653633772299E+00 -0.3636595214988E+01 -0.8403917309664E+00 -0.1184306286972E+01
-0.6198357575606E+00 -0.3683805686680E+01 -0.8607283016741E+00 -0.1242874322537E+01
-0.6715361928194E+00 -0.3703447488428E+01 -0.8749967492879E+00 -0.1289141749070E+01
-0.7186901073407E+00 -0.3689537989747E+01 -0.8816456325551E+00 -0.1318633154752E+01
-0.7579758126882E+00 -0.3634118992216E+01 -0.8784189740702E+00 -0.1324084811853E+01
-0.7815512797921E+00 -0.3527715115317E+01 -0.8618532918644E+00 -0.1293830448613E+01
-0.7715966629536E+00 -0.3359989192171E+01 -0.8263171833380E+00 -0.1209609653682E+01
-0.6890813468396E+00 -0.3122608190557E+01 -0.7623379188390E+00 -0.1043678770610E+01
-0.4492147781564E+00 -0.2819167289295E+01 -0.6536764232307E+00 -0.7583459698439E+00
 0.1229174981252E+00 -0.2490508832302E+01 -0.4735182738914E+00 -0.3258739723554E+00
 0.1320404423770E+01 -0.2241352529360E+01 -0.1841896238626E+00  0.1853257258824E+00
 0.3413269221920E+01 -0.2164098054245E+01  0.2498342372578E+00  0.4453586221697E+00
 0.6155154956652E+01 -0.2022966055492E+01  0.8264377925468E+00 -0.1493100630965E+00
-0.2045318997583E+00 -0.9908543596922E+00 -0.2390772554526E+00  0.1060246649051E+00
-0.1325157942033E+00 -0.1019376102380E+01 -0.2303783827497E+00  0.5221087731922E-01
-0.7915318069845E-01 -0.1040947383451E+01 -0.2240201161681E+00 -0.3623389055915E-02
-0.4892907305572E-01 -0.1061232002880E+01 -0.2220322184956E+00 -0.5043993671047E-01
-0.3333052876686E-01 -0.1088527966927E+01 -0.2243717024821E+00 -0.8551402381903E-01
-0.2495915958081E-01 -0.1125881726543E+01 -0.2301681806544E+00 -0.1120787267104E+00
-0.2027922423321E-01 -0.1172995446906E+01 -0.2386549377840E+00 -0.1333876529991E+00
-0.1772643739542E-01 -0.1228949165714E+01 -0.2493351243373E+00 -0.1515531587767E+00
-0.1653135132839E-01 -0.1292968968495E+01 -0.2619000678672E+00 -0.1679718491105E+00
-0.1630383610009E-01 -0.1364541706861E+01 -0.2761691127075E+00 -0.1836402173364E+00
-0.1685627397645E-01 -0.1443425720182E+01 -0.2920564031838E+00 -0.1993324603079E+00
-0.1812224681569E-01 -0.1529631273503E+01 -0.3095507086764E+00 -0.2157160513061E+00
-0.2012679524397E-01 -0.1623401156777E+01 -0.3287055953023E+00 -0.2334321482539E+00
-0.2298926110445E-01 -0.1725195765199E+01 -0.3496370104707E+00 -0.2531644233758E+00
-0.2696084653137E-01 -0.1835669924332E+01 -0.3725261597237E+00 -0.2757130389010E+00
-0.3252269625733E-01 -0.1955625961549E+01 -0.3976297374864E+00 -0.3020901985545E+00
-0.4059585689461E-01 -0.2085845047792E+01 -0.4252881872747E+00 -0.3336116287310E+00
-0.5280969615006E-01 -0.2226668010499E+01 -0.4558955481232E+00 -0.3718138603370E+00
-0.7137449393509E-01 -0.2377427207061E+01 -0.4897603474972E+00 -0.4179615741245E+00
-0.9799158271659E-01 -0.2536157204140E+01 -0.5268297652217E+00 -0.4723682179084E+00
-0.1324292719212E+00 -0.2699953652805E+01 -0.5664765933864E+00 -0.5341467454310E+00
-0.1726014873751E+00 -0.2865718497452E+01 -0.6076640060203E+00 -0.6020074640218E+00
-0.2162128248105E+00 -0.3030473427038E+01 -0.6493372600455E+00 -0.6752137894240E+00
-0.2620201003289E+00 -0.3191245084275E+01 -0.6906530472123E+00 -0.7533974074463E+00
-0.3099232623648E+00 -0.3345050596268E+01 -0.7309947826192E+00 -0.8359576471485E+00
-0.3604350759444E+00 -0.3488926755579E+01 -0.7698723777766E+00 -0.9217447063850E+00
-0.4140881115068E+00 -0.3619876874232E+01 -0.8067930091698E+00 -0.1009012113759E+01
-0.4709483719022E+00 -0.3734807055614E+01 -0.8411510980375E+00 -0.1095493662225E+01
-0.5303256090534E+00 -0.3830531823955E+01 -0.8721714995980E+00 -0.1178625645350E+01
-0.5909755222710E+00 -0.3903713056070E+01 -0.8989377290634E+00 -0.1255900006591E+01
-0.6518726484596E+00 -0.3950269236202E+01 -0.9204283906479E+00 -0.1324883433308E+01
-0.7126200202790E+00 -0.3964201570267E+01 -0.9353643320473E+00 -0.1382261411632E+01
-0.7723739742790E+00 -0.3937153760584E+01 -0.9419055610081E+00 -0.1422250573267E+01
-0.8274017031862E+00 -0.3858274479914E+01 -0.9371352505844E+00 -0.1434931454376E+01
-0.8666535156337E+00 -0.3713497732757E+01 -0.9160302633280E+00 -0.1403528552966E+01
-0.8620520480918E+00 -0.3485906742024E+01 -0.8695917709811E+00 -0.1299469580285E+01
-0.7434731873261E+00 -0.3161288540761E+01 -0.7809523572544E+00 -0.1074526005810E+01
-0.3330219985636E+00 -0.2755281113294E+01 -0.6176606315753E+00 -0.6617814415714E+00
 0.7596330613339E+00 -0.2379336323614E+01 -0.3239406572831E+00 -0.5845121809164E-01
 0.3065176555947E+01 -0.2220820540305E+01  0.1688712056448E+00  0.3934231754251E+00
 0.6493511838829E+01 -0.2064711818522E+01  0.8857600172602E+00 -0.2184938738598E+00
-0.1846290131090E+00 -0.9163387934329E+00 -0.2201935645895E+00  0.1182875232660E+00
-0.1102994910420E+00 -0.9403139617695E+00 -0.2101226936934E+00  0.6133261550461E-01
-0.5884936171382E-01 -0.9544856436292E+00 -0.2026670040886E+00  0.2811982889168E-02
-0.3394230756570E-01 -0.9697354762961E+00 -0.2007355597636E+00 -0.4183163137457E-01
-0.2254439879676E-01 -0.9962715780476E+00 -0.2037631984052E+00 -0.7252070043836E-01
-0.1666048374594E-01 -0.1035257170926E+01 -0.2103835340693E+00 -0.9483915247287E-01
-0.1343872663417E-01 -0.1084997620708E+01 -0.2196872727420E+00 -0.1124169313341E+00
-0.1171913274647E-01 -0.1144040431192E+01 -0.2311519162321E+00 -0.1272541671099E+00
-0.1093233414352E-01 -0.1211378373340E+01 -0.2444621451395E+00 -0.1406164022270E+00
-0.1080205100142E-01 -0.1286409468033E+01 -0.2594423076729E+00 -0.1533695383320E+00
-0.1119746820119E-01 -0.1368881550430E+01 -0.2760158078392E+00 -0.1661711416291E+00
-0.1207327188417E-01 -0.1458840526408E+01 -0.2941827640421E+00 -0.1795832673969E+00
-0.1344811863019E-01 -0.1556603049824E+01 -0.3140102383699E+00 -0.1941467937006E+00
-0.1540696664792E-01 -0.1662747173997E+01 -0.3356308331303E+00 -0.2104457815707E+00
-0.1812997657788E-01 -0.1778110528643E+01 -0.3592481063975E+00 -0.2291802838154E+00
-0.2197061738910E-01 -0.1903793218511E+01 -0.3851527729193E+00 -0.2512742215648E+00
-0.2766277974339E-01 -0.2041078624961E+01 -0.4137482871063E+00 -0.2780370317081E+00
-0.3671495628903E-01 -0.2191054377991E+01 -0.4455538734953E+00 -0.3112418032696E+00
-0.5152380372130E-01 -0.2353840728054E+01 -0.4810729135237E+00 -0.3527059332222E+00
-0.7421508548297E-01 -0.2527905977493E+01 -0.5204242203501E+00 -0.4033785177807E+00
-0.1047815016364E+00 -0.2710157625138E+01 -0.5629878337441E+00 -0.4628360999958E+00
-0.1410566483957E+00 -0.2896780455231E+01 -0.6075674297788E+00 -0.5301145934059E+00
-0.1807083271173E+00 -0.3083935405793E+01 -0.6529287563114E+00 -0.6047182330130E+00
-0.2226910199677E+00 -0.3268027325811E+01 -0.6981436795588E+00 -0.6863771880288E+00
-0.2672366551992E+00 -0.3445849443209E+01 -0.7426172307476E+00 -0.7744997282966E+00
-0.3152137736481E+00 -0.3614525609254E+01 -0.7859478882919E+00 -0.8679932179268E+00
-0.3675270094945E+00 -0.3771260050779E+01 -0.8277574243892E+00 -0.9652951620102E+00
-0.4246361814886E+00 -0.3913106002237E+01 -0.8675484496725E+00 -0.1064413100734E+01
-0.4861710157959E+00 -0.4036959134784E+01 -0.9046260435959E+00 -0.1163076069820E+01
-0.5510823034906E+00 -0.4139655991337E+01 -0.9381476729451E+00 -0.1259187537305E+01
-0.6187370185721E+00 -0.4217503852154E+01 -0.9672481885583E+00 -0.1351102464298E+01
-0.6898630518031E+00 -0.4265069976467E+01 -0.9909866204209E+00 -0.1436802532653E+01
-0.7658055047478E+00 -0.4274613649965E+01 -0.1008083845964E+01 -0.1512385829918E+01
-0.8466812845575E+00 -0.4235460025309E+01 -0.1016428277119E+01 -0.1570718233734E+01
-0.9285273861207E+00 -0.4131863096717E+01 -0.1012078111649E+01 -0.1598813413217E+01
-0.9961949022713E+00 -0.3940657765130E+01 -0.9873705481933E+00 -0.1571960313129E+01
-0.1004610128267E+01 -0.3630045994636E+01 -0.9269312383930E+00 -0.1441608223402E+01
-0.8083742646226E+00 -0.3172490804945E+01 -0.7961730257775E+00 -0.1109819816076E+01
 0.4814975842445E-01 -0.2640329316685E+01 -0.5184359193774E+00 -0.4599717798732E+00
 0.2489453146420E+01 -0.2331133143530E+01  0.3166400104973E-01  0.2510692795023E+00
 0.6885846805691E+01 -0.2153832262950E+01  0.9464029226506E+00 -0.3112280338537E+00
-0.1641810781743E+00 -0.8456940136710E+00 -0.2019750213787E+00  0.1295871528807E+00
-0.8612797277679E-01 -0.8607603247820E+00 -0.1893776623337E+00  0.6699448395034E-01
-0.3853844310865E-01 -0.8628774100898E+00 -0.1802831733261E+00  0.5813967239563E-02
-0.2076300887315E-01 -0.8725188743225E+00 -0.1786563793013E+00 -0.3416872376079E-01
-0.1362168842423E-01 -0.8994996695126E+00 -0.1826242743087E+00 -0.5902018557717E-01
-0.9924121862310E-02 -0.9409771966675E+00 -0.1901802665399E+00 -0.7660569172423E-01
-0.7959966280921E-02 -0.9938921744466E+00 -0.2003704311312E+00 -0.9023915823850E-01
-0.6934242308594E-02 -0.1056368462077E+01 -0.2126605440459E+00 -0.1016565607307E+00
-0.6477006198395E-02 -0.1127204402064E+01 -0.2267362850311E+00 -0.1119227853345E+00
-0.6418384831247E-02 -0.1205750172049E+01 -0.2424337149886E+00 -0.1217335679997E+00
-0.6676556514900E-02 -0.1291761913258E+01 -0.2596876978242E+00 -0.1316120020256E+00
-0.7224693147673E-02 -0.1385329747802E+01 -0.2785108923401E+00 -0.1420013886084E+00
-0.8075111141713E-02 -0.1486842642909E+01 -0.2989835552654E+00 -0.1533298425907E+00
-0.9281383116500E-02 -0.1596985430838E+01 -0.3212533675780E+00 -0.1660644475578E+00
-0.1095781376193E-01 -0.1716757434411E+01 -0.3455430547836E+00 -0.1807760353440E+00
-0.1333075589030E-01 -0.1847523943017E+01 -0.3721709453272E+00 -0.1982409191776E+00
-0.1689754922916E-01 -0.1991061060298E+01 -0.4015917278897E+00 -0.2196392804449E+00
-0.2289518634330E-01 -0.2149356935702E+01 -0.4344504308829E+00 -0.2468362335608E+00
-0.3376123875440E-01 -0.2323738052783E+01 -0.4714998653333E+00 -0.2822174639877E+00
-0.5203821500262E-01 -0.2513565718551E+01 -0.5131207943568E+00 -0.3276097620918E+00
-0.7798789129942E-01 -0.2715640925761E+01 -0.5587257717378E+00 -0.3833737993363E+00
-0.1094047486469E+00 -0.2925042533874E+01 -0.6068894655475E+00 -0.4491020250366E+00
-0.1440125234844E+00 -0.3136578276179E+01 -0.6561181697095E+00 -0.5245538294761E+00
-0.1810560568466E+00 -0.3345791774537E+01 -0.7053695767876E+00 -0.6093862364865E+00
-0.2211095618951E+00 -0.3549303333544E+01 -0.7540825903246E+00 -0.7028230162230E+00
-0.2653324809078E+00 -0.3744528197355E+01 -0.8019721476029E+00 -0.8037254863439E+00
-0.3149236021615E+00 -0.3929107905152E+01 -0.8488063141109E+00 -0.9107282280866E+00
-0.3707184570257E+00 -0.4100413130617E+01 -0.8942263308536E+00 -0.1022210056287E+01
-0.4326889619351E+00 -0.4255448428263E+01 -0.9376274920113E+00 -0.1136253712213E+01
-0.4998802041192E+00 -0.4391192619436E+01 -0.9782145792875E+00 -0.1251088288590E+01
-0.5717751965656E+00 -0.4504515965755E+01 -0.1015258247593E+01 -0.1365703360976E+01
-0.6498429752018E+00 -0.4591203593457E+01 -0.1048209329351E+01 -0.1479296875838E+01
-0.7371133870990E+00 -0.4645424509594E+01 -0.1076507595380E+01 -0.1590019102045E+01
-0.8367050696519E+00 -0.4658687201961E+01 -0.1099078470700E+01 -0.1694207805849E+01
-0.9510326456796E+00 -0.4616854562970E+01 -0.1113577458323E+01 -0.1784783057229E+01
-0.1077898489335E+01 -0.4495124381164E+01 -0.1114604590709E+01 -0.1845370750058E+01
-0.1199589983965E+01 -0.4252311015625E+01 -0.1090380216166E+01 -0.1839374726708E+01
-0.1245053444450E+01 -0.3816034417669E+01 -0.1012217587507E+01 -0.1671444024506E+01
-0.8066426757857E+00 -0.3141227856547E+01 -0.7895741182321E+00 -0.1097910590663E+01
 0.1541648898438E+01 -0.2570953424913E+01 -0.2058609083627E+00 -0.9265329792375E-01
 0.7305947504953E+01 -0.2342747638517E+01  0.9926399880785E+00 -0.4653483549561E+00
-0.1428247104513E+00 -0.7837965184081E+00 -0.1853242485334E+00  0.1388482824299E+00
-0.5898437022393E-01 -0.7796398977365E+00 -0.1677248560914E+00  0.6581229904516E-01
-0.1933014149459E-01 -0.7627115022100E+00 -0.1564083310716E+00  0.4315251132702E-02
-0.1046197200350E-01 -0.7684867419552E+00 -0.1557897451132E+00 -0.2668066189436E-01
-0.6818192545924E-02 -0.7979987632007E+00 -0.1609633935479E+00 -0.4453426223976E-01
-0.4853719760705E-02 -0.8429209674526E+00 -0.1695549399692E+00 -0.5710908519975E-01
-0.3895918269767E-02 -0.8996677165454E+00 -0.1807127296559E+00 -0.6666778409864E-01
-0.3387913309529E-02 -0.9659387448453E+00 -0.1938653345198E+00 -0.7465932043662E-01
-0.3175631275423E-02 -0.1040458363838E+01 -0.2087268021329E+00 -0.8184399760021E-01
-0.3161502344609E-02 -0.1122568995459E+01 -0.2251461029157E+00 -0.8873111036434E-01
-0.3306908552911E-02 -0.1212061205513E+01 -0.2430736264353E+00 -0.9569365739509E-01
-0.3598134697389E-02 -0.1309078260152E+01 -0.2625352828820E+00 -0.1030483419039E+00
-0.4042317704737E-02 -0.1414079051592E+01 -0.2836242780856E+00 -0.1111019981527E+00
-0.4667417549307E-02 -0.1527840691838E+01 -0.3065016264446E+00 -0.1201922928926E+00
-0.5532769101476E-02 -0.1651494749268E+01 -0.3314055086122E+00 -0.1307378824634E+00
-0.6758598999252E-02 -0.1786618928387E+01 -0.3586755108219E+00 -0.1433206849129E+00
-0.8602491000138E-02 -0.1935396498025E+01 -0.3887998035986E+00 -0.1588586110675E+00
-0.1187142470452E-01 -0.2100761476065E+01 -0.4225265864501E+00 -0.1790410930745E+00
-0.1878435552051E-01 -0.2285788819477E+01 -0.4609146418676E+00 -0.2066777240437E+00
-0.3218547050553E-01 -0.2491605003064E+01 -0.5047581022355E+00 -0.2447670874216E+00
-0.5263169234720E-01 -0.2715163217757E+01 -0.5535589902696E+00 -0.2950443912516E+00
-0.7800257853904E-01 -0.2949741657721E+01 -0.6055488562754E+00 -0.3580939361141E+00
-0.1063001369546E+00 -0.3187957326292E+01 -0.6588515024669E+00 -0.4338966658216E+00
-0.1372116140184E+00 -0.3424172922494E+01 -0.7122769179163E+00 -0.5216959838859E+00
-0.1716358292877E+00 -0.3654967808601E+01 -0.7653207389819E+00 -0.6202216595392E+00
-0.2109007152741E+00 -0.3878353934972E+01 -0.8178509422361E+00 -0.7281442243509E+00
-0.2563572163053E+00 -0.4092734735837E+01 -0.8698184033897E+00 -0.8443091009457E+00
-0.3091642752933E+00 -0.4296058714976E+01 -0.9210446117785E+00 -0.9676253900396E+00
-0.3697300045673E+00 -0.4485458714664E+01 -0.9710377583158E+00 -0.1096703650269E+01
-0.4372044932463E+00 -0.4657780346037E+01 -0.1018996983041E+01 -0.1230000530987E+01
-0.5108996946795E+00 -0.4810361726946E+01 -0.1064252300184E+01 -0.1366741637210E+01
-0.5925448395914E+00 -0.4940923807681E+01 -0.1106693745946E+01 -0.1506933925519E+01
-0.6860293554090E+00 -0.5047124264703E+01 -0.1146630741108E+01 -0.1650608272400E+01
-0.7964829798108E+00 -0.5125053131486E+01 -0.1184307239907E+01 -0.1797930251109E+01
-0.9299978289727E+00 -0.5165938696443E+01 -0.1219187323250E+01 -0.1948539586261E+01
-0.1096916096478E+01 -0.5151496788187E+01 -0.1249682595555E+01 -0.2099075982657E+01
-0.1299245131642E+01 -0.5042677940333E+01 -0.1268384633295E+01 -0.2230947432958E+01
-0.1544568732658E+01 -0.4762162366073E+01 -0.1261346238542E+01 -0.2301423711637E+01
-0.1701583905233E+01 -0.4098756990939E+01 -0.1160068196521E+01 -0.2045662360931E+01
 0.9612788247924E-02 -0.3161273330411E+01 -0.6303321178253E+00 -0.8770500482139E+00
 0.7629425126391E+01 -0.2770141230284E+01  0.9718567937033E+00 -0.8201560070101E+00
-0.1202908106838E+00 -0.7421766558809E+00 -0.1724934958833E+00  0.1426213838340E+00
-0.2742255020319E-01 -0.6903193014832E+00 -0.1435483724763E+00  0.5049173652082E-01
-0.4292519340944E-02 -0.6483365283301E+00 -0.1305258114792E+00 -0.1095111480630E-02
-0.4108504733259E-02 -0.6578065748973E+00 -0.1323830178988E+00 -0.1768072994015E-01
-0.2087529714619E-02 -0.6914421582007E+00 -0.1387059396499E+00 -0.2871165048961E-01
-0.1587367075967E-02 -0.7411233770244E+00 -0.1485421510335E+00 -0.3596286997262E-01
-0.1232279280749E-02 -0.8023567262667E+00 -0.1607178035044E+00 -0.4152047232510E-01
-0.1079155929196E-02 -0.8728001247665E+00 -0.1747758587435E+00 -0.4615233235194E-01
-0.1016576269077E-02 -0.9511809184794E+00 -0.1904395017875E+00 -0.5033450010451E-01
-0.1024281969965E-02 -0.1036896582738E+01 -0.2075841760349E+00 -0.5436327296389E-01
-0.1086309296363E-02 -0.1129797597795E+01 -0.2261767847886E+00 -0.5845876090660E-01
-0.1199042603498E-02 -0.1230090448166E+01 -0.2462579018235E+00 -0.6280734915260E-01
-0.1365348127025E-02 -0.1338300638513E+01 -0.2679332013205E+00 -0.6759112593384E-01
-0.1595548690534E-02 -0.1455280723323E+01 -0.2913752587445E+00 -0.7301180437005E-01
-0.1910245244253E-02 -0.1582258852306E+01 -0.3168338242312E+00 -0.7932145468444E-01
-0.2353391686421E-02 -0.1720959075335E+01 -0.3446624985401E+00 -0.8687663653944E-01
-0.3013838794050E-02 -0.1873831358943E+01 -0.3753690451408E+00 -0.9624465044094E-01
-0.4187047081852E-02 -0.2044535573373E+01 -0.4097445301966E+00 -0.1085629015837E+00
-0.7467761246369E-02 -0.2238392418276E+01 -0.4491720425976E+00 -0.1265375598435E+00
-0.1562844520409E-01 -0.2459997350971E+01 -0.4951251666129E+00 -0.1545700673257E+00
-0.2945775383022E-01 -0.2707199153582E+01 -0.5473313896383E+00 -0.1969166808689E+00
-0.4722718196506E-01 -0.2970112687210E+01 -0.6034679828273E+00 -0.2560019367103E+00
-0.6769754319540E-01 -0.3237730350528E+01 -0.6610855885957E+00 -0.3318306591728E+00
-0.9121838340941E-01 -0.3502881612122E+01 -0.7188200098176E+00 -0.4225875347737E+00
-0.1189212694985E+00 -0.3762397394601E+01 -0.7762637443870E+00 -0.5260489667383E+00
-0.1520971631020E+00 -0.4015336174044E+01 -0.8334866798492E+00 -0.6405183000475E+00
-0.1920302657071E+00 -0.4261278820280E+01 -0.8906618304694E+00 -0.7650660009826E+00
-0.2400527778178E+00 -0.4499142145538E+01 -0.9478389987950E+00 -0.8993307333823E+00
-0.2971678924478E+00 -0.4726348639618E+01 -0.1004703321384E+01 -0.1042859018504E+01
-0.3629197610545E+00 -0.4938937143008E+01 -0.1060371396613E+01 -0.1194399945544E+01
-0.4362770889207E+00 -0.5133907045247E+01 -0.1114036843434E+01 -0.1352605772586E+01
-0.5185165825852E+00 -0.5311774926122E+01 -0.1166058319117E+01 -0.1517283210191E+01
-0.6135005544383E+00 -0.5475814748895E+01 -0.1217863078814E+01 -0.1689926410723E+01
-0.7264630721139E+00 -0.5628967073468E+01 -0.1271086048057E+01 -0.1874336656314E+01
-0.8663029897065E+00 -0.5771934006489E+01 -0.1327647419023E+01 -0.2076891335671E+01
-0.1044076983269E+01 -0.5901030138077E+01 -0.1389021444967E+01 -0.2306380707128E+01
-0.1296395027411E+01 -0.6002628639845E+01 -0.1459804755204E+01 -0.2574280157090E+01
-0.1606888687123E+01 -0.6030166084240E+01 -0.1527410977033E+01 -0.2877579453820E+01
-0.2293830106846E+01 -0.5826302587852E+01 -0.1624026563140E+01 -0.3240551262887E+01
-0.2282002039665E+01 -0.4760916066579E+01 -0.1408583642238E+01 -0.2563061738673E+01
 0.7368422820011E+01 -0.3906076070896E+01  0.6924693601415E+00 -0.1924016226946E+01
-0.1004238029713E+00 -0.7558965582475E+00 -0.1712640747958E+00  0.1257954352832E+00
 0.1143157304906E-01 -0.5556177263713E+00 -0.1088372322862E+00  0.5904166600872E-02
-0.2625060828594E-02 -0.5230596425187E+00 -0.1051369422361E+00 -0.1017368190536E-02
 0.3580142978712E-03 -0.5394735751802E+00 -0.1078231137831E+00 -0.7363838987069E-02
-0.1193374791321E-03 -0.5800281231251E+00 -0.1160294938498E+00 -0.1061205279823E-01
 0.4580082870234E-04 -0.6356627365389E+00 -0.1271233890363E+00 -0.1287002277323E-01
 0.2821427616931E-04 -0.7020714612882E+00 -0.1404086514947E+00 -0.1458518815474E-01
 0.3644670108111E-04 -0.7770409087023E+00 -0.1554008947159E+00 -0.1603172238108E-01
 0.2877506106552E-04 -0.8594449559330E+00 -0.1718832387357E+00 -0.1735059006992E-01
 0.1836384135423E-04 -0.9487893597424E+00 -0.1897542020078E+00 -0.1863506844561E-01
 0.3154765530755E-05 -0.1045013646711E+01 -0.2090021015035E+00 -0.1995379089673E-01
-0.1613169311826E-04 -0.1148396314325E+01 -0.2296824926261E+00 -0.2136584805234E-01
-0.4014589564527E-04 -0.1259525558921E+01 -0.2519131447172E+00 -0.2292967569160E-01
-0.7066631731983E-04 -0.1379312322777E+01 -0.2758766019298E+00 -0.2471129413484E-01
-0.1085183190653E-03 -0.1509041481875E+01 -0.3018300045364E+00 -0.2679191301405E-01
-0.1581772524409E-03 -0.1650511096665E+01 -0.3301338597028E+00 -0.2928890239337E-01
-0.2288843398772E-03 -0.1806282352734E+01 -0.3613022527985E+00 -0.3239070664860E-01
-0.3235247749254E-03 -0.1980286977385E+01 -0.3961221063348E+00 -0.3645112791827E-01
-0.9208637276977E-03 -0.2179647645710E+01 -0.4361137083862E+00 -0.4277530567266E-01
-0.3735707012732E-02 -0.2415836349416E+01 -0.4839144184966E+00 -0.5677306415037E-01
-0.9448082533613E-02 -0.2689861210347E+01 -0.5398618666207E+00 -0.8766515821659E-01
-0.1743164329175E-01 -0.2985473516141E+01 -0.6005810408360E+00 -0.1414263880908E+00
-0.2822455839166E-01 -0.3285747986231E+01 -0.6627945188010E+00 -0.2173349831776E+00
-0.4306527946351E-01 -0.3581760628092E+01 -0.7249651923139E+00 -0.3113804177518E+00
-0.6307237717139E-01 -0.3871165206431E+01 -0.7868475284455E+00 -0.4197569082273E+00
-0.8917104048975E-01 -0.4154721085492E+01 -0.8487784378442E+00 -0.5402191581413E+00
-0.1223004795808E+00 -0.4433689284088E+01 -0.9111979663117E+00 -0.6721089991386E+00
-0.1636628011707E+00 -0.4708423443122E+01 -0.9744172633784E+00 -0.8159408182210E+00
-0.2148367164077E+00 -0.4977276693912E+01 -0.1038422697538E+01 -0.9728649004720E+00
-0.2767469553433E+00 -0.5234615404255E+01 -0.1102272488345E+01 -0.1142819106782E+01
-0.3482577406712E+00 -0.5474049118392E+01 -0.1164461389165E+01 -0.1322326255168E+01
-0.4289943118154E+00 -0.5700409042224E+01 -0.1225880689075E+01 -0.1508564135653E+01
-0.5214039298615E+00 -0.5926185861511E+01 -0.1289517977490E+01 -0.1704351792452E+01
-0.6300246119724E+00 -0.6162352325462E+01 -0.1358475407730E+01 -0.1916749483050E+01
-0.7615020893625E+00 -0.6422008496150E+01 -0.1436702138511E+01 -0.2156953921663E+01
-0.9322441602148E+00 -0.6724963190893E+01 -0.1531441493042E+01 -0.2442466764159E+01
-0.1152023857424E+01 -0.7101369967912E+01 -0.1650678789664E+01 -0.2807608794581E+01
-0.1544338028761E+01 -0.7604143141168E+01 -0.1829696261250E+01 -0.3305038856886E+01
-0.1872952857931E+01 -0.8315691701155E+01 -0.2037728942182E+01 -0.4102543815246E+01
-0.4709127086574E+01 -0.9163022428270E+01 -0.2774429944311E+01 -0.5581335610318E+01
 0.5109696251896E+01 -0.8026217471467E+01 -0.5833042526060E+00 -0.6345400471411E+01
-0.1177971969983E+01 -0.2259699789832E+01 -0.1615705723015E+01 -0.1223420786048E+01
-0.1032558159539E+01 -0.2297297167308E+01 -0.1565031999649E+01 -0.1086836723182E+01
-0.8768117580652E+00 -0.2331709499046E+01 -0.1508004987018E+01 -0.9719603979104E+00
-0.7250573797051E+00 -0.2359582742143E+01 -0.1449780853591E+01 -0.8765493179365E+00
-0.5841635960295E+00 -0.2378933135095E+01 -0.1392655460096E+01 -0.7993122733951E+00
-0.4577902493942E+00 -0.2389190625806E+01 -0.1338081007950E+01 -0.7391417874395E+00
-0.3474987696575E+00 -0.2390280251688E+01 -0.1286756136769E+01 -0.6948147225022E+00
-0.2538529663941E+00 -0.2382531941832E+01 -0.1239100903723E+01 -0.6650152022211E+00
-0.1769440955920E+00 -0.2366500225282E+01 -0.1195418827779E+01 -0.6483465980614E+00
-0.1165569671814E+00 -0.2342824327943E+01 -0.1155909205776E+01 -0.6434672944297E+00
-0.7197085884290E-01 -0.2312011423761E+01 -0.1120471669982E+01 -0.6491214688052E+00
-0.4366175575618E-01 -0.2275074308326E+01 -0.1089805947354E+01 -0.6637677846322E+00
-0.3073196090727E-01 -0.2232339736076E+01 -0.1063643694884E+01 -0.6869493126246E+00
-0.3071330602033E-01 -0.2183999200195E+01 -0.1040914875281E+01 -0.7178921170539E+00
-0.4249173027827E-01 -0.2130295268228E+01 -0.1021209886708E+01 -0.7541274901590E+00
-0.6471004946874E-01 -0.2069612722404E+01 -0.1003131700236E+01 -0.7933652991825E+00
-0.9690861955048E-01 -0.2000434194695E+01 -0.9857511201950E+00 -0.8332964778467E+00
-0.1400304915434E+00 -0.1922630665185E+01 -0.9694507412034E+00 -0.8719007830457E+00
-0.1886977147256E+00 -0.1830772641212E+01 -0.9491510648834E+00 -0.9055017542581E+00
-0.2967944205764E+00 -0.1771212460690E+01 -0.9719632317299E+00 -0.9248341533279E+00
-0.1237943653399E+01 -0.2287519607707E+01 -0.1656967728517E+01 -0.1200732812998E+01
-0.1076031020600E+01 -0.2326507785779E+01 -0.1599193234942E+01 -0.1063407608838E+01
-0.9109502949268E+00 -0.2365611585337E+01 -0.1539984079818E+01 -0.9512002964699E+00
-0.7511603723077E+00 -0.2398284329031E+01 -0.1480239005875E+01 -0.8597480551146E+00
-0.6032835896935E+00 -0.2422553180288E+01 -0.1422143278284E+01 -0.7869214146017E+00
-0.4706567690134E+00 -0.2437679773365E+01 -0.1366918171451E+01 -0.7312082942947E+00
-0.3548233552156E+00 -0.2443692411589E+01 -0.1315302407062E+01 -0.6911894275028E+00
-0.2563042191841E+00 -0.2440950682772E+01 -0.1267709800704E+01 -0.6654566719615E+00
-0.1751313453105E+00 -0.2429981470353E+01 -0.1224403020256E+01 -0.6526178723832E+00
-0.1109969447398E+00 -0.2411374196417E+01 -0.1185514433337E+01 -0.6513800204185E+00
-0.6349718450722E-01 -0.2385887939070E+01 -0.1151211005162E+01 -0.6604921912862E+00
-0.3249455131184E-01 -0.2353968966944E+01 -0.1121637850735E+01 -0.6786353387565E+00
-0.1715642891258E-01 -0.2316088907384E+01 -0.1096625305278E+01 -0.7053344626039E+00
-0.1566332637201E-01 -0.2272712583169E+01 -0.1075536674756E+01 -0.7396841601984E+00
-0.2657706113470E-01 -0.2223479450263E+01 -0.1057526557675E+01 -0.7795386937321E+00
-0.4905184376137E-01 -0.2167450349713E+01 -0.1041756028291E+01 -0.8227356207168E+00
-0.8314152448547E-01 -0.2103547004199E+01 -0.1027743605875E+01 -0.8668463005851E+00
-0.1282786464324E+00 -0.2029787259270E+01 -0.1014290973108E+01 -0.9091097597542E+00
-0.1961628636073E+00 -0.1951661563377E+01 -0.1009477478122E+01 -0.9449490034874E+00
-0.2678832400674E+00 -0.1846028653596E+01 -0.9935385875020E+00 -0.9789660598444E+00
-0.1296012990891E+01 -0.2313665169247E+01 -0.1696548730962E+01 -0.1176154643231E+01
-0.1119743416985E+01 -0.2358013234910E+01 -0.1634545622245E+01 -0.1038927947477E+01
-0.9436530737791E+00 -0.2401029379556E+01 -0.1572000749081E+01 -0.9291610290836E+00
-0.7755548521961E+00 -0.2438185055492E+01 -0.1510457752782E+01 -0.8415680499051E+00
-0.6205683716791E+00 -0.2466998431251E+01 -0.1451156393696E+01 -0.7730980393539E+00
-0.4817447073992E+00 -0.2486762201834E+01 -0.1395198243801E+01 -0.7217833321290E+00
-0.3604560110609E+00 -0.2497505006961E+01 -0.1343241675063E+01 -0.6859940191498E+00
-0.2571490124778E+00 -0.2499618292570E+01 -0.1295680630086E+01 -0.6642469453967E+00
-0.1717769966004E+00 -0.2493631381195E+01 -0.1252741934386E+01 -0.6551578841821E+00
-0.1040369725254E+00 -0.2480173621593E+01 -0.1214578976155E+01 -0.6574674851542E+00
-0.5346530854701E-01 -0.2459896835411E+01 -0.1181280204664E+01 -0.6700042713022E+00
-0.1976682294455E-01 -0.2433259834441E+01 -0.1152922526047E+01 -0.6916186687032E+00
-0.2109839551764E-02 -0.2400719053110E+01 -0.1129329576687E+01 -0.7217660403920E+00
 0.1068017157564E-02 -0.2362628481071E+01 -0.1109933415224E+01 -0.7595248956268E+00
-0.9043343213380E-02 -0.2318709061326E+01 -0.1094043627359E+01 -0.8029719888650E+00
-0.3189692756950E-01 -0.2268150573977E+01 -0.1081022322985E+01 -0.8500301669210E+00
-0.6747577068904E-01 -0.2209535989944E+01 -0.1070195524783E+01 -0.8982685117825E+00
-0.1181551872848E+00 -0.2142249993235E+01 -0.1062390432150E+01 -0.9449393443754E+00
-0.1827597212851E+00 -0.2059908562955E+01 -0.1054054090919E+01 -0.9886623004991E+00
-0.2543397668176E+00 -0.1959567068939E+01 -0.1040536210166E+01 -0.1032120590611E+01
-0.1353697305187E+01 -0.2340159621520E+01 -0.1736112751149E+01 -0.1149324298956E+01
-0.1162489325712E+01 -0.2390153905716E+01 -0.1669742314536E+01 -0.1012992306400E+01
-0.9751968000469E+00 -0.2437652651081E+01 -0.1604039237962E+01 -0.9059095919826E+00
-0.7983033326675E+00 -0.2478960703867E+01 -0.1540314093264E+01 -0.8221223383416E+00
-0.6361255262005E+00 -0.2512055975240E+01 -0.1479645301924E+01 -0.7579358780060E+00
-0.4911321525112E+00 -0.2536211285269E+01 -0.1422851412148E+01 -0.7109331238629E+00
-0.3644744637694E+00 -0.2551498247644E+01 -0.1370507170888E+01 -0.6792746522299E+00
-0.2564658343596E+00 -0.2558332620326E+01 -0.1322955270347E+01 -0.6614062704339E+00
-0.1669818038761E+00 -0.2557273861761E+01 -0.1280400159602E+01 -0.6559532045984E+00
-0.9565650889952E-01 -0.2548944489837E+01 -0.1242962466253E+01 -0.6617060030842E+00
-0.4198939647045E-01 -0.2533974976750E+01 -0.1210703252343E+01 -0.6775784243751E+00
-0.5561283615394E-02 -0.2512839582968E+01 -0.1183648404292E+01 -0.7025521497748E+00
 0.1444751623499E-01 -0.2485977408190E+01 -0.1161619046272E+01 -0.7360443945930E+00
 0.1934902405082E-01 -0.2453685442879E+01 -0.1144138113948E+01 -0.7771378539818E+00
 0.1008643751021E-01 -0.2415705125891E+01 -0.1130640780671E+01 -0.8241037259125E+00
-0.1295004241095E-01 -0.2371154991873E+01 -0.1120529363271E+01 -0.8750034488453E+00
-0.5029212370374E-01 -0.2318735436858E+01 -0.1113442950640E+01 -0.9276147899034E+00
-0.1021208527850E+00 -0.2255621723273E+01 -0.1108139007937E+01 -0.9800285704104E+00
-0.1676452130805E+00 -0.2178345989481E+01 -0.1102615862407E+01 -0.1031222209145E+01
-0.2405381712512E+00 -0.2085323058784E+01 -0.1093154775344E+01 -0.1081697049715E+01
-0.1410776205023E+01 -0.2366932169704E+01 -0.1775522931618E+01 -0.1120199404323E+01
-0.1204227964527E+01 -0.2422809734699E+01 -0.1704707714313E+01 -0.9854905656048E+00
-0.1005387860761E+01 -0.2474900070958E+01 -0.1635735323759E+01 -0.8814128736439E+00
-0.8195094153296E+00 -0.2520313136149E+01 -0.1569716595214E+01 -0.8014825199346E+00
-0.6500389646377E+00 -0.2557455794861E+01 -0.1507522533141E+01 -0.7415115461958E+00
-0.4989136122718E+00 -0.2585789034612E+01 -0.1449810240358E+01 -0.6987189893211E+00
-0.3669682070552E+00 -0.2605441428604E+01 -0.1397032525216E+01 -0.6710711803530E+00
-0.2543481918021E+00 -0.2616875435162E+01 -0.1349475101250E+01 -0.6569493412913E+00
-0.1608174478257E+00 -0.2620679707519E+01 -0.1307303659696E+01 -0.6549935779229E+00
-0.8593531002672E-01 -0.2617489883104E+01 -0.1270609837549E+01 -0.6640505366130E+00
-0.2915033848693E-01 -0.2607934766840E+01 -0.1239429996360E+01 -0.6831181189049E+00
 0.1004545922757E-01 -0.2592515447250E+01 -0.1213760891292E+01 -0.7112886983367E+00
 0.3244234021917E-01 -0.2571664786635E+01 -0.1193434546788E+01 -0.7479671743232E+00
 0.3913235249890E-01 -0.2545634446645E+01 -0.1178055981261E+01 -0.7922682981574E+00
 0.3086731530654E-01 -0.2514134562129E+01 -0.1167135603046E+01 -0.8426582098372E+00
 0.7826760275794E-02 -0.2476275808689E+01 -0.1160171049812E+01 -0.8974049500404E+00
-0.3016086305830E-01 -0.2430337257465E+01 -0.1156434113713E+01 -0.9546711511423E+00
-0.8308151754265E-01 -0.2373862149750E+01 -0.1154763520699E+01 -0.1012893159027E+01
-0.1497943393529E+00 -0.2304160412753E+01 -0.1153358730564E+01 -0.1070869808686E+01
-0.2254448875855E+00 -0.2220370754932E+01 -0.1149533349068E+01 -0.1127609136481E+01
-0.1467024950675E+01 -0.2393859339074E+01 -0.1814615611580E+01 -0.1088754865115E+01
-0.1244802021713E+01 -0.2455722159594E+01 -0.1739246360803E+01 -0.9563854691913E+00
-0.1034185959322E+01 -0.2512449777642E+01 -0.1666918792145E+01 -0.8556632493714E+00
-0.8391903618868E+00 -0.2561890672740E+01 -0.1598508082220E+01 -0.7796858713480E+00
-0.6623992309797E+00 -0.2602919313976E+01 -0.1534699712237E+01 -0.7238850155061E+00
-0.5051850091221E+00 -0.2635237526872E+01 -0.1475998588174E+01 -0.6851933991854E+00
-0.3680380016237E+00 -0.2659091787903E+01 -0.1422750997469E+01 -0.6614182907961E+00
-0.2508928911068E+00 -0.2675007484423E+01 -0.1375173173011E+01 -0.6508881477961E+00
-0.1533794451140E+00 -0.2683616915592E+01 -0.1333388286150E+01 -0.6522632034050E+00
-0.7496691404005E-01 -0.2685582196822E+01 -0.1297458078814E+01 -0.6644492148174E+00
-0.1504675122059E-01 -0.2681548774594E+01 -0.1267399893918E+01 -0.6865263590603E+00
 0.2695534611312E-01 -0.2672049512937E+01 -0.1243194255254E+01 -0.7176852726416E+00
 0.5179167848294E-01 -0.2657519789115E+01 -0.1224692208891E+01 -0.7573439501923E+00
 0.6037757597609E-01 -0.2638172394521E+01 -0.1211563561643E+01 -0.8046778903944E+00
 0.5329630066932E-01 -0.2613702689242E+01 -0.1203390999577E+01 -0.8583559728884E+00
 0.3070374359563E-01 -0.2583149974213E+01 -0.1199649725347E+01 -0.9168960642684E+00
-0.7505863046434E-02 -0.2544868642166E+01 -0.1199616014407E+01 -0.9787511634088E+00
-0.6120101177888E-01 -0.2496692429383E+01 -0.1202209914297E+01 -0.1042500352714E+01
-0.1293802374099E+00 -0.2436497771931E+01 -0.1205962661331E+01 -0.1106687624072E+01
-0.2082682521058E+00 -0.2363256983125E+01 -0.1208616857493E+01 -0.1169376428372E+01
-0.1522176425273E+01 -0.2420758352970E+01 -0.1853179341074E+01 -0.1054985849533E+01
-0.1284070246036E+01 -0.2488649383299E+01 -0.1773178221290E+01 -0.9256692415249E+00
-0.1061543664936E+01 -0.2549999970498E+01 -0.1697425504349E+01 -0.8286680301519E+00
-0.8573771739488E+00 -0.2603383729638E+01 -0.1626557620560E+01 -0.7567635338328E+00
-0.6732815911179E+00 -0.2648152569896E+01 -0.1561074051717E+01 -0.7051020230358E+00
-0.5100470009643E+00 -0.2684288821451E+01 -0.1501337832727E+01 -0.6704004708262E+00
-0.3677900026774E+00 -0.2712192472702E+01 -0.1447591759757E+01 -0.6503459896568E+00
-0.2462082453156E+00 -0.2732477973677E+01 -0.1399982519376E+01 -0.6432316051234E+00
-0.1447763752393E+00 -0.2745836037856E+01 -0.1358587830709E+01 -0.6477438139312E+00
-0.6286193254550E-01 -0.2752969699125E+01 -0.1323440863528E+01 -0.6628495723267E+00
 0.2063691680334E-03 -0.2754554684751E+01 -0.1294543705041E+01 -0.6877097885089E+00
 0.4505467308288E-01 -0.2751160747003E+01 -0.1271869851517E+01 -0.7216069382208E+00
 0.7239974447696E-01 -0.2743233563563E+01 -0.1255291891787E+01 -0.7639948592450E+00
 0.8301388222556E-01 -0.2730968822286E+01 -0.1244538818672E+01 -0.8141331855948E+00
 0.7736969558653E-01 -0.2714057212742E+01 -0.1239243129920E+01 -0.8708947338209E+00
 0.5557241560353E-01 -0.2691588042556E+01 -0.1238927341525E+01 -0.9330259525008E+00
 0.1752288457547E-01 -0.2662071142868E+01 -0.1242937678245E+01 -0.9991952820832E+00
-0.3671205591100E-01 -0.2623646214143E+01 -0.1250368383754E+01 -0.1068046870011E+01
-0.1063680134218E+00 -0.2574451138185E+01 -0.1259984998059E+01 -0.1137931653109E+01
-0.1886757825404E+00 -0.2513194240754E+01 -0.1269878907728E+01 -0.1206350921265E+01
-0.1575958002290E+01 -0.2447437158918E+01 -0.1890995720972E+01 -0.1018901996980E+01
-0.1321890048845E+01 -0.2521347122825E+01 -0.1806321466103E+01 -0.8933510704531E+00
-0.1087419552561E+01 -0.2587268633601E+01 -0.1727103443116E+01 -0.8004442516016E+00
-0.8740991435717E+00 -0.2644495346197E+01 -0.1653739405997E+01 -0.7327453656022E+00
-0.6827618119215E+00 -0.2692866021634E+01 -0.1586545077747E+01 -0.6852011809830E+00
-0.5135999956788E+00 -0.2732666356136E+01 -0.1525745181483E+01 -0.6543775239184E+00
-0.3663365494528E+00 -0.2764477150890E+01 -0.1471482435429E+01 -0.6378804418835E+00
-0.2404115951435E+00 -0.2789023654280E+01 -0.1423834563618E+01 -0.6339870499263E+00
-0.1351292834131E+00 -0.2807071330226E+01 -0.1382834284903E+01 -0.6414176595247E+00
-0.4974546316750E-01 -0.2819377410982E+01 -0.1348487747430E+01 -0.6592025609612E+00
 0.1647874633605E-01 -0.2826659904738E+01 -0.1320785141099E+01 -0.6865825725628E+00
 0.6421423298695E-01 -0.2829531329537E+01 -0.1299699032082E+01 -0.7229290619966E+00
 0.9414774116792E-01 -0.2828460359659E+01 -0.1285126927431E+01 -0.7677497299383E+00
 0.1069427916538E+00 -0.2823648967880E+01 -0.1276851899588E+01 -0.8204032139246E+00
 0.1029764409786E+00 -0.2814829932044E+01 -0.1274571137568E+01 -0.8799522430649E+00
 0.8229226382817E-01 -0.2801199088496E+01 -0.1277886204353E+01 -0.9453420838693E+00
 0.4473141791346E-01 -0.2781466346308E+01 -0.1286265413083E+01 -0.1015408454605E+01
-0.9776334922069E-02 -0.2754024569191E+01 -0.1298986421638E+01 -0.1088846046531E+01
-0.8079755429026E-01 -0.2717181508621E+01 -0.1315050156233E+01 -0.1163898863165E+01
-0.1664938449063E+00 -0.2669418841112E+01 -0.1332878959048E+01 -0.1237772661043E+01
-0.1628096340568E+01 -0.2473702866621E+01 -0.1927845622489E+01 -0.9805271786134E+00
-0.1358121940011E+01 -0.2553574932642E+01 -0.1838497525484E+01 -0.8594522561135E+00
-0.1111774055168E+01 -0.2623983179910E+01 -0.1755805896034E+01 -0.7710159182065E+00
-0.8893868070480E+00 -0.2684939092822E+01 -0.1679933168678E+01 -0.7076616927999E+00
-0.6909155382272E+00 -0.2736773664720E+01 -0.1611013921299E+01 -0.6642173508884E+00
-0.5159463822680E+00 -0.2780091071448E+01 -0.1549137599318E+01 -0.6371576490511E+00
-0.3637945649342E+00 -0.2815672102378E+01 -0.1494349329847E+01 -0.6240454129819E+00
-0.2336283748222E+00 -0.2844370821693E+01 -0.1446659618693E+01 -0.6231620358496E+00
-0.1245699434112E+00 -0.2867042138054E+01 -0.1406057674722E+01 -0.6332700745992E+00
-0.3575562610688E-01 -0.2884509983442E+01 -0.1372524833007E+01 -0.6534656618895E+00
 0.3362576354731E-01 -0.2897545636197E+01 -0.1346042336731E+01 -0.6830691891515E+00
 0.8428687863560E-01 -0.2906812528540E+01 -0.1326587052091E+01 -0.7215393370049E+00
 0.1168923288796E+00 -0.2912817251320E+01 -0.1314084710214E+01 -0.7684500894155E+00
 0.1320184500364E+00 -0.2915798007248E+01 -0.1308376388571E+01 -0.8232646421443E+00
 0.1299560468677E+00 -0.2915566121357E+01 -0.1309236731689E+01 -0.8852170794114E+00
 0.1106713082577E+00 -0.2911461100081E+01 -0.1316371198818E+01 -0.9534244044024E+00
 0.7390890412743E-01 -0.2902402592031E+01 -0.1329392029943E+01 -0.1026862295582E+01
 0.1941290543982E-01 -0.2887015672916E+01 -0.1347773297295E+01 -0.1104282753590E+01
-0.5276387235243E-01 -0.2863764290341E+01 -0.1370768232989E+01 -0.1183897766738E+01
-0.1416756007457E+00 -0.2831030705113E+01 -0.1397171960210E+01 -0.1262802448518E+01
-0.1678320985398E+01 -0.2499366290155E+01 -0.1963513014530E+01 -0.9398993923797E+00
-0.1392629970195E+01 -0.2585097335435E+01 -0.1869531828904E+01 -0.8240041906383E+00
-0.1134569903343E+01 -0.2659879024335E+01 -0.1783390991485E+01 -0.7404126669463E+00
-0.9032714841666E+00 -0.2724436370205E+01 -0.1705022687230E+01 -0.6815440516233E+00
-0.6978190356475E+00 -0.2779594044246E+01 -0.1634384143404E+01 -0.6421837538145E+00
-0.5171902016480E+00 -0.2826283601762E+01 -0.1571432683617E+01 -0.6187718710080E+00
-0.3602849653684E+00 -0.2865499130020E+01 -0.1516118520987E+01 -0.6088641664616E+00
-0.2259906017466E+00 -0.2898237398853E+01 -0.1468387156557E+01 -0.6107662972468E+00
-0.1132393140793E+00 -0.2925455318978E+01 -0.1428186473915E+01 -0.6232918656625E+00
-0.2104203286938E-01 -0.2948054772646E+01 -0.1395475495053E+01 -0.6456055498946E+00
 0.5148883474272E-01 -0.2966870907529E+01 -0.1370229570734E+01 -0.6771070230684E+00
 0.1051072647275E+00 -0.2982627693979E+01 -0.1352434598318E+01 -0.7173407140875E+00
 0.1404622543206E+00 -0.2995886513914E+01 -0.1342049398605E+01 -0.7659538650998E+00
 0.1580584290370E+00 -0.3006948562136E+01 -0.1338978359160E+01 -0.8225138080032E+00
 0.1581048292176E+00 -0.3015732090444E+01 -0.1343084809370E+01 -0.8864072461836E+00
 0.1404796333723E+00 -0.3021741216087E+01 -0.1354192940441E+01 -0.9569010009430E+00
 0.1048062842581E+00 -0.3024110940277E+01 -0.1372073184849E+01 -0.1033093920404E+01
 0.5061411488106E-01 -0.3021696021596E+01 -0.1396408492614E+01 -0.1113804581145E+01
-0.2245046043114E-01 -0.3013143517591E+01 -0.1426729166052E+01 -0.1197262780346E+01
-0.1143116193202E+00 -0.2996887943501E+01 -0.1462263790817E+01 -0.1280564731433E+01
-0.1726366680866E+01 -0.2524243972800E+01 -0.1997787002156E+01 -0.8970708159412E+00
-0.1425282661470E+01 -0.2615685215855E+01 -0.1899254897526E+01 -0.7870473599366E+00
-0.1155772307385E+01 -0.2694699320285E+01 -0.1809721660415E+01 -0.7086691054764E+00
-0.9157854695788E+00 -0.2762716172332E+01 -0.1728895767313E+01 -0.6544256368882E+00
-0.7035491122647E+00 -0.2821050980401E+01 -0.1656562039351E+01 -0.6191333587223E+00
-0.5174368697856E+00 -0.2870966368315E+01 -0.1592549517868E+01 -0.5992508970283E+00
-0.3559317525602E+00 -0.2913678053057E+01 -0.1536716604742E+01 -0.5923612471870E+00
-0.2176355808928E+00 -0.2950335633266E+01 -0.1488946466878E+01 -0.5968136274982E+00
-0.1012859669139E+00 -0.2982008154510E+01 -0.1449148233394E+01 -0.6114814089668E+00
-0.5764395970523E-02 -0.3009685327380E+01 -0.1417261366380E+01 -0.6356004116366E+00
 0.6989639948872E-01 -0.3034276192668E+01 -0.1393258499261E+01 -0.6686489568633E+00
 0.1264921316444E+00 -0.3056575669238E+01 -0.1377139259176E+01 -0.7102549860751E+00
 0.1646616108545E+00 -0.3077216010947E+01 -0.1368900564571E+01 -0.7601417542180E+00
 0.1848488209461E+00 -0.3096583742511E+01 -0.1368515409665E+01 -0.8179767957917E+00
 0.1871842643346E+00 -0.3114724474773E+01 -0.1375943895416E+01 -0.8832822319562E+00
 0.1714504700081E+00 -0.3131320379600E+01 -0.1391138853980E+01 -0.9554567142187E+00
 0.1371329940801E+00 -0.3145726774443E+01 -0.1414039073184E+01 -0.1033709697411E+01
 0.8352777070007E-01 -0.3157035448514E+01 -0.1444548604909E+01 -0.1116930983297E+01
 0.9860655840592E-02 -0.3164114799675E+01 -0.1482499443842E+01 -0.1203395574358E+01
-0.8460625318644E-01 -0.3165559957010E+01 -0.1527578114918E+01 -0.1290265571450E+01
-0.1771975225012E+01 -0.2548159270229E+01 -0.2030463207614E+01 -0.8521077684727E+00
-0.1455953687748E+01 -0.2645116857874E+01 -0.1927503151554E+01 -0.7486307735178E+00
-0.1175349140996E+01 -0.2728195484609E+01 -0.1834665969381E+01 -0.6758244866074E+00
-0.9269619230512E+00 -0.2799515531008E+01 -0.1751444398966E+01 -0.6263416810523E+00
-0.7081828023791E+00 -0.2860874651245E+01 -0.1677456998949E+01 -0.5950999472911E+00
-0.5167925045567E+00 -0.2913865415772E+01 -0.1612409218465E+01 -0.5786265788518E+00
-0.3508609556746E+00 -0.2959929134736E+01 -0.1556071338546E+01 -0.5745641169749E+00
-0.2087044689128E+00 -0.3000374874488E+01 -0.1508267287573E+01 -0.5813236388563E+00
-0.8886446341131E-01 -0.3036391516552E+01 -0.1468870306857E+01 -0.5978465873547E+00
 0.9909129821287E-02 -0.3069064919407E+01 -0.1437803217459E+01 -0.6234421449390E+00
 0.8866541593897E-01 -0.3099387164327E+01 -0.1415039218153E+01 -0.6576660735252E+00
 0.1482424888041E+00 -0.3128234166417E+01 -0.1400596084926E+01 -0.7002267756533E+00
 0.1892733655129E+00 -0.3156323209923E+01 -0.1394513423336E+01 -0.7509232455825E+00
 0.2121497489110E+00 -0.3184143708391E+01 -0.1396837157413E+01 -0.8095173779569E+00
 0.2169261383269E+00 -0.3211883249391E+01 -0.1407629838630E+01 -0.8756512931576E+00
 0.2032838884490E+00 -0.3239410814674E+01 -0.1426979651706E+01 -0.9488400709292E+00
 0.1705585640733E+00 -0.3266306111149E+01 -0.1455001343435E+01 -0.1028392522692E+01
 0.1177995488654E+00 -0.3291906359596E+01 -0.1491830197260E+01 -0.1113269106501E+01
 0.4381168257420E-01 -0.3315328624843E+01 -0.1537612958966E+01 -0.1201802217109E+01
-0.5289082218892E-01 -0.3335403815025E+01 -0.1592498475452E+01 -0.1291249712917E+01
-0.1814897258678E+01 -0.2570943152717E+01 -0.2061344988128E+01 -0.8050905635068E+00
-0.1484522544355E+01 -0.2673178983206E+01 -0.1954119712997E+01 -0.7088115541883E+00
-0.1193271070652E+01 -0.2760128109756E+01 -0.1858097610079E+01 -0.6419225231735E+00
-0.9368346744810E+00 -0.2834580489957E+01 -0.1772565122790E+01 -0.5973297708416E+00
-0.7117968723211E+00 -0.2898802957409E+01 -0.1696981915669E+01 -0.5701189459375E+00
-0.5153631035996E+00 -0.2954712348424E+01 -0.1630935458314E+01 -0.5569331025180E+00
-0.3451994445005E+00 -0.3003975549280E+01 -0.1574112243084E+01 -0.5555045471567E+00
-0.1993407666067E+00 -0.3048064506295E+01 -0.1526280474393E+01 -0.5643232952280E+00
-0.7613360057942E-01 -0.3088293230562E+01 -0.1487280606864E+01 -0.5824064974374E+00
 0.2580386679109E-01 -0.3125850330400E+01 -0.1457021834201E+01 -0.6091383645227E+00
 0.1076035623305E+00 -0.3161818784564E+01 -0.1435481150809E+01 -0.6441502473903E+00
 0.1701464833930E+00 -0.3197164422195E+01 -0.1422698427628E+01 -0.6872272172173E+00
 0.2140634497658E+00 -0.3232701234263E+01 -0.1418759755115E+01 -0.7382416580164E+00
 0.2397003933708E+00 -0.3269034790006E+01 -0.1423787162807E+01 -0.7970430048575E+00
 0.2470379474481E+00 -0.3306504684310E+01 -0.1437949362678E+01 -0.8633796080452E+00
 0.2356520866338E+00 -0.3345171767088E+01 -0.1461474246107E+01 -0.9368694100689E+00
 0.2047189886185E+00 -0.3384841633053E+01 -0.1494657639093E+01 -0.1016910000100E+01
 0.1530327470446E+00 -0.3425099975944E+01 -0.1537871593682E+01 -0.1102528732637E+01
 0.7898320685362E-01 -0.3465325421260E+01 -0.1591580836734E+01 -0.1192117940077E+01
-0.1959747147322E-01 -0.3504624017712E+01 -0.1656384095716E+01 -0.1283037679199E+01
-0.1854893999578E+01 -0.2592434881575E+01 -0.2090244568840E+01 -0.7561132540987E+00
-0.1510875168655E+01 -0.2699667800218E+01 -0.1978955190351E+01 -0.6676546115175E+00
-0.1209511598144E+01 -0.2790268077440E+01 -0.1879896442756E+01 -0.6070112899308E+00
-0.9454379014044E+00 -0.2867667338235E+01 -0.1792159458085E+01 -0.5674301415244E+00
-0.7144671843199E+00 -0.2934583065347E+01 -0.1715053612994E+01 -0.5442281198008E+00
-0.5132535835337E+00 -0.2993246321027E+01 -0.1648054950964E+01 -0.5342079812293E+00
-0.3390736366442E+00 -0.3045545863115E+01 -0.1590771160852E+01 -0.5352198008523E+00
-0.1896887098361E+00 -0.3093116910126E+01 -0.1542918637469E+01 -0.5458482319165E+00
-0.6325451548228E-01 -0.3137401524960E+01 -0.1504308335192E+01 -0.5651929391800E+00
 0.4174081990993E-01 -0.3179695799455E+01 -0.1474838836645E+01 -0.5927141860082E+00
 0.1265118515456E+00 -0.3221179856874E+01 -0.1454493958815E+01 -0.6281164438373E+00
 0.1919827173463E+00 -0.3262916740717E+01 -0.1443338987323E+01 -0.6712570662316E+00
 0.2387849990056E+00 -0.3305826205199E+01 -0.1441509363254E+01 -0.7220780951641E+00
 0.2672240954649E+00 -0.3350639446325E+01 -0.1449205211229E+01 -0.7805092770839E+00
 0.2772086872580E+00 -0.3397854231322E+01 -0.1466703401990E+01 -0.8463929434614E+00
 0.2682061639647E+00 -0.3447724814261E+01 -0.1494373761849E+01 -0.9194379899053E+00
 0.2392261170803E+00 -0.3500280221511E+01 -0.1532695425195E+01 -0.9991213233687E+00
 0.1888014470840E+00 -0.3555350593921E+01 -0.1582278095000E+01 -0.1084532584263E+01
 0.1149153155842E+00 -0.3612573828285E+01 -0.1643899496800E+01 -0.1174122528830E+01
 0.1477820612140E-01 -0.3671336276559E+01 -0.1718582288747E+01 -0.1265348618207E+01
-0.1891738969098E+01 -0.2612482671527E+01 -0.2116984165724E+01 -0.7052832346395E+00
-0.1534904519739E+01 -0.2724390086331E+01 -0.2001868459776E+01 -0.6252323153022E+00
-0.1224047030858E+01 -0.2818397807257E+01 -0.1899949069095E+01 -0.5711431406491E+00
-0.9528057055941E+00 -0.2898544015583E+01 -0.1810134364362E+01 -0.5366859227502E+00
-0.7162679488113E+00 -0.2967973084574E+01 -0.1731593281299E+01 -0.5174681366576E+00
-0.5105667149639E+00 -0.3029216102951E+01 -0.1663697920200E+01 -0.5104928600709E+00
-0.3326081100252E+00 -0.3084376554906E+01 -0.1605982788444E+01 -0.5137535961954E+00
-0.1798915597083E+00 -0.3135250480536E+01 -0.1558116754963E+01 -0.5259438372359E+00
-0.5038864057627E-01 -0.3183408584415E+01 -0.1519884691891E+01 -0.5462516439109E+00
 0.5753910437355E-01 -0.3230257203035E+01 -0.1491177502589E+01 -0.5742136965380E+00
 0.1451875393800E+00 -0.3277078029408E+01 -0.1471988526580E+01 -0.6096045777617E+00
 0.2135238192883E+00 -0.3325036745632E+01 -0.1462411071673E+01 -0.6523490985745E+00
 0.2631827545139E+00 -0.3375165332105E+01 -0.1462631807758E+01 -0.7024543460230E+00
 0.2944336141708E+00 -0.3428326707113E+01 -0.1472929749947E+01 -0.7599231189413E+00
 0.3071150599574E+00 -0.3485179540789E+01 -0.1493690302202E+01 -0.8246809655815E+00
 0.3005837896735E+00 -0.3546169568243E+01 -0.1525425312059E+01 -0.8965176059374E+00
 0.2736776881741E+00 -0.3611542565014E+01 -0.1568796488136E+01 -0.9749816263201E+00
 0.2246649161003E+00 -0.3681362144209E+01 -0.1624647693091E+01 -0.1059221623866E+01
 0.1511309815078E+00 -0.3755510069573E+01 -0.1694058167094E+01 -0.1147745925847E+01
 0.4971553378321E-01 -0.3833632095115E+01 -0.1778440779315E+01 -0.1238103234942E+01
-0.1925219626572E+01 -0.2630944306689E+01 -0.2141397043201E+01 -0.6527207225836E+00
-0.1556511095051E+01 -0.2747164284255E+01 -0.2022727423143E+01 -0.5816241564921E+00
-0.1236856362576E+01 -0.2844312559069E+01 -0.1918149388308E+01 -0.5343746268064E+00
-0.9589715923080E+00 -0.2926991594968E+01 -0.1826402693387E+01 -0.5051433389526E+00
-0.7172708802243E+00 -0.2998743805021E+01 -0.1746526897636E+01 -0.4898830183741E+00
-0.5074019695257E+00 -0.3062382169223E+01 -0.1677798540957E+01 -0.4858341498244E+00
-0.3259241338278E+00 -0.3120214543828E+01 -0.1619685174390E+01 -0.4911568550839E+00
-0.1700898012514E+00 -0.3174192661976E+01 -0.1571812753730E+01 -0.5046660822521E+00
-0.3769553769287E-01 -0.3226014182076E+01 -0.1533943564401E+01 -0.5256432018701E+00
 0.7301853543735E-01 -0.3277196422854E+01 -0.1505963603266E+01 -0.5537010415789E+00
 0.1634272198487E+00 -0.3329125139390E+01 -0.1487878018411E+01 -0.5886808413494E+00
 0.2345401834453E+00 -0.3383072085423E+01 -0.1479809990176E+01 -0.6305697492922E+00
 0.2869975823353E+00 -0.3440185436368E+01 -0.1481998287637E+01 -0.6794347695739E+00
 0.3210365088708E+00 -0.3501462900996E+01 -0.1494800400507E+01 -0.7353447354279E+00
 0.3364278903977E+00 -0.3567723693355E+01 -0.1518709023538E+01 -0.7982991491821E+00
 0.3324170123750E+00 -0.3639599924183E+01 -0.1554375964607E+01 -0.8681603915656E+00
 0.3076672852539E+00 -0.3717543630801E+01 -0.1602641878342E+01 -0.9445435106152E+00
 0.2601812183588E+00 -0.3801835312685E+01 -0.1664577420112E+01 -0.1026655516525E+01
 0.1871563322063E+00 -0.3892575988057E+01 -0.1741547233833E+01 -0.1113065065532E+01
 0.8470109628712E-01 -0.3989634279976E+01 -0.1835318591679E+01 -0.1201410562970E+01
-0.1955139059462E+01 -0.2647687858454E+01 -0.2163328645933E+01 -0.5985580943456E+00
-0.1575603445697E+01 -0.2767821655876E+01 -0.2041409792561E+01 -0.5369163679421E+00
-0.1247921146071E+01 -0.2867821814407E+01 -0.1934399186519E+01 -0.4967663897232E+00
-0.9639679275261E+00 -0.2952805844340E+01 -0.1840883668108E+01 -0.4728518467439E+00
-0.7175443281013E+00 -0.3026680495983E+01 -0.1759785662856E+01 -0.4615204729407E+00
-0.5038543440338E+00 -0.3092518825835E+01 -0.1690295385551E+01 -0.4602834850962E+00
-0.3191381758323E+00 -0.3152819733774E+01 -0.1631820213376E+01 -0.4674882254876E+00
-0.1604193084540E+00 -0.3209683007650E+01 -0.1583948084552E+01 -0.4820820723059E+00
-0.2533067874781E-01 -0.3264929372457E+01 -0.1546422220144E+01 -0.5034436442185E+00
 0.8800229113831E-01 -0.3320185844585E+01 -0.1519126266267E+01 -0.5312610658248E+00
 0.1810300029640E+00 -0.3376942766628E+01 -0.1502078995112E+01 -0.5654384383986E+00
 0.2548037716391E+00 -0.3436579382547E+01 -0.1495434533334E+01 -0.6060199584426E+00
 0.3099710148073E+00 -0.3500361672560E+01 -0.1499483605340E+01 -0.6531271719673E+00
 0.3467405071803E+00 -0.3569422492162E+01 -0.1514660529100E+01 -0.7068883581206E+00
 0.3648184398161E+00 -0.3644738517188E+01 -0.1541562432455E+01 -0.7673692186594E+00
 0.3633397425842E+00 -0.3727120417871E+01 -0.1580976913375E+01 -0.8344986981526E+00
 0.3407933981259E+00 -0.3817213077486E+01 -0.1633917245155E+01 -0.9079558155376E+00
 0.2949185519478E+00 -0.3915493677320E+01 -0.1701670304609E+01 -0.9870089491406E+00
 0.2225356040208E+00 -0.4022253025403E+01 -0.1785867183520E+01 -0.1070294729481E+01
 0.1192521657234E+00 -0.4137539037798E+01 -0.1888594825085E+01 -0.1155547254825E+01
-0.1981317533884E+01 -0.2662592351549E+01 -0.2182637640618E+01 -0.5429390751770E+00
-0.1592098616937E+01 -0.2786207409314E+01 -0.2057803827118E+01 -0.4912014898489E+00
-0.1257225293402E+01 -0.2888750630954E+01 -0.1948608679505E+01 -0.4583830161783E+00
-0.9678253327238E+00 -0.2975798764055E+01 -0.1853503320785E+01 -0.4398642105812E+00
-0.7171523561367E+00 -0.3051584669726E+01 -0.1771306397663E+01 -0.4324321181407E+00
-0.5000131445478E+00 -0.3119416282955E+01 -0.1701131826612E+01 -0.4338980218345E+00
-0.3123603784290E+00 -0.3181967493867E+01 -0.1642334095814E+01 -0.4428143897092E+00
-0.1510094806110E+00 -0.3241476178609E+01 -0.1594468255789E+01 -0.4582703252072E+00
-0.1344319609642E-01 -0.3299880148282E+01 -0.1557261967908E+01 -0.4797446759883E+00
 0.1023196053927E+00 -0.3358912857605E+01 -0.1530598824657E+01 -0.5069995017962E+00
 0.1978007150261E+00 -0.3420167818994E+01 -0.1514512535023E+01 -0.5399977289816E+00
 0.2740919082028E+00 -0.3485131207819E+01 -0.1509188466992E+01 -0.5788352548941E+00
 0.3318497277924E+00 -0.3555186218237E+01 -0.1514968146666E+01 -0.6236827346444E+00
 0.3712587168102E+00 -0.3631598804840E+01 -0.1532359837487E+01 -0.6747218453043E+00
 0.3919643914864E+00 -0.3715497702565E+01 -0.1562060652245E+01 -0.7320781921762E+00
 0.3929945544742E+00 -0.3807862208646E+01 -0.1604987793390E+01 -0.7957432022564E+00
 0.3726670960273E+00 -0.3909514782422E+01 -0.1662318408389E+01 -0.8654600541706E+00
 0.3284638765909E+00 -0.4021107568208E+01 -0.1735542530658E+01 -0.9405649563155E+00
 0.2568412306926E+00 -0.4143090664712E+01 -0.1826537229357E+01 -0.1019775190920E+01
 0.1529310037983E+00 -0.4275646808157E+01 -0.1937676423134E+01 -0.1100934936523E+01
-0.2003593966006E+01 -0.2675548446656E+01 -0.2199196928373E+01 -0.4860178247403E+00
-0.1605922544799E+01 -0.2802181805692E+01 -0.2071809039476E+01 -0.4445779091555E+00
-0.1264754858454E+01 -0.2906940969832E+01 -0.1960697034321E+01 -0.4192928766102E+00
-0.9705720745529E+00 -0.2995800086367E+01 -0.1864194910904E+01 -0.4062365307170E+00
-0.7161538286399E+00 -0.3073275792439E+01 -0.1781031917390E+01 -0.4026736091534E+00
-0.4959607890802E+00 -0.3142882657071E+01 -0.1710256415353E+01 -0.4067405836115E+00
-0.3056930620300E+00 -0.3207451052836E+01 -0.1651177729799E+01 -0.4172101621312E+00
-0.1419814113440E+00 -0.3269344850937E+01 -0.1603323339206E+01 -0.4333207716128E+00
-0.2173669357214E-02 -0.3330611009861E+01 -0.1566408795260E+01 -0.4546535482851E+00
 0.1158084181138E+00 -0.3393084275145E+01 -0.1540319648898E+01 -0.4810426921656E+00
 0.2135530419080E+00 -0.3458458035398E+01 -0.1525105343072E+01 -0.5125057764571E+00
 0.2921909828345E+00 -0.3528322940010E+01 -0.1520982016015E+01 -0.5491850849172E+00
 0.3523898571476E+00 -0.3604176780580E+01 -0.1528339850137E+01 -0.5912950154187E+00
 0.3943145597881E+00 -0.3687414463982E+01 -0.1547756951045E+01 -0.6390651717981E+00
 0.4175553525879E+00 -0.3779309476218E+01 -0.1580024434099E+01 -0.6926761001073E+00
 0.4210386219146E+00 -0.3880998323185E+01 -0.1626181055472E+01 -0.7521794282080E+00
 0.4029181729703E+00 -0.3993464950975E+01 -0.1687556981382E+01 -0.8173850011681E+00
 0.3604290261100E+00 -0.4117515032024E+01 -0.1765830418301E+01 -0.8877062978715E+00
 0.2896799465726E+00 -0.4253729432272E+01 -0.1863103253553E+01 -0.9619583373969E+00
 0.1853509735707E+00 -0.4402385169748E+01 -0.1982006067176E+01 -0.1038117619659E+01
-0.2021827277336E+01 -0.2686459110116E+01 -0.2212894596489E+01 -0.4279578940933E+00
-0.1617010404100E+01 -0.2815621221761E+01 -0.2083336858871E+01 -0.3971493460213E+00
-0.1270497804071E+01 -0.2922252963189E+01 -0.1970592855614E+01 -0.3795679238431E+00
-0.9722334600373E+00 -0.3012658704120E+01 -0.1872899312403E+01 -0.3720282094784E+00
-0.7146015184768E+00 -0.3091592908958E+01 -0.1788911376357E+01 -0.3723046634066E+00
-0.4917716465618E+00 -0.3162745868187E+01 -0.1717623227575E+01 -0.3788796546527E+00
-0.2992292779898E+00 -0.3229083769664E+01 -0.1658307128191E+01 -0.3907583759565E+00
-0.1334461189613E+00 -0.3293082483472E+01 -0.1610468439059E+01 -0.4073344767650E+00
 0.8348014345614E-02 -0.3356888381426E+01 -0.1573813968536E+01 -0.4282925693825E+00
 0.1283179364629E+00 -0.3422430584137E+01 -0.1548232940480E+01 -0.4535368496015E+00
 0.2281125600276E+00 -0.3491497287586E+01 -0.1533790818062E+01 -0.4831353103736E+00
 0.3088999968595E+00 -0.3565779367189E+01 -0.1530733300172E+01 -0.5172714154693E+00
 0.3713610795419E+00 -0.3646884753866E+01 -0.1539496123028E+01 -0.5561980732234E+00
 0.4156463436605E+00 -0.3736331351671E+01 -0.1560721949806E+01 -0.6001878891152E+00
 0.4412977823841E+00 -0.3835528578129E+01 -0.1595288469954E+01 -0.6494725203085E+00
 0.4471487553510E+00 -0.3945757809966E+01 -0.1644346251498E+01 -0.7041629583631E+00
 0.4311998454186E+00 -0.4068148466589E+01 -0.1709365847614E+01 -0.7641399598336E+00
 0.3904545661384E+00 -0.4203639825493E+01 -0.1792197067351E+01 -0.8289057880129E+00
 0.3206953510600E+00 -0.4352919081863E+01 -0.1895145148671E+01 -0.8973933905323E+00
 0.2161762035122E+00 -0.4516325017019E+01 -0.2021069937222E+01 -0.9677399677570E+00
-0.2035897608712E+01 -0.2695240256662E+01 -0.2223634791086E+01 -0.3689310721905E+00
-0.1625306904900E+01 -0.2826419144626E+01 -0.2092311237971E+01 -0.3490242964949E+00
-0.1274443765383E+01 -0.2934566092892E+01 -0.1978234628372E+01 -0.3392834585653E+00
-0.9728312567737E+00 -0.3026243994827E+01 -0.1879565363485E+01 -0.3373018629724E+00
-0.7125412615989E+00 -0.3106396144934E+01 -0.1794900576518E+01 -0.3413889922358E+00
-0.4875109413544E+00 -0.3178855392240E+01 -0.1723192172418E+01 -0.3503892310687E+00
-0.2930514449812E+00 -0.3246701234332E+01 -0.1663683755058E+01 -0.3635495711826E+00
-0.1255028777450E+00 -0.3312505888515E+01 -0.1615864116044E+01 -0.3804230962478E+00
 0.1800468069879E-01 -0.3378503799887E+01 -0.1579434582012E+01 -0.4007982691153E+00
 0.1397110546299E+00 -0.3446709928599E+01 -0.1554289466823E+01 -0.4246468733340E+00
 0.2413195960603E+00 -0.3519000561123E+01 -0.1540510049672E+01 -0.4520831335486E+00
 0.3240338894173E+00 -0.3597160887943E+01 -0.1538369685405E+01 -0.4833266553826E+00
 0.3885503941365E+00 -0.3682902863660E+01 -0.1548345656749E+01 -0.5186637811518E+00
 0.4350114123145E+00 -0.3777859890218E+01 -0.1571138780630E+01 -0.5584056551179E+00
 0.4629193245979E+00 -0.3883567315560E+01 -0.1607704551674E+01 -0.6028320931995E+00
 0.4710255757090E+00 -0.4001438582876E+01 -0.1659294109160E+01 -0.6521136063423E+00
 0.4571922971770E+00 -0.4132733257191E+01 -0.1727504246825E+01 -0.7062071303919E+00
 0.4182117064417E+00 -0.4278506805285E+01 -0.1814338691854E+01 -0.7647162483670E+00
 0.3495673686762E+00 -0.4439532897409E+01 -0.1922283793629E+01 -0.8267133362978E+00
 0.2451177235962E+00 -0.4616190072165E+01 -0.2054403998617E+01 -0.8905282793020E+00
-0.2045707375202E+01 -0.2701821354956E+01 -0.2231338497515E+01 -0.3091161300720E+00
-0.1630766537194E+01 -0.2834487079217E+01 -0.2098669194390E+01 -0.3003154323535E+00
-0.1276583820830E+01 -0.2943780256727E+01 -0.1983571111421E+01 -0.2985178614773E+00
-0.9723831564404E+00 -0.3036447013645E+01 -0.1884150175161E+01 -0.3021231806466E+00
-0.7100111808170E+00 -0.3117568056995E+01 -0.1798962237209E+01 -0.3099941456873E+00
-0.4832337498408E+00 -0.3191083835149E+01 -0.1726929260565E+01 -0.3213485403479E+00
-0.2872300995808E+00 -0.3260163158014E+01 -0.1667274826841E+01 -0.3356814969419E+00
-0.1182376859071E+00 -0.3327457553908E+01 -0.1619476758606E+01 -0.3527080818971E+00
 0.2669372790711E-01 -0.3395276809023E+01 -0.1583234044109E+01 -0.3723202368641E+00
 0.1498665857846E+00 -0.3465711740836E+01 -0.1558447218922E+01 -0.3945547492275E+00
 0.2530318649850E+00 -0.3540718509343E+01 -0.1545212718929E+01 -0.4195680099895E+00
 0.3374265930770E+00 -0.3622169185911E+01 -0.1543829014716E+01 -0.4476109461706E+00
 0.4037655616936E+00 -0.3711872152700E+01 -0.1554810093829E+01 -0.4789984010786E+00
 0.4521898564613E+00 -0.3811567489877E+01 -0.1578907483701E+01 -0.5140759398703E+00
 0.4821725613839E+00 -0.3922905537747E+01 -0.1617144494789E+01 -0.5531691798228E+00
 0.4923969575739E+00 -0.4047418805980E+01 -0.1670860264513E+01 -0.5965087988212E+00
 0.4806052222356E+00 -0.4186482751733E+01 -0.1741762434446E+01 -0.6441334228528E+00
 0.4434033955809E+00 -0.4341254478789E+01 -0.1831990004461E+01 -0.6957604120834E+00
 0.3760091081672E+00 -0.4512580097416E+01 -0.1944188360016E+01 -0.7506229001915E+00
 0.2719277894440E+00 -0.4700862037820E+01 -0.2081599091457E+01 -0.8072757223649E+00
-0.2051182141001E+01 -0.2706145982500E+01 -0.2235944212375E+01 -0.2486974733756E+00
-0.1633353761472E+01 -0.2839755349192E+01 -0.2102361276680E+01 -0.2511389602912E+00
-0.1276910279167E+01 -0.2949816699266E+01 -0.1986561674825E+01 -0.2573522931531E+00
-0.9709022964508E+00 -0.3043181529889E+01 -0.1886619393595E+01 -0.2665607365834E+00
-0.7070409982425E+00 -0.3125014802630E+01 -0.1801066221842E+01 -0.2781912788488E+00
-0.4789841126023E+00 -0.3199328295629E+01 -0.1728806827484E+01 -0.2918416422333E+00
-0.2818227889637E+00 -0.3269355012646E+01 -0.1669053562523E+01 -0.3072584458265E+00
-0.1117219029431E+00 -0.3337807665832E+01 -0.1621278893212E+01 -0.3243196601407E+00
 0.3432878811282E-01 -0.3407057494636E+01 -0.1585182488045E+01 -0.3430196611123E+00
 0.1586812642516E+00 -0.3479259939344E+01 -0.1560671973335E+01 -0.3634575689737E+00
 0.2631268424530E+00 -0.3556441480921E+01 -0.1547857876154E+01 -0.3858280796762E+00
 0.3489337778680E+00 -0.3640552260254E+01 -0.1547060682797E+01 -0.4104088830286E+00
 0.4168381739951E+00 -0.3733488175805E+01 -0.1558825496897E+01 -0.4375384996531E+00
 0.4669877843286E+00 -0.3837086025911E+01 -0.1583946169526E+01 -0.4675930141951E+00
 0.4988382530830E+00 -0.3953099408420E+01 -0.1623502738891E+01 -0.5009418091814E+00
 0.5110208457205E+00 -0.4083166802347E+01 -0.1678908595356E+01 -0.5378763687277E+00
 0.5011797412686E+00 -0.4228766405748E+01 -0.1751965727862E+01 -0.5785219734916E+00
 0.4657644381260E+00 -0.4391145472252E+01 -0.1844929081360E+01 -0.6227210188978E+00
 0.3997657527884E+00 -0.4571213975799E+01 -0.1960580659842E+01 -0.6698872624069E+00
 0.2963854428889E+00 -0.4769393039839E+01 -0.2102313565235E+01 -0.7188312979985E+00
-0.2052271296483E+01 -0.2708172318197E+01 -0.2237408493225E+01 -0.1878637223994E+00
-0.1633043143385E+01 -0.2842173774798E+01 -0.2103351946211E+01 -0.2016139494915E+00
-0.1275416489880E+01 -0.2952618787803E+01 -0.1987176575471E+01 -0.2158703684589E+00
-0.9683968531196E+00 -0.3046384885190E+01 -0.1886947412219E+01 -0.2306857617205E+00
-0.7036514541664E+00 -0.3128667104797E+01 -0.1801189718144E+01 -0.2460548535847E+00
-0.4747942840201E+00 -0.3203511486860E+01 -0.1728803707929E+01 -0.2619569302885E+00
-0.2768731318700E+00 -0.3274189382609E+01 -0.1668999377572E+01 -0.2783904450942E+00
-0.1060110871425E+00 -0.3343455785109E+01 -0.1621249425846E+01 -0.2953956136166E+00
 0.4084115528632E-01 -0.3413728600872E+01 -0.1585257095405E+01 -0.3130676084328E+00
 0.1660714792070E+00 -0.3487215618940E+01 -0.1560937741715E+01 -0.3315652149969E+00
 0.2715038319896E+00 -0.3566002930411E+01 -0.1548414572331E+01 -0.3511178577967E+00
 0.3584352494148E+00 -0.3652108705359E+01 -0.1548026520367E+01 -0.3720257375153E+00
 0.4276263345799E+00 -0.3747506285935E+01 -0.1560343573179E+01 -0.3946462926931E+00
 0.4792401694654E+00 -0.3854118227031E+01 -0.1586192683033E+01 -0.4193823248669E+00
 0.5127281280091E+00 -0.3973788898817E+01 -0.1626698558154E+01 -0.4466450386581E+00
 0.5266876324076E+00 -0.4108249459154E+01 -0.1683334054301E+01 -0.4767869076223E+00
 0.5186897775552E+00 -0.4259068584150E+01 -0.1757978034641E+01 -0.5100235370216E+00
 0.4850613424104E+00 -0.4427574829898E+01 -0.1852981334419E+01 -0.5463312657646E+00
 0.4206109127942E+00 -0.4614739090416E+01 -0.1971240238483E+01 -0.5853209653780E+00
 0.3182917848503E+00 -0.4821006579351E+01 -0.2116275948047E+01 -0.6260855794929E+00
-0.2048948527433E+01 -0.2707873566700E+01 -0.2235706378572E+01 -0.1268062338185E+00
-0.1629819432520E+01 -0.2841712216401E+01 -0.2101619869663E+01 -0.1518616323459E+00
-0.1272096684274E+01 -0.2952152620064E+01 -0.1985397168003E+01 -0.1741578089716E+00
-0.9648697181921E+00 -0.3046018658286E+01 -0.1885117532164E+01 -0.1945718838876E+00
-0.6998538477004E+00 -0.3128480993289E+01 -0.1799317370701E+01 -0.2136622885158E+00
-0.4706841382195E+00 -0.3203582594225E+01 -0.1726905359869E+01 -0.2317865537724E+00
-0.2724100706489E+00 -0.3274606998717E+01 -0.1667098018374E+01 -0.2491923312656E+00
-0.1011440601580E+00 -0.3344332138125E+01 -0.1619373809086E+01 -0.2660798997017E+00
 0.4618094884297E-01 -0.3415207178040E+01 -0.1583442323706E+01 -0.2826430835341E+00
 0.1719747064025E+00 -0.3489479171148E+01 -0.1559227094476E+01 -0.2990977621694E+00
 0.2780856936033E+00 -0.3569282136423E+01 -0.1546862324202E+01 -0.3157048807587E+00
 0.3658369729114E+00 -0.3656691151092E+01 -0.1546701459822E+01 -0.3327832569854E+00
 0.4360169384649E+00 -0.3753745912708E+01 -0.1559332613939E+01 -0.3507045040516E+00
 0.4888132935552E+00 -0.3862442882111E+01 -0.1585605902600E+01 -0.3698943481686E+00
 0.5236873047430E+00 -0.3984703933632E+01 -0.1626677811452E+01 -0.3908038183399E+00
 0.5392222241433E+00 -0.4122339175851E+01 -0.1684064963031E+01 -0.4138457578734E+00
 0.5329432703331E+00 -0.4276995870810E+01 -0.1759704717761E+01 -0.4393278358677E+00
 0.5010916864474E+00 -0.4450076985623E+01 -0.1856023085905E+01 -0.4673657892465E+00
 0.4383429320717E+00 -0.4642616110896E+01 -0.1976008389036E+01 -0.4977789798502E+00
 0.3374632169867E+00 -0.4855096435100E+01 -0.2123287607128E+01 -0.5299627564631E+00
-0.2041212065277E+01 -0.2705238307088E+01 -0.2230831669353E+01 -0.6571757742179E-01
-0.1623677582624E+01 -0.2838360973215E+01 -0.2097158115925E+01 -0.1020046819201E+00
-0.1266945850959E+01 -0.2948407453162E+01 -0.1981216047911E+01 -0.1323020758529E+00
-0.9603182658526E+00 -0.3042069124561E+01 -0.1881122068723E+01 -0.1582948423454E+00
-0.6956497098602E+00 -0.3124438308794E+01 -0.1795441364214E+01 -0.1810935708886E+00
-0.4666607455467E+00 -0.3199517850379E+01 -0.1723103935715E+01 -0.2014257813696E+00
-0.2684473325480E+00 -0.3270577429089E+01 -0.1663341633751E+01 -0.2197827375291E+00
-0.9714222080596E-01 -0.3340398488770E+01 -0.1615644129403E+01 -0.2365211432417E+00
 0.5031798717023E-01 -0.3411445719229E+01 -0.1579730030061E+01 -0.2519309162171E+00
 0.1763506095545E+00 -0.3485991782404E+01 -0.1555531347294E+01 -0.2662826520833E+00
 0.2828202052181E+00 -0.3566206164622E+01 -0.1543191397006E+01 -0.2798660660926E+00
 0.3710726979953E+00 -0.3654208789555E+01 -0.1543073959119E+01 -0.2930151199677E+00
 0.4419275367938E+00 -0.3752093750092E+01 -0.1555778116304E+01 -0.3061108255508E+00
 0.4956067986743E+00 -0.3861918779761E+01 -0.1582166627098E+01 -0.3195980044817E+00
 0.5315964046258E+00 -0.3985669133536E+01 -0.1623414178470E+01 -0.3339654214045E+00
 0.5484859614988E+00 -0.4125219344008E+01 -0.1681064685515E+01 -0.3496846707987E+00
 0.5437834252052E+00 -0.4282283002319E+01 -0.1757094796787E+01 -0.3671548381116E+00
 0.5136839740916E+00 -0.4458331391721E+01 -0.1853984281583E+01 -0.3866321725156E+00
 0.4527826338326E+00 -0.4654465543624E+01 -0.1974790962593E+01 -0.4081493913206E+00
 0.3537256523704E+00 -0.4871226952072E+01 -0.2123225605474E+01 -0.4314158986803E+00
-0.2029084703993E+01 -0.2700270752729E+01 -0.2222797059022E+01 -0.4789994921298E-02
-0.1614622711931E+01 -0.2832131031543E+01 -0.2089974254132E+01 -0.5216648023043E-01
-0.1259959644896E+01 -0.2941395945208E+01 -0.1974637122340E+01 -0.9039199443421E-01
-0.9547342138659E+00 -0.3034547503634E+01 -0.1874962402469E+01 -0.1219321910334E+00
-0.6910306151995E+00 -0.3116546960798E+01 -0.1789561456180E+01 -0.1484308515208E+00
-0.4627181293636E+00 -0.3191320814429E+01 -0.1717398299227E+01 -0.1709723362160E+00
-0.2649831140377E+00 -0.3262099407080E+01 -0.1657728780721E+01 -0.1902830316338E+00
-0.9400912588524E-01 -0.3331648564061E+01 -0.1610059110191E+01 -0.2068710492299E+00
 0.5324234980731E-01 -0.3402432750843E+01 -0.1574119484494E+01 -0.2211195296434E+00
 0.1791817876017E+00 -0.3476736268112E+01 -0.1549850601909E+01 -0.2333517043225E+00
 0.2856810323220E+00 -0.3556751026483E+01 -0.1537402893356E+01 -0.2438838624066E+00
 0.3741051602400E+00 -0.3644628930587E+01 -0.1537146168164E+01 -0.2530621361940E+00
 0.4453077668093E+00 -0.3742505784490E+01 -0.1549683064379E+01 -0.2612720730752E+00
 0.4995553446379E+00 -0.3852487303918E+01 -0.1575878016864E+01 -0.2689737191693E+00
 0.5363733946458E+00 -0.3976607076422E+01 -0.1616909826334E+01 -0.2766914914384E+00
 0.5543784955634E+00 -0.4116788333517E+01 -0.1674332619591E+01 -0.2849531166060E+00
 0.5510902894241E+00 -0.4274797465739E+01 -0.1750142368429E+01 -0.2942458778611E+00
 0.5226984226336E+00 -0.4452167179078E+01 -0.1846850310845E+01 -0.3049627435653E+00
 0.4637725918558E+00 -0.4650071478611E+01 -0.1967560471784E+01 -0.3173470481556E+00
 0.3669119099035E+00 -0.4869134368214E+01 -0.2116044550039E+01 -0.3314238672972E+00
-0.2012613620601E+01 -0.2692990959207E+01 -0.2211634146900E+01  0.5578617555833E-01
-0.1602670010602E+01 -0.2823054167787E+01 -0.2080090358567E+01 -0.2470358821222E-02
-0.1251134346961E+01 -0.2931154223735E+01 -0.1965675623242E+01 -0.4851735487875E-01
-0.9481035927486E+00 -0.3023490006155E+01 -0.1866648986750E+01 -0.8556298451965E-01
-0.6859781472323E+00 -0.3104840948078E+01 -0.1781684970277E+01 -0.1157580288485E+00
-0.4588372201443E+00 -0.3179022357836E+01 -0.1709793997314E+01 -0.1405257204250E+00
-0.2620000080622E+00 -0.3249200791151E+01 -0.1650264371445E+01 -0.1608162333294E+00
-0.9173036075066E-01 -0.3318108020401E+01 -0.1602624035077E+01 -0.1772827740326E+00
 0.5496460329207E-01 -0.3388192857551E+01 -0.1566617275528E+01 -0.1903986378663E+00
 0.1804741413456E+00 -0.3461737218879E+01 -0.1542193642529E+01 -0.2005380232296E+00
 0.2866682785830E+00 -0.3540942007544E+01 -0.1529508648732E+01 -0.2080422606092E+00
 0.3749268297780E+00 -0.3627977554854E+01 -0.1528933836908E+01 -0.2132672773993E+00
 0.4461403133381E+00 -0.3725008122408E+01 -0.1541067866354E+01 -0.2165981342165E+00
 0.5006298401624E+00 -0.3834173627239E+01 -0.1566765575952E+01 -0.2185062166310E+00
 0.5379751499037E+00 -0.3957539999802E+01 -0.1607195475376E+01 -0.2195497525896E+00
 0.5568396853835E+00 -0.4097061896681E+01 -0.1663904435089E+01 -0.2203092041921E+00
 0.5547828316692E+00 -0.4254542766706E+01 -0.1738887165057E+01 -0.2213544322162E+00
 0.5280288239551E+00 -0.4431567207039E+01 -0.1834663035396E+01 -0.2232062804596E+00
 0.4711783169182E+00 -0.4629385709850E+01 -0.1954357469721E+01 -0.2263075967118E+00
 0.3768619590989E+00 -0.4848730220253E+01 -0.2101778077412E+01 -0.2309892038925E+00
-0.1991869868535E+01 -0.2683434859094E+01 -0.2197393216412E+01  0.1158240577975E+00
-0.1587844545784E+01 -0.2811182861042E+01 -0.2067542875964E+01  0.4696116031697E-01
-0.1240466816613E+01 -0.2917741735771E+01 -0.1954358014663E+01 -0.6768509026870E-02
-0.9404067767352E+00 -0.3008957648653E+01 -0.1856201275224E+01 -0.4926746738071E-01
-0.6804639775927E+00 -0.3089380114056E+01 -0.1771826718581E+01 -0.8316034991628E-01
-0.4549859750579E+00 -0.3162680327928E+01 -0.1700303158091E+01 -0.1101865657798E+00
-0.2594651508313E+00 -0.3231938122782E+01 -0.1640959534436E+01 -0.1315059559457E+00
-0.9027368378231E-01 -0.3299833911180E+01 -0.1593350565591E+01 -0.1479093061497E+00
 0.5551570091549E-01 -0.3368786098329E+01 -0.1557237082835E+01 -0.1599569293391E+00
 0.1802568658234E+00 -0.3441060414916E+01 -0.1532577664187E+01 -0.1680728634436E+00
 0.2858086206445E+00 -0.3518853123971E+01 -0.1519530912710E+01 -0.1726227389914E+00
 0.3735602026732E+00 -0.3604338823404E+01 -0.1518465947892E+01 -0.1739706251987E+00
 0.4444413845833E+00 -0.3699696565668E+01 -0.1529969931229E+01 -0.1724958031921E+00
 0.4988382114644E+00 -0.3807086428726E+01 -0.1554876658169E+01 -0.1686771353446E+00
 0.5363986910609E+00 -0.3928589823717E+01 -0.1594329828305E+01 -0.1631054270689E+00
 0.5558515043117E+00 -0.4066173803853E+01 -0.1649851476600E+01 -0.1564101408696E+00
 0.5548216061428E+00 -0.4221660166136E+01 -0.1723414118825E+01 -0.1492362647463E+00
 0.5296057017285E+00 -0.4396671437519E+01 -0.1817520891212E+01 -0.1422190603682E+00
 0.4748912547015E+00 -0.4592532754648E+01 -0.1935291500066E+01 -0.1359811280074E+00
 0.3834263162145E+00 -0.4810106867875E+01 -0.2080539854003E+01 -0.1311357769094E+00
-0.1966947738050E+01 -0.2671654283930E+01 -0.2180142944801E+01  0.1751417547039E+00
-0.1570181040824E+01 -0.2796590085675E+01 -0.2052382424249E+01  0.9600711365082E-01
-0.1227954519077E+01 -0.2901240966840E+01 -0.1940721873459E+01  0.3476402886310E-01
-0.9316186403483E+00 -0.2991035918549E+01 -0.1843647638006E+01 -0.1312678313523E-01
-0.6744501141285E+00 -0.3070249711655E+01 -0.1760008913654E+01 -0.5072405812717E-01
-0.4511197131111E+00 -0.3142378950422E+01 -0.1688944367577E+01 -0.8005605404572E-01
-0.2573306370926E+00 -0.3210395830197E+01 -0.1629831435492E+01 -0.1024754267518E+00
-0.8958949346849E-01 -0.3276913691561E+01 -0.1582256492951E+01 -0.1189019198616E+00
 0.5494650955790E-01 -0.3344306840360E+01 -0.1545999351556E+01 -0.1299798070243E+00
 0.1785820250487E+00 -0.3414811533042E+01 -0.1521027864899E+01 -0.1361825324550E+00
 0.2831549868190E+00 -0.3490605739068E+01 -0.1507501849734E+01 -0.1379002322567E+00
 0.3700575882029E+00 -0.3573853584422E+01 -0.1505784114404E+01 -0.1355043479859E+00
 0.4402606358949E+00 -0.3666734970108E+01 -0.1516442933234E+01 -0.1293626381832E+00
 0.4942256179319E+00 -0.3771416139758E+01 -0.1540279541351E+01 -0.1199576074049E+00
 0.5316819441103E+00 -0.3889976462833E+01 -0.1578398419796E+01 -0.1079124864584E+00
 0.5514397667697E+00 -0.4024374556518E+01 -0.1632279347042E+01 -0.9390227053294E-01
 0.5512118867002E+00 -0.4176428519264E+01 -0.1703851812984E+01 -0.7863873380914E-01
 0.5274009150744E+00 -0.4347779148857E+01 -0.1795577765323E+01 -0.6285463643477E-01
 0.4748338707422E+00 -0.4539815797275E+01 -0.1910541500624E+01 -0.4732457519806E-01
 0.3864715813781E+00 -0.4753546841519E+01 -0.2052525367060E+01 -0.3290595163706E-01
-0.1937963812836E+01 -0.2657716812575E+01 -0.2159969888465E+01  0.2335638487149E+00
-0.1549723556419E+01 -0.2779368920790E+01 -0.2034673459128E+01  0.1445488649706E+00
-0.1213595547306E+01 -0.2881756984856E+01 -0.1924815685234E+01  0.7599000578171E-01
-0.9217087712102E+00 -0.2969834271536E+01 -0.1829025225452E+01  0.2277730930753E-01
-0.6678892533990E+00 -0.3047559764076E+01 -0.1746261033784E+01 -0.1853609671674E-01
-0.4471816103998E+00 -0.3118227953046E+01 -0.1675742490569E+01 -0.5023543369118E-01
-0.2555341607582E+00 -0.3184685055889E+01 -0.1616903027723E+01 -0.7384662581199E-01
-0.8961158635161E-01 -0.3249463735306E+01 -0.1569365397199E+01 -0.9040875085339E-01
 0.5332698848626E-01 -0.3314881982498E+01 -0.1532930843297E+01 -0.1006472406430E+00
 0.1755237349089E+00 -0.3383134118056E+01 -0.1507576876255E+01 -0.1050853894072E+00
 0.2787858082613E+00 -0.3456366329328E+01 -0.1493462841113E+01 -0.1041391905687E+00
 0.3645004097713E+00 -0.3536716896745E+01 -0.1490941745096E+01 -0.9818779715889E-01
 0.4336805269491E+00 -0.3626352422403E+01 -0.1500555787057E+01 -0.8758096818092E-01
 0.4868740589233E+00 -0.3727431720490E+01 -0.1523062097073E+01 -0.7280095557368E-01
 0.5239039315317E+00 -0.3842014341602E+01 -0.1559511888777E+01 -0.5450488689360E-01
 0.5436753378769E+00 -0.3972028116151E+01 -0.1611325801702E+01 -0.3341082577093E-01
 0.5440069160397E+00 -0.4119261709757E+01 -0.1680369748785E+01 -0.1028923633527E-01
 0.5214336461323E+00 -0.4285348836995E+01 -0.1769040135219E+01  0.1404826095857E-01
 0.4709674088566E+00 -0.4471722259817E+01 -0.1880354775182E+01  0.3870877306476E-01
 0.3858859643363E+00 -0.4679537682067E+01 -0.2018016302215E+01  0.6264595925677E-01
-0.1905055766121E+01 -0.2641705450867E+01 -0.2136977766564E+01  0.2909228403030E+00
-0.1526525082645E+01 -0.2759631973450E+01 -0.2014493811255E+01  0.1924708883512E+00
-0.1197388655682E+01 -0.2859416862559E+01 -0.1906698588737E+01  0.1168198799338E+00
-0.9106417419892E+00 -0.2945485531774E+01 -0.1812379814072E+01  0.5836269905336E-01
-0.6607252319821E+00 -0.3021444280400E+01 -0.1730619666430E+01  0.1331609884756E-01
-0.4431033494554E+00 -0.3090361448651E+01 -0.1660728450898E+01 -0.2082567964135E-01
-0.2539998817373E+00 -0.3154942133999E+01 -0.1602202743332E+01 -0.4573959683620E-01
-0.9025821862573E-01 -0.3217627387055E+01 -0.1554706230727E+01 -0.6257355295278E-01
 0.5074500409817E-01 -0.3280668579240E+01 -0.1518064076466E+01 -0.7213179347941E-01
 0.1711769441496E+00 -0.3346206816170E+01 -0.1492264036065E+01 -0.7498899740231E-01
 0.2728038548703E+00 -0.3416343401817E+01 -0.1477463583317E+01 -0.7158977538154E-01
 0.3569980254746E+00 -0.3493174627214E+01 -0.1474002999079E+01 -0.6232278232056E-01
 0.4248150743386E+00 -0.3578839347112E+01 -0.1482391404443E+01 -0.4751215551782E-01
 0.4769012716549E+00 -0.3675476051904E+01 -0.1503330142904E+01 -0.2763566448139E-01
 0.5131842515501E+00 -0.3785107046888E+01 -0.1537803709909E+01 -0.3387941603357E-02
 0.5326747224869E+00 -0.3909606379794E+01 -0.1587157874909E+01  0.2447050291366E-01
 0.5333100148650E+00 -0.4050704071266E+01 -0.1653175202315E+01  0.5511696987749E-01
 0.5117771461075E+00 -0.4209993980240E+01 -0.1738161907634E+01  0.8767986045955E-01
 0.4633022556255E+00 -0.4388925460728E+01 -0.1845042901719E+01  0.1211846043778E+00
 0.3815826331862E+00 -0.4588789362877E+01 -0.1977387157939E+01  0.1544681637153E+00
-0.1868380840654E+01 -0.2623718031358E+01 -0.2111286464491E+01  0.3470605561007E+00
-0.1500647033004E+01 -0.2737510587807E+01 -0.1991934076729E+01  0.2396616393216E+00
-0.1179333294722E+01 -0.2834369030984E+01 -0.1886440088297E+01  0.1571653644209E+00
-0.8983774230155E+00 -0.2918145278164E+01 -0.1793765665005E+01  0.9354719250966E-01
-0.6528935485881E+00 -0.2992060377087E+01 -0.1713128340722E+01  0.4474470651815E-01
-0.4388058904415E+00 -0.3058936581313E+01 -0.1643938957555E+01  0.8072675279786E-02
-0.2526395064630E+00 -0.3121326717471E+01 -0.1585764121227E+01 -0.1827196233833E-01
-0.9143347526707E-01 -0.3181572555135E+01 -0.1538312830387E+01 -0.3553467691820E-01
 0.4730475399600E-01 -0.3241850868868E+01 -0.1501436670182E+01 -0.4459687741676E-01
 0.1656558021973E+00 -0.3304239822165E+01 -0.1475134485643E+01 -0.4608747835529E-01
 0.2653346701139E+00 -0.3370783500855E+01 -0.1459560946746E+01 -0.4048421206009E-01
 0.3476861268751E+00 -0.3443519097981E+01 -0.1455041492729E+01 -0.2818903244505E-01
 0.4138079708287E+00 -0.3524542705122E+01 -0.1462045321409E+01 -0.9491182731704E-02
 0.4644587773757E+00 -0.3615960146033E+01 -0.1481205639512E+01  0.1514117710678E-01
 0.4996816292355E+00 -0.3719740057872E+01 -0.1513427457621E+01  0.4496990213900E-01
 0.5185999065678E+00 -0.3837680894129E+01 -0.1559968060197E+01  0.7919006577378E-01
 0.5192759905026E+00 -0.3971423003200E+01 -0.1622509091853E+01  0.1169294998195E+00
 0.4985604599247E+00 -0.4122478547281E+01 -0.1703241496738E+01  0.1572740712075E+00
 0.4519117496001E+00 -0.4292272552070E+01 -0.1804969572583E+01  0.1992079118018E+00
 0.3734998153152E+00 -0.4482241208001E+01 -0.1931108449664E+01  0.2415400653264E+00
-0.1828114016864E+01 -0.2603866211050E+01 -0.2083030701836E+01  0.4018295133392E+00
-0.1472158662474E+01 -0.2713153810219E+01 -0.1967096857176E+01  0.2860145722778E+00
-0.1159429693898E+01 -0.2806782736974E+01 -0.1864119837781E+01  0.1969401101117E+00
-0.8848713749412E+00 -0.2887991456129E+01 -0.1773245526105E+01  0.1282487491358E+00
-0.6443219317220E+00 -0.2959587415108E+01 -0.1693837388714E+01  0.7566142268449E-01
-0.4342003514168E+00 -0.3024131991625E+01 -0.1625416197107E+01  0.3635943618026E-01
-0.2513535663815E+00 -0.3084019604510E+01 -0.1567625386343E+01  0.8441267669677E-02
-0.9302897509472E-01 -0.3141488973860E+01 -0.1520223432153E+01 -0.9424375096368E-02
 0.4312477337946E-01 -0.3198636828948E+01 -0.1483090662356E+01 -0.1819537746784E-01
 0.1590915443462E+00 -0.3257470647536E+01 -0.1456238174806E+01 -0.1855923457905E-01
 0.2565246626673E+00 -0.3319966250530E+01 -0.1439817542644E+01 -0.1103341737473E-01
 0.3367247940671E+00 -0.3388083846424E+01 -0.1434138750970E+01  0.3960099124633E-02
 0.4008302631258E+00 -0.3463860522180E+01 -0.1439624218104E+01  0.2617834909248E-01
 0.4497288538445E+00 -0.3549357028580E+01 -0.1456825238430E+01  0.5516960507921E-01
 0.4835911754534E+00 -0.3646472056727E+01 -0.1486554010428E+01  0.9014418742790E-01
 0.5016572194928E+00 -0.3756911269907E+01 -0.1529969399814E+01  0.1302482253871E+00
 0.5021125227108E+00 -0.3882197349396E+01 -0.1588639864513E+01  0.1745563630627E+00
 0.4819695661583E+00 -0.4023710853437E+01 -0.1664618400799E+01  0.2221232839106E+00
 0.4369205054683E+00 -0.4182784110046E+01 -0.1760555889686E+01  0.2719381491007E+00
 0.3616376173529E+00 -0.4360993884060E+01 -0.1879697440585E+01  0.3229058462253E+00
-0.1784445306332E+01 -0.2582273277987E+01 -0.2052357729424E+01  0.4550942457960E+00
-0.1441136164753E+01 -0.2686726763318E+01 -0.1940095571272E+01  0.3314295349591E+00
-0.1137678953708E+01 -0.2776847872347E+01 -0.1839827603579E+01  0.2360607007816E+00
-0.8700751146381E+00 -0.2855224358014E+01 -0.1750890747706E+01  0.1623856765131E+00
-0.6349308213595E+00 -0.2924226174943E+01 -0.1672803784020E+01  0.1059770768471E+00
-0.4291887378026E+00 -0.2986145807458E+01 -0.1605207232201E+01  0.6393433633961E-01
-0.2500328125578E+00 -0.3043220188113E+01 -0.1547828906389E+01  0.3428763295564E-01
-0.9492579974305E-01 -0.3097585103634E+01 -0.1500480120781E+01  0.1563159550033E-01
 0.3833553193808E-01 -0.3151254321833E+01 -0.1463071827540E+01  0.6931326061291E-02
 0.1516299447764E+00 -0.3206159091693E+01 -0.1435628695410E+01  0.7434903859746E-02
 0.2465386942015E+00 -0.3264198334571E+01 -0.1418300027376E+01  0.1657607670151E-01
 0.3242966793561E+00 -0.3327236692375E+01 -0.1411381802539E+01  0.3390190525531E-01
 0.3860776748010E+00 -0.3397235876167E+01 -0.1415244351053E+01  0.5922919117763E-01
 0.4329209944172E+00 -0.3476195616827E+01 -0.1430339068905E+01  0.9213184702429E-01
 0.4651390415874E+00 -0.3565926900499E+01 -0.1457370289992E+01  0.1317597627055E+00
 0.4820945794727E+00 -0.3668029325623E+01 -0.1497389326893E+01  0.1772056803015E+00
 0.4820818933549E+00 -0.3783897688361E+01 -0.1551853419717E+01  0.2274785383926E+00
 0.4622545198987E+00 -0.3914730243793E+01 -0.1622663586114E+01  0.2815968374508E+00
 0.4185046226125E+00 -0.4061660184663E+01 -0.1712283109821E+01  0.3385924812457E+00
 0.3460683723913E+00 -0.4226307157815E+01 -0.1823712224523E+01  0.3976179250219E+00
-0.1737575789894E+01 -0.2559069698000E+01 -0.2019423374188E+01  0.5067328078465E+00
-0.1407662003001E+01 -0.2658408833458E+01 -0.1911053288289E+01  0.3758150809060E+00
-0.1114083211318E+01 -0.2744775841214E+01 -0.1813663750090E+01  0.2744482766092E+00
-0.8539370050574E+00 -0.2820068466225E+01 -0.1726782567123E+01  0.1958765926300E+00
-0.6246334213109E+00 -0.2886197736271E+01 -0.1650090639878E+01  0.1356006115279E+00
-0.4236648466205E+00 -0.2945193291437E+01 -0.1583363320871E+01  0.9069619944430E-01
-0.2485596433489E+00 -0.2999143408797E+01 -0.1526420430637E+01  0.5915691318564E-01
-0.9699700482739E-01 -0.3050085318560E+01 -0.1479128688241E+01  0.3951401408087E-01
 0.3307661191327E-01 -0.3099947114808E+01 -0.1441429132705E+01  0.3065371271374E-01
 0.1434280589910E+00 -0.3150581811897E+01 -0.1413362260281E+01  0.3175279499980E-01
 0.2355571509883E+00 -0.3203806351240E+01 -0.1395077120580E+01  0.4218458026710E-01
 0.3106041868384E+00 -0.3261371736331E+01 -0.1386860744744E+01  0.6144825291727E-01
 0.3697701866415E+00 -0.3325147330885E+01 -0.1389027254271E+01  0.8943598705666E-01
 0.4142663605862E+00 -0.3397058369373E+01 -0.1401912240574E+01  0.1257572281750E+00
 0.4445763444176E+00 -0.3478787506577E+01 -0.1426079242598E+01  0.1694933361241E+00
 0.4601910722839E+00 -0.3571825953233E+01 -0.1462468390337E+01  0.2196866610961E+00
 0.4595040039686E+00 -0.3677450616283E+01 -0.1512434903952E+01  0.2752629671795E+00
 0.4397432813269E+00 -0.3796677632411E+01 -0.1577759141008E+01  0.3351678469572E+00
 0.3969286326087E+00 -0.3930278933139E+01 -0.1660674637037E+01  0.3984712317010E+00
 0.3269382475402E+00 -0.4079699871678E+01 -0.1763797958871E+01  0.4647404045395E+00
-0.1687711124447E+01 -0.2534383813946E+01 -0.1984384616012E+01  0.5566386106862E+00
-0.1371821364330E+01 -0.2628387879233E+01 -0.1880098339706E+01  0.4190933304750E+00
-0.1088648900054E+01 -0.2710806956978E+01 -0.1785744248276E+01  0.3120315017961E+00
-0.8364010810517E+00 -0.2782774598592E+01 -0.1701012565118E+01  0.2286395506292E+00
-0.6133363889492E+00 -0.2845743050341E+01 -0.1625767332343E+01  0.1644368933654E+00
-0.4175132601716E+00 -0.2901501069277E+01 -0.1559936730884E+01  0.1165417500686E+00
-0.2468104686599E+00 -0.2952017191088E+01 -0.1503448996268E+01  0.8294105970348E-01
-0.9910987331730E-01 -0.2999226976688E+01 -0.1456218315809E+01  0.6211005679910E-01
 0.2749314046532E-01 -0.3044971509556E+01 -0.1418214829876E+01  0.5285379031426E-01
 0.1346509386459E+00 -0.3091025715738E+01 -0.1389496141709E+01  0.5427123605433E-01
 0.2237720147620E+00 -0.3139128755764E+01 -0.1370217664796E+01  0.6566102814260E-01
 0.2958664151979E+00 -0.3190898975393E+01 -0.1360665299840E+01  0.8644904764219E-01
 0.3521482940420E+00 -0.3248098771423E+01 -0.1361096720917E+01  0.1166210739869E+00
 0.3940272137113E+00 -0.3312564319808E+01 -0.1371712436386E+01  0.1558312828883E+00
 0.4221554286232E+00 -0.3385819247790E+01 -0.1392921991475E+01  0.2030740494384E+00
 0.4362506929416E+00 -0.3469132462850E+01 -0.1425454428242E+01  0.2573718304932E+00
 0.4347380823847E+00 -0.3563802585429E+01 -0.1470660312701E+01  0.3175659345299E+00
 0.4148731397954E+00 -0.3670711108087E+01 -0.1530243841216E+01  0.3824485567421E+00
 0.3725745981886E+00 -0.3790188547687E+01 -0.1606278552190E+01  0.4510225620773E+00
 0.3044601517436E+00 -0.3923049233398E+01 -0.1700736864064E+01  0.5234286429029E+00
-0.1635031013158E+01 -0.2508300526293E+01 -0.1947365818603E+01  0.6047266373701E+00
-0.1333712165180E+01 -0.2596870014795E+01 -0.1847373619903E+01  0.4612118941878E+00
-0.1061380762520E+01 -0.2675215764397E+01 -0.1756200363197E+01  0.3487519019937E+00
-0.8174175311321E+00 -0.2743640828770E+01 -0.1673697424909E+01  0.2605882974740E+00
-0.6009297227851E+00 -0.2803108145636E+01 -0.1599897794100E+01  0.1923813198486E+00
-0.4106129549038E+00 -0.2855303041106E+01 -0.1534980514231E+01  0.1413650549170E+00
-0.2446560264302E+00 -0.2902077569469E+01 -0.1478964786322E+01  0.1055349266880E+00
-0.1011312406560E+00 -0.2945262202178E+01 -0.1431804914500E+01  0.8331287373190E-01
 0.2173398562096E-01 -0.2986591450022E+01 -0.1393483004734E+01  0.7342350039860E-01
 0.1254658168800E+00 -0.3027783075433E+01 -0.1364089108060E+01  0.7488472776911E-01
 0.2113838775333E+00 -0.3070504596056E+01 -0.1343786734297E+01  0.8690356802093E-01
 0.2803133264111E+00 -0.3116234217683E+01 -0.1332882815517E+01  0.1087947842857E+00
 0.3334694540942E+00 -0.3166605346181E+01 -0.1331573865903E+01  0.1406590209116E+00
 0.3724893956285E+00 -0.3223358605083E+01 -0.1339908525045E+01  0.1822058394530E+00
 0.3981943364588E+00 -0.3287817322929E+01 -0.1358122800196E+01  0.2323037999667E+00
 0.4104539912539E+00 -0.3361000106443E+01 -0.1386756670622E+01  0.2899681423276E+00
 0.4082427816948E+00 -0.3443755187742E+01 -0.1426690827223E+01  0.3540980479117E+00
 0.3881726243210E+00 -0.3537894249188E+01 -0.1480369159933E+01  0.4232325596213E+00
 0.3460056326179E+00 -0.3643007898356E+01 -0.1549591060966E+01  0.4959442922202E+00
 0.2789879728213E+00 -0.3758669561929E+01 -0.1635450342732E+01  0.5729888910682E+00
-0.1579690173029E+01 -0.2480833648255E+01 -0.1908446191163E+01  0.6509372644221E+00
-0.1293359094667E+01 -0.2563978580043E+01 -0.1812948702515E+01  0.5021828474892E+00
-0.1032392253050E+01 -0.2638484514463E+01 -0.1725312076355E+01  0.3845738734772E+00
-0.7968796992532E+00 -0.2702956467592E+01 -0.1644922994245E+01  0.2916094325891E+00
-0.5872933585770E+00 -0.2758534099157E+01 -0.1572538901146E+01  0.2193164710155E+00
-0.4028397566590E+00 -0.2806834308744E+01 -0.1508546806913E+01  0.1650589195463E+00
-0.2419678711846E+00 -0.2849569846043E+01 -0.1453022723411E+01  0.1268369545198E+00
-0.1029164852712E+00 -0.2888444208932E+01 -0.1405939522709E+01  0.1030236840857E+00
 0.1592779978181E-01 -0.2925103388905E+01 -0.1367312523420E+01  0.9226049785730E-01
 0.1160525047827E+00 -0.2961124837009E+01 -0.1337183992755E+01  0.9350037608791E-01
 0.1985942655733E+00 -0.2998264542328E+01 -0.1315845026737E+01  0.1058414398092E+00
 0.2641763799954E+00 -0.3037793062908E+01 -0.1303599837662E+01  0.1284176566837E+00
 0.3140028384062E+00 -0.3081176439590E+01 -0.1300571589258E+01  0.1614789783165E+00
 0.3499596754738E+00 -0.3130090497141E+01 -0.1306661482869E+01  0.2048057690915E+00
 0.3730412403282E+00 -0.3185609388255E+01 -0.1321907026173E+01  0.2570819250599E+00
 0.3832372189651E+00 -0.3248433454245E+01 -0.1346642227166E+01  0.3172800949606E+00
 0.3795998263892E+00 -0.3319079849514E+01 -0.1381555607365E+01  0.3844117305500E+00
 0.3610803446934E+00 -0.3397782708328E+01 -0.1427250107288E+01  0.4574384786581E+00
 0.3179543242867E+00 -0.3490298369008E+01 -0.1491001697237E+01  0.5335354817263E+00
 0.2506066071259E+00 -0.3590132367377E+01 -0.1569577103337E+01  0.6130341967329E+00
-0.1520553354269E+01 -0.2450426369187E+01 -0.1866360465290E+01  0.6954668539605E+00
-0.1251575885442E+01 -0.2530900254913E+01 -0.1777763781458E+01  0.5422732644690E+00
-0.1001549793148E+01 -0.2601061063072E+01 -0.1693227098128E+01  0.4193947945107E+00
-0.7746503328511E+00 -0.2660984798685E+01 -0.1614748507727E+01  0.3215408614747E+00
-0.5722937288231E+00 -0.2712226860322E+01 -0.1543724672983E+01  0.2451155063019E+00
-0.3940748916573E+00 -0.2756332934448E+01 -0.1480691674514E+01  0.1875213691938E+00
-0.2386256855751E+00 -0.2794757090128E+01 -0.1425689900964E+01  0.1467485945591E+00
-0.1043231326044E+00 -0.2829029001987E+01 -0.1378675499761E+01  0.1211492828215E+00
 0.1026183313572E-01 -0.2860761864651E+01 -0.1339735011414E+01  0.1092821127788E+00
 0.1064348948975E+00 -0.2891492316625E+01 -0.1308976984892E+01  0.1100097856200E+00
 0.1857458036822E+00 -0.2922508367094E+01 -0.1286278401541E+01  0.1224256552933E+00
 0.2476827020617E+00 -0.2955995014730E+01 -0.1272906783726E+01  0.1453313758480E+00
 0.2938726328905E+00 -0.2992500872868E+01 -0.1268355269572E+01  0.1790370594991E+00
 0.3269007412817E+00 -0.3033181793809E+01 -0.1271952091462E+01  0.2236208128944E+00
 0.3470543270161E+00 -0.3080043063120E+01 -0.1284504702711E+01  0.2774425202224E+00
 0.3549695785797E+00 -0.3132626089791E+01 -0.1305498556958E+01  0.3392758181084E+00
 0.3498321701102E+00 -0.3190801869245E+01 -0.1335255755207E+01  0.4082163962667E+00
 0.3295758258300E+00 -0.3255251642247E+01 -0.1375067630229E+01  0.4838236389702E+00
 0.2968195794031E+00 -0.3322800849866E+01 -0.1422211193510E+01  0.5650331587241E+00
 0.2207138759274E+00 -0.3424944732437E+01 -0.1505988498740E+01  0.6441496671441E+00
-0.3726483567199E+01 -0.6497308793652E+01 -0.4805182397412E+01 -0.5628046779293E+00
 0.1708176365083E+00 -0.9090535955214E+00 -0.3469708998561E+00  0.4679161820702E+00
 0.7857284285311E-01 -0.1435768855369E+00 -0.3055189998391E-01  0.1665303296909E+00
 0.1273564343514E+00  0.1334601580599E+00  0.1225837981224E+00 -0.1109883858607E-01
 0.1076877340071E+00  0.2501720963452E+00  0.1681941198390E+00 -0.8918148198658E-01
 0.8208017688866E-01  0.3138070779839E+00  0.1860670093182E+00 -0.1168719852766E+00
 0.5803198719773E-01  0.3548172651010E+00  0.1940391480882E+00 -0.1170826939702E+00
 0.3836462801044E-01  0.3823316146393E+00  0.1977272335439E+00 -0.1018613912134E+00
 0.2188722241065E-01  0.3964811151407E+00  0.1966331181504E+00 -0.7816782263602E-01
 0.9604245267370E-02  0.3982328459955E+00  0.1916834324073E+00 -0.4841896076559E-01
 0.6349108069039E-02  0.3904577000832E+00  0.1864991993585E+00 -0.1519617894200E-01
 0.2139438751277E-02  0.3594596823279E+00  0.1699515864762E+00  0.1935714880448E-01
 0.7127191456390E-02  0.3135443253295E+00  0.1507156125071E+00  0.6264674210641E-01
 0.3438967002070E-01  0.2724567955222E+00  0.1442178384394E+00  0.1088986260510E+00
 0.8394165320146E-01  0.2417027251463E+00  0.1530528574352E+00  0.1484863846577E+00
 0.1447911824467E+00  0.2161117858773E+00  0.1696243946821E+00  0.1792112748460E+00
 0.2076089967723E+00  0.1938498658702E+00  0.1886856649634E+00  0.2008522557726E+00
 0.2661430951369E+00  0.1697674485200E+00  0.2048779549991E+00  0.2133833966181E+00
 0.3208430179193E+00  0.1411569079647E+00  0.2171399646148E+00  0.2166987438458E+00
 0.3649735336913E+00  0.8580463240241E-01  0.2118657375267E+00  0.2177108525845E+00
-0.1483073058503E+01 -0.4355352458996E+01 -0.2744059986265E+01 -0.9668640001775E+00
-0.4736239831827E+00 -0.2517957850491E+01 -0.1406043458261E+01  0.5001815279497E-01
 0.1142061063350E+00 -0.6928017879419E+00 -0.2719399696655E+00  0.1743842321603E+00
 0.1169776309198E+00 -0.1901395476551E+00 -0.3438610077840E-01  0.5563900065238E-01
 0.1056263926233E+00  0.3148309352032E-01  0.6444145832405E-01 -0.2923255409625E-01
 0.7532885386593E-01  0.1426280769567E+00  0.1024397572268E+00 -0.7128110395723E-01
 0.4887238390978E-01  0.2106369213446E+00  0.1219693731602E+00 -0.8425253855088E-01
 0.2667862329392E-01  0.2548007102088E+00  0.1322952864107E+00 -0.7874881022967E-01
 0.8762042188246E-02  0.2825306992412E+00  0.1369075881246E+00 -0.6208500489824E-01
-0.3861015548666E-02  0.2971862843446E+00  0.1378628759844E+00 -0.3778806988296E-01
-0.1249504061116E-01  0.2974557704560E+00  0.1339315426874E+00 -0.7530983512578E-02
-0.1631786912432E-01  0.2860850715116E+00  0.1267905848004E+00  0.2592929125721E-01
-0.9989642898064E-02  0.2646692123024E+00  0.1196993973164E+00  0.6438327264243E-01
 0.1148112734475E-01  0.2362170500666E+00  0.1164181430880E+00  0.1030852880017E+00
 0.5024646243780E-01  0.2078896094221E+00  0.1213239534664E+00  0.1350248515221E+00
 0.1012008457159E+00  0.1822021980874E+00  0.1331994302497E+00  0.1589002723372E+00
 0.1548416864119E+00  0.1579448263903E+00  0.1470096606442E+00  0.1747338927375E+00
 0.2069497377802E+00  0.1331508852624E+00  0.1598472924246E+00  0.1832290832166E+00
 0.2545820397892E+00  0.1033684781668E+00  0.1682367430126E+00  0.1852325918551E+00
 0.3016729485746E+00  0.7259633403274E-01  0.1759065623793E+00  0.1872037642121E+00
-0.9187989686050E+00 -0.3569573304181E+01 -0.2109534962859E+01 -0.1123114173433E+01
-0.3021321034954E+00 -0.2628641824128E+01 -0.1377463742489E+01 -0.3103525548638E+00
-0.1840107829612E-01 -0.1383043192411E+01 -0.6586788055618E+00  0.2129735522838E-01
 0.1177106841504E+00 -0.5734633407280E+00 -0.2142037480482E+00  0.5391057065199E-01
 0.1058756096386E+00 -0.2316948718263E+00 -0.5913505307821E-01  0.2252703611131E-02
 0.7672535559707E-01 -0.5471189787684E-01  0.1034632510227E-01 -0.3895724756666E-01
 0.4596773617434E-01  0.4810643187213E-01  0.4421485886970E-01 -0.5875282096838E-01
 0.2034905297853E-01  0.1143508939026E+00  0.6330897487354E-01 -0.6084392909110E-01
-0.1992003483562E-03  0.1583344279735E+00  0.7432355679531E-01 -0.5068626895811E-01
-0.1584187779267E-01  0.1862911960126E+00  0.8011117936020E-01 -0.3165006255824E-01
-0.2701221010152E-01  0.2004660865206E+00  0.8152332171019E-01 -0.5731077835829E-02
-0.3262957490694E-01  0.2050549246186E+00  0.8103991415892E-01  0.2404708253587E-01
-0.2808543597079E-01  0.2007292745651E+00  0.8114260393353E-01  0.5758798471114E-01
-0.1099385630977E-01  0.1848298040979E+00  0.8170289525318E-01  0.9031323651686E-01
 0.1925316322019E-01  0.1624272948293E+00  0.8538981506668E-01  0.1159830860714E+00
 0.6007704964704E-01  0.1386806086058E+00  0.9341609914189E-01  0.1338364534427E+00
 0.1047035956074E+00  0.1152175594260E+00  0.1033629426035E+00  0.1445336982351E+00
 0.1487889501617E+00  0.9132180471322E-01  0.1128520545050E+00  0.1494060223674E+00
 0.1910635462232E+00  0.6812310432095E-01  0.1218177254468E+00  0.1496289178872E+00
 0.2285624273116E+00  0.4709232768510E-01  0.1295577345198E+00  0.1484904279894E+00
-0.6814208694382E+00 -0.3108756224396E+01 -0.1781383229584E+01 -0.1204889060114E+01
-0.2248970942061E+00 -0.2589466689773E+01 -0.1322750975115E+01 -0.5658360217330E+00
-0.1935389415911E-01 -0.1716087538555E+01 -0.8156574713070E+00 -0.1722154145413E+00
 0.8523583480178E-01 -0.9744822986178E+00 -0.4179458369335E+00 -0.2367939810681E-01
 0.1062005925861E+00 -0.5211037415395E+00 -0.1950044795135E+00 -0.8394868567232E-02
 0.8008091994455E-01 -0.2767249239243E+00 -0.9242268163609E-01 -0.2863967851396E-01
 0.4782292758093E-01 -0.1320077579798E+00 -0.3956687018711E-01 -0.4552835161301E-01
 0.1854580322105E-01 -0.3954421360535E-01 -0.9869252855589E-02 -0.5089300638836E-01
-0.5446355130861E-02  0.2321935928223E-01  0.8353311929956E-02 -0.4545582096698E-01
-0.2437162331025E-01  0.6661018906598E-01  0.1985212585484E-01 -0.3127035857416E-01
-0.3854086533847E-01  0.9529041493688E-01  0.2667228824360E-01 -0.1013596055079E-01
-0.4662561809413E-01  0.1147966160884E+00  0.3204036897604E-01  0.1522734224470E-01
-0.4523522265959E-01  0.1249217137032E+00  0.3745265069552E-01  0.4372879455838E-01
-0.3290087447004E-01  0.1206460010482E+00  0.4124020938712E-01  0.7091084502543E-01
-0.1017496480254E-01  0.1055618812733E+00  0.4483185062755E-01  0.9105232210191E-01
 0.2132630845334E-01  0.8599489929782E-01  0.5044096751511E-01  0.1036016721187E+00
 0.5667904015130E-01  0.6528904048082E-01  0.5732499775170E-01  0.1096606878283E+00
 0.9262703563987E-01  0.4521662000797E-01  0.6478651799016E-01  0.1109127787068E+00
 0.1267286568883E+00  0.2754987580375E-01  0.7251091018135E-01  0.1082604259288E+00
 0.1546343143574E+00  0.1381589726447E-01  0.7917159926147E-01  0.1029805600895E+00
-0.5800391286173E+00 -0.2810747921579E+01 -0.1593669909550E+01 -0.1250955406843E+01
-0.2036965211844E+00 -0.2508785397159E+01 -0.1274866498388E+01 -0.7480176461730E+00
-0.2159965092072E-01 -0.1892274082939E+01 -0.8995206526324E+00 -0.3527525381595E+00
 0.6957087629267E-01 -0.1269622054710E+01 -0.5640240524258E+00 -0.1384704890806E+00
 0.9551745327537E-01 -0.8076187442121E+00 -0.3346876058914E+00 -0.6059955969688E-01
 0.8134336643474E-01 -0.5109631344329E+00 -0.2019212904470E+00 -0.4569905256764E-01
 0.5071652297517E-01 -0.3263556229564E+00 -0.1295503766626E+00 -0.4914413443222E-01
 0.1960771525414E-01 -0.2056728880628E+00 -0.8745063099829E-01 -0.5182826599250E-01
-0.7460721338797E-02 -0.1223608442445E+00 -0.6101613566938E-01 -0.4819261648268E-01
-0.2970286959712E-01 -0.6239612131766E-01 -0.4328652562016E-01 -0.3762707801456E-01
-0.4708671367486E-01 -0.1888814376323E-01 -0.3100818291726E-01 -0.2095094028642E-01
-0.5824275571625E-01  0.1474895571020E-01 -0.2044208595099E-01 -0.7288281238954E-04
-0.6075956679714E-01  0.3809413946752E-01 -0.1065275081790E-01  0.2343971765284E-01
-0.5366262655277E-01  0.4493962892308E-01 -0.4099808875556E-02  0.4525766468520E-01
-0.3807789475770E-01  0.3796279467641E-01 -0.5409703807074E-04  0.6022647079918E-01
-0.1532723450482E-01  0.2411178773937E-01  0.4128740009770E-02  0.6790152088500E-01
 0.1097900314631E-01  0.8009673955546E-02  0.8924678215236E-02  0.6958649300536E-01
 0.3813512261289E-01 -0.7272963897671E-02  0.1450521455936E-01  0.6704955615210E-01
 0.6337007162236E-01 -0.1958743199636E-01  0.2057784057203E-01  0.6096251668576E-01
 0.8191422595949E-01 -0.2761451838473E-01  0.2552086249541E-01  0.5127021749687E-01
-0.5412600739032E+00 -0.2605705898098E+01 -0.1479074003089E+01 -0.1278295357787E+01
-0.2190923970148E+00 -0.2425976396975E+01 -0.1243182330022E+01 -0.8783845214308E+00
-0.3969382986998E-01 -0.1984293984216E+01 -0.9512742702077E+00 -0.5075251410263E+00
 0.5092273120573E-01 -0.1480277949270E+01 -0.6717969507861E+00 -0.2626666341056E+00
 0.8186643855143E-01 -0.1053141176046E+01 -0.4564991254646E+00 -0.1390973188176E+00
 0.7624955728181E-01 -0.7409289836705E+00 -0.3123993296103E+00 -0.8838058613421E-01
 0.5149420023031E-01 -0.5270124374679E+00 -0.2234935709348E+00 -0.7156077525509E-01
 0.2115696965561E-01 -0.3808442071399E+00 -0.1690530011888E+00 -0.6585637888871E-01
-0.7514608310523E-02 -0.2771092415096E+00 -0.1337732090761E+00 -0.6047581661321E-01
-0.3246132141773E-01 -0.2003838928884E+00 -0.1094372504463E+00 -0.5161848595403E-01
-0.5295301107067E-01 -0.1421961857557E+00 -0.9172012227578E-01 -0.3847722840771E-01
-0.6742398340435E-01 -0.9505130450518E-01 -0.7636338512379E-01 -0.2170798799218E-01
-0.7429994573476E-01 -0.5930937410808E-01 -0.6279638016686E-01 -0.2976986737597E-02
-0.7277757342399E-01 -0.4163370429029E-01 -0.5377330038932E-01  0.1361316737978E-01
-0.6416541278599E-01 -0.3998834381257E-01 -0.4895226547716E-01  0.2359295913596E-01
-0.4971099970585E-01 -0.4704005399880E-01 -0.4547299512585E-01  0.2661781404374E-01
-0.3223287868529E-01 -0.5743567968029E-01 -0.4214422232492E-01  0.2405394029157E-01
-0.1398827377474E-01 -0.6730252060705E-01 -0.3820667326253E-01  0.1764293790588E-01
 0.2255409409136E-02 -0.7438796364972E-01 -0.3390230040709E-01  0.7890536412686E-02
 0.1201720278987E-01 -0.7754373040030E-01 -0.3079746789879E-01 -0.6064938541252E-02
-0.5357589156438E+00 -0.2460744210357E+01 -0.1408356465648E+01 -0.1295009963829E+01
-0.2551147374199E+00 -0.2351834613131E+01 -0.1225266191651E+01 -0.9718848309026E+00
-0.7430891359854E-01 -0.2031876240723E+01 -0.9899070200205E+00 -0.6350732598231E+00
 0.2331871468322E-01 -0.1629687825945E+01 -0.7549934803779E+00 -0.3820723706002E+00
 0.6213779060186E-01 -0.1254290581860E+01 -0.5603118104700E+00 -0.2296854645167E+00
 0.6535570210584E-01 -0.9512584715332E+00 -0.4163743005748E+00 -0.1493974873795E+00
 0.4779171680173E-01 -0.7247279109486E+00 -0.3181600104421E+00 -0.1111617716597E+00
 0.2104516685319E-01 -0.5599955329612E+00 -0.2533066714283E+00 -0.9347299680767E-01
-0.7216559213934E-02 -0.4385698497853E+00 -0.2095196116982E+00 -0.8317850651259E-01
-0.3363156078874E-01 -0.3462178832870E+00 -0.1785292382628E+00 -0.7387640663945E-01
-0.5664638731648E-01 -0.2741134765395E+00 -0.1554571356180E+00 -0.6297651938835E-01
-0.7429434263953E-01 -0.2142565769446E+00 -0.1356189318605E+00 -0.4963121448832E-01
-0.8563928238408E-01 -0.1668719648929E+00 -0.1186802859192E+00 -0.3532087741940E-01
-0.8982453507380E-01 -0.1386780127142E+00 -0.1073961971880E+00 -0.2378678183905E-01
-0.8800435083820E-01 -0.1281182016316E+00 -0.1015775994031E+00 -0.1866817515909E-01
-0.8144657796406E-01 -0.1277219208994E+00 -0.9830919421648E-01 -0.2015740737224E-01
-0.7244675042310E-01 -0.1317336736008E+00 -0.9596479904785E-01 -0.2687423893859E-01
-0.6291988031783E-01 -0.1358040808258E+00 -0.9340026150063E-01 -0.3714796177918E-01
-0.5540488635981E-01 -0.1376572868532E+00 -0.9073922117995E-01 -0.5055903669583E-01
-0.5378884779371E-01 -0.1363940695399E+00 -0.8938597092009E-01 -0.6837993412878E-01
-0.5494022922385E+00 -0.2357132544374E+01 -0.1366071369743E+01 -0.1305340232902E+01
-0.3025048855297E+00 -0.2289799866957E+01 -0.1218383230579E+01 -0.1038765237944E+01
-0.1212595452290E+00 -0.2055931180928E+01 -0.1023279638698E+01 -0.7377809301383E+00
-0.1436155948344E-01 -0.1737312891295E+01 -0.8232869897778E+00 -0.4900583454792E+00
 0.3486861437842E-01 -0.1416609604015E+01 -0.6494182634820E+00 -0.3225099647586E+00
 0.4802337243675E-01 -0.1136941342346E+01 -0.5117914445593E+00 -0.2209011966762E+00
 0.3891664069298E-01 -0.9118266433298E+00 -0.4102677001987E+00 -0.1638261258018E+00
 0.1773490700962E-01 -0.7377180362381E+00 -0.3383920698791E+00 -0.1332778585384E+00
-0.8014483921060E-02 -0.6034530508747E+00 -0.2873897406251E+00 -0.1160973223164E+00
-0.3430785178717E-01 -0.4980544648898E+00 -0.2502102882035E+00 -0.1045102594187E+00
-0.5883105835955E-01 -0.4135952654506E+00 -0.2220403716276E+00 -0.9449389155582E-01
-0.7912287433293E-01 -0.3422059302669E+00 -0.1980245376597E+00 -0.8373346315940E-01
-0.9468844662859E-01 -0.2840991946129E+00 -0.1780301909319E+00 -0.7336214129359E-01
-0.1044462482407E+00 -0.2458610241547E+00 -0.1646444176083E+00 -0.6663952566345E-01
-0.1091230582214E+00 -0.2263585535870E+00 -0.1576763571500E+00 -0.6623604765967E-01
-0.1099981354493E+00 -0.2181990671395E+00 -0.1542526848255E+00 -0.7210795971351E-01
-0.1089949069474E+00 -0.2154549749459E+00 -0.1524914441031E+00 -0.8285748732766E-01
-0.1077582484504E+00 -0.2134843943549E+00 -0.1509840417355E+00 -0.9688797349779E-01
-0.1085057460454E+00 -0.2100300811860E+00 -0.1497118384190E+00 -0.1137839112747E+00
-0.1143925696389E+00 -0.2044890201049E+00 -0.1498743467994E+00 -0.1349081345488E+00
-0.5748991752527E+00 -0.2283287224211E+01 -0.1343347604341E+01 -0.1311572905842E+01
-0.3558396293506E+00 -0.2240405189304E+01 -0.1220235061673E+01 -0.1086167278609E+01
-0.1763451210078E+00 -0.2068307588342E+01 -0.1054986770719E+01 -0.8190292521094E+00
-0.6065256968480E-01 -0.1817070149178E+01 -0.8825296756272E+00 -0.5840816771065E+00
-0.3888514479300E-06 -0.1548058927640E+01 -0.7275878769055E+00 -0.4114291913096E+00
 0.2412377503601E-01 -0.1298365933060E+01 -0.5988938127524E+00 -0.2964154708009E+00
 0.2455543432057E-01 -0.1084548745974E+01 -0.4981968552134E+00 -0.2247917678971E+00
 0.1049520460140E-01 -0.9096207786570E+00 -0.4225890187343E+00 -0.1825723653191E+00
-0.1094313352902E-01 -0.7684049070443E+00 -0.3662935781404E+00 -0.1579685868264E+00
-0.3544411626864E-01 -0.6536459147673E+00 -0.3238723137655E+00 -0.1429610351843E+00
-0.6019318804104E-01 -0.5592001511078E+00 -0.2911148686616E+00 -0.1327068406130E+00
-0.8226502792069E-01 -0.4779577149538E+00 -0.2633046884832E+00 -0.1237132082134E+00
-0.1014555259976E+00 -0.4103525808182E+00 -0.2405498095933E+00 -0.1167418828646E+00
-0.1163573061580E+00 -0.3628068876087E+00 -0.2252071704992E+00 -0.1145067607731E+00
-0.1270516599469E+00 -0.3346165436209E+00 -0.2169840551265E+00 -0.1186127269908E+00
-0.1347701685304E+00 -0.3186628414795E+00 -0.2131135141641E+00 -0.1286929366423E+00
-0.1411402571093E+00 -0.3090119322923E+00 -0.2115715284821E+00 -0.1433021788353E+00
-0.1476013469559E+00 -0.3008507293012E+00 -0.2107724753063E+00 -0.1608994887283E+00
-0.1560306862402E+00 -0.2919480305251E+00 -0.2105499963457E+00 -0.1809901358284E+00
-0.1688260680242E+00 -0.2819993792340E+00 -0.2118879596739E+00 -0.2047567273593E+00
-0.6082509494339E+00 -0.2231562127976E+01 -0.1334712142997E+01 -0.1314950423344E+01
-0.4120356236349E+00 -0.2203093712205E+01 -0.1229110784727E+01 -0.1119128004192E+01
-0.2362136538731E+00 -0.2075912331542E+01 -0.1086699210389E+01 -0.8821969367547E+00
-0.1133644470465E+00 -0.1878711989201E+01 -0.9362759226614E+00 -0.6637091041312E+00
-0.4149323617636E-01 -0.1656127445536E+01 -0.7978817183811E+00 -0.4929265021457E+00
-0.5921842786167E-02 -0.1438462185313E+01 -0.6788604914850E+00 -0.3711831114404E+00
 0.4837063715961E-02 -0.1242025450053E+01 -0.5814785401034E+00 -0.2896940710368E+00
-0.9165749367703E-03 -0.1073098698139E+01 -0.5047871770653E+00 -0.2381782837623E+00
-0.1655587207974E-01 -0.9306604985570E+00 -0.4451916930701E+00 -0.2067945468450E+00
-0.3771678851725E-01 -0.8107541468349E+00 -0.3987813386040E+00 -0.1880459531647E+00
-0.6131295774969E-01 -0.7092897650274E+00 -0.3621832787866E+00 -0.1768628349487E+00
-0.8408128369260E-01 -0.6203567475411E+00 -0.3310858738401E+00 -0.1689913611401E+00
-0.1060097782111E+00 -0.5448318387352E+00 -0.3058955591889E+00 -0.1649018656158E+00
-0.1253410603901E+00 -0.4890232760751E+00 -0.2887512374063E+00 -0.1667685094246E+00
-0.1413618887054E+00 -0.4526901721345E+00 -0.2792044678866E+00 -0.1751030707703E+00
-0.1551772146477E+00 -0.4291603804770E+00 -0.2746386690120E+00 -0.1891500181698E+00
-0.1681572005752E+00 -0.4126259609430E+00 -0.2729680852212E+00 -0.2073812958494E+00
-0.1815971760605E+00 -0.3981924552005E+00 -0.2725011260015E+00 -0.2282857637766E+00
-0.1970696025284E+00 -0.3836380253571E+00 -0.2729325844139E+00 -0.2512114146459E+00
-0.2162712911932E+00 -0.3689029728946E+00 -0.2750319034237E+00 -0.2769257942562E+00
-0.6471713520426E+00 -0.2196676581069E+01 -0.1336608525172E+01 -0.1316130675238E+01
-0.4693874670082E+00 -0.2176889038964E+01 -0.1243749954652E+01 -0.1141233692004E+01
-0.2984556831672E+00 -0.2082854908353E+01 -0.1119215975176E+01 -0.9303109271499E+00
-0.1703329981075E+00 -0.1929019511058E+01 -0.9866956768053E+00 -0.7295581586986E+00
-0.8817959467135E-01 -0.1747093429045E+01 -0.8625783189589E+00 -0.5652037014432E+00
-0.4124893067624E-01 -0.1560958095141E+01 -0.7530373002243E+00 -0.4419561785333E+00
-0.1975460100804E-01 -0.1385151070390E+01 -0.6603056638822E+00 -0.3549607357601E+00
-0.1636291014399E-01 -0.1227114048195E+01 -0.5844341689369E+00 -0.2969988494855E+00
-0.2502524728177E-01 -0.1088370709901E+01 -0.5232960985488E+00 -0.2602476539374E+00
-0.4149421961961E-01 -0.9674790245585E+00 -0.4742174235609E+00 -0.2381393594886E+00
-0.6259411182924E-01 -0.8622474920682E+00 -0.4346755527293E+00 -0.2258186166066E+00
-0.8486991537381E-01 -0.7681367139608E+00 -0.4009131147704E+00 -0.2186876037187E+00
-0.1084428196232E+00 -0.6865922516655E+00 -0.3736664825579E+00 -0.2170507600268E+00
-0.1312451017081E+00 -0.6238658494230E+00 -0.3549021461315E+00 -0.2226022460488E+00
-0.1516981325553E+00 -0.5802089593742E+00 -0.3439963323343E+00 -0.2348115833307E+00
-0.1707041137485E+00 -0.5495389921553E+00 -0.3385142589162E+00 -0.2525078488908E+00
-0.1893979008565E+00 -0.5262863435462E+00 -0.3363715940161E+00 -0.2740560153654E+00
-0.2089938488065E+00 -0.5055529220822E+00 -0.3358369814659E+00 -0.2979553562553E+00
-0.2308413186377E+00 -0.4850890937581E+00 -0.3364872929726E+00 -0.3233349436892E+00
-0.2560734066141E+00 -0.4649706137670E+00 -0.3388906887196E+00 -0.3503422660745E+00
-0.6903004856221E+00 -0.2174849608930E+01 -0.1346620541024E+01 -0.1315434788182E+01
-0.5270040487030E+00 -0.2160681369011E+01 -0.1263212143122E+01 -0.1155050867614E+01
-0.3614429162351E+00 -0.2091574593389E+01 -0.1152918226599E+01 -0.9659547276817E+00
-0.2297183264857E+00 -0.1972707933142E+01 -0.1035140339400E+01 -0.7827265291821E+00
-0.1385376882695E+00 -0.1825951456420E+01 -0.9233098956624E+00 -0.6275461472733E+00
-0.8075835526001E-01 -0.1669548468179E+01 -0.8226442049298E+00 -0.5066560877611E+00
-0.4848052259836E-01 -0.1515690322496E+01 -0.7351602953299E+00 -0.4178641481956E+00
-0.3543228300868E-01 -0.1371743886753E+01 -0.6613727981105E+00 -0.3563085728902E+00
-0.3623232248091E-01 -0.1240565136604E+01 -0.6000948042478E+00 -0.3159848836530E+00
-0.4688056429380E-01 -0.1122420492412E+01 -0.5495714952578E+00 -0.2913904419055E+00
-0.6425102512367E-01 -0.1016644798505E+01 -0.5080210358171E+00 -0.2781472843402E+00
-0.8483337579022E-01 -0.9200280417728E+00 -0.4722848650567E+00 -0.2716552211657E+00
-0.1088418492423E+00 -0.8345868413322E+00 -0.4434114834453E+00 -0.2721706957256E+00
-0.1339784879451E+00 -0.7665306204053E+00 -0.4232392798512E+00 -0.2809901372935E+00
-0.1578050153212E+00 -0.7165978826943E+00 -0.4109693610249E+00 -0.2966600733239E+00
-0.1809585438435E+00 -0.6794008041354E+00 -0.4043688925245E+00 -0.3176130394395E+00
-0.2043531274243E+00 -0.6497085640618E+00 -0.4014089939804E+00 -0.3421063934051E+00
-0.2291870974403E+00 -0.6226968414752E+00 -0.4003854502748E+00 -0.3686513639079E+00
-0.2567140982515E+00 -0.5960359055984E+00 -0.4007925007929E+00 -0.3961305473393E+00
-0.2877424911158E+00 -0.5697715725482E+00 -0.4030316088998E+00 -0.4238979937688E+00
-0.7367930768381E+00 -0.2163293284589E+01 -0.1363040586414E+01 -0.1312985994047E+01
-0.5844688716968E+00 -0.2153348951320E+01 -0.1286774373554E+01 -0.1162417275204E+01
-0.4241380674011E+00 -0.2103471384458E+01 -0.1187976439361E+01 -0.9912750741247E+00
-0.2900790855984E+00 -0.2013044312175E+01 -0.1082467994208E+01 -0.8244849318508E+00
-0.1911581491974E+00 -0.1896565102578E+01 -0.9812299258457E+00 -0.6799014587106E+00
-0.1232869712852E+00 -0.1767532688260E+01 -0.8886852377321E+00 -0.5640574818574E+00
-0.8046215567118E-01 -0.1635711876149E+01 -0.8066017929098E+00 -0.4764281887562E+00
-0.5753189608789E-01 -0.1507735211225E+01 -0.7356755385709E+00 -0.4138574568533E+00
-0.4985241212058E-01 -0.1386960819297E+01 -0.6753022170533E+00 -0.3718420850923E+00
-0.5377610142540E-01 -0.1274680349045E+01 -0.6243745301376E+00 -0.3459079944057E+00
-0.6633402761386E-01 -0.1171324504149E+01 -0.5816995084534E+00 -0.3322667057291E+00
-0.8407655581503E-01 -0.1074841047189E+01 -0.5446912720302E+00 -0.3265542910455E+00
-0.1072803023639E+00 -0.9877164081631E+00 -0.5146484526424E+00 -0.3290588462029E+00
-0.1335148809024E+00 -0.9160676046336E+00 -0.4933037669507E+00 -0.3407544671558E+00
-0.1595530990721E+00 -0.8610627788259E+00 -0.4796894613954E+00 -0.3594291339190E+00
-0.1857197190299E+00 -0.8180717903789E+00 -0.4717820082255E+00 -0.3831775813573E+00
-0.2127108203864E+00 -0.7822961820836E+00 -0.4676532899748E+00 -0.4101771695306E+00
-0.2417679444696E+00 -0.7490763929602E+00 -0.4656968374108E+00 -0.4389873256615E+00
-0.2742189215851E+00 -0.7159448699168E+00 -0.4653769808255E+00 -0.4682768903219E+00
-0.3109338498479E+00 -0.6826912093922E+00 -0.4670037766583E+00 -0.4964812851976E+00
-0.7860924404954E+00 -0.2159899730455E+01 -0.1384616316835E+01 -0.1308790245434E+01
-0.6416343941723E+00 -0.2153809949539E+01 -0.1313858838212E+01 -0.1164642442464E+01
-0.4859287440678E+00 -0.2119273399466E+01 -0.1224445004355E+01 -0.1008023760802E+01
-0.3503537186539E+00 -0.2052263933795E+01 -0.1129230293787E+01 -0.8561123650981E+00
-0.2448386065510E+00 -0.1961860725788E+01 -0.1037148683569E+01 -0.7226059423203E+00
-0.1677256099721E+00 -0.1857691414174E+01 -0.9519459989343E+00 -0.6135354186407E+00
-0.1147808309710E+00 -0.1747259238375E+01 -0.8751588303731E+00 -0.5292914919431E+00
-0.8197181357431E-01 -0.1636162684062E+01 -0.8075232118409E+00 -0.4678720099461E+00
-0.6542996761022E-01 -0.1527735606385E+01 -0.7487878178785E+00 -0.4259306422697E+00
-0.6193904163983E-01 -0.1423775125903E+01 -0.6982856569741E+00 -0.3998903146873E+00
-0.6876889737790E-01 -0.1325407454660E+01 -0.6552628837960E+00 -0.3865560607401E+00
-0.8262442281798E-01 -0.1231510721466E+01 -0.6176435162467E+00 -0.3819389672987E+00
-0.1038218457311E+00 -0.1144874677397E+01 -0.5868873643817E+00 -0.3863912903261E+00
-0.1298985465742E+00 -0.1071409965224E+01 -0.5646149991128E+00 -0.4006158286736E+00
-0.1569618542093E+00 -0.1012601710773E+01 -0.5496948741473E+00 -0.4218236430264E+00
-0.1849821972032E+00 -0.9645925325056E+00 -0.5403001215927E+00 -0.4478518708487E+00
-0.2144168463971E+00 -0.9231143244084E+00 -0.5346396489225E+00 -0.4768465524343E+00
-0.2465755868897E+00 -0.8837932644240E+00 -0.5312733587700E+00 -0.5074939710095E+00
-0.2830595967292E+00 -0.8439925636499E+00 -0.5297145140346E+00 -0.5383792733333E+00
-0.3253989929571E+00 -0.8029467411908E+00 -0.5303224937044E+00 -0.5669909727059E+00
-0.8378021379553E+00 -0.2163039220711E+01 -0.1410395434996E+01 -0.1302784488804E+01
-0.6984961797703E+00 -0.2161042942415E+01 -0.1343983384018E+01 -0.1162648948483E+01
-0.5464967739257E+00 -0.2139260272031E+01 -0.1262305808398E+01 -0.1017608717627E+01
-0.4098067248426E+00 -0.2091851336047E+01 -0.1175779285636E+01 -0.8788091382882E+00
-0.2986148844100E+00 -0.2024004487865E+01 -0.1091631102200E+01 -0.7562074799603E+00
-0.2130896784890E+00 -0.1942273257807E+01 -0.1013020577490E+01 -0.6548750100871E+00
-0.1505532135985E+00 -0.1852175415674E+01 -0.9412824533708E+00 -0.5755719264083E+00
-0.1080351134348E+00 -0.1758191862873E+01 -0.8771266766398E+00 -0.5170075855749E+00
-0.8244267967544E-01 -0.1663326383059E+01 -0.8205114574040E+00 -0.4766690204121E+00
-0.7104126183895E-01 -0.1569515704354E+01 -0.7710617721552E+00 -0.4517033458950E+00
-0.7139829917684E-01 -0.1478249906145E+01 -0.7283346546540E+00 -0.4394459054425E+00
-0.8044661643311E-01 -0.1389105117769E+01 -0.6906893133234E+00 -0.4363397699318E+00
-0.9852638080938E-01 -0.1304979405494E+01 -0.6596477178894E+00 -0.4427927889001E+00
-0.1232464840719E+00 -0.1231417950283E+01 -0.6366922825319E+00 -0.4592621717690E+00
-0.1502066665652E+00 -0.1170046118789E+01 -0.6205188075424E+00 -0.4825560200097E+00
-0.1789932556967E+00 -0.1117753075329E+01 -0.6094707740362E+00 -0.5103270967317E+00
-0.2097343146688E+00 -0.1070884252202E+01 -0.6018907249028E+00 -0.5407303910652E+00
-0.2437712545765E+00 -0.1025559589820E+01 -0.5965854953533E+00 -0.5726904550406E+00
-0.2831303343707E+00 -0.9790113487953E+00 -0.5932065895834E+00 -0.6049794577463E+00
-0.3309014280048E+00 -0.9295792120418E+00 -0.5924258993193E+00 -0.6343213555606E+00
-0.8916115422142E+00 -0.2171425313062E+01 -0.1439627318329E+01 -0.1294866447871E+01
-0.7551152494795E+00 -0.2174092454752E+01 -0.1376727617497E+01 -0.1157073856310E+01
-0.6057195922120E+00 -0.2163404506044E+01 -0.1301488322879E+01 -0.1021144158778E+01
-0.4679660828869E+00 -0.2132732817421E+01 -0.1222328480045E+01 -0.8936529556689E+00
-0.3517572729543E+00 -0.2084548474362E+01 -0.1145063698334E+01 -0.7813504163073E+00
-0.2585546645759E+00 -0.2023027951517E+01 -0.1072343826844E+01 -0.6881317244624E+00
-0.1869826995560E+00 -0.1952019182493E+01 -0.1005330882013E+01 -0.6147487802418E+00
-0.1350322967875E+00 -0.1874926486903E+01 -0.9446806259387E+00 -0.5602832406446E+00
-0.1003540509848E+00 -0.1794270656090E+01 -0.8904736100664E+00 -0.5227762289793E+00
-0.8071597221686E-01 -0.1711887793921E+01 -0.8425237679480E+00 -0.4999192597254E+00
-0.7402023821197E-01 -0.1629377755329E+01 -0.8005970549337E+00 -0.4894797476810E+00
-0.7748137012475E-01 -0.1546805340156E+01 -0.7634147518955E+00 -0.4883300833416E+00
-0.9145544752015E-01 -0.1466988013542E+01 -0.7324684248414E+00 -0.4968971186907E+00
-0.1137228838069E+00 -0.1394918206943E+01 -0.7090613108540E+00 -0.5154072249061E+00
-0.1396065197389E+00 -0.1332156645846E+01 -0.6917286860705E+00 -0.5404285672526E+00
-0.1682420352842E+00 -0.1276181018655E+01 -0.6788788336295E+00 -0.5694594627479E+00
-0.1993206389118E+00 -0.1224068489696E+01 -0.6689928887487E+00 -0.6006412000729E+00
-0.2339250788882E+00 -0.1172644849641E+01 -0.6610878647321E+00 -0.6332119119209E+00
-0.2745844291699E+00 -0.1119387799195E+01 -0.6551669456697E+00 -0.6665745915168E+00
-0.3270768239771E+00 -0.1061363145728E+01 -0.6525667841065E+00 -0.6973065319093E+00
-0.9472515949979E+00 -0.2184020950943E+01 -0.1471698092860E+01 -0.1284913484839E+01
-0.8115715477722E+00 -0.2192068361612E+01 -0.1411710753830E+01 -0.1148342949863E+01
-0.6635962012370E+00 -0.2191462340515E+01 -0.1341877511220E+01 -0.1019496204096E+01
-0.5245643546222E+00 -0.2175412620480E+01 -0.1268989175079E+01 -0.9015789032549E+00
-0.4037483149806E+00 -0.2144547150989E+01 -0.1197698865968E+01 -0.7987001410984E+00
-0.3034684870889E+00 -0.2101257458533E+01 -0.1130221191575E+01 -0.7135298327814E+00
-0.2233900508487E+00 -0.2048033234495E+01 -0.1067568941404E+01 -0.6465664132282E+00
-0.1623407831853E+00 -0.1987315770642E+01 -0.1010338577736E+01 -0.5970150374389E+00
-0.1186541298874E+00 -0.1921090757296E+01 -0.9586800945447E+00 -0.5632455393179E+00
-0.9059717188483E-01 -0.1850950131891E+01 -0.9125272304603E+00 -0.5433281422652E+00
-0.7642204273259E-01 -0.1778417104817E+01 -0.8717743971373E+00 -0.5353519124094E+00
-0.7366134694258E-01 -0.1703870213832E+01 -0.8354398314451E+00 -0.5365753147805E+00
-0.8267422559662E-01 -0.1629886730568E+01 -0.8049036473557E+00 -0.5473893617095E+00
-0.1015142527185E+00 -0.1560738295930E+01 -0.7812586958830E+00 -0.5678161331572E+00
-0.1254862843594E+00 -0.1497674829618E+01 -0.7628857216345E+00 -0.5943598729654E+00
-0.1534617921665E+00 -0.1438641645584E+01 -0.7482886138447E+00 -0.6243833264593E+00
-0.1841728720384E+00 -0.1381019493583E+01 -0.7356404099762E+00 -0.6558055099535E+00
-0.2182561688646E+00 -0.1323025942268E+01 -0.7244025903948E+00 -0.6880684604946E+00
-0.2579087922147E+00 -0.1262759649150E+01 -0.7147141656288E+00 -0.7217026569895E+00
-0.3132490607881E+00 -0.1196577248120E+01 -0.7096183633870E+00 -0.7546054460570E+00
-0.1004476008343E+01 -0.2199980004438E+01 -0.1506094322187E+01 -0.1272795912347E+01
-0.8679303795090E+00 -0.2214134012264E+01 -0.1448570260459E+01 -0.1136726616305E+01
-0.7201981642619E+00 -0.2223038832401E+01 -0.1383321384923E+01 -0.1013322692844E+01
-0.5794817173665E+00 -0.2220065640642E+01 -0.1315787254927E+01 -0.9033722553002E+00
-0.4542559591746E+00 -0.2204656156416E+01 -0.1249688691158E+01 -0.8088924813826E+00
-0.3473466677582E+00 -0.2177871574569E+01 -0.1186852570884E+01 -0.7313892537308E+00
-0.2592295628432E+00 -0.2141143102400E+01 -0.1128175149803E+01 -0.6709588236930E+00
-0.1894290673199E+00 -0.2096098088307E+01 -0.1074197760420E+01 -0.6267552064406E+00
-0.1368906512023E+00 -0.2044213980380E+01 -0.1025119174244E+01 -0.5973090732151E+00
-0.1003490406412E+00 -0.1986753871032E+01 -0.9809383659985E+00 -0.5809320034298E+00
-0.7840930627052E-01 -0.1925035690706E+01 -0.9416191461907E+00 -0.5759278841875E+00
-0.6894307412159E-01 -0.1859599690346E+01 -0.9064150970010E+00 -0.5798716514318E+00
-0.7227793526933E-01 -0.1792663696474E+01 -0.8765225646963E+00 -0.5930388445525E+00
-0.8679828577318E-01 -0.1727666324449E+01 -0.8527983646414E+00 -0.6152958750882E+00
-0.1081270838394E+00 -0.1665388728294E+01 -0.8335524295887E+00 -0.6433085543342E+00
-0.1350142521409E+00 -0.1603945942977E+01 -0.8173112896324E+00 -0.6744044301141E+00
-0.1660550888499E+00 -0.1541213100483E+01 -0.8024160469514E+00 -0.7061196017596E+00
-0.1984105766686E+00 -0.1474325402903E+01 -0.7861859084047E+00 -0.7371329566411E+00
-0.2345910221848E+00 -0.1406083986181E+01 -0.7711172519759E+00 -0.7692806509765E+00
-0.2878272579007E+00 -0.1331969805525E+01 -0.7613046178793E+00 -0.8045705165532E+00
-0.1063033302647E+01 -0.2218586321768E+01 -0.1542361219563E+01 -0.1258382751044E+01
-0.9242604428728E+00 -0.2239538710126E+01 -0.1486985598138E+01 -0.1122386656020E+01
-0.7755920298195E+00 -0.2257573511231E+01 -0.1425587800678E+01 -0.1003109169670E+01
-0.6327219756368E+00 -0.2266632179755E+01 -0.1362696449578E+01 -0.8996608954992E+00
-0.5030975953818E+00 -0.2265217450669E+01 -0.1301108068344E+01 -0.8124998613678E+00
-0.3898577233917E+00 -0.2253447442174E+01 -0.1242353424665E+01 -0.7420750233631E+00
-0.2940897911580E+00 -0.2231969388496E+01 -0.1187247811426E+01 -0.6879936461061E+00
-0.2158798583431E+00 -0.2201777743989E+01 -0.1136299070214E+01 -0.6492426269292E+00
-0.1546781398234E+00 -0.2163897377086E+01 -0.1089730490183E+01 -0.6243985359687E+00
-0.1096914517296E+00 -0.2119289302638E+01 -0.1047620951895E+01 -0.6119230843776E+00
-0.7982524939094E-01 -0.2068906915121E+01 -0.1009904114759E+01 -0.6102507129385E+00
-0.6332841738713E-01 -0.2013311546277E+01 -0.9760207804465E+00 -0.6171829512462E+00
-0.6044834197950E-01 -0.1954294617093E+01 -0.9469291883623E+00 -0.6327535936682E+00
-0.6982759697928E-01 -0.1894388574988E+01 -0.9231815984833E+00 -0.6567107410843E+00
-0.8768663246652E-01 -0.1833887506394E+01 -0.9031398429739E+00 -0.6861548122740E+00
-0.1130841045391E+00 -0.1771113057384E+01 -0.8855726638579E+00 -0.7186012388300E+00
-0.1443692521649E+00 -0.1703661912869E+01 -0.8685746453630E+00 -0.7514381328836E+00
-0.1804767254063E+00 -0.1630259526406E+01 -0.8510460361932E+00 -0.7822431888570E+00
-0.2054775406587E+00 -0.1542608202521E+01 -0.8216002972105E+00 -0.8098405449566E+00
-0.2481120197880E+00 -0.1461359096616E+01 -0.8034514226720E+00 -0.8448835885095E+00
-0.1123088508889E+01 -0.2239727362066E+01 -0.1580523455340E+01 -0.1241611112173E+01
-0.9803219553884E+00 -0.2267204860957E+01 -0.1526337599811E+01 -0.1105470010379E+01
-0.8299301109422E+00 -0.2294436909824E+01 -0.1468452496036E+01 -0.9891575775015E+00
-0.6843657478360E+00 -0.2314900864917E+01 -0.1409655304418E+01 -0.8909010557669E+00
-0.5502129766756E+00 -0.2326365729668E+01 -0.1351991988552E+01 -0.8100140725949E+00
-0.4307885357140E+00 -0.2328276629691E+01 -0.1296760624451E+01 -0.7459704915351E+00
-0.3276862099369E+00 -0.2320845837014E+01 -0.1244810058910E+01 -0.6978335910779E+00
-0.2413969877658E+00 -0.2304613625439E+01 -0.1196624985171E+01 -0.6643650650888E+00
-0.1717619307225E+00 -0.2280220394132E+01 -0.1152431689758E+01 -0.6441200331968E+00
-0.1183264859933E+00 -0.2248307251351E+01 -0.1112317853731E+01 -0.6356382633401E+00
-0.8057558878092E-01 -0.2209748458018E+01 -0.1076452299265E+01 -0.6375035150379E+00
-0.5693010120747E-01 -0.2164464403874E+01 -0.1044055414740E+01 -0.6476911172812E+00
-0.4740612524022E-01 -0.2113658861663E+01 -0.1015700541268E+01 -0.6656784705430E+00
-0.5108489917454E-01 -0.2059515324192E+01 -0.9919821024660E+00 -0.6911130373850E+00
-0.6460540193333E-01 -0.2001480208592E+01 -0.9710602344839E+00 -0.7218054884499E+00
-0.8747402921438E-01 -0.1938255223267E+01 -0.9520927462515E+00 -0.7556553353372E+00
-0.1189742542021E+00 -0.1867990406252E+01 -0.9338733880446E+00 -0.7902578562080E+00
-0.1570716729894E+00 -0.1787702867921E+01 -0.9140440319095E+00 -0.8233040330814E+00
-0.2007560389746E+00 -0.1700226994153E+01 -0.8934620233040E+00 -0.8514049786165E+00
-0.1697252516490E+00 -0.1546202487520E+01 -0.8064860353641E+00 -0.8762563796178E+00
-0.1455223106108E+01 -0.2419086981194E+01 -0.1820925736413E+01  0.7356414162587E+00
-0.1193400407657E+01 -0.2490925017311E+01 -0.1731632945343E+01  0.5790173450170E+00
-0.9506293917042E+00 -0.2554066815626E+01 -0.1647207213267E+01  0.4530100555848E+00
-0.7319865999021E+00 -0.2607647763243E+01 -0.1569628146697E+01  0.3521232784767E+00
-0.5376438047061E+00 -0.2652308782527E+01 -0.1499277712197E+01  0.2729430579647E+00
-0.3670166322327E+00 -0.2689544494923E+01 -0.1436583726119E+01  0.2132471337270E+00
-0.2190027737834E+00 -0.2720973833180E+01 -0.1381789001768E+01  0.1711891343545E+00
-0.9214421504938E-01 -0.2748264477655E+01 -0.1334992082185E+01  0.1451060763960E+00
 0.1513553882598E-01 -0.2772984987979E+01 -0.1296189237814E+01  0.1334337209983E+00
 0.1041949053703E+00 -0.2796607277170E+01 -0.1265433811536E+01  0.1348808484744E+00
 0.1760665360625E+00 -0.2820859354816E+01 -0.1243052621661E+01  0.1483615840181E+00
 0.2327568115793E+00 -0.2846316004206E+01 -0.1228372817419E+01  0.1722064173658E+00
 0.2735272464521E+00 -0.2875279802583E+01 -0.1222823698280E+01  0.2066525684122E+00
 0.2994356592556E+00 -0.2910911877215E+01 -0.1227393819328E+01  0.2518064651893E+00
 0.3141689110334E+00 -0.2953381596332E+01 -0.1240429958944E+01  0.3059283606402E+00
 0.3171416819517E+00 -0.3002483107384E+01 -0.1262110466752E+01  0.3677596230624E+00
 0.3076578198409E+00 -0.3057585383741E+01 -0.1292465951755E+01  0.4360210592437E+00
 0.2858416413134E+00 -0.3117158596295E+01 -0.1330718965466E+01  0.5094265925257E+00
 0.2521405920019E+00 -0.3183880306392E+01 -0.1377917662269E+01  0.5849021528519E+00
 0.2850478077159E+00 -0.3203351426421E+01 -0.1371602697313E+01  0.6653432156295E+00
-0.1391388474685E+01 -0.2393072122830E+01 -0.1778696476321E+01  0.7755472924081E+00
-0.1132971102470E+01 -0.2455443841800E+01 -0.1686555019529E+01  0.6158925232494E+00
-0.8936195911360E+00 -0.2508602447462E+01 -0.1599044354085E+01  0.4859880895751E+00
-0.6789876676442E+00 -0.2550585798565E+01 -0.1517899525268E+01  0.3808603485197E+00
-0.4902982121344E+00 -0.2583213632660E+01 -0.1444550563390E+01  0.2976648732209E+00
-0.3265910221743E+00 -0.2608347109952E+01 -0.1379420918601E+01  0.2348507305233E+00
-0.1863576861706E+00 -0.2627768516991E+01 -0.1322639312131E+01  0.1909544671874E+00
-0.6788161676929E-01 -0.2643350566236E+01 -0.1274279122781E+01  0.1644131889113E+00
 0.3061790940774E-01 -0.2656866116739E+01 -0.1234336654315E+01  0.1535821422523E+00
 0.1106473326866E+00 -0.2669921582769E+01 -0.1202858894488E+01  0.1570445346091E+00
 0.1736999919391E+00 -0.2684111689626E+01 -0.1179893494920E+01  0.1734991361999E+00
 0.2216077974931E+00 -0.2700726367108E+01 -0.1165185724764E+01  0.2010418963465E+00
 0.2533954259193E+00 -0.2722182236775E+01 -0.1160329798159E+01  0.2403320302242E+00
 0.2707574810732E+00 -0.2752173410081E+01 -0.1166265483676E+01  0.2907626397016E+00
 0.2780211047494E+00 -0.2792184753940E+01 -0.1181656912123E+01  0.3492580198002E+00
 0.2752131054709E+00 -0.2841448087297E+01 -0.1206130438399E+01  0.4141098355075E+00
 0.2626182523456E+00 -0.2898888435423E+01 -0.1239046982904E+01  0.4836928297879E+00
 0.2401925748619E+00 -0.2964638879138E+01 -0.1280489759762E+01  0.5563651860134E+00
 0.2220917410754E+00 -0.3032963113130E+01 -0.1321109541515E+01  0.6314430905601E+00
 0.1795538212625E+00 -0.3127264179952E+01 -0.1385423865070E+01  0.7197455813742E+00
-0.1325971204749E+01 -0.2366077205127E+01 -0.1735262748240E+01  0.8126753113085E+00
-0.1071422842679E+01 -0.2419446380331E+01 -0.1640708530653E+01  0.6497425197634E+00
-0.8350409889521E+00 -0.2461646503553E+01 -0.1549443117547E+01  0.5152108348840E+00
-0.6247890620822E+00 -0.2491073375393E+01 -0.1464455341899E+01  0.4049572536828E+00
-0.4422642642253E+00 -0.2510141190886E+01 -0.1387630560383E+01  0.3171062000601E+00
-0.2862259985415E+00 -0.2521428124356E+01 -0.1319597434415E+01  0.2507757525331E+00
-0.1546641906177E+00 -0.2527154509093E+01 -0.1260454785667E+01  0.2048011169419E+00
-0.4549059511994E-01 -0.2529536781189E+01 -0.1210262863796E+01  0.1776637445317E+00
 0.4338937859447E-01 -0.2530537299167E+01 -0.1168959519704E+01  0.1675775458598E+00
 0.1137594718383E+00 -0.2531838869303E+01 -0.1136497313926E+01  0.1729288926707E+00
 0.1671958470913E+00 -0.2535268984849E+01 -0.1112994371923E+01  0.1922315280875E+00
 0.2058609300188E+00 -0.2541867407618E+01 -0.1097923041687E+01  0.2232613308609E+00
 0.2284555023322E+00 -0.2554529097340E+01 -0.1093254586881E+01  0.2668532765128E+00
 0.2371703472928E+00 -0.2578230836712E+01 -0.1100298427236E+01  0.3218912722498E+00
 0.2374452914976E+00 -0.2615285419202E+01 -0.1117584857187E+01  0.3842605744511E+00
 0.2296646287039E+00 -0.2664886642399E+01 -0.1144554343534E+01  0.4520011308882E+00
 0.2141167607620E+00 -0.2726375329666E+01 -0.1180761524390E+01  0.5235968037417E+00
 0.1922989862040E+00 -0.2799074385546E+01 -0.1225184434583E+01  0.5985328563108E+00
 0.1604980445000E+00 -0.2888675467678E+01 -0.1282243385641E+01  0.6790745964767E+00
 0.1039910102988E+00 -0.2995197893377E+01 -0.1358867231600E+01  0.7675775724396E+00
-0.1259713040669E+01 -0.2339215494229E+01 -0.1691496407111E+01  0.8470809628057E+00
-0.1008617565917E+01 -0.2383385328495E+01 -0.1594241356330E+01  0.6805496869616E+00
-0.7750714816261E+00 -0.2413907597549E+01 -0.1498820163411E+01  0.5404316152370E+00
-0.5693945724342E+00 -0.2429329802933E+01 -0.1409400452848E+01  0.4240393594262E+00
-0.3936729025041E+00 -0.2433147969840E+01 -0.1328605806632E+01  0.3308091628669E+00
-0.2461191866027E+00 -0.2428824054219E+01 -0.1257223319998E+01  0.2605785953422E+00
-0.1241084343481E+00 -0.2419236383190E+01 -0.1195372061211E+01  0.2123709013847E+00
-0.2507399116297E-01 -0.2407058998952E+01 -0.1143102502455E+01  0.1845962843799E+00
 0.5347836942872E-01 -0.2394452577464E+01 -0.1100257874986E+01  0.1752254168089E+00
 0.1135827005695E+00 -0.2383188324573E+01 -0.1066714640576E+01  0.1823697447858E+00
 0.1570010875023E+00 -0.2375125820694E+01 -0.1042518621956E+01  0.2042805040383E+00
 0.1861493887085E+00 -0.2370987885159E+01 -0.1026874090727E+01  0.2383577229107E+00
 0.1995094410249E+00 -0.2374137298103E+01 -0.1022075090234E+01  0.2855450770278E+00
 0.1998787798398E+00 -0.2390925450358E+01 -0.1029791932532E+01  0.3443942261892E+00
 0.1935319143839E+00 -0.2424704389029E+01 -0.1048651060424E+01  0.4101433632885E+00
 0.1808656253820E+00 -0.2474759239432E+01 -0.1078129995869E+01  0.4808743761128E+00
 0.1620787154373E+00 -0.2540316086803E+01 -0.1117771561707E+01  0.5554965070425E+00
 0.1351832398351E+00 -0.2622200900455E+01 -0.1168898297526E+01  0.6343156305363E+00
 0.9648211600549E-01 -0.2722318794416E+01 -0.1234143235723E+01  0.7182419375432E+00
 0.3387661026363E-01 -0.2842264829854E+01 -0.1319942459860E+01  0.8050573947577E+00
-0.1192971729284E+01 -0.2313179158307E+01 -0.1647890912988E+01  0.8787841636680E+00
-0.9446909720978E+00 -0.2348077951082E+01 -0.1547601389969E+01  0.7081622274218E+00
-0.7137003546971E+00 -0.2365879677816E+01 -0.1447402611610E+01  0.5612728708479E+00
-0.5129077775830E+00 -0.2365586396680E+01 -0.1352892258472E+01  0.4375971226508E+00
-0.3447006303808E+00 -0.2352199059967E+01 -0.1267542851249E+01  0.3382770955899E+00
-0.2065093209284E+00 -0.2330419385831E+01 -0.1192356489152E+01  0.2638652643844E+00
-0.9490847268201E-01 -0.2303968066951E+01 -0.1127471970768E+01  0.2134181576980E+00
-0.6756744887381E-02 -0.2276068305049E+01 -0.1072927770749E+01  0.1851107038200E+00
 0.6088804614750E-01 -0.2249070898425E+01 -0.1028445937962E+01  0.1765263044708E+00
 0.1103427439053E+00 -0.2224733556945E+01 -0.9937636796079E+00  0.1853836946563E+00
 0.1435543088791E+00 -0.2204841443396E+01 -0.9688049507659E+00  0.2095887033304E+00
 0.1631740717046E+00 -0.2189650085013E+01 -0.9524437238391E+00  0.2461351631618E+00
 0.1675444461258E+00 -0.2182932213878E+01 -0.9472322484409E+00  0.2960305991264E+00
 0.1600186595731E+00 -0.2192431723002E+01 -0.9552341373888E+00  0.3577131627164E+00
 0.1473368570455E+00 -0.2222540084979E+01 -0.9753455146549E+00  0.4261683854721E+00
 0.1297546202127E+00 -0.2272476505148E+01 -0.1007079283365E+01  0.4996968624771E+00
 0.1065797651736E+00 -0.2341564202428E+01 -0.1050442682845E+01  0.5775082737395E+00
 0.7521343353504E-01 -0.2429749133448E+01 -0.1106631776152E+01  0.6597732028430E+00
 0.3148519294768E-01 -0.2539083674885E+01 -0.1178571283521E+01  0.7461047248521E+00
-0.3254719823059E-01 -0.2672971625030E+01 -0.1271593843707E+01  0.8322578242834E+00
-0.1126116761724E+01 -0.2288746901972E+01 -0.1604985917866E+01  0.9078215647764E+00
-0.8797171330394E+00 -0.2314302858730E+01 -0.1501189392324E+01  0.7323259744193E+00
-0.6509793099280E+00 -0.2318036537223E+01 -0.1395437444622E+01  0.5772030094642E+00
-0.4554772469468E+00 -0.2299906120394E+01 -0.1295030179365E+01  0.4450068150755E+00
-0.2956191870347E+00 -0.2267077038193E+01 -0.1204467222802E+01  0.3389813653063E+00
-0.1677084667465E+00 -0.2225896034411E+01 -0.1124994112690E+01  0.2603066529419E+00
-0.6733375341118E-01 -0.2181134892633E+01 -0.1056780260960E+01  0.2078415353838E+00
 0.9309012025891E-02 -0.2136620581026E+01 -0.9998364348939E+00  0.1793052612921E+00
 0.6565138080314E-01 -0.2094822478025E+01 -0.9537104132753E+00  0.1717055288214E+00
 0.1042953310360E+00 -0.2057349760766E+01 -0.9179355796451E+00  0.1822311415930E+00
 0.1273685435775E+00 -0.2025748249685E+01 -0.8922384596075E+00  0.2083593792905E+00
 0.1377194626028E+00 -0.1999642251479E+01 -0.8751037085521E+00  0.2466688990781E+00
 0.1336235662800E+00 -0.1983095335849E+01 -0.8692517294928E+00  0.2981919264133E+00
 0.1188624675108E+00 -0.1985158455712E+01 -0.8771591122297E+00  0.3614634422348E+00
 0.1002879461716E+00 -0.2011111544915E+01 -0.8980870891317E+00  0.4315915485195E+00
 0.7783834270523E-01 -0.2060062004804E+01 -0.9316451188236E+00  0.5071825440322E+00
 0.5042501467562E-01 -0.2131085811460E+01 -0.9779105720084E+00  0.5875660898670E+00
 0.1506525123916E-01 -0.2223941264081E+01 -0.1038171723402E+01  0.6726601219836E+00
-0.3197667315456E-01 -0.2341365060082E+01 -0.1115470611792E+01  0.7612483285874E+00
-0.9581605279172E-01 -0.2489571494277E+01 -0.1215132144040E+01  0.8485347110909E+00
-0.1059512924890E+01 -0.2266808263870E+01 -0.1563370954752E+01  0.9342346905257E+00
-0.8137658702994E+00 -0.2282872668651E+01 -0.1455420109615E+01  0.7526658542434E+00
-0.5870065391176E+00 -0.2270730617455E+01 -0.1343136460182E+01  0.5875276411252E+00
-0.3973637008999E+00 -0.2232131497779E+01 -0.1235862740244E+01  0.4455350529223E+00
-0.2468153333782E+00 -0.2177285192203E+01 -0.1139327244134E+01  0.3323893790342E+00
-0.1301256104801E+00 -0.2114676134011E+01 -0.1055056817235E+01  0.2496773682236E+00
-0.4171427472320E-01 -0.2050329373480E+01 -0.9832605121615E+00  0.1957291166155E+00
 0.2295175192067E-01 -0.1988674364801E+01 -0.9238896257103E+00  0.1675195907619E+00
 0.6781221770621E-01 -0.1932152159656E+01 -0.8762397704939E+00  0.1612536331285E+00
 0.9573951611497E-01 -0.1882014516379E+01 -0.8395492479945E+00  0.1734439876418E+00
 0.1090195297902E+00 -0.1839351853452E+01 -0.8132561900583E+00  0.2010657761217E+00
 0.1106501827435E+00 -0.1802966922474E+01 -0.7953888656560E+00  0.2403031227935E+00
 0.9891642000157E-01 -0.1777053773016E+01 -0.7887245539162E+00  0.2921713645501E+00
 0.7787550829070E-01 -0.1771813672095E+01 -0.7961509349686E+00  0.3554970327190E+00
 0.5412774264288E-01 -0.1793219169526E+01 -0.8173729685620E+00  0.4258833259059E+00
 0.2734581548191E-01 -0.1840146796664E+01 -0.8520164589945E+00  0.5023368754767E+00
-0.3848150609517E-02 -0.1911594427848E+01 -0.9002580095918E+00  0.5843170919515E+00
-0.4249484509944E-01 -0.2007416371273E+01 -0.9634582692513E+00  0.6715913389089E+00
-0.9189596230230E-01 -0.2131607384019E+01 -0.1045046570120E+01  0.7626273871300E+00
-0.1552720693053E+00 -0.2293277615482E+01 -0.1150818348931E+01  0.8528842874510E+00
-0.9935510411803E+00 -0.2248435710211E+01 -0.1523733769289E+01  0.9580601332059E+00
-0.7469172388139E+00 -0.2254635630375E+01 -0.1410729844941E+01  0.7686483510191E+00
-0.5219744361334E+00 -0.2224146146965E+01 -0.1290676670783E+01  0.5913666476867E+00
-0.3389762623811E+00 -0.2161786652611E+01 -0.1175358567065E+01  0.4383506256274E+00
-0.1988224957537E+00 -0.2081963174886E+01 -0.1071969262482E+01  0.3180058794724E+00
-0.9427547452372E-01 -0.1995863893245E+01 -0.9823655003597E+00  0.2319141730831E+00
-0.1843812437448E-01 -0.1910937862237E+01 -0.9068067114076E+00  0.1774184192993E+00
 0.3398474109033E-01 -0.1832117483725E+01 -0.8451223868948E+00  0.1503848226025E+00
 0.6743440948208E-01 -0.1761553525571E+01 -0.7962359825424E+00  0.1459584676604E+00
 0.8501855907429E-01 -0.1699839169009E+01 -0.7589656847445E+00  0.1598382772108E+00
 0.8914503643922E-01 -0.1647336875904E+01 -0.7323501626909E+00  0.1884506359206E+00
 0.8290390066382E-01 -0.1601829715536E+01 -0.7138951311792E+00  0.2276494949143E+00
 0.6468184294921E-01 -0.1567464320710E+01 -0.7063077627561E+00  0.2783986742677E+00
 0.3863995924690E-01 -0.1555409785635E+01 -0.7128818165943E+00  0.3400010086789E+00
 0.1080387454575E-01 -0.1572080514947E+01 -0.7338000191275E+00  0.4089310878385E+00
-0.1942367130604E-01 -0.1616070705907E+01 -0.7686823553405E+00  0.4847283673841E+00
-0.5363734929215E-01 -0.1686401052861E+01 -0.8178180469377E+00  0.5670694088398E+00
-0.9487365706171E-01 -0.1783294906687E+01 -0.8827392227229E+00  0.6557484711145E+00
-0.1461320306284E+00 -0.1912238928753E+01 -0.9674343484553E+00  0.7493441179076E+00
-0.2095851618413E+00 -0.2085331803640E+01 -0.1078610971040E+01  0.8440691240599E+00
-0.9286839450177E+00 -0.2234962756799E+01 -0.1486913946082E+01  0.9793132984660E+00
-0.6792999332647E+00 -0.2230480551378E+01 -0.1367596824313E+01  0.7795253476070E+00
-0.4562247365325E+00 -0.2178221349267E+01 -0.1238189657185E+01  0.5876233824345E+00
-0.2809205539316E+00 -0.2087964223932E+01 -0.1113375842772E+01  0.4225447601174E+00
-0.1523396710940E+00 -0.1979784768512E+01 -0.1002098484073E+01  0.2954348809042E+00
-0.6077556044230E-01 -0.1868196135400E+01 -0.9066166947466E+00  0.2071964787292E+00
 0.2063138513235E-02 -0.1762152767048E+01 -0.8272421233131E+00  0.1535718895262E+00
 0.4222376127446E-01 -0.1666821557800E+01 -0.7635609624302E+00  0.1288755400104E+00
 0.6461565001028E-01 -0.1583634467473E+01 -0.7139388423965E+00  0.1269265491713E+00
 0.7252816682270E-01 -0.1512113798162E+01 -0.6766052450133E+00  0.1425091274129E+00
 0.6844115602000E-01 -0.1451577968689E+01 -0.6500743003058E+00  0.1715079226687E+00
 0.5547106581412E-01 -0.1398613444266E+01 -0.6312769162714E+00  0.2095731549259E+00
 0.3221147376542E-01 -0.1357158762724E+01 -0.6227252242309E+00  0.2576039725457E+00
 0.2753261956730E-02 -0.1339162720707E+01 -0.6281124440196E+00  0.3155548457940E+00
-0.2775838954395E-01 -0.1351213242424E+01 -0.6481166653808E+00  0.3811299221839E+00
-0.6020885735262E-01 -0.1391538586702E+01 -0.6823212969749E+00  0.4545288630881E+00
-0.9643237390952E-01 -0.1459228962131E+01 -0.7311608260848E+00  0.5357497797844E+00
-0.1394959988671E+00 -0.1555018803528E+01 -0.7964219551057E+00  0.6247878353226E+00
-0.1923538435870E+00 -0.1685994466606E+01 -0.8828237035518E+00  0.7206829353283E+00
-0.2568378859633E+00 -0.1867310564412E+01 -0.9983497691443E+00  0.8207881796632E+00
-0.8654869869631E+00 -0.2228092745668E+01 -0.1453982470649E+01  0.9979636268826E+00
-0.6111525686054E+00 -0.2211331998362E+01 -0.1326567743110E+01  0.7842550397284E+00
-0.3903258439355E+00 -0.2132534748937E+01 -0.1185744475643E+01  0.5749485516900E+00
-0.2240469334812E+00 -0.2009168502064E+01 -0.1049611252044E+01  0.3971692995220E+00
-0.1082360570663E+00 -0.1868837310940E+01 -0.9292244806059E+00  0.2644723059334E+00
-0.3032300686681E-01 -0.1730009098468E+01 -0.8273560874090E+00  0.1760562241388E+00
 0.1934588815728E-01 -0.1603028385435E+01 -0.7443307718327E+00  0.1252674888090E+00
 0.4751654286627E-01 -0.1492745906915E+01 -0.6792577993800E+00  0.1043575843810E+00
 0.5951041612769E-01 -0.1399216645243E+01 -0.6296619260874E+00  0.1055847944382E+00
 0.5872885413490E-01 -0.1320365313162E+01 -0.5929691342388E+00  0.1227991659853E+00
 0.4765807399609E-01 -0.1254142519587E+01 -0.5670476879895E+00  0.1514384763414E+00
 0.2936520352257E-01 -0.1195828350013E+01 -0.5482376774598E+00  0.1871538651215E+00
 0.2765045309333E-02 -0.1149045035497E+01 -0.5387515940216E+00  0.2307980727324E+00
-0.2828978910437E-01 -0.1126351574462E+01 -0.5426814394996E+00  0.2831328130262E+00
-0.5978786639265E-01 -0.1134227211437E+01 -0.5611870851563E+00  0.3433898213307E+00
-0.9293498680794E-01 -0.1170420358425E+01 -0.5937770107535E+00  0.4125109314206E+00
-0.1298787803802E+00 -0.1234041020245E+01 -0.6410423046678E+00  0.4908921150364E+00
-0.1738280940948E+00 -0.1326361323248E+01 -0.7050890243629E+00  0.5788693686838E+00
-0.2280097744592E+00 -0.1456043539934E+01 -0.7915050557574E+00  0.6762328454692E+00
-0.2945975007766E+00 -0.1641328329960E+01 -0.9098851381386E+00  0.7818343324187E+00
-0.8047608799951E+00 -0.2230058616913E+01 -0.1426365159929E+01  0.1013895029959E+01
-0.5429238589411E+00 -0.2198132467751E+01 -0.1288296470278E+01  0.7813909162716E+00
-0.3251748865967E+00 -0.2086125909065E+01 -0.1133311371086E+01  0.5517028824768E+00
-0.1694912053973E+00 -0.1923090589484E+01 -0.9835134410996E+00  0.3613084352261E+00
-0.6752665576646E-01 -0.1746479308441E+01 -0.8525828010151E+00  0.2252470301875E+00
-0.3643077315250E-02 -0.1579245730463E+01 -0.7439577377689E+00  0.1395265324369E+00
 0.3300544660651E-01 -0.1432612136098E+01 -0.6578151423925E+00  0.9410100715588E-01
 0.4978496752751E-01 -0.1310109753787E+01 -0.5923526480395E+00  0.7861866820783E-01
 0.5236199038956E-01 -0.1209469776699E+01 -0.5438406581859E+00  0.8364766047108E-01
 0.4416411734839E-01 -0.1126415146131E+01 -0.5086579822376E+00  0.1022294796859E+00
 0.2759644884905E-01 -0.1057271911919E+01 -0.4839474664152E+00  0.1295736245889E+00
 0.5591109908688E-02 -0.9960324370996E+00 -0.4655074225990E+00  0.1616194943041E+00
-0.2249659473929E-01 -0.9459821804692E+00 -0.4551850231935E+00  0.1992210123056E+00
-0.5319312209371E-01 -0.9201502910313E+00 -0.4574714030084E+00  0.2440627967460E+00
-0.8378999318248E-01 -0.9246307437010E+00 -0.4739577451331E+00  0.2971014591761E+00
-0.1158348572973E+00 -0.9565539816604E+00 -0.5040227530317E+00  0.3600261617515E+00
-0.1518889708745E+00 -0.1014905327982E+01 -0.5483933190714E+00  0.4336502417256E+00
-0.1954546406506E+00 -0.1101386824754E+01 -0.6095154871941E+00  0.5187345728954E+00
-0.2503936080296E+00 -0.1226057497109E+01 -0.6939320176549E+00  0.6160445668055E+00
-0.3199716587342E+00 -0.1410167735468E+01 -0.8131655132127E+00  0.7262617256911E+00
-0.7477127679374E+00 -0.2243870034634E+01 -0.1406043913643E+01  0.1026840369796E+01
-0.4754363478108E+00 -0.2191798098832E+01 -0.1253600186743E+01  0.7689236712109E+00
-0.2621271614006E+00 -0.2037201255106E+01 -0.1080684353017E+01  0.5159273256619E+00
-0.1186860392297E+00 -0.1826277327334E+01 -0.9141327799664E+00  0.3142120933896E+00
-0.3129654987696E-01 -0.1609188319308E+01 -0.7710278865613E+00  0.1784376958143E+00
 0.1860049580546E-01 -0.1413554490580E+01 -0.6556283758811E+00  0.9933804059858E-01
 0.4274638887491E-01 -0.1250201027187E+01 -0.5675036785672E+00  0.6228632330789E-01
 0.4907898545918E-01 -0.1119649434845E+01 -0.5031681099350E+00  0.5385656122694E-01
 0.4354399844520E-01 -0.1016065725465E+01 -0.4570852105399E+00  0.6302807911007E-01
 0.2948462197898E-01 -0.9324105234613E+00 -0.4243751726203E+00  0.8238334305788E-01
 0.9103830561055E-02 -0.8633239676612E+00 -0.4014834634188E+00  0.1072679501202E+00
-0.1489001826143E-01 -0.8017228853205E+00 -0.3838080637100E+00  0.1342592643078E+00
-0.4257459943782E-01 -0.7506414067956E+00 -0.3728115219841E+00  0.1642689993537E+00
-0.7094457697460E-01 -0.7234629171258E+00 -0.3733715212802E+00  0.1999560791071E+00
-0.9865002942325E-01 -0.7256400878670E+00 -0.3874163541438E+00  0.2440706793384E+00
-0.1275702751738E+00 -0.7535485076595E+00 -0.4141258268813E+00  0.2989622023877E+00
-0.1607777493952E+00 -0.8058275984227E+00 -0.4543045123221E+00  0.3658061721413E+00
-0.2022259096140E+00 -0.8843580522900E+00 -0.5106944607996E+00  0.4457939546158E+00
-0.2567849899173E+00 -0.1000209662677E+01 -0.5907874852208E+00  0.5407999024095E+00
-0.3296883410742E+00 -0.1177380432745E+01 -0.7083223218983E+00  0.6535763797049E+00
-0.6962865023714E+00 -0.2273714255995E+01 -0.1395900352892E+01  0.1036269169409E+01
-0.4101569611180E+00 -0.2193117304256E+01 -0.1223538901622E+01  0.7440515734153E+00
-0.2031428853729E+00 -0.1982628878194E+01 -0.1027312726271E+01  0.4653422296599E+00
-0.7329616405707E-01 -0.1713641846714E+01 -0.8398608629320E+00  0.2555431256750E+00
-0.5372177564782E-03 -0.1452446559482E+01 -0.6829023735701E+00  0.1256061478369E+00
 0.3593680679592E-01 -0.1230583692763E+01 -0.5614840349804E+00  0.5816288576323E-01
 0.4846581506156E-01 -0.1055789506147E+01 -0.4734421336094E+00  0.3271714015802E-01
 0.4563819792026E-01 -0.9229569382389E+00 -0.4123398069039E+00  0.3258120765517E-01
 0.3361247261675E-01 -0.8213034934139E+00 -0.3702147788357E+00  0.4566689541073E-01
 0.1547414224294E-01 -0.7407861119399E+00 -0.3408966248929E+00  0.6474152941245E-01
-0.6935514384786E-02 -0.6746588605727E+00 -0.3203493554175E+00  0.8577439640178E-01
-0.3120340881393E-01 -0.6152048756462E+00 -0.3038118929257E+00  0.1063335077447E+00
-0.5669382577689E-01 -0.5653735840565E+00 -0.2923716818801E+00  0.1274140706492E+00
-0.8088581761836E-01 -0.5387790131507E+00 -0.2912424697228E+00  0.1526171546371E+00
-0.1037151242415E+00 -0.5400049215983E+00 -0.3025484207773E+00  0.1864219234165E+00
-0.1273389033589E+00 -0.5645749328196E+00 -0.3251995021791E+00  0.2316636375721E+00
-0.1554136194059E+00 -0.6105359543586E+00 -0.3599962987562E+00  0.2897454854948E+00
-0.1924606500204E+00 -0.6795694444080E+00 -0.4098541433418E+00  0.3621927224274E+00
-0.2446741685526E+00 -0.7831117920980E+00 -0.4830594002806E+00  0.4519797683428E+00
-0.3202335590497E+00 -0.9473633517965E+00 -0.5957705465866E+00  0.5639638290479E+00
-0.6537942762931E+00 -0.2325643539627E+01 -0.1400335769931E+01  0.1041187808659E+01
-0.3496459451291E+00 -0.2202514944540E+01 -0.1199515615102E+01  0.7028399187644E+00
-0.1509074298378E+00 -0.1917035039302E+01 -0.9719329580304E+00  0.3974269571301E+00
-0.3497098456720E-01 -0.1577747577412E+01 -0.7579777222075E+00  0.1858357908262E+00
 0.2414410072108E-01 -0.1270814939603E+01 -0.5859352927883E+00  0.6969957561536E-01
 0.4824822216843E-01 -0.1028656103471E+01 -0.4607917030433E+00  0.1987324368292E-01
 0.5032323818062E-01 -0.8507778328078E+00 -0.3762136585205E+00  0.8907567368598E-02
 0.3996560316078E-01 -0.7228204167581E+00 -0.3209417615767E+00  0.1736528986465E-01
 0.2336321975117E-01 -0.6281089737234E+00 -0.2842305036460E+00  0.3326477272419E-01
 0.3066662325844E-02 -0.5541002667825E+00 -0.2589857934377E+00  0.5048926107570E-01
-0.1963394010316E-01 -0.4934672543903E+00 -0.2411575608003E+00  0.6613138069282E-01
-0.4261698358935E-01 -0.4384559283286E+00 -0.2261042680279E+00  0.7900330750483E-01
-0.6435995699085E-01 -0.3921056532937E+00 -0.2145388362896E+00  0.9013154980597E-01
-0.8276084987665E-01 -0.3680735200191E+00 -0.2118921533136E+00  0.1039419744554E+00
-0.9884115743090E-01 -0.3698695745241E+00 -0.2202940434601E+00  0.1264691608884E+00
-0.1149454880528E+00 -0.3921572182892E+00 -0.2383382713762E+00  0.1608010400028E+00
-0.1353565206403E+00 -0.4322104456155E+00 -0.2667564734637E+00  0.2083703283742E+00
-0.1651870435366E+00 -0.4910870592062E+00 -0.3084488275068E+00  0.2708223358775E+00
-0.2120822760022E+00 -0.5796666702766E+00 -0.3721220038072E+00  0.3520129028099E+00
-0.2880959953374E+00 -0.7254025282796E+00 -0.4763443048918E+00  0.4585639689946E+00
-0.6261892825886E+00 -0.2408828829366E+01 -0.1426458509001E+01  0.1039769197186E+01
-0.2983239049184E+00 -0.2219504097843E+01 -0.1183379158296E+01  0.6397037279436E+00
-0.1087392422696E+00 -0.1831081489077E+01 -0.9117157414205E+00  0.3097094111928E+00
-0.4732162676561E-02 -0.1407870214246E+01 -0.6639231154697E+00  0.1073462095687E+00
 0.4298795496028E-01 -0.1058553005407E+01 -0.4773155724993E+00  0.1576607697503E-01
 0.5584422450726E-01 -0.8081805856902E+00 -0.3535980888591E+00 -0.1031189487607E-01
 0.4880128043940E-01 -0.6388608741361E+00 -0.2773280083341E+00 -0.5347362413675E-02
 0.3290421720114E-01 -0.5233691174905E+00 -0.2305185025513E+00  0.1037638846109E-01
 0.1390128570652E-01 -0.4397406884898E+00 -0.2001445188005E+00  0.2694380662165E-01
-0.6691749030266E-02 -0.3747446057437E+00 -0.1792750862890E+00  0.4035403484678E-01
-0.2817032486167E-01 -0.3215686625042E+00 -0.1643773236450E+00  0.4910284689950E-01
-0.4860828488465E-01 -0.2730140722774E+00 -0.1511625074828E+00  0.5330199628683E-01
-0.6540305159398E-01 -0.2322897803959E+00 -0.1399156306804E+00  0.5384860781390E-01
-0.7673225417987E-01 -0.2127760281213E+00 -0.1360688923364E+00  0.5581570011861E-01
-0.8439081077196E-01 -0.2167065803518E+00 -0.1415157734692E+00  0.6655947236336E-01
-0.9080665872381E-01 -0.2379971065636E+00 -0.1545377692931E+00  0.8917836749297E-01
-0.1009389148296E+00 -0.2731722830996E+00 -0.1758322625807E+00  0.1249205731814E+00
-0.1203797068052E+00 -0.3223686335477E+00 -0.2080917194381E+00  0.1752353962348E+00
-0.1579843276704E+00 -0.3947953048075E+00 -0.2598064266057E+00  0.2443712216367E+00
-0.2301871916190E+00 -0.5176567923815E+00 -0.3514866715887E+00  0.3397940228576E+00
-0.6249355620907E+00 -0.2538134438454E+01 -0.1486642896485E+01  0.1028619444823E+01
-0.2636611210273E+00 -0.2241203558701E+01 -0.1177286396486E+01  0.5466148016894E+00
-0.7986727690020E-01 -0.1708152440606E+01 -0.8403692650963E+00  0.2005839254597E+00
 0.1854005698134E-01 -0.1188924128064E+01 -0.5500805120135E+00  0.2564094361515E-01
 0.5735964774379E-01 -0.8119966905263E+00 -0.3546794092082E+00 -0.2819478240913E-01
 0.5941539765519E-01 -0.5739488972844E+00 -0.2418307442123E+00 -0.2613929089529E-01
 0.4464282194748E-01 -0.4268165457471E+00 -0.1796216497302E+00 -0.6832313802946E-02
 0.2588834008775E-01 -0.3294085718225E+00 -0.1426545085535E+00  0.1270686819273E-01
 0.6573723099620E-02 -0.2592399414180E+00 -0.1187531223084E+00  0.2697870373629E-01
-0.1276146832205E-01 -0.2045956845326E+00 -0.1021578615826E+00  0.3455638600016E-01
-0.3189434424863E-01 -0.1602372374889E+00 -0.9030184318761E-01  0.3520159552124E-01
-0.4892617821760E-01 -0.1199152876569E+00 -0.7935548875972E-01  0.3015754731776E-01
-0.5999136158954E-01 -0.8691348871583E-01 -0.6904527946840E-01  0.1992389689839E-01
-0.6336272829523E-01 -0.7383394180932E-01 -0.6448243478559E-01  0.1002785331929E-01
-0.6116815509918E-01 -0.8135742128693E-01 -0.6698702073157E-01  0.8908839475509E-02
-0.5587063546075E-01 -0.1029065125561E+00 -0.7462525937862E-01  0.1948706807469E-01
-0.5322174263234E-01 -0.1345754451059E+00 -0.8826467801309E-01  0.4268050399553E-01
-0.5912029557506E-01 -0.1757548152738E+00 -0.1103913018190E+00  0.7940844027944E-01
-0.8279765635822E-01 -0.2329509918977E+00 -0.1484018643039E+00  0.1335453929988E+00
-0.1445374762763E+00 -0.3310258957200E+00 -0.2235147842713E+00  0.2116968865870E+00
-0.6737745455807E+00 -0.2739768674241E+01 -0.1604365309247E+01  0.1001240249833E+01
-0.2584818356807E+00 -0.2258720828851E+01 -0.1183085249329E+01  0.4118325143054E+00
-0.6344264687783E-01 -0.1516460120267E+01 -0.7425542986744E+00  0.7163298611921E-01
 0.3991247738594E-01 -0.9030087316688E+00 -0.4056552384841E+00 -0.4760981620077E-01
 0.6992253893818E-01 -0.5348538806974E+00 -0.2185177300726E+00 -0.5076815736336E-01
 0.5861675554542E-01 -0.3391170427403E+00 -0.1318351346472E+00 -0.2193116689518E-01
 0.3991557643949E-01 -0.2225061810509E+00 -0.8581758394971E-01  0.5569295658441E-02
 0.2076637236739E-01 -0.1452932462525E+00 -0.5852763057757E-01  0.2389985113600E-01
 0.2754751502045E-02 -0.8880529399001E-01 -0.4044375486676E-01  0.3278522256754E-01
-0.1430958120547E-01 -0.4476392596755E-01 -0.2776454830090E-01  0.3291643257622E-01
-0.3042815921904E-01 -0.1009797406838E-01 -0.1904728259677E-01  0.2478686334766E-01
-0.4361443640574E-01  0.2032946266206E-01 -0.1094393763177E-01  0.1045915242569E-01
-0.4862487741181E-01  0.4341480944263E-01 -0.2448731939307E-02 -0.1033445315099E-01
-0.4354403999367E-01  0.4815594733084E-01  0.2167596442972E-02 -0.3177092688888E-01
-0.3032209769208E-01  0.3575848492190E-01  0.2555101991532E-02 -0.4452801497181E-01
-0.1140981288141E-01  0.1310405478118E-01  0.7962936908727E-03 -0.4595444115373E-01
 0.6188034158412E-02 -0.1627091233583E-01 -0.4738952731369E-02 -0.3541657570160E-01
 0.1650179378650E-01 -0.5182057660356E-01 -0.1659982788192E-01 -0.1271155590151E-01
 0.1114853505497E-01 -0.9733288761280E-01 -0.4050664559944E-01  0.2478684072935E-01
-0.3132818114030E-01 -0.1727252282646E+00 -0.9590510217703E-01  0.8022553717743E-01
-0.8323078848603E+00 -0.3069859019260E+01 -0.1834018440285E+01  0.9439557997118E+00
-0.2981510015876E+00 -0.2239752777869E+01 -0.1192814773319E+01  0.2184599475536E+00
-0.4721811113878E-01 -0.1197725559323E+01 -0.5851235236331E+00 -0.6628070786057E-01
 0.7571549960140E-01 -0.5340588675388E+00 -0.2154213823842E+00 -0.8978773907793E-01
 0.7402243865536E-01 -0.2593236021361E+00 -0.8709154661504E-01 -0.3990096250481E-01
 0.5708886993036E-01 -0.1173698679576E+00 -0.2833206900095E-01  0.3345582561425E-02
 0.3724548902246E-01 -0.3250138801841E-01  0.2229727466248E-02  0.3004673399532E-01
 0.1947555516481E-01  0.2629418416542E-01  0.2151177743065E-01  0.4212283237265E-01
 0.3446755032064E-02  0.7046247524110E-01  0.3473733814028E-01  0.4322134809981E-01
-0.1091480225308E-01  0.1044565588779E+00  0.4396462550215E-01  0.3504582989992E-01
-0.2366960755922E-01  0.1289921413688E+00  0.4950159076494E-01  0.1818632267752E-01
-0.3302455200667E-01  0.1477036461467E+00  0.5389917410913E-01 -0.4836205350907E-02
-0.3209072379851E-01  0.1583406193526E+00  0.5933745075991E-01 -0.3560124266655E-01
-0.1845345935180E-01  0.1526827053519E+00  0.6308774546005E-01 -0.6805732062806E-01
 0.6904914382128E-02  0.1344831961296E+00  0.6645241177198E-01 -0.9211026558780E-01
 0.4106054542638E-01  0.1102706560878E+00  0.7112566453128E-01 -0.1053666650107E+00
 0.7570662143341E-01  0.8319466298809E-01  0.7468360348868E-01 -0.1072281233971E+00
 0.1036726281950E+00  0.5097668589354E-01  0.7268517743727E-01 -0.9787603269738E-01
 0.1197208418407E+00  0.1156165910270E-01  0.6170277528692E-01 -0.7657845755576E-01
 0.1055628984258E+00 -0.4943479238215E-01  0.2638020977363E-01 -0.4674810251310E-01
-0.1255831336730E+01 -0.3659487199445E+01 -0.2310199706143E+01  0.8254304684488E+00
-0.4132718524317E+00 -0.2095855430574E+01 -0.1179289820021E+01 -0.5841315200020E-01
 0.7863359189480E-01 -0.5894017113383E+00 -0.2400610155295E+00 -0.1690435770106E+00
 0.8398627546432E-01 -0.1861799865184E+00 -0.4803104407361E-01 -0.6984395704437E-01
 0.7910582180699E-01 -0.9070223143922E-02  0.3291673128815E-01  0.4121217027938E-02
 0.5814627457095E-01  0.8120933087873E-01  0.6549713439523E-01  0.4491663017319E-01
 0.3962179219560E-01  0.1405051090916E+00  0.8465964339028E-01  0.6271801676654E-01
 0.2330184337877E-01  0.1844137502096E+00  0.9762632873894E-01  0.6498888714012E-01
 0.8868131542261E-02  0.2182164290147E+00  0.1067297431911E+00  0.5696804689712E-01
-0.2512113922427E-02  0.2437252642730E+00  0.1133701803772E+00  0.4047598991996E-01
-0.1190534692907E-01  0.2579265224171E+00  0.1156299521861E+00  0.1578749591697E-01
-0.1756522787527E-01  0.2630012218699E+00  0.1153549168849E+00 -0.1453290703181E-01
-0.1163287346854E-01  0.2572999346219E+00  0.1154635184492E+00 -0.5434560702350E-01
 0.1056643505548E-01  0.2389470225378E+00  0.1172713247714E+00 -0.9738893215387E-01
 0.4940004621186E-01  0.2146839824815E+00  0.1241194931711E+00 -0.1325588087855E+00
 0.1004133860866E+00  0.1893206853934E+00  0.1361750132502E+00 -0.1574884300091E+00
 0.1528881149708E+00  0.1641719673903E+00  0.1490182383318E+00 -0.1714728300528E+00
 0.2015686379756E+00  0.1379769625460E+00  0.1595864318404E+00 -0.1745395476937E+00
 0.2363662114582E+00  0.9639159973493E-01  0.1563961708641E+00 -0.1663043923820E+00
 0.2581276922384E+00  0.3553516461939E-01  0.1380215423731E+00 -0.1602495642180E+00
-0.3057351303938E+01 -0.5356091208534E+01 -0.3954317970832E+01  0.5037490798726E+00
 0.1517671797926E+00 -0.7141291616681E+00 -0.2643101308111E+00 -0.3778441882754E+00
 0.6186302545207E-01 -0.1118736695474E+00 -0.2350500266518E-01 -0.1383129316019E+00
 0.1025570596081E+00  0.1080270815108E+00  0.9897454607482E-01  0.4521463511460E-02
 0.8698356520503E-01  0.2016164132321E+00  0.1356419895214E+00  0.6952024034357E-01
 0.6669888788037E-01  0.2555144226651E+00  0.1514402555723E+00  0.9541629553687E-01
 0.4809664152047E-01  0.2959709559533E+00  0.1617117704025E+00  0.9944423539372E-01
 0.3284305160418E-01  0.3297176105553E+00  0.1704035107827E+00  0.9030016242222E-01
 0.1923718126205E-01  0.3551518624554E+00  0.1759628501009E+00  0.7299074228556E-01
 0.8647512696375E-02  0.3720766912122E+00  0.1789403753832E+00  0.4837530406627E-01
 0.6150286496185E-02  0.3814154087377E+00  0.1821558762979E+00  0.1781759764700E-01
 0.1817864312797E-02  0.3676603627441E+00  0.1736547662763E+00 -0.1647029780047E-01
 0.1047339392814E-01  0.3378989082469E+00  0.1637349816070E+00 -0.6442782791365E-01
 0.4248100312572E-01  0.3053290539848E+00  0.1634707264273E+00 -0.1185625712040E+00
 0.9699461303369E-01  0.2767908925288E+00  0.1756791871688E+00 -0.1651442986365E+00
 0.1652219539987E+00  0.2507490029047E+00  0.1955063492487E+00 -0.2015680365860E+00
 0.2367289197476E+00  0.2284660666568E+00  0.2186416430555E+00 -0.2272580398574E+00
 0.3045207319684E+00  0.2058499655453E+00  0.2398742272231E+00 -0.2422601035978E+00
 0.3695073721381E+00  0.1802260086007E+00  0.2583746882919E+00 -0.2451817914957E+00
 0.3982046803954E+00  0.7198995146704E-01  0.2209914764149E+00 -0.2504445828432E+00
-0.3072843812457E+00 -0.1622149005346E+01 -0.9068336893980E+00 -0.9357808244285E+00
-0.2980159392446E+00 -0.1446135361992E+01 -0.8197511095019E+00 -0.8954132532339E+00
-0.3107500058543E+00 -0.1306892612380E+01 -0.7602920286416E+00 -0.8496113254022E+00
-0.3221363676887E+00 -0.1176051926866E+01 -0.7041484966547E+00 -0.7984891265557E+00
-0.3300597677650E+00 -0.1050191372056E+01 -0.6487180340706E+00 -0.7420518183792E+00
-0.3322096288490E+00 -0.9281135130719E+00 -0.5923518752004E+00 -0.6807335525448E+00
-0.3272866127219E+00 -0.8101107979144E+00 -0.5345767816432E+00 -0.6150960050521E+00
-0.3144182814792E+00 -0.6969191325597E+00 -0.4753285833927E+00 -0.5458264498182E+00
-0.2930836404800E+00 -0.5894269987517E+00 -0.4147799993869E+00 -0.4737339180912E+00
-0.2630335128810E+00 -0.4884996188638E+00 -0.3532205710241E+00 -0.3997464621081E+00
-0.2242638699020E+00 -0.3948882926419E+00 -0.2910015156575E+00 -0.3248955615184E+00
-0.1770067198012E+00 -0.3091728667847E+00 -0.2285044051158E+00 -0.2502878658345E+00
-0.1217270895217E+00 -0.2317253510198E+00 -0.1661226466332E+00 -0.1770658011801E+00
-0.5911409926333E-01 -0.1626905247597E+00 -0.1042481730264E+00 -0.1063613913560E+00
 0.9938998223135E-02 -0.1019876356758E+00 -0.4326285949303E-01 -0.3925126723507E-01
 0.8437279668990E-01 -0.4933352967452E-01  0.1646845545546E-01  0.2327562136188E-01
 0.1629835256492E+00 -0.4320858063814E-02  0.7457145357601E-01  0.8031885490001E-01
 0.2446028597812E+00  0.3358441653551E-01  0.1307480195372E+00  0.1310226006166E+00
 0.3274700923420E+00  0.6417776823120E-01  0.1840744940025E+00  0.1743450438404E+00
 0.4155571711295E+00  0.9020054406525E-01  0.2377061255386E+00  0.2087034438442E+00
-0.3048833178519E+00 -0.1737123145293E+01 -0.9597430352440E+00 -0.9989247295674E+00
-0.3153004227303E+00 -0.1590778867628E+01 -0.8958572641961E+00 -0.9562078148761E+00
-0.3288893553768E+00 -0.1440477295049E+01 -0.8316023235908E+00 -0.9103586731379E+00
-0.3452542466866E+00 -0.1298306518264E+01 -0.7724735575674E+00 -0.8616133772146E+00
-0.3578531360566E+00 -0.1161269573912E+01 -0.7139876718744E+00 -0.8081624221175E+00
-0.3645976882813E+00 -0.1028856670337E+01 -0.6549235468895E+00 -0.7494501737763E+00
-0.3639191230369E+00 -0.9009342608938E+00 -0.5944810889396E+00 -0.6855049481260E+00
-0.3547741949289E+00 -0.7779448983027E+00 -0.5323779724685E+00 -0.6167533039179E+00
-0.3364046981845E+00 -0.6606288679311E+00 -0.4686057748858E+00 -0.5438973185665E+00
-0.3083018220408E+00 -0.5498733712537E+00 -0.4033423398254E+00 -0.4678544027409E+00
-0.2701986576252E+00 -0.4465824615872E+00 -0.3368871251753E+00 -0.3897177589054E+00
-0.2220867453863E+00 -0.3515771163447E+00 -0.2696220143297E+00 -0.3107208109196E+00
-0.1642334427128E+00 -0.2655130025570E+00 -0.2019808287645E+00 -0.2321952261371E+00
-0.9718622650485E-01 -0.1888155861009E+00 -0.1344208515838E+00 -0.1555184987913E+00
-0.2174987709938E-01 -0.1216372380498E+00 -0.6739194394918E-01 -0.8205301652076E-01
 0.6106679153469E-01 -0.6385306215505E-01 -0.1309547188248E-02 -0.1308579479719E-01
 0.1501722776726E+00 -0.1507872789871E-01  0.6349396823268E-01  0.5021862440576E-01
 0.2444709500763E+00  0.2517490704111E-01  0.1267335525237E+00  0.1068351597489E+00
 0.3438591138144E+00  0.5794680827282E-01  0.1888487829020E+00  0.1559128260782E+00
 0.4489445934523E+00  0.8419201618697E-01  0.2505742058949E+00  0.1973405230283E+00
-0.3011623911178E+00 -0.1855223371990E+01 -0.1013501306090E+01 -0.1053890628256E+01
-0.3216129176065E+00 -0.1719761552196E+01 -0.9594459983738E+00 -0.1019843857531E+01
-0.3428051789371E+00 -0.1575950897904E+01 -0.9018153538280E+00 -0.9782910703771E+00
-0.3635634973390E+00 -0.1430343552478E+01 -0.8431363112755E+00 -0.9321543768267E+00
-0.3815161498562E+00 -0.1286875541522E+01 -0.7841440929586E+00 -0.8812135839161E+00
-0.3938151109378E+00 -0.1146248743561E+01 -0.7238300097785E+00 -0.8247793283957E+00
-0.3986948525412E+00 -0.1009140518717E+01 -0.6616826228133E+00 -0.7625384513100E+00
-0.3947810393067E+00 -0.8762520871668E+00 -0.5973855679273E+00 -0.6945748925606E+00
-0.3810103077887E+00 -0.7484764736413E+00 -0.5308587859256E+00 -0.6213310769656E+00
-0.3565524004075E+00 -0.6268548704858E+00 -0.4622014161476E+00 -0.5435577303686E+00
-0.3208125105507E+00 -0.5125081024302E+00 -0.3916606871077E+00 -0.4622756321022E+00
-0.2734612197195E+00 -0.4065473450872E+00 -0.3196040246485E+00 -0.3787414438709E+00
-0.2144762796016E+00 -0.3099778694008E+00 -0.2464934494059E+00 -0.2944073351097E+00
-0.1441750666142E+00 -0.2235994097602E+00 -0.1728540034576E+00 -0.2108644003645E+00
-0.6321859440984E-01 -0.1479137513511E+00 -0.9923220225597E-01 -0.1297639218005E+00
 0.2743684668780E-01 -0.8305405210175E-01 -0.2614008647826E-01 -0.5271801065966E-01
 0.1266309852875E+00 -0.2877968267931E-01  0.4599011210921E-01  0.1880844988386E-01
 0.2332326953860E+00  0.1553312306292E-01  0.1169199343744E+00  0.8360280914453E-01
 0.3461228397804E+00  0.5066174722228E-01  0.1864887554182E+00  0.1408540934419E+00
 0.4636806985276E+00  0.7718112268084E-01  0.2542050553232E+00  0.1902518109365E+00
-0.2954868695807E+00 -0.1983946890011E+01 -0.1071333864291E+01 -0.1106460736408E+01
-0.3243931744994E+00 -0.1853355121775E+01 -0.1023541696653E+01 -0.1081422615338E+01
-0.3521371724611E+00 -0.1714263005790E+01 -0.9712080813148E+00 -0.1047178543262E+01
-0.3786892339728E+00 -0.1570121317537E+01 -0.9159409568864E+00 -0.1006190830831E+01
-0.4022048417102E+00 -0.1424020152303E+01 -0.8583257450090E+00 -0.9591741194172E+00
-0.4205889851037E+00 -0.1278086691295E+01 -0.7983775658823E+00 -0.9059290319644E+00
-0.4318351161808E+00 -0.1133612177500E+01 -0.7357602261636E+00 -0.8461291670388E+00
-0.4342946810491E+00 -0.9917588707615E+00 -0.6702451676510E+00 -0.7796606761371E+00
-0.4265493276766E+00 -0.8537137345651E+00 -0.6017236377274E+00 -0.7067132016331E+00
-0.4073849860260E+00 -0.7207764234591E+00 -0.5302358611131E+00 -0.6278044287983E+00
-0.3757935778464E+00 -0.5943533630311E+00 -0.4559690610560E+00 -0.5437819459233E+00
-0.3310163672741E+00 -0.4759089218163E+00 -0.3792548849105E+00 -0.4558175581569E+00
-0.2726111252217E+00 -0.3668817084824E+00 -0.3005616310786E+00 -0.3653903765855E+00
-0.2005270312313E+00 -0.2685713349074E+00 -0.2204762315260E+00 -0.2742474884741E+00
-0.1151614694152E+00 -0.1819988649559E+00 -0.1396653568002E+00 -0.1843277788372E+00
-0.1737181704020E-01 -0.1077615140387E+00 -0.5881266545791E-01 -0.9763790838575E-01
 0.9159653589733E-01 -0.4591162798053E-01  0.2147190666643E-01 -0.1608355307622E-01
 0.2102016640596E+00  0.4030770431466E-02  0.1006892439554E+00  0.5871808796639E-01
 0.3366512967597E+00  0.4291077683078E-01  0.1783941741350E+00  0.1255657019380E+00
 0.4690203734190E+00  0.7180516445946E-01  0.2541880021582E+00  0.1836571736945E+00
-0.2867975539441E+00 -0.2122988624818E+01 -0.1132599501146E+01 -0.1156887426541E+01
-0.3231821943744E+00 -0.1995994605433E+01 -0.1090013093145E+01 -0.1140385254009E+01
-0.3576382337645E+00 -0.1860931945277E+01 -0.1042727981505E+01 -0.1114466052985E+01
-0.3903125057217E+00 -0.1719241796118E+01 -0.9914905193499E+00 -0.1080560814776E+01
-0.4200301131526E+00 -0.1573051877263E+01 -0.9367485331195E+00 -0.1039373319506E+01
-0.4449913590271E+00 -0.1424274975321E+01 -0.8785551749155E+00 -0.9909381620700E+00
-0.4632960444804E+00 -0.1274515976251E+01 -0.8167716476721E+00 -0.9350022000234E+00
-0.4730977634103E+00 -0.1125184246200E+01 -0.7511925426114E+00 -0.8713353278284E+00
-0.4726725386735E+00 -0.9777014799576E+00 -0.6816757870277E+00 -0.7999038644681E+00
-0.4604101775155E+00 -0.8335947676358E+00 -0.6081823226786E+00 -0.7209592488894E+00
-0.4348352326204E+00 -0.6945409725231E+00 -0.5308068150712E+00 -0.6350927236733E+00
-0.3946593646804E+00 -0.5623596385978E+00 -0.4497989303999E+00 -0.5432752697662E+00
-0.3388716356196E+00 -0.4389623033868E+00 -0.3655819504058E+00 -0.4468862547300E+00
-0.2668603540521E+00 -0.3262529063942E+00 -0.2787632317027E+00 -0.3477211571542E+00
-0.1785503630002E+00 -0.2259700707668E+00 -0.1901246033883E+00 -0.2479577832677E+00
-0.7451384602778E-01 -0.1394603421683E+00 -0.1005678681971E+00 -0.1500515445830E+00
 0.4399089140368E-01 -0.6741968952647E-01 -0.1101153508978E-01 -0.5653485181926E-01
 0.1751148679087E+00 -0.9686838467909E-02  0.7775117363997E-01  0.3026325190736E-01
 0.3166393024127E+00  0.3473247019592E-01  0.1651447327072E+00  0.1084825222942E+00
 0.4661640487046E+00  0.6726100273843E-01  0.2507097735423E+00  0.1768282935581E+00
-0.2749958851514E+00 -0.2271858391995E+01 -0.1197021507223E+01 -0.1204352084564E+01
-0.3179059531805E+00 -0.2149068378365E+01 -0.1159477932886E+01 -0.1196074577418E+01
-0.3589160563655E+00 -0.2018322222108E+01 -0.1117301988049E+01 -0.1178856456462E+01
-0.3980539023643E+00 -0.1880052621208E+01 -0.1070710063363E+01 -0.1153204300333E+01
-0.4344211032037E+00 -0.1735466788047E+01 -0.1019847306301E+01 -0.1119455622680E+01
-0.4665177085095E+00 -0.1586006571724E+01 -0.9646864092631E+00 -0.1077569690596E+01
-0.4925445637185E+00 -0.1433096052433E+01 -0.9050510872956E+00 -0.1027248485687E+01
-0.5105923063803E+00 -0.1278141299648E+01 -0.8407047927009E+00 -0.9681283774183E+00
-0.5187101283594E+00 -0.1122604784155E+01 -0.7714180069253E+00 -0.8999405583552E+00
-0.5149376874283E+00 -0.9680994268935E+00 -0.6970274419633E+00 -0.8226284150751E+00
-0.4973293157451E+00 -0.8164518652069E+00 -0.6174771534813E+00 -0.7364395290685E+00
-0.4640066124777E+00 -0.6697369743153E+00 -0.5328594844412E+00 -0.6420096618626E+00
-0.4132548171789E+00 -0.5302760871889E+00 -0.4434595239280E+00 -0.5404457996955E+00
-0.3436769100544E+00 -0.4005875357913E+00 -0.3498042886602E+00 -0.4334043593581E+00
-0.2544102318534E+00 -0.2832637188415E+00 -0.2527067561856E+00 -0.3231456745634E+00
-0.1453912634874E+00 -0.1807353338098E+00 -0.1532795003409E+00 -0.2125240392890E+00
-0.1757388320039E-01 -0.9485383217005E-01 -0.5284102609008E-01 -0.1048429315299E+00
 0.1270194385599E+00 -0.2635841199246E-01  0.4731068236670E-01 -0.3505090691703E-02
 0.2856054029495E+00  0.2557428716785E-01  0.1462544539842E+00  0.8852406590722E-01
 0.4551668560063E+00  0.6309524827659E-01  0.2435831883952E+00  0.1692063848075E+00
-0.2599924928599E+00 -0.2429782234728E+01 -0.1264194118760E+01 -0.1247712953566E+01
-0.3085748497442E+00 -0.2312715027982E+01 -0.1232006239406E+01 -0.1247531147444E+01
-0.3557801274738E+00 -0.2187465510891E+01 -0.1195325447000E+01 -0.1239159772713E+01
-0.4014341881172E+00 -0.2053973041121E+01 -0.1154041394815E+01 -0.1222460249235E+01
-0.4447472108564E+00 -0.1912791227592E+01 -0.1108043063260E+01 -0.1197344934392E+01
-0.4844054749207E+00 -0.1764816755408E+01 -0.1057134445573E+01 -0.1163545692083E+01
-0.5187375323012E+00 -0.1611106966726E+01 -0.1001026912004E+01 -0.1120604867622E+01
-0.5458348123564E+00 -0.1452821559471E+01 -0.9393684923764E+00 -0.1067967564735E+01
-0.5636165136892E+00 -0.1291254708890E+01 -0.8717894724010E+00 -0.1005095977119E+01
-0.5698532510338E+00 -0.1127901629829E+01 -0.7979447919818E+00 -0.9315782369185E+00
-0.5621822109720E+00 -0.9645352920612E+00 -0.7175572246056E+00 -0.8472325594068E+00
-0.5381373468772E+00 -0.8032767457868E+00 -0.6304646219530E+00 -0.7522172904597E+00
-0.4952210884107E+00 -0.6466526448229E+00 -0.5366806532586E+00 -0.6471578944537E+00
-0.4310465288272E+00 -0.4976279091978E+00 -0.4364769847647E+00 -0.5332973322170E+00
-0.3435883528366E+00 -0.3595889229969E+00 -0.3304933188035E+00 -0.4126662086710E+00
-0.2315788382097E+00 -0.2362181511488E+00 -0.2198645844408E+00 -0.2882455918491E+00
-0.9506218940858E-01 -0.1311494493504E+00 -0.1063194699470E+00 -0.1640424949468E+00
 0.6418103209883E-01 -0.4707235034348E-01  0.8041080404618E-02 -0.4487887849448E-01
 0.2425604479816E+00  0.1548357700858E-01  0.1212806914378E+00  0.6434373597408E-01
 0.4356735575047E+00  0.5932346456042E-01  0.2326485997805E+00  0.1598925682478E+00
-0.2418335115552E+00 -0.2595995472827E+01 -0.1333779619277E+01 -0.1285754777871E+01
-0.2952942353211E+00 -0.2486613853912E+01 -0.1307496798623E+01 -0.1293586234367E+01
-0.3481847970362E+00 -0.2368680336018E+01 -0.1276926609297E+01 -0.1294087902773E+01
-0.4001563376863E+00 -0.2241873232613E+01 -0.1241753894891E+01 -0.1286725115116E+01
-0.4504500289394E+00 -0.2106285313401E+01 -0.1201665607852E+01 -0.1271060577341E+01
-0.4978819281141E+00 -0.1962322252697E+01 -0.1156295962048E+01 -0.1246571170674E+01
-0.5409041899701E+00 -0.1810596079775E+01 -0.1105205123977E+01 -0.1212592794742E+01
-0.5776670370553E+00 -0.1651878502484E+01 -0.1047886400926E+01 -0.1168348229781E+01
-0.6060495022837E+00 -0.1487113015916E+01 -0.9837863810585E+00 -0.1113013093717E+01
-0.6236614880772E+00 -0.1317469705985E+01 -0.9123316588952E+00 -0.1045796458372E+01
-0.6278289967656E+00 -0.1144425161275E+01 -0.8329594521662E+00 -0.9660319942230E+00
-0.6155807398233E+00 -0.9698596899555E+00 -0.7451570001061E+00 -0.8732873458584E+00
-0.5836579262390E+00 -0.7961684277172E+00 -0.6485183847145E+00 -0.7675060994056E+00
-0.5285809727493E+00 -0.6263852024403E+00 -0.5428341009623E+00 -0.6492011483660E+00
-0.4468298341301E+00 -0.4643123735364E+00 -0.4282368365171E+00 -0.5197209914537E+00
-0.3352409463506E+00 -0.3146331709736E+00 -0.3054408343677E+00 -0.3816067854508E+00
-0.1917725718264E+00 -0.1829096898526E+00 -0.1761006625425E+00 -0.2390271840397E+00
-0.1688643969037E-01 -0.7523084115479E-01 -0.4329512188742E-01 -0.9815383882671E-01
 0.1856046713742E+00  0.4119930338894E-02  0.8917056257899E-01  0.3315590387231E-01
 0.4082805523903E+00  0.5572066840987E-01  0.2180805732230E+00  0.1471953323644E+00
-0.2206003421884E+00 -0.2769592366566E+01 -0.1405390569550E+01 -0.1317219786031E+01
-0.2781915369687E+00 -0.2670129819707E+01 -0.1385711034123E+01 -0.1332912540493E+01
-0.3361479579728E+00 -0.2561812741924E+01 -0.1362041525497E+01 -0.1342178007928E+01
-0.3940106575798E+00 -0.2444155502702E+01 -0.1333938091949E+01 -0.1344278661906E+01
-0.4510458310683E+00 -0.2316923063007E+01 -0.1300945376916E+01 -0.1338543256832E+01
-0.5061767967232E+00 -0.2180104780281E+01 -0.1262552337990E+01 -0.1324242385081E+01
-0.5579878487143E+00 -0.2033867055745E+01 -0.1218171802006E+01 -0.1300525766662E+01
-0.6047379181955E+00 -0.1878525212465E+01 -0.1167133668450E+01 -0.1266413888730E+01
-0.6443583888815E+00 -0.1714551844464E+01 -0.1108687806860E+01 -0.1220823377616E+01
-0.6744258948809E+00 -0.1542620256951E+01 -0.1042011688718E+01 -0.1162611476515E+01
-0.6921115537805E+00 -0.1363679124770E+01 -0.9662216164679E+00 -0.1090635714704E+01
-0.6941120109830E+00 -0.1179057156173E+01 -0.8803895063303E+00 -0.1003834821151E+01
-0.6765721127175E+00 -0.9906027130492E+00 -0.7835721661229E+00 -0.9013461678839E+00
-0.6350180319057E+00 -0.8008698612917E+00 -0.6748673080911E+00 -0.7826859877403E+00
-0.5643439336448E+00 -0.6133712470676E+00 -0.5535261335309E+00 -0.6480349912435E+00
-0.4589534015161E+00 -0.4329290589542E+00 -0.4191847553578E+00 -0.4986984759401E+00
-0.3133126816878E+00 -0.2661752245246E+00 -0.2723593152290E+00 -0.3378487912647E+00
-0.1235011173923E+00 -0.1222142491371E+00 -0.1154862219759E+00 -0.1716936437097E+00
 0.1084728287071E+00 -0.1336591440639E-01  0.4470024960797E-01 -0.1100742530481E-01
 0.3733594064164E+00  0.5253991751061E-01  0.2001726817380E+00  0.1292960538565E+00
-0.1963110271854E+00 -0.2949212684144E+01 -0.1478396140575E+01 -0.1340826552640E+01
-0.2573569080139E+00 -0.2861955510690E+01 -0.1466076833072E+01 -0.1364008303931E+01
-0.3197001872193E+00 -0.2765788809535E+01 -0.1450179824796E+01 -0.1381689836116E+01
-0.3828706062846E+00 -0.2660130064567E+01 -0.1430210311673E+01 -0.1393062673385E+01
-0.4461776241810E+00 -0.2544513719716E+01 -0.1405624928067E+01 -0.1397335146778E+01
-0.5086525557440E+00 -0.2418605552872E+01 -0.1375811307560E+01 -0.1393655118376E+01
-0.5690233087196E+00 -0.2282183191705E+01 -0.1340067051801E+01 -0.1381053865031E+01
-0.6256994128852E+00 -0.2135119810979E+01 -0.1297585031925E+01 -0.1358419397787E+01
-0.6767455517918E+00 -0.1977386208854E+01 -0.1247441924339E+01 -0.1324491734995E+01
-0.7198320704454E+00 -0.1809077438305E+01 -0.1188587466098E+01 -0.1277871873432E+01
-0.7521553438781E+00 -0.1630466144730E+01 -0.1119832096805E+01 -0.1217040941371E+01
-0.7703220531130E+00 -0.1442086597472E+01 -0.1039832063137E+01 -0.1140392553467E+01
-0.7701898714947E+00 -0.1244858594343E+01 -0.9470727765418E+00 -0.1046289338398E+01
-0.7466554809185E+00 -0.1040269698003E+01 -0.8398548319630E+00 -0.9331662481273E+00
-0.6933831316771E+00 -0.8306502990988E+00 -0.7162957106479E+00 -0.7997240786179E+00
-0.6024872390668E+00 -0.6196089028025E+00 -0.5743851852217E+00 -0.6452986259543E+00
-0.4642702984887E+00 -0.4127749003558E+00 -0.4122112424114E+00 -0.4705846290553E+00
-0.2674487575801E+00 -0.2191963697824E+00 -0.2287232092803E+00 -0.2791060794775E+00
-0.2067863998188E-02 -0.5477015926877E-01 -0.2671387086771E-01 -0.8046711211621E-01
 0.3235179419363E+00  0.4830567305362E-01  0.1747570986020E+00  0.1032149436146E+00
-0.1691813345542E+00 -0.3133253398875E+01 -0.1552144320775E+01 -0.1355451874481E+01
-0.2330306152821E+00 -0.3060282891072E+01 -0.1547857344060E+01 -0.1385424724550E+01
-0.2990904599610E+00 -0.2978733456666E+01 -0.1540577236907E+01 -0.1410824197832E+01
-0.3669236394440E+00 -0.2887963899658E+01 -0.1529797139498E+01 -0.1430842967811E+01
-0.4359071910482E+00 -0.2787375945233E+01 -0.1514943070210E+01 -0.1444656366180E+01
-0.5051841345630E+00 -0.2676427486615E+01 -0.1495357458161E+01 -0.1451372409640E+01
-0.5736308887526E+00 -0.2554624107423E+01 -0.1470279844473E+01 -0.1449986230606E+01
-0.6398281300161E+00 -0.2421504616379E+01 -0.1438826387156E+01 -0.1439347187202E+01
-0.7020220964885E+00 -0.2276632878548E+01 -0.1399967834716E+01 -0.1418136535599E+01
-0.7580646602117E+00 -0.2119601709770E+01 -0.1352503190461E+01 -0.1384850331156E+01
-0.8053214711420E+00 -0.1950052104903E+01 -0.1295025577457E+01 -0.1337783123782E+01
-0.8405347535706E+00 -0.1767711397982E+01 -0.1225875688120E+01 -0.1275010588358E+01
-0.8596201847532E+00 -0.1572457258942E+01 -0.1143076395637E+01 -0.1194372888369E+01
-0.8573632727086E+00 -0.1364420909253E+01 -0.1044238562873E+01 -0.1093466361026E+01
-0.8269549655695E+00 -0.1144155065600E+01 -0.9264217122999E+00 -0.9696625218732E+00
-0.7592583124999E+00 -0.9129166699734E+00 -0.7859222397690E+00 -0.8201997284866E+00
-0.6415974563011E+00 -0.6731651799223E+00 -0.6179384374577E+00 -0.6424597064773E+00
-0.4557420912955E+00 -0.4295870610017E+00 -0.4161047005243E+00 -0.4347450821240E+00
-0.1739543229185E+00 -0.1910967045178E+00 -0.1715739824599E+00 -0.1985076964794E+00
 0.2389842774702E+00  0.1549689216986E-01  0.1196061494275E+00  0.5247188256999E-01
-0.1395858671954E+00 -0.3319820046634E+01 -0.1625920775376E+01 -0.1360200023349E+01
-0.2056557730388E+00 -0.3262881657484E+01 -0.1630212588211E+01 -0.1395934172930E+01
-0.2748285895759E+00 -0.3198094732768E+01 -0.1632273957362E+01 -0.1427964205280E+01
-0.3467242439416E+00 -0.3124817967372E+01 -0.1631624835179E+01 -0.1455514020325E+01
-0.4208024599193E+00 -0.3042418544228E+01 -0.1627713867821E+01 -0.1477772799689E+01
-0.4963217752203E+00 -0.2950280303543E+01 -0.1619902972910E+01 -0.1493860129198E+01
-0.5723047898847E+00 -0.2847798292700E+01 -0.1607448444738E+01 -0.1502790906081E+01
-0.6475033131052E+00 -0.2734366578436E+01 -0.1589478844993E+01 -0.1503444787681E+01
-0.7203542889302E+00 -0.2609365661613E+01 -0.1564968372786E+01 -0.1494539193971E+01
-0.7889169696805E+00 -0.2472153509810E+01 -0.1532703121473E+01 -0.1474601784893E+01
-0.8507802833423E+00 -0.2322062127071E+01 -0.1491235929112E+01 -0.1441937114785E+01
-0.9029251435644E+00 -0.2158401017872E+01 -0.1438823292226E+01 -0.1394581520572E+01
-0.9415171091517E+00 -0.1980469558699E+01 -0.1373333730407E+01 -0.1330239141369E+01
-0.9615862026055E+00 -0.1787582049183E+01 -0.1292109075063E+01 -0.1246189406482E+01
-0.9565127260011E+00 -0.1579111366089E+01 -0.1191743320260E+01 -0.1139151181846E+01
-0.9171550837831E+00 -0.1354557830204E+01 -0.1067705066866E+01 -0.1005078830173E+01
-0.8302611074235E+00 -0.1113642762831E+01 -0.9136348167024E+00 -0.8388453066748E+00
-0.6751834530352E+00 -0.8563112902883E+00 -0.7198025275363E+00 -0.6337240056142E+00
-0.4164602453519E+00 -0.5824616965267E+00 -0.4694933114921E+00 -0.3804735088328E+00
 0.2874151248512E-01 -0.2819760722962E+00 -0.1190202428093E+00 -0.6547811942448E-01
-0.1080252134213E+00 -0.3506775856559E+01 -0.1698956498581E+01 -0.1354446406998E+01
-0.1758458801679E+00 -0.3467171502630E+01 -0.1712218165572E+01 -0.1394639507078E+01
-0.2476564969099E+00 -0.3420787124961E+01 -0.1724168497906E+01 -0.1431871738213E+01
-0.3231559930684E+00 -0.3367038999698E+01 -0.1734391642201E+01 -0.1465396893759E+01
-0.4019079326083E+00 -0.3305343638432E+01 -0.1742408233970E+01 -0.1494421145584E+01
-0.4833035675952E+00 -0.3235124958119E+01 -0.1747661402653E+01 -0.1518075924270E+01
-0.5665278270505E+00 -0.3155813752220E+01 -0.1749500537820E+01 -0.1535389694278E+01
-0.6505237351629E+00 -0.3066842301103E+01 -0.1747162032614E+01 -0.1545260498130E+01
-0.7339491535873E+00 -0.2967637624478E+01 -0.1739745781278E+01 -0.1546428038088E+01
-0.8151188151843E+00 -0.2857615808251E+01 -0.1726185268636E+01 -0.1537441549289E+01
-0.8919232317489E+00 -0.2736178612500E+01 -0.1705207862472E+01 -0.1516617614204E+01
-0.9617129061702E+00 -0.2602712574603E+01 -0.1675279971714E+01 -0.1481979453388E+01
-0.1021130008632E+01 -0.2456590029651E+01 -0.1634528413847E+01 -0.1431164720589E+01
-0.1065857544986E+01 -0.2297170007132E+01 -0.1580622945487E+01 -0.1361280117834E+01
-0.1090232803339E+01 -0.2123793335462E+01 -0.1510592281405E+01 -0.1268663557173E+01
-0.1086622781889E+01 -0.1935753826305E+01 -0.1420517002248E+01 -0.1148476704809E+01
-0.1044351443555E+01 -0.1732192612247E+01 -0.1304975702917E+01 -0.9939634577726E+00
-0.9476991119364E+00 -0.1511733083287E+01 -0.1155933128823E+01 -0.7949686219250E+00
-0.7715354414196E+00 -0.1271112149297E+01 -0.9600443652018E+00 -0.5346129599564E+00
-0.4712290060997E+00 -0.9993516029095E+00 -0.6911728844812E+00 -0.1785203441190E+00
-0.7507599457890E-01 -0.3691836496136E+01 -0.1770448866146E+01 -0.1337862697906E+01
-0.1443121664188E+00 -0.3670359973787E+01 -0.1792895901349E+01 -0.1381038452922E+01
-0.2184421764617E+00 -0.3643407559922E+01 -0.1815069371497E+01 -0.1421824903571E+01
-0.2972748922087E+00 -0.3610489829133E+01 -0.1836649414372E+01 -0.1459487231685E+01
-0.3805132731997E+00 -0.3571120802532E+01 -0.1857268010883E+01 -0.1493225039755E+01
-0.4677222136775E+00 -0.3524827165165E+01 -0.1876498203296E+01 -0.1522147449854E+01
-0.5582992169686E+00 -0.3471152936597E+01 -0.1893842507373E+01 -0.1545245985827E+01
-0.6514449795293E+00 -0.3409661273976E+01 -0.1908719934306E+01 -0.1561365219735E+01
-0.7461304408881E+00 -0.3339935356356E+01 -0.1920450919834E+01 -0.1569169176715E+01
-0.8410568673587E+00 -0.3261579756040E+01 -0.1928239208107E+01 -0.1567099360670E+01
-0.9346056312854E+00 -0.3174222762942E+01 -0.1931149340389E+01 -0.1553317840191E+01
-0.1024774414355E+01 -0.3077519035398E+01 -0.1928077916494E+01 -0.1525625425338E+01
-0.1109096772659E+01 -0.2971150464858E+01 -0.1917716196769E+01 -0.1481339327765E+01
-0.1184543530473E+01 -0.2854820813347E+01 -0.1898501236780E+01 -0.1417104617122E+01
-0.1247409850930E+01 -0.2728234721329E+01 -0.1868552944222E+01 -0.1328594813174E+01
-0.1293214508218E+01 -0.2591044957221E+01 -0.1825601944126E+01 -0.1210019795961E+01
-0.1316701284373E+01 -0.2442729506180E+01 -0.1766932467078E+01 -0.1053279722741E+01
-0.1312370615268E+01 -0.2282413110068E+01 -0.1689548346623E+01 -0.8464365428472E+00
-0.1276885255934E+01 -0.2108537407718E+01 -0.1591148647881E+01 -0.5706812585111E+00
-0.1229435640689E+01 -0.1926347462120E+01 -0.1483218054558E+01 -0.1950505134598E+00
-0.4133527956957E-01 -0.3872670647926E+01 -0.1839582781257E+01 -0.1310405850893E+01
-0.1117759315067E+00 -0.3869590821189E+01 -0.1871242369021E+01 -0.1355019814582E+01
-0.1880470423363E+00 -0.3862465254824E+01 -0.1903740774837E+01 -0.1397636316613E+01
-0.2701053331893E+00 -0.3850909375142E+01 -0.1936876908003E+01 -0.1437513793068E+01
-0.3578380804874E+00 -0.3834546457908E+01 -0.1970420728048E+01 -0.1473822176248E+01
-0.4510380389117E+00 -0.3813018439209E+01 -0.2004106539633E+01 -0.1505617704245E+01
-0.5493829470484E+00 -0.3785993413876E+01 -0.2037626884466E+01 -0.1531814186916E+01
-0.6524182659514E+00 -0.3753170897111E+01 -0.2070626901387E+01 -0.1551149857702E+01
-0.7595423673357E+00 -0.3714285785287E+01 -0.2102699226399E+01 -0.1562147502043E+01
-0.8699945252521E+00 -0.3669111359505E+01 -0.2133379760425E+01 -0.1563063872245E+01
-0.9828479692615E+00 -0.3617460753988E+01 -0.2162145094443E+01 -0.1551822378572E+01
-0.1097013503235E+01 -0.3559185057040E+01 -0.2188413317779E+01 -0.1525920321507E+01
-0.1211265287540E+01 -0.3494164524959E+01 -0.2211552006266E+01 -0.1482297920700E+01
-0.1324312479008E+01 -0.3422286826748E+01 -0.2230901668047E+01 -0.1417150276653E+01
-0.1434967436474E+01 -0.3343403500819E+01 -0.2245834334831E+01 -0.1325654226828E+01
-0.1542519074101E+01 -0.3257250436408E+01 -0.2255891664218E+01 -0.1201569253580E+01
-0.1647587407075E+01 -0.3163338365940E+01 -0.2261135107582E+01 -0.1036661395384E+01
-0.1754048201060E+01 -0.3060796498339E+01 -0.2262977002978E+01 -0.8199197853104E+00
-0.1874513557563E+01 -0.2949020723572E+01 -0.2267061106384E+01 -0.5368506647487E+00
-0.2037582891138E+01 -0.2825876786777E+01 -0.2285826042822E+01 -0.1713110038283E+00
-0.7375175047880E-02 -0.4046982610409E+01 -0.1905548154332E+01 -0.1272279137588E+01
-0.7890148135355E-01 -0.4062061165163E+01 -0.1946252438927E+01 -0.1316804284958E+01
-0.1572298095013E+00 -0.4074550701757E+01 -0.1988936835247E+01 -0.1359564129298E+01
-0.2425029107760E+00 -0.4084160742540E+01 -0.2033531911901E+01 -0.1399801876376E+01
-0.3348365576710E+00 -0.4090608801606E+01 -0.2079959313585E+01 -0.1436648816524E+01
-0.4343034725839E+00 -0.4093630752150E+01 -0.2128129080227E+01 -0.1469099068143E+01
-0.5409240232255E+00 -0.4092987950348E+01 -0.2177938622056E+01 -0.1495980046647E+01
-0.6546637399211E+00 -0.4088471692013E+01 -0.2229273647355E+01 -0.1515917888464E+01
-0.7754389627732E+00 -0.4079905129948E+01 -0.2282011717791E+01 -0.1527296093198E+01
-0.9031338114755E+00 -0.4067142068553E+01 -0.2336029657689E+01 -0.1528204638398E+01
-0.1037634580506E+01 -0.4050061063208E+01 -0.2391216946481E+01 -0.1516375796869E+01
-0.1178892369243E+01 -0.4028551950074E+01 -0.2447498823871E+01 -0.1489101873545E+01
-0.1327032695390E+01 -0.4002490165531E+01 -0.2504875738280E+01 -0.1443129279842E+01
-0.1482545081361E+01 -0.3971692042558E+01 -0.2563491441740E+01 -0.1374523536345E+01
-0.1646610530770E+01 -0.3935840817458E+01 -0.2623752127013E+01 -0.1278503223236E+01
-0.1821674873351E+01 -0.3894372907237E+01 -0.2686542450063E+01 -0.1149254446200E+01
-0.2012438038769E+01 -0.3846296366225E+01 -0.2753605163363E+01 -0.9797808384019E+00
-0.2227614617674E+01 -0.3789977593179E+01 -0.2828268331927E+01 -0.7619792458754E+00
-0.2481881360772E+01 -0.3722247168063E+01 -0.2915940401156E+01 -0.4875641025586E+00
-0.2795082255554E+01 -0.3635735242440E+01 -0.3022484216391E+01 -0.1506743761761E+00
 0.2628652049293E-01 -0.4212573639357E+01 -0.1967554940876E+01 -0.1223886388063E+01
-0.4625695866862E-01 -0.4245104123600E+01 -0.2016939703551E+01 -0.1266874144339E+01
-0.1265963280715E+00 -0.4276446789684E+01 -0.2069430260096E+01 -0.1308204781256E+01
-0.2150921883289E+00 -0.4306380816687E+01 -0.2125092306967E+01 -0.1347109602369E+01
-0.3121236292614E+00 -0.4334687549003E+01 -0.2184001248245E+01 -0.1382688698415E+01
-0.4180818106399E+00 -0.4361158315044E+01 -0.2246242853374E+01 -0.1413887178799E+01
-0.5333718621717E+00 -0.4385598630144E+01 -0.2311916125525E+01 -0.1439467275122E+01
-0.6584241056500E+00 -0.4407828964415E+01 -0.2381138936891E+01 -0.1457976247241E+01
-0.7937170244111E+00 -0.4427681659405E+01 -0.2454057375169E+01 -0.1467709530513E+01
-0.9398163667518E+00 -0.4444992821499E+01 -0.2530860312058E+01 -0.1466668281417E+01
-0.1097437550906E+01 -0.4459587072804E+01 -0.2611801566519E+01 -0.1452510545634E+01
-0.1267542548483E+01 -0.4471251836943E+01 -0.2697233354309E+01 -0.1422495984740E+01
-0.1451488294124E+01 -0.4479696315267E+01 -0.2787656759343E+01 -0.1373426108114E+01
-0.1651251773416E+01 -0.4484488129308E+01 -0.2883797746966E+01 -0.1301586689520E+01
-0.1869767767614E+01 -0.4484958174506E+01 -0.2986721185221E+01 -0.1202709568897E+01
-0.2111418644283E+01 -0.4480056312185E+01 -0.3097993221683E+01 -0.1071993840764E+01
-0.2382704814989E+01 -0.4468138036514E+01 -0.3219896132040E+01 -0.9042734709731E+00
-0.2692888861446E+01 -0.4446552593194E+01 -0.3355537475170E+01 -0.6945098194512E+00
-0.3053957371827E+01 -0.4410908670216E+01 -0.3508487030861E+01 -0.4388102224022E+00
-0.3479688305075E+01 -0.4354744130658E+01 -0.3682183235455E+01 -0.1358122685901E+00
 0.5920088135623E-01 -0.4367386232522E+01 -0.2024847109912E+01 -0.1165789398123E+01
-0.1429810339692E-01 -0.4416244765328E+01 -0.2082355143019E+01 -0.1205909944758E+01
-0.9658392390526E-01 -0.4465198151835E+01 -0.2144037570160E+01 -0.1244399539768E+01
-0.1882555284699E+00 -0.4514064518103E+01 -0.2210090416284E+01 -0.1280491472285E+01
-0.2899752549103E+00 -0.4562653068794E+01 -0.2280735306356E+01 -0.1313275972615E+01
-0.4024712871038E+00 -0.4610767865873E+01 -0.2356222395923E+01 -0.1341679721916E+01
-0.5265488288446E+00 -0.4658207721853E+01 -0.2436835572647E+01 -0.1364442078629E+01
-0.6631113188857E+00 -0.4704762193429E+01 -0.2522900544389E+01 -0.1380088865925E+01
-0.8131941598967E+00 -0.4750202998142E+01 -0.2614796657646E+01 -0.1386904491186E+01
-0.9780149297937E+00 -0.4794269502154E+01 -0.2712973676134E+01 -0.1382903441110E+01
-0.1159045864659E+01 -0.4836646187927E+01 -0.2817975257568E+01 -0.1365803015478E+01
-0.1358116446607E+01 -0.4876929106960E+01 -0.2930471402744E+01 -0.1333000872058E+01
-0.1577555811218E+01 -0.4914577206501E+01 -0.3051302510589E+01 -0.1281564157271E+01
-0.1820385261899E+01 -0.4948843141257E+01 -0.3181537341414E+01 -0.1208242732003E+01
-0.2090565868104E+01 -0.4978675817318E+01 -0.3322543583721E+01 -0.1109528867203E+01
-0.2393288061250E+01 -0.5002585485607E+01 -0.3476060558206E+01 -0.9818012313406E+00
-0.2735222528075E+01 -0.5018448833131E+01 -0.3644225530524E+01 -0.8216106073463E+00
-0.3124548050696E+01 -0.5023254668803E+01 -0.3829467268452E+01 -0.6261594052728E+00
-0.3570589357576E+01 -0.5012939140478E+01 -0.4034258383853E+01 -0.3939295625166E+00
-0.4083002833846E+01 -0.4982510861505E+01 -0.4260791426008E+01 -0.1252708212471E+00
 0.9099153814024E-01 -0.4509534472491E+01 -0.2076715173877E+01 -0.1098670272852E+01
 0.1663121322025E-01 -0.4573235493443E+01 -0.2141604006273E+01 -0.1134736655015E+01
-0.6746956117120E-01 -0.4638150184050E+01 -0.2211641274644E+01 -0.1169157308314E+01
-0.1621545615022E+00 -0.4704104717849E+01 -0.2287141855494E+01 -0.1201189010825E+01
-0.2683719946153E+00 -0.4770902027397E+01 -0.2368458784338E+01 -0.1229942788168E+01
-0.3871840017955E+00 -0.4838320605533E+01 -0.2455987159215E+01 -0.1254368079268E+01
-0.5197842100711E+00 -0.4906109833977E+01 -0.2550170194235E+01 -0.1273234661607E+01
-0.6675241749382E+00 -0.4973981627945E+01 -0.2651507720630E+01 -0.1285114108203E+01
-0.8319503882800E+00 -0.5041597585300E+01 -0.2760567540581E+01 -0.1288362656731E+01
-0.1014854439218E+01 -0.5108550554277E+01 -0.2878000339643E+01 -0.1281107870608E+01
-0.1218339445218E+01 -0.5174339045724E+01 -0.3004558883122E+01 -0.1261242549308E+01
-0.1444905897797E+01 -0.5238332444281E+01 -0.3141122012810E+01 -0.1226431145509E+01
-0.1697558756532E+01 -0.5299724565790E+01 -0.3288723153150E+01 -0.1174136717190E+01
-0.1979933184654E+01 -0.5357472802314E+01 -0.3448580805128E+01 -0.1101680396033E+01
-0.2296426142171E+01 -0.5410220702110E+01 -0.3622124007625E+01 -0.1006350181544E+01
-0.2652298702242E+01 -0.5456202869546E+01 -0.3810995729074E+01 -0.8855795146556E+00
-0.3053685236197E+01 -0.5493143391401E+01 -0.4017009444782E+01 -0.7372101339626E+00
-0.3507440576232E+01 -0.5518194671216E+01 -0.4242048555541E+01 -0.5598225695939E+00
-0.4020811157917E+01 -0.5528002022824E+01 -0.4487942183565E+01 -0.3530630906027E+00
-0.4600871562698E+01 -0.5518859656286E+01 -0.4756273660859E+01 -0.1178262123987E+00
 0.1213504474316E+00 -0.4637323042297E+01 -0.2122507114203E+01 -0.1023298305409E+01
 0.4628701138299E-01 -0.4714075045377E+01 -0.2193860370413E+01 -0.1054278437069E+01
-0.3939312345321E-01 -0.4792964675411E+01 -0.2271208159706E+01 -0.1083592739341E+01
-0.1367707611784E+00 -0.4873800207733E+01 -0.2354968349416E+01 -0.1110546827384E+01
-0.2470650541133E+00 -0.4956350838162E+01 -0.2445605463166E+01 -0.1134307638016E+01
-0.3716485641263E+00 -0.5040340347761E+01 -0.2543634782135E+01 -0.1153892619367E+01
-0.5120684939664E+00 -0.5125438814162E+01 -0.2649628428100E+01 -0.1168157591015E+01
-0.6700737705982E+00 -0.5211251067653E+01 -0.2764222666967E+01 -0.1175785850156E+01
-0.8476490548939E+00 -0.5297301597473E+01 -0.2888126799287E+01 -0.1175280939308E+01
-0.1047056454640E+01 -0.5383015266777E+01 -0.3022133701401E+01 -0.1164966027596E+01
-0.1270885351587E+01 -0.5467693102782E+01 -0.3167131865520E+01 -0.1142993782247E+01
-0.1522109547889E+01 -0.5550482397396E+01 -0.3324118205853E+01 -0.1107371879340E+01
-0.1804148269807E+01 -0.5630340586896E+01 -0.3494209753788E+01 -0.1056010803391E+01
-0.2120922580075E+01 -0.5705993263408E+01 -0.3678650437107E+01 -0.9868019005949E+00
-0.2476890406631E+01 -0.5775888666623E+01 -0.3878806154591E+01 -0.8977336670739E+00
-0.2877033940959E+01 -0.5838156644511E+01 -0.4096139564782E+01 -0.7870503111428E+00
-0.3326770215222E+01 -0.5890591079857E+01 -0.4332159797699E+01 -0.6534448056624E+00
-0.3831773232081E+01 -0.5930688358701E+01 -0.4588356936030E+01 -0.4962588823955E+00
-0.4397715203985E+01 -0.5955758666443E+01 -0.4866132706759E+01 -0.3156433076454E+00
-0.5030183987107E+01 -0.5963248484535E+01 -0.5166913248567E+01 -0.1126266237190E+00
 0.1500291224080E+00 -0.4749258331490E+01 -0.2161637722786E+01 -0.9405038051938E+00
 0.7450743328171E-01 -0.4837015551758E+01 -0.2238378810007E+01 -0.9655250166639E+00
-0.1239063851134E-01 -0.4927620343935E+01 -0.2321805155861E+01 -0.9888813547249E+00
-0.1119603853309E+00 -0.5020845623848E+01 -0.2412418818196E+01 -0.1009952972466E+01
-0.2256599914893E+00 -0.5116407551758E+01 -0.2510771738958E+01 -0.1027998118906E+01
-0.3551318072991E+00 -0.5213957254319E+01 -0.2617471852321E+01 -0.1042146095114E+01
-0.5022240389328E+00 -0.5313069541591E+01 -0.2733187975914E+01 -0.1051390280965E+01
-0.6690152964590E+00 -0.5413229676575E+01 -0.2858655130076E+01 -0.1054583462830E+01
-0.8578416807172E+00 -0.5513817937902E+01 -0.2994680013156E+01 -0.1050437831179E+01
-0.1071325721113E+01 -0.5614092023622E+01 -0.3142146332056E+01 -0.1037532463570E+01
-0.1312405542571E+01 -0.5713167443475E+01 -0.3302019295066E+01 -0.1014331701087E+01
-0.1584361192777E+01 -0.5809996365432E+01 -0.3475348043543E+01 -0.9792184022632E+00
-0.1890832758530E+01 -0.5903346037382E+01 -0.3663264024787E+01 -0.9305463163558E+00
-0.2235821654271E+01 -0.5991779162994E+01 -0.3866972374306E+01 -0.8667151960338E+00
-0.2623663140762E+01 -0.6073641073604E+01 -0.4087732970384E+01 -0.7862698132192E+00
-0.3058957034644E+01 -0.6147062383738E+01 -0.4326829115665E+01 -0.6880186443934E+00
-0.3546448881573E+01 -0.6209990095076E+01 -0.4585526307394E+01 -0.5711597206464E+00
-0.4090863138606E+01 -0.6260257243565E+01 -0.4865026567281E+01 -0.4353933151990E+00
-0.4696726379362E+01 -0.6295708262572E+01 -0.5166444268605E+01 -0.2810003001922E+00
-0.5368136602348E+01 -0.6314297690102E+01 -0.5490744103525E+01 -0.1089020841492E+00
 0.1768221108577E+00 -0.4844056482014E+01 -0.2193600148880E+01 -0.8511613868328E+00
 0.1011755469625E+00 -0.4940571709684E+01 -0.2274516190710E+01 -0.8695112028066E+00
 0.1353780210877E-01 -0.5040425908198E+01 -0.2362637403869E+01 -0.8862308718736E+00
-0.8755868737283E-01 -0.5143342221983E+01 -0.2458523421161E+01 -0.9007996384175E+00
-0.2037669675748E+00 -0.5248973999399E+01 -0.2562788247978E+01 -0.9125987095506E+00
-0.3369458135475E+00 -0.5356892421934E+01 -0.2676103963889E+01 -0.9209070153628E+00
-0.4891804726695E+00 -0.5466573743257E+01 -0.2799204474385E+01 -0.9248981462744E+00
-0.6628029729252E+00 -0.5577385447790E+01 -0.2932888550297E+01 -0.9236398181900E+00
-0.8604111174954E+00 -0.5688571812536E+01 -0.3078021969308E+01 -0.9160977475792E+00
-0.1084884267108E+01 -0.5799239443324E+01 -0.3235538135696E+01 -0.9011461493878E+00
-0.1339393167614E+01 -0.5908343722717E+01 -0.3406436329815E+01 -0.8775873572260E+00
-0.1627399995872E+01 -0.6014677565991E+01 -0.3591776444965E+01 -0.8441831312553E+00
-0.1952643597268E+01 -0.6116864581606E+01 -0.3792668834451E+01 -0.7996997768126E+00
-0.2319103936947E+01 -0.6213359778554E+01 -0.4010257936114E+01 -0.7429678337865E+00
-0.2730939877092E+01 -0.6302462291080E+01 -0.4245699008272E+01 -0.6729544059653E+00
-0.3192396742381E+01 -0.6382345750537E+01 -0.4500128960258E+01 -0.5888421945429E+00
-0.3707684457639E+01 -0.6451110936623E+01 -0.4774633823192E+01 -0.4901050894184E+00
-0.4280834965221E+01 -0.6506863388757E+01 -0.5070218213510E+01 -0.3765680158837E+00
-0.4915535992526E+01 -0.6547799976396E+01 -0.5387767891728E+01 -0.2484435487179E+00
-0.5614902392950E+01 -0.6572278791730E+01 -0.5727975142272E+01 -0.1063400309216E+00
 0.2015428199115E+00 -0.4920644334746E+01 -0.2217977706347E+01 -0.7561828701055E+00
 0.1261589425761E+00 -0.5023535393284E+01 -0.2301766925995E+01 -0.7673094911099E+00
 0.3834623342982E-01 -0.5130033586243E+01 -0.2393093049752E+01 -0.7768778337642E+00
-0.6348951568230E-01 -0.5239808368416E+01 -0.2492549999204E+01 -0.7844879388572E+00
-0.1811426645309E+00 -0.5352447838900E+01 -0.2600787530016E+01 -0.7896694437601E+00
-0.3166271764396E+00 -0.5467445149647E+01 -0.2718513986365E+01 -0.7918801886190E+00
-0.4721951638025E+00 -0.5584184750984E+01 -0.2846498552730E+01 -0.7905058388685E+00
-0.6503531665285E+00 -0.5701928758061E+01 -0.2985572496985E+01 -0.7848614299522E+00
-0.8538742189186E+00 -0.5819804046426E+01 -0.3136628776756E+01 -0.7741959878694E+00
-0.1085803175436E+01 -0.5936791181726E+01 -0.3300619339495E+01 -0.7577016109759E+00
-0.1349452060655E+01 -0.6051716674567E+01 -0.3478549296732E+01 -0.7345285001354E+00
-0.1648381686686E+01 -0.6163250525492E+01 -0.3671467130412E+01 -0.7038072984236E+00
-0.1986365639361E+01 -0.6269911543087E+01 -0.3880450265909E+01 -0.6646795668866E+00
-0.2367333361664E+01 -0.6370083382215E+01 -0.4106585859207E+01 -0.6163360878819E+00
-0.2795290896325E+01 -0.6462044389306E+01 -0.4350947573211E+01 -0.5580608814545E+00
-0.3274220864128E+01 -0.6544013521544E+01 -0.4614570149561E+01 -0.4892766142498E+00
-0.3807967200829E+01 -0.6614212695241E+01 -0.4898424538728E+01 -0.4095851627979E+00
-0.4400111008117E+01 -0.6670940983109E+01 -0.5203394422678E+01 -0.3187965284983E+00
-0.5053842177338E+01 -0.6712654109632E+01 -0.5530253240849E+01 -0.2169385371068E+00
-0.5771856305500E+01 -0.6738064895888E+01 -0.5879662949739E+01 -0.1042314140689E+00
 0.2240216579610E+00 -0.4978159590764E+01 -0.2234444822750E+01 -0.6565013716459E+00
 0.1493265190303E+00 -0.5084949734722E+01 -0.2319742905491E+01 -0.6600047988054E+00
 0.6196439046525E-01 -0.5195395058150E+01 -0.2412712407693E+01 -0.6620572633899E+00
-0.3973552024038E-01 -0.5309111866367E+01 -0.2513958265329E+01 -0.6623953569540E+00
-0.1576507720891E+00 -0.5425627227103E+01 -0.2624140652964E+01 -0.6607150635687E+00
-0.2938845563433E+00 -0.5544364981999E+01 -0.2743977276061E+01 -0.6566729305524E+00
-0.4507827449196E+00 -0.5664631834810E+01 -0.2874244845183E+01 -0.6498875432756E+00
-0.6309475803901E+00 -0.5785604129344E+01 -0.3015779295926E+01 -0.6399416247902E+00
-0.8372457465887E+00 -0.5906316291055E+01 -0.3169474149654E+01 -0.6263851426527E+00
-0.1072807933332E+01 -0.6025652330564E+01 -0.3336276315569E+01 -0.6087399001926E+00
-0.1341016526396E+01 -0.6142342246179E+01 -0.3517178614189E+01 -0.5865061388904E+00
-0.1645477871547E+01 -0.6254965557226E+01 -0.3713208402105E+01 -0.5591716221425E+00
-0.1989975982339E+01 -0.6361964497154E+01 -0.3925412015406E+01 -0.5262234639695E+00
-0.2378405909505E+01 -0.6461669412598E+01 -0.4154835390851E+01 -0.4871625772939E+00
-0.2814687434963E+01 -0.6552338326641E+01 -0.4402502096787E+01 -0.4415200586382E+00
-0.3302663168081E+01 -0.6632211183577E+01 -0.4669390933436E+01 -0.3888741660601E+00
-0.3845988442731E+01 -0.6699576680102E+01 -0.4956415595160E+01 -0.3288658751393E+00
-0.4448023271332E+01 -0.6752847217485E+01 -0.5264409116392E+01 -0.2612100071736E+00
-0.5111742574833E+01 -0.6790638731781E+01 -0.5594119199920E+01 -0.1856967033755E+00
-0.5839686103071E+01 -0.6811848369228E+01 -0.5946221186899E+01 -0.1021772892001E+00
 0.2440974120336E+00 -0.5015946379973E+01 -0.2242769009243E+01 -0.5530682109677E+00
 0.1705388199713E+00 -0.5124098122752E+01 -0.2328172866402E+01 -0.5486920586351E+00
 0.8428703129580E-01 -0.5235738156837E+01 -0.2421182022863E+01 -0.5430017801181E+00
-0.1635216429190E-01 -0.5350433216216E+01 -0.2522389122441E+01 -0.5358789053186E+00
-0.1332787290313E+00 -0.5467657576215E+01 -0.2632440056789E+01 -0.5271950073552E+00
-0.2686168778433E+00 -0.5586779038115E+01 -0.2752036073520E+01 -0.5168151638004E+00
-0.4247318119838E+00 -0.5707045178335E+01 -0.2881935178140E+01 -0.5046008860882E+00
-0.6042431691109E+00 -0.5827570416214E+01 -0.3022952377435E+01 -0.4904121273827E+00
-0.8100329626640E+00 -0.5947325001962E+01 -0.3175958235319E+01 -0.4741078983007E+00
-0.1045245114824E+01 -0.6065127493676E+01 -0.3341875117519E+01 -0.4555450433148E+00
-0.1313273189118E+01 -0.6179642697201E+01 -0.3521670457638E+01 -0.4345747919009E+00
-0.1617732734142E+01 -0.6289387374186E+01 -0.3716346441488E+01 -0.4110368177681E+00
-0.1962415002689E+01 -0.6392746213098E+01 -0.3926925761460E+01 -0.3847507981166E+00
-0.2351220031901E+01 -0.6488000443977E+01 -0.4154433613125E+01 -0.3555059617181E+00
-0.2788069474320E+01 -0.6573370840080E+01 -0.4399876936608E+01 -0.3230498837444E+00
-0.3276803121447E+01 -0.6647075361921E+01 -0.4664222875353E+01 -0.2870786643849E+00
-0.3821067496869E+01 -0.6707399456225E+01 -0.4948379455403E+01 -0.2472311310767E+00
-0.4424209668605E+01 -0.6752774394294E+01 -0.5253182496239E+01 -0.2030891271597E+00
-0.5089192521792E+01 -0.6781855229781E+01 -0.5579392429088E+01 -0.1541845087894E+00
-0.5818544645102E+01 -0.6793583928383E+01 -0.5927700414503E+01 -0.1000130411886E+00
 0.2616082335043E+00 -0.5033551677654E+01 -0.2242813413062E+01 -0.4468546108064E+00
 0.1896335167063E+00 -0.5140498060293E+01 -0.2326906329584E+01 -0.4344823209982E+00
 0.1051541946356E+00 -0.5250555608584E+01 -0.2418338658422E+01 -0.4209534097367E+00
 0.6506467313869E-02 -0.5363247120079E+01 -0.2517668100414E+01 -0.4062948759525E+00
-0.1081704911054E+00 -0.5478004272605E+01 -0.2625502132285E+01 -0.3905539589579E+00
-0.2409530767789E+00 -0.5594154168128E+01 -0.2742500398150E+01 -0.3738038290074E+00
-0.3941508179925E+00 -0.5710905926688E+01 -0.2869376662722E+01 -0.3561481895825E+00
-0.5703220047099E+00 -0.5827337661147E+01 -0.3006900035326E+01 -0.3377235857360E+00
-0.7722855126696E+00 -0.5942384890026E+01 -0.3155895081262E+01 -0.3186980224947E+00
-0.1003126180345E+01 -0.6054831986793E+01 -0.3317240330141E+01 -0.2992645058329E+00
-0.1266190443804E+01 -0.6163308638273E+01 -0.3491864559719E+01 -0.2796281944865E+00
-0.1565068384418E+01 -0.6266293557942E+01 -0.3680740103574E+01 -0.2599860647956E+00
-0.1903558024438E+01 -0.6362127904718E+01 -0.3884872376850E+01 -0.2404985516108E+00
-0.2285607963169E+01 -0.6449040953646E+01 -0.4105284980491E+01 -0.2212538126298E+00
-0.2715235813348E+01 -0.6525190348038E+01 -0.4343000284836E+01 -0.2022272652874E+00
-0.3196423200566E+01 -0.6588718556559E+01 -0.4599016614184E+01 -0.1832417317220E+00
-0.3732993520662E+01 -0.6637825290943E+01 -0.4874284829091E+01 -0.1639361201202E+00
-0.4328485560795E+01 -0.6670852234996E+01 -0.5169688750910E+01 -0.1437517910250E+00
-0.4986040796820E+01 -0.6686370683986E+01 -0.5486033382064E+01 -0.1219443562166E+00
-0.5708322330936E+01 -0.6683258097968E+01 -0.5824042786813E+01 -0.9762426353017E-01
 0.2763860947442E+00 -0.5030725143132E+01 -0.2234539347075E+01 -0.3388558425451E+00
 0.2064171215951E+00 -0.5133898722066E+01 -0.2315916346347E+01 -0.3185120062590E+00
 0.1243391309053E+00 -0.5239600301642E+01 -0.2404172744148E+01 -0.2971796779614E+00
 0.2857133721973E-01 -0.5347314685381E+01 -0.2499809367295E+01 -0.2750240918578E+00
-0.8264783352423E-01 -0.5456441052998E+01 -0.2603371770062E+01 -0.2522590349836E+00
-0.2112791104704E+00 -0.5566280868172E+01 -0.2715453183075E+01 -0.2291548905242E+00
-0.3595013435496E+00 -0.5676025171795E+01 -0.2836697455017E+01 -0.2060458375485E+00
-0.5297311073078E+00 -0.5784741050111E+01 -0.2967801906460E+01 -0.1833339421664E+00
-0.7246417304183E+00 -0.5891358258835E+01 -0.3109519987062E+01 -0.1614877235541E+00
-0.9471796603465E+00 -0.5994657637063E+01 -0.3262663521507E+01 -0.1410328953797E+00
-0.1200575256209E+01 -0.6093263184781E+01 -0.3428104058571E+01 -0.1225330457949E+00
-0.1488344119783E+01 -0.6185639849999E+01 -0.3606772456649E+01 -0.1065580943111E+00
-0.1814273734883E+01 -0.6270099327928E+01 -0.3799655329884E+01 -0.9363877637985E-01
-0.2182388588348E+01 -0.6344816583433E+01 -0.4007786420572E+01 -0.8420666065456E-01
-0.2596885936523E+01 -0.6407860485077E+01 -0.4232230807417E+01 -0.7852191201560E-01
-0.3062035255774E+01 -0.6457242388777E+01 -0.4474060481591E+01 -0.7659555807363E-01
-0.3582039944901E+01 -0.6490986623004E+01 -0.4734322474907E+01 -0.7811903217806E-01
-0.4160869779085E+01 -0.6507223835606E+01 -0.5014003986188E+01 -0.8241912683498E-01
-0.4802086570769E+01 -0.6504302859434E+01 -0.5314003018717E+01 -0.8845757335153E-01
-0.5508693344570E+01 -0.6480906220411E+01 -0.5635111781248E+01 -0.9488735026890E-01
 0.2882560499931E+00 -0.5007420577348E+01 -0.2218007322231E+01 -0.2300971642393E+00
 0.2206622116662E+00 -0.5104282555972E+01 -0.2295301556002E+01 -0.2019540215519E+00
 0.1415435231354E+00 -0.5202887442396E+01 -0.2378831636019E+01 -0.1729917344624E+00
 0.4945116325276E-01 -0.5302686652248E+01 -0.2469020673565E+01 -0.1434996593185E+00
-0.5722106213898E-01 -0.5403054531758E+01 -0.2566329522622E+01 -0.1138401934858E+00
-0.1802535876208E+00 -0.5503279338873E+01 -0.2671260468677E+01 -0.8445945522290E-01
-0.3216208537173E+00 -0.5602551969438E+01 -0.2784361219821E+01 -0.5589880087897E-01
-0.4835154116185E+00 -0.5699951484175E+01 -0.2906229433652E+01 -0.2880320295475E-01
-0.6683760340980E+00 -0.5794428779907E+01 -0.3037518254878E+01 -0.3922899026816E-02
-0.8789184743579E+00 -0.5884790248718E+01 -0.3178943091783E+01  0.1789469501450E-01
-0.1118166909757E+01 -0.5969683185220E+01 -0.3331289536190E+01  0.3572573891328E-01
-0.1389483021376E+01 -0.6047584537586E+01 -0.3495421743846E+01  0.4860668606942E-01
-0.1696587547030E+01 -0.6116794826302E+01 -0.3672289706152E+01  0.5559065502707E-01
-0.2043565482730E+01 -0.6175439786267E+01 -0.3862932466631E+01  0.5582688682840E-01
-0.2434840737315E+01 -0.6221483495365E+01 -0.4068472379040E+01  0.4866475384425E-01
-0.2875101604271E+01 -0.6252759444370E+01 -0.4290094681980E+01  0.3377849728539E-01
-0.3369157527282E+01 -0.6267028044250E+01 -0.4529007207133E+01  0.1129910839465E-01
-0.3921720879401E+01 -0.6262072683504E+01 -0.4786382962425E+01 -0.1807380297619E-01
-0.4537130728491E+01 -0.6235839932523E+01 -0.5063296197834E+01 -0.5301825756585E-01
-0.5219072065617E+01 -0.6186620038895E+01 -0.5360675275524E+01 -0.9163095500210E-01
 0.2970393479790E+00 -0.4963800403053E+01 -0.2193377690322E+01 -0.1216395114626E+00
 0.2321102886923E+00 -0.5051872021180E+01 -0.2265288008524E+01 -0.8602712658681E-01
 0.1564002683017E+00 -0.5140705622611E+01 -0.2342623510583E+01 -0.4975945834067E-01
 0.6863499882976E-01 -0.5229720136323E+01 -0.2425710008469E+01 -0.1323102741770E-01
-0.3258766032889E-01 -0.5318267460168E+01 -0.2514901900255E+01  0.2307314503000E-01
-0.1488098439449E+00 -0.5405630273581E+01 -0.2610586848616E+01  0.5856340785741E-01
-0.2817317871023E+00 -0.5491012959169E+01 -0.2713190023866E+01  0.9252678762847E-01
-0.4332394503045E+00 -0.5573525447573E+01 -0.2823179494842E+01  0.1241109976171E+00
-0.6054415362573E+00 -0.5652162627696E+01 -0.2941073949598E+01  0.1523160049874E+00
-0.8007153011082E+00 -0.5725782081069E+01 -0.3067453761843E+01  0.1759962162589E+00
-0.1021760637171E+01 -0.5793081577703E+01 -0.3202975832867E+01  0.1938761294635E+00
-0.1271661786777E+01 -0.5852577087101E+01 -0.3348392262230E+01  0.2045833933424E+00
-0.1553954258022E+01 -0.5902582060683E+01 -0.3504572060902E+01  0.2067050427742E+00
-0.1872689892389E+01 -0.5941189623072E+01 -0.3672523362952E+01  0.1988746550943E+00
-0.2232484031137E+01 -0.5966261162711E+01 -0.3853410231335E+01  0.1798992794239E+00
-0.2638512750656E+01 -0.5975426830589E+01 -0.4048551592917E+01  0.1489328417842E+00
-0.3096415395422E+01 -0.5966112369524E+01 -0.4259388038721E+01  0.1056921690281E+00
-0.3612049583597E+01 -0.5935610566786E+01 -0.4487400259299E+01  0.5068913731805E-01
-0.4191087556713E+01 -0.5881233844866E+01 -0.4733991046735E+01 -0.1458183702519E-01
-0.4838500721190E+01 -0.5800561031997E+01 -0.5000359011316E+01 -0.8758659637263E-01
 0.3025596131810E+00 -0.4900242415827E+01 -0.2160910911763E+01 -0.1458564879479E-01
 0.2404784089734E+00 -0.4977141570586E+01 -0.2226231680312E+01  0.2799642793289E-01
 0.1684819146770E+00 -0.5053638268834E+01 -0.2296023480630E+01  0.7107661908333E-01
 0.8550321136345E-01 -0.5129110885314E+01 -0.2370495600744E+01  0.1141754939124E+00
-0.9619880481992E-02 -0.5202882923117E+01 -0.2449876311478E+01  0.1567187083642E+00
-0.1181444816963E+00 -0.5274232785208E+01 -0.2534417309017E+01  0.1980160899492E+00
-0.2414352837146E+00 -0.5342386839475E+01 -0.2624396391242E+01  0.2372309523342E+00
-0.3809932346545E+00 -0.5406498957916E+01 -0.2720121323609E+01  0.2733528429726E+00
-0.5384994552572E+00 -0.5465624145999E+01 -0.2821938085433E+01  0.3051792858998E+00
-0.7158730785140E+00 -0.5518689871374E+01 -0.2930244579015E+01  0.3313080024782E+00
-0.9153444988902E+00 -0.5564466008690E+01 -0.3045510930838E+01  0.3501408071465E+00
-0.1139547305289E+01 -0.5601532375169E+01 -0.3168307441779E+01  0.3599024105979E+00
-0.1391632741056E+01 -0.5628242737248E+01 -0.3299341466434E+01  0.3586808826290E+00
-0.1675408016510E+01 -0.5642685129195E+01 -0.3439503769758E+01  0.3445013590265E+00
-0.1995491212772E+01 -0.5642640292609E+01 -0.3589921798424E+01  0.3154507565929E+00
-0.2357455411973E+01 -0.5625543590645E+01 -0.3752009521714E+01  0.2698778711179E+00
-0.2767884092329E+01 -0.5588453296180E+01 -0.3927478562638E+01  0.2066944063360E+00
-0.3234229307253E+01 -0.5528061787431E+01 -0.4118276804056E+01  0.1257790879726E+00
-0.3764319573039E+01 -0.5440780482706E+01 -0.4326397015227E+01  0.2842871421354E-01
-0.4365518484676E+01 -0.5323015004881E+01 -0.4553610728542E+01 -0.8229715229088E-01
 0.3046517996471E+00 -0.4817347531600E+01 -0.2120966988638E+01  0.8991984355415E-01
 0.2454679651473E+00 -0.4880839069774E+01 -0.2178624413649E+01  0.1387960547411E+00
 0.1773147040729E+00 -0.4942601627945E+01 -0.2239684848539E+01  0.1880095106332E+00
 0.9934750887974E-01 -0.5001947571326E+01 -0.2304222023506E+01  0.2370140316337E+00
 0.1066076876335E-01 -0.5058154774752E+01 -0.2372322176798E+01  0.2851873468709E+00
-0.8968851686581E-01 -0.5110494594455E+01 -0.2444086056122E+01  0.3317923765230E+00
-0.2026820165995E+00 -0.5158219342126E+01 -0.2519623632210E+01  0.3759269019862E+00
-0.3293689832386E+00 -0.5200532792345E+01 -0.2599053827932E+01  0.4164826159947E+00
-0.4709135229761E+00 -0.5236555662788E+01 -0.2682510510505E+01  0.4521166664867E+00
-0.6286578176784E+00 -0.5265291580130E+01 -0.2770156209944E+01  0.4812326064496E+00
-0.8042039643876E+00 -0.5285591872714E+01 -0.2862204036178E+01  0.5019679798278E+00
-0.9995229399240E+00 -0.5296115595697E+01 -0.2958950104237E+01  0.5121890268522E+00
-0.1217102912004E+01 -0.5295280313506E+01 -0.3060820108227E+01  0.5094977546786E+00
-0.1460152578327E+01 -0.5281200546944E+01 -0.3168435960841E+01  0.4912633344303E+00
-0.1732875829391E+01 -0.5251613203852E+01 -0.3282709837298E+01  0.4547003531642E+00
-0.2040824147317E+01 -0.5203792678487E+01 -0.3404969899491E+01  0.3970338611431E+00
-0.2391295093590E+01 -0.5134465733314E+01 -0.3537107579673E+01  0.3158187044509E+00
-0.2793556285239E+01 -0.5039686942923E+01 -0.3681624307898E+01  0.2095040451444E+00
-0.3258632888530E+01 -0.4914795973245E+01 -0.3841511555291E+01  0.7827214568753E-01
-0.3798158701799E+01 -0.4754460478728E+01 -0.4019731004652E+01 -0.7498325125985E-01
 0.3031688887241E+00 -0.4715951854467E+01 -0.2074007988639E+01  0.1907057905469E+00
 0.2467742757735E+00 -0.4764025525659E+01 -0.2123108082061E+01  0.2450329289707E+00
 0.1823970500758E+00 -0.4808909401973E+01 -0.2174460799876E+01  0.2994976237360E+00
 0.1094018509472E+00 -0.4849790193746E+01 -0.2227982515465E+01  0.3535070687120E+00
 0.2712446847067E-01 -0.4885882158687E+01 -0.2283616108609E+01  0.4064449451840E+00
-0.6505491660712E-01 -0.4916448546126E+01 -0.2341306621546E+01  0.4575890893485E+00
-0.1677070758388E+00 -0.4940770877413E+01 -0.2400984631939E+01  0.5060332512114E+00
-0.2813840898154E+00 -0.4958099924489E+01 -0.2462557480477E+01  0.5506342898158E+00
-0.4066678938264E+00 -0.4967612392974E+01 -0.2525911728390E+01  0.5899785083738E+00
-0.5442283077177E+00 -0.4968374027753E+01 -0.2590923091100E+01  0.6223550377053E+00
-0.6948966546074E+00 -0.4959305144000E+01 -0.2657474838605E+01  0.6457271864639E+00
-0.8597665749150E+00 -0.4939138932228E+01 -0.2725485581444E+01  0.6576976829606E+00
-0.1040342366652E+01 -0.4906364582086E+01 -0.2794952258818E+01  0.6554686294494E+00
-0.1238764155787E+01 -0.4859147358577E+01 -0.2866018404482E+01  0.6358025814680E+00
-0.1458154958243E+01 -0.4795219983479E+01 -0.2939086215155E+01  0.5950008536617E+00
-0.1703157364722E+01 -0.4711744334934E+01 -0.3015003791191E+01  0.5289359634464E+00
-0.1980749451023E+01 -0.4605153269527E+01 -0.3095374270807E+01  0.4332209809254E+00
-0.2301408722715E+01 -0.4471019188023E+01 -0.3183041109974E+01  0.3037068887665E+00
-0.2679836120168E+01 -0.4303603170185E+01 -0.3282216458141E+01  0.1376428229455E+00
-0.3134676122045E+01 -0.4095645344003E+01 -0.3398251080423E+01 -0.6437960714092E-01
 0.2979844435971E+00 -0.4597152202573E+01 -0.2020608841594E+01  0.2866218769368E+00
 0.2440897916342E+00 -0.4628161390816E+01 -0.2060513646389E+01  0.3454135919854E+00
 0.1832302404071E+00 -0.4654360472042E+01 -0.2101431203538E+01  0.4040277898877E+00
 0.1148861539513E+00 -0.4674759391354E+01 -0.2143140416143E+01  0.4618708871013E+00
 0.3859427172362E-01 -0.4688503033645E+01 -0.2185457112560E+01  0.5184034422628E+00
-0.4595296830781E-01 -0.4694863736783E+01 -0.2228183845741E+01  0.5729798166206E+00
-0.1389073498297E+00 -0.4693157654792E+01 -0.2271070546412E+01  0.6247390432611E+00
-0.2403110433864E+00 -0.4682670239781E+01 -0.2313801197220E+01  0.6725510879461E+00
-0.3501415863446E+00 -0.4662601722083E+01 -0.2355989348985E+01  0.7149909737143E+00
-0.4683553742676E+00 -0.4632037322861E+01 -0.2397184561570E+01  0.7503143744707E+00
-0.5949309254497E+00 -0.4589920869205E+01 -0.2436880337307E+01  0.7764186101747E+00
-0.7299298223197E+00 -0.4535020671959E+01 -0.2474526726035E+01  0.7907809212004E+00
-0.8735955775420E+00 -0.4465873688816E+01 -0.2509550548823E+01  0.7903689957094E+00
-0.1026524156116E+01 -0.4380696528145E+01 -0.2541393715157E+01  0.7715193463319E+00
-0.1189962760952E+01 -0.4277248894355E+01 -0.2569589471477E+01  0.7297798475872E+00
-0.1366347039906E+01 -0.4152635910205E+01 -0.2593921979973E+01  0.6597191654640E+00
-0.1560293916936E+01 -0.4003043171865E+01 -0.2614768425105E+01  0.5547339226410E+00
-0.1780537440705E+01 -0.3823477493610E+01 -0.2633887012448E+01  0.4069808236085E+00
-0.2043778672214E+01 -0.3607907061087E+01 -0.2656292287914E+01  0.2079919364905E+00
-0.2376829908440E+01 -0.3347403196689E+01 -0.2690389552587E+01 -0.4867350160304E-01
 0.2889396624396E+00 -0.4462420661393E+01 -0.1961536064533E+01  0.3766090352667E+00
 0.2371612702221E+00 -0.4475162815844E+01 -0.1991860721390E+01  0.4387396933813E+00
 0.1793971292819E+00 -0.4481259712765E+01 -0.2021875409109E+01  0.5001579841962E+00
 0.1151128059689E+00 -0.4479511305319E+01 -0.2051267289492E+01  0.5603673920507E+00
 0.4398603260686E-01 -0.4469044993726E+01 -0.2079777706451E+01  0.6189924387721E+00
-0.3398580514273E-01 -0.4449186532837E+01 -0.2107090993506E+01  0.6755067195173E+00
-0.1185503839020E+00 -0.4419307175846E+01 -0.2132793047672E+01  0.7291048098138E+00
-0.2092610376048E+00 -0.4378695059508E+01 -0.2156339360174E+01  0.7786752259045E+00
-0.3055307874104E+00 -0.4326516344412E+01 -0.2177062146435E+01  0.8228037382650E+00
-0.4066425909267E+00 -0.4261798082419E+01 -0.2194167110907E+01  0.8597639476428E+00
-0.5117465855321E+00 -0.4183424232550E+01 -0.2206730278902E+01  0.8874772832418E+00
-0.6198507896670E+00 -0.4090115703460E+01 -0.2213684246155E+01  0.9034343549493E+00
-0.7298238012280E+00 -0.3980385915493E+01 -0.2213798561244E+01  0.9045698155180E+00
-0.8404269409697E+00 -0.3852457410094E+01 -0.2205655639405E+01  0.8870751165820E+00
-0.9504104316394E+00 -0.3704119612185E+01 -0.2187629115049E+01  0.8461205719547E+00
-0.1058745201095E+01 -0.3532489807946E+01 -0.2157880448776E+01  0.7754368972361E+00
-0.1165190166868E+01 -0.3333631793053E+01 -0.2114446315800E+01  0.6666718414639E+00
-0.1271671539599E+01 -0.3101932340985E+01 -0.2055593818661E+01  0.5083906391907E+00
-0.1386725083820E+01 -0.2829754073300E+01 -0.1981745198820E+01  0.2845852886478E+00
-0.1540568024820E+01 -0.2510795065990E+01 -0.1904140647851E+01 -0.2568572940656E-01
 0.2760687933054E+00 -0.4313360642001E+01 -0.1897527164074E+01  0.4595716938002E+00
 0.2260769227978E+00 -0.4306984201848E+01 -0.1918026416289E+01  0.5236838211932E+00
 0.1709389559968E+00 -0.4291811953788E+01 -0.1936810304050E+01  0.5862334990674E+00
 0.1099417620057E+00 -0.4266497204016E+01 -0.1953581052790E+01  0.6469926839075E+00
 0.4290544107294E-01 -0.4230267408277E+01 -0.1968060119594E+01  0.7058487994969E+00
-0.2988411897372E-01 -0.4182644442404E+01 -0.1979888418826E+01  0.7623842424983E+00
-0.1077657295863E+00 -0.4123053368265E+01 -0.1988484970947E+01  0.8157883652311E+00
-0.1898733656585E+00 -0.4050749316413E+01 -0.1993092655518E+01  0.8649074008140E+00
-0.2751501752310E+00 -0.3964777503349E+01 -0.1992766003878E+01  0.9082997180764E+00
-0.3623366307148E+00 -0.3864015969460E+01 -0.1986385717044E+01  0.9442486304525E+00
-0.4499018056626E+00 -0.3747190321351E+01 -0.1972633294693E+01  0.9707245808368E+00
-0.5359551610980E+00 -0.3612871984995E+01 -0.1949948753718E+01  0.9853009606479E+00
-0.6181331843677E+00 -0.3459449005345E+01 -0.1916463624304E+01  0.9850171487951E+00
-0.6934520192813E+00 -0.3285063211498E+01 -0.1869902153723E+01  0.9661691511530E+00
-0.7581026227936E+00 -0.3087493735130E+01 -0.1807430283640E+01  0.9239858845508E+00
-0.8071567418284E+00 -0.2863948657622E+01 -0.1725419533365E+01  0.8521080218710E+00
-0.8341017712933E+00 -0.2610644477388E+01 -0.1619030732774E+01  0.7416989429631E+00
-0.8302144379337E+00 -0.2321998284680E+01 -0.1481539975871E+01  0.5798100878871E+00
-0.7831171936772E+00 -0.1988150487832E+01 -0.1302495807006E+01  0.3459760829388E+00
-0.6839247303465E+00 -0.1593870763690E+01 -0.1070563879482E+01  0.3890068306374E-02
 0.2595765127279E+00 -0.4151858291749E+01 -0.1829372431500E+01  0.5343819859339E+00
 0.2112281660983E+00 -0.4125794643952E+01 -0.1839846239925E+01  0.5987960830934E+00
 0.1582534721080E+00 -0.4088368805061E+01 -0.1847154201803E+01  0.6603994179243E+00
 0.9976203580166E-01 -0.4038186549769E+01 -0.1851059516870E+01  0.7195658256421E+00
 0.3562625401964E-01 -0.3975098191157E+01 -0.1851551805758E+01  0.7765048192819E+00
-0.3340690092268E-01 -0.3898863176511E+01 -0.1848166931706E+01  0.8307853856417E+00
-0.1063463381458E+00 -0.3809028989455E+01 -0.1840226399305E+01  0.8814266693701E+00
-0.1819655759189E+00 -0.3704697595772E+01 -0.1826731686061E+01  0.9270958499982E+00
-0.2589021055579E+00 -0.3584729417378E+01 -0.1806506811198E+01  0.9662215212040E+00
-0.3355517814048E+00 -0.3447796168015E+01 -0.1778173531717E+01  0.9970036108983E+00
-0.4099541920325E+00 -0.3292423013999E+01 -0.1740117282421E+01  0.1017366544339E+01
-0.4796396991943E+00 -0.3116993268515E+01 -0.1690417490536E+01  0.1024867800083E+01
-0.5414304143246E+00 -0.2919732319958E+01 -0.1626746480987E+01  0.1016561697018E+01
-0.5911544037090E+00 -0.2698672072447E+01 -0.1546218439872E+01  0.9888031744011E+00
-0.6232019651111E+00 -0.2451594630808E+01 -0.1445154396417E+01  0.9369583957905E+00
-0.6297696586388E+00 -0.2175930630617E+01 -0.1318679132606E+01  0.8549564915661E+00
-0.5995060633632E+00 -0.1868580819722E+01 -0.1160000832108E+01  0.7345487979861E+00
-0.5146275464635E+00 -0.1525324007178E+01 -0.9587772277798E+00  0.5639694201049E+00
-0.3445963593504E+00 -0.1139444574932E+01 -0.6974992373438E+00  0.3252500779784E+00
-0.1641012103292E-01 -0.6862709569739E+00 -0.3302601058256E+00 -0.1407736083089E-01
 0.2398281069178E+00 -0.3980328350064E+01 -0.1758035109820E+01  0.6000002184791E+00
 0.1930093405191E+00 -0.3934483538015E+01 -0.1758492868363E+01  0.6626064408881E+00
 0.1420668906906E+00 -0.3873483872845E+01 -0.1753765977164E+01  0.7208280519968E+00
 0.8513391261470E-01 -0.3797564257028E+01 -0.1744842257449E+01  0.7761560834434E+00
 0.2296140159216E-01 -0.3707150704368E+01 -0.1731568967913E+01  0.8290399003542E+00
-0.4353821488863E-01 -0.3602859385686E+01 -0.1713806867923E+01  0.8786945253041E+00
-0.1128319613414E+00 -0.3483946509971E+01 -0.1690485877229E+01  0.9237167870260E+00
-0.1835098760113E+00 -0.3349358014883E+01 -0.1660447904509E+01  0.9624802107199E+00
-0.2540302839233E+00 -0.3197810912721E+01 -0.1622365358308E+01  0.9931991694227E+00
-0.3226028007558E+00 -0.3027932209342E+01 -0.1574751450752E+01  0.1013906659886E+01
-0.3870177811509E+00 -0.2838301879683E+01 -0.1515900236747E+01  0.1022385441855E+01
-0.4444585450444E+00 -0.2627482484995E+01 -0.1443812280457E+01  0.1016075374014E+01
-0.4912557382092E+00 -0.2394049009569E+01 -0.1356093228016E+01  0.9919593583803E+00
-0.5225385480888E+00 -0.2136642653080E+01 -0.1249815161379E+01  0.9464255862912E+00
-0.5316956103195E+00 -0.1854072817794E+01 -0.1121311158369E+01  0.8751033164335E+00
-0.5094947988569E+00 -0.1545520754477E+01 -0.9658573076170E+00  0.7726757080894E+00
-0.4424885470543E+00 -0.1210892241547E+01 -0.7770889686718E+00  0.6326917068291E+00
-0.3101687644405E+00 -0.8516847904413E+00 -0.5460711694094E+00  0.4474800655052E+00
-0.7861435800880E-01 -0.4724390426263E+00 -0.2589950976416E+00  0.2085935668081E+00
 0.3133656699858E+00 -0.8860677912184E-01  0.1056366784381E+00 -0.8852091528633E-01
 0.2166452927117E+00 -0.3802474190706E+01 -0.1685339577783E+01  0.6553756343763E+00
 0.1725149925485E+00 -0.3735509998825E+01 -0.1674607648703E+01  0.7136131579142E+00
 0.1225503942942E+00 -0.3650108530684E+01 -0.1657952319898E+01  0.7658256642437E+00
 0.6732055237511E-01 -0.3546810752336E+01 -0.1635360389834E+01  0.8156359475245E+00
 0.6100614741891E-02 -0.3430727294067E+01 -0.1609574535200E+01  0.8628523747161E+00
-0.5835642656447E-01 -0.3300903713275E+01 -0.1578852261720E+01  0.9057186174177E+00
-0.1244874777870E+00 -0.3156387080165E+01 -0.1542011038326E+01  0.9423917446989E+00
-0.1907230113472E+00 -0.2995950067692E+01 -0.1497736343349E+01  0.9709968395401E+00
-0.2554206705402E+00 -0.2818456760596E+01 -0.1444722388969E+01  0.9895987323199E+00
-0.3166310181634E+00 -0.2622907552384E+01 -0.1381583124653E+01  0.9961284617755E+00
-0.3719206009731E+00 -0.2408499095268E+01 -0.1306797253919E+01  0.9883164187117E+00
-0.4181647880661E+00 -0.2174693901716E+01 -0.1218643581107E+01  0.9636357480017E+00
-0.4512922321337E+00 -0.1921339655350E+01 -0.1115136984289E+01  0.9192619771670E+00
-0.4659453098400E+00 -0.1648868947510E+01 -0.9939626984337E+00  0.8520629986316E+00
-0.4550177654919E+00 -0.1358635935604E+01 -0.8524172373531E+00  0.7586550123473E+00
-0.4090012414073E+00 -0.1053480046506E+01 -0.6873662035761E+00  0.6356050060090E+00
-0.3151376642996E+00 -0.7387801897494E+00 -0.4953413901466E+00  0.4799669987031E+00
-0.1562114743582E+00 -0.4243175909440E+00 -0.2728486600000E+00  0.2905863071911E+00
 0.8900063902599E-01 -0.1293721246909E+00 -0.1897459821439E-01  0.7133648474960E-01
 0.4272032850007E+00  0.9731538070958E-01  0.2465237722586E+00 -0.1589722544491E+00
 0.1917769978083E+00 -0.3621690984075E+01 -0.1612059569457E+01  0.6993169809489E+00
 0.1461380715248E+00 -0.3535313403651E+01 -0.1592912402059E+01  0.7493098022584E+00
 0.1029497112724E+00 -0.3414833570291E+01 -0.1556585409791E+01  0.7946055311801E+00
 0.4698678114205E-01 -0.3288448644244E+01 -0.1523487071794E+01  0.8389809517878E+00
-0.1297252587421E-01 -0.3150793242252E+01 -0.1486969907248E+01  0.8793134084586E+00
-0.7516683429712E-01 -0.3000466096131E+01 -0.1445547473635E+01  0.9134360061234E+00
-0.1377378343752E+00 -0.2835887414886E+01 -0.1397603863608E+01  0.9394059822697E+00
-0.1990870184516E+00 -0.2656090790349E+01 -0.1341933566733E+01  0.9553692422468E+00
-0.2574369593126E+00 -0.2460512679979E+01 -0.1277436327227E+01  0.9594309558640E+00
-0.3106786747756E+00 -0.2248996139249E+01 -0.1203047159540E+01  0.9496033918098E+00
-0.3561928843658E+00 -0.2021818210096E+01 -0.1117665211562E+01  0.9237946837596E+00
-0.3906643349628E+00 -0.1779789338427E+01 -0.1020113223906E+01  0.8798368039068E+00
-0.4098676191117E+00 -0.1524428788257E+01 -0.9091193091575E+00  0.8155619396623E+00
-0.4084295594730E+00 -0.1258243994457E+01 -0.7833365683601E+00  0.7289545574130E+00
-0.3795946901025E+00 -0.9851596382306E+00 -0.6414345326897E+00  0.6184341688808E+00
-0.3151035904591E+00 -0.7112013250669E+00 -0.4823633090738E+00  0.4833771630348E+00
-0.2053841946611E+00 -0.4455510209340E+00 -0.3059395505537E+00  0.3250835109311E+00
-0.4104875655909E-01 -0.2025636840057E+00 -0.1144978467750E+00  0.1486009649315E+00
 0.1838495001202E+00 -0.3922238306216E-02  0.8456581283806E-01 -0.3401459770884E-01
 0.4628947231602E+00  0.1232784243949E+00  0.2755013786521E+00 -0.2016953071300E+00
 0.1338987453877E+00 -0.3469984542999E+01 -0.1567960320901E+01  0.7240145013712E+00
 0.1307360090494E+00 -0.3301766449581E+01 -0.1490384303270E+01  0.7693598370220E+00
 0.8137294379224E-01 -0.3167274582123E+01 -0.1450373766337E+01  0.8120515303808E+00
 0.2686374903092E-01 -0.3026346217872E+01 -0.1409756756779E+01  0.8500899484082E+00
-0.3135997542135E-01 -0.2874898799761E+01 -0.1365941620871E+01  0.8814655071416E+00
-0.9052174758213E-01 -0.2710401456968E+01 -0.1316433902800E+01  0.9046597834116E+00
-0.1488040551019E+00 -0.2532169498861E+01 -0.1260057567166E+01  0.9180947966287E+00
-0.2043880353779E+00 -0.2340198558887E+01 -0.1195955696271E+01  0.9201037778043E+00
-0.2553559394518E+00 -0.2135009119823E+01 -0.1123471575010E+01  0.9089332411847E+00
-0.2995141586766E+00 -0.1917577734864E+01 -0.1042033187321E+01  0.8827916717523E+00
-0.3342553505330E+00 -0.1689379300371E+01 -0.9511082835126E+00  0.8399305649016E+00
-0.3564206388120E+00 -0.1452488215649E+01 -0.8501871594401E+00  0.7787701093092E+00
-0.3621734947610E+00 -0.1209739323389E+01 -0.7387990226566E+00  0.6980882337495E+00
-0.3469127508821E+00 -0.9649564759896E+00 -0.6165785350659E+00  0.5973016383908E+00
-0.3053024943961E+00 -0.7232696566810E+00 -0.4834289097801E+00  0.4768806409067E+00
-0.2315740580267E+00 -0.4915319096757E+00 -0.3398598039581E+00  0.3389548001299E+00
-0.1205247282870E+00 -0.2789025105511E+00 -0.1877308017778E+00  0.1881832369095E+00
 0.3045835683881E-01 -0.9717306142873E-01 -0.3135591107773E-01  0.3289861860068E-01
 0.2160289947269E+00  0.3865485768733E-01  0.1197014103311E+00 -0.1136727923038E+00
 0.4373154729680E+00  0.1270469662608E+00  0.2652503457647E+00 -0.2342469943378E+00
</DataArray>
<DataArray type="Float64" Name="S_Mises" NumberOfComponents="1" ComponentName0="S_Mises" format="ascii">
 0.7215661239438E+01
 0.6376149267124E+01
 0.5726527879123E+01
 0.5471354105899E+01
 0.5289046722165E+01
 0.5166921069747E+01
 0.5076102713758E+01
 0.5007072009076E+01
 0.4953327044945E+01
 0.4911447414542E+01
 0.4879482814850E+01
 0.4856543254452E+01
 0.4842499144239E+01
 0.4837873140814E+01
 0.4843840120514E+01
 0.4862359323814E+01
 0.4896533474543E+01
 0.4951581240005E+01
 0.5037176243916E+01
 0.5167184292034E+01
 0.5333423041697E+01
 0.5500707777755E+01
 0.5641511695175E+01
 0.5748698800128E+01
 0.5827970269559E+01
 0.5888882559742E+01
 0.5939770131615E+01
 0.5985863499087E+01
 0.6028512254500E+01
 0.6064483920234E+01
 0.6091577817295E+01
 0.6119476230472E+01
 0.6162567006838E+01
 0.6230272910089E+01
 0.6332062107447E+01
 0.6476733645654E+01
 0.6690325879837E+01
 0.6936075401875E+01
 0.7491152351453E+01
 0.6702672072816E+01
 0.1375752379047E+02
 0.6108464543727E+01
 0.6269710511115E+01
 0.5788562950758E+01
 0.5485910454327E+01
 0.5302534521641E+01
 0.5169650888648E+01
 0.5072437219907E+01
 0.4998072348901E+01
 0.4940370982244E+01
 0.4895478304590E+01
 0.4861257348805E+01
 0.4836635971140E+01
 0.4821343302905E+01
 0.4815773572464E+01
 0.4820970200196E+01
 0.4838721068351E+01
 0.4871841992962E+01
 0.4924651258465E+01
 0.5001783342923E+01
 0.5103937252239E+01
 0.5222774884919E+01
 0.5342118769625E+01
 0.5446934217541E+01
 0.5530127639408E+01
 0.5592061735680E+01
 0.5636696708863E+01
 0.5668275554309E+01
 0.5689401984197E+01
 0.5700485199154E+01
 0.5701049696198E+01
 0.5691730058721E+01
 0.5674753623700E+01
 0.5652718629716E+01
 0.5626044885375E+01
 0.5589318664700E+01
 0.5530858332681E+01
 0.5409676362806E+01
 0.5193546966508E+01
 0.4526238780125E+01
 0.3451459716792E+01
 0.1166324334989E+02
 0.5496525197737E+01
 0.5895231596536E+01
 0.5731816351548E+01
 0.5467649257750E+01
 0.5289498930358E+01
 0.5158140376220E+01
 0.5058647257999E+01
 0.4981897452001E+01
 0.4921822964346E+01
 0.4874854092671E+01
 0.4838838348811E+01
 0.4812655539322E+01
 0.4795942514518E+01
 0.4788967916740E+01
 0.4792590255174E+01
 0.4808288365095E+01
 0.4838246114561E+01
 0.4884856788692E+01
 0.4948254452786E+01
 0.5024483768736E+01
 0.5107230619029E+01
 0.5189235988443E+01
 0.5262818701038E+01
 0.5322194258692E+01
 0.5365066648692E+01
 0.5391792383502E+01
 0.5403602082481E+01
 0.5401204371720E+01
 0.5384616579447E+01
 0.5354084077516E+01
 0.5309680981317E+01
 0.5249500316167E+01
 0.5169592293023E+01
 0.5063060861570E+01
 0.4916840200170E+01
 0.4704693629101E+01
 0.4386081836213E+01
 0.3880297552629E+01
 0.3066271470932E+01
 0.3252908290296E+01
 0.1071909708277E+02
 0.5102534943902E+01
 0.5539058880823E+01
 0.5576418761844E+01
 0.5409968964175E+01
 0.5253534957042E+01
 0.5131310028044E+01
 0.5034659751165E+01
 0.4958208763986E+01
 0.4897451421987E+01
 0.4849368229425E+01
 0.4812060579988E+01
 0.4784468825379E+01
 0.4766194443926E+01
 0.4757385530161E+01
 0.4758671503888E+01
 0.4771108084593E+01
 0.4795957813785E+01
 0.4833591985237E+01
 0.4881481229963E+01
 0.4934486381683E+01
 0.4988311997837E+01
 0.5040234302984E+01
 0.5086710523834E+01
 0.5123360996545E+01
 0.5146755449612E+01
 0.5155070693465E+01
 0.5147483917273E+01
 0.5123409117804E+01
 0.5082433024258E+01
 0.5024482902293E+01
 0.4948469360517E+01
 0.4850143320112E+01
 0.4722158156381E+01
 0.4554192151950E+01
 0.4330397992196E+01
 0.4027274656714E+01
 0.3615711729226E+01
 0.3068513992865E+01
 0.2597035412798E+01
 0.4023653213906E+01
 0.9887959807414E+01
 0.4822917376537E+01
 0.5239005178009E+01
 0.5385206179168E+01
 0.5314980278177E+01
 0.5196910563693E+01
 0.5090054301244E+01
 0.5000551297686E+01
 0.4927017999925E+01
 0.4867171667906E+01
 0.4818934744316E+01
 0.4780845474253E+01
 0.4752019211769E+01
 0.4732073177234E+01
 0.4721045665459E+01
 0.4719309061543E+01
 0.4727415652740E+01
 0.4745630023346E+01
 0.4772751396877E+01
 0.4804999002489E+01
 0.4837411993434E+01
 0.4867280623923E+01
 0.4894258517834E+01
 0.4917105537784E+01
 0.4932595325850E+01
 0.4936974043950E+01
 0.4927221309134E+01
 0.4901226859582E+01
 0.4857530722116E+01
 0.4795229785432E+01
 0.4713640318890E+01
 0.4610732023456E+01
 0.4481201710777E+01
 0.4316722456475E+01
 0.4106797727563E+01
 0.3838561908704E+01
 0.3499250823098E+01
 0.3086748185705E+01
 0.2668608257984E+01
 0.2702497457540E+01
 0.4716739314476E+01
 0.9206116048657E+01
 0.4610295134511E+01
 0.4990566236697E+01
 0.5190538352642E+01
 0.5196137689413E+01
 0.5122087772918E+01
 0.5035959314262E+01
 0.4956875499620E+01
 0.4888548276693E+01
 0.4831065609378E+01
 0.4783574268755E+01
 0.4745199786361E+01
 0.4715323516091E+01
 0.4693626620032E+01
 0.4680053495136E+01
 0.4674710196922E+01
 0.4677626651220E+01
 0.4688183840367E+01
 0.4704160018796E+01
 0.4721393849018E+01
 0.4735573192364E+01
 0.4745135395351E+01
 0.4750979637877E+01
 0.4753133352211E+01
 0.4749242239728E+01
 0.4735639905553E+01
 0.4708762444691E+01
 0.4665779934128E+01
 0.4604672203286E+01
 0.4524103314967E+01
 0.4422869555106E+01
 0.4298471014566E+01
 0.4145610025448E+01
 0.3956763761577E+01
 0.3723941245052E+01
 0.3440968566452E+01
 0.3110238069359E+01
 0.2765547316724E+01
 0.2561786977451E+01
 0.3049789494482E+01
 0.5183216978246E+01
 0.8663737597640E+01
 0.4440079809370E+01
 0.4783190714960E+01
 0.5005917788642E+01
 0.5065699948934E+01
 0.5033378960497E+01
 0.4970814657200E+01
 0.4904553294041E+01
 0.4843223466713E+01
 0.4789352440290E+01
 0.4743408049839E+01
 0.4705208538021E+01
 0.4674467596017E+01
 0.4650971379816E+01
 0.4634591612764E+01
 0.4625180480487E+01
 0.4622290992166E+01
 0.4624627864003E+01
 0.4629417550673E+01
 0.4632599592313E+01
 0.4630609041724E+01
 0.4622682202638E+01
 0.4610351550158E+01
 0.4594330990694E+01
 0.4572913947498E+01
 0.4542722291604E+01
 0.4500069360634E+01
 0.4441811568601E+01
 0.4365626714437E+01
 0.4269899788688E+01
 0.4153163509079E+01
 0.4012962065415E+01
 0.3844843924202E+01
 0.3643376669395E+01
 0.3404848135563E+01
 0.3131679029997E+01
 0.2843381708040E+01
 0.2608905690571E+01
 0.2640847431918E+01
 0.3434002246492E+01
 0.5471623700867E+01
 0.8232986281565E+01
 0.4298334142552E+01
 0.4607388512735E+01
 0.4835847563830E+01
 0.4932051449633E+01
 0.4935459736973E+01
 0.4896724806357E+01
 0.4844688065838E+01
 0.4791636366278E+01
 0.4742364848208E+01
 0.4698644934659E+01
 0.4661027318754E+01
 0.4629599860822E+01
 0.4604285630676E+01
 0.4584909348288E+01
 0.4571103384137E+01
 0.4562033416845E+01
 0.4555952453566E+01
 0.4549880179116E+01
 0.4540096746916E+01
 0.4523738339938E+01
 0.4500588335164E+01
 0.4472479256968E+01
 0.4440489216761E+01
 0.4403401342826E+01
 0.4358219252986E+01
 0.4301397669242E+01
 0.4229766550362E+01
 0.4140924517743E+01
 0.4033179433746E+01
 0.3905103617739E+01
 0.3754744887713E+01
 0.3579119590696E+01
 0.3375709583443E+01
 0.3145999156671E+01
 0.2901645929762E+01
 0.2678776725681E+01
 0.2574070890440E+01
 0.2816601435167E+01
 0.3776138362575E+01
 0.5641973821716E+01
 0.7886640527825E+01
 0.4176611832685E+01
 0.4455780865951E+01
 0.4680863795450E+01
 0.4800232425086E+01
 0.4832368515437E+01
 0.4815900310258E+01
 0.4778490233132E+01
 0.4734488214694E+01
 0.4690526510327E+01
 0.4649566184889E+01
 0.4612872861040E+01
 0.4580923463195E+01
 0.4553800445202E+01
 0.4531310228305E+01
 0.4512915612283E+01
 0.4497504276285E+01
 0.4483079001129E+01
 0.4466685368840E+01
 0.4445044717239E+01
 0.4415903008631E+01
 0.4379417814764E+01
 0.4337543973613E+01
 0.4291550360066E+01
 0.4240606063769E+01
 0.4182136210350E+01
 0.4112899728073E+01
 0.4029903453655E+01
 0.3930858823185E+01
 0.3814205906524E+01
 0.3678842262550E+01
 0.3523682872243E+01
 0.3347620960263E+01
 0.3151473685511E+01
 0.2942194986034E+01
 0.2740360695704E+01
 0.2596188331449E+01
 0.2622156244318E+01
 0.3028309316939E+01
 0.4057738518585E+01
 0.5737703500918E+01
 0.7603495601991E+01
 0.4069513478242E+01
 0.4322854181275E+01
 0.4539897303053E+01
 0.4672977407113E+01
 0.4727195373597E+01
 0.4730411744329E+01
 0.4707200353757E+01
 0.4672539831085E+01
 0.4634325131511E+01
 0.4596510251881E+01
 0.4561012422032E+01
 0.4528687546744E+01
 0.4499790199200E+01
 0.4474138260340E+01
 0.4451083526671E+01
 0.4429345805677E+01
 0.4406840790175E+01
 0.4380786345163E+01
 0.4348370252736E+01
 0.4307853304724E+01
 0.4259653435340E+01
 0.4205758573475E+01
 0.4147540783509E+01
 0.4084490604392E+01
 0.4014468169072E+01
 0.3934635305514E+01
 0.3842319710453E+01
 0.3735506070363E+01
 0.3612956320018E+01
 0.3474129460647E+01
 0.3319062966106E+01
 0.3148745020494E+01
 0.2967436035976E+01
 0.2787370752456E+01
 0.2636975548816E+01
 0.2576464821701E+01
 0.2720901551379E+01
 0.3241881552446E+01
 0.4282092318834E+01
 0.5786883720703E+01
 0.7368163355570E+01
 0.3973432452772E+01
 0.4204521188636E+01
 0.4411347517280E+01
 0.4551572194169E+01
 0.4622127604269E+01
 0.4642041461003E+01
 0.4632011731271E+01
 0.4606570719948E+01
 0.4574286774768E+01
 0.4539857218180E+01
 0.4505752895317E+01
 0.4473178014210E+01
 0.4442562624916E+01
 0.4413764451767E+01
 0.4386083734663E+01
 0.4358171725811E+01
 0.4327980270187E+01
 0.4292984933520E+01
 0.4250827450044E+01
 0.4200200551555E+01
 0.4141710735425E+01
 0.4077340466072E+01
 0.4008526650774E+01
 0.3935043276974E+01
 0.3855186479154E+01
 0.3766579203682E+01
 0.3666970828038E+01
 0.3554747136962E+01
 0.3429147073208E+01
 0.3290365797193E+01
 0.3139715501152E+01
 0.2980341532899E+01
 0.2819828069300E+01
 0.2675166213572E+01
 0.2580969279058E+01
 0.2602439959348E+01
 0.2846306322495E+01
 0.3441034021270E+01
 0.4458502943949E+01
 0.5807095013017E+01
 0.7169687028875E+01
 0.3885869436872E+01
 0.4097739070048E+01
 0.4293553015550E+01
 0.4436442764179E+01
 0.4518619804021E+01
 0.4552233150340E+01
 0.4554012174925E+01
 0.4537344194747E+01
 0.4510953332341E+01
 0.4480013850982E+01
 0.4447430029640E+01
 0.4414708260582E+01
 0.4382449020552E+01
 0.4350574639920E+01
 0.4318388527803E+01
 0.4284556324758E+01
 0.4247153982229E+01
 0.4203959334001E+01
 0.4153038962695E+01
 0.4093450806297E+01
 0.4025947057244E+01
 0.3952494807613E+01
 0.3874585070500E+01
 0.3792254278150E+01
 0.3704229654499E+01
 0.3608627469747E+01
 0.3503687002254E+01
 0.3388290723362E+01
 0.3262269548409E+01
 0.3126667990052E+01
 0.2984136856310E+01
 0.2839922520396E+01
 0.2704650994198E+01
 0.2599289886476E+01
 0.2562548080277E+01
 0.2659624154174E+01
 0.2982182672402E+01
 0.3619490979803E+01
 0.4596670704621E+01
 0.5809321974315E+01
 0.7000227562161E+01
 0.3805037759592E+01
 0.4000221333157E+01
 0.4184982161723E+01
 0.4327530839343E+01
 0.4417578694721E+01
 0.4462103551938E+01
 0.4474151505188E+01
 0.4465580261606E+01
 0.4444863566389E+01
 0.4417400087101E+01
 0.4386398197989E+01
 0.4353610283955E+01
 0.4319795142872E+01
 0.4284959256160E+01
 0.4248455757607E+01
 0.4209029751807E+01
 0.4164940550641E+01
 0.4114286554803E+01
 0.4055524812760E+01
 0.3988027137067E+01
 0.3912667850735E+01
 0.3831404339474E+01
 0.3745785721389E+01
 0.3656100132230E+01
 0.3561497976324E+01
 0.3460603682180E+01
 0.3352189164753E+01
 0.3235698878645E+01
 0.3111631010727E+01
 0.2981937816428E+01
 0.2850602483697E+01
 0.2724829824869E+01
 0.2617886265921E+01
 0.2553742426244E+01
 0.2572927579461E+01
 0.2736520518960E+01
 0.3118467988331E+01
 0.3776074685350E+01
 0.4704976093035E+01
 0.5800497218271E+01
 0.6854085985880E+01
 0.3729625917563E+01
 0.3910230209639E+01
 0.4084295836171E+01
 0.4224523812168E+01
 0.4319521776358E+01
 0.4372484263444E+01
 0.4393231197020E+01
 0.4391937399426E+01
 0.4376537970598E+01
 0.4352437316574E+01
 0.4323021025474E+01
 0.4290226425236E+01
 0.4254953057601E+01
 0.4217305089713E+01
 0.4176722187659E+01
 0.4132077001533E+01
 0.4081849281417E+01
 0.4024460033212E+01
 0.3958722769344E+01
 0.3884284746671E+01
 0.3802131267755E+01
 0.3714223401560E+01
 0.3622179414229E+01
 0.3526534045001E+01
 0.3426851059342E+01
 0.3322265677519E+01
 0.3212104850951E+01
 0.3096413322092E+01
 0.2976396391018E+01
 0.2854927333705E+01
 0.2737262499066E+01
 0.2632359312825E+01
 0.2555632471912E+01
 0.2532960671295E+01
 0.2604523868447E+01
 0.2824504048103E+01
 0.3249374799874E+01
 0.3911984220741E+01
 0.4790180379105E+01
 0.5785065732137E+01
 0.6727029122348E+01
 0.3658649100651E+01
 0.3826429139478E+01
 0.3990353746451E+01
 0.4126991380613E+01
 0.4224700404757E+01
 0.4283973105092E+01
 0.4311909229968E+01
 0.4317002747225E+01
 0.4306467584527E+01
 0.4285538664563E+01
 0.4257663126960E+01
 0.4224901970775E+01
 0.4188274130506E+01
 0.4147988930507E+01
 0.4103599437719E+01
 0.4054138983511E+01
 0.3998328294222E+01
 0.3934903366484E+01
 0.3863003036427E+01
 0.3782521621324E+01
 0.3694551824837E+01
 0.3601074792462E+01
 0.3503791450643E+01
 0.3403480592681E+01
 0.3300107889249E+01
 0.3193312994631E+01
 0.3082984022366E+01
 0.2969781441233E+01
 0.2855628023570E+01
 0.2744296253998E+01
 0.2642217231216E+01
 0.2559847639843E+01
 0.2514193151316E+01
 0.2531916186815E+01
 0.2651031955450E+01
 0.2917406315158E+01
 0.3371889808135E+01
 0.4029374736979E+01
 0.4857590465879E+01
 0.5765934727002E+01
 0.6615836990396E+01
 0.3591353203801E+01
 0.3747777994727E+01
 0.3902197850248E+01
 0.4034464375085E+01
 0.4133190159169E+01
 0.4196984084718E+01
 0.4230713663651E+01
 0.4241289137907E+01
 0.4235106608157E+01
 0.4217101369218E+01
 0.4190683141255E+01
 0.4157978811872E+01
 0.4120103265619E+01
 0.4077372906788E+01
 0.4029471842269E+01
 0.3975614748884E+01
 0.3914771862346E+01
 0.3845981127449E+01
 0.3768679198242E+01
 0.3682986488036E+01
 0.3590103750460E+01
 0.3492048799184E+01
 0.3390618531224E+01
 0.3286833793993E+01
 0.3181049064354E+01
 0.3073395241391E+01
 0.2964314887009E+01
 0.2855081200143E+01
 0.2748321642971E+01
 0.2648659798219E+01
 0.2563573940771E+01
 0.2504730836424E+01
 0.2490134761007E+01
 0.2546177096808E+01
 0.2707389351874E+01
 0.3010995950181E+01
 0.3484709225906E+01
 0.4130643609167E+01
 0.4911331210684E+01
 0.5745058801968E+01
 0.6518001621846E+01
 0.3527150902528E+01
 0.3673458191137E+01
 0.3819028322865E+01
 0.3946478448437E+01
 0.4044954871890E+01
 0.4111791044379E+01
 0.4150060046886E+01
 0.4165236989155E+01
 0.4162868284061E+01
 0.4147501134179E+01
 0.4122428058606E+01
 0.4089790165323E+01
 0.4050774290803E+01
 0.4005801169672E+01
 0.3954695570323E+01
 0.3896864179187E+01
 0.3831526764755E+01
 0.3758007368154E+01
 0.3676016503667E+01
 0.3585884939677E+01
 0.3488924087644E+01
 0.3387203604451E+01
 0.3282627972241E+01
 0.3176457414311E+01
 0.3069420449436E+01
 0.2962120819416E+01
 0.2855538988460E+01
 0.2751543749729E+01
 0.2653437140361E+01
 0.2566626361268E+01
 0.2499487296495E+01
 0.2464583106540E+01
 0.2480324991448E+01
 0.2571931974846E+01
 0.2769653576246E+01
 0.3102485443205E+01
 0.3587535408004E+01
 0.4218085618833E+01
 0.4954596017549E+01
 0.5723812499927E+01
 0.6431529520466E+01
 0.3465577947539E+01
 0.3602818654069E+01
 0.3740178927015E+01
 0.3862596776309E+01
 0.3959890842748E+01
 0.4028563537881E+01
 0.4070269532371E+01
 0.4089219264441E+01
 0.4090123406152E+01
 0.4077088281092E+01
 0.4053228818041E+01
 0.4020656351727E+01
 0.3980606405077E+01
 0.3933597669094E+01
 0.3879598599627E+01
 0.3818210807878E+01
 0.3748897728186E+01
 0.3671252406558E+01
 0.3585238340408E+01
 0.3491384400682E+01
 0.3391115724323E+01
 0.3286566703873E+01
 0.3179758568468E+01
 0.3072186880490E+01
 0.2964937842915E+01
 0.2859065759027E+01
 0.2756065252026E+01
 0.2658373272755E+01
 0.2569923804820E+01
 0.2496825954969E+01
 0.2448187390541E+01
 0.2437142510512E+01
 0.2481955498459E+01
 0.2605977314423E+01
 0.2834834602384E+01
 0.3190122015015E+01
 0.3680632840400E+01
 0.4293740756565E+01
 0.4989826470599E+01
 0.5703232973363E+01
 0.6354820730627E+01
 0.3406262583971E+01
 0.3535336380694E+01
 0.3665094563180E+01
 0.3782420439800E+01
 0.3877856699758E+01
 0.3947395182805E+01
 0.3991585903320E+01
 0.4013548075629E+01
 0.4017200778553E+01
 0.4006185447690E+01
 0.3983397081774E+01
 0.3950881566661E+01
 0.3909901562653E+01
 0.3861064786530E+01
 0.3804481247734E+01
 0.3739944587695E+01
 0.3667152074496E+01
 0.3585948330762E+01
 0.3496531452216E+01
 0.3399618332966E+01
 0.3296750408852E+01
 0.3190137027385E+01
 0.3081922580869E+01
 0.2973832278463E+01
 0.2867292245988E+01
 0.2763782345423E+01
 0.2665282675616E+01
 0.2574763810735E+01
 0.2496740259472E+01
 0.2437930912658E+01
 0.2407998706614E+01
 0.2420327500521E+01
 0.2492550182070E+01
 0.2645675584227E+01
 0.2900717699014E+01
 0.3272872235382E+01
 0.3764559224819E+01
 0.4359349924239E+01
 0.5018822596277E+01
 0.5684132589057E+01
 0.6286604101175E+01
 0.3348903750429E+01
 0.3470587212947E+01
 0.3593311930981E+01
 0.3705591738600E+01
 0.3798693115795E+01
 0.3868325450451E+01
 0.3914190639592E+01
 0.3938481901216E+01
 0.3944389011510E+01
 0.3935086547164E+01
 0.3913223054643E+01
 0.3880751548042E+01
 0.3838942661064E+01
 0.3788482631214E+01
 0.3729617057166E+01
 0.3662324514884E+01
 0.3586523703459E+01
 0.3502293547688E+01
 0.3410050274460E+01
 0.3310689934202E+01
 0.3205871766308E+01
 0.3097887535877E+01
 0.2989008464897E+01
 0.2881182025966E+01
 0.2776155390629E+01
 0.2675807267910E+01
 0.2582571471656E+01
 0.2499913082917E+01
 0.2432869675916E+01
 0.2388670494901E+01
 0.2377352672438E+01
 0.2412246274732E+01
 0.2509960080650E+01
 0.2688894248999E+01
 0.2965698800424E+01
 0.3350191131358E+01
 0.3840000257259E+01
 0.4416396705646E+01
 0.5042794818134E+01
 0.5667148199246E+01
 0.6225829683086E+01
 0.3293256342234E+01
 0.3408242600710E+01
 0.3524477825947E+01
 0.3631847243774E+01
 0.3722309400164E+01
 0.3791449872398E+01
 0.3838328241199E+01
 0.3864362627294E+01
 0.3872085522742E+01
 0.3864219436172E+01
 0.3843153932323E+01
 0.3810730128048E+01
 0.3768210757557E+01
 0.3716349629791E+01
 0.3655519312747E+01
 0.3585873023579E+01
 0.3507536326998E+01
 0.3420804738092E+01
 0.3326296572285E+01
 0.3225077675535E+01
 0.3118924292410E+01
 0.3010214450258E+01
 0.2901346015629E+01
 0.2794477960718E+01
 0.2691656383349E+01
 0.2595128186009E+01
 0.2507743886627E+01
 0.2433417189045E+01
 0.2377643074467E+01
 0.2348053461594E+01
 0.2354878702088E+01
 0.2411126773799E+01
 0.2532101434756E+01
 0.2733524017399E+01
 0.3028100097241E+01
 0.3421257516126E+01
 0.3907109192542E+01
 0.4465713125269E+01
 0.5062538743518E+01
 0.5651711253268E+01
 0.6177026367823E+01
 0.3239120666672E+01
 0.3348018957848E+01
 0.3458269324173E+01
 0.3560909288436E+01
 0.3648543793737E+01
 0.3716743826200E+01
 0.3764090661989E+01
 0.3791361297480E+01
 0.3800505773803E+01
 0.3793820048209E+01
 0.3773432512265E+01
 0.3741060033694E+01
 0.3697944344673E+01
 0.3644895703676E+01
 0.3582403261505E+01
 0.3510782692595E+01
 0.3430351069215E+01
 0.3341603414317E+01
 0.3245345230642E+01
 0.3142803029940E+01
 0.3035867890883E+01
 0.2927005472362E+01
 0.2818737886577E+01
 0.2713423777651E+01
 0.2613386059628E+01
 0.2521209605283E+01
 0.2440124814206E+01
 0.2374447641969E+01
 0.2330063687683E+01
 0.2314900346803E+01
 0.2339212052626E+01
 0.2415462116536E+01
 0.2557470241414E+01
 0.2778339958152E+01
 0.3087307888012E+01
 0.3486273312459E+01
 0.3966828261818E+01
 0.4508510408869E+01
 0.5079125513729E+01
 0.5637167146396E+01
 0.6139444997211E+01
 0.3186320708165E+01
 0.3289657129246E+01
 0.3394371076715E+01
 0.3492471822111E+01
 0.3577158900767E+01
 0.3644063904317E+01
 0.3691419869556E+01
 0.3719479228399E+01
 0.3729682531829E+01
 0.3723930625502E+01
 0.3704095601744E+01
 0.3671762695524E+01
 0.3628141730236E+01
 0.3574088319502E+01
 0.3510196786838E+01
 0.3436932224610E+01
 0.3354788065400E+01
 0.3264443130453E+01
 0.3166876896760E+01
 0.3063468243132E+01
 0.2956220414073E+01
 0.2847686835294E+01
 0.2740510737691E+01
 0.2637239437878E+01
 0.2540453089568E+01
 0.2453048045696E+01
 0.2378602027141E+01
 0.2321791103498E+01
 0.2288828954069E+01
 0.2287838158543E+01
 0.2328946819126E+01
 0.2423897643982E+01
 0.2584926257604E+01
 0.2822649299505E+01
 0.3143287929226E+01
 0.3545917582140E+01
 0.4020333589058E+01
 0.4546075938677E+01
 0.5093090747231E+01
 0.5624653647620E+01
 0.6103860656343E+01
 0.3134712828782E+01
 0.3232959064692E+01
 0.3332551112686E+01
 0.3426321484230E+01
 0.3508010350391E+01
 0.3573359219035E+01
 0.3620354950775E+01
 0.3648825546581E+01
 0.3659771394268E+01
 0.3654733527688E+01
 0.3635338514240E+01
 0.3603037355247E+01
 0.3558999709148E+01
 0.3504116210570E+01
 0.3439074620630E+01
 0.3364475923999E+01
 0.3280974772425E+01
 0.3189418615393E+01
 0.3090948167411E+01
 0.2987086066085E+01
 0.2879943751892E+01
 0.2772160739910E+01
 0.2666496704624E+01
 0.2565675967256E+01
 0.2472516616634E+01
 0.2390200808872E+01
 0.2322621810697E+01
 0.2274773991228E+01
 0.2253137007219E+01
 0.2265932791384E+01
 0.2323031615857E+01
 0.2435326619093E+01
 0.2613441193754E+01
 0.2865692124633E+01
 0.3195721667041E+01
 0.3600370271872E+01
 0.4068203057141E+01
 0.4579065701343E+01
 0.5105065125540E+01
 0.5613482081522E+01
 0.6071814005466E+01
 0.3084175306081E+01
 0.3177757435447E+01
 0.3272611996506E+01
 0.3362271467037E+01
 0.3440964272289E+01
 0.3504572672230E+01
 0.3550916917649E+01
 0.3579485638966E+01
 0.3590903209904E+01
 0.3586387686370E+01
 0.3567334953312E+01
 0.3535062973201E+01
 0.3490695362191E+01
 0.3435148396280E+01
 0.3369191631969E+01
 0.3293548348368E+01
 0.3209019506079E+01
 0.3116606527850E+01
 0.3017598952487E+01
 0.2913654190309E+01
 0.2806986753958E+01
 0.2700319045942E+01
 0.2596521271626E+01
 0.2498482678301E+01
 0.2409240481124E+01
 0.2332238023108E+01
 0.2271653448658E+01
 0.2232758492947E+01
 0.2222238417562E+01
 0.2248325869191E+01
 0.2320523891673E+01
 0.2448791939177E+01
 0.2642169405508E+01
 0.2906890391681E+01
 0.3244419426817E+01
 0.3649850141300E+01
 0.4110940663546E+01
 0.4608061437888E+01
 0.5115363808555E+01
 0.5603464757313E+01
 0.6043406704359E+01
 0.3034604010119E+01
 0.3123909976419E+01
 0.3214384672644E+01
 0.3300157978786E+01
 0.3375897435289E+01
 0.3437643954137E+01
 0.3483112822974E+01
 0.3511524928462E+01
 0.3523186841642E+01
 0.3519030333354E+01
 0.3500238018063E+01
 0.3467998905993E+01
 0.3423386751524E+01
 0.3367335133544E+01
 0.3300684141693E+01
 0.3224265970100E+01
 0.3139013356828E+01
 0.3046067530486E+01
 0.2946854666827E+01
 0.2843157581542E+01
 0.2737287747949E+01
 0.2632046008766E+01
 0.2530406237314E+01
 0.2435410342750E+01
 0.2350296515960E+01
 0.2278745874303E+01
 0.2225192085925E+01
 0.2195144703100E+01
 0.2195437238805E+01
 0.2234233936901E+01
 0.2320584880170E+01
 0.2463472028294E+01
 0.2670420413270E+01
 0.2945809161683E+01
 0.3289283501368E+01
 0.3694587632241E+01
 0.4148992200735E+01
 0.4633523187980E+01
 0.5124210141864E+01
 0.5594490837719E+01
 0.6018393353180E+01
 0.2985909053351E+01
 0.3071294807191E+01
 0.3157723505008E+01
 0.3239836982644E+01
 0.3312696820846E+01
 0.3372511522226E+01
 0.3416938906686E+01
 0.3444992012394E+01
 0.3456711652153E+01
 0.3452778709862E+01
 0.3434181322898E+01
 0.3401985732360E+01
 0.3357213730290E+01
 0.3300808906238E+01
 0.3233671182277E+01
 0.3156728700649E+01
 0.3071031917099E+01
 0.2977848160867E+01
 0.2878728228345E+01
 0.2775570629174E+01
 0.2670776871574E+01
 0.2567220804282E+01
 0.2467972410264E+01
 0.2376213994795E+01
 0.2295367335193E+01
 0.2229329178284E+01
 0.2182760816063E+01
 0.2161371940786E+01
 0.2172091204402E+01
 0.2222946622248E+01
 0.2322473311489E+01
 0.2478666283730E+01
 0.2697633898197E+01
 0.2982125243671E+01
 0.3330279377409E+01
 0.3734811803215E+01
 0.4182742157559E+01
 0.4655817087344E+01
 0.5131769376334E+01
 0.5586449530890E+01
 0.5996447475977E+01
 0.2938012123352E+01
 0.3019806639912E+01
 0.3102502183069E+01
 0.3181181280035E+01
 0.3251258857239E+01
 0.3309113841666E+01
 0.3352382972288E+01
 0.3379921245337E+01
 0.3391549707662E+01
 0.3387731710318E+01
 0.3369280175272E+01
 0.3337146176931E+01
 0.3292298829390E+01
 0.3235685434014E+01
 0.3168255705561E+01
 0.3091021299776E+01
 0.3005136854580E+01
 0.2911982535435E+01
 0.2813221890153E+01
 0.2710859128306E+01
 0.2607378222934E+01
 0.2505719838882E+01
 0.2409042032108E+01
 0.2320655377325E+01
 0.2244148660986E+01
 0.2183613390860E+01
 0.2143912144133E+01
 0.2130919425562E+01
 0.2151611235681E+01
 0.2213823951141E+01
 0.2325538285840E+01
 0.2493780718837E+01
 0.2723357665064E+01
 0.3015601736186E+01
 0.3367415041993E+01
 0.3770740736788E+01
 0.4212518405904E+01
 0.4675236020641E+01
 0.5138159851076E+01
 0.5579221920640E+01
 0.5977224933603E+01
 0.2890844330813E+01
 0.2969353704183E+01
 0.3048610331530E+01
 0.3124077939832E+01
 0.3191488490694E+01
 0.3247390115357E+01
 0.3289426181264E+01
 0.3316334872797E+01
 0.3327757738364E+01
 0.3323971462401E+01
 0.3305632802543E+01
 0.3273586128127E+01
 0.3228748231322E+01
 0.3172064729031E+01
 0.3104525787635E+01
 0.3027214737838E+01
 0.2941377412344E+01
 0.2848493971652E+01
 0.2750328989797E+01
 0.2648982173223E+01
 0.2547011904326E+01
 0.2447418919213E+01
 0.2353441009484E+01
 0.2268505129843E+01
 0.2196351317826E+01
 0.2141246223268E+01
 0.2108229024853E+01
 0.2103306515784E+01
 0.2133460450303E+01
 0.2206293050188E+01
 0.2329211712776E+01
 0.2508314331308E+01
 0.2747228547183E+01
 0.3046067745279E+01
 0.3400725710241E+01
 0.3802576049917E+01
 0.4238598644728E+01
 0.4692013801281E+01
 0.5143461934594E+01
 0.5572680208524E+01
 0.5960385845507E+01
 0.2844344454253E+01
 0.2919855235714E+01
 0.2995950687307E+01
 0.3068426039525E+01
 0.3133298181733E+01
 0.3187280641862E+01
 0.3228044377926E+01
 0.3254244765955E+01
 0.3265378845718E+01
 0.3261564794434E+01
 0.3243321560597E+01
 0.3211395678636E+01
 0.3166652763398E+01
 0.3110032140946E+01
 0.3042555780267E+01
 0.2965367467139E+01
 0.2879791792965E+01
 0.2787396480551E+01
 0.2690035558845E+01
 0.2589893895974E+01
 0.2489595885790E+01
 0.2392195205252E+01
 0.2301000883013E+01
 0.2219544661403E+01
 0.2151702864105E+01
 0.2101898866876E+01
 0.2075325508514E+01
 0.2078092555036E+01
 0.2117152735878E+01
 0.2199844391217E+01
 0.2333000642036E+01
 0.2521846525432E+01
 0.2768956175750E+01
 0.3073402369098E+01
 0.3430262782643E+01
 0.3830500272868E+01
 0.4261216637391E+01
 0.4706335977594E+01
 0.5147724971343E+01
 0.5566689786937E+01
 0.5945603264203E+01
 0.2798457496202E+01
 0.2871239412599E+01
 0.2944436741626E+01
 0.3014134691755E+01
 0.3076606893762E+01
 0.3128726918572E+01
 0.3168209054827E+01
 0.3193653827301E+01
 0.3204443982425E+01
 0.3200564584878E+01
 0.3182414104079E+01
 0.3150650165854E+01
 0.3106088893242E+01
 0.3049659382869E+01
 0.2982407412473E+01
 0.2905526614869E+01
 0.2820408443965E+01
 0.2728696147403E+01
 0.2632321808282E+01
 0.2533545063084E+01
 0.2435047700974E+01
 0.2339928962472E+01
 0.2251560557760E+01
 0.2173567748767E+01
 0.2109948923317E+01
 0.2065266912246E+01
 0.2044847093653E+01
 0.2054876428305E+01
 0.2102251007459E+01
 0.2194027771461E+01
 0.2336479769069E+01
 0.2534025776503E+01
 0.2788309367763E+01
 0.3097522147978E+01
 0.3456085994440E+01
 0.3854675960162E+01
 0.4280567889974E+01
 0.4718348316137E+01
 0.5150973169531E+01
 0.5561112071350E+01
 0.5932567054527E+01
 0.2753133486178E+01
 0.2823441647154E+01
 0.2893990760829E+01
 0.2961121321881E+01
 0.3021339108086E+01
 0.3071671566124E+01
 0.3109888034428E+01
 0.3134557114195E+01
 0.3144973216596E+01
 0.3141010977494E+01
 0.3122964485883E+01
 0.3091411174553E+01
 0.3047119690577E+01
 0.2991005507880E+01
 0.2924130818307E+01
 0.2847729078622E+01
 0.2763247227316E+01
 0.2672392381898E+01
 0.2577163468260E+01
 0.2479884506761E+01
 0.2383285951796E+01
 0.2290505093304E+01
 0.2204967784008E+01
 0.2130381862778E+01
 0.2070854236286E+01
 0.2031071001706E+01
 0.2016470836867E+01
 0.2033295886936E+01
 0.2088365238822E+01
 0.2188448191752E+01
 0.2339284324986E+01
 0.2544559613820E+01
 0.2805104846640E+01
 0.3118371319976E+01
 0.3478257926919E+01
 0.3875245857557E+01
 0.4296814701725E+01
 0.4728163690385E+01
 0.5153210747056E+01
 0.5555807406301E+01
 0.5920985732302E+01
 0.2708326481675E+01
 0.2776403164759E+01
 0.2844542121118E+01
 0.2909310171072E+01
 0.2967423894254E+01
 0.3016058141202E+01
 0.3053045941812E+01
 0.3076942739155E+01
 0.3086976814799E+01
 0.3082932476458E+01
 0.3065014188522E+01
 0.3033727501272E+01
 0.2989795757894E+01
 0.2934117845269E+01
 0.2867765507494E+01
 0.2792002547246E+01
 0.2708320499461E+01
 0.2618479065672E+01
 0.2524533010376E+01
 0.2428860419531E+01
 0.2334231653274E+01
 0.2243814484128E+01
 0.2161080432413E+01
 0.2089809277764E+01
 0.2034203500825E+01
 0.1999057290139E+01
 0.1989905296668E+01
 0.2013026722462E+01
 0.2075150371431E+01
 0.2182761780857E+01
 0.2341103491873E+01
 0.2553205899233E+01
 0.2819197969450E+01
 0.3135914286080E+01
 0.3496840212747E+01
 0.3892333662792E+01
 0.4310090598795E+01
 0.4735867801252E+01
 0.5154426460547E+01
 0.5550637760129E+01
 0.5910587529696E+01
 0.2663993729726E+01
 0.2730069815497E+01
 0.2796025903313E+01
 0.2858630997899E+01
 0.2914794048924E+01
 0.2961830881620E+01
 0.2997644520895E+01
 0.3020792588850E+01
 0.3030456167079E+01
 0.3026346926974E+01
 0.3008593081459E+01
 0.2977636069865E+01
 0.2934156120036E+01
 0.2879032890138E+01
 0.2813341276963E+01
 0.2738366448657E+01
 0.2655634105261E+01
 0.2566945600938E+01
 0.2474400756159E+01
 0.2380421516802E+01
 0.2287809425570E+01
 0.2199755179729E+01
 0.2119767582885E+01
 0.2051687992708E+01
 0.1999802037192E+01
 0.1968997759493E+01
 0.1964890361537E+01
 0.1993781850276E+01
 0.2062304191347E+01
 0.2176671890260E+01
 0.2341674439930E+01
 0.2559765345523E+01
 0.2830475173505E+01
 0.3150129823215E+01
 0.3511890968422E+01
 0.3906045113038E+01
 0.4320504218567E+01
 0.4741524007932E+01
 0.5154597579018E+01
 0.5545469156842E+01
 0.5901121148623E+01
 0.2620094959322E+01
 0.2684391074579E+01
 0.2748381701331E+01
 0.2809017950079E+01
 0.2863385304276E+01
 0.2908934408733E+01
 0.2943642827396E+01
 0.2966082888005E+01
 0.2975404565320E+01
 0.2971262377615E+01
 0.2953720289695E+01
 0.2923162777795E+01
 0.2880229050955E+01
 0.2825777125966E+01
 0.2760879045074E+01
 0.2686832808065E+01
 0.2605188269903E+01
 0.2517777843987E+01
 0.2426735855365E+01
 0.2334518051838E+01
 0.2243948520388E+01
 0.2158233376979E+01
 0.2080910425506E+01
 0.2015872470365E+01
 0.1967476293221E+01
 0.1940690407121E+01
 0.1941196989095E+01
 0.1975310345271E+01
 0.2049565245424E+01
 0.2169925451969E+01
 0.2340777037375E+01
 0.2564075190751E+01
 0.2838847884923E+01
 0.3161006679584E+01
 0.3523463117986E+01
 0.3916469234352E+01
 0.4328142710458E+01
 0.4745177442064E+01
 0.5153693351271E+01
 0.5540173838721E+01
 0.5892356409985E+01
 0.2576591781672E+01
 0.2639319198911E+01
 0.2701552610561E+01
 0.2760408586826E+01
 0.2813135610537E+01
 0.2857313413372E+01
 0.2890997335054E+01
 0.2912784643047E+01
 0.2921807860971E+01
 0.2917677840410E+01
 0.2900404982153E+01
 0.2870323278247E+01
 0.2828032842765E+01
 0.2774367787501E+01
 0.2710391618951E+01
 0.2637407029720E+01
 0.2556978403788E+01
 0.2470958939931E+01
 0.2381507151902E+01
 0.2291102703144E+01
 0.2202583704961E+01
 0.2119164265334E+01
 0.2044403006155E+01
 0.1982234231924E+01
 0.1937074230378E+01
 0.1913959351286E+01
 0.1918626903189E+01
 0.1957396487368E+01
 0.2036710872751E+01
 0.2162309675871E+01
 0.2338229252070E+01
 0.2566003924001E+01
 0.2844247650226E+01
 0.3168540245618E+01
 0.3531603343680E+01
 0.3923679628960E+01
 0.4333074691736E+01
 0.4746858512822E+01
 0.5151678010284E+01
 0.5534632194169E+01
 0.5884084892807E+01
 0.2533447180090E+01
 0.2594808511835E+01
 0.2655484364958E+01
 0.2712743029003E+01
 0.2763984486275E+01
 0.2806912334509E+01
 0.2839661971872E+01
 0.2860863980461E+01
 0.2869645009173E+01
 0.2865583946007E+01
 0.2848647069192E+01
 0.2819123682325E+01
 0.2777576499172E+01
 0.2724813545869E+01
 0.2661884377472E+01
 0.2590088585493E+01
 0.2510995804162E+01
 0.2426470042882E+01
 0.2338683922498E+01
 0.2250131321315E+01
 0.2163655993869E+01
 0.2082472708640E+01
 0.2010152816204E+01
 0.1950662311418E+01
 0.1908465599212E+01
 0.1888654866826E+01
 0.1897012270161E+01
 0.1939858854334E+01
 0.2023555407774E+01
 0.2153649140950E+01
 0.2333883247506E+01
 0.2565446968951E+01
 0.2846622304740E+01
 0.3172730079859E+01
 0.3536351489932E+01
 0.3927735735487E+01
 0.4335352804197E+01
 0.4746585887777E+01
 0.5148513364473E+01
 0.5528734469135E+01
 0.5876120649951E+01
 0.2490625074443E+01
 0.2550814794549E+01
 0.2610124599117E+01
 0.2665963220157E+01
 0.2715872433130E+01
 0.2757675041113E+01
 0.2789588105045E+01
 0.2810282399511E+01
 0.2818888514661E+01
 0.2814963503120E+01
 0.2798437812941E+01
 0.2769561181654E+01
 0.2728860352412E+01
 0.2677115115402E+01
 0.2615355870539E+01
 0.2544871612084E+01
 0.2467228256340E+01
 0.2384290925467E+01
 0.2298236493440E+01
 0.2211563542776E+01
 0.2127113238856E+01
 0.2048093781508E+01
 0.1978081242394E+01
 0.1921063587968E+01
 0.1881542123261E+01
 0.1864653371401E+01
 0.1876215379893E+01
 0.1922549498611E+01
 0.2009948601254E+01
 0.2143803313123E+01
 0.2327622152141E+01
 0.2562323222497E+01
 0.2845933005844E+01
 0.3173578099214E+01
 0.3537740273250E+01
 0.3928683999298E+01
 0.4335015889195E+01
 0.4744368999090E+01
 0.5144161005623E+01
 0.5522382292802E+01
 0.5868300942888E+01
 0.2448089948983E+01
 0.2507294768224E+01
 0.2565422218037E+01
 0.2620012286649E+01
 0.2668740414353E+01
 0.2709544528449E+01
 0.2740724493924E+01
 0.2760996961175E+01
 0.2769504799340E+01
 0.2765791978172E+01
 0.2749760362613E+01
 0.2721624601160E+01
 0.2681876612745E+01
 0.2631265791776E+01
 0.2570798345413E+01
 0.2501745429013E+01
 0.2425660548060E+01
 0.2344400492705E+01
 0.2260136752300E+01
 0.2175363289732E+01
 0.2092910598773E+01
 0.2015973185177E+01
 0.1948123904003E+01
 0.1893363024000E+01
 0.1856217619672E+01
 0.1841857391672E+01
 0.1856128366130E+01
 0.1905353252299E+01
 0.1995774308582E+01
 0.2132664522803E+01
 0.2319357487261E+01
 0.2556572369059E+01
 0.2842152002699E+01
 0.3171087297245E+01
 0.3535795198944E+01
 0.3926558917880E+01
 0.4332090804147E+01
 0.4740210121355E+01
 0.5138584173892E+01
 0.5515490033842E+01
 0.5860487035025E+01
 0.2405806533729E+01
 0.2464205651656E+01
 0.2521326856517E+01
 0.2574833981171E+01
 0.2622529388298E+01
 0.2662462627852E+01
 0.2693017215271E+01
 0.2712960418571E+01
 0.2721454494226E+01
 0.2718037893344E+01
 0.2702590208406E+01
 0.2675294872009E+01
 0.2636609838124E+01
 0.2587251907777E+01
 0.2528198185840E+01
 0.2460694962919E+01
 0.2386274882506E+01
 0.2306777186239E+01
 0.2224358541665E+01
 0.2141499145015E+01
 0.2061010880524E+01
 0.1986067535978E+01
 0.1920230872091E+01
 0.1867503805034E+01
 0.1832428052684E+01
 0.1820195507993E+01
 0.1836672971826E+01
 0.1888187177440E+01
 0.1980949469361E+01
 0.2120156414204E+01
 0.2309027229919E+01
 0.2548152902199E+01
 0.2835261043520E+01
 0.3165260891714E+01
 0.3530534616686E+01
 0.3921383939793E+01
 0.4326593897928E+01
 0.4734106052979E+01
 0.5131749301595E+01
 0.5507985995368E+01
 0.5852565016723E+01
 0.2363739531702E+01
 0.2421504783398E+01
 0.2477788415542E+01
 0.2530372199541E+01
 0.2577179893004E+01
 0.2616369733502E+01
 0.2646409570042E+01
 0.2666121300612E+01
 0.2674692666957E+01
 0.2671663151969E+01
 0.2656895560249E+01
 0.2630545428790E+01
 0.2593037326855E+01
 0.2545053209074E+01
 0.2487536266417E+01
 0.2421701080995E+01
 0.2349051193519E+01
 0.2271399283434E+01
 0.2190877940799E+01
 0.2109944609663E+01
 0.2031384760874E+01
 0.1958344537919E+01
 0.1894366783041E+01
 0.1843447392673E+01
 0.1810131530398E+01
 0.1799622288398E+01
 0.1817800374697E+01
 0.1871000184128E+01
 0.1965423403237E+01
 0.2106232878323E+01
 0.2296594492571E+01
 0.2537040800002E+01
 0.2825250344440E+01
 0.3156101826219E+01
 0.3521969862495E+01
 0.3913172198164E+01
 0.4318532154724E+01
 0.4726049422757E+01
 0.5123627254000E+01
 0.5499813454550E+01
 0.5844446646610E+01
 0.2321853385740E+01
 0.2379149299026E+01
 0.2434756664640E+01
 0.2486570561211E+01
 0.2532631676814E+01
 0.2571204546825E+01
 0.2600841976921E+01
 0.2620423956306E+01
 0.2629168992084E+01
 0.2626623296672E+01
 0.2612637654420E+01
 0.2587342531874E+01
 0.2551129432654E+01
 0.2504643148481E+01
 0.2448788220285E+01
 0.2384740831620E+01
 0.2313967361347E+01
 0.2238245090376E+01
 0.2159673435484E+01
 0.2080678245017E+01
 0.2004010892588E+01
 0.1932783044173E+01
 0.1870510851484E+01
 0.1821173494881E+01
 0.1789308247320E+01
 0.1780118214194E+01
 0.1799491078794E+01
 0.1853772828719E+01
 0.1949177437189E+01
 0.2090877476314E+01
 0.2282046805678E+01
 0.2523228817390E+01
 0.2812118069267E+01
 0.3143612576840E+01
 0.3510105453478E+01
 0.3901927066703E+01
 0.4307904012335E+01
 0.4716029635275E+01
 0.5114194277512E+01
 0.5490931545844E+01
 0.5836070193515E+01
 0.2280112079657E+01
 0.2337095855867E+01
 0.2392180901092E+01
 0.2443372045415E+01
 0.2488823370477E+01
 0.2526903838569E+01
 0.2556251856622E+01
 0.2575808565933E+01
 0.2584827870634E+01
 0.2582867705593E+01
 0.2569770991633E+01
 0.2545645516748E+01
 0.2510849802490E+01
 0.2465989098156E+01
 0.2411924619034E+01
 0.2349787590837E+01
 0.2280999327700E+01
 0.2207293028091E+01
 0.2130725976284E+01
 0.2053683700910E+01
 0.1978875897889E+01
 0.1909373011409E+01
 0.1848656786465E+01
 0.1800679955900E+01
 0.1769960372583E+01
 0.1761689595562E+01
 0.1781754872199E+01
 0.1836517296917E+01
 0.1932224872330E+01
 0.2074103357505E+01
 0.2265395995996E+01
 0.2506726374764E+01
 0.2795870291482E+01
 0.3127795235744E+01
 0.3494939315243E+01
 0.3887642529384E+01
 0.4294699855703E+01
 0.4704033460257E+01
 0.5103432658220E+01
 0.5481315983043E+01
 0.5827401261257E+01
 0.2238478969555E+01
 0.2295300399103E+01
 0.2350009658852E+01
 0.2400718676650E+01
 0.2445692197230E+01
 0.2483402228926E+01
 0.2512573510892E+01
 0.2532211125300E+01
 0.2541608505871E+01
 0.2540339733101E+01
 0.2528243511766E+01
 0.2505406974124E+01
 0.2472155539750E+01
 0.2429052481246E+01
 0.2376911065609E+01
 0.2316811115083E+01
 0.2250121110439E+01
 0.2178521612590E+01
 0.2104018926556E+01
 0.2028949632308E+01
 0.1955974252679E+01
 0.1888115351122E+01
 0.1828812614712E+01
 0.1781982567906E+01
 0.1752111882917E+01
 0.1744368473309E+01
 0.1764630846425E+01
 0.1819277570231E+01
 0.1914611292992E+01
 0.2055953676644E+01
 0.2246678662991E+01
 0.2487560041332E+01
 0.2776521433747E+01
 0.3108651865993E+01
 0.3476463036761E+01
 0.3870303359822E+01
 0.4278902183306E+01
 0.4690045264834E+01
 0.5091331088740E+01
 0.5470959613252E+01
 0.5818433581321E+01
 0.2196916641819E+01
 0.2253717964139E+01
 0.2308190460985E+01
 0.2358551253752E+01
 0.2403173717208E+01
 0.2440631985014E+01
 0.2469737998430E+01
 0.2489563407315E+01
 0.2499444940299E+01
 0.2498976799807E+01
 0.2487996709066E+01
 0.2466572863366E+01
 0.2434997293957E+01
 0.2393788823065E+01
 0.2343708199358E+01
 0.2285777498603E+01
 0.2221304715973E+01
 0.2151909326818E+01
 0.2079537898675E+01
 0.2006469503576E+01
 0.1935308061569E+01
 0.1869021678652E+01
 0.1811000411472E+01
 0.1765114803106E+01
 0.1735808335546E+01
 0.1728212497576E+01
 0.1748187465329E+01
 0.1802129764560E+01
 0.1896415212356E+01
 0.2036502512724E+01
 0.2225957263465E+01
 0.2465774628592E+01
 0.2754095202213E+01
 0.3086185142232E+01
 0.3454662160412E+01
 0.3849885109237E+01
 0.4260485438839E+01
 0.4674046879456E+01
 0.5077884734824E+01
 0.5459872791800E+01
 0.5809189760207E+01
 0.2155386794914E+01
 0.2212302510942E+01
 0.2266669610512E+01
 0.2316809117718E+01
 0.2361201602849E+01
 0.2398522834792E+01
 0.2427673009254E+01
 0.2447792904308E+01
 0.2458266058354E+01
 0.2458710436349E+01
 0.2448965691695E+01
 0.2429082562031E+01
 0.2399319278583E+01
 0.2360147722068E+01
 0.2312271612373E+01
 0.2256649033799E+01
 0.2194519946974E+01
 0.2127434381829E+01
 0.2057270475838E+01
 0.1986241278139E+01
 0.1916886722102E+01
 0.1852113958777E+01
 0.1795255937707E+01
 0.1750127463476E+01
 0.1721116574321E+01
 0.1713304770724E+01
 0.1732522664632E+01
 0.1785182619943E+01
 0.1877749039631E+01
 0.2015856288461E+01
 0.2203321821285E+01
 0.2441434926074E+01
 0.2728626054891E+01
 0.3060399312520E+01
 0.3429516527824E+01
 0.3826353903883E+01
 0.4239415493660E+01
 0.4656017078680E+01
 0.5063094986302E+01
 0.5448083564572E+01
 0.5799721965143E+01
 0.2113850142731E+01
 0.2171006787330E+01
 0.2225392016105E+01
 0.2275429955138E+01
 0.2319707443613E+01
 0.2357001797848E+01
 0.2386302740373E+01
 0.2406822756052E+01
 0.2417995561097E+01
 0.2419466287877E+01
 0.2411079192337E+01
 0.2392868857487E+01
 0.2365059221811E+01
 0.2328072744209E+01
 0.2282551679385E+01
 0.2229383975590E+01
 0.2169734105518E+01
 0.2105074366555E+01
 0.2037205818392E+01
 0.1968266992364E+01
 0.1900726477196E+01
 0.1837424047331E+01
 0.1781628183158E+01
 0.1737088246474E+01
 0.1708124363529E+01
 0.1699753641378E+01
 0.1717763959691E+01
 0.1768578113669E+01
 0.1858760346832E+01
 0.1994155688767E+01
 0.2178892289748E+01
 0.2414628133923E+01
 0.2700161273177E+01
 0.3031301546317E+01
 0.3401000724036E+01
 0.3799666061906E+01
 0.4215648762963E+01
 0.4635930651985E+01
 0.5046968873591E+01
 0.5435637644493E+01
 0.5790112534863E+01
 0.2072266337678E+01
 0.2129782217584E+01
 0.2184301047901E+01
 0.2234349631954E+01
 0.2278620574882E+01
 0.2315993028817E+01
 0.2345547769758E+01
 0.2366571661710E+01
 0.2378551912016E+01
 0.2381164078567E+01
 0.2374259528808E+01
 0.2357857878639E+01
 0.2332148246988E+01
 0.2297501235983E+01
 0.2254493295142E+01
 0.2203936202509E+01
 0.2146911583415E+01
 0.2084805777288E+01
 0.2019334145425E+01
 0.1952552204347E+01
 0.1886849846840E+01
 0.1824993120556E+01
 0.1770178807736E+01
 0.1726081218719E+01
 0.1696939937737E+01
 0.1687692428994E+01
 0.1704068527151E+01
 0.1752492150641E+01
 0.1839633391047E+01
 0.1971578057182E+01
 0.2152821584316E+01
 0.2385467048840E+01
 0.2668763715687E+01
 0.2998903744539E+01
 0.3369084665683E+01
 0.3769767528608E+01
 0.4189130914692E+01
 0.4613757012800E+01
 0.5029518116825E+01
 0.5422598151950E+01
 0.5780474506090E+01
 0.2030593911794E+01
 0.2088578815163E+01
 0.2143338422432E+01
 0.2193502057285E+01
 0.2237867932086E+01
 0.2275417676395E+01
 0.2305324933982E+01
 0.2326953783603E+01
 0.2339848264045E+01
 0.2343717547825E+01
 0.2338422527027E+01
 0.2323968979923E+01
 0.2300510694053E+01
 0.2268364066022E+01
 0.2228035527417E+01
 0.2180254780861E+01
 0.2126013344292E+01
 0.2066603429705E+01
 0.2003646092873E+01
 0.1939105317518E+01
 0.1875284938082E+01
 0.1814870991103E+01
 0.1760981480626E+01
 0.1717206197212E+01
 0.1687691464530E+01
 0.1677279066825E+01
 0.1691623232120E+01
 0.1737135286294E+01
 0.1820590846748E+01
 0.1948340253062E+01
 0.2125299321875E+01
 0.2354094097092E+01
 0.2634515386053E+01
 0.2963224945912E+01
 0.3333734430324E+01
 0.3736593161212E+01
 0.4159795138479E+01
 0.4589458292667E+01
 0.5010757775171E+01
 0.5409045118945E+01
 0.5770951975822E+01
 0.1988790235620E+01
 0.2047345118519E+01
 0.2102444115649E+01
 0.2152819076331E+01
 0.2197373929428E+01
 0.2235193758192E+01
 0.2265547211369E+01
 0.2287878646666E+01
 0.2301792373552E+01
 0.2307034365290E+01
 0.2303477413993E+01
 0.2291114584934E+01
 0.2270063888181E+01
 0.2240585299837E+01
 0.2203111188302E+01
 0.2158283432588E+01
 0.2106996296112E+01
 0.2050439750332E+01
 0.1990131943304E+01
 0.1927936772760E+01
 0.1866064626080E+01
 0.1807115303554E+01
 0.1754121111343E+01
 0.1710578034157E+01
 0.1680526415683E+01
 0.1668695651009E+01
 0.1680644570160E+01
 0.1722753428173E+01
 0.1801895686028E+01
 0.1924701935529E+01
 0.2096556298059E+01
 0.2320686323996E+01
 0.2597521981001E+01
 0.2924294508419E+01
 0.3294913464376E+01
 0.3700065913371E+01
 0.4127559930520E+01
 0.4562986838953E+01
 0.4990704461039E+01
 0.5395074732894E+01
 0.5761720341270E+01
 0.1946811493554E+01
 0.2006028147640E+01
 0.2061556300648E+01
 0.2112230387944E+01
 0.2157060357831E+01
 0.2195236045812E+01
 0.2226123605677E+01
 0.2249251029934E+01
 0.2264286499209E+01
 0.2271016023682E+01
 0.2269326680202E+01
 0.2259199988582E+01
 0.2240717853309E+01
 0.2214081803547E+01
 0.2179646317515E+01
 0.2137959898472E+01
 0.2089812543795E+01
 0.2036283935194E+01
 0.1978780713305E+01
 0.1919058093161E+01
 0.1859225588977E+01
 0.1801790591809E+01
 0.1749692956203E+01
 0.1706325791054E+01
 0.1675610832920E+01
 0.1662147874511E+01
 0.1671378480775E+01
 0.1709628439107E+01
 0.1783853106358E+01
 0.1900969192827E+01
 0.2066869693443E+01
 0.2285461429050E+01
 0.2557918587951E+01
 0.2882156262910E+01
 0.3252584326142E+01
 0.3660095967532E+01
 0.4092326305211E+01
 0.4534281962313E+01
 0.4969374035793E+01
 0.5380798315887E+01
 0.5752986265088E+01
 0.1904612675836E+01
 0.1964573382090E+01
 0.2020611311458E+01
 0.2071663488508E+01
 0.2116846303922E+01
 0.2155455962762E+01
 0.2186959034928E+01
 0.2210970857629E+01
 0.2227227296369E+01
 0.2235557722679E+01
 0.2235865926184E+01
 0.2228123132756E+01
 0.2212374984556E+01
 0.2188762788706E+01
 0.2157559587302E+01
 0.2119215203404E+01
 0.2074408525753E+01
 0.2024100976555E+01
 0.1969579096297E+01
 0.1912480776119E+01
 0.1854807188514E+01
 0.1798967188719E+01
 0.1747801591322E+01
 0.1704591796595E+01
 0.1673128486661E+01
 0.1657864341702E+01
 0.1664100009112E+01
 0.1698078580673E+01
 0.1766812409364E+01
 0.1877498431459E+01
 0.2036569006106E+01
 0.2248684974351E+01
 0.2515876777686E+01
 0.2836873940345E+01
 0.3206711234734E+01
 0.3616579956625E+01
 0.4053974371375E+01
 0.4503265733035E+01
 0.4946778685619E+01
 0.5366341063854E+01
 0.5744987233557E+01
 0.1862147587518E+01
 0.1922924759815E+01
 0.1979543631548E+01
 0.2031043639304E+01
 0.2076648085389E+01
 0.2115761489641E+01
 0.2147954220574E+01
 0.2172933087126E+01
 0.2190505706863E+01
 0.2200548245910E+01
 0.2202983696497E+01
 0.2197774358910E+01
 0.2184929681953E+01
 0.2164529298733E+01
 0.2136761627040E+01
 0.2101972819335E+01
 0.2060724027600E+01
 0.2013850548714E+01
 0.1962510249337E+01
 0.1908215018686E+01
 0.1852850179635E+01
 0.1798719969415E+01
 0.1748559734031E+01
 0.1705530574000E+01
 0.1673279919173E+01
 0.1656095755950E+01
 0.1659112790634E+01
 0.1688458725257E+01
 0.1751168700530E+01
 0.1854700379035E+01
 0.2006042640977E+01
 0.2210678851295E+01
 0.2471613335724E+01
 0.2788538207271E+01
 0.3157263750356E+01
 0.3569400468791E+01
 0.4012359190243E+01
 0.4469837476019E+01
 0.4922923139824E+01
 0.5351840602902E+01
 0.5737990441515E+01
 0.1819368874879E+01
 0.1881024697713E+01
 0.1938285908120E+01
 0.1990293857317E+01
 0.2036379200877E+01
 0.2076057074260E+01
 0.2109005576349E+01
 0.2135027596508E+01
 0.2154006850735E+01
 0.2165869840850E+01
 0.2170561312965E+01
 0.2168036149873E+01
 0.2158267956840E+01
 0.2141273646142E+01
 0.2117154273712E+01
 0.2086147728735E+01
 0.2048691072560E+01
 0.2005485749188E+01
 0.1957552416853E+01
 0.1906268265235E+01
 0.1853395234000E+01
 0.1801126909730E+01
 0.1752086892916E+01
 0.1709307621226E+01
 0.1676281363712E+01
 0.1657113979235E+01
 0.1656748348575E+01
 0.1681160280761E+01
 0.1737364277311E+01
 0.1833044021768E+01
 0.1975745041566E+01
 0.2171831076798E+01
 0.2425400921995E+01
 0.2737275743518E+01
 0.3104222046085E+01
 0.3518426189505E+01
 0.3967305931688E+01
 0.4433866457342E+01
 0.4897799545289E+01
 0.5337445456893E+01
 0.5732290502617E+01
 0.1776228071378E+01
 0.1838814137440E+01
 0.1896768996687E+01
 0.1949334932713E+01
 0.1995950295519E+01
 0.2036243547476E+01
 0.2070005100118E+01
 0.2097139079617E+01
 0.2117609932891E+01
 0.2131398118718E+01
 0.2138472726796E+01
 0.2138782881203E+01
 0.2132267030024E+01
 0.2118878816744E+01
 0.2098629760315E+01
 0.2071645395931E+01
 0.2038232691237E+01
 0.1998951693361E+01
 0.1954677384632E+01
 0.1906643565449E+01
 0.1856481259557E+01
 0.1806267436286E+01
 0.1758507819715E+01
 0.1716098019214E+01
 0.1682363524639E+01
 0.1661210963856E+01
 0.1657365208506E+01
 0.1676610796151E+01
 0.1725889584441E+01
 0.1813060270620E+01
 0.1946204195503E+01
 0.2132606964127E+01
 0.2377581000820E+01
 0.2683260926440E+01
 0.3047584404884E+01
 0.3463513275084E+01
 0.3918604623275E+01
 0.4395182150403E+01
 0.4871379915243E+01
 0.5323313561725E+01
 0.5728204674582E+01
 0.1732675665485E+01
 0.1796232618510E+01
 0.1854922037173E+01
 0.1908085469798E+01
 0.1955269133577E+01
 0.1996218033915E+01
 0.2030840259537E+01
 0.2059146943668E+01
 0.2081188164575E+01
 0.2097001978287E+01
 0.2106584395951E+01
 0.2109880589234E+01
 0.2106794927985E+01
 0.2097217844685E+01
 0.2081069842517E+01
 0.2058360642730E+01
 0.2029261563640E+01
 0.1994183952508E+01
 0.1953848751027E+01
 0.1909337725949E+01
 0.1862143494634E+01
 0.1814220540951E+01
 0.1767950730759E+01
 0.1726084834968E+01
 0.1691770193131E+01
 0.1668697548627E+01
 0.1661347836742E+01
 0.1675273227657E+01
 0.1717283610074E+01
 0.1795345083217E+01
 0.1918029206984E+01
 0.2093561567950E+01
 0.2328579314482E+01
 0.2626730717676E+01
 0.2987377650872E+01
 0.3404508679387E+01
 0.3866005236059E+01
 0.4353561621720E+01
 0.4843603834611E+01
 0.5309610320256E+01
 0.5726063037623E+01
 0.1688661193050E+01
 0.1753218384509E+01
 0.1812672567356E+01
 0.1866461951685E+01
 0.1914240572642E+01
 0.1955873850682E+01
 0.1991393868183E+01
 0.2020925212765E+01
 0.2044608709987E+01
 0.2062543569329E+01
 0.2074755206842E+01
 0.2081186776127E+01
 0.2081710096463E+01
 0.2076153174524E+01
 0.2064344874845E+01
 0.2046176433875E+01
 0.2021678533428E+01
 0.1991106830319E+01
 0.1955020005987E+01
 0.1914339240928E+01
 0.1870411355111E+01
 0.1825062629884E+01
 0.1780545259460E+01
 0.1739457275480E+01
 0.1704756658887E+01
 0.1679902100773E+01
 0.1669105414754E+01
 0.1677644879045E+01
 0.1712133640924E+01
 0.1780561765806E+01
 0.1891917539071E+01
 0.2055353186048E+01
 0.2278924156645E+01
 0.2568003482682E+01
 0.2923671448572E+01
 0.3341256289028E+01
 0.3809214478284E+01
 0.4308715198212E+01
 0.4814357174303E+01
 0.5296503462968E+01
 0.5726185304108E+01
 0.1644133358382E+01
 0.1709708529805E+01
 0.1769946677478E+01
 0.1824378820071E+01
 0.1872766521303E+01
 0.1915100372507E+01
 0.1951543933625E+01
 0.1982342425834E+01
 0.2007732653559E+01
 0.2027878296539E+01
 0.2042836444683E+01
 0.2052550258178E+01
 0.2056861037984E+01
 0.2055536015347E+01
 0.2048312838315E+01
 0.2034962570639E+01
 0.2015370990069E+01
 0.1989631472612E+01
 0.1958132412721E+01
 0.1921625996464E+01
 0.1881306027392E+01
 0.1838865094961E+01
 0.1796420119993E+01
 0.1756408564823E+01
 0.1721587889485E+01
 0.1695168993203E+01
 0.1681070479711E+01
 0.1684256074865E+01
 0.1711074360102E+01
 0.1769442192546E+01
 0.1868661396613E+01
 0.2018757456402E+01
 0.2229267510566E+01
 0.2507502491364E+01
 0.2856597502077E+01
 0.3273606810011E+01
 0.3747895206543E+01
 0.4260275456443E+01
 0.4783439392639E+01
 0.5284141554055E+01
 0.5728816371863E+01
 0.1599040183052E+01
 0.1665639210518E+01
 0.1726669220397E+01
 0.1781748569855E+01
 0.1830745875326E+01
 0.1873782857660E+01
 0.1911163480660E+01
 0.1943261544930E+01
 0.1970415014906E+01
 0.1992854898622E+01
 0.2010671851715E+01
 0.2023811098441E+01
 0.2032086013329E+01
 0.2035205722352E+01
 0.2032818346786E+01
 0.2024574309436E+01
 0.2010211125260E+01
 0.1989653807557E+01
 0.1963112681789E+01
 0.1931162731075E+01
 0.1894837780800E+01
 0.1855691569378E+01
 0.1815700428529E+01
 0.1777133473451E+01
 0.1742536394920E+01
 0.1714856845638E+01
 0.1697697411317E+01
 0.1695668624059E+01
 0.1714786344986E+01
 0.1762786774367E+01
 0.1849152701092E+01
 0.1984681421866E+01
 0.2180409030123E+01
 0.2445785009006E+01
 0.2786375318819E+01
 0.3201432299270E+01
 0.3681669828512E+01
 0.4207792063035E+01
 0.4750543449397E+01
 0.5272588742355E+01
 0.5733874447776E+01
 0.1553329170062E+01
 0.1620945989753E+01
 0.1682764072979E+01
 0.1738481851709E+01
 0.1788074416015E+01
 0.1831802212676E+01
 0.1870120339867E+01
 0.1903539877976E+01
 0.1932504826765E+01
 0.1957315624841E+01
 0.1978097799682E+01
 0.1994800652257E+01
 0.2007212835506E+01
 0.2014989230953E+01
 0.2017691649691E+01
 0.2014850913111E+01
 0.2006054061411E+01
 0.1991052307253E+01
 0.1969870423899E+01
 0.1942898236619E+01
 0.1911002979348E+01
 0.1875594839864E+01
 0.1838504641045E+01
 0.1801825438359E+01
 0.1767879694311E+01
 0.1739336441998E+01
 0.1719460720352E+01
 0.1712474133369E+01
 0.1723994101275E+01
 0.1761463132766E+01
 0.1834386095201E+01
 0.1954176621552E+01
 0.2133322447402E+01
 0.2383577854446E+01
 0.2713346313299E+01
 0.3124647904525E+01
 0.3610123610318E+01
 0.4150745293982E+01
 0.4715225399596E+01
 0.5262047869618E+01
 0.5739163714151E+01
 0.1506947672607E+01
 0.1575547759716E+01
 0.1638126943052E+01
 0.1694448787314E+01
 0.1744594971708E+01
 0.1788974628946E+01
 0.1828207302714E+01
 0.1862951175592E+01
 0.1893761016152E+01
 0.1921008211336E+01
 0.1944854171719E+01
 0.1965254655120E+01
 0.1981977907374E+01
 0.1994630148035E+01
 0.2002692113048E+01
 0.2005577895987E+01
 0.2002723004322E+01
 0.1993699645994E+01
 0.1978339062062E+01
 0.1956837193861E+01
 0.1929887351041E+01
 0.1898750868373E+01
 0.1865107345381E+01
 0.1830864516737E+01
 0.1798107676728E+01
 0.1769208928038E+01
 0.1747071848301E+01
 0.1735492522570E+01
 0.1739624088104E+01
 0.1766496892162E+01
 0.1825454631152E+01
 0.1928315539169E+01
 0.2088895087210E+01
 0.2321371820465E+01
 0.2637432696186E+01
 0.3042578012276E+01
 0.3532157731143E+01
 0.4087994247534E+01
 0.4676772762346E+01
 0.5251949597340E+01
 0.5750772965706E+01
 0.1459835409015E+01
 0.1529375898631E+01
 0.1592675614008E+01
 0.1649551849312E+01
 0.1700191570866E+01
 0.1745166309061E+01
 0.1785276006522E+01
 0.1821336289773E+01
 0.1854016254791E+01
 0.1883758168306E+01
 0.1910759245519E+01
 0.1934983893398E+01
 0.1956185062732E+01
 0.1973927584337E+01
 0.1987618652750E+01
 0.1996560920038E+01
 0.2000039232869E+01
 0.1997442666806E+01
 0.1988401348241E+01
 0.1972908877592E+01
 0.1951477870759E+01
 0.1925216269010E+01
 0.1895647343847E+01
 0.1864484280310E+01
 0.1833560663431E+01
 0.1804932706020E+01
 0.1781119120167E+01
 0.1765457015185E+01
 0.1762575374499E+01
 0.1778977589964E+01
 0.1823648102457E+01
 0.1908540258296E+01
 0.2048567022598E+01
 0.2260344463510E+01
 0.2559271299682E+01
 0.2955163000600E+01
 0.3447111825618E+01
 0.4018622058152E+01
 0.4634726858044E+01
 0.5242157497866E+01
 0.5779541435629E+01
 0.1411948379224E+01
 0.1482385188669E+01
 0.1546363338286E+01
 0.1603736519821E+01
 0.1654798299913E+01
 0.1700300625839E+01
 0.1741242879639E+01
 0.1778608086772E+01
 0.1813180773162E+01
 0.1845471251927E+01
 0.1875710475546E+01
 0.1903872855947E+01
 0.1929701540198E+01
 0.1952728792675E+01
 0.1972298327145E+01
 0.1987609669816E+01
 0.1997800716406E+01
 0.2002075399601E+01
 0.1999856631729E+01
 0.1990928681062E+01
 0.1975618480726E+01
 0.1954878273799E+01
 0.1930072327150E+01
 0.1902712209466E+01
 0.1874367156532E+01
 0.1846760842363E+01
 0.1822007744063E+01
 0.1802960159545E+01
 0.1793675707764E+01
 0.1800030984217E+01
 0.1830454841888E+01
 0.1896720393645E+01
 0.2014482712491E+01
 0.2202632097310E+01
 0.2480592017290E+01
 0.2863392649038E+01
 0.3355152234375E+01
 0.3942316313808E+01
 0.4588674151582E+01
 0.5235561582339E+01
 0.5815450288901E+01
 0.1363237273350E+01
 0.1434512654061E+01
 0.1499113963323E+01
 0.1556906243978E+01
 0.1608294135242E+01
 0.1654234797112E+01
 0.1695949791215E+01
 0.1734598761694E+01
 0.1771079749623E+01
 0.1805965319732E+01
 0.1839516260059E+01
 0.1871717834917E+01
 0.1902309635604E+01
 0.1930802139887E+01
 0.1956488624212E+01
 0.1978477283523E+01
 0.1995765848331E+01
 0.2007372974815E+01
 0.2012508941158E+01
 0.2010742012056E+01
 0.2002209130589E+01
 0.1987705672169E+01
 0.1968435397918E+01
 0.1945701761514E+01
 0.1920796834901E+01
 0.1895094758868E+01
 0.1870287069384E+01
 0.1848718975471E+01
 0.1833838449232E+01
 0.1830810521303E+01
 0.1847324203469E+01
 0.1894633749343E+01
 0.1988671345912E+01
 0.2150234930822E+01
 0.2402906618629E+01
 0.2767860331942E+01
 0.3255852644116E+01
 0.3857990526560E+01
 0.4538051679566E+01
 0.5231697684058E+01
 0.5858813444890E+01
 0.1313655200840E+01
 0.1385698561717E+01
 0.1450853020982E+01
 0.1508962374270E+01
 0.1560551765567E+01
 0.1606817806664E+01
 0.1649230961296E+01
 0.1689134653573E+01
 0.1727534149215E+01
 0.1765054723100E+01
 0.1801980951427E+01
 0.1838309187225E+01
 0.1873782453630E+01
 0.1907902296210E+01
 0.1939927962045E+01
 0.1968892288359E+01
 0.1993663543219E+01
 0.2013077470500E+01
 0.2026127157060E+01
 0.2032158425406E+01
 0.2031114532230E+01
 0.2023634030410E+01
 0.2010759984629E+01
 0.1993581914857E+01
 0.1973101876183E+01
 0.1950327347800E+01
 0.1926509086206E+01
 0.1903466514635E+01
 0.1884008664055E+01
 0.1872521529919E+01
 0.1875792409902E+01
 0.1904218784422E+01
 0.1973458387879E+01
 0.2105616842798E+01
 0.2328273391344E+01
 0.2669588932318E+01
 0.3148892297556E+01
 0.3764366979322E+01
 0.4481582146899E+01
 0.5229472278564E+01
 0.5910768377744E+01
 0.1263159404597E+01
 0.1335887827839E+01
 0.1401508847632E+01
 0.1459803378468E+01
 0.1511435608628E+01
 0.1557888580168E+01
 0.1600912120217E+01
 0.1642036437609E+01
 0.1682361628142E+01
 0.1722551600504E+01
 0.1762906309214E+01
 0.1803432762689E+01
 0.1843885087245E+01
 0.1883770854332E+01
 0.1922335382410E+01
 0.1958557082936E+01
 0.1991190455929E+01
 0.2018894079943E+01
 0.2040440463200E+01
 0.2054946645623E+01
 0.2062158932863E+01
 0.2062560272518E+01
 0.2057034165271E+01
 0.2046451068984E+01
 0.2031510262725E+01
 0.2012835677163E+01
 0.1991220874171E+01
 0.1967944839996E+01
 0.1945157485004E+01
 0.1926416418133E+01
 0.1917474748238E+01
 0.1927560354605E+01
 0.1971459588578E+01
 0.2071755199813E+01
 0.2259442918151E+01
 0.2570223831998E+01
 0.3034197741430E+01
 0.3659884881312E+01
 0.4417221146982E+01
 0.5227801327722E+01
 0.5972801630710E+01
 0.1211713568835E+01
 0.1285032409464E+01
 0.1351013704279E+01
 0.1409323334801E+01
 0.1460798824126E+01
 0.1507273567432E+01
 0.1550809587461E+01
 0.1593119525172E+01
 0.1635377733631E+01
 0.1678267476229E+01
 0.1722093274502E+01
 0.1766871700511E+01
 0.1812376229244E+01
 0.1858137411198E+01
 0.1903410635473E+01
 0.1947146599655E+01
 0.1988008079284E+01
 0.2024486886081E+01
 0.2055133262122E+01
 0.2078829062152E+01
 0.2095120473390E+01
 0.2104336991356E+01
 0.2107204799201E+01
 0.2104370668558E+01
 0.2096218508292E+01
 0.2082972572600E+01
 0.2064955160048E+01
 0.2042895293141E+01
 0.2018273449494E+01
 0.1993787915693E+01
 0.1974057923609E+01
 0.1966873777343E+01
 0.1985560809663E+01
 0.2052167907329E+01
 0.2200012799235E+01
 0.2472302805418E+01
 0.2912163821249E+01
 0.3542712346507E+01
 0.4342246535333E+01
 0.5225422154453E+01
 0.6046732901517E+01
 0.1159291210782E+01
 0.1233094826961E+01
 0.1299304930873E+01
 0.1357409132630E+01
 0.1408478898603E+01
 0.1454783638970E+01
 0.1498729377821E+01
 0.1542194794603E+01
 0.1586397470325E+01
 0.1632015195502E+01
 0.1679344082693E+01
 0.1728408623016E+01
 0.1779010281237E+01
 0.1830721229323E+01
 0.1882834807309E+01
 0.1934307274815E+01
 0.1983739755065E+01
 0.2029474161657E+01
 0.2069839402287E+01
 0.2103475550552E+01
 0.2129725066797E+01
 0.2148766542370E+01
 0.2161171622599E+01
 0.2167358758540E+01
 0.2167384008127E+01
 0.2161057220774E+01
 0.2148218960245E+01
 0.2129045583780E+01
 0.2104349477876E+01
 0.2075958081504E+01
 0.2047290851485E+01
 0.2024489314783E+01
 0.2018887410016E+01
 0.2050906940144E+01
 0.2154570029248E+01
 0.2379608155114E+01
 0.2784021641097E+01
 0.3410903543034E+01
 0.4253153813372E+01
 0.5220625672666E+01
 0.6134777927416E+01
 0.1105880845797E+01
 0.1180053306643E+01
 0.1246325851389E+01
 0.1303935498912E+01
 0.1354291222358E+01
 0.1400210284142E+01
 0.1444466547254E+01
 0.1489069822027E+01
 0.1535237309314E+01
 0.1583611217687E+01
 0.1634464718699E+01
 0.1687828241709E+01
 0.1743540019146E+01
 0.1801233610604E+01
 0.1860271690056E+01
 0.1919656518493E+01
 0.1977967671993E+01
 0.2033423095442E+01
 0.2084135494339E+01
 0.2128496392693E+01
 0.2165639683267E+01
 0.2195594980149E+01
 0.2218781516698E+01
 0.2235383748765E+01
 0.2245117291892E+01
 0.2247365051157E+01
 0.2241480494519E+01
 0.2227093567520E+01
 0.2204364424080E+01
 0.2174260320225E+01
 0.2138969977453E+01
 0.2102836348902E+01
 0.2074769572476E+01
 0.2072514925695E+01
 0.2128785110523E+01
 0.2297591449757E+01
 0.2652433888930E+01
 0.3262707471259E+01
 0.4145455594049E+01
 0.5210895672446E+01
 0.6239686644498E+01
 0.1051494077011E+01
 0.1125909319055E+01
 0.1192025728638E+01
 0.1248756388308E+01
 0.1298019961510E+01
 0.1343321286821E+01
 0.1387805154340E+01
 0.1433550834253E+01
 0.1481717719805E+01
 0.1532878284444E+01
 0.1587267711513E+01
 0.1644920380904E+01
 0.1705719868477E+01
 0.1769381135047E+01
 0.1835370161973E+01
 0.1902782978960E+01
 0.1970230000506E+01
 0.2035843832427E+01
 0.2097532992260E+01
 0.2153433937468E+01
 0.2202464839976E+01
 0.2244505888349E+01
 0.2279823205936E+01
 0.2308358720182E+01
 0.2329474488092E+01
 0.2342117191193E+01
 0.2345154710680E+01
 0.2337687968253E+01
 0.2319258718092E+01
 0.2290011844986E+01
 0.2250913390007E+01
 0.2204421408891E+01
 0.2156707894889E+01
 0.2121953230112E+01
 0.2129417362560E+01
 0.2233820347072E+01
 0.2522394273229E+01
 0.3097172945419E+01
 0.4013453282107E+01
 0.5192384801749E+01
 0.6364965536030E+01
 0.9961786348587E+00
 0.1070698640879E+01
 0.1136357180388E+01
 0.1191690320161E+01
 0.1239405488556E+01
 0.1283856402787E+01
 0.1328519381719E+01
 0.1375445587853E+01
 0.1425666237173E+01
 0.1479648411951E+01
 0.1537575194279E+01
 0.1599483346350E+01
 0.1665309763027E+01
 0.1734869865055E+01
 0.1807767868909E+01
 0.1883248003968E+01
 0.1960018421589E+01
 0.2036182714381E+01
 0.2109468587720E+01
 0.2177752486380E+01
 0.2239726035139E+01
 0.2295114257006E+01
 0.2344022871393E+01
 0.2386136871232E+01
 0.2420450554714E+01
 0.2445470043885E+01
 0.2459588164905E+01
 0.2461407079173E+01
 0.2449904928700E+01
 0.2424475569828E+01
 0.2384918057681E+01
 0.2331789064284E+01
 0.2268334378642E+01
 0.2204518962563E+01
 0.2164209913252E+01
 0.2198327344269E+01
 0.2402493019903E+01
 0.2915329549814E+01
 0.3850100873006E+01
 0.5159095218844E+01
 0.6515213988678E+01
 0.9400400630847E+00
 0.1014507497234E+01
 0.1079267618805E+01
 0.1132495841039E+01
 0.1178128012902E+01
 0.1221524301625E+01
 0.1266376631751E+01
 0.1314567411687E+01
 0.1366921114787E+01
 0.1423766210893E+01
 0.1485222213649E+01
 0.1551327615107E+01
 0.1622079592045E+01
 0.1697410655272E+01
 0.1777096621651E+01
 0.1860588949205E+01
 0.1946776563129E+01
 0.2033814661850E+01
 0.2119292242439E+01
 0.2200825526230E+01
 0.2276863580674E+01
 0.2346960448778E+01
 0.2411041144271E+01
 0.2468508624905E+01
 0.2517973593987E+01
 0.2557505148917E+01
 0.2585043636321E+01
 0.2598736465451E+01
 0.2597074801220E+01
 0.2578812054355E+01
 0.2542696018351E+01
 0.2487451313525E+01
 0.2413348474925E+01
 0.2325759141758E+01
 0.2241696960381E+01
 0.2203686116655E+01
 0.2306481826105E+01
 0.2722429737253E+01
 0.3647261660337E+01
 0.5101555843144E+01
 0.6696622765899E+01
 0.8832791068284E+00
 0.9574955920430E+00
 0.1020677272544E+01
 0.1070831296740E+01
 0.1113788304257E+01
 0.1156003125959E+01
 0.1201143476634E+01
 0.1250740498276E+01
 0.1305335528072E+01
 0.1365092477662E+01
 0.1430060210914E+01
 0.1500279750724E+01
 0.1575814136809E+01
 0.1656725588674E+01
 0.1742989912025E+01
 0.1834325219651E+01
 0.1929900224900E+01
 0.2028034775770E+01
 0.2126251898906E+01
 0.2221918953377E+01
 0.2313220018278E+01
 0.2399504402048E+01
 0.2480472272387E+01
 0.2555201231890E+01
 0.2621900727355E+01
 0.2678219459374E+01
 0.2721684807492E+01
 0.2750047061658E+01
 0.2761405671088E+01
 0.2754025025076E+01
 0.2725789850048E+01
 0.2673773608546E+01
 0.2595395281054E+01
 0.2491355218413E+01
 0.2370978995471E+01
 0.2264692413431E+01
 0.2254723070124E+01
 0.2531975228558E+01
 0.3397142888442E+01
 0.5004700157561E+01
 0.6917686791344E+01
 0.8262588697168E+00
 0.8999269618057E+00
 0.9604277079500E+00
 0.1006191033979E+01
 0.1045889760869E+01
 0.1086948403634E+01
 0.1132594991529E+01
 0.1183806286476E+01
 0.1240782222746E+01
 0.1303507922521E+01
 0.1371960528039E+01
 0.1446186372556E+01
 0.1526318276774E+01
 0.1612555368399E+01
 0.1705092840814E+01
 0.1803968219910E+01
 0.1908740925712E+01
 0.2018049617147E+01
 0.2129473541471E+01
 0.2240168173589E+01
 0.2348023911432E+01
 0.2452120475475E+01
 0.2551846831991E+01
 0.2645882233428E+01
 0.2732016321547E+01
 0.2807516179778E+01
 0.2869561158407E+01
 0.2915575236766E+01
 0.2943370476229E+01
 0.2950907222033E+01
 0.2935474057645E+01
 0.2892814471512E+01
 0.2817852793731E+01
 0.2706906304846E+01
 0.2561470678048E+01
 0.2397738015296E+01
 0.2274624162402E+01
 0.2372128129700E+01
 0.3096920652930E+01
 0.4844657663003E+01
 0.7190131855311E+01
 0.7696314725423E+00
 0.8422041599397E+00
 0.8981660975207E+00
 0.9378108014950E+00
 0.9738337673679E+00
 0.1014012819708E+01
 0.1060526951394E+01
 0.1113630717860E+01
 0.1173158530509E+01
 0.1238916910419E+01
 0.1310817836332E+01
 0.1388918044884E+01
 0.1473422232610E+01
 0.1564667316470E+01
 0.1663074500693E+01
 0.1769036680615E+01
 0.1882615405351E+01
 0.2002969456636E+01
 0.2127934680726E+01
 0.2254545468721E+01
 0.2380367921852E+01
 0.2504093519756E+01
 0.2624639876193E+01
 0.2740168402265E+01
 0.2848033264820E+01
 0.2945195732300E+01
 0.3028592045797E+01
 0.3095405334242E+01
 0.3143255914055E+01
 0.3169995698297E+01
 0.3172654865100E+01
 0.3146128781557E+01
 0.3083511296539E+01
 0.2977522933351E+01
 0.2822479787553E+01
 0.2620092968770E+01
 0.2399295325506E+01
 0.2293226950626E+01
 0.2761513366660E+01
 0.4584810608107E+01
 0.7529786076486E+01
 0.7145915685148E+00
 0.7848783285896E+00
 0.8330903703987E+00
 0.8645489330421E+00
 0.8969544037315E+00
 0.9368789537986E+00
 0.9847687354237E+00
 0.1040112424243E+01
 0.1102391459057E+01
 0.1171250999590E+01
 0.1246553318449E+01
 0.1328372868921E+01
 0.1416986525089E+01
 0.1512863322579E+01
 0.1616642152024E+01
 0.1729078711797E+01
 0.1850825412252E+01
 0.1981804684538E+01
 0.2120428605842E+01
 0.2263811453151E+01
 0.2409177857774E+01
 0.2554617611758E+01
 0.2698287691660E+01
 0.2837642542893E+01
 0.2969598486513E+01
 0.3090946547482E+01
 0.3198547980153E+01
 0.3289453888836E+01
 0.3361153929113E+01
 0.3411549224771E+01
 0.3437785961693E+01
 0.3434559781113E+01
 0.3394160452526E+01
 0.3307174080020E+01
 0.3162388239256E+01
 0.2948884942288E+01
 0.2665124470242E+01
 0.2370240712886E+01
 0.2454727139330E+01
 0.4175020359734E+01
 0.7956263240675E+01
 0.6634238480903E+00
 0.7285157714844E+00
 0.7634006789003E+00
 0.7848132047659E+00
 0.8146324335741E+00
 0.8552918028624E+00
 0.9051963497486E+00
 0.9631922299818E+00
 0.1028442238424E+01
 0.1100472300502E+01
 0.1179117508543E+01
 0.1264479680015E+01
 0.1356906472085E+01
 0.1456987124080E+01
 0.1565555572986E+01
 0.1683700893426E+01
 0.1812694670677E+01
 0.1953474035029E+01
 0.2105515995787E+01
 0.2266439353969E+01
 0.2433167218005E+01
 0.2602800494596E+01
 0.2772217913231E+01
 0.2937880716808E+01
 0.3096303686172E+01
 0.3244335145384E+01
 0.3379024771874E+01
 0.3497450260344E+01
 0.3596970157062E+01
 0.3675563575195E+01
 0.3730820727263E+01
 0.3758046542470E+01
 0.3750150143621E+01
 0.3697783223834E+01
 0.3587312477144E+01
 0.3399021490615E+01
 0.3108764935717E+01
 0.2694953108872E+01
 0.2343166085323E+01
 0.3574979091320E+01
 0.8487637492079E+01
 0.6208140330008E+00
 0.6729074604998E+00
 0.6852042807985E+00
 0.6968211117054E+00
 0.7264783205857E+00
 0.7690594939797E+00
 0.8217565249355E+00
 0.8828598705946E+00
 0.9513107120832E+00
 0.1026576384541E+01
 0.1108492660740E+01
 0.1197200694942E+01
 0.1293115938039E+01
 0.1396930532600E+01
 0.1509638944550E+01
 0.1632600794549E+01
 0.1767632099339E+01
 0.1916842671330E+01
 0.2081460327968E+01
 0.2260489984132E+01
 0.2450768768968E+01
 0.2647681089596E+01
 0.2845900587883E+01
 0.3040492944147E+01
 0.3227702250601E+01
 0.3404796636014E+01
 0.3569405887986E+01
 0.3718900712316E+01
 0.3850451174099E+01
 0.3961848520146E+01
 0.4051228746331E+01
 0.4115462848475E+01
 0.4150009166976E+01
 0.4148277075889E+01
 0.4099004269216E+01
 0.3980396725369E+01
 0.3758958069140E+01
 0.3368147660788E+01
 0.2708834610682E+01
 0.2904282328036E+01
 0.9123506609928E+01
 0.5974972918698E+00
 0.6131377325949E+00
 0.5911241274235E+00
 0.5999355931736E+00
 0.6322150429428E+00
 0.6781082981115E+00
 0.7344850302079E+00
 0.7991576402801E+00
 0.8710398455267E+00
 0.9495939872513E+00
 0.1034694512559E+01
 0.1126533268570E+01
 0.1225589825683E+01
 0.1332638135013E+01
 0.1448788991213E+01
 0.1575590887223E+01
 0.1715225334945E+01
 0.1870834136916E+01
 0.2046147239356E+01
 0.2243387968473E+01
 0.2460032607948E+01
 0.2688277391016E+01
 0.2918930934536E+01
 0.3145181138905E+01
 0.3363332542317E+01
 0.3571629427370E+01
 0.3768814717798E+01
 0.3953008829796E+01
 0.4121219015597E+01
 0.4270225176323E+01
 0.4398092878216E+01
 0.4504531165062E+01
 0.4590071122065E+01
 0.4654153344103E+01
 0.4692000512938E+01
 0.4693996329160E+01
 0.4626693549437E+01
 0.4463546974869E+01
 0.3910634373354E+01
 0.3012142686949E+01
 0.9819096188568E+01
 0.6230802587662E+00
 0.5175047359227E+00
 0.4775040434699E+00
 0.4946935527655E+00
 0.5315186224342E+00
 0.5826275033378E+00
 0.6434794400757E+00
 0.7121960019462E+00
 0.7877150340421E+00
 0.8695930352062E+00
 0.9577730984520E+00
 0.1052510989820E+01
 0.1154345331869E+01
 0.1264109736351E+01
 0.1382981217293E+01
 0.1512604501763E+01
 0.1655320300926E+01
 0.1814730025308E+01
 0.1997016999573E+01
 0.2211461445652E+01
 0.2458500609734E+01
 0.2723696743180E+01
 0.2991155530049E+01
 0.3251817370597E+01
 0.3502744424348E+01
 0.3743992344815E+01
 0.3976077071186E+01
 0.4198510107227E+01
 0.4408724260622E+01
 0.4600989564052E+01
 0.4770349674796E+01
 0.4921597562854E+01
 0.5064600477114E+01
 0.5206463479753E+01
 0.5354927981176E+01
 0.5517576408085E+01
 0.5716354179215E+01
 0.5922284360371E+01
 0.6361951405151E+01
 0.5674255487426E+01
 0.1140963280030E+02
 0.9424633342665E+00
 0.1099842130476E+01
 0.1263649764002E+01
 0.1418562080148E+01
 0.1556855877212E+01
 0.1674820984815E+01
 0.1771006219245E+01
 0.1845185927948E+01
 0.1897745829233E+01
 0.1929415318780E+01
 0.1941249941182E+01
 0.1933711552546E+01
 0.1907856635411E+01
 0.1865983537769E+01
 0.1809265489958E+01
 0.1737476862179E+01
 0.1649701843949E+01
 0.1545016714650E+01
 0.1423368533763E+01
 0.1278389770485E+01
 0.9150919439428E+00
 0.1087744753751E+01
 0.1263602736271E+01
 0.1429576895117E+01
 0.1578146540231E+01
 0.1705724832627E+01
 0.1810960787265E+01
 0.1893688938098E+01
 0.1954320794238E+01
 0.1993621766042E+01
 0.2012591277887E+01
 0.2011730171903E+01
 0.1992164033466E+01
 0.1955867201257E+01
 0.1903770353734E+01
 0.1835791591288E+01
 0.1750951790665E+01
 0.1648026934690E+01
 0.1521671317596E+01
 0.1368184553029E+01
 0.8879407450911E+00
 0.1077436503721E+01
 0.1266107216599E+01
 0.1443104191386E+01
 0.1601735850955E+01
 0.1738678289770E+01
 0.1852723658780E+01
 0.1943795550987E+01
 0.2012374169878E+01
 0.2059254564573E+01
 0.2085394401763E+01
 0.2091441367488E+01
 0.2078506879459E+01
 0.2048246841385E+01
 0.2001447822349E+01
 0.1937881310952E+01
 0.1856335851040E+01
 0.1754228698430E+01
 0.1627050225293E+01
 0.1478262953404E+01
 0.8614586747077E+00
 0.1068517378515E+01
 0.1270655588757E+01
 0.1458808868188E+01
 0.1627346376781E+01
 0.1773417554483E+01
 0.1896037283706E+01
 0.1995262841614E+01
 0.2071666359253E+01
 0.2126090534657E+01
 0.2159505992796E+01
 0.2172680708684E+01
 0.2166700536866E+01
 0.2142955436031E+01
 0.2102036353958E+01
 0.2043517433077E+01
 0.1965814681391E+01
 0.1866327290387E+01
 0.1742739658356E+01
 0.1599153566345E+01
 0.8357748770609E+00
 0.1060917532663E+01
 0.1276910633710E+01
 0.1476343099205E+01
 0.1654671702867E+01
 0.1809654835413E+01
 0.1940624505272E+01
 0.2047820979702E+01
 0.2131936867459E+01
 0.2193890169282E+01
 0.2234693635043E+01
 0.2255214998739E+01
 0.2256509103046E+01
 0.2239736335462E+01
 0.2205294962619E+01
 0.2152570114288E+01
 0.2079923962441E+01
 0.1985243018895E+01
 0.1867187614737E+01
 0.1729213903867E+01
 0.8109761238498E+00
 0.1054547380404E+01
 0.1284627845277E+01
 0.1495387203560E+01
 0.1683392324988E+01
 0.1847083870678E+01
 0.1986187995297E+01
 0.2101179067920E+01
 0.2192902172203E+01
 0.2262375451781E+01
 0.2310675062768E+01
 0.2338753363059E+01
 0.2347634406997E+01
 0.2338292000893E+01
 0.2310965776985E+01
 0.2264958482539E+01
 0.2198754319875E+01
 0.2110592895694E+01
 0.1999504650158E+01
 0.1867868783244E+01
 0.7871335165636E+00
 0.1049317991139E+01
 0.1293586314783E+01
 0.1515646182217E+01
 0.1713188626597E+01
 0.1885385643418E+01
 0.2032413557723E+01
 0.2155026261253E+01
 0.2254252337933E+01
 0.2331232692038E+01
 0.2387123612188E+01
 0.2422954026853E+01
 0.2439726052753E+01
 0.2438274901502E+01
 0.2418740384551E+01
 0.2380424680220E+01
 0.2321952279091E+01
 0.2241771846172E+01
 0.2138935213082E+01
 0.2014723216453E+01
 0.7643139925754E+00
 0.1045139406998E+01
 0.1303577174673E+01
 0.1536837497283E+01
 0.1743744413091E+01
 0.1924233887952E+01
 0.2078973437512E+01
 0.2209033114685E+01
 0.2315652525050E+01
 0.2400115523223E+01
 0.2463673161930E+01
 0.2507429922609E+01
 0.2532381764810E+01
 0.2539275189797E+01
 0.2528203761129E+01
 0.2498508553840E+01
 0.2448935707336E+01
 0.2378034590772E+01
 0.2284717944233E+01
 0.2169265616224E+01
 0.7425833824851E+00
 0.1041922324105E+01
 0.1314398197891E+01
 0.1558686701746E+01
 0.1774746673215E+01
 0.1963298463694E+01
 0.2125529511004E+01
 0.2262854119192E+01
 0.2376745689592E+01
 0.2468648658283E+01
 0.2539922472228E+01
 0.2591751672946E+01
 0.2625145821165E+01
 0.2640807330020E+01
 0.2638823150489E+01
 0.2618591835667E+01
 0.2578957721849E+01
 0.2518510699296E+01
 0.2435969629517E+01
 0.2330756624612E+01
 0.7220071394876E+00
 0.1039578711339E+01
 0.1325852177041E+01
 0.1580925486984E+01
 0.1805885808194E+01
 0.2002247533150E+01
 0.2171736315383E+01
 0.2316130810149E+01
 0.2437156015294E+01
 0.2536431877066E+01
 0.2615438999155E+01
 0.2675449960931E+01
 0.2717508196955E+01
 0.2742308607488E+01
 0.2749960004299E+01
 0.2739927376344E+01
 0.2711136727428E+01
 0.2662191160789E+01
 0.2591616690405E+01
 0.2498128560680E+01
 0.7026500216089E+00
 0.1038022235567E+01
 0.1337746531640E+01
 0.1603291303364E+01
 0.1836856321897E+01
 0.2040749611052E+01
 0.2217243991422E+01
 0.2368495222784E+01
 0.2496492794830E+01
 0.2603044249643E+01
 0.2689762890081E+01
 0.2758018730893E+01
 0.2808907716975E+01
 0.2843146167931E+01
 0.2860885253584E+01
 0.2861661442464E+01
 0.2844472300510E+01
 0.2807924373709E+01
 0.2750371707998E+01
 0.2669965171484E+01
 0.6845753875384E+00
 0.1037168591286E+01
 0.1349893596112E+01
 0.1625527832057E+01
 0.1867358027277E+01
 0.2078475734642E+01
 0.2261701300116E+01
 0.2419573539277E+01
 0.2554354575992E+01
 0.2668048629292E+01
 0.2762411526629E+01
 0.2838920000661E+01
 0.2898738584472E+01
 0.2942627467078E+01
 0.2970795037512E+01
 0.2982852053804E+01
 0.2977860706131E+01
 0.2954426889603E+01
 0.2910755957693E+01
 0.2844556406264E+01
 0.6678443555940E+00
 0.1036935838057E+01
 0.1362111289665E+01
 0.1647385990363E+01
 0.1897097651970E+01
 0.2115101849984E+01
 0.2304758785239E+01
 0.2468989932434E+01
 0.2610333592770E+01
 0.2730996593546E+01
 0.2832884972957E+01
 0.2917590376606E+01
 0.2986359162529E+01
 0.3040012519901E+01
 0.3078826599616E+01
 0.3102487196687E+01
 0.3110114299386E+01
 0.3100308229807E+01
 0.3071142022367E+01
 0.3019972788830E+01
 0.6525149627688E+00
 0.1037244786343E+01
 0.1374224035585E+01
 0.1668625272886E+01
 0.1925790722222E+01
 0.2150311366249E+01
 0.2346072040572E+01
 0.2516370524766E+01
 0.2664020393470E+01
 0.2791433772356E+01
 0.2900672181531E+01
 0.2993448725445E+01
 0.3071102002537E+01
 0.3134526943758E+01
 0.3184074461769E+01
 0.3219503949662E+01
 0.3239984840940E+01
 0.3244103291863E+01
 0.3229805217453E+01
 0.3194152995828E+01
 0.6386413909417E+00
 0.1038019444728E+01
 0.1386063860024E+01
 0.1689015329856E+01
 0.1953163660213E+01
 0.2183797864217E+01
 0.2385305093127E+01
 0.2561347480145E+01
 0.2715008688229E+01
 0.2848905569881E+01
 0.2965257844172E+01
 0.3065904681464E+01
 0.3152284662313E+01
 0.3225375554152E+01
 0.3285607073179E+01
 0.3332808724271E+01
 0.3366189168834E+01
 0.3384307821093E+01
 0.3384977935109E+01
 0.3364992990820E+01
 0.6262733120510E+00
 0.1039187530545E+01
 0.1397471614994E+01
 0.1708337697335E+01
 0.1978956017589E+01
 0.2215267904671E+01
 0.2422133864389E+01
 0.2603563193363E+01
 0.2762900370150E+01
 0.2902963189768E+01
 0.3026129700826E+01
 0.3134367691327E+01
 0.3229221001445E+01
 0.3311756317331E+01
 0.3382483826679E+01
 0.3441298101290E+01
 0.3487435550788E+01
 0.3519413687975E+01
 0.3534900136648E+01
 0.3530422102617E+01
 0.6154553556733E+00
 0.1040681029092E+01
 0.1408298277629E+01
 0.1726387616011E+01
 0.2002922784320E+01
 0.2244443886670E+01
 0.2456249666113E+01
 0.2642674528181E+01
 0.2807310635301E+01
 0.2953169837070E+01
 0.3082786101103E+01
 0.3198256325002E+01
 0.3301232667555E+01
 0.3392874384657E+01
 0.3473772061104E+01
 0.3543879479102E+01
 0.3602449213201E+01
 0.3647941346024E+01
 0.3677861736068E+01
 0.3688459770743E+01
 0.6062267261949E+00
 0.1042436791699E+01
 0.1418406289208E+01
 0.1742975883575E+01
 0.2024836712418E+01
 0.2271066895647E+01
 0.2487362668200E+01
 0.2678357028563E+01
 0.2847873097898E+01
 0.2999106947508E+01
 0.3134743613182E+01
 0.3257007602663E+01
 0.3367660500014E+01
 0.3467955895117E+01
 0.3558563604552E+01
 0.3639490808892E+01
 0.3709995902071E+01
 0.3768467974087E+01
 0.3812235978455E+01
 0.3837254641754E+01
 0.5986209618454E+00
 0.1044397152146E+01
 0.1427670886803E+01
 0.1757930679325E+01
 0.2044490587986E+01
 0.2294899474018E+01
 0.2515205268403E+01
 0.2710309022140E+01
 0.2884244798277E+01
 0.3040380310703E+01
 0.3181544512060E+01
 0.3310086142652E+01
 0.3427875636048E+01
 0.3536261291911E+01
 0.3635990517860E+01
 0.3727118940633E+01
 0.3808902893729E+01
 0.3879650933728E+01
 0.3936504656220E+01
 0.3975109713137E+01
 0.5926658173708E+00
 0.1046510545281E+01
 0.1435981397376E+01
 0.1771099323205E+01
 0.2061699410261E+01
 0.2315728269645E+01
 0.2539535312089E+01
 0.2738255549840E+01
 0.2916111014811E+01
 0.3076625969061E+01
 0.3222763996402E+01
 0.3356992950291E+01
 0.3481290110555E+01
 0.3597097905495E+01
 0.3705239737417E+01
 0.3805816247320E+01
 0.3898077228746E+01
 0.3980246701411E+01
 0.4049276089288E+01
 0.4100496068149E+01
 0.5883832476425E+00
 0.1048732110250E+01
 0.1443242459039E+01
 0.1782349923086E+01
 0.2076302424387E+01
 0.2333366502251E+01
 0.2560139092632E+01
 0.2761952037543E+01
 0.2943189775349E+01
 0.3107515763418E+01
 0.3258016979301E+01
 0.3397273669662E+01
 0.3527366752404E+01
 0.3649831589530E+01
 0.3765566402953E+01
 0.3874715366664E+01
 0.3976521229437E+01
 0.4069125861323E+01
 0.4149297055693E+01
 0.4212057782289E+01
 0.5857894618151E+00
 0.1051024262216E+01
 0.1449375139096E+01
 0.1791572871394E+01
 0.2088164962739E+01
 0.2347656195674E+01
 0.2576834070594E+01
 0.2781187634060E+01
 0.2965235974472E+01
 0.3132762411023E+01
 0.3286964317259E+01
 0.3430526144925E+01
 0.3565628213959E+01
 0.3693897252012E+01
 0.3816305749609E+01
 0.3933042046365E+01
 0.4043345495254E+01
 0.4145284930005E+01
 0.4235460826702E+01
 0.4308611483266E+01
 0.5848950167845E+00
 0.1053357218220E+01
 0.1454317921893E+01
 0.1798682156254E+01
 0.2097180053447E+01
 0.2358470127120E+01
 0.2589471252777E+01
 0.2795788143227E+01
 0.2982045008072E+01
 0.3152124009278E+01
 0.3309318353173E+01
 0.3456407153977E+01
 0.3595664995336E+01
 0.3728808164782E+01
 0.3856883513331E+01
 0.3980126168128E+01
 0.4097779682750E+01
 0.4207855530301E+01
 0.4306813262729E+01
 0.4389144648534E+01
 0.5857049217842E+00
 0.1055709464823E+01
 0.1458027543113E+01
 0.1803616456564E+01
 0.2103269759063E+01
 0.2365713448578E+01
 0.2597937176221E+01
 0.2805618482559E+01
 0.2993455842949E+01
 0.3165407867157E+01
 0.3324847660609E+01
 0.3474638192245E+01
 0.3617142344801E+01
 0.3754163963773E+01
 0.3886824838136E+01
 0.4015411088491E+01
 0.4139181394115E+01
 0.4256111452201E+01
 0.4362555888746E+01
 0.4452812342231E+01
 0.5882187330751E+00
 0.1058068157968E+01
 0.1460479652642E+01
 0.1806339997704E+01
 0.2106386216522E+01
 0.2369324944264E+01
 0.2602155451574E+01
 0.2810584611475E+01
 0.2999353451740E+01
 0.3172473581631E+01
 0.3333380895133E+01
 0.3485010205318E+01
 0.3629805939107E+01
 0.3769657274801E+01
 0.3905761698061E+01
 0.4038461448341E+01
 0.4167043561569E+01
 0.4289474146324E+01
 0.4402046901178E+01
 0.4498930419080E+01
 0.5924306296896E+00
 0.1060429448490E+01
 0.1461669293706E+01
 0.1806843151407E+01
 0.2106512356954E+01
 0.2369277895580E+01
 0.2602087828062E+01
 0.2810634880792E+01
 0.2999670553858E+01
 0.3173235289095E+01
 0.3334809673518E+01
 0.3487387184643E+01
 0.3633486259400E+01
 0.3775078903356E+01
 0.3913438834852E+01
 0.4048969582804E+01
 0.4181000671411E+01
 0.4307517477439E+01
 0.4424802446009E+01
 0.4526970767153E+01
 0.5983294730712E+00
 0.1062798729594E+01
 0.1461611191523E+01
 0.1805142770841E+01
 0.2103662292386E+01
 0.2365580533655E+01
 0.2597734750972E+01
 0.2805760764411E+01
 0.2994388613799E+01
 0.3167663034849E+01
 0.3329090417018E+01
 0.3481708555222E+01
 0.3628101586147E+01
 0.3770321518039E+01
 0.3909718178722E+01
 0.4046760599196E+01
 0.4180834111238E+01
 0.4309972444188E+01
 0.4430499235139E+01
 0.4536560203254E+01
 0.6058988667805E+00
 0.1065190804872E+01
 0.1460339849123E+01
 0.1801282258555E+01
 0.2097881363778E+01
 0.2358276067069E+01
 0.2589135389989E+01
 0.2795996942212E+01
 0.2983538058321E+01
 0.3155783217179E+01
 0.3316245112376E+01
 0.3467990302792E+01
 0.3613659548469E+01
 0.3755381750142E+01
 0.3894581675629E+01
 0.4031796102052E+01
 0.4166476801278E+01
 0.4296732298479E+01
 0.4418979142796E+01
 0.4527483635009E+01
 0.6151172494374E+00
 0.1067629980134E+01
 0.1457909460698E+01
 0.1795331380227E+01
 0.2089245860934E+01
 0.2347442287021E+01
 0.2576367129262E+01
 0.2781420713835E+01
 0.2967197683787E+01
 0.3137678073418E+01
 0.3296360957638E+01
 0.3446324801066E+01
 0.3590257167872E+01
 0.3730360614160E+01
 0.3868132377939E+01
 0.4004176393373E+01
 0.4138017004093E+01
 0.4267858200343E+01
 0.4390256147822E+01
 0.4499691784191E+01
 0.6259580291369E+00
 0.1070150074240E+01
 0.1454393647966E+01
 0.1787385840361E+01
 0.2077862431380E+01
 0.2333190759907E+01
 0.2559544518283E+01
 0.2762150732300E+01
 0.2945493236406E+01
 0.3113484191630E+01
 0.3269588885352E+01
 0.3416879333809E+01
 0.3558079370181E+01
 0.3695462174671E+01
 0.3830593639300E+01
 0.3964140851460E+01
 0.4095700896439E+01
 0.4223585118560E+01
 0.4344525882205E+01
 0.4453314075365E+01
 0.6383898020453E+00
 0.1072794356081E+01
 0.1449885050141E+01
 0.1777566664411E+01
 0.2063867222180E+01
 0.2315665639757E+01
 0.2538817701828E+01
 0.2738345063143E+01
 0.2918595162369E+01
 0.3083390045797E+01
 0.3236140978866E+01
 0.3379893344015E+01
 0.3517395983046E+01
 0.3650990412903E+01
 0.3782306260415E+01
 0.3912066142957E+01
 0.4039933156666E+01
 0.4164326924354E+01
 0.4282177169057E+01
 0.4388676274236E+01
 0.6523766579316E+00
 0.1075615397113E+01
 0.1444494799378E+01
 0.1766019445952E+01
 0.2047424810641E+01
 0.2295042139012E+01
 0.2514370350833E+01
 0.2710198578329E+01
 0.2886715523541E+01
 0.3047632543789E+01
 0.3196286793866E+01
 0.3335674464879E+01
 0.3468557283326E+01
 0.3597344280327E+01
 0.3723723404919E+01
 0.3848461945408E+01
 0.3971274822034E+01
 0.4090678556812E+01
 0.4203802424640E+01
 0.4306318481641E+01
 0.6678785535088E+00
 0.1078674822735E+01
 0.1438351936456E+01
 0.1752913547080E+01
 0.2028726992432E+01
 0.2271524688611E+01
 0.2486417105000E+01
 0.2677939686044E+01
 0.2850104058923E+01
 0.3006492536556E+01
 0.3150348543705E+01
 0.3284593362507E+01
 0.3411988209137E+01
 0.3535010991268E+01
 0.3655403046125E+01
 0.3773963629981E+01
 0.3890438108617E+01
 0.4003413622723E+01
 0.4110199149823E+01
 0.4207001217684E+01
 0.6848516666846E+00
 0.1082042917468E+01
 0.1431602875963E+01
 0.1738441425619E+01
 0.2007991544099E+01
 0.2245344847212E+01
 0.2455200583708E+01
 0.2641826483615E+01
 0.2809043475305E+01
 0.2960289321451E+01
 0.3098695152276E+01
 0.3227077512198E+01
 0.3348181609340E+01
 0.3464558102743E+01
 0.3577998066097E+01
 0.3689321237840E+01
 0.3798277539609E+01
 0.3903480059095E+01
 0.4002359478694E+01
 0.4091678334161E+01
 0.7032485433368E+00
 0.1085797993534E+01
 0.1424411186145E+01
 0.1722818391588E+01
 0.1985461092929E+01
 0.2216758929593E+01
 0.2420987969980E+01
 0.2602142402990E+01
 0.2763844028560E+01
 0.2909374081177E+01
 0.3041734950202E+01
 0.3163603618999E+01
 0.3277690716907E+01
 0.3386625145964E+01
 0.3492244674931E+01
 0.3595383356980E+01
 0.3695774361792E+01
 0.3791994771463E+01
 0.3881475602192E+01
 0.3961504022556E+01
 0.7230174467580E+00
 0.1090025396699E+01
 0.1416958205041E+01
 0.1706283439963E+01
 0.1961402102014E+01
 0.2186045186853E+01
 0.2384067135468E+01
 0.2559191602181E+01
 0.2714837634194E+01
 0.2854122360569E+01
 0.2979906949715E+01
 0.3094688243364E+01
 0.3201120495276E+01
 0.3301916790576E+01
 0.3398951856788E+01
 0.3493076726284E+01
 0.3584008204596E+01
 0.3670230064586E+01
 0.3748970538242E+01
 0.3817920839167E+01
 0.7440997653102E+00
 0.1094815538125E+01
 0.1409446646948E+01
 0.1689102126165E+01
 0.1936103905976E+01
 0.2153499674514E+01
 0.2344742375527E+01
 0.2513294477921E+01
 0.2662371861332E+01
 0.2794925499230E+01
 0.2913670463410E+01
 0.3020876157597E+01
 0.3119115591982E+01
 0.3211196299018E+01
 0.3299001110289E+01
 0.3383384656001E+01
 0.3464109921036E+01
 0.3539567688074E+01
 0.3606516301631E+01
 0.3662739612678E+01
 0.7664203871091E+00
 0.1100263761347E+01
 0.1402110373403E+01
 0.1671575654333E+01
 0.1909874624631E+01
 0.2119429593194E+01
 0.2303329911857E+01
 0.2464784606632E+01
 0.2606804132935E+01
 0.2732181369196E+01
 0.2843492760594E+01
 0.2942726561816E+01
 0.3032345082490E+01
 0.3115269947127E+01
 0.3193356603068E+01
 0.3267374275935E+01
 0.3337170833217E+01
 0.3401386407605E+01
 0.3456002736550E+01
 0.3498271879425E+01
 0.7898631158109E+00
 0.1106456757886E+01
 0.1395269532280E+01
 0.1654046690349E+01
 0.1883026784516E+01
 0.2084145907182E+01
 0.2260153289062E+01
 0.2414006408447E+01
 0.2548502562795E+01
 0.2666280234357E+01
 0.2769834655191E+01
 0.2860799766936E+01
 0.2941483175647E+01
 0.3014965691038E+01
 0.3083036686196E+01
 0.3146293426255E+01
 0.3204364211173E+01
 0.3256545407991E+01
 0.3299416436701E+01
 0.3327685996691E+01
 0.8140575415783E+00
 0.1113723280686E+01
 0.1389427274949E+01
 0.1636861789667E+01
 0.1855854149492E+01
 0.2047957484613E+01
 0.2215544422624E+01
 0.2361304862967E+01
 0.2487849597727E+01
 0.2597625177947E+01
 0.2693078884018E+01
 0.2775655714485E+01
 0.2847234175472E+01
 0.2911049217020E+01
 0.2969085666721E+01
 0.3021495738572E+01
 0.3067463292202E+01
 0.3105792105665E+01
 0.3135997440373E+01
 0.3158695997264E+01
 0.2419127460749E+01
 0.9354581238415E+00
 0.1923971916145E+00
 0.9442687784051E-02
 0.1238612224818E+00
 0.2010325137293E+00
 0.2573218334147E+00
 0.2981513922930E+00
 0.3246505309172E+00
 0.3367845601768E+00
 0.3328607335422E+00
 0.3096384922672E+00
 0.2655393420101E+00
 0.2063775822812E+00
 0.1369739271121E+00
 0.6270723420696E-01
 0.1694218316715E-01
 0.8448204046475E-01
 0.1562287525925E+00
 0.2421452817199E+00
 0.2493625916127E+01
 0.1772718343982E+01
 0.6991048574852E+00
 0.2659803346710E+00
 0.6434159395617E-01
 0.5864847633305E-01
 0.1403083559700E+00
 0.1977399111538E+00
 0.2372516059157E+00
 0.2608630739064E+00
 0.2685613734745E+00
 0.2620136461966E+00
 0.2379842233729E+00
 0.1947688249541E+00
 0.1367424299789E+00
 0.7066257762748E-01
 0.9760838981550E-02
 0.6472097475622E-01
 0.1313943364040E+00
 0.1987036518381E+00
 0.2299583521455E+01
 0.2016734018902E+01
 0.1182562351968E+01
 0.5987303975500E+00
 0.2923689790427E+00
 0.1138299162509E+00
 0.3375717595280E-02
 0.8150821579601E-01
 0.1373760880163E+00
 0.1751270462254E+00
 0.1970706959450E+00
 0.2059057999165E+00
 0.1982270267291E+00
 0.1696684311438E+00
 0.1241121709738E+00
 0.6833332832231E-01
 0.1124439250614E-01
 0.5028660324347E-01
 0.1067530989900E+00
 0.1573751403139E+00
 0.2105207019098E+01
 0.2049517164830E+01
 0.1470336484110E+01
 0.9181304782690E+00
 0.5434040631819E+00
 0.3090592332303E+00
 0.1557584186474E+00
 0.5031137427177E-01
 0.2483096210059E-01
 0.7880274947214E-01
 0.1159137918696E+00
 0.1398107142645E+00
 0.1473796193098E+00
 0.1330015470704E+00
 0.1002718901427E+00
 0.5609711257856E-01
 0.8305881755932E-02
 0.4126634730884E-01
 0.8601595575154E-01
 0.1220569861698E+00
 0.1934526811188E+01
 0.1997923383785E+01
 0.1621068704472E+01
 0.1160333740993E+01
 0.7824305866140E+00
 0.5131143723102E+00
 0.3266587388325E+00
 0.1951785615771E+00
 0.9958261373860E-01
 0.2844768063250E-01
 0.2450075351371E-01
 0.6322614168548E-01
 0.8561252117050E-01
 0.8539245909516E-01
 0.6585316886175E-01
 0.3415621185417E-01
 0.2633856446430E-02
 0.3933545431335E-01
 0.7185531144392E-01
 0.9486866179538E-01
 0.1790353450252E+01
 0.1912864211723E+01
 0.1685167408452E+01
 0.1326751820714E+01
 0.9833772171029E+00
 0.7079782445402E+00
 0.5012045024203E+00
 0.3483104176391E+00
 0.2336318885670E+00
 0.1455928834639E+00
 0.7750827737568E-01
 0.2441741289649E-01
 0.1358691410372E-01
 0.2718890188699E-01
 0.2116981821834E-01
 0.3711489411370E-02
 0.2199141399260E-01
 0.4623585254833E-01
 0.6641037396819E-01
 0.7758695070027E-01
 0.1669508136301E+01
 0.1817496147124E+01
 0.1696480119188E+01
 0.1432356571267E+01
 0.1140621256341E+01
 0.8808147506338E+00
 0.6693297765879E+00
 0.5034557000361E+00
 0.3738022190270E+00
 0.2709474373568E+00
 0.1885932476468E+00
 0.1215195694099E+00
 0.7075625253111E-01
 0.4286010714894E-01
 0.3533947982586E-01
 0.4056392289698E-01
 0.5170807605097E-01
 0.6340048980136E-01
 0.7146774618881E-01
 0.7176537873678E-01
 0.1567966724535E+01
 0.1722804123348E+01
 0.1676747416081E+01
 0.1493044706667E+01
 0.1257700302670E+01
 0.1026729370212E+01
 0.8237841761200E+00
 0.6545978920444E+00
 0.5159911031986E+00
 0.4019337750998E+00
 0.3075615384910E+00
 0.2281869560641E+00
 0.1644276608989E+00
 0.1229188667800E+00
 0.1020265365429E+00
 0.9422060966196E-01
 0.9270949530382E-01
 0.9206731561876E-01
 0.8844044065060E-01
 0.7861008026113E-01
 0.1481990081444E+01
 0.1633939090433E+01
 0.1639870757993E+01
 0.1522144964767E+01
 0.1341462175647E+01
 0.1145947466030E+01
 0.9610386513449E+00
 0.7973002264904E+00
 0.6563976682071E+00
 0.5357774335935E+00
 0.4325520144642E+00
 0.3430918120861E+00
 0.2679529728530E+00
 0.2139151365764E+00
 0.1802892384292E+00
 0.1598356272334E+00
 0.1460070128635E+00
 0.1333980068986E+00
 0.1184726120673E+00
 0.9893971911061E-01
 0.1408407778963E+01
 0.1553084614328E+01
 0.1594735010200E+01
 0.1530003428232E+01
 0.1399241382719E+01
 0.1241372826984E+01
 0.1080452297829E+01
 0.9290958169073E+00
 0.7921476807655E+00
 0.6699537153437E+00
 0.5616403678695E+00
 0.4649087432237E+00
 0.3805323060682E+00
 0.3154968537328E+00
 0.2702065564311E+00
 0.2379230690273E+00
 0.2124318933061E+00
 0.1883817311955E+00
 0.1625094813723E+00
 0.1333435740714E+00
 0.1344620231003E+01
 0.1480869243244E+01
 0.1546985462976E+01
 0.1524368800948E+01
 0.1437716153144E+01
 0.1316984175767E+01
 0.1183218924393E+01
 0.1049204627459E+01
 0.9214897531961E+00
 0.8024974259229E+00
 0.6930757139375E+00
 0.5922794921904E+00
 0.5012598598147E+00
 0.4272230964541E+00
 0.3717502733774E+00
 0.3287913836746E+00
 0.2925429040225E+00
 0.2577207449394E+00
 0.2212300818645E+00
 0.1821989199633E+00
 0.1288527357793E+01
 0.1417101788263E+01
 0.1500144086767E+01
 0.1510918657743E+01
 0.1462531098755E+01
 0.1376934179247E+01
 0.1271507143217E+01
 0.1158049505489E+01
 0.1043685937470E+01
 0.9321052200772E+00
 0.8254343868346E+00
 0.7239277377323E+00
 0.6291505361566E+00
 0.5484719457335E+00
 0.4846392719438E+00
 0.4324346327174E+00
 0.3865392321546E+00
 0.3417463601277E+00
 0.2949727632681E+00
 0.2455953978910E+00
 0.1238445228280E+01
 0.1361170309147E+01
 0.1456320782444E+01
 0.1493730504147E+01
 0.1478253154006E+01
 0.1425087949105E+01
 0.1347869429126E+01
 0.1256790474425E+01
 0.1158771831980E+01
 0.1058084922587E+01
 0.9576698720397E+00
 0.8587313253461E+00
 0.7631873416130E+00
 0.6784416225422E+00
 0.6082962799975E+00
 0.5484602942160E+00
 0.4941777497087E+00
 0.4403464451470E+00
 0.3836974616061E+00
 0.3233283354960E+00
 0.1193030106898E+01
 0.1312264928060E+01
 0.1416675489786E+01
 0.1475658869841E+01
 0.1488457687864E+01
 0.1464814117058E+01
 0.1414870943630E+01
 0.1346955357159E+01
 0.1267295425292E+01
 0.1180226568244E+01
 0.1089084341457E+01
 0.9957454753090E+00
 0.9023561201420E+00
 0.8161688805725E+00
 0.7418360763955E+00
 0.6760425845540E+00
 0.6146980283402E+00
 0.5528876349486E+00
 0.4869574591683E+00
 0.4149514871157E+00
 0.1151214375671E+01
 0.1269504447755E+01
 0.1381724876018E+01
 0.1458625387053E+01
 0.1495854962168E+01
 0.1498912245269E+01
 0.1474872339900E+01
 0.1430173939194E+01
 0.1370086822648E+01
 0.1298649885762E+01
 0.1219255859858E+01
 0.1134188665551E+01
 0.1045667022221E+01
 0.9605647313852E+00
 0.8840945322948E+00
 0.8139200791723E+00
 0.7467666280875E+00
 0.6781185970543E+00
 0.6038389613606E+00
 0.5198473307018E+00
 0.1112153965065E+01
 0.1232008305339E+01
 0.1351550207013E+01
 0.1443839839486E+01
 0.1502420060537E+01
 0.1529610912268E+01
 0.1529912787072E+01
 0.1507998602708E+01
 0.1468075523107E+01
 0.1413659513323E+01
 0.1347948130678E+01
 0.1273404560010E+01
 0.1192163265552E+01
 0.1110470391469E+01
 0.1033722076164E+01
 0.9604812936577E+00
 0.8884844125587E+00
 0.8140495692590E+00
 0.7328153883205E+00
 0.6372733250857E+00
 0.1075185198715E+01
 0.1198936302664E+01
 0.1325940205513E+01
 0.1431969233707E+01
 0.1509513123446E+01
 0.1558601400610E+01
 0.1581655932387E+01
 0.1581789872244E+01
 0.1562154874028E+01
 0.1525622677290E+01
 0.1475020941954E+01
 0.1412809034900E+01
 0.1340909944922E+01
 0.1264708615292E+01
 0.1189347400802E+01
 0.1114022780703E+01
 0.1037562634846E+01
 0.9578753493176E+00
 0.8714213234345E+00
 0.7663244306423E+00
 0.1039790382119E+01
 0.1169507321540E+01
 0.1304489913950E+01
 0.1423267517514E+01
 0.1517988297273E+01
 0.1587090145755E+01
 0.1631375045239E+01
 0.1652646767464E+01
 0.1653085964956E+01
 0.1634873936153E+01
 0.1600354387543E+01
 0.1551833008949E+01
 0.1490947880487E+01
 0.1422075593678E+01
 0.1349677255752E+01
 0.1273201405425E+01
 0.1192022632391E+01
 0.1106113567472E+01
 0.1015735918803E+01
 0.9055587298911E+00
 0.1005569097772E+01
 0.1143011965606E+01
 0.1286655322132E+01
 0.1417678576409E+01
 0.1528298727416E+01
 0.1615863031461E+01
 0.1679963058604E+01
 0.1721366716023E+01
 0.1741424609654E+01
 0.1741646968194E+01
 0.1723800960077E+01
 0.1689883677272E+01
 0.1641232328430E+01
 0.1581214534080E+01
 0.1513352675948E+01
 0.1437007371470E+01
 0.1351524657121E+01
 0.1256723325552E+01
 0.1159176012854E+01
 0.1051953618099E+01
 0.9722856702899E+00
 0.1118723601976E+01
 0.1271758871025E+01
 0.1414948626934E+01
 0.1540612276536E+01
 0.1645356191577E+01
 0.1727954636142E+01
 0.1788429792857E+01
 0.1827459661651E+01
 0.1845983316750E+01
 0.1845197511518E+01
 0.1826394470599E+01
 0.1790601424132E+01
 0.1740503878017E+01
 0.1678527584397E+01
 0.1603975215704E+01
 0.1515864885498E+01
 0.1413372740609E+01
 0.1299831613006E+01
 0.1193175239883E+01
 0.8427837380572E+00
 0.1129112223793E+01
 0.1392592289996E+01
 0.1627457047807E+01
 0.1833852282710E+01
 0.2013457241843E+01
 0.2168564848781E+01
 0.2301845404677E+01
 0.2416000251400E+01
 0.2513466560974E+01
 0.2596626471638E+01
 0.2667707756981E+01
 0.2728063705131E+01
 0.2781346132076E+01
 0.2830889195708E+01
 0.2876007911969E+01
 0.2915553507729E+01
 0.2948308444443E+01
 0.2976980903406E+01
 0.3022310665627E+01
 0.8748814360003E+00
 0.1150343279311E+01
 0.1402335489039E+01
 0.1623744685532E+01
 0.1814861715486E+01
 0.1978019365263E+01
 0.2116008627076E+01
 0.2231904105183E+01
 0.2328762601741E+01
 0.2409267008218E+01
 0.2476083127869E+01
 0.2531908204029E+01
 0.2577989960796E+01
 0.2618993139066E+01
 0.2659945850665E+01
 0.2700205501278E+01
 0.2739087134710E+01
 0.2776668657554E+01
 0.2820221175114E+01
 0.2865153410764E+01
 0.9075425440755E+00
 0.1172110551765E+01
 0.1412149234130E+01
 0.1618950460371E+01
 0.1793022940918E+01
 0.1937573492156E+01
 0.2056211484829E+01
 0.2152633684759E+01
 0.2230334329560E+01
 0.2292303499666E+01
 0.2341481180718E+01
 0.2380634263619E+01
 0.2411145374802E+01
 0.2439220239822E+01
 0.2471566930621E+01
 0.2507819286120E+01
 0.2547655902915E+01
 0.2591785434325E+01
 0.2641929784817E+01
 0.2685377453100E+01
 0.9410904416141E+00
 0.1194924649032E+01
 0.1422494460685E+01
 0.1613261420221E+01
 0.1768271963784E+01
 0.1891980495158E+01
 0.1989103056456E+01
 0.2064149504570E+01
 0.2121133325648E+01
 0.2163338892333E+01
 0.2193895640034E+01
 0.2215515616222E+01
 0.2229798031076E+01
 0.2244664905217E+01
 0.2268446896731E+01
 0.2300867949375E+01
 0.2341429832919E+01
 0.2389130009950E+01
 0.2442423887530E+01
 0.2492236049854E+01
 0.9758136597474E+00
 0.1219376625504E+01
 0.1433808850351E+01
 0.1606788942480E+01
 0.1740426212242E+01
 0.1840933969441E+01
 0.1914454848376E+01
 0.1966474352585E+01
 0.2001559910251E+01
 0.2023229987439E+01
 0.2034710291778E+01
 0.2038512221977E+01
 0.2036470232111E+01
 0.2038193988493E+01
 0.2053317647651E+01
 0.2081386056559E+01
 0.2121214818171E+01
 0.2170510896405E+01
 0.2227448646722E+01
 0.2288114663789E+01
 0.1012065609312E+01
 0.1246077341634E+01
 0.1446458917332E+01
 0.1599459698210E+01
 0.1709062671580E+01
 0.1783888577359E+01
 0.1831847835553E+01
 0.1859525012775E+01
 0.1872015291901E+01
 0.1872956247995E+01
 0.1865523359620E+01
 0.1851852154922E+01
 0.1833971830335E+01
 0.1822995553728E+01
 0.1829423947757E+01
 0.1852430757619E+01
 0.1890274675315E+01
 0.1940168511238E+01
 0.2001255985011E+01
 0.2074503468689E+01
 0.1050299718565E+01
 0.1275670938222E+01
 0.1460665969705E+01
 0.1590912465330E+01
 0.1673416877026E+01
 0.1719990060169E+01
 0.1740643542915E+01
 0.1743117145873E+01
 0.1732922768148E+01
 0.1713623342672E+01
 0.1688137414563E+01
 0.1658018504599E+01
 0.1625417686165E+01
 0.1602683696830E+01
 0.1600699833115E+01
 0.1618210157924E+01
 0.1653155746518E+01
 0.1702782832810E+01
 0.1767700931629E+01
 0.1853023648808E+01
 0.1091105439664E+01
 0.1308823689233E+01
 0.1476424214390E+01
 0.1580381828274E+01
 0.1632282419918E+01
 0.1648017202669E+01
 0.1639974599240E+01
 0.1616991987782E+01
 0.1584765183160E+01
 0.1546491097082E+01
 0.1504563803806E+01
 0.1459733516913E+01
 0.1414198834846E+01
 0.1381237298102E+01
 0.1371618047899E+01
 0.1383607123677E+01
 0.1414978072008E+01
 0.1463300892787E+01
 0.1530739489237E+01
 0.1625902542599E+01
 0.1135244927628E+01
 0.1346195053971E+01
 0.1493385592123E+01
 0.1566558512456E+01
 0.1583905946559E+01
 0.1566341498517E+01
 0.1528767950099E+01
 0.1480878898957E+01
 0.1428153708063E+01
 0.1373019586223E+01
 0.1317028991878E+01
 0.1259918628434E+01
 0.1203886280943E+01
 0.1162824694329E+01
 0.1146891872554E+01
 0.1153787653736E+01
 0.1181138848653E+01
 0.1226932292535E+01
 0.1294757547358E+01
 0.1396165281162E+01
 0.1183695084442E+01
 0.1388380507407E+01
 0.1510694292360E+01
 0.1547411641221E+01
 0.1525878605534E+01
 0.1472918361593E+01
 0.1405820386151E+01
 0.1334610853368E+01
 0.1263933863504E+01
 0.1194930163532E+01
 0.1127973241456E+01
 0.1061625642805E+01
 0.9980893791706E+00
 0.9515800756913E+00
 0.9311809891429E+00
 0.9338990870037E+00
 0.9571075898717E+00
 0.9991372002118E+00
 0.1064707766982E+01
 0.1167748248945E+01
 0.1237697194893E+01
 0.1435809425152E+01
 0.1526743040737E+01
 0.1519958587898E+01
 0.1455033698425E+01
 0.1365337970582E+01
 0.1269956370584E+01
 0.1178310152981E+01
 0.1093329577487E+01
 0.1014271166755E+01
 0.9400312381114E+00
 0.8679401904115E+00
 0.8002895578349E+00
 0.7513745452881E+00
 0.7288176020215E+00
 0.7287945531317E+00
 0.7482133336258E+00
 0.7855243215671E+00
 0.8461098838655E+00
 0.9455631436346E+00
 0.1298814665977E+01
 0.1488565071275E+01
 0.1538806111580E+01
 0.1479968107739E+01
 0.1367380305097E+01
 0.1240988410862E+01
 0.1120311080755E+01
 0.1012657937993E+01
 0.9181126259777E+00
 0.8334659266219E+00
 0.7559791136161E+00
 0.6818574935658E+00
 0.6136654017261E+00
 0.5655997817896E+00
 0.5435521215732E+00
 0.5427571224714E+00
 0.5593816891651E+00
 0.5916424539990E+00
 0.6449280697603E+00
 0.7355137949305E+00
 0.1368995088783E+01
 0.1546062748596E+01
 0.1542474517685E+01
 0.1421592171438E+01
 0.1258145698346E+01
 0.1097424300359E+01
 0.9567905161542E+00
 0.8392408014112E+00
 0.7407559606273E+00
 0.6553019523763E+00
 0.5786267917400E+00
 0.5061317459711E+00
 0.4409247027173E+00
 0.3969826444139E+00
 0.3783312416858E+00
 0.3792260268088E+00
 0.3948167495765E+00
 0.4226589950170E+00
 0.4673189654778E+00
 0.5444400376198E+00
 0.1450620320707E+01
 0.1606457226285E+01
 0.1530769021583E+01
 0.1336959418532E+01
 0.1122090886052E+01
 0.9330901749865E+00
 0.7807458036713E+00
 0.6609096351226E+00
 0.5644830908569E+00
 0.4828038053088E+00
 0.4106402962049E+00
 0.3431102456612E+00
 0.2841662468815E+00
 0.2474579081149E+00
 0.2351383059924E+00
 0.2405539344787E+00
 0.2576462858999E+00
 0.2829235609118E+00
 0.3192223284561E+00
 0.3799371187718E+00
 0.1546493781884E+01
 0.1665504582036E+01
 0.1492726942761E+01
 0.1215891933887E+01
 0.9544488465776E+00
 0.7486077501057E+00
 0.5957959234866E+00
 0.4819714902569E+00
 0.3930731304157E+00
 0.3189484650144E+00
 0.2543069484513E+00
 0.1945804844158E+00
 0.1448038124981E+00
 0.1181370596728E+00
 0.1149442945133E+00
 0.1278517566702E+00
 0.1495801228065E+00
 0.1754310930040E+00
 0.2057537070899E+00
 0.2499648417756E+00
 0.1659593916218E+01
 0.1714249830803E+01
 0.1411156172805E+01
 0.1046283966096E+01
 0.7532249740736E+00
 0.5487267241963E+00
 0.4084567328743E+00
 0.3078308525705E+00
 0.2303261478509E+00
 0.1662612239938E+00
 0.1112975596176E+00
 0.6168668367493E-01
 0.2372811896961E-01
 0.9958683113176E-02
 0.1799963997652E-01
 0.4101182106241E-01
 0.7067927339388E-01
 0.1012539287084E+00
 0.1303811551772E+00
 0.1621326383701E+00
 0.1792131651179E+01
 0.1733903025296E+01
 0.1259242358379E+01
 0.8170041288433E+00
 0.5239374326799E+00
 0.3445503491505E+00
 0.2273299133455E+00
 0.1438603626832E+00
 0.7933533685998E-01
 0.2643371044216E-01
 0.1764838383660E-01
 0.5538144673115E-01
 0.7970886021972E-01
 0.7941463907371E-01
 0.5722769563620E-01
 0.2122969298517E-01
 0.1945237019543E-01
 0.5917839467790E-01
 0.9398323928718E-01
 0.1226063526864E+00
 0.1941308972387E+01
 0.1683199320858E+01
 0.9970684217371E+00
 0.5282590793442E+00
 0.2887396579187E+00
 0.1510965215953E+00
 0.6040273502551E-01
 0.6062644503045E-02
 0.5807965550543E-01
 0.9995393079685E-01
 0.1322467040899E+00
 0.1565530177670E+00
 0.1649618667280E+00
 0.1482629619792E+00
 0.1105674229585E+00
 0.6010940512317E-01
 0.8048461525105E-02
 0.4587124940858E-01
 0.9375136369516E-01
 0.1342424986543E+00
 0.2086843418224E+01
 0.1459103070819E+01
 0.5787384300853E+00
 0.2339909315234E+00
 0.7639159419931E-01
 0.2040603862522E-01
 0.8753447237398E-01
 0.1396660878171E+00
 0.1814288921383E+00
 0.2133705701944E+00
 0.2337977802875E+00
 0.2430892109714E+00
 0.2330192235189E+00
 0.1979249878805E+00
 0.1433591679432E+00
 0.7748504473432E-01
 0.1363702267740E-01
 0.5600614242704E-01
 0.1216319198979E+00
 0.1929719904706E+00
 0.2006704083869E+01
 0.7500779836375E+00
 0.1504678714884E+00
 0.7896326381644E-02
 0.9965178545237E-01
 0.1638045143310E+00
 0.2149134734855E+00
 0.2573308823948E+00
 0.2911273866049E+00
 0.3149460774249E+00
 0.3251970486340E+00
 0.3170227326200E+00
 0.2837513480386E+00
 0.2278721089585E+00
 0.1561114045929E+00
 0.7511248722150E-01
 0.1568348842626E-01
 0.8681227190039E-01
 0.1647499986934E+00
 0.2828621779875E+00
 0.1140176379743E+01
 0.9956764104216E+00
 0.8640487026001E+00
 0.7408771478211E+00
 0.6250253832035E+00
 0.5174511112341E+00
 0.4195279502374E+00
 0.3326419981146E+00
 0.2580028722225E+00
 0.1965567236041E+00
 0.1489279514203E+00
 0.1153847968955E+00
 0.9584961618776E-01
 0.8994628677488E-01
 0.9697063570515E-01
 0.1157978465158E+00
 0.1449680104950E+00
 0.1829377951451E+00
 0.2283203565273E+00
 0.2821753229450E+00
 0.1241867949557E+01
 0.1106075843803E+01
 0.9641257197334E+00
 0.8268389427521E+00
 0.6972699907889E+00
 0.5767820559924E+00
 0.4666142009247E+00
 0.3680486795614E+00
 0.2823750211966E+00
 0.2107852658291E+00
 0.1542589784013E+00
 0.1134548295815E+00
 0.8865312037028E-01
 0.7981586304719E-01
 0.8661187873502E-01
 0.1081837990245E+00
 0.1431689434672E+00
 0.1900881476390E+00
 0.2479005608218E+00
 0.3162896507423E+00
 0.1347410163661E+01
 0.1212379970288E+01
 0.1069485734273E+01
 0.9254247981414E+00
 0.7856601676354E+00
 0.6532625014532E+00
 0.5303458626652E+00
 0.4187060427662E+00
 0.3200339102761E+00
 0.2359405644255E+00
 0.1678850229437E+00
 0.1170474608460E+00
 0.8419003622326E-01
 0.6966277328479E-01
 0.7362113413181E-01
 0.9570247114311E-01
 0.1346215962570E+00
 0.1886810107983E+00
 0.2561535421004E+00
 0.3351115037967E+00
 0.1463847385233E+01
 0.1325730668869E+01
 0.1181263348453E+01
 0.1033465473003E+01
 0.8866123645174E+00
 0.7443612607108E+00
 0.6095685734407E+00
 0.4846699991887E+00
 0.3719237007226E+00
 0.2735070716318E+00
 0.1915028757500E+00
 0.1277943852360E+00
 0.8386455244264E-01
 0.6058521611930E-01
 0.5856536456135E-01
 0.7836973592670E-01
 0.1190934496506E+00
 0.1786648650973E+00
 0.2546414742875E+00
 0.3443808716069E+00
 0.1591830581271E+01
 0.1450367796545E+01
 0.1303590747103E+01
 0.1152625260824E+01
 0.1000334708938E+01
 0.8499364929645E+00
 0.7044688247536E+00
 0.5667553623956E+00
 0.4395269048829E+00
 0.3255104572290E+00
 0.2274494342629E+00
 0.1480433494111E+00
 0.8976708442874E-01
 0.5442620220247E-01
 0.4282224455127E-01
 0.5661044057298E-01
 0.9648695339349E-01
 0.1601199013283E+00
 0.2443659396418E+00
 0.3458306205906E+00
 0.1731020717360E+01
 0.1587559207434E+01
 0.1438856404660E+01
 0.1285266876863E+01
 0.1128617507390E+01
 0.9714592409240E+00
 0.8165874785114E+00
 0.6668794524878E+00
 0.5253009516883E+00
 0.3949634551675E+00
 0.2791645038270E+00
 0.1813851523606E+00
 0.1052221877766E+00
 0.5410777337646E-01
 0.2974183507686E-01
 0.3213448598533E-01
 0.6701133394833E-01
 0.1328634380062E+00
 0.2253869681404E+00
 0.3398997576609E+00
 0.1880824830422E+01
 0.1737416885946E+01
 0.1588119893733E+01
 0.1433035107086E+01
 0.1273329146545E+01
 0.1110919837944E+01
 0.9481750102724E+00
 0.7877587729950E+00
 0.6326053272851E+00
 0.4859605225586E+00
 0.3514452749203E+00
 0.2331171987660E+00
 0.1355438134394E+00
 0.6403907253691E-01
 0.2523937742064E-01
 0.1459770718264E-01
 0.3198081121859E-01
 0.9634962254703E-01
 0.1968066488965E+00
 0.3262668604203E+00
 0.2040540823289E+01
 0.1899572679585E+01
 0.1751697716031E+01
 0.1596941805301E+01
 0.1436045289491E+01
 0.1270388303938E+01
 0.1101846050880E+01
 0.9326958189470E+00
 0.7656029538856E+00
 0.6036709152991E+00
 0.4505335663791E+00
 0.3104793717473E+00
 0.1886373869503E+00
 0.9151394857482E-01
 0.3124726480478E-01
 0.2643128953022E-01
 0.1361106664436E-01
 0.5060325010684E-01
 0.1572734221225E+00
 0.3056429637326E+00
 0.2209313781039E+01
 0.2073366803266E+01
 0.1929441928923E+01
 0.1777517955887E+01
 0.1618029316999E+01
 0.1451902430937E+01
 0.1280511818161E+01
 0.1105644829917E+01
 0.9295125262289E+00
 0.7548144489708E+00
 0.5848554521316E+00
 0.4237177505007E+00
 0.2765193272939E+00
 0.1499523883375E+00
 0.5523649099549E-01
 0.3498369266095E-01
 0.4436981558428E-01
 0.7455230644444E-02
 0.1055540159629E+00
 0.2781314609497E+00
 0.2385949609243E+01
 0.2257588871000E+01
 0.2120396278992E+01
 0.1974276284792E+01
 0.1819425895510E+01
 0.1656397384408E+01
 0.1486103640310E+01
 0.1309817683760E+01
 0.1129198637738E+01
 0.9463601053419E+00
 0.7639905720740E+00
 0.5855390503430E+00
 0.4154963007252E+00
 0.2598668370910E+00
 0.1273660736359E+00
 0.3954782820342E-01
 0.5177952809174E-01
 0.4426466813452E-01
 0.4567336696721E-01
 0.2386017020856E+00
 0.2568872879357E+01
 0.2450464832733E+01
 0.2322721390907E+01
 0.2185467423591E+01
 0.2038726214069E+01
 0.1882772864249E+01
 0.1718155400830E+01
 0.1545707899178E+01
 0.1366577653769E+01
 0.1182281785762E+01
 0.9948060331721E+00
 0.8067620783918E+00
 0.6216317413060E+00
 0.4441545653174E+00
 0.2809958632290E+00
 0.1422136441094E+00
 0.4799095451496E-01
 0.3490689330818E-01
 0.1844808857502E-01
 0.1936962651809E+00
 0.2756118251864E+01
 0.2649679274736E+01
 0.2533765732181E+01
 0.2408152818609E+01
 0.2272762125859E+01
 0.2127704280251E+01
 0.1973304438357E+01
 0.1810122110943E+01
 0.1638978738984E+01
 0.1461004812068E+01
 0.1277717861873E+01
 0.1091145865582E+01
 0.9040192754607E+00
 0.7200722102206E+00
 0.5445257119934E+00
 0.3848837277786E+00
 0.2522493969618E+00
 0.1634515181107E+00
 0.1468517005583E+00
 0.2691965417533E+00
 0.2945401425901E+01
 0.2852466070585E+01
 0.2750214576850E+01
 0.2638403609133E+01
 0.2516907530515E+01
 0.2385756644050E+01
 0.2245166240360E+01
 0.2095562809675E+01
 0.1937615728138E+01
 0.1772282584023E+01
 0.1600876398635E+01
 0.1425164745165E+01
 0.1247515205447E+01
 0.1071110052362E+01
 0.9002680148324E+00
 0.7409378738606E+00
 0.6014834850321E+00
 0.4940087723019E+00
 0.4369643393350E+00
 0.4594904293839E+00
 0.3134244416438E+01
 0.3055790635352E+01
 0.2968368812082E+01
 0.2871722214524E+01
 0.2765689096133E+01
 0.2650238559061E+01
 0.2525500035898E+01
 0.2391790369576E+01
 0.2249643148624E+01
 0.2099844460124E+01
 0.1943478298621E+01
 0.1781983807731E+01
 0.1617224950782E+01
 0.1451569657407E+01
 0.1287966186867E+01
 0.1129978597711E+01
 0.9816693211679E+00
 0.8469752388597E+00
 0.7273575152181E+00
 0.6109235927208E+00
 0.3320110770421E+01
 0.3256554269941E+01
 0.3184458805865E+01
 0.3103530679301E+01
 0.3013543485132E+01
 0.2914369249112E+01
 0.2806002748787E+01
 0.2688581123084E+01
 0.2562400266426E+01
 0.2427928010533E+01
 0.2285811661513E+01
 0.2136873589699E+01
 0.1982081900550E+01
 0.1822470701799E+01
 0.1658959223831E+01
 0.1491965731485E+01
 0.1320589351292E+01
 0.1140858357782E+01
 0.9417346089438E+00
 0.6980998260658E+00
 0.3500516420529E+01
 0.3451753701490E+01
 0.3394873988917E+01
 0.3329504346016E+01
 0.3255302593093E+01
 0.3171980308137E+01
 0.3079317202639E+01
 0.2977167343441E+01
 0.2865456232229E+01
 0.2744165532179E+01
 0.2613298905480E+01
 0.2472817325564E+01
 0.2322524045186E+01
 0.2161865694325E+01
 0.1989592638732E+01
 0.1803181560215E+01
 0.1597864064395E+01
 0.1365036200043E+01
 0.1090193833406E+01
 0.7531553349414E+00
 0.3673108233116E+01
 0.3638586585352E+01
 0.3596302580641E+01
 0.3545755395989E+01
 0.3486430687188E+01
 0.3417813082057E+01
 0.3339388409466E+01
 0.3250634988150E+01
 0.3151001576013E+01
 0.3039867273295E+01
 0.2916475531923E+01
 0.2779830083112E+01
 0.2628534558035E+01
 0.2460549483894E+01
 0.2272830820526E+01
 0.2060809572074E+01
 0.1817694814164E+01
 0.1533746011743E+01
 0.1196302397456E+01
 0.7934308578802E+00
 0.3835714995123E+01
 0.3814514064907E+01
 0.3785805274440E+01
 0.3748915602559E+01
 0.3703110176474E+01
 0.3647593642812E+01
 0.3581500724347E+01
 0.3503874855823E+01
 0.3413632258412E+01
 0.3309506997120E+01
 0.3189970469568E+01
 0.3053116460361E+01
 0.2896500795694E+01
 0.2716924131867E+01
 0.2510151603558E+01
 0.2270584471331E+01
 0.1990966913837E+01
 0.1662396806187E+01
 0.1275377960754E+01
 0.8251067866951E+00
 0.3986376907890E+01
 0.3977290996206E+01
 0.3960842030468E+01
 0.3936152417042E+01
 0.3902234920951E+01
 0.3857983684435E+01
 0.3802155395939E+01
 0.3733339761815E+01
 0.3649917239366E+01
 0.3550001041459E+01
 0.3431359692131E+01
 0.3291316276679E+01
 0.3126621925984E+01
 0.2933306015310E+01
 0.2706518167389E+01
 0.2440406104983E+01
 0.2128135457414E+01
 0.1762289678559E+01
 0.1336330828728E+01
 0.8509962845110E+00
 0.4123358418265E+01
 0.4124972073331E+01
 0.4119265515849E+01
 0.4105140828794E+01
 0.4081347501999E+01
 0.4046464245686E+01
 0.3998873919681E+01
 0.3936730803421E+01
 0.3857919153071E+01
 0.3760002042351E+01
 0.3640159896796E+01
 0.3495119492335E+01
 0.3321077415775E+01
 0.3113628656120E+01
 0.2867723778649E+01
 0.2577701465802E+01
 0.2237486726184E+01
 0.1841156872476E+01
 0.1384593644329E+01
 0.8727697449343E+00
 0.4245150266697E+01
 0.4255902590670E+01
 0.4259292855887E+01
 0.4254007151306E+01
 0.4238542519879E+01
 0.4211181760902E+01
 0.4169965433398E+01
 0.4112659954281E+01
 0.4036721990077E+01
 0.3939260031019E+01
 0.3816995126153E+01
 0.3666224670491E+01
 0.3482796493460E+01
 0.3262106173016E+01
 0.2999139809808E+01
 0.2688600324623E+01
 0.2325189915940E+01
 0.1904241113538E+01
 0.1423484303809E+01
 0.8912053392140E+00
 0.4350462177037E+01
 0.4368694236417E+01
 0.4379458246662E+01
 0.4381248275945E+01
 0.4372338578295E+01
 0.4350755771136E+01
 0.4314250425920E+01
 0.4260268376035E+01
 0.4185923080468E+01
 0.4087971451999E+01
 0.3962796816141E+01
 0.3806404415803E+01
 0.3614437380213E+01
 0.3382224721759E+01
 0.3104878643411E+01
 0.2777469916481E+01
 0.2395343952974E+01
 0.1954773364694E+01
 0.1454813238379E+01
 0.9061466956483E+00
 0.4438202774130E+01
 0.4462185527608E+01
 0.4478553921105E+01
 0.4485646009494E+01
 0.4481557370882E+01
 0.4464112934350E+01
 0.4430839640646E+01
 0.4378941459725E+01
 0.4305279140243E+01
 0.4206358119533E+01
 0.4078329185725E+01
 0.3917007775856E+01
 0.3717919261965E+01
 0.3476379439438E+01
 0.3187622832265E+01
 0.2847001225425E+01
 0.2450310182274E+01
 0.1994445527767E+01
 0.1479306652228E+01
 0.9170701210467E+00
 0.4507478114733E+01
 0.4535433856431E+01
 0.4555610626494E+01
 0.4566234166293E+01
 0.4565275199159E+01
 0.4550421427679E+01
 0.4519051362590E+01
 0.4468211949814E+01
 0.4394602963624E+01
 0.4294572160915E+01
 0.4164126210534E+01
 0.3998963347359E+01
 0.3794534504263E+01
 0.3546140559945E+01
 0.3249075668830E+01
 0.2898835809980E+01
 0.2491447857911E+01
 0.2024122927537E+01
 0.1497170415211E+01
 0.9235149199155E+00
 0.4557580389891E+01
 0.4587697597159E+01
 0.4609868187650E+01
 0.4622254606815E+01
 0.4622762345714E+01
 0.4609012222793E+01
 0.4578314613271E+01
 0.4527647518757E+01
 0.4453641523971E+01
 0.4352575787452E+01
 0.4220390213658E+01
 0.4052719840419E+01
 0.3844958234816E+01
 0.3592357551197E+01
 0.3290175183295E+01
 0.2933885864508E+01
 0.2519513424726E+01
 0.2044282941693E+01
 0.1508529048309E+01
 0.9253028816396E+00
 0.4587977023155E+01
 0.4618418227770E+01
 0.4640748674972E+01
 0.4653118889242E+01
 0.4653431093997E+01
 0.4639311918232E+01
 0.4608086176833E+01
 0.4556752929031E+01
 0.4481966510449E+01
 0.4380026480042E+01
 0.4246881523288E+01
 0.4078153480486E+01
 0.3869188990652E+01
 0.3615148045051E+01
 0.3311142114361E+01
 0.2952443893261E+01
 0.2534824296171E+01
 0.2055212428123E+01
 0.1513592406970E+01
 0.9225350737691E+00
 0.4598305735357E+01
 0.4627211044648E+01
 0.4647841863280E+01
 0.4658387384680E+01
 0.4656807225081E+01
 0.4640805431227E+01
 0.4607803602273E+01
 0.4554912999151E+01
 0.4478907687948E+01
 0.4376202193921E+01
 0.4242838254033E+01
 0.4074486644230E+01
 0.3866472251347E+01
 0.3613834116439E+01
 0.3311438082676E+01
 0.2954171389013E+01
 0.2537281491500E+01
 0.2057051391261E+01
 0.1512681799634E+01
 0.9155729709870E+00
 0.4588375166666E+01
 0.4613864146072E+01
 0.4630902961937E+01
 0.4637765758838E+01
 0.4632524664199E+01
 0.4613027710253E+01
 0.4576872439836E+01
 0.4521373211050E+01
 0.4443523785134E+01
 0.4339958196733E+01
 0.4206913534763E+01
 0.4040199411160E+01
 0.3835181657740E+01
 0.3586793246461E+01
 0.3289595156319E+01
 0.2937927063788E+01
 0.2526224578616E+01
 0.2049700860819E+01
 0.1506207467575E+01
 0.9050926200649E+00
 0.4558171449053E+01
 0.4578346741214E+01
 0.4589864604355E+01
 0.4591121701216E+01
 0.4580346787890E+01
 0.4555588589722E+01
 0.4514692666543E+01
 0.4455264100471E+01
 0.4374618518541E+01
 0.4269724551376E+01
 0.4137139773861E+01
 0.3972941988849E+01
 0.3772659906355E+01
 0.3531213472741E+01
 0.3242887021850E+01
 0.2901383574701E+01
 0.2500057402700E+01
 0.2032546130198E+01
 0.1494574306065E+01
 0.8922111357789E+00
 0.4507869400808E+01
 0.4520825264268E+01
 0.4524862725799E+01
 0.4518522359721E+01
 0.4500215432774E+01
 0.4468232861727E+01
 0.4420728587625E+01
 0.4355677489506E+01
 0.4270815243179E+01
 0.4163564537721E+01
 0.4030947439804E+01
 0.3869480716564E+01
 0.3675050881955E+01
 0.3442769932630E+01
 0.3166824791442E+01
 0.2840361897366E+01
 0.2455514918989E+01
 0.2003833965562E+01
 0.1477887469540E+01
 0.8786811762109E+00
 0.4437846982932E+01
 0.4441689527927E+01
 0.4436281618686E+01
 0.4420298696000E+01
 0.4392333973940E+01
 0.4350943342249E+01
 0.4294633625539E+01
 0.4221812344933E+01
 0.4130717424364E+01
 0.4019333808403E+01
 0.3885293456527E+01
 0.3725748635937E+01
 0.3537204858836E+01
 0.3315298922400E+01
 0.3054511305375E+01
 0.2747819767796E+01
 0.2386359621150E+01
 0.1959349619761E+01
 0.1455088166600E+01
 0.8670163706710E+00
 0.4348701549382E+01
 0.4341595443147E+01
 0.4324825919053E+01
 0.4297140148657E+01
 0.4257284623351E+01
 0.4204087172294E+01
 0.4136434507470E+01
 0.4053203698822E+01
 0.3953182976417E+01
 0.3834990081123E+01
 0.3696979554146E+01
 0.3537120820552E+01
 0.3352823112152E+01
 0.3140676197301E+01
 0.2896065687814E+01
 0.2612610292098E+01
 0.2281372012236E+01
 0.1889890574475E+01
 0.1421744055700E+01
 0.8600268493224E+00
 0.4241274177521E+01
 0.4221542581267E+01
 0.4191623173939E+01
 0.4150209818585E+01
 0.4096162373333E+01
 0.4028586142838E+01
 0.3946759537753E+01
 0.3850029687460E+01
 0.3737726468654E+01
 0.3609099352157E+01
 0.3463257557455E+01
 0.3299088512882E+01
 0.3115125272350E+01
 0.2909324399243E+01
 0.2678694293349E+01
 0.2418670607848E+01
 0.2122056453458E+01
 0.1777207790922E+01
 0.1365144904913E+01
 0.8579041574777E+00
 0.4116703152487E+01
 0.4082972362356E+01
 0.4038309927473E+01
 0.3981214792148E+01
 0.3910653374695E+01
 0.3826040649497E+01
 0.3727051740340E+01
 0.3613458102122E+01
 0.3485047189539E+01
 0.3341598839438E+01
 0.3182884340562E+01
 0.3008657397651E+01
 0.2818613668743E+01
 0.2612291428795E+01
 0.2388866650684E+01
 0.2146748886449E+01
 0.1882769177356E+01
 0.1590473678499E+01
 0.1256085318147E+01
 0.8489862032695E+00
 0.3976407506825E+01
 0.3927654617557E+01
 0.3866832385577E+01
 0.3792158063234E+01
 0.3702807752476E+01
 0.3598615648601E+01
 0.3479656730842E+01
 0.3346036001641E+01
 0.3197841718196E+01
 0.3035192662006E+01
 0.2858310286187E+01
 0.2667593362403E+01
 0.2463690464720E+01
 0.2247572502712E+01
 0.2020608068613E+01
 0.1784635551867E+01
 0.1541997937686E+01
 0.1295379128022E+01
 0.1046895822263E+01
 0.7909935873007E+00
 0.3822198666789E+01
 0.3757807417884E+01
 0.3679572230667E+01
 0.3585515854464E+01
 0.3475399319170E+01
 0.3349661272149E+01
 0.3208767872702E+01
 0.3053002816803E+01
 0.2882558175484E+01
 0.2697671438862E+01
 0.2498761037087E+01
 0.2286562393631E+01
 0.2062285540205E+01
 0.1827830327526E+01
 0.1586119082021E+01
 0.1341657584005E+01
 0.1101542264706E+01
 0.8774256459558E+00
 0.6897970022137E+00
 0.5804993878624E+00
 0.3656485006112E+01
 0.3576275557618E+01
 0.3479370212742E+01
 0.3364359186168E+01
 0.3232262082348E+01
 0.3084403020445E+01
 0.2921464206480E+01
 0.2743752698344E+01
 0.2551491128849E+01
 0.2345039207326E+01
 0.2125078285088E+01
 0.1892799060121E+01
 0.1650139133795E+01
 0.1400129696497E+01
 0.1147446648623E+01
 0.8993403782065E+00
 0.6673031392909E+00
 0.4702601601487E+00
 0.3414625975822E+00
 0.3481836473586E+00
 0.3482321556004E+01
 0.3386136432703E+01
 0.3268931908715E+01
 0.3131669679816E+01
 0.2978152920522E+01
 0.2809936092964E+01
 0.2627546217295E+01
 0.2431278167085E+01
 0.2221569118908E+01
 0.1999239952619E+01
 0.1765700040618E+01
 0.1523186305208E+01
 0.1275086669269E+01
 0.1026404620580E+01
 0.7844455073654E+00
 0.5598568247197E+00
 0.3682450416032E+00
 0.2328389570781E+00
 0.1891202390579E+00
 0.2861243259765E+00
 0.3304162740610E+01
 0.3189851341735E+01
 0.3048109435379E+01
 0.2890208206332E+01
 0.2719089481658E+01
 0.2535063193546E+01
 0.2338368356814E+01
 0.2129551006247E+01
 0.1909661095323E+01
 0.1680387659714E+01
 0.1444236905005E+01
 0.1204778398299E+01
 0.9669810248525E+00
 0.7376574078056E+00
 0.5260303972902E+00
 0.3444096880143E+00
 0.2089052975662E+00
 0.1400668274946E+00
 0.1627046580576E+00
 0.2946415820584E+00
 0.3122658737300E+01
 0.2974156138764E+01
 0.2814934026125E+01
 0.2645688101933E+01
 0.2464119820709E+01
 0.2270437826283E+01
 0.2065621452897E+01
 0.1851240765961E+01
 0.1629406186276E+01
 0.1402861807025E+01
 0.1175140960626E+01
 0.9507723366285E+00
 0.7355268142543E+00
 0.5366865337543E+00
 0.3632830525086E+00
 0.2261728487890E+00
 0.1376816231558E+00
 0.1105501694421E+00
 0.1538004091371E+00
 0.2692332895094E+00
</DataArray>
<DataArray type="Float64" Name="S_Hyd" NumberOfComponents="1" ComponentName0="S_Hyd" format="ascii">
 0.3913674578800E+01
 0.2677176222997E+01
 0.2521014505160E+01
 0.2384851664299E+01
 0.2309785152170E+01
 0.2255213738864E+01
 0.2215726378738E+01
 0.2185480351395E+01
 0.2162001811180E+01
 0.2143698259133E+01
 0.2129735817994E+01
 0.2119718711683E+01
 0.2113590920182E+01
 0.2111580567258E+01
 0.2114202249904E+01
 0.2122315067281E+01
 0.2137283888533E+01
 0.2161390816542E+01
 0.2199613825235E+01
 0.2260265627798E+01
 0.2339826193854E+01
 0.2421279581243E+01
 0.2493217352976E+01
 0.2553970401618E+01
 0.2606980252612E+01
 0.2656928957055E+01
 0.2707911079027E+01
 0.2762938739944E+01
 0.2823720132253E+01
 0.2889431419926E+01
 0.2958052588948E+01
 0.3033699741386E+01
 0.3125114704471E+01
 0.3240645956558E+01
 0.3390397790747E+01
 0.3592330278868E+01
 0.3865974186007E+01
 0.4297720270347E+01
 0.4811927713972E+01
 0.6641401701129E+01
 0.1345514061139E+01
 0.3468395322572E+01
 0.2867837328672E+01
 0.2534164089061E+01
 0.2410391442191E+01
 0.2319860304507E+01
 0.2260453668882E+01
 0.2216460981675E+01
 0.2183318237529E+01
 0.2157696933941E+01
 0.2137871960594E+01
 0.2122828300985E+01
 0.2112070710845E+01
 0.2105466665782E+01
 0.2103189729727E+01
 0.2105712894621E+01
 0.2113864527657E+01
 0.2128977240602E+01
 0.2153349985429E+01
 0.2191276541263E+01
 0.2246285834299E+01
 0.2314064275332E+01
 0.2383671494402E+01
 0.2446753453572E+01
 0.2501267625848E+01
 0.2549211581027E+01
 0.2593882723947E+01
 0.2638341810528E+01
 0.2684799455261E+01
 0.2734168765389E+01
 0.2785784809115E+01
 0.2839208699966E+01
 0.2896853471328E+01
 0.2963442420925E+01
 0.3043767188179E+01
 0.3143023413902E+01
 0.3265162128560E+01
 0.3421800618591E+01
 0.3582739054356E+01
 0.3829649775970E+01
 0.3336879242311E+01
-0.1714134733756E+01
 0.3237147781076E+01
 0.2866170251174E+01
 0.2571870815757E+01
 0.2420370323723E+01
 0.2328117901271E+01
 0.2262822241923E+01
 0.2215666382761E+01
 0.2179937796868E+01
 0.2152470874046E+01
 0.2131272410672E+01
 0.2115231500224E+01
 0.2103760256081E+01
 0.2096660732348E+01
 0.2094051508751E+01
 0.2096356633583E+01
 0.2104350669457E+01
 0.2119295924632E+01
 0.2143316854770E+01
 0.2179353300416E+01
 0.2228537537783E+01
 0.2286796534342E+01
 0.2346434809620E+01
 0.2401341362710E+01
 0.2449495450867E+01
 0.2491921133143E+01
 0.2530836090990E+01
 0.2568408083957E+01
 0.2606111009397E+01
 0.2644345512361E+01
 0.2682592530115E+01
 0.2720595682097E+01
 0.2759378115937E+01
 0.2800761398240E+01
 0.2846102909451E+01
 0.2894619651251E+01
 0.2942872667631E+01
 0.2973299162513E+01
 0.2953047053332E+01
 0.2717889245683E+01
 0.1459614078644E+01
-0.2377367388424E+01
 0.3081911949312E+01
 0.2823551136355E+01
 0.2582416259227E+01
 0.2428034872165E+01
 0.2330986554732E+01
 0.2262989286038E+01
 0.2213048835857E+01
 0.2175314069702E+01
 0.2146258291250E+01
 0.2123860490036E+01
 0.2106911354702E+01
 0.2094760122885E+01
 0.2087149853479E+01
 0.2084145541820E+01
 0.2086114133677E+01
 0.2093756073389E+01
 0.2108217264901E+01
 0.2131221516755E+01
 0.2164555640737E+01
 0.2208109830304E+01
 0.2258259201034E+01
 0.2309309432221E+01
 0.2356670577489E+01
 0.2398482902589E+01
 0.2435118761516E+01
 0.2467958663128E+01
 0.2498413080196E+01
 0.2527335157307E+01
 0.2554746435999E+01
 0.2580050075605E+01
 0.2602703954503E+01
 0.2622478503961E+01
 0.2638930705077E+01
 0.2650135953054E+01
 0.2650891344867E+01
 0.2628479721804E+01
 0.2554785623547E+01
 0.2361060312072E+01
 0.1829136615273E+01
 0.4362608078181E+00
-0.2427035975531E+01
 0.2964230255908E+01
 0.2771169726464E+01
 0.2573852068227E+01
 0.2428599819069E+01
 0.2330124275740E+01
 0.2260401508726E+01
 0.2208684934518E+01
 0.2169366467088E+01
 0.2139029826746E+01
 0.2115603307685E+01
 0.2097843563947E+01
 0.2085050210921E+01
 0.2076918290424E+01
 0.2073459944901E+01
 0.2074977807454E+01
 0.2082081173525E+01
 0.2095738179955E+01
 0.2117214285807E+01
 0.2147443388935E+01
 0.2185661915418E+01
 0.2228695818014E+01
 0.2272174415962E+01
 0.2312544592545E+01
 0.2348120089918E+01
 0.2378831321189E+01
 0.2405410610905E+01
 0.2428641352266E+01
 0.2448862613696E+01
 0.2465757973316E+01
 0.2478508609854E+01
 0.2486111658374E+01
 0.2487235545574E+01
 0.2479560601232E+01
 0.2458558930612E+01
 0.2415095978581E+01
 0.2330925501783E+01
 0.2169152065636E+01
 0.1846517880495E+01
 0.1178183657107E+01
-0.1379814371177E+00
-0.2322046265821E+01
 0.2868833779849E+01
 0.2717556408911E+01
 0.2554131631640E+01
 0.2421850163778E+01
 0.2325453440780E+01
 0.2255220119857E+01
 0.2202506767527E+01
 0.2162090277348E+01
 0.2130758346265E+01
 0.2106482419879E+01
 0.2088011379298E+01
 0.2074618006262E+01
 0.2065957631683E+01
 0.2061991372478E+01
 0.2062952118667E+01
 0.2069340280108E+01
 0.2081911632387E+01
 0.2101505075444E+01
 0.2128451038174E+01
 0.2161645651654E+01
 0.2198312282521E+01
 0.2234992520952E+01
 0.2268850714593E+01
 0.2298346848372E+01
 0.2323101780025E+01
 0.2343345854319E+01
 0.2359350877953E+01
 0.2371025416778E+01
 0.2377733917176E+01
 0.2378365938466E+01
 0.2371418098818E+01
 0.2354608814665E+01
 0.2324140820216E+01
 0.2273443507389E+01
 0.2190691257732E+01
 0.2054331109202E+01
 0.1823739268336E+01
 0.1420629741724E+01
 0.7104303784540E+00
-0.4722265127436E+00
-0.2186163073329E+01
 0.2788126486488E+01
 0.2665380670640E+01
 0.2528071716430E+01
 0.2409140591558E+01
 0.2317044847940E+01
 0.2247562401405E+01
 0.2194543343035E+01
 0.2153483086773E+01
 0.2121438264863E+01
 0.2096488003997E+01
 0.2077406744873E+01
 0.2063458005498E+01
 0.2054266662799E+01
 0.2049744950937E+01
 0.2050051978653E+01
 0.2055567069988E+01
 0.2066827358125E+01
 0.2084308622244E+01
 0.2107921565915E+01
 0.2136393695515E+01
 0.2167281698411E+01
 0.2197773177819E+01
 0.2225535915039E+01
 0.2249141762893E+01
 0.2267986799297E+01
 0.2281911429667E+01
 0.2290772598168E+01
 0.2294115403641E+01
 0.2291005566110E+01
 0.2280024424579E+01
 0.2259194440193E+01
 0.2225458891286E+01
 0.2173905562231E+01
 0.2096549511970E+01
 0.1980013585248E+01
 0.1801512100996E+01
 0.1521820869994E+01
 0.1076111390434E+01
 0.3733253461195E+00
-0.6722708435880E+00
-0.2055157343667E+01
 0.2717759237510E+01
 0.2615440014813E+01
 0.2498457319166E+01
 0.2391947153813E+01
 0.2305267617231E+01
 0.2237558005395E+01
 0.2184861123445E+01
 0.2143566072651E+01
 0.2111076241305E+01
 0.2085620774171E+01
 0.2066029148244E+01
 0.2051571600799E+01
 0.2041851039896E+01
 0.2036733642774E+01
 0.2036302684365E+01
 0.2040812344048E+01
 0.2050593352080E+01
 0.2065826019414E+01
 0.2086131409072E+01
 0.2110163610879E+01
 0.2135752689024E+01
 0.2160552566101E+01
 0.2182588247076E+01
 0.2200512666118E+01
 0.2213553466520E+01
 0.2221246757660E+01
 0.2223113947318E+01
 0.2218393636430E+01
 0.2205880947952E+01
 0.2183866322831E+01
 0.2149962869932E+01
 0.2100520243224E+01
 0.2029859916218E+01
 0.1929177707950E+01
 0.1784542325549E+01
 0.1573764988770E+01
 0.1262174158467E+01
 0.7998483823611E+00
 0.1280671930167E+00
-0.7938419098098E+00
-0.1937214983444E+01
 0.2655005624926E+01
 0.2567859818122E+01
 0.2466912447807E+01
 0.2371488166598E+01
 0.2290619467927E+01
 0.2225389984498E+01
 0.2173547872133E+01
 0.2132380419727E+01
 0.2099691086738E+01
 0.2073890477039E+01
 0.2053885336825E+01
 0.2038966571586E+01
 0.2028722835405E+01
 0.2022977627599E+01
 0.2021738972771E+01
 0.2025139084881E+01
 0.2033323967781E+01
 0.2046239505217E+01
 0.2063307948664E+01
 0.2083162711425E+01
 0.2103855748020E+01
 0.2123382441132E+01
 0.2140023490622E+01
 0.2152488460535E+01
 0.2159875787101E+01
 0.2161483243537E+01
 0.2156561848504E+01
 0.2144094529575E+01
 0.2122641175140E+01
 0.2090239978633E+01
 0.2044179256369E+01
 0.1980395552926E+01
 0.1892765829444E+01
 0.1772186653456E+01
 0.1604998977596E+01
 0.1370893777838E+01
 0.1041008811110E+01
 0.5787063781017E+00
-0.5223086445043E-01
-0.8674724856703E+00
-0.1832487555602E+01
 0.2598047287378E+01
 0.2522516822581E+01
 0.2434398127209E+01
 0.2348687698263E+01
 0.2273603476605E+01
 0.2211281330651E+01
 0.2160710691085E+01
 0.2119981898079E+01
 0.2087312539906E+01
 0.2061314873589E+01
 0.2040988640176E+01
 0.2025656564829E+01
 0.2014899944295E+01
 0.2008503529901E+01
 0.2006403263686E+01
 0.2008617674524E+01
 0.2015133085150E+01
 0.2025712225357E+01
 0.2039641734021E+01
 0.2055563073153E+01
 0.2071707558389E+01
 0.2086323432451E+01
 0.2097875706123E+01
 0.2105112396251E+01
 0.2107031438053E+01
 0.2102743875353E+01
 0.2091284530343E+01
 0.2071427257897E+01
 0.2041537098869E+01
 0.1999450718829E+01
 0.1942224199374E+01
 0.1865551778946E+01
 0.1763147835689E+01
 0.1626036897986E+01
 0.1441440901606E+01
 0.1191624979147E+01
 0.8535804924633E+00
 0.4014213580840E+00
-0.1859406998848E+00
-0.9106234774081E+00
-0.1739130542032E+01
 0.2545615677326E+01
 0.2479204061199E+01
 0.2401488670841E+01
 0.2324224887647E+01
 0.2254671386506E+01
 0.2195469172233E+01
 0.2146471387904E+01
 0.2106437244809E+01
 0.2073979253420E+01
 0.2047918733045E+01
 0.2027358221209E+01
 0.2011660489601E+01
 0.2000405426588E+01
 0.1993343453906E+01
 0.1990343662929E+01
 0.1991322148344E+01
 0.1996130479207E+01
 0.2004389791162E+01
 0.2015295144715E+01
 0.2027511090174E+01
 0.2039413898794E+01
 0.2049440833677E+01
 0.2056190600812E+01
 0.2058436843906E+01
 0.2055099075593E+01
 0.2045142835549E+01
 0.2027432568367E+01
 0.2000576244551E+01
 0.1962786942590E+01
 0.1911755910111E+01
 0.1844399356912E+01
 0.1756322827980E+01
 0.1641312557515E+01
 0.1490845715029E+01
 0.1293408713504E+01
 0.1034072405781E+01
 0.6951124090348E+00
 0.2589066499160E+00
-0.2856827533322E+00
-0.9337089118540E+00
-0.1655137578491E+01
 0.2496794787478E+01
 0.2437698128544E+01
 0.2368527676346E+01
 0.2298592945421E+01
 0.2234205984161E+01
 0.2178184553125E+01
 0.2130959390148E+01
 0.2091821014783E+01
 0.2059736790927E+01
 0.2033732698186E+01
 0.2013018295157E+01
 0.1997001850875E+01
 0.1985266780823E+01
 0.1977533909406E+01
 0.1973612084485E+01
 0.1973327515361E+01
 0.1976420060789E+01
 0.1982402325093E+01
 0.1990408593865E+01
 0.1999133765447E+01
 0.2007071577307E+01
 0.2012801805560E+01
 0.2015020796671E+01
 0.2012519278012E+01
 0.2004156123342E+01
 0.1988785040358E+01
 0.1965139415463E+01
 0.1931701333807E+01
 0.1886575020310E+01
 0.1827362976829E+01
 0.1750927929205E+01
 0.1652918205957E+01
 0.1527375609532E+01
 0.1366452892068E+01
 0.1160090486571E+01
 0.8960946750112E+00
 0.5612253172532E+00
 0.1440166378818E+00
-0.3602423718730E+00
-0.9431926523728E+00
-0.1578807575486E+01
 0.2450904722999E+01
 0.2397786367498E+01
 0.2335718473959E+01
 0.2272148677251E+01
 0.2212521791128E+01
 0.2159640603001E+01
 0.2114304877738E+01
 0.2076212435374E+01
 0.2044635770615E+01
 0.2018792122713E+01
 0.1997997325747E+01
 0.1981708059373E+01
 0.1969515184535E+01
 0.1961114745643E+01
 0.1956262665005E+01
 0.1954707957003E+01
 0.1956099191357E+01
 0.1959866493741E+01
 0.1965105044454E+01
 0.1970542990980E+01
 0.1974769752875E+01
 0.1976473481144E+01
 0.1974422462421E+01
 0.1967419275922E+01
 0.1954277053318E+01
 0.1933765742579E+01
 0.1904521779475E+01
 0.1864938117970E+01
 0.1813051614109E+01
 0.1746429827224E+01
 0.1661958618903E+01
 0.1555435980146E+01
 0.1421293120482E+01
 0.1252490667702E+01
 0.1040467040219E+01
 0.7755262783050E+00
 0.4480900061413E+00
 0.5118275519166E-01
-0.4158365398943E+00
-0.9432347087629E+00
-0.1508796596376E+01
 0.2407429268820E+01
 0.2359276772559E+01
 0.2303177911688E+01
 0.2245150055407E+01
 0.2189872902138E+01
 0.2140027219759E+01
 0.2096633515084E+01
 0.2059692456733E+01
 0.2028730135307E+01
 0.2003135938738E+01
 0.1982327209182E+01
 0.1965809724110E+01
 0.1953184724120E+01
 0.1944128152040E+01
 0.1938350486752E+01
 0.1935535654221E+01
 0.1935258566481E+01
 0.1936887311511E+01
 0.1939493312618E+01
 0.1941838500973E+01
 0.1942590817468E+01
 0.1940521611073E+01
 0.1934452852363E+01
 0.1923196238264E+01
 0.1905532014856E+01
 0.1880170162203E+01
 0.1845679918110E+01
 0.1800398458184E+01
 0.1742333735664E+01
 0.1669066994862E+01
 0.1577571935738E+01
 0.1463878179712E+01
 0.1322894710840E+01
 0.1148448841920E+01
 0.9334234911580E+00
 0.6703089653090E+00
 0.3524412404376E+00
-0.2393205886370E-01
-0.4569415715845E+00
-0.9365985539594E+00
-0.1444059441723E+01
 0.2365968928640E+01
 0.2322000329185E+01
 0.2270969049891E+01
 0.2217783670204E+01
 0.2166462693475E+01
 0.2119509861776E+01
 0.2078063028785E+01
 0.2042341264434E+01
 0.2012075578557E+01
 0.1986805588632E+01
 0.1966042472880E+01
 0.1949339948555E+01
 0.1936311647525E+01
 0.1926617766220E+01
 0.1919930583957E+01
 0.1915880051706E+01
 0.1913982389428E+01
 0.1913559666957E+01
 0.1913670505605E+01
 0.1913109944019E+01
 0.1910610988339E+01
 0.1905009575748E+01
 0.1895168497233E+01
 0.1879907671330E+01
 0.1857985776087E+01
 0.1828073213797E+01
 0.1788697987254E+01
 0.1738171287692E+01
 0.1674506647875E+01
 0.1595341059237E+01
 0.1497788016463E+01
 0.1378167236095E+01
 0.1231915137901E+01
 0.1053729722508E+01
 0.8378270730298E+00
 0.5785563160257E+00
 0.2715309017629E+00
-0.8471956875242E-01
-0.4868366033688E+00
-0.9251694833348E+00
-0.1383775105888E+01
 0.2326209432739E+01
 0.2285810121230E+01
 0.2239121396966E+01
 0.2190184506615E+01
 0.2142453151568E+01
 0.2098230621902E+01
 0.2058701356235E+01
 0.2024236390770E+01
 0.1994728187335E+01
 0.1969844056489E+01
 0.1949179524498E+01
 0.1932333665255E+01
 0.1918933680058E+01
 0.1908627921093E+01
 0.1901057206289E+01
 0.1895807439231E+01
 0.1892348703739E+01
 0.1889969614425E+01
 0.1887723874661E+01
 0.1884438404361E+01
 0.1878900763222E+01
 0.1869997719734E+01
 0.1856623944117E+01
 0.1837607990697E+01
 0.1811697037080E+01
 0.1777539478621E+01
 0.1733644637340E+01
 0.1678323851460E+01
 0.1609626150298E+01
 0.1525279114552E+01
 0.1422575427242E+01
 0.1298162467766E+01
 0.1148022806466E+01
 0.9676914362826E+00
 0.7525775041717E+00
 0.4985777656056E+00
 0.2030604738840E+00
-0.1338504758889E+00
-0.5079657928475E+00
-0.9102622513378E+00
-0.1327279715943E+01
 0.2287900016272E+01
 0.2250579184053E+01
 0.2207643607711E+01
 0.2162450128903E+01
 0.2117972995029E+01
 0.2076310387227E+01
 0.2038645933726E+01
 0.2005451406967E+01
 0.1976743323904E+01
 0.1952295005956E+01
 0.1931775955350E+01
 0.1914827011856E+01
 0.1901089403198E+01
 0.1890203012382E+01
 0.1881783272268E+01
 0.1875380727853E+01
 0.1870429772898E+01
 0.1866195434270E+01
 0.1861732218512E+01
 0.1855897516736E+01
 0.1847525254395E+01
 0.1835542879442E+01
 0.1818870852728E+01
 0.1796347668990E+01
 0.1766717983321E+01
 0.1728623325192E+01
 0.1680573755106E+01
 0.1620903202686E+01
 0.1547721289913E+01
 0.1458873721991E+01
 0.1351860105442E+01
 0.1223675415446E+01
 0.1070843789019E+01
 0.8896798923127E+00
 0.6766367264756E+00
 0.4288793163705E+00
 0.1451117484589E+00
-0.1734458521522E+00
-0.5221857007595E+00
-0.8928137055865E+00
-0.1274007869196E+01
 0.2250838071724E+01
 0.2216198009489E+01
 0.2176531533319E+01
 0.2134650862128E+01
 0.2093124417411E+01
 0.2053851386323E+01
 0.2017983738837E+01
 0.1986055115501E+01
 0.1958174754618E+01
 0.1934202038392E+01
 0.1913869912251E+01
 0.1896856762681E+01
 0.1882817706145E+01
 0.1871386979308E+01
 0.1862159972854E+01
 0.1854659355570E+01
 0.1848292465268E+01
 0.1842308504509E+01
 0.1835766965660E+01
 0.1827554307954E+01
 0.1816544456211E+01
 0.1801698070133E+01
 0.1781957376682E+01
 0.1756172673357E+01
 0.1723094066382E+01
 0.1681369199398E+01
 0.1629525373996E+01
 0.1565937930763E+01
 0.1488797367111E+01
 0.1396088070038E+01
 0.1285534000459E+01
 0.1154483486737E+01
 0.9999811615217E+00
 0.8190512144438E+00
 0.6090443379853E+00
 0.3681521778298E+00
 0.9608360320636E-01
-0.2052043351975E+00
-0.5309403822119E+00
-0.8735169966948E+00
-0.1223442707403E+01
 0.2214858081534E+01
 0.2182572097436E+01
 0.2145773358466E+01
 0.2106837121824E+01
 0.2067988540680E+01
 0.2030939741473E+01
 0.1996791787237E+01
 0.1966111134020E+01
 0.1939074008037E+01
 0.1915608074744E+01
 0.1895499544416E+01
 0.1878459822128E+01
 0.1864157310678E+01
 0.1852222884027E+01
 0.1842236488971E+01
 0.1833699274945E+01
 0.1825998620221E+01
 0.1818374018065E+01
 0.1809893021189E+01
 0.1799469848505E+01
 0.1786013473758E+01
 0.1768512297548E+01
 0.1745927764982E+01
 0.1717124134187E+01
 0.1680863976857E+01
 0.1635812066601E+01
 0.1580526727498E+01
 0.1513440049165E+01
 0.1432839081752E+01
 0.1336861081203E+01
 0.1223463069450E+01
 0.1090341610271E+01
 0.9350299778693E+00
 0.7551865342942E+00
 0.5489238789818E+00
 0.3152552460979E+00
 0.5463854799595E-01
-0.2304974378937E+00
-0.5353723741984E+00
-0.8529629543150E+00
-0.1175056472787E+01
 0.2179823525098E+01
 0.2149619672761E+01
 0.2115352917549E+01
 0.2079044697214E+01
 0.2042629765328E+01
 0.2007647833942E+01
 0.1975137872642E+01
 0.1945677765440E+01
 0.1919489931432E+01
 0.1896554856984E+01
 0.1876702527844E+01
 0.1859672782286E+01
 0.1845146366289E+01
 0.1832752575115E+01
 0.1822059794522E+01
 0.1812552991222E+01
 0.1803605384914E+01
 0.1794451575553E+01
 0.1784169439828E+01
 0.1771699771568E+01
 0.1755982730332E+01
 0.1736030468645E+01
 0.1710822135460E+01
 0.1679238198660E+01
 0.1640059776840E+01
 0.1591977981733E+01
 0.1533593410950E+01
 0.1463406971599E+01
 0.1379813688366E+01
 0.1281112269921E+01
 0.1165494415521E+01
 0.1030991874431E+01
 0.8755883779754E+00
 0.6975012755513E+00
 0.4954825703333E+00
 0.2691979916621E+00
 0.1965172458768E-01
-0.2504273551581E+00
-0.5364089535345E+00
-0.8316929586545E+00
-0.1128609110014E+01
 0.2145626927635E+01
 0.2117284408649E+01
 0.2085273337085E+01
 0.2051325755740E+01
 0.2017130748173E+01
 0.1984071457255E+01
 0.1953119497139E+01
 0.1924849017122E+01
 0.1899512295281E+01
 0.1877129617274E+01
 0.1857566271501E+01
 0.1840586199055E+01
 0.1825881453330E+01
 0.1813081252306E+01
 0.1801745831727E+01
 0.1791348619645E+01
 0.1781253616433E+01
 0.1770694519866E+01
 0.1758761340500E+01
 0.1744420487383E+01
 0.1726640329470E+01
 0.1704453826124E+01
 0.1676856963639E+01
 0.1642748517120E+01
 0.1600933171289E+01
 0.1550135665806E+01
 0.1489007391826E+01
 0.1416126515515E+01
 0.1330002715595E+01
 0.1229098613605E+01
 0.1111834728079E+01
 0.9765570663329E+00
 0.8216553386900E+00
 0.6458299520423E+00
 0.4483605112479E+00
 0.2294201473025E+00
-0.9593321913182E-02
-0.2658044823774E+00
-0.5347139408667E+00
-0.8105278595592E+00
-0.1084879427015E+01
 0.2112165845406E+01
 0.2085499687761E+01
 0.2055509263757E+01
 0.2023692107169E+01
 0.1991527993198E+01
 0.1960258983295E+01
 0.1930787481500E+01
 0.1903673107236E+01
 0.1879185146504E+01
 0.1857372789571E+01
 0.1838129160192E+01
 0.1821238271008E+01
 0.1806402343345E+01
 0.1793251649068E+01
 0.1781341076667E+01
 0.1770136322646E+01
 0.1758996123418E+01
 0.1747156347513E+01
 0.1733720390067E+01
 0.1717679296705E+01
 0.1698027218133E+01
 0.1673815820110E+01
 0.1644057555717E+01
 0.1607671411963E+01
 0.1563489708477E+01
 0.1510276450063E+01
 0.1446740066991E+01
 0.1371541561530E+01
 0.1283308484701E+01
 0.1180665853380E+01
 0.1062253021125E+01
 0.9267061493564E+00
 0.7727765402567E+00
 0.5995784441512E+00
 0.4068233812895E+00
 0.1950778108940E+00
-0.3398930444764E-01
-0.2774265683905E+00
-0.5310045475660E+00
-0.7892067228766E+00
-0.1046402439619E+01
 0.2079359328412E+01
 0.2054201198017E+01
 0.2026024518340E+01
 0.1996132094824E+01
 0.1965825788961E+01
 0.1936220890501E+01
 0.1908151049659E+01
 0.1882153724926E+01
 0.1858505044670E+01
 0.1837273906975E+01
 0.1818374599307E+01
 0.1801607335840E+01
 0.1786683121869E+01
 0.1773233888646E+01
 0.1760811226552E+01
 0.1748875976017E+01
 0.1736784567144E+01
 0.1723777246145E+01
 0.1708971544618E+01
 0.1691382201118E+01
 0.1670027185799E+01
 0.1643975266893E+01
 0.1612255220927E+01
 0.1573807916887E+01
 0.1527496634107E+01
 0.1472129092207E+01
 0.1406475485554E+01
 0.1329283495829E+01
 0.1239299957323E+01
 0.1135309162560E+01
 0.1016158552465E+01
 0.8807515216749E+00
 0.7281616676618E+00
 0.5578587204140E+00
 0.3699097212783E+00
 0.1651850952531E+00
-0.5445610166268E-01
-0.2860680613110E+00
-0.5256187937016E+00
-0.7682775992842E+00
-0.1008836129336E+01
 0.2047137962103E+01
 0.2023341988761E+01
 0.1996799867615E+01
 0.1968652404506E+01
 0.1940049357529E+01
 0.1911992652808E+01
 0.1885249206383E+01
 0.1860329278392E+01
 0.1837508044807E+01
 0.1816866579038E+01
 0.1798334589790E+01
 0.1781724992904E+01
 0.1766756189151E+01
 0.1753062116792E+01
 0.1740192672276E+01
 0.1727606139070E+01
 0.1714658979093E+01
 0.1700597497327E+01
 0.1684553832329E+01
 0.1665565522375E+01
 0.1642672715941E+01
 0.1614960051814E+01
 0.1581472606803E+01
 0.1541174492374E+01
 0.1492962483539E+01
 0.1435691220528E+01
 0.1368195740048E+01
 0.1289312253752E+01
 0.1197906043501E+01
 0.1092915259566E+01
 0.9733827752105E+00
 0.8384557465762E+00
 0.6874928155346E+00
 0.5202672699304E+00
 0.3371366868687E+00
 0.1392054764504E+00
-0.7154500074023E-01
-0.2922018076071E+00
-0.5189888703995E+00
-0.7474980427323E+00
-0.9731044473051E+00
 0.2015442069973E+01
 0.1992880422798E+01
 0.1967816734279E+01
 0.1941256319854E+01
 0.1914218451182E+01
 0.1887603859478E+01
 0.1862115747861E+01
 0.1838234061140E+01
 0.1816227146866E+01
 0.1796182159306E+01
 0.1778039352359E+01
 0.1761621231087E+01
 0.1746652244214E+01
 0.1732768482180E+01
 0.1719519374716E+01
 0.1706362458061E+01
 0.1692656046220E+01
 0.1677653751288E+01
 0.1660502555722E+01
 0.1640261924559E+01
 0.1615992766911E+01
 0.1586794600828E+01
 0.1551728800171E+01
 0.1509783736438E+01
 0.1459891471031E+01
 0.1400955644914E+01
 0.1331877762571E+01
 0.1251582712663E+01
 0.1159051561326E+01
 0.1053369182788E+01
 0.9337600884704E+00
 0.7995919531044E+00
 0.6504739061857E+00
 0.4864370072355E+00
 0.3080752101166E+00
 0.1166700194409E+00
-0.8572080918906E-01
-0.2962499974117E+00
-0.5113680323878E+00
-0.7270416396020E+00
-0.9390780531286E+00
 0.1984219854214E+01
 0.1962779443553E+01
 0.1939057232090E+01
 0.1913944556138E+01
 0.1888348356778E+01
 0.1863079103622E+01
 0.1838779860506E+01
 0.1815898563376E+01
 0.1794692389882E+01
 0.1775249706948E+01
 0.1757517224889E+01
 0.1741324310511E+01
 0.1726400186116E+01
 0.1712383085425E+01
 0.1698822883819E+01
 0.1685177767487E+01
 0.1670809289966E+01
 0.1654979259832E+01
 0.1636849541223E+01
 0.1615500648786E+01
 0.1590012979998E+01
 0.1559500082805E+01
 0.1523039571925E+01
 0.1479644736553E+01
 0.1428284018869E+01
 0.1367911130972E+01
 0.1297494404406E+01
 0.1216046119653E+01
 0.1122659012601E+01
 0.1016556330139E+01
 0.8971298751787E+00
 0.7639453955518E+00
 0.6168309016652E+00
 0.4560353715837E+00
 0.2823438880025E+00
 0.9717075005011E-01
-0.9738560797405E-01
-0.2985570021052E+00
-0.5030030702356E+00
-0.7070086335592E+00
-0.9067455008743E+00
 0.1953425956066E+01
 0.1933005857469E+01
 0.1910504187699E+01
 0.1886715837460E+01
 0.1862450690477E+01
 0.1838438707514E+01
 0.1815266641458E+01
 0.1793349763814E+01
 0.1772930960285E+01
 0.1754095975184E+01
 0.1736794588361E+01
 0.1720860669944E+01
 0.1706027035825E+01
 0.1691933941096E+01
 0.1678132359645E+01
 0.1664082179323E+01
 0.1649149218990E+01
 0.1632604073054E+01
 0.1613623351956E+01
 0.1591307718797E+01
 0.1564755872088E+01
 0.1533094608293E+01
 0.1495417622819E+01
 0.1450763416411E+01
 0.1398137262983E+01
 0.1336543118902E+01
 0.1265015411833E+01
 0.1182651344740E+01
 0.1088650088049E+01
 0.9823641019345E+00
 0.8633380287424E+00
 0.7313144012276E+00
 0.5863115591983E+00
 0.4287619204408E+00
 0.2596043760387E+00
 0.8035105349783E-01
-0.1068840358377E+00
-0.2994184474154E+00
-0.4941022864698E+00
-0.6874951267324E+00
-0.8760807053823E+00
 0.1923020296359E+01
 0.1903529705350E+01
 0.1882141111310E+01
 0.1859567316133E+01
 0.1836534017036E+01
 0.1813699318239E+01
 0.1791597546726E+01
 0.1770611398647E+01
 0.1750967307036E+01
 0.1732745420061E+01
 0.1715895816518E+01
 0.1700254856218E+01
 0.1685557875559E+01
 0.1671446950136E+01
 0.1657474594086E+01
 0.1643103161220E+01
 0.1627703459577E+01
 0.1610555206520E+01
 0.1590849470743E+01
 0.1567706123330E+01
 0.1540241015500E+01
 0.1507593424407E+01
 0.1468872828084E+01
 0.1423142875185E+01
 0.1369445534155E+01
 0.1306834389026E+01
 0.1234408305104E+01
 0.1151345976453E+01
 0.1056946934699E+01
 0.9506832148617E+00
 0.8322380656069E+00
 0.7015108933872E+00
 0.5586847998008E+00
 0.4043460423123E+00
 0.2395566329396E+00
 0.6589938444894E-01
-0.1145136622609E+00
-0.2990875364007E+00
-0.4848448988306E+00
-0.6685842398459E+00
-0.8470589761096E+00
 0.1892967125808E+01
 0.1874323721571E+01
 0.1853952133250E+01
 0.1832494879516E+01
 0.1810604337843E+01
 0.1788874401152E+01
 0.1767790782140E+01
 0.1747704213816E+01
 0.1728823267468E+01
 0.1711220234377E+01
 0.1694843256255E+01
 0.1679529484819E+01
 0.1665015816739E+01
 0.1650945895963E+01
 0.1636874049267E+01
 0.1622265623294E+01
 0.1606496887469E+01
 0.1588856806346E+01
 0.1568550483079E+01
 0.1544716005905E+01
 0.1516485235396E+01
 0.1483009136050E+01
 0.1443412512047E+01
 0.1396783752822E+01
 0.1342200852115E+01
 0.1278765716487E+01
 0.1205639210633E+01
 0.1122077320865E+01
 0.1027473264581E+01
 0.9214087903182E+00
 0.8036919656141E+00
 0.6743606382504E+00
 0.5337399403869E+00
 0.3825446869370E+00
 0.2219349369869E+00
 0.5354330952432E-01
-0.1205320152103E+00
-0.2977820481599E+00
-0.4753849489273E+00
-0.6503476891404E+00
-0.8196571217861E+00
 0.1863234240044E+01
 0.1845362868466E+01
 0.1825921918658E+01
 0.1805493370272E+01
 0.1784665473083E+01
 0.1763974644464E+01
 0.1743861638259E+01
 0.1724646193039E+01
 0.1706518191800E+01
 0.1689540393230E+01
 0.1673657224905E+01
 0.1658705217684E+01
 0.1644421982233E+01
 0.1630452449587E+01
 0.1616352897861E+01
 0.1601591998833E+01
 0.1585551746444E+01
 0.1567530296713E+01
 0.1546746242374E+01
 0.1522354840512E+01
 0.1493502798275E+01
 0.1459351921790E+01
 0.1419041716304E+01
 0.1371684581038E+01
 0.1316393389393E+01
 0.1252316470643E+01
 0.1178673602827E+01
 0.1094793265355E+01
 0.1000155276326E+01
 0.8944412071101E+00
 0.7775707488214E+00
 0.6497032580790E+00
 0.5112857939188E+00
 0.3631402303853E+00
 0.2065043007193E+00
 0.4304454833424E-01
-0.1251623567617E+00
-0.2956897236637E+00
-0.4658550453216E+00
-0.6328472025110E+00
-0.7938548030736E+00
 0.1833792325350E+01
 0.1816623934866E+01
 0.1798035570837E+01
 0.1778556742608E+01
 0.1758719361634E+01
 0.1739008291715E+01
 0.1719822777444E+01
 0.1701452763502E+01
 0.1684069064991E+01
 0.1667723708924E+01
 0.1652356022437E+01
 0.1637800756921E+01
 0.1623795502430E+01
 0.1609986184228E+01
 0.1595931067020E+01
 0.1581102322171E+01
 0.1564887758424E+01
 0.1546594515632E+01
 0.1525454023410E+01
 0.1500637598273E+01
 0.1471305595202E+01
 0.1436629746582E+01
 0.1395763462846E+01
 0.1347842121600E+01
 0.1292011907893E+01
 0.1227465165036E+01
 0.1153476966583E+01
 0.1069443026412E+01
 0.9749224216455E+00
 0.8696867665866E+00
 0.7537548565404E+00
 0.6273920858732E+00
 0.4911497258405E+00
 0.3459384922994E+00
 0.1930573297106E+00
 0.3419480065162E-01
-0.1285983848212E+00
-0.2929726573345E+00
-0.4563695204196E+00
-0.6161361616908E+00
-0.7696350102365E+00
 0.1804614409613E+01
 0.1788085188306E+01
 0.1770278528806E+01
 0.1751678169196E+01
 0.1732766294126E+01
 0.1713981412407E+01
 0.1695684476437E+01
 0.1678136976831E+01
 0.1661490619972E+01
 0.1645785887650E+01
 0.1630955950468E+01
 0.1616832846242E+01
 0.1603153517016E+01
 0.1589564591533E+01
 0.1575626278436E+01
 0.1560814296735E+01
 0.1544522218535E+01
 0.1526065832268E+01
 0.1504688656410E+01
 0.1479576895741E+01
 0.1449903308142E+01
 0.1414848557500E+01
 0.1373578996577E+01
 0.1325251675430E+01
 0.1269044151958E+01
 0.1204189943418E+01
 0.1130015369705E+01
 0.1045977777371E+01
 0.9517080225091E+00
 0.8470581889853E+00
 0.7321343678623E+00
 0.6072939022973E+00
 0.4731766991947E+00
 0.3307669168629E+00
 0.1814114822746E+00
 0.2681223391913E-01
-0.1310081038106E+00
-0.2897708913751E+00
-0.4470271084653E+00
-0.6002610434990E+00
-0.7469841811164E+00
 0.1775675399228E+01
 0.1759726073918E+01
 0.1742636465361E+01
 0.1724850113506E+01
 0.1706805095915E+01
 0.1688898124839E+01
 0.1671454834006E+01
 0.1654709670957E+01
 0.1638795445487E+01
 0.1623740590182E+01
 0.1609471340292E+01
 0.1595816282872E+01
 0.1582511185990E+01
 0.1569203103908E+01
 0.1555454090245E+01
 0.1540743360355E+01
 0.1524470083474E+01
 0.1505958255177E+01
 0.1484462651527E+01
 0.1459183134620E+01
 0.1429303568951E+01
 0.1394012471918E+01
 0.1352488017067E+01
 0.1303907373656E+01
 0.1247477211351E+01
 0.1182469018921E+01
 0.1108255967713E+01
 0.1024351186024E+01
 0.9304497785027E+00
 0.8264749910747E+00
 0.7126091109279E+00
 0.5892886168376E+00
 0.4572283610742E+00
 0.3174729435547E+00
 0.1714067070938E+00
 0.2073853486412E-01
-0.1325370198182E+00
-0.2862053749383E+00
-0.4379131862343E+00
-0.5852626228804E+00
-0.7258921659704E+00
 0.1746951686186E+01
 0.1731526953166E+01
 0.1715095188526E+01
 0.1698064376949E+01
 0.1680833271106E+01
 0.1663760780379E+01
 0.1647139949400E+01
 0.1631179615326E+01
 0.1615994088694E+01
 0.1601599495589E+01
 0.1587914588640E+01
 0.1574763938742E+01
 0.1561881709133E+01
 0.1548915122761E+01
 0.1535427941231E+01
 0.1520902748981E+01
 0.1504744054917E+01
 0.1486283533389E+01
 0.1464786315415E+01
 0.1439464633808E+01
 0.1409512110899E+01
 0.1374123957076E+01
 0.1332488897993E+01
 0.1283802449176E+01
 0.1227297853793E+01
 0.1162281068229E+01
 0.1088167446591E+01
 0.1004519873000E+01
 0.9110901821538E+00
 0.8078637702639E+00
 0.6950886997835E+00
 0.5732689243100E+00
 0.4431821922184E+00
 0.3059225668175E+00
 0.1629034192352E+00
 0.1583643787543E-01
-0.1333107832430E+00
-0.2823804027478E+00
-0.4291016280618E+00
-0.5711769582753E+00
-0.7063521028751E+00
 0.1718420813229E+01
 0.1703468876184E+01
 0.1687640547281E+01
 0.1671312126464E+01
 0.1654847114483E+01
 0.1638570114366E+01
 0.1622744073777E+01
 0.1607553638533E+01
 0.1593095149288E+01
 0.1579372363268E+01
 0.1566296195657E+01
 0.1553686785167E+01
 0.1541276348051E+01
 0.1528712046818E+01
 0.1515559191671E+01
 0.1501303553284E+01
 0.1485354652416E+01
 0.1467051244466E+01
 0.1445667853281E+01
 0.1420427746059E+01
 0.1390532903777E+01
 0.1355183990945E+01
 0.1313578883355E+01
 0.1264929477673E+01
 0.1208492816628E+01
 0.1143605572049E+01
 0.1069720397802E+01
 0.9864437897248E+00
 0.8935768466261E+00
 0.7911584053666E+00
 0.6794925110531E+00
 0.5591399504641E+00
 0.4309307253853E+00
 0.2959990719112E+00
 0.1557807732887E+00
 0.1198765690336E-01
-0.1334373724818E+00
-0.2783856178161E+00
-0.4206563258022E+00
-0.5580361753458E+00
-0.6883602646823E+00
 0.1690061187691E+01
 0.1675533383861E+01
 0.1660258343964E+01
 0.1644583909562E+01
 0.1628841800252E+01
 0.1613325372117E+01
 0.1598269741409E+01
 0.1583836743341E+01
 0.1570105368654E+01
 0.1557067095999E+01
 0.1544624807608E+01
 0.1532593923658E+01
 0.1520704453859E+01
 0.1508603304199E+01
 0.1495857165174E+01
 0.1481954773205E+01
 0.1466310281459E+01
 0.1448268875592E+01
 0.1427113462589E+01
 0.1402076965362E+01
 0.1372368278497E+01
 0.1337192210246E+01
 0.1295754266687E+01
 0.1247280595161E+01
 0.1191049066335E+01
 0.1126423113115E+01
 0.1052887640293E+01
 0.9700865350448E+00
 0.8778627697296E+00
 0.7763002022935E+00
 0.6657496307875E+00
 0.5468189146069E+00
 0.4203808510647E+00
 0.2876019476806E+00
 0.1499352090829E+00
 0.9091169371157E-02
-0.1330088884009E+00
-0.2742976491373E+00
-0.4126324269795E+00
-0.5458690980908E+00
-0.6719158963272E+00
 0.1661851835634E+01
 0.1647702334725E+01
 0.1632934252376E+01
 0.1617869658797E+01
 0.1602811450533E+01
 0.1588024412188E+01
 0.1573717880992E+01
 0.1560032207380E+01
 0.1547029710660E+01
 0.1534689799447E+01
 0.1522907258985E+01
 0.1511492617183E+01
 0.1500173494703E+01
 0.1488596382427E+01
 0.1476329185744E+01
 0.1462863364712E+01
 0.1447617290856E+01
 0.1429941891560E+01
 0.1409127411714E+01
 0.1384415017534E+01
 0.1355019032847E+01
 0.1320147036563E+01
 0.1279010543716E+01
 0.1230847682579E+01
 0.1174954017044E+01
 0.1110715624305E+01
 0.1037644484368E+01
 0.9554156084988E+00
 0.8639065357524E+00
 0.7632379893275E+00
 0.6537987776136E+00
 0.5362348134844E+00
 0.4114532079548E+00
 0.2806459612203E+00
 0.1452792383835E+00
 0.7061804430044E-02
-0.1321030161985E+00
-0.2701814366222E+00
-0.4050773301960E+00
-0.5347017408108E+00
-0.6570210762214E+00
 0.1633772190754E+01
 0.1619957753862E+01
 0.1605653742578E+01
 0.1591158689448E+01
 0.1576749188643E+01
 0.1562663791707E+01
 0.1549087910819E+01
 0.1536141671924E+01
 0.1523871435265E+01
 0.1512244838431E+01
 0.1501148613889E+01
 0.1490388321598E+01
 0.1479689082880E+01
 0.1468696856349E+01
 0.1456980610341E+01
 0.1444034279325E+01
 0.1429280020235E+01
 0.1412073790537E+01
 0.1391712104400E+01
 0.1367442934751E+01
 0.1338484518981E+01
 0.1304045781145E+01
 0.1263342539447E+01
 0.1215622519145E+01
 0.1160195711140E+01
 0.1096466591961E+01
 0.1023968945156E+01
 0.9424026110988E+00
 0.8516724691833E+00
 0.7519281785539E+00
 0.6435882194196E+00
 0.5273281411526E+00
 0.4040816660888E+00
 0.2750603908573E+00
 0.1417404543033E+00
 0.5829102794613E-02
-0.1307841969314E+00
-0.2660912872819E+00
-0.3980314735833E+00
-0.5245576948337E+00
-0.6436805835511E+00
 0.1605801912610E+01
 0.1592281701617E+01
 0.1578402013284E+01
 0.1564439694011E+01
 0.1550647182307E+01
 0.1537238839319E+01
 0.1524377822937E+01
 0.1512165223195E+01
 0.1500632168806E+01
 0.1489734893465E+01
 0.1479352210102E+01
 0.1469284720824E+01
 0.1459255005486E+01
 0.1448908418333E+01
 0.1437814861784E+01
 0.1425470501716E+01
 0.1411300843344E+01
 0.1394666153532E+01
 0.1374868136028E+01
 0.1351160120002E+01
 0.1322762718602E+01
 0.1288884734411E+01
 0.1248744515917E+01
 0.1201596911344E+01
 0.1146762969787E+01
 0.1083661223661E+01
 0.1011841916763E+01
 0.9310234067816E+00
 0.8411307554463E+00
 0.7423348097659E+00
 0.6350756994554E+00
 0.5200506576454E+00
 0.3982129089699E+00
 0.2707884139606E+00
 0.1392607479177E+00
 0.5336421078164E-02
-0.1291045438413E+00
-0.2620716994950E+00
-0.3915289507543E+00
-0.5154584305616E+00
-0.6319018071952E+00
 0.1577920730142E+01
 0.1564656159184E+01
 0.1551163930846E+01
 0.1537700733902E+01
 0.1524496677724E+01
 0.1511743716336E+01
 0.1499584255998E+01
 0.1488101464759E+01
 0.1477311968397E+01
 0.1467161014123E+01
 0.1457519701771E+01
 0.1448183761257E+01
 0.1438873253809E+01
 0.1429232905802E+01
 0.1418833456930E+01
 0.1407173080185E+01
 0.1393680201735E+01
 0.1377718681874E+01
 0.1358594335576E+01
 0.1335564394873E+01
 0.1307850298761E+01
 0.1274659232713E+01
 0.1235210253028E+01
 0.1188762790063E+01
 0.1134645506421E+01
 0.1072286574441E+01
 0.1001247302467E+01
 0.9212582415894E+00
 0.8322575274114E+00
 0.7344295768805E+00
 0.6282283720892E+00
 0.5143652051613E+00
 0.3938061097530E+00
 0.2677866389061E+00
 0.1377957146972E+00
 0.5540257368192E-02
-0.1271045294606E+00
-0.2581579796713E+00
-0.3855979709804E+00
-0.5074235244606E+00
-0.6216946796105E+00
 0.1550108307089E+01
 0.1537062929394E+01
 0.1523923974987E+01
 0.1510929230136E+01
 0.1498288027221E+01
 0.1486171469058E+01
 0.1474702559460E+01
 0.1463947583116E+01
 0.1453909382047E+01
 0.1444522670399E+01
 0.1435651101620E+01
 0.1427085686278E+01
 0.1418544052387E+01
 0.1409670327162E+01
 0.1400036031370E+01
 0.1389141151432E+01
 0.1376416630409E+01
 0.1361229224279E+01
 0.1342887794871E+01
 0.1320652032186E+01
 0.1293742649755E+01
 0.1261363703878E+01
 0.1222733104169E+01
 0.1177112278021E+01
 0.1123834006030E+01
 0.1062331635251E+01
 0.9921721059696E+00
 0.9130918268777E+00
 0.8250349251549E+00
 0.7281918449893E+00
 0.6230227559896E+00
 0.5102455776878E+00
 0.3908327037378E+00
 0.2660247781384E+00
 0.1373142414347E+00
 0.6409782845390E-02
-0.1248134627106E+00
-0.2543766713417E+00
-0.3802611816558E+00
-0.5004708226246E+00
-0.6130716416536E+00
 0.1522344126507E+01
 0.1509483550989E+01
 0.1496666191001E+01
 0.1484111953881E+01
 0.1472010712047E+01
 0.1460514073933E+01
 0.1449726850516E+01
 0.1439699407388E+01
 0.1430421504810E+01
 0.1421817801959E+01
 0.1413744822309E+01
 0.1405989070308E+01
 0.1398265887162E+01
 0.1390218885602E+01
 0.1381420360193E+01
 0.1371371959219E+01
 0.1359506775005E+01
 0.1345193793102E+01
 0.1327743884577E+01
 0.1306417772828E+01
 0.1280433904343E+01
 0.1248991690711E+01
 0.1211306025897E+01
 0.1166637727004E+01
 0.1114320170191E+01
 0.1053787384268E+01
 0.9846064851200E+00
 0.9065133888922E+00
 0.8194511321132E+00
 0.7236086616421E+00
 0.6194447081158E+00
 0.5076764462611E+00
 0.3892762570578E+00
 0.2654854588768E+00
 0.1377982663628E+00
 0.7926568603756E-02
-0.1222497690358E+00
-0.2507458098766E+00
-0.3755358638770E+00
-0.4946165473278E+00
-0.6060476385761E+00
 0.1494607392116E+01
 0.1481899225020E+01
 0.1469374148148E+01
 0.1457235017586E+01
 0.1445653361598E+01
 0.1434762477000E+01
 0.1424650065009E+01
 0.1415351463960E+01
 0.1406844031465E+01
 0.1399042865414E+01
 0.1391797716816E+01
 0.1384890852167E+01
 0.1378035532416E+01
 0.1370875000450E+01
 0.1362982374536E+01
 0.1353860866700E+01
 0.1342945400333E+01
 0.1329606569513E+01
 0.1313156256649E+01
 0.1292854826411E+01
 0.1267916937873E+01
 0.1237535852043E+01
 0.1200921581345E+01
 0.1157331724777E+01
 0.1106096728058E+01
 0.1046646801707E+01
 0.9785437692959E+00
 0.9015166864451E+00
 0.8155003898497E+00
 0.7206747648405E+00
 0.6174894208588E+00
 0.5066533415170E+00
 0.3891324318912E+00
 0.2661641698916E+00
 0.1392427086535E+00
 0.1008450175251E-01
-0.1194210809491E+00
-0.2472750104775E+00
-0.3714340076006E+00
-0.4898753503431E+00
-0.6006401468180E+00
 0.1466876944623E+01
 0.1454290752326E+01
 0.1442030904179E+01
 0.1430283867469E+01
 0.1419203770447E+01
 0.1408906629220E+01
 0.1399464003882E+01
 0.1390897027424E+01
 0.1383171306768E+01
 0.1376192880439E+01
 0.1369805118509E+01
 0.1363786368330E+01
 0.1357848077086E+01
 0.1351633326734E+01
 0.1344716174621E+01
 0.1336601363124E+01
 0.1326725390971E+01
 0.1314459898303E+01
 0.1299116833866E+01
 0.1279954856311E+01
 0.1256183349808E+01
 0.1226987941792E+01
 0.1191571917834E+01
 0.1149187072206E+01
 0.1099157413933E+01
 0.1040904848889E+01
 0.9739804413750E+00
 0.8980999977748E+00
 0.8131829926070E+00
 0.7193925889254E+00
 0.6171614434023E+00
 0.5071826943459E+00
 0.3904090486054E+00
 0.2680693442020E+00
 0.1416555664577E+00
 0.1288988916362E-01
-0.1163241413753E+00
-0.2439653922714E+00
-0.3679622689763E+00
-0.4862603146506E+00
-0.5968692310410E+00
 0.1439131191429E+01
 0.1426638481092E+01
 0.1414618975689E+01
 0.1403243277723E+01
 0.1392648913915E+01
 0.1382935518602E+01
 0.1374159376022E+01
 0.1366328168499E+01
 0.1359396373755E+01
 0.1353261474992E+01
 0.1347760881010E+01
 0.1342669386051E+01
 0.1337696950396E+01
 0.1332486772841E+01
 0.1326614039148E+01
 0.1319585064803E+01
 0.1310837743764E+01
 0.1299744272104E+01
 0.1285615786196E+01
 0.1267707948780E+01
 0.1245223426276E+01
 0.1217338765605E+01
 0.1183248718234E+01
 0.1142196730106E+01
 0.1093496910887E+01
 0.1036558410972E+01
 0.9709160835414E+00
 0.8962660756622E+00
 0.8125052605520E+00
 0.7197722671574E+00
 0.6184747261778E+00
 0.5092819338871E+00
 0.3931262447863E+00
 0.2712225786672E+00
 0.1450581855279E+00
 0.1636175167917E-01
-0.1129445167823E+00
-0.2408093358863E+00
-0.3651218076711E+00
-0.4837829024074E+00
-0.5947576298789E+00
 0.1411348048478E+01
 0.1398922263651E+01
 0.1387120313992E+01
 0.1376097346572E+01
 0.1365974962711E+01
 0.1356837199779E+01
 0.1348725838135E+01
 0.1341635799422E+01
 0.1335511020376E+01
 0.1330240929745E+01
 0.1325657417810E+01
 0.1321532136273E+01
 0.1317573946629E+01
 0.1313426516104E+01
 0.1308666430866E+01
 0.1302801710093E+01
 0.1295271551966E+01
 0.1285448304719E+01
 0.1272641493617E+01
 0.1256102565738E+01
 0.1235026083254E+01
 0.1208578114692E+01
 0.1175943125634E+01
 0.1136353735293E+01
 0.1089110759754E+01
 0.1033606202368E+01
 0.9693532855991E+00
 0.8960220690148E+00
 0.8134794894787E+00
 0.7218316285152E+00
 0.6214526861288E+00
 0.5129796414711E+00
 0.3973167315063E+00
 0.2756589933165E+00
 0.1494857040179E+00
 0.2053231654850E-01
-0.1092561115679E+00
-0.2377900666403E+00
-0.3629079982924E+00
-0.4824528442121E+00
-0.5943308682857E+00
 0.1383504893336E+01
 0.1371121422104E+01
 0.1359516286662E+01
 0.1348829494897E+01
 0.1339167297707E+01
 0.1330598822406E+01
 0.1323152033163E+01
 0.1316809718389E+01
 0.1311505826065E+01
 0.1307122223302E+01
 0.1303485743203E+01
 0.1300365347834E+01
 0.1297469250590E+01
 0.1294442017818E+01
 0.1290861999797E+01
 0.1286239149852E+01
 0.1280013982375E+01
 0.1271558694839E+01
 0.1260180496609E+01
 0.1245125482328E+01
 0.1225578791355E+01
 0.1200694677673E+01
 0.1169645641952E+01
 0.1131651086129E+01
 0.1085995233281E+01
 0.1032048633959E+01
 0.9692975139644E+00
 0.8973794080497E+00
 0.8161238730993E+00
 0.7255961841627E+00
 0.6261282882857E+00
 0.5183157572123E+00
 0.4030261462076E+00
 0.2814277338342E+00
 0.1549876815223E+00
 0.2544772000087E-01
-0.1052204701284E+00
-0.2348810512185E+00
-0.3613100057581E+00
-0.4822779653095E+00
-0.5956173862397E+00
 0.1355578528258E+01
 0.1343214721471E+01
 0.1331787663302E+01
 0.1321422465840E+01
 0.1312210523183E+01
 0.1304206656501E+01
 0.1297425625133E+01
 0.1291838650632E+01
 0.1287370205500E+01
 0.1283895075188E+01
 0.1281235511282E+01
 0.1279158279564E+01
 0.1277371460210E+01
 0.1275521034077E+01
 0.1273187580444E+01
 0.1269883329668E+01
 0.1265050241828E+01
 0.1258060176585E+01
 0.1248217430919E+01
 0.1234761706159E+01
 0.1216867479484E+01
 0.1193675928067E+01
 0.1164345998417E+01
 0.1128081595733E+01
 0.1084147173642E+01
 0.1031887640069E+01
 0.9707569388477E+00
 0.9003536498936E+00
 0.8204623940406E+00
 0.7310990993645E+00
 0.6325441399834E+00
 0.5253418376383E+00
 0.4103135045876E+00
 0.2885926255100E+00
 0.1616289274904E+00
 0.3116894071445E-01
-0.1007858440238E+00
-0.2320451876832E+00
-0.3603102118437E+00
-0.4832639341015E+00
-0.5986486985436E+00
 0.1327545153507E+01
 0.1315180350963E+01
 0.1303914606834E+01
 0.1293858327297E+01
 0.1285088480971E+01
 0.1277646117683E+01
 0.1271533333811E+01
 0.1266710289856E+01
 0.1263092453584E+01
 0.1260547990824E+01
 0.1258895057364E+01
 0.1257898754736E+01
 0.1257267610804E+01
 0.1256649626959E+01
 0.1255628187457E+01
 0.1253718268216E+01
 0.1250363537224E+01
 0.1244935460887E+01
 0.1236734950436E+01
 0.1224994381840E+01
 0.1208876420739E+01
 0.1187507990511E+01
 0.1160033000595E+01
 0.1125637714830E+01
 0.1083563794301E+01
 0.1033126464842E+01
 0.9737422174648E+00
 0.9049642803648E+00
 0.8265246772088E+00
 0.7383811429005E+00
 0.6407525893876E+00
 0.5341213577361E+00
 0.4192517494732E+00
 0.2972329843101E+00
 0.1694905442670E+00
 0.3777298791100E-01
-0.9588599701934E-01
-0.2292337660355E+00
-0.3598834762439E+00
-0.4854139315800E+00
-0.6034595415918E+00
 0.1299380349790E+01
 0.1286995912944E+01
 0.1275876669985E+01
 0.1266118477218E+01
 0.1257784265721E+01
 0.1250901792836E+01
 0.1245460969996E+01
 0.1241411341139E+01
 0.1238659792911E+01
 0.1237068309936E+01
 0.1236451443416E+01
 0.1236573199545E+01
 0.1237143202752E+01
 0.1237812177823E+01
 0.1238167011491E+01
 0.1237726033392E+01
 0.1235935030585E+01
 0.1232165169039E+01
 0.1225713639363E+01
 0.1215804681905E+01
 0.1201588101541E+01
 0.1182175486461E+01
 0.1156694348286E+01
 0.1124311323887E+01
 0.1084242444764E+01
 0.1035769404910E+01
 0.9782662280197E+00
 0.9112344640661E+00
 0.8343457949273E+00
 0.7474906011711E+00
 0.6508158147872E+00
 0.5447300458042E+00
 0.4299283908035E+00
 0.3074445893418E+00
 0.1786712025826E+00
 0.4535437487530E-01
-0.9043871150605E-01
-0.2263851681282E+00
-0.3599962163064E+00
-0.4887282220139E+00
-0.6100880296005E+00
 0.1271059069999E+01
 0.1258638418878E+01
 0.1247652795772E+01
 0.1238183649958E+01
 0.1230280239097E+01
 0.1223957463690E+01
 0.1219193468687E+01
 0.1215927562252E+01
 0.1214058420430E+01
 0.1213442254807E+01
 0.1213890503654E+01
 0.1215166681568E+01
 0.1216982228342E+01
 0.1218991398295E+01
 0.1220785410669E+01
 0.1221886711503E+01
 0.1221743784407E+01
 0.1219727753782E+01
 0.1215131909309E+01
 0.1207171680160E+01
 0.1194983070584E+01
 0.1177661356599E+01
 0.1154316428084E+01
 0.1124093492676E+01
 0.1086180336336E+01
 0.1039821505963E+01
 0.9843437509090E+00
 0.9191907374854E+00
 0.8439660164579E+00
 0.7584831478607E+00
 0.6628058952131E+00
 0.5572562442362E+00
 0.4424462368065E+00
 0.3193408292502E+00
 0.1892886795001E+00
 0.5402692556695E-01
-0.8434394095103E-01
-0.2234232641942E+00
-0.3606052869301E+00
-0.4932036278450E+00
-0.6185757670493E+00
 0.1242555640402E+01
 0.1230084292977E+01
 0.1219221322959E+01
 0.1210033924987E+01
 0.1202558044704E+01
 0.1196796130720E+01
 0.1192714923149E+01
 0.1190243807026E+01
 0.1189273557421E+01
 0.1189654982919E+01
 0.1191196895133E+01
 0.1193662953250E+01
 0.1196767202976E+01
 0.1200168344210E+01
 0.1203462902841E+01
 0.1206178374503E+01
 0.1207766701983E+01
 0.1207599412246E+01
 0.1204965885334E+01
 0.1199072211247E+01
 0.1189039771132E+01
 0.1173946663105E+01
 0.1152884081134E+01
 0.1124974208763E+01
 0.1089374228805E+01
 0.1045288210793E+01
 0.9919910915092E+00
 0.9288626354003E+00
 0.8554304876253E+00
 0.7714216506069E+00
 0.6768048412965E+00
 0.5718012763105E+00
 0.4569242033956E+00
 0.3330540242022E+00
 0.2014816836366E+00
 0.6392596658584E-01
-0.7748154030405E-01
-0.2202554532631E+00
-0.3616566546212E+00
-0.4988329169821E+00
-0.6289678959102E+00
 0.1213843771167E+01
 0.1201309382927E+01
 0.1190559995061E+01
 0.1181648735863E+01
 0.1174598621195E+01
 0.1169400034676E+01
 0.1166008617182E+01
 0.1164344068049E+01
 0.1164289500010E+01
 0.1165690641079E+01
 0.1168354150385E+01
 0.1172044497411E+01
 0.1176479197685E+01
 0.1181322429366E+01
 0.1186177155423E+01
 0.1190577042000E+01
 0.1193978459404E+01
 0.1195753987621E+01
 0.1195189278133E+01
 0.1191480714191E+01
 0.1183734355223E+01
 0.1171010371182E+01
 0.1152380346244E+01
 0.1126942075550E+01
 0.1093820078609E+01
 0.1052174958531E+01
 0.1001225642409E+01
 0.9402822454542E+00
 0.8687888314763E+00
 0.7863759015185E+00
 0.6929045705474E+00
 0.5884798042911E+00
 0.4734981946876E+00
 0.3487369327838E+00
 0.2154120047791E+00
 0.7521097990767E-01
-0.6970847017288E-01
-0.2167702681812E+00
-0.3630838722270E+00
-0.5056041748776E+00
-0.6413130099044E+00
 0.1184896577467E+01
 0.1172288978461E+01
 0.1161645973236E+01
 0.1153006879355E+01
 0.1146382213503E+01
 0.1141750675977E+01
 0.1139057056255E+01
 0.1138211519744E+01
 0.1139089671555E+01
 0.1141532422600E+01
 0.1145344733766E+01
 0.1150292576533E+01
 0.1156097874762E+01
 0.1162431440898E+01
 0.1168903974483E+01
 0.1175056639423E+01
 0.1180351430326E+01
 0.1184162860365E+01
 0.1185773243146E+01
 0.1184369060886E+01
 0.1179040481067E+01
 0.1168829111528E+01
 0.1152786180234E+01
 0.1129983981605E+01
 0.1099512649444E+01
 0.1060486734355E+01
 0.1012065381462E+01
 0.9534836829173E+00
 0.8840946562847E+00
 0.8034222516282E+00
 0.7112068022647E+00
 0.6074201534891E+00
 0.4923220367706E+00
 0.3665644443173E+00
 0.2312670208716E+00
 0.8806880325527E-01
-0.6085532799169E-01
-0.2128344155535E+00
-0.3648063941119E+00
-0.5135003307681E+00
-0.6556629260633E+00
 0.1155686612213E+01
 0.1142997839332E+01
 0.1132455854331E+01
 0.1124086525997E+01
 0.1117888383909E+01
 0.1113828834661E+01
 0.1111842001263E+01
 0.1111828566560E+01
 0.1113656682407E+01
 0.1117162633583E+01
 0.1122150108026E+01
 0.1128387292660E+01
 0.1135601533565E+01
 0.1143471563332E+01
 0.1151617299903E+01
 0.1159588958706E+01
 0.1166855609170E+01
 0.1172794833855E+01
 0.1176686230756E+01
 0.1177706373088E+01
 0.1174929096694E+01
 0.1167376926173E+01
 0.1154080157034E+01
 0.1134084741277E+01
 0.1106445083003E+01
 0.1070227563927E+01
 0.1024528294956E+01
 0.9685024681189E+00
 0.9014049447091E+00
 0.8226431133715E+00
 0.7318228275581E+00
 0.6287645542111E+00
 0.5135684228222E+00
 0.3867354360464E+00
 0.2492625775293E+00
 0.1027174601041E+00
-0.5072200744595E-01
-0.2082890098771E+00
-0.3667277896208E+00
-0.5224993095759E+00
-0.6720722276875E+00
 0.1126185911403E+01
 0.1113410232674E+01
 0.1102965692314E+01
 0.1094865228651E+01
 0.1089096018964E+01
 0.1085614586938E+01
 0.1084344501172E+01
 0.1085176892661E+01
 0.1087972393437E+01
 0.1092562764619E+01
 0.1098750807325E+01
 0.1106307654156E+01
 0.1114967162731E+01
 0.1124417407586E+01
 0.1134289202810E+01
 0.1144143617475E+01
 0.1153458528512E+01
 0.1161616010222E+01
 0.1167893823667E+01
 0.1171458824879E+01
 0.1171368208098E+01
 0.1166624997424E+01
 0.1156238146706E+01
 0.1139226708913E+01
 0.1114608432664E+01
 0.1081399954768E+01
 0.1038631725885E+01
 0.9853748019580E+00
 0.9207793121525E+00
 0.8441263094023E+00
 0.7548731229234E+00
 0.6526692640367E+00
 0.5374298375067E+00
 0.4094747831436E+00
 0.2696462735879E+00
 0.1194106950290E+00
-0.3907221914238E-01
-0.2029445265682E+00
-0.3687337865813E+00
-0.5325760154500E+00
-0.6905978732598E+00
 0.1096366054922E+01
 0.1083499982177E+01
 0.1073151023872E+01
 0.1065319928491E+01
 0.1059983331888E+01
 0.1057087318907E+01
 0.1056544926144E+01
 0.1058237515599E+01
 0.1062017986346E+01
 0.1067713571251E+01
 0.1075126520285E+01
 0.1084031653072E+01
 0.1094170502790E+01
 0.1105242048911E+01
 0.1116889889016E+01
 0.1128688019928E+01
 0.1140125173060E+01
 0.1150589657899E+01
 0.1159358562468E+01
 0.1165589431444E+01
 0.1168322632954E+01
 0.1166541361388E+01
 0.1159232976034E+01
 0.1145389368006E+01
 0.1123991160299E+01
 0.1094004282454E+01
 0.1054391640975E+01
 0.1004136726156E+01
 0.9422791103951E+00
 0.8679642297469E+00
 0.7804867538593E+00
 0.6793045060375E+00
 0.5641193956467E+00
 0.4350354858944E+00
 0.2927011500084E+00
 0.1384433215134E+00
-0.2562681675148E-01
-0.1965733545843E+00
-0.3706897793805E+00
-0.5437081396486E+00
-0.7113020550930E+00
 0.1066198242958E+01
 0.1053240529565E+01
 0.1042986893943E+01
 0.1035426950694E+01
 0.1030527852194E+01
 0.1028225729156E+01
 0.1028422993047E+01
 0.1030990835889E+01
 0.1035774032398E+01
 0.1042595154447E+01
 0.1051256174042E+01
 0.1061536344099E+01
 0.1073186110257E+01
 0.1085917065169E+01
 0.1099387700137E+01
 0.1113187311211E+01
 0.1126817882213E+01
 0.1139676063470E+01
 0.1151039753234E+01
 0.1160057820404E+01
 0.1165753739458E+01
 0.1167090609518E+01
 0.1163034078362E+01
 0.1152548907049E+01
 0.1134578611748E+01
 0.1108038139911E+01
 0.1071821835749E+01
 0.1024823185365E+01
 0.9659663865825E+00
 0.8942527947261E+00
 0.8088005490667E+00
 0.7088541877313E+00
 0.5938715589088E+00
 0.4637008884167E+00
 0.3187498582580E+00
 0.1601573863262E+00
-0.1005548526713E-01
-0.1889004728669E+00
-0.3724309651705E+00
-0.5558969940345E+00
-0.7342557349384E+00
 0.1035653391999E+01
 0.1022605019359E+01
 0.1012447884737E+01
 0.1005161992256E+01
 0.1000706408156E+01
 0.9990078276858E+00
 0.9999577936811E+00
 0.1003416694811E+01
 0.1009220573199E+01
 0.1017187055568E+01
 0.1027118034431E+01
 0.1038797940770E+01
 0.1051987439363E+01
 0.1066412591623E+01
 0.1081749127941E+01
 0.1097604339438E+01
 0.1113496253094E+01
 0.1128832377020E+01
 0.1142893263802E+01
 0.1154819990206E+01
 0.1163619173034E+01
 0.1168233579237E+01
 0.1167607131489E+01
 0.1160677777943E+01
 0.1146352462729E+01
 0.1123495636299E+01
 0.1090933056641E+01
 0.1047466959235E+01
 0.9919026492672E+00
 0.9230901515628E+00
 0.8399579446042E+00
 0.7415152703079E+00
 0.6269425892022E+00
 0.4957868729034E+00
 0.3481592194744E+00
 0.1849494573172E+00
 0.8032457799497E-02
-0.1795897795504E+00
-0.3737502695444E+00
-0.5691614733948E+00
-0.7596760968556E+00
 0.1004702233704E+01
 0.9915664336608E+00
 0.9815081317881E+00
 0.9745001003657E+00
 0.9704950978730E+00
 0.9694109292467E+00
 0.9711278269567E+00
 0.9754944429823E+00
 0.9823372169505E+00
 0.9914683695979E+00
 0.1002689826524E+01
 0.1015791933747E+01
 0.1030546946931E+01
 0.1046697398366E+01
 0.1063938848192E+01
 0.1081899630961E+01
 0.1100117048284E+01
 0.1118012453788E+01
 0.1134871310104E+01
 0.1149828057020E+01
 0.1161872572822E+01
 0.1169927036508E+01
 0.1172913687204E+01
 0.1169744240442E+01
 0.1159290137752E+01
 0.1140366645936E+01
 0.1111732036473E+01
 0.1072097452519E+01
 0.1020147415215E+01
 0.9545750518861E+00
 0.8741074094771E+00
 0.7774966624593E+00
 0.6636105693033E+00
 0.5316439172812E+00
 0.3813450548644E+00
 0.2132790888402E+00
 0.2909950174198E-01
-0.1682326897970E+00
-0.3743609273838E+00
-0.5835700227108E+00
-0.7878338184277E+00
 0.9733085442351E+00
 0.9600843669584E+00
 0.9501203697410E+00
 0.9433875062324E+00
 0.9398340928565E+00
 0.9393698806518E+00
 0.9418631355564E+00
 0.9471495711084E+00
 0.9550449331071E+00
 0.9653554741102E+00
 0.9778832803284E+00
 0.9924254665361E+00
 0.1008767467391E+01
 0.1026670624172E+01
 0.1045853399241E+01
 0.1065968863844E+01
 0.1086577606067E+01
 0.1107118635784E+01
 0.1126885307762E+01
 0.1145007052163E+01
 0.1160457285911E+01
 0.1172137332360E+01
 0.1178947822094E+01
 0.1179775029654E+01
 0.1173456396429E+01
 0.1158759963754E+01
 0.1134378439065E+01
 0.1098932982479E+01
 0.1050986433767E+01
 0.9890702799925E+00
 0.9116984993317E+00
 0.8173429167366E+00
 0.7045185804557E+00
 0.5720074951109E+00
 0.4191131741373E+00
 0.2459769122736E+00
 0.5393114390948E-01
-0.1541931241195E+00
-0.3738787886328E+00
-0.5990352759383E+00
-0.8216342181986E+00
 0.9414519890355E+00
 0.9281349895379E+00
 0.9182613539690E+00
 0.9118003050408E+00
 0.9086996246625E+00
 0.9088615856150E+00
 0.9121415046956E+00
 0.9183604531690E+00
 0.9273220031444E+00
 0.9388256337577E+00
 0.9526736012708E+00
 0.9686706108871E+00
 0.9866169057221E+00
 0.1006295107725E+01
 0.1027449929402E+01
 0.1049763326226E+01
 0.1072823816427E+01
 0.1096092611960E+01
 0.1118874620966E+01
 0.1140296363344E+01
 0.1159315235556E+01
 0.1174811301936E+01
 0.1185663572557E+01
 0.1190733883532E+01
 0.1188827788643E+01
 0.1178669107223E+01
 0.1158888402591E+01
 0.1128019942159E+01
 0.1084506481823E+01
 0.1026716075873E+01
 0.9529410857470E+00
 0.8613519934648E+00
 0.7500706349770E+00
 0.6173998150921E+00
 0.4621016941821E+00
 0.2837712369437E+00
 0.8328351862933E-01
-0.1367688151021E+00
-0.3718141377853E+00
-0.6152697787870E+00
-0.8609946557874E+00
 0.9091028807956E+00
 0.8957011008097E+00
 0.8859203017936E+00
 0.8797352491350E+00
 0.8770963866347E+00
 0.8778991899261E+00
 0.8819842666486E+00
 0.8891556215923E+00
 0.8992026235521E+00
 0.9119168390722E+00
 0.9271005062785E+00
 0.9445666075180E+00
 0.9641317191819E+00
 0.9856021605674E+00
 0.1008752288297E+01
 0.1033297299916E+01
 0.1058858682944E+01
 0.1084924907556E+01
 0.1110816562734E+01
 0.1135659581395E+01
 0.1158395634116E+01
 0.1177882800213E+01
 0.1192978231962E+01
 0.1202520482917E+01
 0.1205286031898E+01
 0.1199958802457E+01
 0.1185112646998E+01
 0.1159200858837E+01
 0.1120551543477E+01
 0.1067372566018E+01
 0.9977322999052E+00
 0.9094853992377E+00
 0.8003251588981E+00
 0.6680091078739E+00
 0.5106530853869E+00
 0.3271605889376E+00
 0.1177823441416E+00
-0.1152952882111E+00
-0.3674887033474E+00
-0.6320621993873E+00
-0.9012124524190E+00
 0.8762343317267E+00
 0.8627560126526E+00
 0.8530696432986E+00
 0.8471638025491E+00
 0.8449964843276E+00
 0.8464566149645E+00
 0.8513675507579E+00
 0.8595129748372E+00
 0.8706654973231E+00
 0.8846073807995E+00
 0.9011405688338E+00
 0.9200869860653E+00
 0.9412810798530E+00
 0.9645553612525E+00
 0.9897174457777E+00
 0.1016520583595E+01
 0.1044624993064E+01
 0.1073552364190E+01
 0.1102643944416E+01
 0.1131027896921E+01
 0.1157630418102E+01
 0.1181286435801E+01
 0.1200830604940E+01
 0.1215079327645E+01
 0.1222783324207E+01
 0.1222592010252E+01
 0.1213029592283E+01
 0.1192476603642E+01
 0.1159155115220E+01
 0.1111120402215E+01
 0.1046220096574E+01
 0.9619848518369E+00
 0.8556490224427E+00
 0.7243584568006E+00
 0.5654658430051E+00
 0.3770101258622E+00
 0.1583980700775E+00
-0.8879627468919E-01
-0.3601699304647E+00
-0.6483732049813E+00
-0.9437123841293E+00
 0.8428209791625E+00
 0.8292739928878E+00
 0.8196811587003E+00
 0.8140561118994E+00
 0.8123706002148E+00
 0.8145067932165E+00
 0.8202670324287E+00
 0.8294103864586E+00
 0.8416895523453E+00
 0.8568758645670E+00
 0.8747706383109E+00
 0.8952053926195E+00
 0.9180339742005E+00
 0.9431176141282E+00
 0.9703009808122E+00
 0.9993806413872E+00
 0.1030062113944E+01
 0.1061907350103E+01
 0.1094284286557E+01
 0.1126326747344E+01
 0.1156945606521E+01
 0.1184950836121E+01
 0.1209153321771E+01
 0.1228348261525E+01
 0.1241264379900E+01
 0.1246523055398E+01
 0.1242607612583E+01
 0.1227836453944E+01
 0.1200337678755E+01
 0.1158026554098E+01
 0.1098540187511E+01
 0.1019085801261E+01
 0.9164170863118E+00
 0.7870057094234E+00
 0.6273158292288E+00
 0.4343165086856E+00
 0.2062948802294E+00
-0.5609540578122E-01
-0.3487935532247E+00
-0.6637487445958E+00
-0.9892224227508E+00
 0.8088399283791E+00
 0.7952304827928E+00
 0.7857258970748E+00
 0.7803805507023E+00
 0.7791876789009E+00
 0.7820215461224E+00
 0.7886579943791E+00
 0.7988258622153E+00
 0.8122541369144E+00
 0.8287014203838E+00
 0.8479680616053E+00
 0.8698958282714E+00
 0.8943594582634E+00
 0.9212514042577E+00
 0.9504572935862E+00
 0.9818227063841E+00
 0.1015105922080E+01
 0.1049917492052E+01
 0.1085659400671E+01
 0.1121475349995E+01
 0.1156260884092E+01
 0.1188798314667E+01
 0.1217872548933E+01
 0.1242258135479E+01
 0.1260665937797E+01
 0.1271696869518E+01
 0.1273803883865E+01
 0.1265256352211E+01
 0.1244104061868E+01
 0.1208140336678E+01
 0.1154810254975E+01
 0.1081009667350E+01
 0.9830032471040E+00
 0.8565363839266E+00
 0.6970562046721E+00
 0.5002259137530E+00
 0.2628604594602E+00
-0.1571655106650E-01
-0.3321101089821E+00
-0.6776524421229E+00
-0.1038363661352E+01
 0.7742719508322E+00
 0.7606025274520E+00
 0.7511738511408E+00
 0.7461031096861E+00
 0.7454144845776E+00
 0.7489714552095E+00
 0.7565154215022E+00
 0.7677377369527E+00
 0.7823392436323E+00
 0.8000639320045E+00
 0.8207109225527E+00
 0.8441329104927E+00
 0.8702269475854E+00
 0.8989191033297E+00
 0.9301398808566E+00
 0.9637899422490E+00
 0.9996887588884E+00
 0.1037505381589E+01
 0.1076684901373E+01
 0.1116386158764E+01
 0.1155489140841E+01
 0.1192744547093E+01
 0.1226907752176E+01
 0.1256732544588E+01
 0.1280916345686E+01
 0.1298048306251E+01
 0.1306563302537E+01
 0.1304697226732E+01
 0.1290440800317E+01
 0.1261489227929E+01
 0.1215123460259E+01
 0.1147954387980E+01
 0.1055768364699E+01
 0.9335516723936E+00
 0.7756132669530E+00
 0.5760471901271E+00
 0.3297583059431E+00
 0.3416950795989E-01
-0.3085365017938E+00
-0.6893362302682E+00
-0.1091720919037E+01
 0.7391031797302E+00
 0.7253693339510E+00
 0.7159933675204E+00
 0.7111864951841E+00
 0.7110150266717E+00
 0.7153257394388E+00
 0.7238141554382E+00
 0.7361249225647E+00
 0.7519257647087E+00
 0.7709442852206E+00
 0.7929782971196E+00
 0.8178921555260E+00
 0.8456065425451E+00
 0.8760833332958E+00
 0.9093016900320E+00
 0.9452236841266E+00
 0.9837394281760E+00
 0.1024588253623E+01
 0.1067269627044E+01
 0.1110964215342E+01
 0.1154535950835E+01
 0.1196698258074E+01
 0.1236171529105E+01
 0.1271687661030E+01
 0.1301935241092E+01
 0.1325501548084E+01
 0.1340817505133E+01
 0.1346103434749E+01
 0.1339313608855E+01
 0.1318074640178E+01
 0.1279541414982E+01
 0.1220083335273E+01
 0.1135044517628E+01
 0.1018650324460E+01
 0.8639738964861E+00
 0.6632628986184E+00
 0.4089783234422E+00
 0.9585566232809E-01
-0.2759943661249E+00
-0.6977138442317E+00
-0.1149918788691E+01
 0.7033275877540E+00
 0.6895129461863E+00
 0.6801501247992E+00
 0.6755888018274E+00
 0.6759498351216E+00
 0.6810521813066E+00
 0.6905291425685E+00
 0.7039672198685E+00
 0.7209957797246E+00
 0.7413246329685E+00
 0.7647505211888E+00
 0.7911502783493E+00
 0.8204693876567E+00
 0.8527073933652E+00
 0.8878955701521E+00
 0.9260637878838E+00
 0.9671832604856E+00
 0.1011077637698E+01
 0.1057314939233E+01
 0.1105106353782E+01
 0.1153298964464E+01
 0.1200560921079E+01
 0.1245569533784E+01
 0.1287032190614E+01
 0.1323633350132E+01
 0.1353969620799E+01
 0.1376484013798E+01
 0.1389401388790E+01
 0.1390665090069E+01
 0.1377867860238E+01
 0.1348086907955E+01
 0.1297512826249E+01
 0.1221115408200E+01
 0.1112402507678E+01
 0.9631615182008E+00
 0.7635292379369E+00
 0.5028954854097E+00
 0.1722461127918E+00
-0.2316941285529E+00
-0.7011958110894E+00
-0.1213678464886E+01
 0.6669506956872E+00
 0.6530190081217E+00
 0.6436053762147E+00
 0.6392615724957E+00
 0.6401750965203E+00
 0.6461171827512E+00
 0.6566358254180E+00
 0.6712457093666E+00
 0.6895328795768E+00
 0.7111886796265E+00
 0.7360094728288E+00
 0.7638855114186E+00
 0.7947880670659E+00
 0.8287557600147E+00
 0.8658748466820E+00
 0.9062491336616E+00
 0.9499422897863E+00
 0.9968789937262E+00
 0.1046713865181E+01
 0.1098700201797E+01
 0.1151667178102E+01
 0.1204226473056E+01
 0.1255000521073E+01
 0.1302667482665E+01
 0.1345912418876E+01
 0.1383354011786E+01
 0.1413465502338E+01
 0.1434498396410E+01
 0.1444412793007E+01
 0.1440806390942E+01
 0.1420736754010E+01
 0.1380298695487E+01
 0.1314193033045E+01
 0.1215314291682E+01
 0.1074194836752E+01
 0.8786568246046E+00
 0.6143277160990E+00
 0.2670471601679E+00
-0.1718271946712E+00
-0.6974279115307E+00
-0.1283870813395E+01
 0.6299952613804E+00
 0.6158775021233E+00
 0.6063129093121E+00
 0.6021469732591E+00
 0.6036417141485E+00
 0.6104860701132E+00
 0.6221107126709E+00
 0.6379432041790E+00
 0.6575225009357E+00
 0.6805219580431E+00
 0.7067388405239E+00
 0.7360779108609E+00
 0.7685370028173E+00
 0.8041946320965E+00
 0.8431940146856E+00
 0.8857183116052E+00
 0.9319355812018E+00
 0.9818913293838E+00
 0.1035350012302E+01
 0.1091622879261E+01
 0.1149520020880E+01
 0.1207581052176E+01
 0.1264356568346E+01
 0.1318487867148E+01
 0.1368665344619E+01
 0.1413544448319E+01
 0.1451649248173E+01
 0.1481281839630E+01
 0.1500447878700E+01
 0.1506791143214E+01
 0.1497415456952E+01
 0.1468422912901E+01
 0.1414391760833E+01
 0.1327782461603E+01
 0.1198023777017E+01
 0.1010557935504E+01
 0.7465765383526E+00
 0.3850082808732E+00
-0.9110889241859E-01
-0.6828520934059E+00
-0.1361565971785E+01
 0.5925102763464E+00
 0.5780831565871E+00
 0.5682137576305E+00
 0.5641737652945E+00
 0.5662945373009E+00
 0.5741238778860E+00
 0.5869321868523E+00
 0.6040447727833E+00
 0.6249522863620E+00
 0.6493121186096E+00
 0.6769243972181E+00
 0.7077096688626E+00
 0.7416928707819E+00
 0.7789925374429E+00
 0.8198095925809E+00
 0.8644105839530E+00
 0.9130798316918E+00
 0.9660068613665E+00
 0.1023096197608E+01
 0.1083739272159E+01
 0.1146726178640E+01
 0.1210502761307E+01
 0.1273523521782E+01
 0.1334381256429E+01
 0.1391776500099E+01
 0.1444418769193E+01
 0.1490906657876E+01
 0.1529618598793E+01
 0.1558634407501E+01
 0.1575684684798E+01
 0.1577990147104E+01
 0.1561781096629E+01
 0.1521701321918E+01
 0.1450040878278E+01
 0.1335437422866E+01
 0.1161138289158E+01
 0.9034168021045E+00
 0.5322111178831E+00
 0.1791345636982E-01
-0.6519412028659E+00
-0.1448058629902E+01
 0.5545856963673E+00
 0.5396346955005E+00
 0.5292268605406E+00
 0.5252517629988E+00
 0.5280723279468E+00
 0.5369969030748E+00
 0.5510815355846E+00
 0.5695383017783E+00
 0.5918124656355E+00
 0.6175492262129E+00
 0.6465542762073E+00
 0.6787654267758E+00
 0.7142350208958E+00
 0.7531209795764E+00
 0.7956811393931E+00
 0.8422672090858E+00
 0.8932904019043E+00
 0.9491108122999E+00
 0.1009812698169E+01
 0.1074899683774E+01
 0.1143142035207E+01
 0.1212861480209E+01
 0.1282381764223E+01
 0.1350230102743E+01
 0.1415122297256E+01
 0.1475842869655E+01
 0.1531092781899E+01
 0.1579354654436E+01
 0.1618809340901E+01
 0.1647310897621E+01
 0.1662267486520E+01
 0.1660172099225E+01
 0.1635961035201E+01
 0.1582102795481E+01
 0.1486943894419E+01
 0.1332106040262E+01
 0.1088970943798E+01
 0.7163720407672E+00
 0.1659146185688E+00
-0.5958175905699E+00
-0.1544785916045E+01
 0.5163776831100E+00
 0.5005307724375E+00
 0.4892322543544E+00
 0.4852648578311E+00
 0.4889096960042E+00
 0.4990752773580E+00
 0.5145440462398E+00
 0.5344150500313E+00
 0.5580962348558E+00
 0.5852260319520E+00
 0.6156192182651E+00
 0.6492325556329E+00
 0.6861458577118E+00
 0.7265550564154E+00
 0.7707723735958E+00
 0.8192331842274E+00
 0.8724829948467E+00
 0.9310814986764E+00
 0.9953449713484E+00
 0.1064936525665E+01
 0.1138609534387E+01
 0.1214518773404E+01
 0.1290807461579E+01
 0.1365912858410E+01
 0.1438572098636E+01
 0.1507670762311E+01
 0.1572045763871E+01
 0.1630314811085E+01
 0.1680783441062E+01
 0.1721456581972E+01
 0.1749993476845E+01
 0.1763291243214E+01
 0.1756837926325E+01
 0.1723706562324E+01
 0.1652634346154E+01
 0.1524675818745E+01
 0.1307352830227E+01
 0.9470365360228E+00
 0.3683792431509E+00
-0.4996684683109E+00
-0.1652875564569E+01
 0.4781545049677E+00
 0.4607567597778E+00
 0.4480402267725E+00
 0.4440644314770E+00
 0.4487433993918E+00
 0.4603363555926E+00
 0.4773098696410E+00
 0.4986702424822E+00
 0.5238001292300E+00
 0.5523382185562E+00
 0.5841127991142E+00
 0.6191014096650E+00
 0.6574111824412E+00
 0.6992740122582E+00
 0.7450523101957E+00
 0.7952594650976E+00
 0.8505763639872E+00
 0.9117910849241E+00
 0.9795206828311E+00
 0.1053659517360E+01
 0.1132953172704E+01
 0.1215327996949E+01
 0.1298674503965E+01
 0.1381306077272E+01
 0.1461989547084E+01
 0.1539744736433E+01
 0.1613585998303E+01
 0.1682302175185E+01
 0.1744342977535E+01
 0.1797875435802E+01
 0.1840856758437E+01
 0.1870728640864E+01
 0.1883811098624E+01
 0.1874270477895E+01
 0.1832060503906E+01
 0.1739183520366E+01
 0.1561904695114E+01
 0.1235321247811E+01
 0.6478813065210E+00
-0.3377424070956E+00
-0.1771520012522E+01
 0.4403871237105E+00
 0.4202453821683E+00
 0.4053340031439E+00
 0.4014711145418E+00
 0.4075263917498E+00
 0.4207670629137E+00
 0.4393745400279E+00
 0.4623038267235E+00
 0.4889242842077E+00
 0.5188846089024E+00
 0.5520316088234E+00
 0.5883655207782E+00
 0.6280204689413E+00
 0.6712616579251E+00
 0.7184962038729E+00
 0.7703055362733E+00
 0.8274965639370E+00
 0.8911077359251E+00
 0.9621458150998E+00
 0.1040848427775E+01
 0.1125975653506E+01
 0.1215134844469E+01
 0.1305857496407E+01
 0.1396287341779E+01
 0.1485234443052E+01
 0.1571895757065E+01
 0.1655514828221E+01
 0.1735096877799E+01
 0.1809252064725E+01
 0.1876295322591E+01
 0.1934496353095E+01
 0.1981973216230E+01
 0.2016167666892E+01
 0.2032856528995E+01
 0.2024156198162E+01
 0.1974741071865E+01
 0.1853862453765E+01
 0.1592346031782E+01
 0.1036871825879E+01
-0.6332800131308E-01
-0.1892805821797E+01
 0.4039500377413E+00
 0.3787553199642E+00
 0.3605663421748E+00
 0.3573127541657E+00
 0.3652485440818E+00
 0.3803605283565E+00
 0.4007408572862E+00
 0.4253210828104E+00
 0.4534725644312E+00
 0.4848674239562E+00
 0.5193753891989E+00
 0.5570217777633E+00
 0.5979671031055E+00
 0.6425067271776E+00
 0.6910861009856E+00
 0.7443418814114E+00
 0.8031834458058E+00
 0.8689008509761E+00
 0.9429997189568E+00
 0.1026241575970E+01
 0.1117451529599E+01
 0.1213778916023E+01
 0.1312236323124E+01
 0.1410739136057E+01
 0.1508165161921E+01
 0.1603944275289E+01
 0.1697612607141E+01
 0.1788452639499E+01
 0.1875254960736E+01
 0.1956429134281E+01
 0.2030516469971E+01
 0.2096418632670E+01
 0.2153015164024E+01
 0.2198156914104E+01
 0.2227154888991E+01
 0.2229209153736E+01
 0.2180760405252E+01
 0.2024435149875E+01
 0.1579148216855E+01
 0.4117218116127E+00
-0.1985279951505E+01
 0.3706484924642E+00
 0.3354497080173E+00
 0.3128166582587E+00
 0.3115794863573E+00
 0.3219267830981E+00
 0.3391098757275E+00
 0.3614254548237E+00
 0.3877306642249E+00
 0.4174535990820E+00
 0.4502922002399E+00
 0.4861472468338E+00
 0.5250705592439E+00
 0.5672485491273E+00
 0.6130032452772E+00
 0.6628110089939E+00
 0.7173510127360E+00
 0.7775995975413E+00
 0.8450531624067E+00
 0.9218292722882E+00
 0.1009516191935E+01
 0.1107117966791E+01
 0.1211097697512E+01
 0.1317702988571E+01
 0.1424553818143E+01
 0.1530641458957E+01
 0.1635701864161E+01
 0.1739636785177E+01
 0.1842089200683E+01
 0.1942075492516E+01
 0.2037993940775E+01
 0.2128504573936E+01
 0.2213387464406E+01
 0.2293261453740E+01
 0.2368614450401E+01
 0.2438374616222E+01
 0.2499365160073E+01
 0.2536769235090E+01
 0.2522692445758E+01
 0.2320136364231E+01
 0.1260664219996E+01
-0.1943713563270E+01
 0.3449869874827E+00
 0.2870967413876E+00
 0.2610516197167E+00
 0.2647660325098E+00
 0.2774118758551E+00
 0.2970842983780E+00
 0.3214356030173E+00
 0.3495517131464E+00
 0.3808789988453E+00
 0.4151683469144E+00
 0.4523535639601E+00
 0.4925157975311E+00
 0.5358663959868E+00
 0.5827505102527E+00
 0.6336676405938E+00
 0.6893249885204E+00
 0.7507380809591E+00
 0.8194890502171E+00
 0.8983440740400E+00
 0.9902503209292E+00
 0.1094662765684E+01
 0.1206935950667E+01
 0.1322171160773E+01
 0.1437640001783E+01
 0.1552527469495E+01
 0.1666973338999E+01
 0.1781323638819E+01
 0.1895677974050E+01
 0.2009406617817E+01
 0.2120742766892E+01
 0.2228073659200E+01
 0.2332116609275E+01
 0.2435726127382E+01
 0.2542172064546E+01
 0.2655294805073E+01
 0.2778042855438E+01
 0.2919609474153E+01
 0.3054821916132E+01
 0.3248053085946E+01
 0.2817167249494E+01
-0.1384938703085E+01
 0.3425281453382E+00
 0.2176744618695E+00
 0.2102738818611E+00
 0.2156462248885E+00
 0.2320589848180E+00
 0.2542467749155E+00
 0.2808172995022E+00
 0.3108017855724E+00
 0.3437664732025E+00
 0.3795083993029E+00
 0.4180041978163E+00
 0.4593649795479E+00
 0.5038262831780E+00
 0.5517531970080E+00
 0.6036600015769E+00
 0.6602677112067E+00
 0.7226044966240E+00
 0.7922442028317E+00
 0.8722274059413E+00
 0.9678288249751E+00
 0.1079723719834E+01
 0.1201162066756E+01
 0.1325589021141E+01
 0.1449930366623E+01
 0.1573695037349E+01
 0.1697556854609E+01
 0.1822395909994E+01
 0.1948834502557E+01
 0.2076845369286E+01
 0.2204544949314E+01
 0.2328922749409E+01
 0.2451761347705E+01
 0.2579035922954E+01
 0.2716950781721E+01
 0.2873404241341E+01
 0.3062882948050E+01
 0.3301357538333E+01
 0.3659392477060E+01
 0.4075457833756E+01
 0.5548859819718E+01
 0.1166608490725E+01
 0.1684459160943E+01
 0.1631629108832E+01
 0.1572175414710E+01
 0.1511473658480E+01
 0.1451917397074E+01
 0.1395020627717E+01
 0.1341511719371E+01
 0.1291828603983E+01
 0.1246287716217E+01
 0.1205096833633E+01
 0.1168151317529E+01
 0.1136180670479E+01
 0.1108905130622E+01
 0.1085209127165E+01
 0.1064665628405E+01
 0.1045818157369E+01
 0.1027697978147E+01
 0.1010703965977E+01
 0.9895404736071E+00
 0.1013323370999E+01
 0.1727476996541E+01
 0.1667244013774E+01
 0.1605515320027E+01
 0.1543227902404E+01
 0.1482660016089E+01
 0.1425084904610E+01
 0.1371272724622E+01
 0.1321654900887E+01
 0.1276505278640E+01
 0.1235961858165E+01
 0.1200198709580E+01
 0.1169367122997E+01
 0.1143290213858E+01
 0.1121304194766E+01
 0.1102527689691E+01
 0.1086086073922E+01
 0.1071477378186E+01
 0.1057452292937E+01
 0.1052433968369E+01
 0.1035816827055E+01
 0.1768742297033E+01
 0.1704100758047E+01
 0.1638894400805E+01
 0.1574732553490E+01
 0.1512907732209E+01
 0.1454568384345E+01
 0.1400400897695E+01
 0.1350815978378E+01
 0.1306050104060E+01
 0.1266263190091E+01
 0.1231547449540E+01
 0.1201983061144E+01
 0.1177386156450E+01
 0.1157164626379E+01
 0.1140598677299E+01
 0.1127023274844E+01
 0.1115735761805E+01
 0.1107598537557E+01
 0.1098907458387E+01
 0.1084814348641E+01
 0.1809989892619E+01
 0.1740795181988E+01
 0.1672296229697E+01
 0.1605859376600E+01
 0.1542608934455E+01
 0.1483398283310E+01
 0.1428826627434E+01
 0.1379251241678E+01
 0.1334885275080E+01
 0.1295854488330E+01
 0.1262222541854E+01
 0.1234016423625E+01
 0.1211049646076E+01
 0.1192824844259E+01
 0.1178753156350E+01
 0.1168211465852E+01
 0.1160823503734E+01
 0.1155293861332E+01
 0.1149535688323E+01
 0.1139672001793E+01
 0.1851077102115E+01
 0.1777248471180E+01
 0.1705341085159E+01
 0.1636513048898E+01
 0.1571672430880E+01
 0.1511504295747E+01
 0.1456480720292E+01
 0.1406899576072E+01
 0.1362933605013E+01
 0.1324678343560E+01
 0.1292171700562E+01
 0.1265410293105E+01
 0.1244218997735E+01
 0.1228186025135E+01
 0.1216800949956E+01
 0.1209540032742E+01
 0.1205644078079E+01
 0.1203902395997E+01
 0.1202437827557E+01
 0.1198449663862E+01
 0.1891833300443E+01
 0.1813256847370E+01
 0.1737851509703E+01
 0.1666529705616E+01
 0.1600006085731E+01
 0.1538807041389E+01
 0.1483293595665E+01
 0.1433691182847E+01
 0.1390128215619E+01
 0.1352669063225E+01
 0.1321331806578E+01
 0.1296096140693E+01
 0.1276806773174E+01
 0.1263119460063E+01
 0.1254599129383E+01
 0.1250698651988E+01
 0.1250663506540E+01
 0.1253367785153E+01
 0.1257280223557E+01
 0.1260047364241E+01
 0.1932038039772E+01
 0.1848632616875E+01
 0.1769656379928E+01
 0.1695772841382E+01
 0.1627502737577E+01
 0.1565224551714E+01
 0.1509191411712E+01
 0.1459556246123E+01
 0.1416400081268E+01
 0.1379757498400E+01
 0.1349630673541E+01
 0.1325991975146E+01
 0.1308708570291E+01
 0.1297497919577E+01
 0.1291976882358E+01
 0.1291647656159E+01
 0.1295828645513E+01
 0.1303575551269E+01
 0.1313601383222E+01
 0.1323916310341E+01
 0.1971463627394E+01
 0.1883186212591E+01
 0.1800597209759E+01
 0.1724111298589E+01
 0.1654057637101E+01
 0.1590670511099E+01
 0.1534098711924E+01
 0.1484423271014E+01
 0.1441678299514E+01
 0.1405870207193E+01
 0.1376988766500E+01
 0.1355005376211E+01
 0.1339813181974E+01
 0.1331186025271E+01
 0.1328808209545E+01
 0.1332264343007E+01
 0.1341000113826E+01
 0.1354262441917E+01
 0.1371009739715E+01
 0.1389597215022E+01
 0.2009881609893E+01
 0.1916731466046E+01
 0.1830521043704E+01
 0.1751419689516E+01
 0.1679567708082E+01
 0.1615058351011E+01
 0.1557938665720E+01
 0.1508219605069E+01
 0.1465889918729E+01
 0.1430930147518E+01
 0.1403320736460E+01
 0.1383037567332E+01
 0.1370003210885E+01
 0.1364051981927E+01
 0.1364948935393E+01
 0.1372386996881E+01
 0.1385961905949E+01
 0.1405125354924E+01
 0.1429098798561E+01
 0.1456626088689E+01
 0.2047066763361E+01
 0.1949086378178E+01
 0.1859279973055E+01
 0.1777576847201E+01
 0.1703932407766E+01
 0.1638302162342E+01
 0.1580634205459E+01
 0.1530871719052E+01
 0.1488960368991E+01
 0.1454857433523E+01
 0.1428537214507E+01
 0.1409985009190E+01
 0.1399157886066E+01
 0.1395956164087E+01
 0.1400237356865E+01
 0.1411818174385E+01
 0.1430459280289E+01
 0.1455830133110E+01
 0.1487441048025E+01
 0.1524487784546E+01
 0.2082799218607E+01
 0.1980074258284E+01
 0.1886731096028E+01
 0.1802465803074E+01
 0.1727054044006E+01
 0.1660317585323E+01
 0.1602108803453E+01
 0.1552305893679E+01
 0.1510814118272E+01
 0.1477570363243E+01
 0.1452546097480E+01
 0.1435740932256E+01
 0.1427151654888E+01
 0.1426750110410E+01
 0.1434494701952E+01
 0.1450336254524E+01
 0.1474210951182E+01
 0.1506018760907E+01
 0.1545584529226E+01
 0.1592581441705E+01
 0.2116865900952E+01
 0.2009524565725E+01
 0.1912736864995E+01
 0.1825973951008E+01
 0.1748838150857E+01
 0.1681022379598E+01
 0.1622287142985E+01
 0.1572448876991E+01
 0.1531375428940E+01
 0.1498986335682E+01
 0.1475253655514E+01
 0.1460195920846E+01
 0.1453854422582E+01
 0.1456277038964E+01
 0.1467528983231E+01
 0.1487702192644E+01
 0.1516916296837E+01
 0.1555312335997E+01
 0.1603043300411E+01
 0.1660264370889E+01
 0.2149061799841E+01
 0.2037273746853E+01
 0.1937165596829E+01
 0.1847993429076E+01
 0.1769193915133E+01
 0.1700336970112E+01
 0.1641095745622E+01
 0.1591228582432E+01
 0.1550569146002E+01
 0.1519022765936E+01
 0.1496565457681E+01
 0.1483238788810E+01
 0.1479132513204E+01
 0.1484373853147E+01
 0.1499138699847E+01
 0.1523664642187E+01
 0.1558260094509E+01
 0.1603312940860E+01
 0.1659307683714E+01
 0.1726868528300E+01
 0.2179191149998E+01
 0.2063166053075E+01
 0.1959892039447E+01
 0.1868421565908E+01
 0.1788034620887E+01
 0.1718184951842E+01
 0.1658463553537E+01
 0.1608574752477E+01
 0.1568321458545E+01
 0.1537597938730E+01
 0.1516387321381E+01
 0.1504757670231E+01
 0.1502850189816E+01
 0.1510873520696E+01
 0.1529116315352E+01
 0.1557964137382E+01
 0.1597916509875E+01
 0.1649609080613E+01
 0.1713852669833E+01
 0.1791713453061E+01
 0.2207068602116E+01
 0.2087054355282E+01
 0.1980797969070E+01
 0.1887161361847E+01
 0.1805278104895E+01
 0.1734493579372E+01
 0.1674322484459E+01
 0.1624419598402E+01
 0.1584560638961E+01
 0.1554631867084E+01
 0.1534626338869E+01
 0.1524641332672E+01
 0.1524871461783E+01
 0.1535607614296E+01
 0.1557251594345E+01
 0.1590337030209E+01
 0.1635553788325E+01
 0.1693781640400E+01
 0.1766145751720E+01
 0.1854119113549E+01
 0.2232520325487E+01
 0.2108800934150E+01
 0.1999772769984E+01
 0.1904121960221E+01
 0.1820847194294E+01
 0.1749194226569E+01
 0.1688607950682E+01
 0.1638698405653E+01
 0.1599217761390E+01
 0.1570047163561E+01
 0.1551191979317E+01
 0.1542780630718E+01
 0.1545062047223E+01
 0.1558408930878E+01
 0.1583334942165E+01
 0.1620519625472E+01
 0.1670839407963E+01
 0.1735410504813E+01
 0.1815655629895E+01
 0.1913417258456E+01
 0.2255385187949E+01
 0.2128278298045E+01
 0.2016714048999E+01
 0.1919219146658E+01
 0.1834670162314E+01
 0.1762222851807E+01
 0.1701259374327E+01
 0.1651350133552E+01
 0.1612227423783E+01
 0.1583769939904E+01
 0.1565997252926E+01
 0.1559070048081E+01
 0.1563291421031E+01
 0.1579114171360E+01
 0.1607160836609E+01
 0.1648252529554E+01
 0.1703445641505E+01
 0.1774081809994E+01
 0.1861861534968E+01
 0.1968960565720E+01
 0.2275515842017E+01
 0.2145369951123E+01
 0.2031528201287E+01
 0.1932375805854E+01
 0.1846681141175E+01
 0.1773520418038E+01
 0.1712220656037E+01
 0.1662317971670E+01
 0.1623528437429E+01
 0.1595730692290E+01
 0.1578959879664E+01
 0.1573409255536E+01
 0.1579434879037E+01
 0.1597566641839E+01
 0.1628531321108E+01
 0.1673285149187E+01
 0.1733055364928E+01
 0.1809395407425E+01
 0.1904262221125E+01
 0.2020130742497E+01
 0.2292779780345E+01
 0.2159971129989E+01
 0.2044130954202E+01
 0.1943522357275E+01
 0.1856820512823E+01
 0.1783033287168E+01
 0.1721440614888E+01
 0.1671549867162E+01
 0.1633064491493E+01
 0.1605865168643E+01
 0.1590003445521E+01
 0.1585704657730E+01
 0.1593375591190E+01
 0.1613618951746E+01
 0.1647259519243E+01
 0.1695380252247E+01
 0.1759367919796E+01
 0.1840972141405E+01
 0.1942384246417E+01
 0.2066346754451E+01
 0.2307060327980E+01
 0.2171989494910E+01
 0.2054447874291E+01
 0.1952597158853E+01
 0.1865035267931E+01
 0.1790713580775E+01
 0.1728873391949E+01
 0.1678999013831E+01
 0.1640784778539E+01
 0.1614115196051E+01
 0.1599058515207E+01
 0.1595870890167E+01
 0.1605006599117E+01
 0.1627135652606E+01
 0.1663173088566E+01
 0.1714318435371E+01
 0.1782104822928E+01
 0.1868460775569E+01
 0.1975789626491E+01
 0.2107072916910E+01
 0.2318257552153E+01
 0.2181345762499E+01
 0.2062414828882E+01
 0.1959546871695E+01
 0.1871279327684E+01
 0.1796519502004E+01
 0.1734478811457E+01
 0.1684624294101E+01
 0.1646644567067E+01
 0.1620429446931E+01
 0.1606063671578E+01
 0.1603832227977E+01
 0.1614232708757E+01
 0.1637995752844E+01
 0.1676117514212E+01
 0.1729902372109E+01
 0.1801015068946E+01
 0.1891544596899E+01
 0.2004083107454E+01
 0.2141825449062E+01
 0.2326289075891E+01
 0.2187974270267E+01
 0.2067978396326E+01
 0.1964326781749E+01
 0.1875513825007E+01
 0.1800415615185E+01
 0.1738222694812E+01
 0.1688390666140E+01
 0.1650605708408E+01
 0.1624764124658E+01
 0.1610966454429E+01
 0.1609523869183E+01
 0.1620972228279E+01
 0.1646095039039E+01
 0.1685959157050E+01
 0.1741960704306E+01
 0.1815879987981E+01
 0.1909947029223E+01
 0.2026919783088E+01
 0.2170177779944E+01
 0.2331090778625E+01
 0.2191823462448E+01
 0.2071096217752E+01
 0.1966901073312E+01
 0.1877707340905E+01
 0.1802373078572E+01
 0.1740077121378E+01
 0.1690269487329E+01
 0.1652637064856E+01
 0.1627083549476E+01
 0.1613724171541E+01
 0.1612893055061E+01
 0.1625158499569E+01
 0.1651348137036E+01
 0.1692587964743E+01
 0.1750351517328E+01
 0.1826517464114E+01
 0.1923436705162E+01
 0.2044009627618E+01
 0.2191773720728E+01
 0.2332617369301E+01
 0.2192856288131E+01
 0.2071737284385E+01
 0.1967243050176E+01
 0.1877836092369E+01
 0.1802369826270E+01
 0.1740020630684E+01
 0.1690238766033E+01
 0.1652714846997E+01
 0.1627360627149E+01
 0.1614304556918E+01
 0.1613899992104E+01
 0.1626741174845E+01
 0.1653690246866E+01
 0.1695919776321E+01
 0.1754965293683E+01
 0.1832785613745E+01
 0.1931831607302E+01
 0.2055122805368E+01
 0.2206330247516E+01
 0.2330842824235E+01
 0.2191050506195E+01
 0.2069882157447E+01
 0.1965335302881E+01
 0.1875884070564E+01
 0.1800390697438E+01
 0.1738038362580E+01
 0.1688283335789E+01
 0.1650822850968E+01
 0.1625577186407E+01
 0.1612686255674E+01
 0.1612518546001E+01
 0.1625687196061E+01
 0.1653078497052E+01
 0.1695898146780E+01
 0.1755727304913E+01
 0.1834585772746E+01
 0.1935002795027E+01
 0.2060093855953E+01
 0.2213640275080E+01
 0.2325760680573E+01
 0.2186398890588E+01
 0.2065523117344E+01
 0.1961169819712E+01
 0.1871843127623E+01
 0.1796427510547E+01
 0.1734122131796E+01
 0.1684394946326E+01
 0.1646952587373E+01
 0.1621724173381E+01
 0.1608859118803E+01
 0.1608736683559E+01
 0.1621981443201E+01
 0.1649492869395E+01
 0.1692495635793E+01
 0.1752599356008E+01
 0.1831864791300E+01
 0.1932877233071E+01
 0.2058824624128E+01
 0.2213575635059E+01
 0.2317384171915E+01
 0.2178909332535E+01
 0.2058664237481E+01
 0.1954748039990E+01
 0.1865713010726E+01
 0.1790479081007E+01
 0.1728270433946E+01
 0.1678572266712E+01
 0.1641103295176E+01
 0.1615801694140E+01
 0.1602824295839E+01
 0.1602556646170E+01
 0.1615627027353E+01
 0.1642936658715E+01
 0.1685714502703E+01
 0.1745580819182E+01
 0.1824616514915E+01
 0.1925439689096E+01
 0.2051286452846E+01
 0.2206089002783E+01
 0.2305746242236E+01
 0.2168604845652E+01
 0.2049321397979E+01
 0.1946080861885E+01
 0.1857501355196E+01
 0.1782551191765E+01
 0.1720488390219E+01
 0.1670820805409E+01
 0.1633281843262E+01
 0.1607818906688E+01
 0.1594594125898E+01
 0.1593994853995E+01
 0.1606645225142E+01
 0.1633436454343E+01
 0.1675586775091E+01
 0.1734708882129E+01
 0.1812882366698E+01
 0.1912733806160E+01
 0.2037521620885E+01
 0.2191215446189E+01
 0.2290899314681E+01
 0.2155523427597E+01
 0.2037522189016E+01
 0.1935188566871E+01
 0.1847223603410E+01
 0.1772656487026E+01
 0.1710787602683E+01
 0.1661152720185E+01
 0.1623502493416E+01
 0.1597793737760E+01
 0.1584191805346E+01
 0.1583081522874E+01
 0.1595075037438E+01
 0.1621041625144E+01
 0.1662173653654E+01
 0.1720057925380E+01
 0.1796750892939E+01
 0.1894862209001E+01
 0.2017644333338E+01
 0.2169073468555E+01
 0.2272914988927E+01
 0.2139717850249E+01
 0.2023305786458E+01
 0.1922100732301E+01
 0.1834902913146E+01
 0.1760814343703E+01
 0.1699185967594E+01
 0.1649586559327E+01
 0.1611786560786E+01
 0.1585752457631E+01
 0.1571650867328E+01
 0.1569860036874E+01
 0.1580972422482E+01
 0.1605823354392E+01
 0.1645564312840E+01
 0.1701738045597E+01
 0.1776356148516E+01
 0.1871985333035E+01
 0.1991841142386E+01
 0.2139866875734E+01
 0.2251883504625E+01
 0.2121255312112E+01
 0.2006722739132E+01
 0.1906856089399E+01
 0.1820570017086E+01
 0.1747050684672E+01
 0.1685707414790E+01
 0.1636146906285E+01
 0.1598161945770E+01
 0.1571729086467E+01
 0.1557014454060E+01
 0.1554386077357E+01
 0.1564409227504E+01
 0.1587873252880E+01
 0.1625874099616E+01
 0.1679892859992E+01
 0.1751874847501E+01
 0.1844318442027E+01
 0.1960369875381E+01
 0.2103889339982E+01
 0.2227912994517E+01
 0.2100216955784E+01
 0.1987834702326E+01
 0.1889502362612E+01
 0.1804263059604E+01
 0.1731397749668E+01
 0.1670381586356E+01
 0.1620863945469E+01
 0.1582662550536E+01
 0.1555764636029E+01
 0.1540334376755E+01
 0.1536726533606E+01
 0.1545471892405E+01
 0.1567301641051E+01
 0.1603242168416E+01
 0.1654696510739E+01
 0.1723523086239E+01
 0.1812126247255E+01
 0.1923555368940E+01
 0.2061531295877E+01
 0.2201128445501E+01
 0.2076697232514E+01
 0.1966714138001E+01
 0.1870096122061E+01
 0.1786027422133E+01
 0.1713893809770E+01
 0.1653243448387E+01
 0.1603772953597E+01
 0.1565327595018E+01
 0.1537906168537E+01
 0.1521669925829E+01
 0.1516958154612E+01
 0.1524260018567E+01
 0.1544235669390E+01
 0.1577828628752E+01
 0.1626349682586E+01
 0.1691552034850E+01
 0.1775719861365E+01
 0.1881776791684E+01
 0.2013283280783E+01
 0.2171670309917E+01
 0.2050803109956E+01
 0.1943444089551E+01
 0.1848702785725E+01
 0.1765915578515E+01
 0.1694582846716E+01
 0.1634332852412E+01
 0.1584913793702E+01
 0.1546200905975E+01
 0.1518205759332E+01
 0.1501086376836E+01
 0.1495165934442E+01
 0.1500884825720E+01
 0.1518817804389E+01
 0.1549811630567E+01
 0.1595074483409E+01
 0.1656241563732E+01
 0.1735453229359E+01
 0.1835473164755E+01
 0.1959684569097E+01
 0.2139692104581E+01
 0.2022652833114E+01
 0.1918118143211E+01
 0.1825396740119E+01
 0.1743986926774E+01
 0.1673513925821E+01
 0.1613693969020E+01
 0.1564330341386E+01
 0.1525330205812E+01
 0.1496719280776E+01
 0.1478653222582E+01
 0.1471440605186E+01
 0.1475467517473E+01
 0.1491204563772E+01
 0.1519386049634E+01
 0.1561108024348E+01
 0.1617889738241E+01
 0.1691713103336E+01
 0.1785146223957E+01
 0.1901317003316E+01
 0.2105356287361E+01
 0.1992374708249E+01
 0.1890840934207E+01
 0.1800262679468E+01
 0.1720307265820E+01
 0.1650740486309E+01
 0.1591374494261E+01
 0.1542070337209E+01
 0.1502766545200E+01
 0.1473505337729E+01
 0.1454442106944E+01
 0.1445876098079E+01
 0.1448134799505E+01
 0.1461568083121E+01
 0.1486763468252E+01
 0.1524701090429E+01
 0.1576793838755E+01
 0.1644897830697E+01
 0.1731341645856E+01
 0.1838853194336E+01
 0.2068826518135E+01
 0.1960102527756E+01
 0.1861733368436E+01
 0.1773396081587E+01
 0.1694948923877E+01
 0.1626317020111E+01
 0.1567425552005E+01
 0.1518185055271E+01
 0.1478564399656E+01
 0.1448623639601E+01
 0.1428524801933E+01
 0.1418565953345E+01
 0.1419015732766E+01
 0.1430083180827E+01
 0.1452195270214E+01
 0.1486112066050E+01
 0.1533241605249E+01
 0.1595360603169E+01
 0.1674630833896E+01
 0.1773108648573E+01
 0.2030232452685E+01
 0.1925985266626E+01
 0.1830932296705E+01
 0.1744918594937E+01
 0.1667978554173E+01
 0.1600298836747E+01
 0.1541899460740E+01
 0.1492732785778E+01
 0.1452780156378E+01
 0.1422135455538E+01
 0.1400969150940E+01
 0.1389601235597E+01
 0.1388236585997E+01
 0.1396925911500E+01
 0.1415915262222E+01
 0.1445767595270E+01
 0.1487401077757E+01
 0.1543363594933E+01
 0.1615531108901E+01
 0.1705043977280E+01
 0.1989656670815E+01
 0.1890095459075E+01
 0.1798729614623E+01
 0.1714919720364E+01
 0.1639455452960E+01
 0.1572740290772E+01
 0.1514853480213E+01
 0.1465766738971E+01
 0.1425496037514E+01
 0.1394085441660E+01
 0.1371838434497E+01
 0.1359072173525E+01
 0.1355915063481E+01
 0.1362264101512E+01
 0.1378158391367E+01
 0.1403946154149E+01
 0.1440345210163E+01
 0.1487984156974E+01
 0.1554448580653E+01
 0.1636367621196E+01
 0.1945780062915E+01
 0.1853413307271E+01
 0.1765279318116E+01
 0.1683461213088E+01
 0.1609415087376E+01
 0.1543699833540E+01
 0.1486357558889E+01
 0.1437342544784E+01
 0.1396745014310E+01
 0.1364678135540E+01
 0.1341013654984E+01
 0.1327073032131E+01
 0.1322327836517E+01
 0.1326077714663E+01
 0.1339164479605E+01
 0.1361051689390E+01
 0.1392075151447E+01
 0.1433581148882E+01
 0.1482730821324E+01
 0.1570073118416E+01
 0.5009658252755E+01
 0.3617356196231E+00
 0.3185198088925E-01
-0.1278001301779E+00
-0.1753513167304E+00
-0.1939847547303E+00
-0.2022961334623E+00
-0.2061411587312E+00
-0.2050004852339E+00
-0.1998401745567E+00
-0.1944353358369E+00
-0.1771835691851E+00
-0.1571290430977E+00
-0.1503547679941E+00
-0.1595657452610E+00
-0.1768424543354E+00
-0.1967148425353E+00
-0.2135961662187E+00
-0.2263799634996E+00
-0.2208813012068E+00
 0.2860828501255E+01
 0.1465875097312E+01
 0.2835118837575E+00
 0.3584933917125E-01
-0.6718364815588E-01
-0.1067988960165E+00
-0.1271595594715E+00
-0.1379248733045E+00
-0.1427334431847E+00
-0.1437293815934E+00
-0.1396307575108E+00
-0.1321859290626E+00
-0.1247929889069E+00
-0.1213721068331E+00
-0.1264866751088E+00
-0.1388674913510E+00
-0.1532653911488E+00
-0.1666493051557E+00
-0.1753957536562E+00
-0.1833919483289E+00
 0.2199302411882E+01
 0.1436079223371E+01
 0.6867076920897E+00
 0.2233188015420E+00
 0.6165143842196E-01
-0.1078659427417E-01
-0.4609634230539E-01
-0.6600297391821E-01
-0.7748626147349E-01
-0.8352016586006E-01
-0.8499239937642E-01
-0.8448842129019E-01
-0.8459548084262E-01
-0.8517961434709E-01
-0.8902342437206E-01
-0.9739125246490E-01
-0.1077613658790E+00
-0.1176542697933E+00
-0.1270014586636E+00
-0.1350708298388E+00
 0.1857186774473E+01
 0.1379038253031E+01
 0.8503663013404E+00
 0.4357307669165E+00
 0.2033025428223E+00
 0.9635556187196E-01
 0.4125056686199E-01
 0.1028922107996E-01
-0.8708772027108E-02
-0.2069689720352E-01
-0.2780727928067E-01
-0.3340378899010E-01
-0.3904638057972E-01
-0.4299511198842E-01
-0.4673958903277E-01
-0.5258739175543E-01
-0.5976435946127E-01
-0.6754339121267E-01
-0.7559648095780E-01
-0.8254060362778E-01
 0.1661485653249E+01
 0.1329116138910E+01
 0.9377981288306E+00
 0.5880250769478E+00
 0.3489296322761E+00
 0.2105136861484E+00
 0.1350631588813E+00
 0.9117193460233E-01
 0.6361256708422E-01
 0.4512850551165E-01
 0.3232768011845E-01
 0.2131196198568E-01
 0.1110605938251E-01
 0.4274268835082E-02
 0.5639903978808E-04
-0.4304431081442E-02
-0.9304451772364E-02
-0.1512245775819E-01
-0.2145349339934E-01
-0.2660685669006E-01
 0.1542013325030E+01
 0.1296083708004E+01
 0.9917540280980E+00
 0.7003840562833E+00
 0.4759246209864E+00
 0.3256929186663E+00
 0.2330039360575E+00
 0.1762467462244E+00
 0.1394656862987E+00
 0.1140941549175E+00
 0.9562310636740E-01
 0.7961289101111E-01
 0.6546856666990E-01
 0.5606152603453E-01
 0.5103534069191E-01
 0.4740801627684E-01
 0.4393759356350E-01
 0.3983248921477E-01
 0.3534495154922E-01
 0.3210799850307E-01
 0.1468286530550E+01
 0.1277405180734E+01
 0.1032030724781E+01
 0.7871208638798E+00
 0.5841548672425E+00
 0.4340923566674E+00
 0.3316987348630E+00
 0.2640856791788E+00
 0.2184353402325E+00
 0.1861262274462E+00
 0.1620723331580E+00
 0.1413899504816E+00
 0.1237305110654E+00
 0.1119662483253E+00
 0.1059000506243E+00
 0.1024925643600E+00
 0.1000484076906E+00
 0.9737474088143E-01
 0.9460046479764E-01
 0.9318962941790E-01
 0.1424202068785E+01
 0.1270229327689E+01
 0.1066823454952E+01
 0.8583204801855E+00
 0.6770530843728E+00
 0.5335698048229E+00
 0.4277259009452E+00
 0.3527917330358E+00
 0.2996190918069E+00
 0.2608575349602E+00
 0.2314888984793E+00
 0.2064511140865E+00
 0.1856059440578E+00
 0.1716505633346E+00
 0.1643859896528E+00
 0.1608166291381E+00
 0.1589804419988E+00
 0.1574088948469E+00
 0.1560825552168E+00
 0.1562519788477E+00
 0.1400511334602E+01
 0.1272159960109E+01
 0.1099879826690E+01
 0.9200841314967E+00
 0.7585490644656E+00
 0.6243786569255E+00
 0.5193967222889E+00
 0.4405715309300E+00
 0.3818805395713E+00
 0.3376541149338E+00
 0.3035027359368E+00
 0.2745091437859E+00
 0.2507859721363E+00
 0.2347904547553E+00
 0.2262174195648E+00
 0.2221821747247E+00
 0.2205745726279E+00
 0.2197415171878E+00
 0.2195095710370E+00
 0.2209044689774E+00
 0.1391508406802E+01
 0.1281413373522E+01
 0.1132941731934E+01
 0.9761174529696E+00
 0.8318341333645E+00
 0.7077481731949E+00
 0.6062223088134E+00
 0.5262674833804E+00
 0.4641360212356E+00
 0.4157507579854E+00
 0.3775953338546E+00
 0.3451746350246E+00
 0.3189123920450E+00
 0.3010385246238E+00
 0.2910855095755E+00
 0.2863254213789E+00
 0.2845837489131E+00
 0.2840969190875E+00
 0.2845467374332E+00
 0.2867353891705E+00
 0.1393485486095E+01
 0.1296675486875E+01
 0.1166842188899E+01
 0.1028682728657E+01
 0.8992837808917E+00
 0.7850814420140E+00
 0.6884037784266E+00
 0.6093037090920E+00
 0.5455640185773E+00
 0.4943968892464E+00
 0.4531723855423E+00
 0.4179732480350E+00
 0.3895671846155E+00
 0.3700043657542E+00
 0.3586344747546E+00
 0.3529191216067E+00
 0.3506852794729E+00
 0.3501279174515E+00
 0.3508059017895E+00
 0.3533115697002E+00
 0.1403923545192E+01
 0.1316965853612E+01
 0.1201978578741E+01
 0.1079188866343E+01
 0.9625996801174E+00
 0.8576503427896E+00
 0.7664437134749E+00
 0.6895163226241E+00
 0.6256307544442E+00
 0.5729575173212E+00
 0.5296389531487E+00
 0.4923820942066E+00
 0.4622800580066E+00
 0.4412494627339E+00
 0.4284574196801E+00
 0.4215760801678E+00
 0.4184902284888E+00
 0.4174231297301E+00
 0.4178475015476E+00
 0.4201818908546E+00
 0.1421042315947E+01
 0.1341530732190E+01
 0.1238528630407E+01
 0.1128530463994E+01
 0.1022984392540E+01
 0.9265016324257E+00
 0.8409252749101E+00
 0.7669808819611E+00
 0.7040384828235E+00
 0.6509436602027E+00
 0.6064526800722E+00
 0.5678696250113E+00
 0.5365483877232E+00
 0.5142954174956E+00
 0.5001017797645E+00
 0.4918578392115E+00
 0.4875534308149E+00
 0.4855137249469E+00
 0.4851802574425E+00
 0.4868762786328E+00
 0.1443536162595E+01
 0.1369767727307E+01
 0.1276549049296E+01
 0.1177282648745E+01
 0.1081282671969E+01
 0.9924543410269E+00
 0.9123996332399E+00
 0.8418859031590E+00
 0.7806511306245E+00
 0.7279999415057E+00
 0.6831464119447E+00
 0.6439262201768E+00
 0.6118612958367E+00
 0.5886411703035E+00
 0.5730861463764E+00
 0.5632916171005E+00
 0.5573902732427E+00
 0.5538807366946E+00
 0.5522555581379E+00
 0.5528894092841E+00
 0.1470412264554E+01
 0.1401174168735E+01
 0.1316020951452E+01
 0.1225812448842E+01
 0.1138083491492E+01
 0.1056127837929E+01
 0.9813370275479E+00
 0.9144512176491E+00
 0.8554268400461E+00
 0.8038729127828E+00
 0.7593276199920E+00
 0.7200803491753E+00
 0.6877178347309E+00
 0.6637855722956E+00
 0.6469238642987E+00
 0.6354057016873E+00
 0.6275030972580E+00
 0.6219721132500E+00
 0.6184494242498E+00
 0.6176355131220E+00
 0.1500888057868E+01
 0.1435311773910E+01
 0.1356870807045E+01
 0.1274342460118E+01
 0.1193789815217E+01
 0.1117975480979E+01
 0.1048110921354E+01
 0.9848798032099E+00
 0.9283661057136E+00
 0.8783758446954E+00
 0.8346650161583E+00
 0.7959004873919E+00
 0.7636372953011E+00
 0.7392341338680E+00
 0.7211639505519E+00
 0.7077672958562E+00
 0.6974606724520E+00
 0.6892192644205E+00
 0.6830463913449E+00
 0.6803355846040E+00
 0.1534323546267E+01
 0.1471783554405E+01
 0.1398978684324E+01
 0.1322988716727E+01
 0.1248664777313E+01
 0.1178315712399E+01
 0.1112997408916E+01
 0.1053331710521E+01
 0.9994749939094E+00
 0.9513581780788E+00
 0.9088711815624E+00
 0.8709904640732E+00
 0.8391548678400E+00
 0.8145037481770E+00
 0.7953489452040E+00
 0.7801306838650E+00
 0.7669442585325E+00
 0.7552282338424E+00
 0.7451275356646E+00
 0.7398148907651E+00
 0.1570183444989E+01
 0.1510211550744E+01
 0.1442186127195E+01
 0.1371778204312E+01
 0.1302866935583E+01
 0.1237356937737E+01
 0.1176182605016E+01
 0.1119908305349E+01
 0.1068741268609E+01
 0.1022680425891E+01
 0.9816880477224E+00
 0.9449859538230E+00
 0.9138213988133E+00
 0.8890876582878E+00
 0.8690227472408E+00
 0.8520904949167E+00
 0.8365614120949E+00
 0.8196406293255E+00
 0.8039307534471E+00
 0.7937005604351E+00
 0.1607993614659E+01
 0.1550261583712E+01
 0.1486251113909E+01
 0.1420683534990E+01
 0.1356474371465E+01
 0.1295219530077E+01
 0.1237768997027E+01
 0.1184652224182E+01
 0.1136102002364E+01
 0.1092200568754E+01
 0.1052878759757E+01
 0.1017553581370E+01
 0.9872240491449E+00
 0.9624659234837E+00
 0.9415713272783E+00
 0.9232566085938E+00
 0.9055352701323E+00
 0.8872607626685E+00
 0.8565620134633E+00
 0.8376408463586E+00
 0.1647779775431E+01
 0.1591288138719E+01
 0.1530939838934E+01
 0.1469640639057E+01
 0.1409523564965E+01
 0.1351941929952E+01
 0.1297780701954E+01
 0.1247545199459E+01
 0.1201471338204E+01
 0.1159650530358E+01
 0.1122258782021E+01
 0.1088483306607E+01
 0.1058921842724E+01
 0.1034194108611E+01
 0.1012381948336E+01
 0.9926073329110E+00
 0.9736126828328E+00
 0.9529395242733E+00
 0.9314816854773E+00
 0.8408045915112E+00
 0.1898411941239E+01
 0.1805319456770E+01
 0.1717301140199E+01
 0.1636420836614E+01
 0.1563076766476E+01
 0.1497714951092E+01
 0.1440588536244E+01
 0.1391800258297E+01
 0.1351346228989E+01
 0.1319282061112E+01
 0.1295948480138E+01
 0.1280644003349E+01
 0.1274858751470E+01
 0.1279623345762E+01
 0.1293214214748E+01
 0.1315817297395E+01
 0.1347464505218E+01
 0.1387345306816E+01
 0.1436552458886E+01
 0.1429968772006E+01
 0.1854385691278E+01
 0.1758323321267E+01
 0.1667088797561E+01
 0.1582490997159E+01
 0.1506020802728E+01
 0.1438119683576E+01
 0.1378921838431E+01
 0.1328503768595E+01
 0.1286861620549E+01
 0.1254044381523E+01
 0.1230101730869E+01
 0.1214768098126E+01
 0.1209705536338E+01
 0.1215893804228E+01
 0.1231940187105E+01
 0.1257455140075E+01
 0.1291772388660E+01
 0.1334978688013E+01
 0.1377326971190E+01
 0.1444378074587E+01
 0.1809103719372E+01
 0.1710525917888E+01
 0.1615376870017E+01
 0.1526772593125E+01
 0.1446678671831E+01
 0.1375750519104E+01
 0.1314091161793E+01
 0.1261763413368E+01
 0.1218702480092E+01
 0.1184858903797E+01
 0.1160355836560E+01
 0.1144643173095E+01
 0.1139776060629E+01
 0.1147119638885E+01
 0.1165141661630E+01
 0.1193258785743E+01
 0.1231006697765E+01
 0.1277319944642E+01
 0.1336806936273E+01
 0.1416691371560E+01
 0.1763474980669E+01
 0.1662081416914E+01
 0.1562599747529E+01
 0.1469374942738E+01
 0.1385142226325E+01
 0.1310722186940E+01
 0.1246238959583E+01
 0.1191745164190E+01
 0.1147077361007E+01
 0.1112106754860E+01
 0.1086881118383E+01
 0.1070570862393E+01
 0.1065567649104E+01
 0.1073612867683E+01
 0.1093274511690E+01
 0.1124007869973E+01
 0.1165336311024E+01
 0.1218638652715E+01
 0.1286659971378E+01
 0.1376110226483E+01
 0.1718013933526E+01
 0.1613456771049E+01
 0.1508994214708E+01
 0.1410462144245E+01
 0.1321480847199E+01
 0.1243095065304E+01
 0.1175449503467E+01
 0.1118584273562E+01
 0.1072209596746E+01
 0.1036051497549E+01
 0.1010030695094E+01
 0.9929732457157E+00
 0.9875400053977E+00
 0.9958824002726E+00
 0.1016849580863E+01
 0.1049933722767E+01
 0.1095142373367E+01
 0.1153722492022E+01
 0.1228723255153E+01
 0.1325704222323E+01
 0.1673283193854E+01
 0.1565069794698E+01
 0.1454817763924E+01
 0.1350137848902E+01
 0.1255721149343E+01
 0.1172866204616E+01
 0.1101749635668E+01
 0.1042382667965E+01
 0.9942938368323E+00
 0.9569966697918E+00
 0.9302060552383E+00
 0.9123421658094E+00
 0.9062411663540E+00
 0.9144850334770E+00
 0.9363035626252E+00
 0.9712895936409E+00
 0.1019523789598E+01
 0.1082349245415E+01
 0.1162937448343E+01
 0.1266839897037E+01
 0.1629897381171E+01
 0.1517352882855E+01
 0.1400291205585E+01
 0.1288452646308E+01
 0.1187809256572E+01
 0.1099952853909E+01
 0.1025101386788E+01
 0.9632040795302E+00
 0.9135265708146E+00
 0.8752747494194E+00
 0.8478628379067E+00
 0.8292352017955E+00
 0.8222873023101E+00
 0.8300296995909E+00
 0.8521547984818E+00
 0.8882724800588E+00
 0.9385668626832E+00
 0.1004456495208E+01
 0.1089516638814E+01
 0.1199789344573E+01
 0.1588573506893E+01
 0.1470760904710E+01
 0.1345599084627E+01
 0.1225373827353E+01
 0.1117584977707E+01
 0.1024168289376E+01
 0.9453942326732E+00
 0.8810850431765E+00
 0.8301183662106E+00
 0.7912620982266E+00
 0.7635140007186E+00
 0.7442736486838E+00
 0.7363634135056E+00
 0.7432172143275E+00
 0.7650255531763E+00
 0.8013922441845E+00
 0.8526188163637E+00
 0.9203025954905E+00
 0.1008601769279E+01
 0.1124509312174E+01
 0.1550186882633E+01
 0.1425792436319E+01
 0.1290878580995E+01
 0.1160753540212E+01
 0.1044740974559E+01
 0.9451961301964E+00
 0.8624439172826E+00
 0.7960529196518E+00
 0.7443192199529E+00
 0.7053969587842E+00
 0.6777370376584E+00
 0.6581397649079E+00
 0.6492241710631E+00
 0.6548406342567E+00
 0.6756960991161E+00
 0.7113562470097E+00
 0.7622740540419E+00
 0.8303122525003E+00
 0.9203906712484E+00
 0.1040832739840E+01
 0.1515854067760E+01
 0.1383017436692E+01
 0.1236201689505E+01
 0.1094275562530E+01
 0.9687659495373E+00
 0.8625627309147E+00
 0.7760044230369E+00
 0.7081623878095E+00
 0.6564560517344E+00
 0.6182018644220E+00
 0.5911773778602E+00
 0.5715669413166E+00
 0.5616771947363E+00
 0.5657742676886E+00
 0.5850673876618E+00
 0.6190441186621E+00
 0.6683207017642E+00
 0.7350928139020E+00
 0.8251861233836E+00
 0.9486036562918E+00
 0.1487061552279E+01
 0.1343117598990E+01
 0.1181537388916E+01
 0.1025365078660E+01
 0.8888629217409E+00
 0.7756155151824E+00
 0.6858072772946E+00
 0.6175591447663E+00
 0.5669828148317E+00
 0.5303030036733E+00
 0.5045409764949E+00
 0.4853162499300E+00
 0.4745545994673E+00
 0.4769382720445E+00
 0.4941261606722E+00
 0.5254705306631E+00
 0.5717292059758E+00
 0.6354523175328E+00
 0.7234610409311E+00
 0.8477683024718E+00
 0.1465875572071E+01
 0.1306944877795E+01
 0.1126670923174E+01
 0.9530320488434E+00
 0.8038375852487E+00
 0.6835274568852E+00
 0.5916527722930E+00
 0.5245795197735E+00
 0.4765356458531E+00
 0.4424336913676E+00
 0.4185678668396E+00
 0.4001403224307E+00
 0.3886758427392E+00
 0.3892596717935E+00
 0.4039021571447E+00
 0.4317482032382E+00
 0.4736366200467E+00
 0.5324261409012E+00
 0.6159273792717E+00
 0.7384636985724E+00
 0.1455300370420E+01
 0.1275604388999E+01
 0.1071028163279E+01
 0.8755996245676E+00
 0.7119620502696E+00
 0.5853769736491E+00
 0.4935886082317E+00
 0.4298861824075E+00
 0.3859685998776E+00
 0.3554028648633E+00
 0.3339812434583E+00
 0.3167400591286E+00
 0.3048130305712E+00
 0.3036357668306E+00
 0.3154228222057E+00
 0.3390377794525E+00
 0.3753152908402E+00
 0.4272947459234E+00
 0.5036151203104E+00
 0.6211224858109E+00
 0.1459924528617E+01
 0.1250558834923E+01
 0.1013291809057E+01
 0.7902320947288E+00
 0.6108687105567E+00
 0.4803998614485E+00
 0.3922227510492E+00
 0.3345988583913E+00
 0.2963254192061E+00
 0.2700064659648E+00
 0.2514195850979E+00
 0.2357257266486E+00
 0.2236681488580E+00
 0.2209088410698E+00
 0.2296682584717E+00
 0.2484803259060E+00
 0.2781078132398E+00
 0.3215743100832E+00
 0.3879569833620E+00
 0.4966142761696E+00
 0.1487158873652E+01
 0.1233735720353E+01
 0.9505121575891E+00
 0.6921751641308E+00
 0.4976268743153E+00
 0.3686448166807E+00
 0.2891292006769E+00
 0.2403278009469E+00
 0.2086613071946E+00
 0.1869038136877E+00
 0.1713721036703E+00
 0.1575949548816E+00
 0.1458694875568E+00
 0.1418590582125E+00
 0.1475377215310E+00
 0.1611138448602E+00
 0.1833144868366E+00
 0.2169466865970E+00
 0.2708620196945E+00
 0.3664435518630E+00
 0.1549904299010E+01
 0.1227383692072E+01
 0.8761296608674E+00
 0.5734881943652E+00
 0.3697721506636E+00
 0.2521214146138E+00
 0.1872651245100E+00
 0.1487249134294E+00
 0.1238064468756E+00
 0.1065050048124E+00
 0.9414447497506E-01
 0.8273231821139E-01
 0.7198337659126E-01
 0.6722636829671E-01
 0.6983753237256E-01
 0.7780080246514E-01
 0.9202062191710E-01
 0.1150888042226E+00
 0.1547168375199E+00
 0.2330260520892E+00
 0.1672636176356E+01
 0.1233429304620E+01
 0.7741523552729E+00
 0.4229171642557E+00
 0.2278163572773E+00
 0.1374451406141E+00
 0.8946939618705E-01
 0.6101816815423E-01
 0.4216476578491E-01
 0.2894601849131E-01
 0.1985780529473E-01
 0.1140963712515E-01
 0.2552933302832E-02
-0.2259834593381E-02
-0.2663829740448E-02
-0.8301785302146E-03
 0.4940610302930E-02
 0.1730620356633E-01
 0.4223033271909E-01
 0.9998617052730E-01
 0.1912061781468E+01
 0.1243572850925E+01
 0.6100223980318E+00
 0.2245882501072E+00
 0.9079757003192E-01
 0.2953768900940E-01
-0.2324609490100E-02
-0.2242717225363E-01
-0.3621552280448E-01
-0.4583546070898E-01
-0.5160804152484E-01
-0.5619275608307E-01
-0.6186244877132E-01
-0.6577233048672E-01
-0.6928017409458E-01
-0.7415228868183E-01
-0.7786162930339E-01
-0.7577816384194E-01
-0.6432842541012E-01
-0.2750277193911E-01
 0.2408506080773E+01
 0.1229472367676E+01
 0.2502763783243E+00
 0.5007491837591E-01
-0.3431744331708E-01
-0.6828424661497E-01
-0.8826218155917E-01
-0.1017806407758E+00
-0.1112714345827E+00
-0.1181944435759E+00
-0.1205503758914E+00
-0.1202636369598E+00
-0.1203768598675E+00
-0.1222615941216E+00
-0.1294011739548E+00
-0.1419696949101E+00
-0.1553594402310E+00
-0.1663773441207E+00
-0.1630513273524E+00
-0.1438947997436E+00
 0.4122586827768E+01
 0.2755573708955E+00
 0.2450521558683E-01
-0.1031862290646E+00
-0.1414139893195E+00
-0.1578845220392E+00
-0.1685931226254E+00
-0.1776547243141E+00
-0.1834506312728E+00
-0.1865548597639E+00
-0.1899071905106E+00
-0.1810443311111E+00
-0.1707024279274E+00
-0.1704269278459E+00
-0.1831548975771E+00
-0.2038257687174E+00
-0.2279455431533E+00
-0.2500816415789E+00
-0.2693693563436E+00
-0.2303953694258E+00
 0.9454223586632E+00
 0.8546341369128E+00
 0.7926448822918E+00
 0.7341122637364E+00
 0.6763230579640E+00
 0.6175583390404E+00
 0.5573247307599E+00
 0.4955553324772E+00
 0.4324302128729E+00
 0.3682512342563E+00
 0.3033845594004E+00
 0.2382279972339E+00
 0.1731916957249E+00
 0.1086842656831E+00
 0.4510383231524E-01
-0.1716924082361E-01
-0.7774470705381E-01
-0.1363117652847E+00
-0.1919074515252E+00
-0.2478212802445E+00
 0.1000583166130E+01
 0.9339788515181E+00
 0.8669896580055E+00
 0.8053447741726E+00
 0.7443701272811E+00
 0.6827926351693E+00
 0.6197781576234E+00
 0.5550323552334E+00
 0.4885464470005E+00
 0.4205058443733E+00
 0.3512227481292E+00
 0.2810952920202E+00
 0.2105757580114E+00
 0.1401408880632E+00
 0.7025968636612E-01
 0.1365272602869E-02
-0.6619583933552E-01
-0.1321264698804E+00
-0.1968849016631E+00
-0.2612369385114E+00
 0.1056629023066E+01
 0.1000273489392E+01
 0.9401904768897E+00
 0.8790144536975E+00
 0.8175119281121E+00
 0.7546312880924E+00
 0.6898393313573E+00
 0.6228062314669E+00
 0.5534485224519E+00
 0.4818695623470E+00
 0.4083271000295E+00
 0.3332041964850E+00
 0.2569825328027E+00
 0.1802094932773E+00
 0.1034548493390E+00
 0.2725243063074E-01
-0.4794713823914E-01
-0.1218952509411E+00
-0.1944244474736E+00
-0.2650222921772E+00
 0.1116922541294E+01
 0.1067096664309E+01
 0.1012536086522E+01
 0.9549171694653E+00
 0.8948502463406E+00
 0.8323510807603E+00
 0.7670691732813E+00
 0.6987662398205E+00
 0.6273288999897E+00
 0.5527990901994E+00
 0.4753720006445E+00
 0.3953933913336E+00
 0.3133514882609E+00
 0.2298581992216E+00
 0.1456085637238E+00
 0.6131533217893E-01
-0.2238560486108E-01
-0.1049738928155E+00
-0.1859854159085E+00
-0.2650045133456E+00
 0.1180795226636E+01
 0.1136396630984E+01
 0.1087099386849E+01
 0.1033681607063E+01
 0.9766101745118E+00
 0.9159405030880E+00
 0.8515278894678E+00
 0.7831581840738E+00
 0.7106832685529E+00
 0.6340624226100E+00
 0.5533943400716E+00
 0.4689393112260E+00
 0.3811386298041E+00
 0.2906254973830E+00
 0.1982150123851E+00
 0.1048473521311E+00
 0.1148011107086E-01
-0.8105973436025E-01
-0.1721721684386E+00
-0.2613782749951E+00
 0.1247958594790E+01
 0.1208817421477E+01
 0.1164846755507E+01
 0.1116272195645E+01
 0.1063245065850E+01
 0.1005736896499E+01
 0.9435639011490E+00
 0.8764794662430E+00
 0.8042443064800E+00
 0.7266881854284E+00
 0.6437527781444E+00
 0.5555343570781E+00
 0.4623301427653E+00
 0.3646895781686E+00
 0.2634602356268E+00
 0.1598020325461E+00
 0.5508958048684E-01
-0.4932390297805E-01
-0.1524780480339E+00
-0.2539484308927E+00
 0.1317989615449E+01
 0.1284432039044E+01
 0.1246190361788E+01
 0.1203149541351E+01
 0.1155193833903E+01
 0.1102118891967E+01
 0.1043623803677E+01
 0.9793416214013E+00
 0.9088868983267E+00
 0.8318998909484E+00
 0.7480915758796E+00
 0.6572929048723E+00
 0.5595181288307E+00
 0.4550504742633E+00
 0.3445568648790E+00
 0.2292205245998E+00
 0.1108437029020E+00
-0.8383254053322E-02
-0.1264415721426E+00
-0.2425485406152E+00
 0.1390536201220E+01
 0.1363134962619E+01
 0.1331263914117E+01
 0.1294594488397E+01
 0.1252800316731E+01
 0.1205500047620E+01
 0.1152235131241E+01
 0.1092477313488E+01
 0.1025649633086E+01
 0.9511542843192E+00
 0.8684045367355E+00
 0.7768658099617E+00
 0.6761149128902E+00
 0.5659334253840E+00
 0.4464596813945E+00
 0.3184383172307E+00
 0.1835943080738E+00
 0.4513746757753E-01
-0.9296505476404E-01
-0.2273605980077E+00
 0.1465194426102E+01
 0.1444677463600E+01
 0.1420000741798E+01
 0.1390701417410E+01
 0.1356304756997E+01
 0.1316277971665E+01
 0.1270008902155E+01
 0.1216798933037E+01
 0.1155866013402E+01
 0.1086352613517E+01
 0.1007337431673E+01
 0.9178528911621E+00
 0.8169156639632E+00
 0.7035850670962E+00
 0.5770804380811E+00
 0.4370224052760E+00
 0.2839490738138E+00
 0.1204005295018E+00
-0.4660238796957E-01
-0.2086906685550E+00
 0.1541306617301E+01
 0.1528463083925E+01
 0.1511889607184E+01
 0.1491070327508E+01
 0.1465438757321E+01
 0.1434356472059E+01
 0.1397091184075E+01
 0.1352801418597E+01
 0.1300524561662E+01
 0.1239165658283E+01
 0.1167484528471E+01
 0.1084080237907E+01
 0.9873737474600E+00
 0.8755933369616E+00
 0.7467763804746E+00
 0.5988271090303E+00
 0.4297521470853E+00
 0.2384561122143E+00
 0.2785063137822E-01
-0.1821935711973E+00
 0.1618193018068E+01
 0.1613723616805E+01
 0.1606133717845E+01
 0.1594894892867E+01
 0.1579408735497E+01
 0.1558989693113E+01
 0.1532844946883E+01
 0.1500053044517E+01
 0.1459540936584E+01
 0.1410056520148E+01
 0.1350133051167E+01
 0.1278040613224E+01
 0.1191717946444E+01
 0.1088674248278E+01
 0.9658439144897E+00
 0.8193657407474E+00
 0.6442336912270E+00
 0.4338112842738E+00
 0.1788750032987E+00
-0.1246957730225E+00
 0.1695108896402E+01
 0.1699583339578E+01
 0.1701732426568E+01
 0.1701055682164E+01
 0.1696978290656E+01
 0.1688835017225E+01
 0.1675850509108E+01
 0.1657116245511E+01
 0.1631562774443E+01
 0.1597924533654E+01
 0.1554692779842E+01
 0.1500049817888E+01
 0.1431773466086E+01
 0.1347092442284E+01
 0.1242455804117E+01
 0.1113139326951E+01
 0.9525128956524E+00
 0.7504324236199E+00
 0.4894717511236E+00
 0.1240849342068E+00
 0.1771252522854E+01
 0.1785078516123E+01
 0.1797537373259E+01
 0.1808195544989E+01
 0.1816553268337E+01
 0.1822029976123E+01
 0.1823947372364E+01
 0.1821509356293E+01
 0.1813777519781E+01
 0.1799639964024E+01
 0.1777769902240E+01
 0.1746568484162E+01
 0.1704082817377E+01
 0.1647883499202E+01
 0.1574872806735E+01
 0.1480964536814E+01
 0.1360506586240E+01
 0.1205121774682E+01
 0.1000897318639E+01
 0.7205844978301E+00
 0.1845787118954E+01
 0.1869189347185E+01
 0.1892306369293E+01
 0.1914804711905E+01
 0.1936300695538E+01
 0.1956349194046E+01
 0.1974431553646E+01
 0.1989942062604E+01
 0.2002172239026E+01
 0.2010291943835E+01
 0.2013325911539E+01
 0.2010123788749E+01
 0.1999321144762E+01
 0.1979288526867E+01
 0.1948065838827E+01
 0.1903287136522E+01
 0.1842121085877E+01
 0.1761444023986E+01
 0.1658857103844E+01
 0.1546333719123E+01
 0.1917862902917E+01
 0.1950869707239E+01
 0.1984751023999E+01
 0.2019297205445E+01
 0.2054268422148E+01
 0.2089387672585E+01
 0.2124334415130E+01
 0.2158738688150E+01
 0.2192175793007E+01
 0.2224161881727E+01
 0.2254151272564E+01
 0.2281537292685E+01
 0.2305660606255E+01
 0.2325833657935E+01
 0.2341401757375E+01
 0.2351887058242E+01
 0.2357353626866E+01
 0.2359273900792E+01
 0.2363531795840E+01
 0.2383095240246E+01
 0.1986635313263E+01
 0.2029071695148E+01
 0.2073572448835E+01
 0.2120065188406E+01
 0.2168468224287E+01
 0.2218687768320E+01
 0.2270616865210E+01
 0.2324136359763E+01
 0.2379118603504E+01
 0.2435435179239E+01
 0.2492970863398E+01
 0.2551647714396E+01
 0.2611466199734E+01
 0.2672576188553E+01
 0.2735401158414E+01
 0.2800863410217E+01
 0.2870779856119E+01
 0.2948620180927E+01
 0.3040022976664E+01
 0.3151100571462E+01
 0.2051280686580E+01
 0.2102766928607E+01
 0.2157491125951E+01
 0.2215521770661E+01
 0.2276937475503E+01
 0.2341827659686E+01
 0.2410295539280E+01
 0.2482464002319E+01
 0.2558485352995E+01
 0.2638556500103E+01
 0.2722942063410E+01
 0.2812009246578E+01
 0.2906280456244E+01
 0.3006512549897E+01
 0.3113815709113E+01
 0.3229822726050E+01
 0.3356912994514E+01
 0.3498326309936E+01
 0.3657784357635E+01
 0.3838871890396E+01
 0.2111010820360E+01
 0.2170966003915E+01
 0.2235273215300E+01
 0.2304136820952E+01
 0.2377787876687E+01
 0.2456487182966E+01
 0.2540530707782E+01
 0.2630258018901E+01
 0.2726064605228E+01
 0.2828419369361E+01
 0.2937889103385E+01
 0.3055172318771E+01
 0.3181145176103E+01
 0.3316921914857E+01
 0.3463928423047E+01
 0.3623978035021E+01
 0.3799298963910E+01
 0.3992423329317E+01
 0.4205928960635E+01
 0.4442101707119E+01
 0.2165086036076E+01
 0.2232736095499E+01
 0.2305753673288E+01
 0.2384467044948E+01
 0.2469244268783E+01
 0.2560497255515E+01
 0.2658688079428E+01
 0.2764337841171E+01
 0.2878038504720E+01
 0.3000468444379E+01
 0.3132412458021E+01
 0.3274786784963E+01
 0.3428668825157E+01
 0.3595328930698E+01
 0.3776256950635E+01
 0.3973165766954E+01
 0.4187946024127E+01
 0.4422561267663E+01
 0.4678918454769E+01
 0.4958668293281E+01
 0.2212826569690E+01
 0.2287216134802E+01
 0.2367855319523E+01
 0.2455179772776E+01
 0.2549673785147E+01
 0.2651874564674E+01
 0.2762378578743E+01
 0.2881849168406E+01
 0.3011025817218E+01
 0.3150735140939E+01
 0.3301903439963E+01
 0.3465570050379E+01
 0.3642899536830E+01
 0.3835188760197E+01
 0.4043861742615E+01
 0.4270443383417E+01
 0.4516507030926E+01
 0.4783606175604E+01
 0.5073202192395E+01
 0.5386781906736E+01
 0.2253622310623E+01
 0.2333628976161E+01
 0.2420605379436E+01
 0.2515074942458E+01
 0.2617613094068E+01
 0.2728853637980E+01
 0.2849493852146E+01
 0.2980300034370E+01
 0.3122113210592E+01
 0.3275854692264E+01
 0.3442530760371E+01
 0.3623235200584E+01
 0.3819147606900E+01
 0.4031524397190E+01
 0.4261679061583E+01
 0.4510949511349E+01
 0.4780655094681E+01
 0.5072048983151E+01
 0.5386292970180E+01
 0.5724392798659E+01
 0.2286944840012E+01
 0.2371304117811E+01
 0.2463175169986E+01
 0.2563141443506E+01
 0.2671843071650E+01
 0.2789980733123E+01
 0.2918319563437E+01
 0.3057692323671E+01
 0.3209001633113E+01
 0.3373220615376E+01
 0.3551391073382E+01
 0.3744618002276E+01
 0.3954059004442E+01
 0.4180907217205E+01
 0.4426367058814E+01
 0.4691623817726E+01
 0.4977809739151E+01
 0.5285972189163E+01
 0.5617034620216E+01
 0.5971718775651E+01
 0.2312359740394E+01
 0.2399714458901E+01
 0.2494926800855E+01
 0.2598615961101E+01
 0.2711459344482E+01
 0.2834195437484E+01
 0.2967626155839E+01
 0.3112618140525E+01
 0.3270102347367E+01
 0.3441071232219E+01
 0.3626572677318E+01
 0.3827699780863E+01
 0.4045575816119E+01
 0.4281334201029E+01
 0.4536094286281E+01
 0.4810934845078E+01
 0.5106868144933E+01
 0.5424815471301E+01
 0.5765583175940E+01
 0.6129861383709E+01
 0.2329527585185E+01
 0.2418455373728E+01
 0.2515381025126E+01
 0.2620935217312E+01
 0.2735806217385E+01
 0.2860742271468E+01
 0.2996553141638E+01
 0.3144110335220E+01
 0.3304345395766E+01
 0.3478245526489E+01
 0.3666845795588E+01
 0.3871217276960E+01
 0.4092450831633E+01
 0.4331636904318E+01
 0.4589842619464E+01
 0.4868088428365E+01
 0.5167326905998E+01
 0.5488426535070E+01
 0.5832166835511E+01
 0.6199251886399E+01
 0.2338205992394E+01
 0.2427244056394E+01
 0.2524211049468E+01
 0.2629724834317E+01
 0.2744458787345E+01
 0.2869143996493E+01
 0.3004570722820E+01
 0.3151588654253E+01
 0.3311105399982E+01
 0.3484082575340E+01
 0.3671528781319E+01
 0.3874488849939E+01
 0.4094028992416E+01
 0.4331218029668E+01
 0.4587105750336E+01
 0.4862700452907E+01
 0.5158948802832E+01
 0.5476722186379E+01
 0.5816813393554E+01
 0.6179942995996E+01
 0.2338252285737E+01
 0.2425923624390E+01
 0.2521246690790E+01
 0.2624802917726E+01
 0.2737225631998E+01
 0.2859202547685E+01
 0.2991477802468E+01
 0.3134853233728E+01
 0.3290188494652E+01
 0.3458399499093E+01
 0.3640454547265E+01
 0.3837367348645E+01
 0.4050186102002E+01
 0.4279977965769E+01
 0.4527808815407E+01
 0.4794719457103E+01
 0.5081701213565E+01
 0.5389675515567E+01
 0.5719481620957E+01
 0.6071874405239E+01
 0.2329626131821E+01
 0.2414465982273E+01
 0.2506477971628E+01
 0.2606184238486E+01
 0.2714153552195E+01
 0.2831004387239E+01
 0.2957407990121E+01
 0.3094091354626E+01
 0.3241839992105E+01
 0.3401500272972E+01
 0.3573980833187E+01
 0.3760252142144E+01
 0.3961342797565E+01
 0.4178330530784E+01
 0.4412325743006E+01
 0.4664446042048E+01
 0.4935783014271E+01
 0.5227365866960E+01
 0.5540130816307E+01
 0.5874903782077E+01
 0.2312390616529E+01
 0.2392973966769E+01
 0.2480058518426E+01
 0.2574085387520E+01
 0.2675535038840E+01
 0.2784931131724E+01
 0.2902844680992E+01
 0.3029898776482E+01
 0.3166774356294E+01
 0.3314217271619E+01
 0.3473046543722E+01
 0.3644163100936E+01
 0.3828557359828E+01
 0.4027312578543E+01
 0.4241598870573E+01
 0.4472651910207E+01
 0.4721730926222E+01
 0.4990058841777E+01
 0.5278755619616E+01
 0.5588789126679E+01
 0.2286712915132E+01
 0.2361683247004E+01
 0.2442309621631E+01
 0.2528931715321E+01
 0.2621919006917E+01
 0.2721675655380E+01
 0.2828644923379E+01
 0.2943314797573E+01
 0.3066226037850E+01
 0.3197983714673E+01
 0.3339272682580E+01
 0.3490877045369E+01
 0.3653702793202E+01
 0.3828800959471E+01
 0.4017385141728E+01
 0.4220830391387E+01
 0.4440638601222E+01
 0.4678353469894E+01
 0.4935437482772E+01
 0.5213140254834E+01
 0.2252864571470E+01
 0.2320964947308E+01
 0.2393726611596E+01
 0.2471367758231E+01
 0.2554126371692E+01
 0.2642264858640E+01
 0.2736072838144E+01
 0.2835871172060E+01
 0.2942020562230E+01
 0.3054935842968E+01
 0.3175107146140E+01
 0.3303129040746E+01
 0.3439738981579E+01
 0.3585865638488E+01
 0.3742684434602E+01
 0.3911669508111E+01
 0.4094605317049E+01
 0.4293522632913E+01
 0.4510499023657E+01
 0.4747381406033E+01
 0.2211220906864E+01
 0.2271331839425E+01
 0.2334990590804E+01
 0.2402274028651E+01
 0.2473272060929E+01
 0.2548089722481E+01
 0.2626841663645E+01
 0.2709651867838E+01
 0.2796659898756E+01
 0.2888035202584E+01
 0.2983999957760E+01
 0.3084862879953E+01
 0.3191067777913E+01
 0.3303263028704E+01
 0.3422399623513E+01
 0.3549862241765E+01
 0.3687622802192E+01
 0.3838289178687E+01
 0.4004980139022E+01
 0.4190783395060E+01
 0.2162263651461E+01
 0.2213453110649E+01
 0.2266991050591E+01
 0.2322790286088E+01
 0.2380791266275E+01
 0.2440936694760E+01
 0.2503154195063E+01
 0.2567347164927E+01
 0.2633397338397E+01
 0.2701175142190E+01
 0.2770558879071E+01
 0.2841463696196E+01
 0.2913886402519E+01
 0.2987976639615E+01
 0.3064153718959E+01
 0.3143301830282E+01
 0.3227092330452E+01
 0.3318489673571E+01
 0.3421885249498E+01
 0.3542857515490E+01
 0.2106592200190E+01
 0.2148195081857E+01
 0.2190853811724E+01
 0.2234337884515E+01
 0.2278455291494E+01
 0.2323000183611E+01
 0.2367711850345E+01
 0.2412260826796E+01
 0.2456244219138E+01
 0.2499192419566E+01
 0.2540577377321E+01
 0.2579825740105E+01
 0.2616339938393E+01
 0.2649538133139E+01
 0.2678933708928E+01
 0.2704301643361E+01
 0.2726035171302E+01
 0.2745967315588E+01
 0.2769326007072E+01
 0.2804874219238E+01
 0.2045005687829E+01
 0.2076620755671E+01
 0.2107912664197E+01
 0.2138555262947E+01
 0.2168278889190E+01
 0.2196754443829E+01
 0.2223550202473E+01
 0.2248098485762E+01
 0.2269703092753E+01
 0.2287535928084E+01
 0.2300633698995E+01
 0.2307883579760E+01
 0.2308002759322E+01
 0.2299513330156E+01
 0.2280719719625E+01
 0.2249705152606E+01
 0.2204422758574E+01
 0.2143065899748E+01
 0.2066074785313E+01
 0.1985167912887E+01
 0.1978273004257E+01
 0.1999644565113E+01
 0.2019227767280E+01
 0.2036712164933E+01
 0.2051807362266E+01
 0.2064138993401E+01
 0.2073101356266E+01
 0.2077905112530E+01
 0.2077564560820E+01
 0.2070912772406E+01
 0.2056575140569E+01
 0.2032925299937E+01
 0.1998015271339E+01
 0.1949472461501E+01
 0.1884342213854E+01
 0.1798841644272E+01
 0.1687925660485E+01
 0.1544584232828E+01
 0.1357921162838E+01
 0.1116119791173E+01
 0.1907218070174E+01
 0.1918137572593E+01
 0.1925756511585E+01
 0.1929828010279E+01
 0.1930341247632E+01
 0.1926812336380E+01
 0.1918533908968E+01
 0.1904464952584E+01
 0.1883379444711E+01
 0.1853840493712E+01
 0.1814164829484E+01
 0.1762350152748E+01
 0.1695969738423E+01
 0.1612014972009E+01
 0.1506650330779E+01
 0.1374793140621E+01
 0.1209362571731E+01
 0.9995762604739E+00
 0.7271800572089E+00
 0.3443137279441E+00
 0.1832845117656E+01
 0.1833322355286E+01
 0.1828394319773E+01
 0.1819090867287E+01
 0.1805252756896E+01
 0.1786734822833E+01
 0.1762421449514E+01
 0.1731105265134E+01
 0.1691402184984E+01
 0.1641762153617E+01
 0.1580406632527E+01
 0.1505251103499E+01
 0.1413799325265E+01
 0.1302998787516E+01
 0.1169026528828E+01
 0.1006957620317E+01
 0.8101565857579E+00
 0.5693082414304E+00
 0.2700161660922E+00
-0.1101318564340E+00
 0.1757056158592E+01
 0.1745867551660E+01
 0.1728503485429E+01
 0.1704950196598E+01
 0.1678067071508E+01
 0.1646037467186E+01
 0.1607628532093E+01
 0.1561469807463E+01
 0.1506199940035E+01
 0.1440373898400E+01
 0.1362405650053E+01
 0.1270500756963E+01
 0.1162589623924E+01
 0.1036258985261E+01
 0.8886903128164E+00
 0.7166158304966E+00
 0.5164197480652E+00
 0.2844592417674E+00
 0.1978202795978E-01
-0.2570141459896E+00
 0.1680657851908E+01
 0.1660695911395E+01
 0.1622823089603E+01
 0.1588316311632E+01
 0.1550245225125E+01
 0.1507060134688E+01
 0.1457076370956E+01
 0.1399037125178E+01
 0.1331795322173E+01
 0.1254240657855E+01
 0.1165225435341E+01
 0.1063522299098E+01
 0.9478052388421E+00
 0.8166700407632E+00
 0.6687296203409E+00
 0.5028894081999E+00
 0.3189582553829E+00
 0.1193700957800E+00
-0.8816435821733E-01
-0.2872248420691E+00
 0.1634682039504E+01
 0.1553804914600E+01
 0.1512091801556E+01
 0.1469746408540E+01
 0.1424066798684E+01
 0.1372452369117E+01
 0.1313677040376E+01
 0.1246847430179E+01
 0.1171278878095E+01
 0.1086375026954E+01
 0.9915809781389E+00
 0.8863653379669E+00
 0.7702372802688E+00
 0.6428159206459E+00
 0.5040003536191E+00
 0.3543219238868E+00
 0.1957193468720E+00
 0.3269020522255E-01
-0.1247950875818E+00
-0.2765375949978E+00
</DataArray>
<DataArray type="Float64" Name="S_Oct" NumberOfComponents="1" ComponentName0="S_Oct" format="ascii">
 0.3401495328767E+01
 0.3005745589760E+01
 0.2699511130655E+01
 0.2579221060369E+01
 0.2493280535504E+01
 0.2435709950849E+01
 0.2392897767265E+01
 0.2360356381005E+01
 0.2335020761943E+01
 0.2315278514843E+01
 0.2300210258042E+01
 0.2289396445566E+01
 0.2282775988521E+01
 0.2280595269593E+01
 0.2283408130799E+01
 0.2292138166956E+01
 0.2308248016104E+01
 0.2334197781602E+01
 0.2374547653403E+01
 0.2435834035025E+01
 0.2514199733147E+01
 0.2593058513984E+01
 0.2659434117201E+01
 0.2709962603046E+01
 0.2747331532106E+01
 0.2776045861070E+01
 0.2800034492503E+01
 0.2821763114308E+01
 0.2841867930415E+01
 0.2858825136263E+01
 0.2871597321823E+01
 0.2884748759918E+01
 0.2905061946701E+01
 0.2936978815578E+01
 0.2984962703380E+01
 0.3053161520521E+01
 0.3153849865321E+01
 0.3269697300992E+01
 0.3531363084409E+01
 0.3159669916505E+01
 0.6485358909716E+01
 0.2879557801005E+01
 0.2955569878991E+01
 0.2728754743871E+01
 0.2586082988824E+01
 0.2499638745152E+01
 0.2436996799820E+01
 0.2391169836893E+01
 0.2356113900512E+01
 0.2328913215415E+01
 0.2307750604218E+01
 0.2291618690955E+01
 0.2280012062216E+01
 0.2272803029275E+01
 0.2270177433166E+01
 0.2272627146971E+01
 0.2280994986468E+01
 0.2296608340062E+01
 0.2321502866560E+01
 0.2357863279871E+01
 0.2406019094539E+01
 0.2462039691825E+01
 0.2518298938604E+01
 0.2567709414600E+01
 0.2606927169768E+01
 0.2636123182742E+01
 0.2657164310886E+01
 0.2672050721391E+01
 0.2682009815948E+01
 0.2687234493584E+01
 0.2687500600042E+01
 0.2683107280803E+01
 0.2675104512587E+01
 0.2664717116808E+01
 0.2652142993139E+01
 0.2634830086681E+01
 0.2607271621881E+01
 0.2550145893443E+01
 0.2448261518952E+01
 0.2133689423131E+01
 0.1627033713824E+01
 0.5498105642225E+01
 0.2591086826855E+01
 0.2779038825717E+01
 0.2702004140464E+01
 0.2577474578203E+01
 0.2493493708490E+01
 0.2431570692225E+01
 0.2384669186508E+01
 0.2348488980991E+01
 0.2320169595926E+01
 0.2298028257482E+01
 0.2281050273007E+01
 0.2268707578246E+01
 0.2260828982798E+01
 0.2257541125875E+01
 0.2259248712588E+01
 0.2266648872573E+01
 0.2280771091104E+01
 0.2302743573606E+01
 0.2332629519068E+01
 0.2368564363223E+01
 0.2407571602533E+01
 0.2446229304404E+01
 0.2480916527773E+01
 0.2508906434075E+01
 0.2529116672538E+01
 0.2541715304749E+01
 0.2547282450237E+01
 0.2546152158545E+01
 0.2538332598278E+01
 0.2523939438836E+01
 0.2503007618551E+01
 0.2474638180935E+01
 0.2436969177577E+01
 0.2386749779184E+01
 0.2317820698367E+01
 0.2217813845695E+01
 0.2067618806150E+01
 0.1829189808324E+01
 0.1445454233370E+01
 0.1533435673764E+01
 0.5053030823616E+01
 0.2405358040050E+01
 0.2611137397348E+01
 0.2628749014157E+01
 0.2550283827051E+01
 0.2476540128883E+01
 0.2418922744800E+01
 0.2373361367344E+01
 0.2337322026369E+01
 0.2308680740679E+01
 0.2286014106331E+01
 0.2268427111727E+01
 0.2255420233867E+01
 0.2246805607836E+01
 0.2242653046064E+01
 0.2243259259892E+01
 0.2249121920260E+01
 0.2260836194941E+01
 0.2278577113500E+01
 0.2301152319961E+01
 0.2326139188107E+01
 0.2351512826896E+01
 0.2375989236273E+01
 0.2397898336890E+01
 0.2415175535416E+01
 0.2426203786353E+01
 0.2430123629897E+01
 0.2426547189302E+01
 0.2415198219995E+01
 0.2395881904253E+01
 0.2368563954778E+01
 0.2332730827543E+01
 0.2286379487585E+01
 0.2226046702808E+01
 0.2146866768980E+01
 0.2041369190346E+01
 0.1898475479642E+01
 0.1704462855034E+01
 0.1446511368347E+01
 0.1224254234247E+01
 0.1896768315130E+01
 0.4661228954615E+01
 0.2273545054701E+01
 0.2469690725361E+01
 0.2538610538252E+01
 0.2505505731048E+01
 0.2449847133871E+01
 0.2399474608678E+01
 0.2357282488177E+01
 0.2322618559183E+01
 0.2294406727717E+01
 0.2271667623868E+01
 0.2253712169766E+01
 0.2240123339314E+01
 0.2230720688462E+01
 0.2225522269558E+01
 0.2224703626622E+01
 0.2228525110360E+01
 0.2237111447007E+01
 0.2249896585099E+01
 0.2265098252170E+01
 0.2280377882634E+01
 0.2294458090076E+01
 0.2307175591227E+01
 0.2317945779718E+01
 0.2325247735838E+01
 0.2327311883346E+01
 0.2322714400064E+01
 0.2310460499029E+01
 0.2289861942287E+01
 0.2260492999085E+01
 0.2222031355708E+01
 0.2173519920013E+01
 0.2112458745037E+01
 0.2034922480983E+01
 0.1935963014748E+01
 0.1809515437099E+01
 0.1649562657390E+01
 0.1455107049285E+01
 0.1257993997034E+01
 0.1273969518911E+01
 0.2223492236237E+01
 0.4339804724264E+01
 0.2173313968589E+01
 0.2352575485286E+01
 0.2446843244775E+01
 0.2449482797442E+01
 0.2414575332042E+01
 0.2373973987263E+01
 0.2336693519519E+01
 0.2304483757738E+01
 0.2277386168499E+01
 0.2254998535831E+01
 0.2236908631347E+01
 0.2222824822477E+01
 0.2212596807588E+01
 0.2206198375151E+01
 0.2203679520217E+01
 0.2205054349958E+01
 0.2210031056648E+01
 0.2217562299385E+01
 0.2225686404862E+01
 0.2232370611417E+01
 0.2236878277134E+01
 0.2239633279481E+01
 0.2240648550155E+01
 0.2238814262140E+01
 0.2232402060316E+01
 0.2219731903758E+01
 0.2199469753964E+01
 0.2170663293390E+01
 0.2132682755201E+01
 0.2084960703146E+01
 0.2026318668756E+01
 0.1954259307433E+01
 0.1865236324910E+01
 0.1755482738078E+01
 0.1622088138126E+01
 0.1466180286632E+01
 0.1303691507565E+01
 0.1207637962474E+01
 0.1437684555160E+01
 0.2443391915786E+01
 0.4084125070475E+01
 0.2093073694810E+01
 0.2254817726838E+01
 0.2359812276274E+01
 0.2387993856899E+01
 0.2372757596833E+01
 0.2343264501418E+01
 0.2312028595272E+01
 0.2283117437410E+01
 0.2257722392014E+01
 0.2236063998651E+01
 0.2218056576088E+01
 0.2203565157054E+01
 0.2192488934515E+01
 0.2184767438277E+01
 0.2180330987976E+01
 0.2178968870119E+01
 0.2180070482067E+01
 0.2182328362017E+01
 0.2183828390831E+01
 0.2182890036285E+01
 0.2179153288504E+01
 0.2173340563180E+01
 0.2165788399024E+01
 0.2155692308039E+01
 0.2141459824960E+01
 0.2121353040476E+01
 0.2093890053940E+01
 0.2057976169272E+01
 0.2012850063712E+01
 0.1957820053764E+01
 0.1891728459400E+01
 0.1812476807605E+01
 0.1717504232897E+01
 0.1605060803711E+01
 0.1476287652407E+01
 0.1340382991505E+01
 0.1229849936852E+01
 0.1244907418126E+01
 0.1618804183403E+01
 0.2579348148656E+01
 0.3881066952740E+01
 0.2026254146669E+01
 0.2171943773944E+01
 0.2279640403446E+01
 0.2324991350131E+01
 0.2326598032191E+01
 0.2308338210786E+01
 0.2283807856059E+01
 0.2258799045050E+01
 0.2235572228686E+01
 0.2214962463790E+01
 0.2197229349591E+01
 0.2182414303845E+01
 0.2170481061314E+01
 0.2161346994200E+01
 0.2154838800285E+01
 0.2150563176701E+01
 0.2147696583120E+01
 0.2144834085493E+01
 0.2140222131325E+01
 0.2132510704322E+01
 0.2121597687416E+01
 0.2108346940879E+01
 0.2093266691305E+01
 0.2075783299865E+01
 0.2054484258456E+01
 0.2027698307001E+01
 0.1993931073731E+01
 0.1952050537919E+01
 0.1901259018229E+01
 0.1840883499560E+01
 0.1770003714485E+01
 0.1687213155506E+01
 0.1591324758512E+01
 0.1483038224859E+01
 0.1367849009025E+01
 0.1262787458676E+01
 0.1213428654590E+01
 0.1327758649804E+01
 0.1780088695250E+01
 0.2659651965742E+01
 0.3717797998671E+01
 0.1968873699517E+01
 0.2100475243864E+01
 0.2206580354382E+01
 0.2262851266033E+01
 0.2278000364305E+01
 0.2270237177934E+01
 0.2252601898454E+01
 0.2231859148039E+01
 0.2211135401858E+01
 0.2191826519274E+01
 0.2174529120528E+01
 0.2159468029948E+01
 0.2146682116649E+01
 0.2136080126730E+01
 0.2127408821579E+01
 0.2120143848118E+01
 0.2113343708195E+01
 0.2105615675822E+01
 0.2095414174825E+01
 0.2081676641643E+01
 0.2064477356312E+01
 0.2044737838291E+01
 0.2023056240938E+01
 0.1999040869355E+01
 0.1971477916123E+01
 0.1938839525374E+01
 0.1899714706404E+01
 0.1853024619841E+01
 0.1798033907563E+01
 0.1734222873843E+01
 0.1661080035809E+01
 0.1578083654563E+01
 0.1485618942504E+01
 0.1386964017465E+01
 0.1291818420553E+01
 0.1223854916270E+01
 0.1236096307792E+01
 0.1427558702359E+01
 0.1912836281849E+01
 0.2704779369291E+01
 0.3584322200593E+01
 0.1918387051063E+01
 0.2037813003774E+01
 0.2140128112586E+01
 0.2202862675267E+01
 0.2228421269776E+01
 0.2229937481480E+01
 0.2218995527030E+01
 0.2202656399950E+01
 0.2184641817810E+01
 0.2166815712599E+01
 0.2150081875130E+01
 0.2134843782785E+01
 0.2121221442514E+01
 0.2109129002568E+01
 0.2098260896891E+01
 0.2088013636943E+01
 0.2077404670895E+01
 0.2065122487729E+01
 0.2049841395213E+01
 0.2030741522752E+01
 0.2008019886422E+01
 0.1982613604892E+01
 0.1955169475511E+01
 0.1925447336039E+01
 0.1892438443472E+01
 0.1854804870683E+01
 0.1811286881832E+01
 0.1760934449012E+01
 0.1703163942677E+01
 0.1637720333562E+01
 0.1564621287012E+01
 0.1484332637479E+01
 0.1398862762517E+01
 0.1313979173828E+01
 0.1243082194927E+01
 0.1214557164609E+01
 0.1282645291947E+01
 0.1528237619692E+01
 0.2018597677543E+01
 0.2727963147231E+01
 0.3473385515743E+01
 0.1873094021295E+01
 0.1982030296085E+01
 0.2079529162426E+01
 0.2145631709038E+01
 0.2178891848325E+01
 0.2188279330416E+01
 0.2183551270478E+01
 0.2171558262727E+01
 0.2156339465020E+01
 0.2140109216396E+01
 0.2124032284420E+01
 0.2108676338202E+01
 0.2094244105282E+01
 0.2080668516270E+01
 0.2067619701088E+01
 0.2054461853931E+01
 0.2040229465261E+01
 0.2023732505349E+01
 0.2003859277053E+01
 0.1979993528232E+01
 0.1952421164488E+01
 0.1922076728510E+01
 0.1889637584886E+01
 0.1854997190274E+01
 0.1817352334766E+01
 0.1775582464533E+01
 0.1728626625946E+01
 0.1675723870633E+01
 0.1616515432768E+01
 0.1551093311853E+01
 0.1480076081241E+01
 0.1404946472110E+01
 0.1329279699722E+01
 0.1261085446945E+01
 0.1216680586171E+01
 0.1226801961924E+01
 0.1341761667980E+01
 0.1622118993823E+01
 0.2101758443738E+01
 0.2737490841799E+01
 0.3379822878068E+01
 0.1831816419745E+01
 0.1931692722642E+01
 0.2024000301786E+01
 0.2091359175265E+01
 0.2130097803351E+01
 0.2145943286765E+01
 0.2146781926997E+01
 0.2138924565789E+01
 0.2126483793943E+01
 0.2111898782559E+01
 0.2096538621874E+01
 0.2081113432012E+01
 0.2065906280425E+01
 0.2050880553297E+01
 0.2035707874538E+01
 0.2019759221075E+01
 0.2002127587718E+01
 0.1981765435270E+01
 0.1957761342036E+01
 0.1929671215724E+01
 0.1897849643250E+01
 0.1863223920712E+01
 0.1826496918423E+01
 0.1787685810709E+01
 0.1746190605179E+01
 0.1701123303090E+01
 0.1651653892299E+01
 0.1597255564747E+01
 0.1537848613159E+01
 0.1473925425523E+01
 0.1406735604724E+01
 0.1338752314811E+01
 0.1274984705827E+01
 0.1225317003331E+01
 0.1207996749787E+01
 0.1253758849883E+01
 0.1405814393595E+01
 0.1706244410841E+01
 0.2166891350746E+01
 0.2738540641423E+01
 0.3299938919369E+01
 0.1793712001652E+01
 0.1885722420615E+01
 0.1972819510466E+01
 0.2040017601529E+01
 0.2082466567642E+01
 0.2103455786621E+01
 0.2109135246250E+01
 0.2105094723276E+01
 0.2095328779495E+01
 0.2082382371202E+01
 0.2067767940522E+01
 0.2052311569619E+01
 0.2036370959241E+01
 0.2019949164759E+01
 0.2002741250517E+01
 0.1984155653146E+01
 0.1963371804398E+01
 0.1939493281764E+01
 0.1911792730915E+01
 0.1879974021451E+01
 0.1844449313190E+01
 0.1806141326606E+01
 0.1765780322977E+01
 0.1723502130798E+01
 0.1678906246827E+01
 0.1631344220446E+01
 0.1580237126811E+01
 0.1525323079312E+01
 0.1466836925490E+01
 0.1405698967382E+01
 0.1343786897793E+01
 0.1284497097829E+01
 0.1234083420672E+01
 0.1203845724667E+01
 0.1212889692626E+01
 0.1290008143875E+01
 0.1470059907641E+01
 0.1780058677519E+01
 0.2217947000470E+01
 0.2734380611529E+01
 0.3231047119634E+01
 0.1758162518399E+01
 0.1843300198157E+01
 0.1925355521419E+01
 0.1991459623246E+01
 0.2036242093030E+01
 0.2061208848875E+01
 0.2070989047155E+01
 0.2070379145121E+01
 0.2063119784753E+01
 0.2051758627492E+01
 0.2037891654883E+01
 0.2022432132074E+01
 0.2005804107107E+01
 0.1988056684846E+01
 0.1968925721351E+01
 0.1947879778779E+01
 0.1924202204448E+01
 0.1897148653399E+01
 0.1866159810027E+01
 0.1831069389621E+01
 0.1792341868261E+01
 0.1750901702723E+01
 0.1707511750984E+01
 0.1662424091537E+01
 0.1615433081451E+01
 0.1566131059651E+01
 0.1514200747993E+01
 0.1459663238272E+01
 0.1403086714392E+01
 0.1345825651638E+01
 0.1290357916652E+01
 0.1240906080412E+01
 0.1204736700740E+01
 0.1194049111434E+01
 0.1227784326094E+01
 0.1331483977268E+01
 0.1531769970405E+01
 0.1844127046921E+01
 0.2258112686115E+01
 0.2727106139203E+01
 0.3171151939768E+01
 0.1724703726035E+01
 0.1803795994837E+01
 0.1881070795632E+01
 0.1945482394086E+01
 0.1991542869790E+01
 0.2019484288688E+01
 0.2032653504247E+01
 0.2035054611309E+01
 0.2030088287986E+01
 0.2020222300500E+01
 0.2007081646054E+01
 0.1991637888922E+01
 0.1974371359432E+01
 0.1955380734032E+01
 0.1934455326456E+01
 0.1911139444742E+01
 0.1884830033503E+01
 0.1854931235836E+01
 0.1821037095201E+01
 0.1783097792282E+01
 0.1741628432525E+01
 0.1697562936873E+01
 0.1651703129742E+01
 0.1604416137814E+01
 0.1555685778090E+01
 0.1505342181970E+01
 0.1453332605670E+01
 0.1399968397159E+01
 0.1346155960009E+01
 0.1293673660525E+01
 0.1245553147707E+01
 0.1206723749958E+01
 0.1185202017672E+01
 0.1193556736729E+01
 0.1249708448561E+01
 0.1375278525950E+01
 0.1589524099164E+01
 0.1899465466973E+01
 0.2289890105767E+01
 0.2718087696895E+01
 0.3118735466089E+01
 0.1692980136029E+01
 0.1766719489635E+01
 0.1839513707628E+01
 0.1901864745386E+01
 0.1948404526321E+01
 0.1978477271224E+01
 0.1994377547218E+01
 0.1999362873591E+01
 0.1996448401117E+01
 0.1987960650083E+01
 0.1975506977990E+01
 0.1960090009270E+01
 0.1942235305539E+01
 0.1922092021211E+01
 0.1899511242846E+01
 0.1874122765547E+01
 0.1845441153776E+01
 0.1813012890356E+01
 0.1776572411462E+01
 0.1736176480472E+01
 0.1692391138076E+01
 0.1646167590758E+01
 0.1598352903897E+01
 0.1549428309577E+01
 0.1499560909794E+01
 0.1448812410969E+01
 0.1397391438784E+01
 0.1345898184973E+01
 0.1295571247084E+01
 0.1248590202918E+01
 0.1208480345062E+01
 0.1180741439655E+01
 0.1173860783718E+01
 0.1200279394170E+01
 0.1276275580015E+01
 0.1419397102999E+01
 0.1642707682734E+01
 0.1947204071138E+01
 0.2315223735818E+01
 0.2708246691458E+01
 0.3072615431062E+01
 0.1662714880964E+01
 0.1731684798239E+01
 0.1800307216428E+01
 0.1860387781798E+01
 0.1906810013005E+01
 0.1938316886868E+01
 0.1956357067656E+01
 0.1963511546854E+01
 0.1962394928564E+01
 0.1955150784638E+01
 0.1943331223463E+01
 0.1927945573020E+01
 0.1909553313389E+01
 0.1888352780773E+01
 0.1864261370202E+01
 0.1836999390978E+01
 0.1806199038437E+01
 0.1771541662514E+01
 0.1732890798331E+01
 0.1690402371600E+01
 0.1644694587612E+01
 0.1596743091978E+01
 0.1547445666190E+01
 0.1497396385206E+01
 0.1446938676072E+01
 0.1396357145402E+01
 0.1346113988455E+01
 0.1297090162777E+01
 0.1250842263601E+01
 0.1209919269883E+01
 0.1178269611228E+01
 0.1161815618288E+01
 0.1169236413999E+01
 0.1212420360110E+01
 0.1305627216867E+01
 0.1462525663615E+01
 0.1691180409831E+01
 0.1988424629801E+01
 0.2335618961366E+01
 0.2698231088626E+01
 0.3031852091548E+01
 0.1633689111624E+01
 0.1698385001118E+01
 0.1763137254762E+01
 0.1820845582345E+01
 0.1866710445110E+01
 0.1899083064051E+01
 0.1918743458398E+01
 0.1927676447763E+01
 0.1928102664253E+01
 0.1921957847371E+01
 0.1910710388625E+01
 0.1895355580751E+01
 0.1876475854843E+01
 0.1854315724184E+01
 0.1828860318719E+01
 0.1799921836167E+01
 0.1767247337050E+01
 0.1730644981416E+01
 0.1690097561782E+01
 0.1645854390301E+01
 0.1598587282971E+01
 0.1549302402087E+01
 0.1498952564200E+01
 0.1448242784178E+01
 0.1397685103014E+01
 0.1347776524044E+01
 0.1299221619400E+01
 0.1253169178727E+01
 0.1211473699681E+01
 0.1177015042801E+01
 0.1154086603645E+01
 0.1148879997267E+01
 0.1170005042376E+01
 0.1228469487098E+01
 0.1336353847259E+01
 0.1503837939753E+01
 0.1735066960336E+01
 0.2024088803749E+01
 0.2352226756203E+01
 0.2688529806768E+01
 0.2995691221234E+01
 0.1605727581085E+01
 0.1666573552376E+01
 0.1727742146210E+01
 0.1783050094854E+01
 0.1828039179246E+01
 0.1860819934523E+01
 0.1881651639951E+01
 0.1892004707264E+01
 0.1893726607935E+01
 0.1888533931168E+01
 0.1877791392454E+01
 0.1862463431634E+01
 0.1843145272482E+01
 0.1820123395437E+01
 0.1793449659446E+01
 0.1763026786147E+01
 0.1728712066346E+01
 0.1690432254444E+01
 0.1648280733663E+01
 0.1602595451124E+01
 0.1554103046652E+01
 0.1503845016652E+01
 0.1452832237350E+01
 0.1401877980142E+01
 0.1351654527188E+01
 0.1302859492115E+01
 0.1256426302471E+01
 0.1213755300350E+01
 0.1176974645556E+01
 0.1149251653603E+01
 0.1135141476357E+01
 0.1140953325540E+01
 0.1174999424126E+01
 0.1247183430951E+01
 0.1367411436854E+01
 0.1542846767731E+01
 0.1774630237365E+01
 0.2055017261997E+01
 0.2365895660933E+01
 0.2679525799257E+01
 0.2963533593717E+01
 0.1578688367646E+01
 0.1636050501983E+01
 0.1693903488877E+01
 0.1746832697782E+01
 0.1790721107884E+01
 0.1823546105234E+01
 0.1845167162742E+01
 0.1856618173287E+01
 0.1859402811784E+01
 0.1855017588037E+01
 0.1844711038822E+01
 0.1829403823814E+01
 0.1809694925483E+01
 0.1785907839293E+01
 0.1758158341567E+01
 0.1726436332920E+01
 0.1690703487735E+01
 0.1650997011518E+01
 0.1607513115505E+01
 0.1560674201920E+01
 0.1511262443714E+01
 0.1460358189315E+01
 0.1409032103035E+01
 0.1358202232262E+01
 0.1308692201561E+01
 0.1261387642858E+01
 0.1217435867005E+01
 0.1178470328872E+01
 0.1146865763722E+01
 0.1126030069976E+01
 0.1120694797302E+01
 0.1137143799170E+01
 0.1183206529024E+01
 0.1267556904907E+01
 0.1398043821824E+01
 0.1579295244836E+01
 0.1810193481111E+01
 0.2081909372648E+01
 0.2377196274690E+01
 0.2671519281118E+01
 0.2934884258282E+01
 0.1552455927853E+01
 0.1606660969927E+01
 0.1661454780579E+01
 0.1712069209538E+01
 0.1754713479020E+01
 0.1787306610201E+01
 0.1809405285181E+01
 0.1821678012482E+01
 0.1825318620310E+01
 0.1821610511540E+01
 0.1811680137793E+01
 0.1796395409876E+01
 0.1776351586406E+01
 0.1751904016324E+01
 0.1723228329868E+01
 0.1690396754298E+01
 0.1653468481386E+01
 0.1612582818280E+01
 0.1568031241667E+01
 0.1520316196149E+01
 0.1470275011447E+01
 0.1419028700402E+01
 0.1367707628147E+01
 0.1317329543933E+01
 0.1268858987527E+01
 0.1223355158917E+01
 0.1182161805142E+01
 0.1147123863886E+01
 0.1120831694131E+01
 0.1106883016854E+01
 0.1110100466079E+01
 0.1136616061369E+01
 0.1193644063446E+01
 0.1288595579493E+01
 0.1427460075247E+01
 0.1612796259892E+01
 0.1841828936589E+01
 0.2105157355808E+01
 0.2386503650374E+01
 0.2664242234996E+01
 0.2911878154837E+01
 0.1526936125657E+01
 0.1578271272424E+01
 0.1630243793528E+01
 0.1678628736696E+01
 0.1719940038671E+01
 0.1752089842293E+01
 0.1774409354729E+01
 0.1787264855584E+01
 0.1791575603063E+01
 0.1788423921793E+01
 0.1778813145181E+01
 0.1763552612434E+01
 0.1743227681712E+01
 0.1718220312525E+01
 0.1688761092770E+01
 0.1654998832804E+01
 0.1617083001928E+01
 0.1575246956200E+01
 0.1529870413252E+01
 0.1481531556269E+01
 0.1431121848286E+01
 0.1379803612052E+01
 0.1328765782657E+01
 0.1279120235606E+01
 0.1231962003081E+01
 0.1188509605792E+01
 0.1150285868711E+01
 0.1119325352806E+01
 0.1098402556105E+01
 0.1091254488664E+01
 0.1102715136697E+01
 0.1138659761534E+01
 0.1205603033591E+01
 0.1309722016567E+01
 0.1455370895483E+01
 0.1643445000206E+01
 0.1869980775823E+01
 0.2125332188774E+01
 0.2394322728837E+01
 0.2657386077266E+01
 0.2894162126833E+01
 0.1502045986519E+01
 0.1550759242579E+01
 0.1600121870806E+01
 0.1646367005679E+01
 0.1686288877409E+01
 0.1717828198546E+01
 0.1740152014647E+01
 0.1753379323255E+01
 0.1758189206620E+01
 0.1755477731974E+01
 0.1746127412104E+01
 0.1730885533942E+01
 0.1710322413704E+01
 0.1684841391520E+01
 0.1654722634182E+01
 0.1620185388334E+01
 0.1581462260325E+01
 0.1538873249561E+01
 0.1492880085921E+01
 0.1444132779112E+01
 0.1393575667649E+01
 0.1342412447955E+01
 0.1291889151024E+01
 0.1243206593424E+01
 0.1197581071280E+01
 0.1156377938459E+01
 0.1121283748757E+01
 0.1094502822521E+01
 0.1078964316266E+01
 0.1078497250775E+01
 0.1097876059218E+01
 0.1142636307308E+01
 0.1218545923746E+01
 0.1330609640394E+01
 0.1481760139985E+01
 0.1671561578573E+01
 0.1895203428970E+01
 0.2143040749352E+01
 0.2400906003044E+01
 0.2651487157372E+01
 0.2877387507678E+01
 0.1477717798870E+01
 0.1524031518628E+01
 0.1570979660287E+01
 0.1615183437350E+01
 0.1653691938156E+01
 0.1684497690264E+01
 0.1706651690663E+01
 0.1720072858236E+01
 0.1725232780319E+01
 0.1722857907239E+01
 0.1713715010219E+01
 0.1698488097842E+01
 0.1677728552387E+01
 0.1651856223040E+01
 0.1621195323503E+01
 0.1586029160666E+01
 0.1546666340323E+01
 0.1503506353991E+01
 0.1457086939648E+01
 0.1408125875544E+01
 0.1357618504266E+01
 0.1306809105153E+01
 0.1256998601234E+01
 0.1209471249850E+01
 0.1165555510812E+01
 0.1126751466901E+01
 0.1094894421650E+01
 0.1072338743243E+01
 0.1062138971165E+01
 0.1068170961667E+01
 0.1095087605656E+01
 0.1148023977843E+01
 0.1231987993557E+01
 0.1350900222747E+01
 0.1506477641033E+01
 0.1697230822682E+01
 0.1917769312632E+01
 0.2158592272612E+01
 0.2406550779112E+01
 0.2646220830609E+01
 0.2862280571579E+01
 0.1453894182199E+01
 0.1498009221047E+01
 0.1542724089948E+01
 0.1584989969688E+01
 0.1622086113837E+01
 0.1652071401130E+01
 0.1673918287933E+01
 0.1687385712315E+01
 0.1692768006872E+01
 0.1690639368664E+01
 0.1681657824167E+01
 0.1666444666848E+01
 0.1645529574441E+01
 0.1619344483594E+01
 0.1588252166721E+01
 0.1552593580865E+01
 0.1512746302472E+01
 0.1469182406755E+01
 0.1422509788136E+01
 0.1373509757334E+01
 0.1323226245616E+01
 0.1272942605835E+01
 0.1224011865775E+01
 0.1177796029669E+01
 0.1135726854475E+01
 0.1099427547654E+01
 0.1070867705368E+01
 0.1052532447410E+01
 0.1047573236314E+01
 0.1059870978948E+01
 0.1093905453138E+01
 0.1154371590605E+01
 0.1245530602452E+01
 0.1370321272083E+01
 0.1529433985144E+01
 0.1720555856819E+01
 0.1937916013499E+01
 0.2172260993903E+01
 0.2411405624844E+01
 0.2641498618691E+01
 0.2848889241414E+01
 0.1430526049181E+01
 0.1472625285428E+01
 0.1515275466246E+01
 0.1555709390525E+01
 0.1591413312722E+01
 0.1620520900850E+01
 0.1641955131175E+01
 0.1655348726147E+01
 0.1660846204741E+01
 0.1658886807944E+01
 0.1650028025560E+01
 0.1634830362384E+01
 0.1613799991084E+01
 0.1587377004971E+01
 0.1555957426097E+01
 0.1519933554538E+01
 0.1479745087232E+01
 0.1435930004506E+01
 0.1389160612056E+01
 0.1340277337260E+01
 0.1290369819089E+01
 0.1240758387462E+01
 0.1192844939708E+01
 0.1148063445554E+01
 0.1107940402823E+01
 0.1074211106880E+01
 0.1048965608933E+01
 0.1034801136832E+01
 0.1034939039485E+01
 0.1053227978360E+01
 0.1093934203391E+01
 0.1161291850980E+01
 0.1258848255228E+01
 0.1388667756205E+01
 0.1550583112708E+01
 0.1741645312297E+01
 0.1955853680153E+01
 0.2184263778004E+01
 0.2415575826358E+01
 0.2637268272425E+01
 0.2837097834588E+01
 0.1407571026420E+01
 0.1447822256792E+01
 0.1488565135669E+01
 0.1527273800245E+01
 0.1561620257357E+01
 0.1589817177997E+01
 0.1610760447879E+01
 0.1623984808732E+01
 0.1629509499896E+01
 0.1627655493120E+01
 0.1618888600830E+01
 0.1603711453901E+01
 0.1582605729721E+01
 0.1556016240668E+01
 0.1524367214077E+01
 0.1488096180397E+01
 0.1447698329214E+01
 0.1403771085262E+01
 0.1357045500970E+01
 0.1308416542367E+01
 0.1259016291284E+01
 0.1210199493007E+01
 0.1163413351386E+01
 0.1120158019513E+01
 0.1082046538686E+01
 0.1050915852974E+01
 0.1028963316498E+01
 0.1018880503997E+01
 0.1023933613325E+01
 0.1047907087205E+01
 0.1094824418453E+01
 0.1168454491683E+01
 0.1271676815049E+01
 0.1405787321432E+01
 0.1569908754008E+01
 0.1760607168339E+01
 0.1971763562377E+01
 0.2194773222950E+01
 0.2419139283661E+01
 0.2633477564032E+01
 0.2826752448861E+01
 0.1384992197087E+01
 0.1423550501969E+01
 0.1462533554863E+01
 0.1499623236864E+01
 0.1532658123564E+01
 0.1559931224774E+01
 0.1580328488559E+01
 0.1593310154969E+01
 0.1598791864679E+01
 0.1596992043471E+01
 0.1588293906435E+01
 0.1573145794346E+01
 0.1552004551970E+01
 0.1525316741452E+01
 0.1493530062624E+01
 0.1457121414576E+01
 0.1416635098845E+01
 0.1372721731668E+01
 0.1326165517006E+01
 0.1277911248311E+01
 0.1229129881703E+01
 0.1181207659885E+01
 0.1135633304711E+01
 0.1093967436069E+01
 0.1057901824116E+01
 0.1029365224111E+01
 0.1010649876923E+01
 0.1004525050651E+01
 0.1014279263485E+01
 0.1043606618803E+01
 0.1096269261218E+01
 0.1175579504721E+01
 0.1283803115042E+01
 0.1421568291343E+01
 0.1587414674175E+01
 0.1777544230053E+01
 0.1985800220458E+01
 0.2203927395895E+01
 0.2422151782344E+01
 0.2630070435886E+01
 0.2817690855486E+01
 0.1362757086448E+01
 0.1399766759980E+01
 0.1437128692414E+01
 0.1472704464140E+01
 0.1504482102566E+01
 0.1530834381152E+01
 0.1550650372656E+01
 0.1563335251494E+01
 0.1568720041962E+01
 0.1566935174356E+01
 0.1558290247194E+01
 0.1543183299998E+01
 0.1522046512741E+01
 0.1495325653507E+01
 0.1463487491203E+01
 0.1427042712822E+01
 0.1386578609532E+01
 0.1342792935683E+01
 0.1296517519453E+01
 0.1248742171952E+01
 0.1200672926208E+01
 0.1153724342787E+01
 0.1109422731286E+01
 0.1069383573646E+01
 0.1035369940469E+01
 0.1009393149775E+01
 0.9938286931787E+00
 0.9915082001498E+00
 0.1005722901202E+01
 0.1040056518049E+01
 0.1098000931282E+01
 0.1182430715344E+01
 0.1295055956788E+01
 0.1435930105760E+01
 0.1603117473778E+01
 0.1792551540582E+01
 0.1998094562944E+01
 0.2211836517538E+01
 0.2424651208484E+01
 0.2626986643221E+01
 0.2809752833231E+01
 0.1340836834422E+01
 0.1376432958171E+01
 0.1412304698063E+01
 0.1446469906745E+01
 0.1477050927855E+01
 0.1502498503604E+01
 0.1521714713068E+01
 0.1534065694432E+01
 0.1539314349967E+01
 0.1537516388949E+01
 0.1528916446045E+01
 0.1513866440958E+01
 0.1492774428441E+01
 0.1466083211048E+01
 0.1434274549577E+01
 0.1397887629816E+01
 0.1357546870141E+01
 0.1313991302169E+01
 0.1268094923528E+01
 0.1220887690931E+01
 0.1173606755504E+01
 0.1127691634370E+01
 0.1084702218596E+01
 0.1046303387483E+01
 0.1014322457538E+01
 0.9908446280908E+00
 0.9783178268266E+00
 0.9796222250660E+00
 0.9980353708981E+00
 0.1037016591057E+01
 0.1099787049664E+01
 0.1188809852830E+01
 0.1305298459121E+01
 0.1448815771003E+01
 0.1617041383239E+01
 0.1805715145521E+01
 0.2008756786936E+01
 0.2218588056199E+01
 0.2426660823280E+01
 0.2624162731403E+01
 0.2802784257575E+01
 0.1319205514951E+01
 0.1353515239373E+01
 0.1388020791186E+01
 0.1420876719967E+01
 0.1450326398416E+01
 0.1474896013736E+01
 0.1493508071256E+01
 0.1505502852031E+01
 0.1510589379937E+01
 0.1508760614395E+01
 0.1500204395692E+01
 0.1485230731615E+01
 0.1464224346253E+01
 0.1437623219957E+01
 0.1405920337080E+01
 0.1369678381528E+01
 0.1329553290962E+01
 0.1286319699751E+01
 0.1240888400601E+01
 0.1194324596366E+01
 0.1147892494581E+01
 0.1103053091239E+01
 0.1061395825763E+01
 0.1024629663014E+01
 0.9946394610896E+00
 0.9735761590727E+00
 0.9639501642742E+00
 0.9686780379700E+00
 0.9910106287536E+00
 0.1034274610208E+01
 0.1101427125876E+01
 0.1194551206845E+01
 0.1314421641327E+01
 0.1460185943807E+01
 0.1629214562022E+01
 0.1817111673805E+01
 0.2017879054886E+01
 0.2224250726894E+01
 0.2428192038590E+01
 0.2621533371060E+01
 0.2796638929400E+01
 0.1297839571725E+01
 0.1330983156658E+01
 0.1364240327782E+01
 0.1395885977745E+01
 0.1424272914395E+01
 0.1447999862656E+01
 0.1466015278583E+01
 0.1477644394309E+01
 0.1482554592070E+01
 0.1480686774645E+01
 0.1472179576915E+01
 0.1457305203308E+01
 0.1436425997529E+01
 0.1409973518125E+01
 0.1378448487134E+01
 0.1342432361651E+01
 0.1302607235020E+01
 0.1259777850154E+01
 0.1214886509755E+01
 0.1169028767527E+01
 0.1123491772015E+01
 0.1079754455879E+01
 0.1039431781580E+01
 0.1004271641125E+01
 0.9762100488844E+00
 0.9574560522516E+00
 0.9505734685426E+00
 0.9585048732073E+00
 0.9844648146437E+00
 0.1031644371109E+01
 0.1102749206214E+01
 0.1199516905377E+01
 0.1322339105999E+01
 0.1470014337742E+01
 0.1639666511227E+01
 0.1826808416429E+01
 0.2025537875395E+01
 0.2228877738688E+01
 0.2429246842751E+01
 0.2619032727975E+01
 0.2791179441747E+01
 0.1276717347239E+01
 0.1308809003406E+01
 0.1340930015476E+01
 0.1371461967027E+01
 0.1398857038855E+01
 0.1421783442731E+01
 0.1439219659153E+01
 0.1450484717453E+01
 0.1455214826073E+01
 0.1453308306696E+01
 0.1444861544758E+01
 0.1430112858947E+01
 0.1409403236513E+01
 0.1383156416793E+01
 0.1351877624801E+01
 0.1316162622832E+01
 0.1276714527197E+01
 0.1234362869154E+01
 0.1190076273978E+01
 0.1144975782137E+01
 0.1100367353927E+01
 0.1057744291634E+01
 0.1018743085633E+01
 0.9851455411292E+00
 0.9589327264981E+00
 0.9423646438916E+00
 0.9380503527952E+00
 0.9489498974417E+00
 0.9782352664140E+00
 0.1028963771306E+01
 0.1103606769709E+01
 0.1203592803409E+01
 0.1328982667804E+01
 0.1478284171271E+01
 0.1648426284773E+01
 0.1834863685067E+01
 0.2031796193291E+01
 0.2232509491379E+01
 0.2429819935587E+01
 0.2616595733398E+01
 0.2786277682030E+01
 0.1255818687552E+01
 0.1286967253100E+01
 0.1318059251070E+01
 0.1347571575683E+01
 0.1374047091837E+01
 0.1396220467414E+01
 0.1413103178874E+01
 0.1424015282756E+01
 0.1428570737220E+01
 0.1426633622857E+01
 0.1418264379821E+01
 0.1403671104605E+01
 0.1383174459692E+01
 0.1357189119917E+01
 0.1326221796488E+01
 0.1290878323480E+01
 0.1251877922787E+01
 0.1210069760907E+01
 0.1166443702702E+01
 0.1122141464409E+01
 0.1078483705922E+01
 0.1036974536358E+01
 0.9992680215980E+00
 0.9671749950150E+00
 0.9427157210193E+00
 0.9281944452522E+00
 0.9262581992874E+00
 0.9398777776914E+00
 0.9721795190474E+00
 0.1026092969347E+01
 0.1103875917204E+01
 0.1206684956044E+01
 0.1334298792777E+01
 0.1484985439742E+01
 0.1655521279039E+01
 0.1841327324700E+01
 0.2036705220729E+01
 0.2235175852778E+01
 0.2429900601608E+01
 0.2614159230442E+01
 0.2781815187196E+01
 0.1235124608726E+01
 0.1265434088127E+01
 0.1295599558867E+01
 0.1324183760651E+01
 0.1349812777202E+01
 0.1371284830961E+01
 0.1387646536428E+01
 0.1398224882446E+01
 0.1402619163274E+01
 0.1400666517264E+01
 0.1392397097715E+01
 0.1377992148461E+01
 0.1357752995534E+01
 0.1332084111928E+01
 0.1301490863205E+01
 0.1266585132331E+01
 0.1228097527944E+01
 0.1186891858003E+01
 0.1143974252985E+01
 0.1100502363505E+01
 0.1057807476933E+01
 0.1017400970830E+01
 0.9809505819446E+00
 0.9502913958683E+00
 0.9274772191736E+00
 0.9148502313727E+00
 0.9150890364054E+00
 0.9311702267260E+00
 0.9661743223490E+00
 0.1022912667838E+01
 0.1103452877582E+01
 0.1208716636568E+01
 0.1338245726791E+01
 0.1490112839007E+01
 0.1660976442659E+01
 0.1846241302613E+01
 0.2040306040339E+01
 0.2236898098145E+01
 0.2429474344560E+01
 0.2611662993541E+01
 0.2777683449779E+01
 0.1214617014113E+01
 0.1244187002177E+01
 0.1273524113773E+01
 0.1301269087060E+01
 0.1326124844406E+01
 0.1346950460380E+01
 0.1362829213339E+01
 0.1373099848823E+01
 0.1377353434544E+01
 0.1375406524181E+01
 0.1367264020712E+01
 0.1353083369497E+01
 0.1333147467025E+01
 0.1307849517365E+01
 0.1277690862288E+01
 0.1243285596976E+01
 0.1205371179111E+01
 0.1164821214972E+01
 0.1122653237703E+01
 0.1080036171859E+01
 0.1038307915939E+01
 0.9989836149770E+00
 0.9637408194204E+00
 0.9344341781958E+00
 0.9131455493080E+00
 0.9022490908065E+00
 0.9044493958748E+00
 0.9227255531258E+00
 0.9601147129592E+00
 0.1019322556556E+01
 0.1102251840072E+01
 0.1209625850142E+01
 0.1340791200566E+01
 0.1493664196093E+01
 0.1664813781852E+01
 0.1849640315227E+01
 0.2042630998610E+01
 0.2237690562500E+01
 0.2428524303708E+01
 0.2609050637247E+01
 0.2773784219187E+01
 0.1194278453880E+01
 0.1223204463066E+01
 0.1251807334531E+01
 0.1278799327616E+01
 0.1302954782226E+01
 0.1323191163952E+01
 0.1338629491059E+01
 0.1348624213758E+01
 0.1352763630390E+01
 0.1350849226854E+01
 0.1342865106555E+01
 0.1328947648517E+01
 0.1309362118553E+01
 0.1284489423835E+01
 0.1254824329363E+01
 0.1220979468451E+01
 0.1183694773769E+01
 0.1143848947779E+01
 0.1102466173767E+01
 0.1060722077241E+01
 0.1019957216947E+01
 0.9816870492769E+00
 0.9475951250395E+00
 0.9195510321392E+00
 0.8996593112428E+00
 0.8903204424357E+00
 0.8942601601501E+00
 0.9144582336297E+00
 0.9539131672958E+00
 0.1015239941241E+01
 0.1100203113873E+01
 0.1209363299013E+01
 0.1341910623439E+01
 0.1495639302895E+01
 0.1667052079460E+01
 0.1851552382181E+01
 0.2043704911122E+01
 0.2237562045821E+01
 0.2427032475366E+01
 0.2606270423003E+01
 0.2770029839100E+01
 0.1174091919688E+01
 0.1202465625851E+01
 0.1230424535851E+01
 0.1256747114245E+01
 0.1280274542869E+01
 0.1299980481253E+01
 0.1315024443863E+01
 0.1324779827829E+01
 0.1328836789417E+01
 0.1326986521232E+01
 0.1319196236173E+01
 0.1305583661639E+01
 0.1286397106734E+01
 0.1262004168079E+01
 0.1232890580849E+01
 0.1199663982769E+01
 0.1163062553862E+01
 0.1123965521146E+01
 0.1083399072854E+01
 0.1042541052081E+01
 0.1002730797031E+01
 0.9654806676071E+00
 0.9324764401563E+00
 0.9055980600949E+00
 0.8869674629639E+00
 0.8790060289865E+00
 0.8844564120594E+00
 0.9062985250899E+00
 0.9474988571886E+00
 0.1010598573493E+01
 0.1097251605213E+01
 0.1207890750813E+01
 0.1341585684823E+01
 0.1496039063053E+01
 0.1667706758195E+01
 0.1851999398028E+01
 0.2043546087868E+01
 0.2236516994472E+01
 0.2424980753728E+01
 0.2603275978363E+01
 0.2766343593840E+01
 0.1154040669254E+01
 0.1181950088697E+01
 0.1209351631321E+01
 0.1235085636455E+01
 0.1258056296144E+01
 0.1277291539995E+01
 0.1291989916679E+01
 0.1301546449388E+01
 0.1305557082762E+01
 0.1303806842078E+01
 0.1296249466028E+01
 0.1282986140883E+01
 0.1264248759452E+01
 0.1240390589646E+01
 0.1211885962070E+01
 0.1179334105105E+01
 0.1143467348260E+01
 0.1105160990806E+01
 0.1065438682640E+01
 0.1025476089142E+01
 0.9866075178730E+00
 0.9503388732860E+00
 0.9183544154079E+00
 0.8925398890121E+00
 0.8750293774855E+00
 0.8682599010868E+00
 0.8749873029622E+00
 0.8981921368378E+00
 0.9408170315440E+00
 0.1005347697380E+01
 0.1093355604825E+01
 0.1205179772504E+01
 0.1339803302847E+01
 0.1494864887744E+01
 0.1666789841373E+01
 0.1850997625041E+01
 0.2042167189552E+01
 0.2234556480706E+01
 0.2422351810038E+01
 0.2600026936331E+01
 0.2762660082348E+01
 0.1134108076148E+01
 0.1161637684349E+01
 0.1188564878554E+01
 0.1213788379010E+01
 0.1236272209551E+01
 0.1255096919207E+01
 0.1269500489847E+01
 0.1278901806041E+01
 0.1282905951705E+01
 0.1281295350604E+01
 0.1274013242088E+01
 0.1261146097114E+01
 0.1242909797254E+01
 0.1219642245751E+01
 0.1191804054261E+01
 0.1159982729808E+01
 0.1124900767463E+01
 0.1087425194051E+01
 0.1048572672401E+01
 0.1009512378230E+01
 0.9715698464787E+00
 0.9362412150566E+00
 0.9052055140663E+00
 0.8803497362877E+00
 0.8638148680595E+00
 0.8580483911912E+00
 0.8658159421335E+00
 0.8900999715450E+00
 0.9338285353153E+00
 0.9994513184401E+00
 0.1088485874813E+01
 0.1201210797763E+01
 0.1336554873538E+01
 0.1492118293837E+01
 0.1664309979115E+01
 0.1848558116976E+01
 0.2039575923110E+01
 0.2231678995278E+01
 0.2419129820338E+01
 0.2596489498670E+01
 0.2758925607106E+01
 0.1114277501217E+01
 0.1141508302011E+01
 0.1168040660650E+01
 0.1192828894148E+01
 0.1214894252454E+01
 0.1233368520434E+01
 0.1247529435183E+01
 0.1256821634086E+01
 0.1260862214930E+01
 0.1259434087869E+01
 0.1252472578371E+01
 0.1240051007278E+01
 0.1222369518459E+01
 0.1199749588411E+01
 0.1172635841620E+01
 0.1141600837586E+01
 0.1107353352194E+01
 0.1070747890732E+01
 0.1032789765794E+01
 0.9946374276138E+00
 0.9576039597420E+00
 0.9231724684417E+00
 0.8930130655618E+00
 0.8690094347465E+00
 0.8533041866562E+00
 0.8483500824673E+00
 0.8569193145278E+00
 0.8819979451989E+00
 0.9265094775543E+00
 0.9928877006803E+00
 0.1082625026222E+01
 0.1195972502552E+01
 0.1331835784736E+01
 0.1487800668957E+01
 0.1660272515270E+01
 0.1844687064848E+01
 0.2035775580918E+01
 0.2227881063370E+01
 0.2415301050384E+01
 0.2592636925982E+01
 0.2755098570734E+01
 0.1094532182652E+01
 0.1121541735198E+01
 0.1147755298737E+01
 0.1172180603821E+01
 0.1193894021949E+01
 0.1212077447252E+01
 0.1226048665784E+01
 0.1235279699392E+01
 0.1239402148792E+01
 0.1238202096466E+01
 0.1231609201482E+01
 0.1219684966360E+01
 0.1202613947676E+01
 0.1180700103162E+01
 0.1154369837502E+01
 0.1124177608941E+01
 0.1090814675102E+01
 0.1055118854242E+01
 0.1018079820919E+01
 0.9808411310125E+00
 0.9446997944802E+00
 0.9111226647316E+00
 0.8817672715783E+00
 0.8585094186315E+00
 0.8434879968751E+00
 0.8391557737137E+00
 0.8482882296664E+00
 0.8738768919779E+00
 0.9188510557147E+00
 0.9856490947545E+00
 0.1075767180853E+01
 0.1189461471508E+01
 0.1325645170851E+01
 0.1481913180338E+01
 0.1654679579223E+01
 0.1839386059041E+01
 0.2030765426549E+01
 0.2223157690253E+01
 0.2410854302623E+01
 0.2588449954065E+01
 0.2751149872877E+01
 0.1074855142260E+01
 0.1101717551977E+01
 0.1127684891325E+01
 0.1151816628183E+01
 0.1173242588293E+01
 0.1191193893106E+01
 0.1205028681492E+01
 0.1214247802673E+01
 0.1218499543684E+01
 0.1217575513022E+01
 0.1211401662854E+01
 0.1200028804926E+01
 0.1183625947921E+01
 0.1162478409092E+01
 0.1136992169220E+01
 0.1107700493219E+01
 0.1075273394999E+01
 0.1040527912153E+01
 0.1004433857787E+01
 0.9681157808838E+00
 0.9328510443493E+00
 0.9000870694545E+00
 0.8714651665305E+00
 0.8488486717090E+00
 0.8343673212565E+00
 0.8304684395783E+00
 0.8399273016959E+00
 0.8657425562775E+00
 0.9108595400011E+00
 0.9777416993157E+00
 0.1067917913895E+01
 0.1181682145450E+01
 0.1317985894950E+01
 0.1474456814239E+01
 0.1647530193096E+01
 0.1832652263571E+01
 0.2024540927419E+01
 0.2217502639117E+01
 0.2405781226638E+01
 0.2583917134291E+01
 0.2747063299020E+01
 0.1055229105944E+01
 0.1082014984711E+01
 0.1107805177085E+01
 0.1131709637320E+01
 0.1152910358238E+01
 0.1170687037658E+01
 0.1184438511854E+01
 0.1193695772064E+01
 0.1198125739748E+01
 0.1197527634529E+01
 0.1191825421107E+01
 0.1181060174023E+01
 0.1165385297537E+01
 0.1145066320898E+01
 0.1120486621846E+01
 0.1092155233469E+01
 0.1060717263788E+01
 0.1026964936816E+01
 0.9918440338086E+00
 0.9564560291274E+00
 0.9220551052639E+00
 0.8900661122941E+00
 0.8621105342547E+00
 0.8400346384819E+00
 0.8259534625389E+00
 0.8223031842430E+00
 0.8318549585319E+00
 0.8576156711807E+00
 0.9025564190740E+00
 0.9691858577071E+00
 0.1059094478499E+01
 0.1172647049223E+01
 0.1308864755941E+01
 0.1465432543195E+01
 0.1638820391892E+01
 0.1824478500653E+01
 0.2017093833233E+01
 0.2210908540557E+01
 0.2400076492076E+01
 0.2579035094752E+01
 0.2742835894157E+01
 0.1035636436754E+01
 0.1062412836883E+01
 0.1088091418155E+01
 0.1111831723536E+01
 0.1132866954538E+01
 0.1150524951323E+01
 0.1164245657629E+01
 0.1173591445004E+01
 0.1178249644325E+01
 0.1178028960781E+01
 0.1172852896367E+01
 0.1162753598651E+01
 0.1147868732485E+01
 0.1128442873012E+01
 0.1104834640592E+01
 0.1077525846364E+01
 0.1047133085164E+01
 0.1014419784994E+01
 0.9803035665919E+00
 0.9458587948150E+00
 0.9123129693470E+00
 0.8810652687728E+00
 0.8537137811223E+00
 0.8320830978992E+00
 0.8182678966031E+00
 0.8146871842450E+00
 0.8241034743465E+00
 0.8495321180658E+00
 0.8939787044014E+00
 0.9600164911003E+00
 0.1049326317085E+01
 0.1162377307170E+01
 0.1298292929012E+01
 0.1454841628046E+01
 0.1628543360224E+01
 0.1814853245020E+01
 0.2008412096633E+01
 0.2203366829365E+01
 0.2393737820052E+01
 0.2573808716999E+01
 0.2738478315094E+01
 0.1016059079176E+01
 0.1042889405016E+01
 0.1068518301535E+01
 0.1092154291902E+01
 0.1113081110082E+01
 0.1130674507542E+01
 0.1144416031565E+01
 0.1153900641051E+01
 0.1158837733215E+01
 0.1159047215011E+01
 0.1154453498327E+01
 0.1145080501116E+01
 0.1131049954745E+01
 0.1112584305917E+01
 0.1090015291369E+01
 0.1063794556371E+01
 0.1034506623970E+01
 0.1002882185280E+01
 0.9698066028001E+00
 0.9363231178966E+00
 0.9036290666432E+00
 0.8730948931878E+00
 0.8462917650120E+00
 0.8250179982433E+00
 0.8113421339431E+00
 0.8076596144121E+00
 0.8167190164802E+00
 0.8415431574788E+00
 0.8851793861930E+00
 0.9502837676454E+00
 0.1038655867312E+01
 0.1150903461369E+01
 0.1286286657824E+01
 0.1442686071348E+01
 0.1616689595344E+01
 0.1803760528437E+01
 0.1998479629223E+01
 0.2194867499770E+01
 0.2386765865737E+01
 0.2568251221986E+01
 0.2734015153699E+01
 0.9964785135584E+00
 0.1023422414215E+01
 0.1049059856924E+01
 0.1072647967595E+01
 0.1093520575832E+01
 0.1111101303018E+01
 0.1124913899788E+01
 0.1134587127946E+01
 0.1139854038754E+01
 0.1140547346007E+01
 0.1136593631253E+01
 0.1128009197080E+01
 0.1114899609100E+01
 0.1097464016351E+01
 0.1076005180601E+01
 0.1050941684672E+01
 0.1022822466256E+01
 0.9923415729955E+00
 0.9603480325718E+00
 0.9278499583242E+00
 0.8960110541373E+00
 0.8661700025219E+00
 0.8398675799092E+00
 0.8188712524008E+00
 0.8052175470408E+00
 0.8012715507766E+00
 0.8097616962502E+00
 0.8337157181556E+00
 0.8762280305639E+00
 0.9400540068459E+00
 0.1027139675704E+01
 0.1138266618361E+01
 0.1272868231040E+01
 0.1428969252815E+01
 0.1603247116524E+01
 0.1791179759079E+01
 0.1987275884928E+01
 0.2185398667420E+01
 0.2379163943302E+01
 0.2562384158996E+01
 0.2729485224823E+01
 0.9768757198647E+00
 0.1003988965670E+01
 0.1029689388749E+01
 0.1053282517531E+01
 0.1074152040167E+01
 0.1091769583905E+01
 0.1105701822395E+01
 0.1115612580106E+01
 0.1121260124261E+01
 0.1122491511382E+01
 0.1119236675411E+01
 0.1111504863373E+01
 0.1099385226785E+01
 0.1083052469165E+01
 0.1062778331423E+01
 0.1038945489398E+01
 0.1012063826161E+01
 0.9827868683848E+00
 0.9519232451412E+00
 0.9204419362095E+00
 0.8894695478544E+00
 0.8603100074427E+00
 0.8344702925755E+00
 0.8136824897565E+00
 0.7999451581599E+00
 0.7955858407326E+00
 0.8033056074367E+00
 0.8261327224628E+00
 0.8672114971376E+00
 0.9294108092482E+00
 0.1014849827303E+01
 0.1124519951021E+01
 0.1258067280498E+01
 0.1413696782593E+01
 0.1588201742331E+01
 0.1777085455317E+01
 0.1974775251371E+01
 0.2174945913665E+01
 0.2370937577672E+01
 0.2556237283262E+01
 0.2724941814488E+01
 0.9572311499106E+00
 0.9845654954964E+00
 0.1010379421919E+01
 0.1034026786169E+01
 0.1054941060119E+01
 0.1072642179341E+01
 0.1086740595772E+01
 0.1096936533262E+01
 0.1103015049636E+01
 0.1104839047502E+01
 0.1102342950760E+01
 0.1095529483314E+01
 0.1084471141305E+01
 0.1069317075523E+01
 0.1050306020107E+01
 0.1027781960174E+01
 0.1002212301761E+01
 0.9742061994450E+00
 0.9445278262454E+00
 0.9141030129678E+00
 0.8840177975830E+00
 0.8555383898582E+00
 0.8301346309962E+00
 0.8094987644960E+00
 0.7955853860798E+00
 0.7906769347293E+00
 0.7974388390964E+00
 0.8188934271846E+00
 0.8582347556678E+00
 0.9184564033327E+00
 0.1001875708366E+01
 0.1109730599737E+01
 0.1241922463079E+01
 0.1396877635624E+01
 0.1571537481572E+01
 0.1761446908552E+01
 0.1960946233843E+01
 0.2163491387145E+01
 0.2362093867804E+01
 0.2549848322233E+01
 0.2720452850670E+01
 0.9375247079762E+00
 0.9651277444892E+00
 0.9911016608276E+00
 0.1014848645028E+01
 0.1035852004201E+01
 0.1053680442456E+01
 0.1067989197505E+01
 0.1078516337060E+01
 0.1085075330815E+01
 0.1087546429418E+01
 0.1085869666496E+01
 0.1080041772988E+01
 0.1070118379373E+01
 0.1056222039561E+01
 0.1038556573971E+01
 0.1017424567271E+01
 0.9932475792773E+00
 0.9665865679161E+00
 0.9381571950440E+00
 0.9088381104785E+00
 0.8796713008225E+00
 0.8518823236860E+00
 0.8269006219021E+00
 0.8063742184676E+00
 0.7922077496615E+00
 0.7866306737099E+00
 0.7922634482162E+00
 0.8121137542490E+00
 0.8494217723875E+00
 0.9073131935837E+00
 0.9883261169981E+00
 0.1093982024470E+01
 0.1224483604698E+01
 0.1378525651393E+01
 0.1553237102722E+01
 0.1744227798788E+01
 0.1945750411083E+01
 0.2151012624192E+01
 0.2352640644866E+01
 0.2543262619092E+01
 0.2716101016408E+01
 0.9177357391892E+00
 0.9456507376315E+00
 0.9718269599908E+00
 0.9957149538291E+00
 0.1016848004300E+01
 0.1034844196199E+01
 0.1049404731556E+01
 0.1060307103905E+01
 0.1067394892093E+01
 0.1070567220353E+01
 0.1069770856199E+01
 0.1064997087988E+01
 0.1056284525867E+01
 0.1043728171593E+01
 0.1027495127802E+01
 0.1007843961410E+01
 0.9851470807506E+00
 0.9599134526644E+00
 0.9328061739062E+00
 0.9046526607769E+00
 0.8764473478143E+00
 0.8493722304976E+00
 0.8248131695505E+00
 0.8043696918451E+00
 0.7898905217249E+00
 0.7835440222678E+00
 0.7878953717903E+00
 0.8059265750681E+00
 0.8409164187643E+00
 0.8961254713832E+00
 0.9743317173749E+00
 0.1077376849748E+01
 0.1205814386175E+01
 0.1358661491962E+01
 0.1533282955597E+01
 0.1725385785624E+01
 0.1929141120829E+01
 0.2137481015576E+01
 0.2342585385974E+01
 0.2536532651574E+01
 0.2711983733411E+01
 0.8978430257451E+00
 0.9261087737428E+00
 0.9525253069828E+00
 0.9765915340404E+00
 0.9978909174887E+00
 0.1016091685212E+01
 0.1030942375850E+01
 0.1042261657623E+01
 0.1049925016338E+01
 0.1053852016960E+01
 0.1053997305486E+01
 0.1050347317660E+01
 0.1042923569405E+01
 0.1031792673535E+01
 0.1017083343330E+01
 0.9990076274139E+00
 0.9778855570073E+00
 0.9541703508856E+00
 0.9284684900500E+00
 0.9015520837882E+00
 0.8743644938613E+00
 0.8480412655167E+00
 0.8239215715949E+00
 0.8035522790181E+00
 0.7887203324762E+00
 0.7815247455366E+00
 0.7844642673437E+00
 0.8004819195878E+00
 0.8328833571637E+00
 0.8850612483679E+00
 0.9600478363812E+00
 0.1060040262744E+01
 0.1185995686754E+01
 0.1337315200393E+01
 0.1511658172925E+01
 0.1704872141355E+01
 0.1911061845837E+01
 0.2122859824876E+01
 0.2331933835754E+01
 0.2529717437607E+01
 0.2708212953786E+01
 0.8778247911359E+00
 0.9064754249179E+00
 0.9331658170148E+00
 0.9574431534919E+00
 0.9789412955443E+00
 0.9973795311323E+00
 0.1012555330031E+01
 0.1024330480648E+01
 0.1032614293034E+01
 0.1037348391341E+01
 0.1038496473758E+01
 0.1036040768469E+01
 0.1029985729683E+01
 0.1020368896808E+01
 0.1007279090839E+01
 0.9908794896143E+00
 0.9714346227132E+00
 0.9493382528613E+00
 0.9251362036361E+00
 0.8995411864498E+00
 0.8734419510286E+00
 0.8479247252193E+00
 0.8242789634953E+00
 0.8039948229309E+00
 0.7887917184468E+00
 0.7806910262176E+00
 0.7821132700072E+00
 0.7959470762551E+00
 0.8255088420975E+00
 0.8743141433901E+00
 0.9456575698560E+00
 0.1042124004518E+01
 0.1165129700108E+01
 0.1314529517306E+01
 0.1488348405248E+01
 0.1682631517502E+01
 0.1891444261318E+01
 0.2107101593396E+01
 0.2320688223620E+01
 0.2522881854761E+01
 0.2704914634386E+01
 0.8576587126047E+00
 0.8867235462217E+00
 0.9137167396731E+00
 0.9382335220420E+00
 0.9599583613384E+00
 0.9786626902265E+00
 0.9941947630645E+00
 0.1006461661007E+01
 0.1015408567251E+01
 0.1021000834422E+01
 0.1023212415586E+01
 0.1022022042289E+01
 0.1017417271933E+01
 0.1009406077042E+01
 0.9980360958397E+00
 0.9834194703638E+00
 0.9657622333088E+00
 0.9453950485490E+00
 0.9227990589900E+00
 0.8986234780725E+00
 0.8736988921201E+00
 0.8490593677652E+00
 0.8259416821394E+00
 0.8057753400687E+00
 0.7902066129718E+00
 0.7811710212776E+00
 0.7809986613313E+00
 0.7925065565253E+00
 0.8190013745850E+00
 0.8641052386703E+00
 0.9313751445246E+00
 0.1023810987997E+01
 0.1143344959359E+01
 0.1290364160146E+01
 0.1463344306064E+01
 0.1658602011802E+01
 0.1870205951559E+01
 0.2090144692575E+01
 0.2308844847577E+01
 0.2516095917855E+01
 0.2702227657421E+01
 0.8373219428037E+00
 0.8668252972835E+00
 0.8941454799345E+00
 0.9189252998169E+00
 0.9408999925817E+00
 0.9598944137118E+00
 0.9758097622563E+00
 0.9886008428592E+00
 0.9982508956366E+00
 0.1004750708769E+01
 0.1008085711000E+01
 0.1008231919189E+01
 0.1005160317487E+01
 0.9988490532213E+00
 0.9893035564790E+00
 0.9765830051177E+00
 0.9608321050733E+00
 0.9423148650934E+00
 0.9214437558034E+00
 0.8988003962896E+00
 0.8751536585191E+00
 0.8514826352229E+00
 0.8289685360600E+00
 0.8089763643779E+00
 0.7930737711285E+00
 0.7831023583494E+00
 0.7812894518914E+00
 0.7903619089128E+00
 0.8135921524916E+00
 0.8546848080370E+00
 0.9174494561424E+00
 0.1005320563960E+01
 0.1120802432334E+01
 0.1264901331186E+01
 0.1436645065955E+01
 0.1632715815694E+01
 0.1847247934604E+01
 0.2071908735400E+01
 0.2296390514536E+01
 0.2509434078585E+01
 0.2700301579614E+01
 0.8167911417743E+00
 0.8467521767578E+00
 0.8744186340382E+00
 0.8994801165183E+00
 0.9217227089314E+00
 0.9410262056722E+00
 0.9573472793504E+00
 0.9706911782180E+00
 0.9810815093974E+00
 0.9885362126723E+00
 0.9930534076793E+00
 0.9946072480941E+00
 0.9931526534319E+00
 0.9886379730681E+00
 0.9810257318443E+00
 0.9703205124011E+00
 0.9566030749672E+00
 0.9400673305013E+00
 0.9210531341761E+00
 0.9000704357294E+00
 0.8778228617319E+00
 0.8552317647163E+00
 0.8334199670154E+00
 0.8136841944727E+00
 0.7975081171815E+00
 0.7866315682555E+00
 0.7831668808465E+00
 0.7897313730777E+00
 0.8095352572690E+00
 0.8463337886085E+00
 0.9041676391817E+00
 0.9869143876862E+00
 0.1097702815867E+01
 0.1238252735213E+01
 0.1408263329931E+01
 0.1604900782536E+01
 0.1822452345680E+01
 0.2052288630021E+01
 0.2283296744557E+01
 0.2502974308607E+01
 0.2699292002270E+01
 0.7960425204880E+00
 0.8264750723915E+00
 0.8545020429655E+00
 0.8798586019090E+00
 0.9023816598250E+00
 0.9220077753086E+00
 0.9387520721368E+00
 0.9526732814781E+00
 0.9638377891364E+00
 0.9722923629100E+00
 0.9780489840399E+00
 0.9810808548769E+00
 0.9813275504492E+00
 0.9787079923253E+00
 0.9731415064736E+00
 0.9645768212647E+00
 0.9530284002439E+00
 0.9386167611902E+00
 0.9216052690590E+00
 0.9024281725013E+00
 0.8817203685380E+00
 0.8603427744540E+00
 0.8393570847827E+00
 0.8199880233839E+00
 0.8036299958480E+00
 0.7919134447910E+00
 0.7868238381916E+00
 0.7908493802637E+00
 0.8071075385300E+00
 0.8393648659487E+00
 0.8918584808819E+00
 0.9689027837252E+00
 0.1074295149982E+01
 0.1210568451143E+01
 0.1378231938164E+01
 0.1575083319769E+01
 0.1795680925726E+01
 0.2031147823238E+01
 0.2269509736669E+01
 0.2496795676828E+01
 0.2699349639243E+01
 0.7750518979247E+00
 0.8059643301851E+00
 0.8343608653222E+00
 0.8600204234170E+00
 0.8828306045284E+00
 0.9027869733682E+00
 0.9199666328329E+00
 0.9344851812941E+00
 0.9464542494277E+00
 0.9559509966027E+00
 0.9630023352601E+00
 0.9675814708558E+00
 0.9696135919445E+00
 0.9689889702835E+00
 0.9655839319760E+00
 0.9592905554397E+00
 0.9500549957897E+00
 0.9379212708975E+00
 0.9230724716640E+00
 0.9058631820025E+00
 0.8868561663042E+00
 0.8668493188896E+00
 0.8468405658045E+00
 0.8279789378136E+00
 0.8115643140425E+00
 0.7991103269008E+00
 0.7924642239042E+00
 0.7939659278613E+00
 0.8066081887616E+00
 0.8341230488445E+00
 0.8808954301911E+00
 0.9516513913287E+00
 0.1050886782534E+01
 0.1182048010324E+01
 0.1346612976560E+01
 0.1543193049532E+01
 0.1766774743815E+01
 0.2008313109982E+01
 0.2254934954620E+01
 0.2490968217081E+01
 0.2700589936478E+01
 0.7537947712174E+00
 0.7851898538452E+00
 0.8139596764057E+00
 0.8399243307427E+00
 0.8630218820484E+00
 0.8833097100818E+00
 0.9009311047539E+00
 0.9160622773595E+00
 0.9288625458611E+00
 0.9394408084907E+00
 0.9478398007257E+00
 0.9540337010323E+00
 0.9579345333196E+00
 0.9594051782565E+00
 0.9582797586217E+00
 0.9543934821456E+00
 0.9476226121921E+00
 0.9379317996914E+00
 0.9254201930175E+00
 0.9103588418117E+00
 0.8932350960349E+00
 0.8747813949986E+00
 0.8559293904110E+00
 0.8377487534337E+00
 0.8214395342081E+00
 0.8083912695433E+00
 0.8003022346299E+00
 0.7993458551447E+00
 0.8083580352171E+00
 0.8309856546274E+00
 0.8716989429278E+00
 0.9355877945977E+00
 0.1027854673974E+01
 0.1152954110129E+01
 0.1313509921912E+01
 0.1509169658882E+01
 0.1735555801220E+01
 0.1983572201063E+01
 0.2239427658260E+01
 0.2485522169418E+01
 0.2702974336330E+01
 0.7322463930438E+00
 0.7641212675276E+00
 0.7932625914270E+00
 0.8195282042088E+00
 0.8429063632201E+00
 0.8635198442503E+00
 0.8815831826367E+00
 0.8973373039839E+00
 0.9109915117874E+00
 0.9226874341649E+00
 0.9324842453367E+00
 0.9403580455506E+00
 0.9462092048471E+00
 0.9498750328163E+00
 0.9511489652264E+00
 0.9498098291604E+00
 0.9456629535005E+00
 0.9385910587703E+00
 0.9286058231983E+00
 0.9158910121793E+00
 0.9008554437096E+00
 0.8841638866841E+00
 0.8666793992841E+00
 0.8493886573188E+00
 0.8333864801126E+00
 0.8199310619346E+00
 0.8105615568965E+00
 0.8072680482080E+00
 0.8126986131580E+00
 0.8303616839928E+00
 0.8647378981541E+00
 0.9212076938239E+00
 0.1005657846010E+01
 0.1123629376243E+01
 0.1279083718561E+01
 0.1472973148073E+01
 0.1701828590518E+01
 0.1956680096235E+01
 0.2222778569918E+01
 0.2480553154357E+01
 0.2705467720411E+01
 0.7103819454622E+00
 0.7427203366525E+00
 0.7722204465844E+00
 0.7987708185885E+00
 0.8224099566124E+00
 0.8433307276655E+00
 0.8618251874425E+00
 0.8782036061870E+00
 0.8927275043121E+00
 0.9055719553007E+00
 0.9168130488276E+00
 0.9264299289291E+00
 0.9343133456438E+00
 0.9402776690900E+00
 0.9440781158431E+00
 0.9454384869666E+00
 0.9440926781294E+00
 0.9398390262213E+00
 0.9325979775137E+00
 0.9224618996380E+00
 0.9097576218981E+00
 0.8950797432070E+00
 0.8792200343732E+00
 0.8630778101458E+00
 0.8476360876787E+00
 0.8340130869008E+00
 0.8235775674359E+00
 0.8181190209384E+00
 0.8200666596091E+00
 0.8327346209283E+00
 0.8605275656242E+00
 0.9090166626759E+00
 0.9847145875690E+00
 0.1094305170604E+01
 0.1243297696264E+01
 0.1434285029846E+01
 0.1665075122608E+01
 0.1927098969255E+01
 0.2204651822882E+01
 0.2475792783153E+01
 0.2710940374077E+01
 0.6881730114205E+00
 0.7209547126037E+00
 0.7507944845970E+00
 0.7776061990450E+00
 0.8014779927169E+00
 0.8226792876238E+00
 0.8415871803341E+00
 0.8585861608797E+00
 0.8739916441285E+00
 0.8880121166165E+00
 0.9007405464808E+00
 0.9121601550057E+00
 0.9221544820757E+00
 0.9305183869706E+00
 0.9369724185148E+00
 0.9411878437407E+00
 0.9428275361339E+00
 0.9416035031532E+00
 0.9373413847076E+00
 0.9300381640054E+00
 0.9199354904996E+00
 0.9075556527118E+00
 0.8936167277149E+00
 0.8789263186822E+00
 0.8643487858857E+00
 0.8508534373415E+00
 0.8396276053142E+00
 0.8322444182206E+00
 0.8308859997740E+00
 0.8386180782950E+00
 0.8596759598300E+00
 0.8996945058723E+00
 0.9657037555962E+00
 0.1065536598644E+01
 0.1206452060601E+01
 0.1393077198157E+01
 0.1624984098268E+01
 0.1894396605563E+01
 0.2184831193514E+01
 0.2471176743193E+01
 0.2724501960854E+01
 0.6655988490897E+00
 0.6988030794923E+00
 0.7289626684535E+00
 0.7560086456011E+00
 0.7800793995765E+00
 0.8015294017245E+00
 0.8208297652568E+00
 0.8384438928197E+00
 0.8547416134798E+00
 0.8699634911482E+00
 0.8842183978674E+00
 0.8974942713046E+00
 0.9096700298269E+00
 0.9205251807458E+00
 0.9297503477648E+00
 0.9369681839192E+00
 0.9417722893532E+00
 0.9437873943366E+00
 0.9427414571308E+00
 0.9385327808249E+00
 0.9313154831726E+00
 0.9215384558651E+00
 0.9098448204722E+00
 0.8969471373068E+00
 0.8835851512113E+00
 0.8705714099099E+00
 0.8589026874677E+00
 0.8499235700156E+00
 0.8455468374731E+00
 0.8485427435241E+00
 0.8628846875699E+00
 0.8941225682409E+00
 0.9496362577236E+00
 0.1038330728311E+01
 0.1169362291189E+01
 0.1349816239556E+01
 0.1581633931227E+01
 0.1858425732718E+01
 0.2163121739493E+01
 0.2468067398794E+01
 0.2741429556623E+01
 0.6426362135680E+00
 0.6762357502561E+00
 0.7066890994914E+00
 0.7339326418590E+00
 0.7581571261150E+00
 0.7798137618084E+00
 0.7994783986134E+00
 0.8176976980210E+00
 0.8348950006538E+00
 0.8513402161136E+00
 0.8671562810606E+00
 0.8823362490249E+00
 0.8967573621679E+00
 0.9101888574958E+00
 0.9222975823299E+00
 0.9326631357350E+00
 0.9408130433437E+00
 0.9462846952414E+00
 0.9487058129944E+00
 0.9478728746278E+00
 0.9438504357288E+00
 0.9370134398625E+00
 0.9279293454637E+00
 0.9172126064888E+00
 0.9054723114933E+00
 0.8933562366579E+00
 0.8816617796844E+00
 0.8714944827091E+00
 0.8644797353682E+00
 0.8630523564542E+00
 0.8708369808821E+00
 0.8931389146835E+00
 0.9374686628306E+00
 0.1013630467152E+01
 0.1132741043060E+01
 0.1304781873396E+01
 0.1534823655466E+01
 0.1818674175390E+01
 0.2139258077331E+01
 0.2466245939677E+01
 0.2761871144392E+01
 0.6192630004365E+00
 0.6532245664472E+00
 0.6839386730941E+00
 0.7113316849342E+00
 0.7356511572167E+00
 0.7574611781487E+00
 0.7774549309833E+00
 0.7962657119190E+00
 0.8143674077608E+00
 0.8320547759128E+00
 0.8494619668822E+00
 0.8665872614695E+00
 0.8833095196203E+00
 0.8993937676608E+00
 0.9144908113170E+00
 0.9281447256832E+00
 0.9398220072098E+00
 0.9489738202961E+00
 0.9551255015355E+00
 0.9579686686997E+00
 0.9574765727377E+00
 0.9539502303618E+00
 0.9478813469796E+00
 0.9397835272307E+00
 0.9301291444139E+00
 0.9193931287755E+00
 0.9081650925826E+00
 0.8973027201733E+00
 0.8881302014451E+00
 0.8827151144824E+00
 0.8842570220935E+00
 0.8976573435518E+00
 0.9302972056391E+00
 0.9925972987488E+00
 0.1097558602317E+01
 0.1258456291348E+01
 0.1484402064552E+01
 0.1774539611969E+01
 0.2112638084344E+01
 0.2465196873466E+01
 0.2786362934617E+01
 0.5954590538066E+00
 0.6297435613132E+00
 0.6606776067026E+00
 0.6881579120758E+00
 0.7124975787916E+00
 0.7343957195797E+00
 0.7546772108594E+00
 0.7740633999926E+00
 0.7930728771116E+00
 0.8120186117736E+00
 0.8310420038943E+00
 0.8501463572741E+00
 0.8692157659465E+00
 0.8880180968667E+00
 0.9061975897444E+00
 0.9232726631235E+00
 0.9386561826807E+00
 0.9517157962834E+00
 0.9618728587572E+00
 0.9687111387310E+00
 0.9721110435413E+00
 0.9723002368692E+00
 0.9696952049301E+00
 0.9647062854965E+00
 0.9576631218818E+00
 0.9488598378242E+00
 0.9386705219774E+00
 0.9276980942417E+00
 0.9169560320814E+00
 0.9081214084338E+00
 0.9039062648223E+00
 0.9086606652585E+00
 0.9293549626126E+00
 0.9766347671641E+00
 0.1065111606085E+01
 0.1211615133848E+01
 0.1430334532284E+01
 0.1725286278625E+01
 0.2082298018021E+01
 0.2464409179685E+01
 0.2815605690505E+01
 0.5712072542524E+00
 0.6057700871843E+00
 0.6368739678477E+00
 0.6643613912816E+00
 0.6886271696590E+00
 0.7105355737560E+00
 0.7310586504154E+00
 0.7510037463266E+00
 0.7709244568348E+00
 0.7911428753910E+00
 0.8118025548243E+00
 0.8329113072786E+00
 0.8543623478397E+00
 0.8759343758897E+00
 0.8972763784838E+00
 0.9178937097203E+00
 0.9371559959436E+00
 0.9543522703806E+00
 0.9687991105923E+00
 0.9799694178501E+00
 0.9876492627580E+00
 0.9919939709932E+00
 0.9933458685757E+00
 0.9920098465785E+00
 0.9881668813746E+00
 0.9819226874072E+00
 0.9734291976773E+00
 0.9630300766895E+00
 0.9514232282839E+00
 0.9398806369562E+00
 0.9305798294927E+00
 0.9271931904647E+00
 0.9360023419808E+00
 0.9674012289370E+00
 0.1037095979357E+01
 0.1165454719238E+01
 0.1372807190621E+01
 0.1670050616005E+01
 0.2046954647145E+01
 0.2463287626651E+01
 0.2850457225791E+01
 0.5464951176761E+00
 0.5812864759936E+00
 0.6124982182998E+00
 0.6398888016849E+00
 0.6639633202403E+00
 0.6857915841834E+00
 0.7065078041470E+00
 0.7269975981163E+00
 0.7478349392826E+00
 0.7693393411594E+00
 0.7916503925451E+00
 0.8147796386639E+00
 0.8386334891090E+00
 0.8630102638109E+00
 0.8875768400683E+00
 0.9118411939470E+00
 0.9351438886107E+00
 0.9567032946339E+00
 0.9757316515495E+00
 0.9915878839034E+00
 0.1003962024530E+01
 0.1012938262198E+01
 0.1018786073098E+01
 0.1021702716952E+01
 0.1021714619721E+01
 0.1018732143561E+01
 0.1012680129508E+01
 0.1003641713164E+01
 0.9919998571948E+00
 0.9786160245939E+00
 0.9651021627640E+00
 0.9543534152817E+00
 0.9517126520497E+00
 0.9668068033057E+00
 0.1015674052148E+01
 0.1121758042032E+01
 0.1312400387593E+01
 0.1607915350169E+01
 0.2004955935243E+01
 0.2461026543452E+01
 0.2891962049033E+01
 0.5213172301647E+00
 0.5562824635260E+00
 0.5875236407234E+00
 0.6146810890072E+00
 0.6384190046872E+00
 0.6600654580028E+00
 0.6809280605069E+00
 0.7019542458772E+00
 0.7237178080975E+00
 0.7465214871931E+00
 0.7704940574681E+00
 0.7956498634604E+00
 0.8219126472055E+00
 0.8491096670396E+00
 0.8769404845919E+00
 0.9049347611833E+00
 0.9324229025560E+00
 0.9585648398721E+00
 0.9824708939723E+00
 0.1003382822003E+01
 0.1020892337097E+01
 0.1035013399468E+01
 0.1045943637619E+01
 0.1053770004871E+01
 0.1058358441104E+01
 0.1059418044983E+01
 0.1056644038381E+01
 0.1049861975954E+01
 0.1039147354982E+01
 0.1024956144331E+01
 0.1008320117208E+01
 0.9912865613559E+00
 0.9780557560647E+00
 0.9769929053795E+00
 0.1003518924893E+01
 0.1083094996346E+01
 0.1250369326341E+01
 0.1538055051970E+01
 0.1954186507773E+01
 0.2456439777362E+01
 0.2941416492536E+01
 0.4956790614878E+00
 0.5307587430031E+00
 0.5619263173793E+00
 0.5886694068150E+00
 0.6118924779328E+00
 0.6332477274823E+00
 0.6542176237330E+00
 0.6757823440504E+00
 0.6984884316525E+00
 0.7226057531095E+00
 0.7482451749131E+00
 0.7754229038994E+00
 0.8040840572033E+00
 0.8340942660637E+00
 0.8652017916790E+00
 0.8969804983661E+00
 0.9287753292365E+00
 0.9597059862305E+00
 0.9887865350596E+00
 0.1015138493347E+01
 0.1038251882448E+01
 0.1058070222710E+01
 0.1074718965883E+01
 0.1088170736301E+01
 0.1098124804754E+01
 0.1104084632151E+01
 0.1105516532569E+01
 0.1101996676433E+01
 0.1093309044593E+01
 0.1079521936392E+01
 0.1061090747958E+01
 0.1039174217880E+01
 0.1016681851677E+01
 0.1000298345582E+01
 0.1003816971362E+01
 0.1053033010245E+01
 0.1189068063618E+01
 0.1460021328142E+01
 0.1891960021169E+01
 0.2447713669231E+01
 0.3000473528364E+01
 0.4696031119878E+00
 0.5047321797152E+00
 0.5356839120684E+00
 0.5617682043069E+00
 0.5842613503984E+00
 0.6052157123202E+00
 0.6262700425009E+00
 0.6483912682159E+00
 0.6720655093425E+00
 0.6975129505749E+00
 0.7248198976391E+00
 0.7540036803993E+00
 0.7850345508083E+00
 0.8178254973709E+00
 0.8521899459446E+00
 0.8877716228412E+00
 0.9239615447709E+00
 0.9598657367158E+00
 0.9944130287180E+00
 0.1026602367243E+01
 0.1055816978298E+01
 0.1081927236485E+01
 0.1104982978412E+01
 0.1124835708325E+01
 0.1141011333843E+01
 0.1152805634146E+01
 0.1159460980221E+01
 0.1160318424629E+01
 0.1154896258897E+01
 0.1142908744165E+01
 0.1124261154107E+01
 0.1099215906435E+01
 0.1069303080757E+01
 0.1039220205122E+01
 0.1020218337048E+01
 0.1036301448267E+01
 0.1132546070751E+01
 0.1374299529378E+01
 0.1814954957037E+01
 0.2432020809355E+01
 0.3071301328184E+01
 0.4431391354628E+00
 0.4782434205723E+00
 0.5087716346482E+00
 0.5338636592429E+00
 0.5553748713528E+00
 0.5758320780419E+00
 0.5969756692317E+00
 0.6196930207537E+00
 0.6443727930755E+00
 0.6711698283646E+00
 0.7001404658934E+00
 0.7313028509893E+00
 0.7646556527729E+00
 0.8001670565339E+00
 0.8377313813288E+00
 0.8770900419892E+00
 0.9177192728291E+00
 0.9587494260470E+00
 0.9990439439632E+00
 0.1037479102537E+01
 0.1073323785154E+01
 0.1106367765672E+01
 0.1136575695223E+01
 0.1163666125392E+01
 0.1186984135438E+01
 0.1205619489146E+01
 0.1218601256604E+01
 0.1225056118158E+01
 0.1224272802127E+01
 0.1215663660693E+01
 0.1198638398048E+01
 0.1172595794443E+01
 0.1137663381324E+01
 0.1096373373696E+01
 0.1056746081367E+01
 0.1038827597796E+01
 0.1087285959948E+01
 0.1283365685677E+01
 0.1719335635190E+01
 0.2404896487526E+01
 0.3156818245877E+01
 0.4163817640792E+00
 0.4513677507266E+00
 0.4811518805460E+00
 0.5047947142878E+00
 0.5250448418307E+00
 0.5449450996254E+00
 0.5662244650038E+00
 0.5896047252236E+00
 0.6153410690822E+00
 0.6435107652676E+00
 0.6741368484284E+00
 0.7072386569425E+00
 0.7428459080180E+00
 0.7809879322111E+00
 0.8216533242219E+00
 0.8647092011447E+00
 0.9097636906936E+00
 0.9560247616196E+00
 0.1002324757485E+01
 0.1047422639453E+01
 0.1090462374201E+01
 0.1131137222783E+01
 0.1169305842900E+01
 0.1204533412244E+01
 0.1235975855940E+01
 0.1262524760819E+01
 0.1283014522420E+01
 0.1296384617254E+01
 0.1301739117089E+01
 0.1298259847192E+01
 0.1284949658039E+01
 0.1260428966640E+01
 0.1223481068729E+01
 0.1174436112856E+01
 0.1117690217166E+01
 0.1067586241892E+01
 0.1062886648388E+01
 0.1193584569273E+01
 0.1601428515384E+01
 0.2359238279478E+01
 0.3261028826856E+01
 0.3895021665282E+00
 0.4242296381769E+00
 0.4527499634206E+00
 0.4743230021970E+00
 0.4930371615225E+00
 0.5123923913396E+00
 0.5339103992321E+00
 0.5580516351857E+00
 0.5849103491194E+00
 0.6144795275635E+00
 0.6467483952644E+00
 0.6817387939295E+00
 0.7195133358370E+00
 0.7601658906890E+00
 0.8037884735281E+00
 0.8503987742288E+00
 0.8997891013994E+00
 0.9513177127039E+00
 0.1003843454354E+01
 0.1056025404362E+01
 0.1106869086775E+01
 0.1155940677663E+01
 0.1202952132967E+01
 0.1247280846319E+01
 0.1287884844852E+01
 0.1323475819341E+01
 0.1352724102759E+01
 0.1374415347318E+01
 0.1387518148857E+01
 0.1391071004901E+01
 0.1383795741439E+01
 0.1363685819680E+01
 0.1328348545888E+01
 0.1276047869462E+01
 0.1207488857506E+01
 0.1130304540083E+01
 0.1072268113257E+01
 0.1118231924236E+01
 0.1459902396322E+01
 0.2283793524024E+01
 0.3389460661677E+01
 0.3628077554995E+00
 0.3970188484246E+00
 0.4233995587925E+00
 0.4420882514714E+00
 0.4590696404362E+00
 0.4780102273503E+00
 0.4999371993079E+00
 0.5249705548912E+00
 0.5530322348866E+00
 0.5840310324560E+00
 0.6179254539802E+00
 0.6547422453664E+00
 0.6945779014863E+00
 0.7375912465179E+00
 0.7839808380391E+00
 0.8339318886872E+00
 0.8874734129935E+00
 0.9442088568645E+00
 0.1003118028442E+01
 0.1062802926284E+01
 0.1122116199507E+01
 0.1180441005697E+01
 0.1237267103086E+01
 0.1291727772557E+01
 0.1342575756399E+01
 0.1388378582821E+01
 0.1427691982021E+01
 0.1459188068242E+01
 0.1481745047889E+01
 0.1494350303065E+01
 0.1495603846318E+01
 0.1483099330617E+01
 0.1453581165099E+01
 0.1403617771540E+01
 0.1330529731694E+01
 0.1235123670371E+01
 0.1131038663156E+01
 0.1081037551725E+01
 0.1301789885269E+01
 0.2161300447632E+01
 0.3549575197045E+01
 0.3368616959170E+00
 0.3699951923680E+00
 0.3927225668334E+00
 0.4075522754811E+00
 0.4228283608625E+00
 0.4416489742546E+00
 0.4642244338124E+00
 0.4903136989188E+00
 0.5196723174810E+00
 0.5521330161878E+00
 0.5876308697241E+00
 0.6262009757053E+00
 0.6679738538268E+00
 0.7131706096027E+00
 0.7620924189655E+00
 0.8150955215446E+00
 0.8724874665304E+00
 0.9342316876162E+00
 0.9995796308084E+00
 0.1067170953234E+01
 0.1135697333544E+01
 0.1204258291075E+01
 0.1271985016243E+01
 0.1337677523109E+01
 0.1399882151476E+01
 0.1457086176006E+01
 0.1507809977811E+01
 0.1550663434131E+01
 0.1584463157259E+01
 0.1608219727458E+01
 0.1620587843854E+01
 0.1619067007744E+01
 0.1600022581611E+01
 0.1559016812364E+01
 0.1490764112482E+01
 0.1390117693087E+01
 0.1256351723743E+01
 0.1117342187418E+01
 0.1157169470789E+01
 0.1968123471973E+01
 0.3750618460258E+01
 0.3127410011904E+00
 0.3434256281453E+00
 0.3598705312085E+00
 0.3699644927031E+00
 0.3840214119698E+00
 0.4031884224648E+00
 0.4267136514750E+00
 0.4540531716042E+00
 0.4848123205655E+00
 0.5187676174618E+00
 0.5558413240709E+00
 0.5960814376076E+00
 0.6396518452314E+00
 0.6868303170258E+00
 0.7380099746551E+00
 0.7937042128210E+00
 0.8545124625709E+00
 0.9208764913606E+00
 0.9925497590119E+00
 0.1068409757560E+01
 0.1147006026408E+01
 0.1226971919870E+01
 0.1306836056915E+01
 0.1384930251448E+01
 0.1459611555403E+01
 0.1529394254495E+01
 0.1592887553326E+01
 0.1648713863968E+01
 0.1695627993189E+01
 0.1732677285802E+01
 0.1758725757092E+01
 0.1771560129463E+01
 0.1767837731348E+01
 0.1743151728621E+01
 0.1691075319216E+01
 0.1602314096942E+01
 0.1465485844774E+01
 0.1270413078842E+01
 0.1104579085585E+01
 0.1685261305381E+01
 0.4001110684602E+01
 0.2926545417271E+00
 0.3172116189536E+00
 0.3230083956338E+00
 0.3284846222405E+00
 0.3424651645808E+00
 0.3625381222193E+00
 0.3873797408441E+00
 0.4161841342233E+00
 0.4484521703530E+00
 0.4839327486098E+00
 0.5225484515367E+00
 0.5643658198900E+00
 0.6095806990987E+00
 0.6585193682988E+00
 0.7116506232232E+00
 0.7696153951973E+00
 0.8332697627237E+00
 0.9036083009102E+00
 0.9812098084511E+00
 0.1065605197723E+01
 0.1155303477105E+01
 0.1248128835248E+01
 0.1341570402850E+01
 0.1433302119304E+01
 0.1521553432701E+01
 0.1605036526591E+01
 0.1682634072135E+01
 0.1753106608159E+01
 0.1815120090556E+01
 0.1867633303086E+01
 0.1909767545779E+01
 0.1940047791918E+01
 0.1956333082637E+01
 0.1955516567068E+01
 0.1932289143250E+01
 0.1876377010881E+01
 0.1771989827256E+01
 0.1587760033987E+01
 0.1276956881551E+01
 0.1369091819089E+01
 0.4300862261387E+01
 0.2816629245478E+00
 0.2890358990128E+00
 0.2786585860161E+00
 0.2828123508055E+00
 0.2980290293553E+00
 0.3196633173157E+00
 0.3462395636933E+00
 0.3767265244527E+00
 0.4106121209704E+00
 0.4476428985062E+00
 0.4877596708582E+00
 0.5310528756255E+00
 0.5777485844626E+00
 0.6282116414235E+00
 0.6829656801302E+00
 0.7427406671540E+00
 0.8085649770682E+00
 0.8819196697922E+00
 0.9645630588365E+00
 0.1057543230227E+01
 0.1159670492680E+01
 0.1267266115265E+01
 0.1375997238417E+01
 0.1482652607586E+01
 0.1585490165372E+01
 0.1683682258652E+01
 0.1776636295994E+01
 0.1863466233093E+01
 0.1942761275122E+01
 0.2013003452914E+01
 0.2073280865650E+01
 0.2123456355254E+01
 0.2163780277694E+01
 0.2193988926865E+01
 0.2211830253353E+01
 0.2212771090143E+01
 0.2181044255519E+01
 0.2104136222716E+01
 0.1843490722760E+01
 0.1419937679895E+01
 0.4628766333373E+01
 0.2937228507980E+00
 0.2439540720447E+00
 0.2250975647877E+00
 0.2332007771798E+00
 0.2505602815001E+00
 0.2746532390106E+00
 0.3033391170878E+00
 0.3357324150068E+00
 0.3713324281425E+00
 0.4099300880446E+00
 0.4514985685023E+00
 0.4961584387835E+00
 0.5441636079973E+00
 0.5959070444918E+00
 0.6519435980009E+00
 0.7130486003000E+00
 0.7803254732137E+00
 0.8554719379455E+00
 0.9414028416954E+00
 0.1042492923036E+01
 0.1158948301796E+01
 0.1283962957999E+01
 0.1410044239254E+01
 0.1532921409286E+01
 0.1651209556813E+01
 0.1764934917153E+01
 0.1874340706370E+01
 0.1979196645134E+01
 0.2078292547379E+01
 0.2168927280606E+01
 0.2248764402453E+01
 0.2320063340643E+01
 0.2387475560912E+01
 0.2454350421689E+01
 0.2524337258837E+01
 0.2601010462581E+01
 0.2694715202525E+01
 0.2791791620889E+01
 0.2999052653441E+01
 0.2674869688896E+01
 0.5378552482627E+01
 0.4442814764530E+00
 0.5184705524627E+00
 0.5956902114470E+00
 0.6687165776043E+00
 0.7339088987379E+00
 0.7895181837575E+00
 0.8348603381011E+00
 0.8698289881345E+00
 0.8946059632127E+00
 0.9095351037566E+00
 0.9151139982584E+00
 0.9115603677760E+00
 0.8993722429540E+00
 0.8796330754260E+00
 0.8528959312773E+00
 0.8190544476010E+00
 0.7776769071948E+00
 0.7283278639835E+00
 0.6709823615674E+00
 0.6026387171395E+00
 0.4313784793141E+00
 0.5127677943848E+00
 0.5956680423620E+00
 0.6739090111765E+00
 0.7439454135357E+00
 0.8040863973259E+00
 0.8536951020921E+00
 0.8926935263915E+00
 0.9212756574799E+00
 0.9398023132596E+00
 0.9487446269003E+00
 0.9483386976467E+00
 0.9391151315332E+00
 0.9220046407393E+00
 0.8974459512980E+00
 0.8654004553632E+00
 0.8254065898065E+00
 0.7768873473982E+00
 0.7173227382726E+00
 0.6449683835742E+00
 0.4185792814305E+00
 0.5079084387192E+00
 0.5968486657107E+00
 0.6802858397920E+00
 0.7550655212534E+00
 0.8196208059986E+00
 0.8733823085255E+00
 0.9163140102288E+00
 0.9486422812035E+00
 0.9707419111992E+00
 0.9830643486233E+00
 0.9859149156033E+00
 0.9798175394722E+00
 0.9655528207248E+00
 0.9434915515829E+00
 0.9135260107394E+00
 0.8750851122870E+00
 0.8269513389412E+00
 0.7669988317573E+00
 0.6968598391524E+00
 0.4060955137319E+00
 0.5037039227756E+00
 0.5989927889085E+00
 0.6876890954336E+00
 0.7671384389076E+00
 0.8359970524336E+00
 0.8938005471273E+00
 0.9405759237033E+00
 0.9765928873227E+00
 0.1002248689648E+01
 0.1018000887679E+01
 0.1024211508309E+01
 0.1021392428279E+01
 0.1010198880399E+01
 0.9909094401228E+00
 0.9633233562679E+00
 0.9266939278450E+00
 0.8797951219640E+00
 0.8215353535109E+00
 0.7538482206142E+00
 0.3939880554101E+00
 0.5001213210839E+00
 0.6019414453772E+00
 0.6959548112040E+00
 0.7800197211565E+00
 0.8530794704852E+00
 0.9148191649431E+00
 0.9653520676023E+00
 0.1005004677361E+01
 0.1034209743918E+01
 0.1053444682142E+01
 0.1063118545761E+01
 0.1063728592382E+01
 0.1055821833917E+01
 0.1039586015056E+01
 0.1014731283195E+01
 0.9804855587963E+00
 0.9358525339759E+00
 0.8802006827520E+00
 0.8151592516976E+00
 0.3822978110364E+00
 0.4971184025108E+00
 0.6055793737974E+00
 0.7049322880915E+00
 0.7935587522642E+00
 0.8707236869180E+00
 0.9362980001238E+00
 0.9905053116089E+00
 0.1033743997629E+01
 0.1066494015696E+01
 0.1089262670668E+01
 0.1102498908361E+01
 0.1106685472623E+01
 0.1102281420151E+01
 0.1089399714664E+01
 0.1067711668073E+01
 0.1036502726498E+01
 0.9949430325798E+00
 0.9425755314272E+00
 0.8805217886659E+00
 0.3710582981742E+00
 0.4946532447701E+00
 0.6098024368223E+00
 0.7144824622166E+00
 0.8076048635456E+00
 0.8887793157417E+00
 0.9580889392274E+00
 0.1015889121978E+01
 0.1062664743106E+01
 0.1098953630043E+01
 0.1125300862472E+01
 0.1142191481927E+01
 0.1150097890759E+01
 0.1149413811500E+01
 0.1140205151897E+01
 0.1122142955658E+01
 0.1094578801425E+01
 0.1056781382868E+01
 0.1008303729126E+01
 0.9497496323787E+00
 0.3603010714039E+00
 0.4926834413155E+00
 0.6145121733406E+00
 0.7244721439402E+00
 0.8220089994352E+00
 0.9070925538400E+00
 0.9800374770477E+00
 0.1041348196840E+01
 0.1091609068890E+01
 0.1131425308068E+01
 0.1161386666285E+01
 0.1182013801085E+01
 0.1193776212300E+01
 0.1197025804003E+01
 0.1191806682477E+01
 0.1177808227515E+01
 0.1154439363565E+01
 0.1121016256687E+01
 0.1077026367644E+01
 0.1022601618285E+01
 0.3500571635678E+00
 0.4911668938963E+00
 0.6196132526055E+00
 0.7347719577000E+00
 0.8366236050122E+00
 0.9255077714472E+00
 0.1001984220562E+01
 0.1066719661678E+01
 0.1120408662844E+01
 0.1163732137759E+01
 0.1197330935867E+01
 0.1221763455394E+01
 0.1237505607833E+01
 0.1244888513909E+01
 0.1243953162709E+01
 0.1234416029440E+01
 0.1215732329008E+01
 0.1187237329309E+01
 0.1148327095864E+01
 0.1098729209706E+01
 0.3403574295978E+00
 0.4900621042435E+00
 0.6250127101575E+00
 0.7452554215980E+00
 0.8513027340152E+00
 0.9438685388695E+00
 0.1023766317037E+01
 0.1091834534648E+01
 0.1148886363483E+01
 0.1195685453527E+01
 0.1232929768055E+01
 0.1261219206733E+01
 0.1281045649331E+01
 0.1292736674974E+01
 0.1296343578021E+01
 0.1291614151848E+01
 0.1278042109792E+01
 0.1254968948406E+01
 0.1221699824015E+01
 0.1177629097022E+01
 0.3312323967204E+00
 0.4893283745277E+00
 0.6306197626876E+00
 0.7557987685508E+00
 0.8659023741858E+00
 0.9620185924525E+00
 0.1045218841253E+01
 0.1116519355492E+01
 0.1176857989605E+01
 0.1227086827101E+01
 0.1267966386240E+01
 0.1300142498169E+01
 0.1324131796267E+01
 0.1340271956833E+01
 0.1348634242004E+01
 0.1349000140951E+01
 0.1340897101725E+01
 0.1323668243806E+01
 0.1296537657006E+01
 0.1258633652192E+01
 0.3227119325079E+00
 0.4889259627546E+00
 0.6363459437941E+00
 0.7662811687034E+00
 0.8802810159939E+00
 0.9798028576646E+00
 0.1066176217554E+01
 0.1140597904802E+01
 0.1204134294826E+01
 0.1257730185539E+01
 0.1302213281938E+01
 0.1338279722476E+01
 0.1366478473312E+01
 0.1387167890984E+01
 0.1400446211027E+01
 0.1406129943014E+01
 0.1403776999156E+01
 0.1392730192106E+01
 0.1372143517376E+01
 0.1340936749558E+01
 0.3148248484118E+00
 0.4888162418302E+00
 0.6421054197685E+00
 0.7765852033449E+00
 0.8943004095205E+00
 0.9970685740161E+00
 0.1086473710695E+01
 0.1163893015937E+01
 0.1230523056404E+01
 0.1287404140463E+01
 0.1335434783133E+01
 0.1375365293349E+01
 0.1407783209922E+01
 0.1433075645142E+01
 0.1451372777791E+01
 0.1462526490215E+01
 0.1466121940907E+01
 0.1461499315377E+01
 0.1447750233335E+01
 0.1423628825320E+01
 0.3075985033330E+00
 0.4889618814489E+00
 0.6478154229543E+00
 0.7865974971448E+00
 0.9078264525530E+00
 0.1013666499158E+01
 0.1105948966027E+01
 0.1186228441360E+01
 0.1255831256961E+01
 0.1315894499778E+01
 0.1367389979707E+01
 0.1411125261931E+01
 0.1447731367806E+01
 0.1477630171829E+01
 0.1500987095813E+01
 0.1517688716575E+01
 0.1527343501313E+01
 0.1529284957697E+01
 0.1522544780782E+01
 0.1505738162331E+01
 0.3010584388542E+00
 0.4893270589136E+00
 0.6533967697202E+00
 0.7962094621795E+00
 0.9207301792694E+00
 0.1029452185686E+01
 0.1124443604366E+01
 0.1207430781457E+01
 0.1279867369618E+01
 0.1342986964949E+01
 0.1397835953054E+01
 0.1445281327157E+01
 0.1486001240635E+01
 0.1520456617476E+01
 0.1548850027839E+01
 0.1571101099553E+01
 0.1586836792026E+01
 0.1595378006612E+01
 0.1595693901388E+01
 0.1586272908302E+01
 0.2952280705516E+00
 0.4898776998485E+00
 0.6587744369853E+00
 0.8053181135614E+00
 0.9328888131380E+00
 0.1044287305025E+01
 0.1141804853634E+01
 0.1227331459517E+01
 0.1302443724984E+01
 0.1368469971346E+01
 0.1426531221469E+01
 0.1477555099513E+01
 0.1522269378715E+01
 0.1561176899748E+01
 0.1594518167399E+01
 0.1622243482338E+01
 0.1643992884609E+01
 0.1659067523045E+01
 0.1666367904961E+01
 0.1664256939474E+01
 0.2901284370095E+00
 0.4905817418157E+00
 0.6638781746966E+00
 0.8138269268251E+00
 0.9441868553238E+00
 0.1058040994838E+01
 0.1157887196797E+01
 0.1245768719564E+01
 0.1323378924745E+01
 0.1392137611859E+01
 0.1453239304692E+01
 0.1507672490254E+01
 0.1556216003669E+01
 0.1599416323404E+01
 0.1637551853802E+01
 0.1670600807587E+01
 0.1698210845023E+01
 0.1719656042096E+01
 0.1733760649227E+01
 0.1738756610684E+01
 0.2857780193526E+00
 0.4914094162460E+00
 0.6686431370510E+00
 0.8216467111471E+00
 0.9545171800974E+00
 0.1070591201627E+01
 0.1172554006636E+01
 0.1262589611557E+01
 0.1342500252988E+01
 0.1413792573391E+01
 0.1477732310775E+01
 0.1535368108146E+01
 0.1587530384196E+01
 0.1634810086862E+01
 0.1677522970708E+01
 0.1715672420689E+01
 0.1748908840353E+01
 0.1776472839441E+01
 0.1797105274566E+01
 0.1808899185549E+01
 0.2821926276542E+00
 0.4923335390230E+00
 0.6730105102406E+00
 0.8286964694709E+00
 0.9637821058914E+00
 0.1081825986813E+01
 0.1185679134243E+01
 0.1277651925777E+01
 0.1359646036976E+01
 0.1433249023390E+01
 0.1499794466083E+01
 0.1560389571854E+01
 0.1615916071543E+01
 0.1667009559705E+01
 0.1714022367673E+01
 0.1756980718140E+01
 0.1795534043358E+01
 0.1828884989250E+01
 0.1855686091057E+01
 0.1873884689413E+01
 0.2793853456269E+00
 0.4933298021008E+00
 0.6769281224947E+00
 0.8349042277286E+00
 0.9718944225092E+00
 0.1091644775234E+01
 0.1197148426827E+01
 0.1290826045276E+01
 0.1374667915511E+01
 0.1450335390599E+01
 0.1519225517346E+01
 0.1582501653031E+01
 0.1641095896301E+01
 0.1695688214378E+01
 0.1746666762833E+01
 0.1794078984287E+01
 0.1837571228023E+01
 0.1876306288909E+01
 0.1908847054421E+01
 0.1932992384011E+01
 0.2773665228964E+00
 0.4943770578707E+00
 0.6803510197887E+00
 0.8402078113742E+00
 0.9787783493856E+00
 0.1099959517823E+01
 0.1206861142121E+01
 0.1301996676706E+01
 0.1387432965646E+01
 0.1464896979304E+01
 0.1535843932856E+01
 0.1601490166243E+01
 0.1662816633571E+01
 0.1720547111430E+01
 0.1775105025691E+01
 0.1826558340624E+01
 0.1874550084578E+01
 0.1918204326695E+01
 0.1955997390158E+01
 0.1985583080404E+01
 0.2761438005314E+00
 0.4954575886696E+00
 0.6832419928919E+00
 0.8445555509015E+00
 0.9843704035928E+00
 0.1106695743904E+01
 0.1214731230207E+01
 0.1311064423864E+01
 0.1397825643578E+01
 0.1476798363120E+01
 0.1549489838835E+01
 0.1617165533410E+01
 0.1680853259520E+01
 0.1741319863936E+01
 0.1799023783087E+01
 0.1854053801118E+01
 0.1906051345583E+01
 0.1954106055971E+01
 0.1996615381340E+01
 0.2031098931544E+01
 0.2757221551004E+00
 0.4965573546766E+00
 0.6855720430479E+00
 0.8479068999243E+00
 0.9886201581075E+00
 0.1111793480075E+01
 0.1220688455017E+01
 0.1317947169891E+01
 0.1405749498008E+01
 0.1485925508068E+01
 0.1560027632422E+01
 0.1629365958079E+01
 0.1695012734051E+01
 0.1757777026041E+01
 0.1818152324348E+01
 0.1876249468974E+01
 0.1931711867654E+01
 0.1983602119819E+01
 0.2030251242253E+01
 0.2069062629725E+01
 0.2761039479786E+00
 0.4976662143592E+00
 0.6873207752615E+00
 0.8502329513974E+00
 0.9914908728652E+00
 0.1115208014556E+01
 0.1224679329602E+01
 0.1322581236293E+01
 0.1411128617155E+01
 0.1492187578725E+01
 0.1567348218153E+01
 0.1637960151937E+01
 0.1705137253684E+01
 0.1769729864313E+01
 0.1832266800220E+01
 0.1892882939949E+01
 0.1951228821560E+01
 0.2006350179558E+01
 0.2056528568159E+01
 0.2099075868362E+01
 0.2772889699856E+00
 0.4987781129713E+00
 0.6884767107788E+00
 0.8515168410031E+00
 0.9929599850006E+00
 0.1116910489949E+01
 0.1226667843673E+01
 0.1324922291915E+01
 0.1413908776601E+01
 0.1495518388471E+01
 0.1571370823484E+01
 0.1642849565790E+01
 0.1711106929289E+01
 0.1777033481174E+01
 0.1841193721599E+01
 0.1903748983788E+01
 0.1964363173257E+01
 0.2022077504394E+01
 0.2075144809949E+01
 0.2120816138278E+01
 0.2792744770907E+00
 0.4998912359980E+00
 0.6890375129547E+00
 0.8517540299334E+00
 0.9930194481704E+00
 0.1116888310987E+01
 0.1226635965644E+01
 0.1324945989098E+01
 0.1414058259972E+01
 0.1495877460813E+01
 0.1572044356074E+01
 0.1643970084590E+01
 0.1712841848913E+01
 0.1779589261385E+01
 0.1844812758588E+01
 0.1908702565879E+01
 0.1970942617933E+01
 0.2030583212251E+01
 0.2085871876656E+01
 0.2134034485125E+01
 0.2820552185283E+00
 0.5010081258214E+00
 0.6890101233226E+00
 0.8509524628477E+00
 0.9916759148484E+00
 0.1115145357860E+01
 0.1224583905424E+01
 0.1322648308602E+01
 0.1411568329550E+01
 0.1493250674970E+01
 0.1569348272704E+01
 0.1641293153008E+01
 0.1710303489599E+01
 0.1777346608439E+01
 0.1843058824469E+01
 0.1907661241020E+01
 0.1970864100715E+01
 0.2031740494675E+01
 0.2088557368806E+01
 0.2138554988655E+01
 0.2856234649425E+00
 0.5021357609219E+00
 0.6884108067681E+00
 0.8491325999035E+00
 0.9889507589682E+00
 0.1111701999290E+01
 0.1220530127781E+01
 0.1318045598677E+01
 0.1406453328645E+01
 0.1487650475215E+01
 0.1563292938025E+01
 0.1634826306795E+01
 0.1703495447748E+01
 0.1770303934313E+01
 0.1835923408482E+01
 0.1900606909415E+01
 0.1964095999893E+01
 0.2025499030132E+01
 0.2083126745195E+01
 0.2134276253351E+01
 0.2899690522013E+00
 0.5032855991671E+00
 0.6872651106771E+00
 0.8463273289569E+00
 0.9848799438882E+00
 0.1106594906398E+01
 0.1214511111951E+01
 0.1311174298724E+01
 0.1398750402218E+01
 0.1479115628596E+01
 0.1553919457590E+01
 0.1624613091337E+01
 0.1692463459737E+01
 0.1758508857696E+01
 0.1823455089979E+01
 0.1887586853881E+01
 0.1950679922840E+01
 0.2011887649737E+01
 0.2069586595514E+01
 0.2121175049234E+01
 0.2950794447606E+00
 0.5044735829216E+00
 0.6856077406609E+00
 0.8425817655441E+00
 0.9795137437344E+00
 0.1099876672088E+01
 0.1206580857084E+01
 0.1302090342312E+01
 0.1388518827601E+01
 0.1467710523346E+01
 0.1541298981683E+01
 0.1610732364955E+01
 0.1677294700437E+01
 0.1742057575552E+01
 0.1805759158879E+01
 0.1868713918431E+01
 0.1930731918389E+01
 0.1991017118835E+01
 0.2048029141565E+01
 0.2099312387630E+01
 0.3009398387111E+00
 0.5057201093356E+00
 0.6834823672638E+00
 0.8379529616108E+00
 0.9729163388481E+00
 0.1091615251222E+01
 0.1196810142106E+01
 0.1290868242251E+01
 0.1375838953900E+01
 0.1453524006951E+01
 0.1525531487355E+01
 0.1593297002160E+01
 0.1658116367820E+01
 0.1721093386007E+01
 0.1782996270176E+01
 0.1844165665424E+01
 0.1904442753746E+01
 0.1963082538192E+01
 0.2018637676322E+01
 0.2068841835963E+01
 0.3075333058075E+00
 0.5070499608314E+00
 0.6809413786858E+00
 0.8325095506264E+00
 0.9651653117159E+00
 0.1081893239736E+01
 0.1185285550326E+01
 0.1277599862066E+01
 0.1360810748035E+01
 0.1436667758852E+01
 0.1506744044373E+01
 0.1572452022631E+01
 0.1635093583982E+01
 0.1695804356588E+01
 0.1755380047254E+01
 0.1814182359158E+01
 0.1872076904411E+01
 0.1928364364784E+01
 0.1981691467488E+01
 0.2030018000212E+01
 0.3148409694634E+00
 0.5084921879007E+00
 0.6780456053337E+00
 0.8263313706493E+00
 0.9563510756832E+00
 0.1070807007300E+01
 0.1172108263869E+01
 0.1262392874407E+01
 0.1343551938101E+01
 0.1417274173457E+01
 0.1485088545570E+01
 0.1548372160046E+01
 0.1608426666673E+01
 0.1666420162330E+01
 0.1723173521257E+01
 0.1779063516474E+01
 0.1833970112260E+01
 0.1887227280348E+01
 0.1937566460578E+01
 0.1983199392990E+01
 0.3228421717464E+00
 0.5100799229843E+00
 0.6748640677064E+00
 0.8195091471674E+00
 0.9465762915982E+00
 0.1058465711711E+01
 0.1157392654609E+01
 0.1245368947521E+01
 0.1324195793358E+01
 0.1395493768981E+01
 0.1460738903336E+01
 0.1521258928193E+01
 0.1578347947072E+01
 0.1633208352176E+01
 0.1686684463739E+01
 0.1739162710168E+01
 0.1790525203391E+01
 0.1840118146675E+01
 0.1886730352087E+01
 0.1928835664346E+01
 0.3315145425687E+00
 0.5118500828176E+00
 0.6714738726140E+00
 0.8121443782965E+00
 0.9359553350613E+00
 0.1044990180914E+01
 0.1141264673829E+01
 0.1226661692512E+01
 0.1302888569824E+01
 0.1371492094539E+01
 0.1433887606574E+01
 0.1491337047987E+01
 0.1545118221705E+01
 0.1596470404032E+01
 0.1646259927471E+01
 0.1694879968457E+01
 0.1742204741972E+01
 0.1787563478084E+01
 0.1829745146214E+01
 0.1867470905365E+01
 0.3408336930125E+00
 0.5138428997809E+00
 0.6679605036281E+00
 0.8043497273495E+00
 0.9246138179782E+00
 0.1030511583736E+01
 0.1123860025529E+01
 0.1206414490839E+01
 0.1279786733973E+01
 0.1345446183663E+01
 0.1404741607632E+01
 0.1458850028361E+01
 0.1509022673070E+01
 0.1556538502353E+01
 0.1602281271241E+01
 0.1646652160240E+01
 0.1689517670199E+01
 0.1730163044789E+01
 0.1767281660039E+01
 0.1799785143606E+01
 0.3507719932868E+00
 0.5161009941044E+00
 0.6644195211852E+00
 0.7962503783519E+00
 0.9126881339982E+00
 0.1015169482088E+01
 0.1105322155914E+01
 0.1184778378971E+01
 0.1255054131459E+01
 0.1317540515611E+01
 0.1373517428547E+01
 0.1424054677441E+01
 0.1470365190930E+01
 0.1513772452505E+01
 0.1555164037485E+01
 0.1594942822414E+01
 0.1632997077294E+01
 0.1668568209804E+01
 0.1700128088895E+01
 0.1726632011897E+01
 0.3612940353097E+00
 0.5186693111617E+00
 0.6609611686701E+00
 0.7879883202966E+00
 0.9003235321950E+00
 0.9991086917301E+00
 0.1085800133323E+01
 0.1161910606342E+01
 0.1228859253082E+01
 0.1287962649060E+01
 0.1340435342180E+01
 0.1387214604692E+01
 0.1429461180484E+01
 0.1468552336560E+01
 0.1505362739184E+01
 0.1540255004792E+01
 0.1573157417431E+01
 0.1603428929502E+01
 0.1629175313876E+01
 0.1649101178917E+01
 0.3723450435994E+00
 0.5215887177271E+00
 0.6577363652388E+00
 0.7797250874298E+00
 0.8876673389916E+00
 0.9824758026337E+00
 0.1065446478145E+01
 0.1137973534160E+01
 0.1201375629349E+01
 0.1256896556172E+01
 0.1305712578300E+01
 0.1348593943212E+01
 0.1386628466831E+01
 0.1421268456785E+01
 0.1453357431638E+01
 0.1483176944872E+01
 0.1510551775408E+01
 0.1535150227488E+01
 0.1555359824233E+01
 0.1568686222613E+01
 0.3837504052840E+00
 0.5250141894254E+00
 0.6549822987213E+00
 0.7716240475590E+00
 0.8748580359995E+00
 0.9654164166344E+00
 0.1044417656838E+01
 0.1113129787369E+01
 0.1172783547417E+01
 0.1224532252205E+01
 0.1269529560773E+01
 0.1308456651968E+01
 0.1342199062068E+01
 0.1372281761149E+01
 0.1399640405908E+01
 0.1424346750714E+01
 0.1446016063305E+01
 0.1464084439247E+01
 0.1478323370581E+01
 0.1489023572915E+01
 0.1140387621367E+01
 0.4409791885896E+00
 0.9069690591457E-01
 0.4451325709820E-02
 0.5838874022862E-01
 0.9476763579800E-01
 0.1213026755699E+00
 0.1405499142071E+00
 0.1530417279516E+00
 0.1587617642000E+00
 0.1569120545856E+00
 0.1459649850657E+00
 0.1251764462714E+00
 0.9728732527726E-01
 0.6457012847113E-01
 0.2956047369146E-01
 0.7986621737064E-02
 0.3982521580073E-01
 0.7364694024963E-01
 0.1141483804910E+00
 0.1175506530024E+01
 0.8356674414422E+00
 0.3295611903255E+00
 0.1253843322054E+00
 0.3033091826584E-01
 0.2764715688090E-01
 0.6614199330901E-01
 0.9321548805874E-01
 0.1118414795936E+00
 0.1229720323469E+00
 0.1266010455657E+00
 0.1235144173260E+00
 0.1121868387749E+00
 0.9181490459251E-01
 0.6446099967601E-01
 0.3331065854434E-01
 0.4601303622616E-02
 0.3050976009008E-01
 0.6193988418720E-01
 0.9366979977419E-01
 0.1084034067950E+01
 0.9506975337433E+00
 0.5574652388350E+00
 0.2822442161401E+00
 0.1378240584598E+00
 0.5365993712196E-01
 0.1591328535329E-02
 0.3842334140785E-01
 0.6475970893946E-01
 0.8255568130344E-01
 0.9290001698390E-01
 0.9706492493772E-01
 0.9344511654306E-01
 0.7998246547673E-01
 0.5850703848224E-01
 0.3221263989184E-01
 0.5300657460944E-02
 0.2370533210420E-01
 0.5032389347236E-01
 0.7418735260411E-01
 0.9924041060040E+00
 0.9661516569397E+00
 0.6931232656934E+00
 0.4328108581320E+00
 0.2561631320002E+00
 0.1456919197370E+00
 0.7342522270165E-01
 0.2371700927892E-01
 0.1170542778981E-01
 0.3714797235193E-01
 0.5464228550934E-01
 0.6590740275933E-01
 0.6947541881512E-01
 0.6269753056118E-01
 0.4726862232153E-01
 0.2644443247286E-01
 0.3915430208902E-02
 0.1945314267792E-01
 0.4054831040144E-01
 0.5753821507459E-01
 0.9119446843857E+00
 0.9418301153102E+00
 0.7641791158010E+00
 0.5469865711305E+00
 0.3688413157350E+00
 0.2418844347899E+00
 0.1539884062415E+00
 0.9200805628893E-01
 0.4694369430856E-01
 0.1341036525618E-01
 0.1154976596915E-01
 0.2980508902271E-01
 0.4035812951609E-01
 0.4025439125892E-01
 0.3104348150984E-01
 0.1610139268115E-01
 0.1241611835962E-02
 0.1854291099068E-01
 0.3387291865751E-01
 0.4472151605174E-01
 0.8439807102628E+00
 0.9017328370657E+00
 0.7943955346341E+00
 0.6254368062523E+00
 0.4635684657852E+00
 0.3337441450979E+00
 0.2362700682818E+00
 0.1641951055137E+00
 0.1101351284714E+00
 0.6863314345987E-01
 0.3653775235362E-01
 0.1151047882543E-01
 0.6404932732094E-02
 0.1281697126487E-01
 0.9979548012450E-02
 0.1749612887388E-02
 0.1036685197470E-01
 0.2179578991391E-01
 0.3130615051603E-01
 0.3657483931450E-01
 0.7870136829497E+00
 0.8567759002745E+00
 0.7997283976174E+00
 0.6752193630802E+00
 0.5376940167496E+00
 0.4152200554282E+00
 0.3155250825836E+00
 0.2373312930150E+00
 0.1762120559310E+00
 0.1277258468667E+00
 0.8890370953136E-01
 0.5728487438442E-01
 0.3335481731740E-01
 0.2020444827160E-01
 0.1665919055231E-01
 0.1912201663465E-01
 0.2437542081183E-01
 0.2988727751273E-01
 0.3369021864415E-01
 0.3383052397280E-01
 0.7391466023958E+00
 0.8121376521835E+00
 0.7904263121653E+00
 0.7038280244660E+00
 0.5928856084787E+00
 0.4840048667468E+00
 0.3883355847791E+00
 0.3085804056100E+00
 0.2432405387358E+00
 0.1894733986406E+00
 0.1449858996661E+00
 0.1075683626742E+00
 0.7751194269082E-01
 0.5794450949059E-01
 0.4809577056697E-01
 0.4441602134633E-01
 0.4370367520648E-01
 0.4340094879978E-01
 0.4169122354344E-01
 0.3705714721484E-01
 0.6986168241600E+00
 0.7702462739274E+00
 0.7730424888308E+00
 0.7175460176904E+00
 0.6323713340701E+00
 0.5402048160757E+00
 0.4530379648989E+00
 0.3758509311953E+00
 0.3094288282295E+00
 0.2525679043338E+00
 0.2039069750957E+00
 0.1617350312638E+00
 0.1263142427623E+00
 0.1008405624477E+00
 0.8498916204549E-01
 0.7534723726127E-01
 0.6882836593104E-01
 0.6288442351653E-01
 0.5584852491844E-01
 0.4664063087454E-01
 0.6639297941206E+00
 0.7321311083653E+00
 0.7517652932722E+00
 0.7212505328943E+00
 0.6596087134916E+00
 0.5851887626274E+00
 0.5093300976956E+00
 0.4379799683381E+00
 0.3734219978470E+00
 0.3158192101338E+00
 0.2647598084724E+00
 0.2191600833109E+00
 0.1793846493876E+00
 0.1487266431450E+00
 0.1273765922490E+00
 0.1121580103400E+00
 0.1001413548647E+00
 0.8880399971999E-01
 0.7660770419031E-01
 0.6285876363571E-01
 0.6338600556421E+00
 0.6980884559658E+00
 0.7292559408448E+00
 0.7185943441196E+00
 0.6777458942066E+00
 0.6208322942670E+00
 0.5577747500444E+00
 0.4945998046189E+00
 0.4343944355193E+00
 0.3783009145032E+00
 0.3267190248006E+00
 0.2792032301904E+00
 0.2362961640077E+00
 0.2013948990548E+00
 0.1752447594754E+00
 0.1549937446613E+00
 0.1379060474816E+00
 0.1214907242661E+00
 0.1042888607259E+00
 0.8588939455394E-01
 0.6074176216266E+00
 0.6680281894081E+00
 0.7071747043398E+00
 0.7122538858078E+00
 0.6894437717504E+00
 0.6490929969289E+00
 0.5993942155306E+00
 0.5459097721874E+00
 0.4919982692094E+00
 0.4393986145973E+00
 0.3891135015702E+00
 0.3412628082930E+00
 0.2965844070023E+00
 0.2585521547458E+00
 0.2284611437472E+00
 0.2038516408096E+00
 0.1822163415008E+00
 0.1611007791281E+00
 0.1390514941148E+00
 0.1157747808513E+00
 0.5838086793634E+00
 0.6416618372985E+00
 0.6865162005660E+00
 0.7041513124984E+00
 0.6968552196722E+00
 0.6717929017329E+00
 0.6353917423261E+00
 0.5924567113311E+00
 0.5462502801605E+00
 0.4987860158882E+00
 0.4514499071049E+00
 0.4048098289130E+00
 0.3597699630469E+00
 0.3198204479592E+00
 0.2867536163712E+00
 0.2585466621678E+00
 0.2329576252870E+00
 0.2075813049566E+00
 0.1808767180171E+00
 0.1524184390527E+00
 0.5623997858316E+00
 0.6186076195628E+00
 0.6678272303792E+00
 0.6956322623884E+00
 0.7016656830650E+00
 0.6905199968997E+00
 0.6669765591629E+00
 0.6349608446683E+00
 0.5974087926607E+00
 0.5563641398277E+00
 0.5133992820854E+00
 0.4693989186179E+00
 0.4253747543984E+00
 0.3847457000309E+00
 0.3497048800987E+00
 0.3186895306060E+00
 0.2897714294809E+00
 0.2606337306042E+00
 0.2295539476849E+00
 0.1956100069353E+00
 0.5426876610909E+00
 0.5984501358359E+00
 0.6513513530445E+00
 0.6876026015975E+00
 0.7051527916136E+00
 0.7065940086890E+00
 0.6952614886184E+00
 0.6741904604536E+00
 0.6458651220725E+00
 0.6121894270730E+00
 0.5747627243380E+00
 0.5346616643706E+00
 0.4929321615173E+00
 0.4528145568874E+00
 0.4167661593304E+00
 0.3836856048844E+00
 0.3520291644563E+00
 0.3196681722839E+00
 0.2846524162151E+00
 0.2450583818140E+00
 0.5242744069473E+00
 0.5807742847887E+00
 0.6371268776622E+00
 0.6806326276318E+00
 0.7082476086645E+00
 0.7210654990944E+00
 0.7212078042419E+00
 0.7108773586631E+00
 0.6920574384554E+00
 0.6664054854396E+00
 0.6354288425936E+00
 0.6002886663847E+00
 0.5619911529024E+00
 0.5234807627430E+00
 0.4873012599450E+00
 0.4527752239654E+00
 0.4188355687326E+00
 0.3837466470967E+00
 0.3454524869595E+00
 0.3004135264249E+00
 0.5068471633621E+00
 0.5651839932163E+00
 0.6250542071774E+00
 0.6750367704033E+00
 0.7115913105858E+00
 0.7347317463587E+00
 0.7455997568632E+00
 0.7456628967172E+00
 0.7364068697927E+00
 0.7191854270959E+00
 0.6953315402987E+00
 0.6660045660661E+00
 0.6321110100097E+00
 0.5961893587319E+00
 0.5606637415292E+00
 0.5251553750874E+00
 0.4891117166704E+00
 0.4515467700226E+00
 0.4107919513807E+00
 0.3612488009974E+00
 0.4901618868061E+00
 0.5513110384720E+00
 0.6149424427621E+00
 0.6709347420512E+00
 0.7155865458423E+00
 0.7481614696118E+00
 0.7690375714312E+00
 0.7790651574532E+00
 0.7792721971363E+00
 0.7706869644258E+00
 0.7544142931554E+00
 0.7315410959313E+00
 0.7028395711252E+00
 0.6703728637666E+00
 0.6362439599705E+00
 0.6001928983950E+00
 0.5619248577942E+00
 0.5214269362147E+00
 0.4788225040534E+00
 0.4268844791125E+00
 0.4740298186573E+00
 0.5388210079050E+00
 0.6065351355531E+00
 0.6683000899479E+00
 0.7204469292231E+00
 0.7617251380096E+00
 0.7919421805876E+00
 0.8114600518723E+00
 0.8209154336075E+00
 0.8210202544286E+00
 0.8126075655240E+00
 0.7966188050768E+00
 0.7736843392902E+00
 0.7453916797056E+00
 0.7134012929929E+00
 0.6774117713211E+00
 0.6371148333275E+00
 0.5924250570488E+00
 0.5464408128519E+00
 0.4958956912341E+00
 0.4583398604750E+00
 0.5273713634873E+00
 0.5995128811571E+00
 0.6670131794235E+00
 0.7262515919450E+00
 0.7756283470209E+00
 0.8145656271990E+00
 0.8430738894703E+00
 0.8614727460653E+00
 0.8702048808207E+00
 0.8698344486818E+00
 0.8609706101879E+00
 0.8440976062708E+00
 0.8204813965515E+00
 0.7912654915572E+00
 0.7561211679196E+00
 0.7145855599322E+00
 0.6662702994860E+00
 0.6127464986382E+00
 0.5624682021769E+00
 0.3972920641693E+00
 0.5322686067763E+00
 0.6564743011231E+00
 0.7671906097295E+00
 0.8644862565325E+00
 0.9491528462240E+00
 0.1022271273344E+01
 0.1085100329927E+01
 0.1138913440742E+01
 0.1184859499700E+01
 0.1224061457536E+01
 0.1257569496790E+01
 0.1286021563605E+01
 0.1311139140545E+01
 0.1334493964715E+01
 0.1355763131533E+01
 0.1374405104151E+01
 0.1389845929397E+01
 0.1403362256174E+01
 0.1424730911012E+01
 0.4124230640867E+00
 0.5422770223287E+00
 0.6610672891987E+00
 0.7654405853700E+00
 0.8555340172906E+00
 0.9324472709973E+00
 0.9974960328363E+00
 0.1052129685155E+01
 0.1097789218310E+01
 0.1135739359466E+01
 0.1167236780332E+01
 0.1193552973607E+01
 0.1215276122073E+01
 0.1234605205676E+01
 0.1253910499063E+01
 0.1272889080367E+01
 0.1291218058143E+01
 0.1308934157910E+01
 0.1329465011579E+01
 0.1350646270594E+01
 0.4278196580874E+00
 0.5525382129689E+00
 0.6656935330006E+00
 0.7631805659555E+00
 0.8452391202310E+00
 0.9133809035671E+00
 0.9693073896509E+00
 0.1014761250602E+01
 0.1051389685830E+01
 0.1080602232768E+01
 0.1103784813937E+01
 0.1122241754220E+01
 0.1136624829966E+01
 0.1149859448257E+01
 0.1165107824532E+01
 0.1182197348804E+01
 0.1200976510054E+01
 0.1221779370661E+01
 0.1245417644175E+01
 0.1265899071422E+01
 0.4436342886501E+00
 0.5632928815582E+00
 0.6705703195669E+00
 0.7604987267099E+00
 0.8335713977158E+00
 0.8918881586659E+00
 0.9376721731328E+00
 0.9730494080429E+00
 0.9999118389110E+00
 0.1019807733849E+01
 0.1034212322856E+01
 0.1044404077370E+01
 0.1051136872300E+01
 0.1058145183980E+01
 0.1069356122294E+01
 0.1084639553079E+01
 0.1103760608353E+01
 0.1126246687448E+01
 0.1151369662269E+01
 0.1174851340779E+01
 0.4600029706546E+00
 0.5748196538093E+00
 0.6759039740055E+00
 0.7574475714421E+00
 0.8204447845543E+00
 0.8678245956723E+00
 0.9024826703749E+00
 0.9270048998281E+00
 0.9435443903265E+00
 0.9537597626787E+00
 0.9591716300444E+00
 0.9609638771275E+00
 0.9600012738737E+00
 0.9608138604247E+00
 0.9679432217228E+00
 0.9811747965732E+00
 0.9999502548546E+00
 0.1023188648992E+01
 0.1050029361895E+01
 0.1078627596598E+01
 0.4770923035668E+00
 0.5874064921016E+00
 0.6818672727688E+00
 0.7539925325593E+00
 0.8056598696981E+00
 0.8409331399546E+00
 0.8635413510808E+00
 0.8765884975460E+00
 0.8824764715921E+00
 0.8829200425486E+00
 0.8794161453660E+00
 0.8729714776668E+00
 0.8645426118233E+00
 0.8593683454094E+00
 0.8623987194159E+00
 0.8732442335941E+00
 0.8910840274802E+00
 0.9146042072939E+00
 0.9434011185944E+00
 0.9779303135366E+00
 0.4951160355172E+00
 0.6013570473197E+00
 0.6885645414845E+00
 0.7499633283393E+00
 0.7888562809982E+00
 0.8108110900793E+00
 0.8205472352158E+00
 0.8217133028327E+00
 0.8169076270865E+00
 0.8078097906687E+00
 0.7957956089415E+00
 0.7815974186233E+00
 0.7662292454317E+00
 0.7555123400837E+00
 0.7545771377598E+00
 0.7628315840351E+00
 0.7793050924803E+00
 0.8026995253118E+00
 0.8333022105766E+00
 0.8735237251809E+00
 0.5143520369171E+00
 0.6169854040228E+00
 0.6959930492689E+00
 0.7449991384242E+00
 0.7694653119570E+00
 0.7768827596796E+00
 0.7730914400642E+00
 0.7622573331233E+00
 0.7470654717337E+00
 0.7290228945275E+00
 0.7092581789326E+00
 0.6881249790228E+00
 0.6666597240439E+00
 0.6511215066106E+00
 0.6465869485783E+00
 0.6522386530998E+00
 0.6670270599646E+00
 0.6898066561372E+00
 0.7215975153798E+00
 0.7664578089469E+00
 0.5351595910890E+00
 0.6346024343084E+00
 0.7039887194109E+00
 0.7384827648555E+00
 0.7466604237158E+00
 0.7383804635034E+00
 0.7206681229169E+00
 0.6980930077124E+00
 0.6732381143651E+00
 0.6472476400802E+00
 0.6208534207841E+00
 0.5939313372726E+00
 0.5675174353550E+00
 0.5481608177942E+00
 0.5406500135802E+00
 0.5439007160042E+00
 0.5567941929371E+00
 0.5783814294056E+00
 0.6103545611527E+00
 0.6581586253111E+00
 0.5579992140439E+00
 0.6544888477699E+00
 0.7121481189518E+00
 0.7294568431962E+00
 0.7193060728272E+00
 0.6943403744111E+00
 0.6627100854517E+00
 0.6291415897743E+00
 0.5958241372368E+00
 0.5632954811183E+00
 0.5317316853535E+00
 0.5004551274058E+00
 0.4705038454945E+00
 0.4485791495755E+00
 0.4389629279566E+00
 0.4402442515761E+00
 0.4511848447489E+00
 0.4709977930704E+00
 0.5019080546767E+00
 0.5504818036984E+00
 0.5834560530430E+00
 0.6768470540109E+00
 0.7197135714896E+00
 0.7165153497505E+00
 0.6859094633409E+00
 0.6436264917402E+00
 0.5986631743005E+00
 0.5554607330092E+00
 0.5154005055417E+00
 0.4781320133161E+00
 0.4431349753305E+00
 0.4091509295362E+00
 0.3772601155052E+00
 0.3542013574561E+00
 0.3435679124250E+00
 0.3435570470741E+00
 0.3527111479873E+00
 0.3702997163780E+00
 0.3988600243402E+00
 0.4457427406027E+00
 0.6122671052111E+00
 0.7017163040906E+00
 0.7254001576196E+00
 0.6976636566149E+00
 0.6445892574632E+00
 0.5850075471296E+00
 0.5281197081603E+00
 0.4773715299847E+00
 0.4328024424812E+00
 0.3928996057349E+00
 0.3563719717822E+00
 0.3214307050022E+00
 0.2892846446267E+00
 0.2666262940940E+00
 0.2562329273952E+00
 0.2558581612246E+00
 0.2636950571202E+00
 0.2789029275070E+00
 0.3040220076700E+00
 0.3467245280344E+00
 0.6453504737931E+00
 0.7288209691149E+00
 0.7271294608419E+00
 0.6701449763372E+00
 0.5930955700139E+00
 0.5173307764151E+00
 0.4510353747651E+00
 0.3956219078175E+00
 0.3491957086426E+00
 0.3089123028334E+00
 0.2727672854770E+00
 0.2385927931666E+00
 0.2078538981894E+00
 0.1871394132523E+00
 0.1783470576872E+00
 0.1787688634393E+00
 0.1861184006344E+00
 0.1992433610040E+00
 0.2202962729776E+00
 0.2566514950336E+00
 0.6838289771324E+00
 0.7572911989283E+00
 0.7216114370612E+00
 0.6302487140101E+00
 0.5289587164233E+00
 0.4398629267943E+00
 0.3680471014393E+00
 0.3115557898311E+00
 0.2660998809400E+00
 0.2275958964777E+00
 0.1935776920500E+00
 0.1617437209344E+00
 0.1339572534361E+00
 0.1166527765908E+00
 0.1108452604560E+00
 0.1133982122073E+00
 0.1214556239382E+00
 0.1333714456521E+00
 0.1504828487716E+00
 0.1791040754053E+00
 0.7290241601555E+00
 0.7851263893701E+00
 0.7036782291242E+00
 0.5731769544278E+00
 0.4499315011405E+00
 0.3528970776990E+00
 0.2808608918004E+00
 0.2272035393995E+00
 0.1852964506794E+00
 0.1503537483072E+00
 0.1198814451685E+00
 0.9172612001131E-01
 0.6826117183940E-01
 0.5569034400273E-01
 0.5418526007270E-01
 0.6026989608542E-01
 0.7051274611144E-01
 0.8269901032939E-01
 0.9699322769168E-01
 0.1178345564518E+00
 0.7823400747827E+00
 0.8081051200056E+00
 0.6652253994024E+00
 0.4932229916487E+00
 0.3550736579510E+00
 0.2586722584650E+00
 0.1925483504245E+00
 0.1451128555407E+00
 0.1085767873533E+00
 0.7837629262295E-01
 0.5246617275676E-01
 0.2907938155697E-01
 0.1118554255214E-01
 0.4694568240676E-02
 0.8485111657543E-02
 0.1933315785469E-01
 0.3331852900410E-01
 0.4773155974099E-01
 0.6146226597650E-01
 0.7643005869543E-01
 0.8448189622187E+00
 0.8173697247377E+00
 0.5936125405115E+00
 0.3851394398417E+00
 0.2469864743769E+00
 0.1624225922297E+00
 0.1071643488621E+00
 0.6781642533150E-01
 0.3739903645427E-01
 0.1246097060372E-01
 0.8319527925227E-02
 0.2610706435701E-01
 0.3757511705468E-01
 0.3743641987634E-01
 0.2697739443736E-01
 0.1000777324822E-01
 0.9169935250225E-02
 0.2789696278432E-01
 0.4430412387856E-01
 0.5779718893409E-01
 0.9151418258356E+00
 0.7934677692451E+00
 0.4700225615449E+00
 0.2490237181518E+00
 0.1361131800745E+00
 0.7122758335584E-01
 0.2847412235917E-01
 0.2857958026684E-02
 0.2737901217125E-01
 0.4711873484847E-01
 0.6234169416767E-01
 0.7379980031883E-01
 0.7776376973372E-01
 0.6989183054287E-01
 0.5212198303484E-01
 0.2833584531712E-01
 0.3794081148347E-02
 0.2162391434554E-01
 0.4419481667622E-01
 0.6328252074791E-01
 0.9837474215338E+00
 0.6878277838844E+00
 0.2728199122977E+00
 0.1103043829442E+00
 0.3601134285599E-01
 0.9619498859366E-02
 0.4126414600215E-01
 0.6583922519818E-01
 0.8552639995608E-01
 0.1005838513934E+00
 0.1102133305784E+00
 0.1145933530075E+00
 0.1098463153980E+00
 0.9330273406439E-01
 0.6758015986528E-01
 0.3652680038146E-01
 0.6428554140257E-02
 0.2640154873217E-01
 0.5733783691238E-01
 0.9096786869387E-01
 0.9459693770259E+00
 0.3535901524325E+00
 0.7093123485343E-01
 0.3722363953949E-02
 0.4697630216715E-01
 0.7721818858159E-01
 0.1013111829800E+00
 0.1213069413000E+00
 0.1372387661716E+00
 0.1484670047035E+00
 0.1532993588740E+00
 0.1494459493506E+00
 0.1337616682459E+00
 0.1074199423252E+00
 0.7359162187212E-01
 0.3540836604407E-01
 0.7393267345914E-02
 0.4092369743399E-01
 0.7766389418438E-01
 0.1333425094641E+00
 0.5374842999099E+00
 0.4693663611177E+00
 0.4073164645893E+00
 0.3492528368336E+00
 0.2946397912513E+00
 0.2439287931241E+00
 0.1977673723401E+00
 0.1568089417162E+00
 0.1216237203427E+00
 0.9265772809883E-01
 0.7020530957168E-01
 0.5439291488711E-01
 0.4518394238700E-01
 0.4240108621404E-01
 0.4571239605539E-01
 0.5458762834542E-01
 0.6833857551743E-01
 0.8623770365494E-01
 0.1076312482556E+00
 0.1330187228919E+00
 0.5854221656465E+00
 0.5214091531063E+00
 0.4544932228932E+00
 0.3897756155794E+00
 0.3286962258698E+00
 0.2718976687060E+00
 0.2199640437812E+00
 0.1734998114164E+00
 0.1331128615505E+00
 0.9936512722796E-01
 0.7271837979098E-01
 0.5348311957030E-01
 0.4179148172478E-01
 0.3762555867128E-01
 0.4082923118989E-01
 0.5099833193650E-01
 0.6749048718733E-01
 0.8960841214580E-01
 0.1168614450780E+00
 0.1491003712393E+00
 0.6351752425098E+00
 0.5715213989102E+00
 0.5041604100576E+00
 0.4362494334960E+00
 0.3703637548288E+00
 0.3079508964483E+00
 0.2500074372432E+00
 0.1973799214425E+00
 0.1508654321106E+00
 0.1112234487082E+00
 0.7914175878876E-01
 0.5517670218993E-01
 0.3968756368121E-01
 0.3283934625729E-01
 0.3470533545550E-01
 0.4511457754773E-01
 0.6346122907166E-01
 0.8894508147772E-01
 0.1207519377628E+00
 0.1579730778589E+00
 0.6900642751471E+00
 0.6249554306560E+00
 0.5568528827056E+00
 0.4871802960552E+00
 0.4179530768227E+00
 0.3508952634008E+00
 0.2873533812521E+00
 0.2284756287094E+00
 0.1753265139100E+00
 0.1289324700356E+00
 0.9027532137301E-01
 0.6024285093197E-01
 0.3953412915558E-01
 0.2856014477174E-01
 0.2760797761599E-01
 0.3694384780904E-01
 0.5614119056188E-01
 0.8422342511338E-01
 0.1200391421600E+00
 0.1623426997494E+00
 0.7503961323444E+00
 0.6837099361011E+00
 0.6145185714458E+00
 0.5433527587306E+00
 0.4715623040978E+00
 0.4006639051687E+00
 0.3320897887452E+00
 0.2671710400158E+00
 0.2071949699711E+00
 0.1534471011025E+00
 0.1072206915629E+00
 0.6978830418543E-01
 0.4231660941794E-01
 0.2565675776773E-01
 0.2018659967189E-01
 0.2668641761007E-01
 0.4548438602705E-01
 0.7548124535475E-01
 0.1151952086745E+00
 0.1630261179744E+00
 0.8160109917465E+00
 0.7483825874079E+00
 0.6782834139261E+00
 0.6058806161762E+00
 0.5320353952276E+00
 0.4579502779358E+00
 0.3849430289916E+00
 0.3143699887254E+00
 0.2476292434017E+00
 0.1861875583132E+00
 0.1315994091485E+00
 0.8550578082715E-01
 0.4960221500540E-01
 0.2550664897960E-01
 0.1402043551185E-01
 0.1514834196678E-01
 0.3158944576748E-01
 0.6263242532394E-01
 0.1062484357088E+00
 0.1602302823771E+00
 0.8866293278768E+00
 0.8190261745338E+00
 0.7486468974639E+00
 0.6755392279326E+00
 0.6002531161365E+00
 0.5236926338434E+00
 0.4469739863435E+00
 0.3713530468826E+00
 0.2982130111587E+00
 0.2290839872601E+00
 0.1656728914081E+00
 0.1098925013724E+00
 0.6389596642059E-01
 0.3018830830117E-01
 0.1189795661804E-01
 0.6881425159082E-02
 0.1507589898701E-01
 0.4541964764518E-01
 0.9277554401155E-01
 0.1538036729864E+00
 0.9619201689572E+00
 0.8954671487275E+00
 0.8257582223962E+00
 0.7528055864593E+00
 0.6769582415267E+00
 0.5988667896363E+00
 0.5194152096005E+00
 0.4396770255745E+00
 0.3609086935926E+00
 0.2845731985421E+00
 0.2123835599592E+00
 0.1463613794540E+00
 0.8892451699857E-01
 0.4314008907361E-01
 0.1473010189133E-01
 0.1245982937488E-01
 0.6416318348938E-02
 0.2385460086708E-01
 0.7413940218881E-01
 0.1440814748515E+00
 0.1041480504228E+01
 0.9773944843175E+00
 0.9095476478982E+00
 0.8379300001922E+00
 0.7627463348056E+00
 0.6844333696910E+00
 0.6036390600077E+00
 0.5212059712121E+00
 0.4381764069962E+00
 0.3558229436032E+00
 0.2757035041441E+00
 0.1997424631255E+00
 0.1303524609724E+00
 0.7068823376570E-01
 0.2603873156791E-01
 0.1649147087434E-01
 0.2091613165310E-01
 0.3514429429331E-02
 0.4975864031255E-01
 0.1311124280659E+00
 0.1124747432177E+01
 0.1064237599877E+01
 0.9995643917852E+00
 0.9306827659413E+00
 0.8576855923877E+00
 0.7808332152363E+00
 0.7005559744060E+00
 0.6174539775365E+00
 0.5323093427006E+00
 0.4461184319544E+00
 0.3601486095174E+00
 0.2760257554314E+00
 0.1958668345338E+00
 0.1225024018084E+00
 0.6004094290738E-01
 0.1864302500256E-01
 0.2440910362687E-01
 0.2086656466993E-01
 0.2153063166809E-01
 0.1124779210316E+00
 0.1210978288667E+01
 0.1155160200190E+01
 0.1094941364212E+01
 0.1030239223522E+01
 0.9610647539675E+00
 0.8875476398298E+00
 0.8099462233729E+00
 0.7286536914948E+00
 0.6442108839989E+00
 0.5573329786573E+00
 0.4689560613475E+00
 0.3803112909567E+00
 0.2930400131188E+00
 0.2093764700206E+00
 0.1324627202497E+00
 0.6704015475136E-01
 0.2262315291543E-01
 0.1645526731225E-01
 0.8696512354216E-02
 0.9130929506663E-01
 0.1299246603763E+01
 0.1249070788757E+01
 0.1194428620776E+01
 0.1135214125448E+01
 0.1071390340812E+01
 0.1003009416617E+01
 0.9302246331385E+00
 0.8532997462824E+00
 0.7726219870372E+00
 0.6887242733063E+00
 0.6023219763826E+00
 0.5143710938780E+00
 0.4261587733344E+00
 0.3394452951940E+00
 0.2566918823207E+00
 0.1814359292537E+00
 0.1189115060946E+00
 0.7705178456754E-01
 0.6922655552904E-01
 0.1269004667638E+00
 0.1388475547714E+01
 0.1344665401077E+01
 0.1296463584672E+01
 0.1243755389017E+01
 0.1186481588298E+01
 0.1124656467513E+01
 0.1058381515633E+01
 0.9878577820822E+00
 0.9134008138002E+00
 0.8354620222279E+00
 0.7546603715441E+00
 0.6718291037430E+00
 0.5880843076032E+00
 0.5049261209481E+00
 0.4243904121155E+00
 0.3492814633632E+00
 0.2835420340253E+00
 0.2328779685736E+00
 0.2059869649870E+00
 0.2166058656718E+00
 0.1477496987173E+01
 0.1440513520096E+01
 0.1399302477390E+01
 0.1353742834383E+01
 0.1303758343020E+01
 0.1249334437916E+01
 0.1190532134180E+01
 0.1127500793002E+01
 0.1060491950428E+01
 0.9898761714606E+00
 0.9161644560294E+00
 0.8400352229406E+00
 0.7623671529349E+00
 0.6842764987446E+00
 0.6071530831153E+00
 0.5326770193581E+00
 0.4627633559204E+00
 0.3992679565965E+00
 0.3428796209052E+00
 0.2879921434665E+00
 0.1565115226704E+01
 0.1535154405051E+01
 0.1501168277358E+01
 0.1463018392636E+01
 0.1420598022492E+01
 0.1373846839286E+01
 0.1322762381130E+01
 0.1267409295935E+01
 0.1207927069670E+01
 0.1144536240320E+01
 0.1077541950914E+01
 0.1007331870543E+01
 0.9343623684974E+00
 0.8591209278371E+00
 0.7820408779221E+00
 0.7033193906873E+00
 0.6225317903074E+00
 0.5378057874407E+00
 0.4439379520415E+00
 0.3290874139709E+00
 0.1650159265741E+01
 0.1627172299540E+01
 0.1600358945891E+01
 0.1569543400705E+01
 0.1534564358927E+01
 0.1495285857116E+01
 0.1451604050274E+01
 0.1403450144850E+01
 0.1350789022002E+01
 0.1293612037668E+01
 0.1231920918221E+01
 0.1165697266361E+01
 0.1094848334547E+01
 0.1019113261648E+01
 0.9379029644307E+00
 0.8500279392924E+00
 0.7532403435654E+00
 0.6434842357435E+00
 0.5139223016062E+00
 0.3550408297493E+00
 0.1731519826445E+01
 0.1715246165625E+01
 0.1695313294647E+01
 0.1671485123288E+01
 0.1643519187365E+01
 0.1611172538101E+01
 0.1574202792900E+01
 0.1532364028855E+01
 0.1485396387952E+01
 0.1433007175236E+01
 0.1374839750525E+01
 0.1310424468210E+01
 0.1239103073713E+01
 0.1159914150338E+01
 0.1071422723789E+01
 0.9714749487651E+00
 0.8568695528152E+00
 0.7230148036807E+00
 0.5639423583941E+00
 0.3740268933398E+00
 0.1808173389167E+01
 0.1798179174818E+01
 0.1784645721206E+01
 0.1767255763110E+01
 0.1745662878177E+01
 0.1719492133230E+01
 0.1688335632673E+01
 0.1651742447321E+01
 0.1609201678934E+01
 0.1560116560032E+01
 0.1503766500544E+01
 0.1439252901916E+01
 0.1365423569565E+01
 0.1280770318408E+01
 0.1183296813788E+01
 0.1070363784623E+01
 0.9385508039283E+00
 0.7836613697849E+00
 0.6012189364166E+00
 0.3889590693834E+00
 0.1879196095956E+01
 0.1874912956113E+01
 0.1867158839302E+01
 0.1855520043916E+01
 0.1839531182925E+01
 0.1818670949981E+01
 0.1792353242396E+01
 0.1759913241368E+01
 0.1720587487150E+01
 0.1673486539757E+01
 0.1617558471331E+01
 0.1551541372180E+01
 0.1473903710713E+01
 0.1382773716481E+01
 0.1275864899710E+01
 0.1150418470455E+01
 0.1003212675480E+01
 0.8307513214161E+00
 0.6299523939348E+00
 0.4011634956948E+00
 0.1943769799212E+01
 0.1944530483505E+01
 0.1941840386510E+01
 0.1935181945178E+01
 0.1923965663361E+01
 0.1907521538635E+01
 0.1885087243811E+01
 0.1855792697870E+01
 0.1818640529604E+01
 0.1772481960948E+01
 0.1715987831752E+01
 0.1647615129392E+01
 0.1565570907694E+01
 0.1467778624560E+01
 0.1351857953635E+01
 0.1215140124229E+01
 0.1054761357933E+01
 0.8679296731706E+00
 0.6527037033952E+00
 0.4114276033716E+00
 0.2001183027158E+01
 0.2006251721288E+01
 0.2007849907638E+01
 0.2005358202603E+01
 0.1998068105436E+01
 0.1985170119962E+01
 0.1965740556846E+01
 0.1938726494924E+01
 0.1902928995299E+01
 0.1856984987194E+01
 0.1799348758306E+01
 0.1728274883905E+01
 0.1641806012012E+01
 0.1537771597260E+01
 0.1413808064828E+01
 0.1267418347628E+01
 0.1096105038072E+01
 0.8976678695978E+00
 0.6710369360905E+00
 0.4201182258586E+00
 0.2050827537786E+01
 0.2059422213001E+01
 0.2064496416092E+01
 0.2065340243988E+01
 0.2061140172238E+01
 0.2050965939371E+01
 0.2033757154604E+01
 0.2008309772246E+01
 0.1973263063816E+01
 0.1927088223337E+01
 0.1868080334105E+01
 0.1794356249569E+01
 0.1703862121148E+01
 0.1594396024168E+01
 0.1463653829011E+01
 0.1309311874990E+01
 0.1129175968282E+01
 0.9214890012386E+00
 0.6858055374784E+00
 0.4271616488285E+00
 0.2092188851912E+01
 0.2103494430323E+01
 0.2111210565015E+01
 0.2114553807544E+01
 0.2112626404818E+01
 0.2104403018575E+01
 0.2088717837501E+01
 0.2064252800394E+01
 0.2029528049978E+01
 0.1982896233614E+01
 0.1922542815425E+01
 0.1846495173512E+01
 0.1752643948027E+01
 0.1638780983736E+01
 0.1502659813707E+01
 0.1342089248363E+01
 0.1155087297264E+01
 0.9401906382609E+00
 0.6973518434966E+00
 0.4323110009438E+00
 0.2124845560652E+01
 0.2138024023670E+01
 0.2147535444293E+01
 0.2152543428981E+01
 0.2152091367539E+01
 0.2145089232512E+01
 0.2130301242012E+01
 0.2106335312995E+01
 0.2071635704134E+01
 0.2024480731519E+01
 0.1962987920790E+01
 0.1885129400423E+01
 0.1788760719607E+01
 0.1671666691319E+01
 0.1531628958678E+01
 0.1366524305856E+01
 0.1174479783534E+01
 0.9541806986779E+00
 0.7057729021250E+00
 0.4353491082661E+00
 0.2148463999663E+01
 0.2162661387323E+01
 0.2173112703909E+01
 0.2178951717900E+01
 0.2179191068312E+01
 0.2172709198206E+01
 0.2158238206300E+01
 0.2134353508890E+01
 0.2099466748383E+01
 0.2051823903291E+01
 0.1989511026221E+01
 0.1910470454273E+01
 0.1812530694145E+01
 0.1693453589932E+01
 0.1551003455600E+01
 0.1383047060014E+01
 0.1187710018610E+01
 0.9636842204902E+00
 0.7111274131175E+00
 0.4361919615059E+00
 0.2162793110001E+01
 0.2177143231475E+01
 0.2187669905237E+01
 0.2193501280167E+01
 0.2193648454900E+01
 0.2186992611614E+01
 0.2172272655954E+01
 0.2148073930873E+01
 0.2112819275059E+01
 0.2064764283876E+01
 0.2001999149342E+01
 0.1922459987181E+01
 0.1823953181988E+01
 0.1704197131766E+01
 0.1560887361691E+01
 0.1391795398665E+01
 0.1194927632626E+01
 0.9688364298029E+00
 0.7135143032808E+00
 0.4348872043631E+00
 0.2167662111627E+01
 0.2181288205101E+01
 0.2191013666272E+01
 0.2195984872734E+01
 0.2195239978355E+01
 0.2187696660392E+01
 0.2172139449029E+01
 0.2147206579610E+01
 0.2111377332305E+01
 0.2062961498110E+01
 0.2000093133936E+01
 0.1920731423993E+01
 0.1822672498798E+01
 0.1703577739878E+01
 0.1561026882493E+01
 0.1392609747972E+01
 0.1196085965612E+01
 0.9697033253401E+00
 0.7130850388657E+00
 0.4316052376373E+00
 0.2162980796651E+01
 0.2174996416774E+01
 0.2183028591601E+01
 0.2186263745086E+01
 0.2183793069379E+01
 0.2174602117147E+01
 0.2157558359222E+01
 0.2131395771873E+01
 0.2094697200555E+01
 0.2045875913984E+01
 0.1983158058864E+01
 0.1904568267318E+01
 0.1807921971513E+01
 0.1690830551524E+01
 0.1550730028261E+01
 0.1384952099624E+01
 0.1190873686893E+01
 0.9662382520592E+00
 0.7100330094639E+00
 0.4266647528332E+00
 0.2148742627624E+01
 0.2158253351557E+01
 0.2163682924312E+01
 0.2164275525455E+01
 0.2159196182602E+01
 0.2147525056059E+01
 0.2128246532990E+01
 0.2100231638280E+01
 0.2062214946376E+01
 0.2012767456051E+01
 0.1950266392543E+01
 0.1872862814384E+01
 0.1778448935263E+01
 0.1664629994928E+01
 0.1528711602515E+01
 0.1367725333663E+01
 0.1178538361870E+01
 0.9581514344915E+00
 0.7045490845371E+00
 0.4205923629063E+00
 0.2125030014676E+01
 0.2131137467282E+01
 0.2133040744900E+01
 0.2130051867668E+01
 0.2121421899543E+01
 0.2106345170965E+01
 0.2083951441396E+01
 0.2053286059661E+01
 0.2013281613098E+01
 0.1962723145687E+01
 0.1900206846194E+01
 0.1824090702902E+01
 0.1732435599891E+01
 0.1622937310285E+01
 0.1492855523239E+01
 0.1338959439101E+01
 0.1157540833681E+01
 0.9446163902804E+00
 0.6966828343616E+00
 0.4142142787998E+00
 0.2092021130333E+01
 0.2093832523415E+01
 0.2091283210551E+01
 0.2083748788541E+01
 0.2070566092139E+01
 0.2051054361242E+01
 0.2024509706220E+01
 0.1990181425333E+01
 0.1947238867956E+01
 0.1894732127849E+01
 0.1831544900006E+01
 0.1756334750312E+01
 0.1667454361419E+01
 0.1562846899793E+01
 0.1439910438161E+01
 0.1295334660858E+01
 0.1124940713643E+01
 0.9236462685654E+00
 0.6859351398849E+00
 0.4087154367341E+00
 0.2049997569949E+01
 0.2046647719345E+01
 0.2038742489876E+01
 0.2025691292549E+01
 0.2006903217742E+01
 0.1981825698819E+01
 0.1949933926777E+01
 0.1910698547311E+01
 0.1863548326597E+01
 0.1807831661430E+01
 0.1742772875096E+01
 0.1667414745392E+01
 0.1580535972481E+01
 0.1480528957748E+01
 0.1365218457743E+01
 0.1231596302760E+01
 0.1075449080174E+01
 0.8909029606077E+00
 0.6702165752648E+00
 0.4054205447723E+00
 0.1999355821198E+01
 0.1990054257521E+01
 0.1975950113647E+01
 0.1956427670712E+01
 0.1930949460683E+01
 0.1899093720130E+01
 0.1860520288572E+01
 0.1814921399848E+01
 0.1761981154804E+01
 0.1701345750591E+01
 0.1632595269248E+01
 0.1555205239462E+01
 0.1468484136216E+01
 0.1371468674251E+01
 0.1262748599702E+01
 0.1140172258844E+01
 0.1000347005534E+01
 0.8377837870257E+00
 0.6435354797107E+00
 0.4044198982404E+00
 0.1940632476837E+01
 0.1924731629880E+01
 0.1903677556166E+01
 0.1876762651259E+01
 0.1843499680078E+01
 0.1803612858903E+01
 0.1756949039618E+01
 0.1703400485029E+01
 0.1642867000319E+01
 0.1575244799581E+01
 0.1500426067296E+01
 0.1418294698764E+01
 0.1328707225809E+01
 0.1231445989157E+01
 0.1126122538700E+01
 0.1011987130075E+01
 0.8875459018118E+00
 0.7497564822437E+00
 0.5921242974738E+00
 0.4002159343104E+00
 0.1874496475225E+01
 0.1851514142822E+01
 0.1822842267702E+01
 0.1787640454563E+01
 0.1745520314137E+01
 0.1696403685340E+01
 0.1640325913720E+01
 0.1577336497903E+01
 0.1507477042732E+01
 0.1430803542341E+01
 0.1347420390732E+01
 0.1257515570669E+01
 0.1161394822899E+01
 0.1059515838584E+01
 0.9525237782909E+00
 0.8412852671144E+00
 0.7269047988756E+00
 0.6106475770879E+00
 0.4935114234121E+00
 0.3728779529702E+00
 0.1801801730886E+01
 0.1771447405053E+01
 0.1734566984113E+01
 0.1690228383162E+01
 0.1638318950611E+01
 0.1579045466810E+01
 0.1512627681361E+01
 0.1439199329828E+01
 0.1358850955366E+01
 0.1271694511888E+01
 0.1177927249260E+01
 0.1077895849428E+01
 0.9721707268146E+00
 0.8616474796349E+00
 0.7477037057778E+00
 0.6324634504534E+00
 0.5192720034246E+00
 0.4136224161615E+00
 0.3251734252717E+00
 0.2736500357548E+00
 0.1723683562086E+01
 0.1685872465456E+01
 0.1640190847792E+01
 0.1585974129924E+01
 0.1523702958000E+01
 0.1454001527779E+01
 0.1377191434264E+01
 0.1293417425932E+01
 0.1202784452898E+01
 0.1105462083765E+01
 0.1001771510625E+01
 0.8922740338903E+00
 0.7778830476054E+00
 0.6600274686223E+00
 0.5409115375274E+00
 0.4239531200165E+00
 0.3145697165998E+00
 0.2216827654420E+00
 0.1609670121813E+00
 0.1641353454304E+00
 0.1641582124348E+01
 0.1596240022392E+01
 0.1540989279926E+01
 0.1476283244690E+01
 0.1403914750341E+01
 0.1324616577357E+01
 0.1238637165420E+01
 0.1146115519264E+01
 0.1047257725903E+01
 0.9424507518106E+00
 0.8323589815084E+00
 0.7180369102819E+00
 0.6010816202937E+00
 0.4838517783023E+00
 0.3697911584863E+00
 0.2639190381686E+00
 0.1735923773706E+00
 0.1097613369829E+00
 0.8915213566497E-01
 0.1348803007736E+00
 0.1557597253353E+01
 0.1503710343145E+01
 0.1436892567703E+01
 0.1362457214492E+01
 0.1281791074089E+01
 0.1195040249929E+01
 0.1102317414677E+01
 0.1003879971600E+01
 0.9002228735139E+00
 0.7921423394705E+00
 0.6808198061125E+00
 0.5679379835094E+00
 0.4558392266346E+00
 0.3477350368346E+00
 0.2479731073561E+00
 0.1623562839342E+00
 0.9847890168991E-01
 0.6602813569379E-01
 0.7669971136213E-01
 0.1388953737953E+00
 0.1472035445651E+01
 0.1402030649352E+01
 0.1326972625644E+01
 0.1247189331854E+01
 0.1161597223253E+01
 0.1070294655485E+01
 0.9737432911387E+00
 0.8726832661465E+00
 0.7681094424154E+00
 0.6613153978765E+00
 0.5539667614060E+00
 0.4481983777297E+00
 0.3467306654025E+00
 0.2529964582595E+00
 0.1712532732793E+00
 0.1066189033993E+00
 0.6490373958548E-01
 0.5211384964924E-01
 0.7250220816675E-01
 0.1269177898222E+00
</DataArray>
<DataArray type="Float64" Name="OI" NumberOfComponents="1" ComponentName0="OI" format="ascii">
 0.3401495328767E+01
 0.3005745589760E+01
 0.2699511130655E+01
 0.2579221060369E+01
 0.2493280535504E+01
 0.2435709950849E+01
 0.2392897767265E+01
 0.2360356381005E+01
 0.2335020761943E+01
 0.2315278514843E+01
 0.2300210258042E+01
 0.2289396445566E+01
 0.2282775988521E+01
 0.2280595269593E+01
 0.2283408130799E+01
 0.2292138166956E+01
 0.2308248016104E+01
 0.2334197781602E+01
 0.2374547653403E+01
 0.2435834035025E+01
 0.2514199733147E+01
 0.2593058513984E+01
 0.2659434117201E+01
 0.2709962603046E+01
 0.2747331532106E+01
 0.2776045861070E+01
 0.2800034492503E+01
 0.2821763114308E+01
 0.2841867930415E+01
 0.2858825136263E+01
 0.2871597321823E+01
 0.2884748759918E+01
 0.2905061946701E+01
 0.2936978815578E+01
 0.2984962703380E+01
 0.3053161520521E+01
 0.3153849865321E+01
 0.3269697300992E+01
 0.3531363084409E+01
 0.3159669916505E+01
 0.6485358909716E+01
 0.2879557801005E+01
 0.2955569878991E+01
 0.2728754743871E+01
 0.2586082988824E+01
 0.2499638745152E+01
 0.2436996799820E+01
 0.2391169836893E+01
 0.2356113900512E+01
 0.2328913215415E+01
 0.2307750604218E+01
 0.2291618690955E+01
 0.2280012062216E+01
 0.2272803029275E+01
 0.2270177433166E+01
 0.2272627146971E+01
 0.2280994986468E+01
 0.2296608340062E+01
 0.2321502866560E+01
 0.2357863279871E+01
 0.2406019094539E+01
 0.2462039691825E+01
 0.2518298938604E+01
 0.2567709414600E+01
 0.2606927169768E+01
 0.2636123182742E+01
 0.2657164310886E+01
 0.2672050721391E+01
 0.2682009815948E+01
 0.2687234493584E+01
 0.2687500600042E+01
 0.2683107280803E+01
 0.2675104512587E+01
 0.2664717116808E+01
 0.2652142993139E+01
 0.2634830086681E+01
 0.2607271621881E+01
 0.2550145893443E+01
 0.2448261518952E+01
 0.2133689423131E+01
 0.1627033713824E+01
 0.5498105642225E+01
 0.2591086826855E+01
 0.2779038825717E+01
 0.2702004140464E+01
 0.2577474578203E+01
 0.2493493708490E+01
 0.2431570692225E+01
 0.2384669186508E+01
 0.2348488980991E+01
 0.2320169595926E+01
 0.2298028257482E+01
 0.2281050273007E+01
 0.2268707578246E+01
 0.2260828982798E+01
 0.2257541125875E+01
 0.2259248712588E+01
 0.2266648872573E+01
 0.2280771091104E+01
 0.2302743573606E+01
 0.2332629519068E+01
 0.2368564363223E+01
 0.2407571602533E+01
 0.2446229304404E+01
 0.2480916527773E+01
 0.2508906434075E+01
 0.2529116672538E+01
 0.2541715304749E+01
 0.2547282450237E+01
 0.2546152158545E+01
 0.2538332598278E+01
 0.2523939438836E+01
 0.2503007618551E+01
 0.2474638180935E+01
 0.2436969177577E+01
 0.2386749779184E+01
 0.2317820698367E+01
 0.2217813845695E+01
 0.2067618806150E+01
 0.1829189808324E+01
 0.1445454233370E+01
 0.1533435673764E+01
 0.5053030823616E+01
 0.2405358040050E+01
 0.2611137397348E+01
 0.2628749014157E+01
 0.2550283827051E+01
 0.2476540128883E+01
 0.2418922744800E+01
 0.2373361367344E+01
 0.2337322026369E+01
 0.2308680740679E+01
 0.2286014106331E+01
 0.2268427111727E+01
 0.2255420233867E+01
 0.2246805607836E+01
 0.2242653046064E+01
 0.2243259259892E+01
 0.2249121920260E+01
 0.2260836194941E+01
 0.2278577113500E+01
 0.2301152319961E+01
 0.2326139188107E+01
 0.2351512826896E+01
 0.2375989236273E+01
 0.2397898336890E+01
 0.2415175535416E+01
 0.2426203786353E+01
 0.2430123629897E+01
 0.2426547189302E+01
 0.2415198219995E+01
 0.2395881904253E+01
 0.2368563954778E+01
 0.2332730827543E+01
 0.2286379487585E+01
 0.2226046702808E+01
 0.2146866768980E+01
 0.2041369190346E+01
 0.1898475479642E+01
 0.1704462855034E+01
 0.1446511368347E+01
 0.1224254234247E+01
 0.1896768315130E+01
 0.4661228954615E+01
 0.2273545054701E+01
 0.2469690725361E+01
 0.2538610538252E+01
 0.2505505731048E+01
 0.2449847133871E+01
 0.2399474608678E+01
 0.2357282488177E+01
 0.2322618559183E+01
 0.2294406727717E+01
 0.2271667623868E+01
 0.2253712169766E+01
 0.2240123339314E+01
 0.2230720688462E+01
 0.2225522269558E+01
 0.2224703626622E+01
 0.2228525110360E+01
 0.2237111447007E+01
 0.2249896585099E+01
 0.2265098252170E+01
 0.2280377882634E+01
 0.2294458090076E+01
 0.2307175591227E+01
 0.2317945779718E+01
 0.2325247735838E+01
 0.2327311883346E+01
 0.2322714400064E+01
 0.2310460499029E+01
 0.2289861942287E+01
 0.2260492999085E+01
 0.2222031355708E+01
 0.2173519920013E+01
 0.2112458745037E+01
 0.2034922480983E+01
 0.1935963014748E+01
 0.1809515437099E+01
 0.1649562657390E+01
 0.1455107049285E+01
 0.1257993997034E+01
 0.1273969518911E+01
 0.2223492236237E+01
 0.4339804724264E+01
 0.2173313968589E+01
 0.2352575485286E+01
 0.2446843244775E+01
 0.2449482797442E+01
 0.2414575332042E+01
 0.2373973987263E+01
 0.2336693519519E+01
 0.2304483757738E+01
 0.2277386168499E+01
 0.2254998535831E+01
 0.2236908631347E+01
 0.2222824822477E+01
 0.2212596807588E+01
 0.2206198375151E+01
 0.2203679520217E+01
 0.2205054349958E+01
 0.2210031056648E+01
 0.2217562299385E+01
 0.2225686404862E+01
 0.2232370611417E+01
 0.2236878277134E+01
 0.2239633279481E+01
 0.2240648550155E+01
 0.2238814262140E+01
 0.2232402060316E+01
 0.2219731903758E+01
 0.2199469753964E+01
 0.2170663293390E+01
 0.2132682755201E+01
 0.2084960703146E+01
 0.2026318668756E+01
 0.1954259307433E+01
 0.1865236324910E+01
 0.1755482738078E+01
 0.1622088138126E+01
 0.1466180286632E+01
 0.1303691507565E+01
 0.1207637962474E+01
 0.1437684555160E+01
 0.2443391915786E+01
 0.4084125070475E+01
 0.2093073694810E+01
 0.2254817726838E+01
 0.2359812276274E+01
 0.2387993856899E+01
 0.2372757596833E+01
 0.2343264501418E+01
 0.2312028595272E+01
 0.2283117437410E+01
 0.2257722392014E+01
 0.2236063998651E+01
 0.2218056576088E+01
 0.2203565157054E+01
 0.2192488934515E+01
 0.2184767438277E+01
 0.2180330987976E+01
 0.2178968870119E+01
 0.2180070482067E+01
 0.2182328362017E+01
 0.2183828390831E+01
 0.2182890036285E+01
 0.2179153288504E+01
 0.2173340563180E+01
 0.2165788399024E+01
 0.2155692308039E+01
 0.2141459824960E+01
 0.2121353040476E+01
 0.2093890053940E+01
 0.2057976169272E+01
 0.2012850063712E+01
 0.1957820053764E+01
 0.1891728459400E+01
 0.1812476807605E+01
 0.1717504232897E+01
 0.1605060803711E+01
 0.1476287652407E+01
 0.1340382991505E+01
 0.1229849936852E+01
 0.1244907418126E+01
 0.1618804183403E+01
 0.2579348148656E+01
 0.3881066952740E+01
 0.2026254146669E+01
 0.2171943773944E+01
 0.2279640403446E+01
 0.2324991350131E+01
 0.2326598032191E+01
 0.2308338210786E+01
 0.2283807856059E+01
 0.2258799045050E+01
 0.2235572228686E+01
 0.2214962463790E+01
 0.2197229349591E+01
 0.2182414303845E+01
 0.2170481061314E+01
 0.2161346994200E+01
 0.2154838800285E+01
 0.2150563176701E+01
 0.2147696583120E+01
 0.2144834085493E+01
 0.2140222131325E+01
 0.2132510704322E+01
 0.2121597687416E+01
 0.2108346940879E+01
 0.2093266691305E+01
 0.2075783299865E+01
 0.2054484258456E+01
 0.2027698307001E+01
 0.1993931073731E+01
 0.1952050537919E+01
 0.1901259018229E+01
 0.1840883499560E+01
 0.1770003714485E+01
 0.1687213155506E+01
 0.1591324758512E+01
 0.1483038224859E+01
 0.1367849009025E+01
 0.1262787458676E+01
 0.1213428654590E+01
 0.1327758649804E+01
 0.1780088695250E+01
 0.2659651965742E+01
 0.3717797998671E+01
 0.1968873699517E+01
 0.2100475243864E+01
 0.2206580354382E+01
 0.2262851266033E+01
 0.2278000364305E+01
 0.2270237177934E+01
 0.2252601898454E+01
 0.2231859148039E+01
 0.2211135401858E+01
 0.2191826519274E+01
 0.2174529120528E+01
 0.2159468029948E+01
 0.2146682116649E+01
 0.2136080126730E+01
 0.2127408821579E+01
 0.2120143848118E+01
 0.2113343708195E+01
 0.2105615675822E+01
 0.2095414174825E+01
 0.2081676641643E+01
 0.2064477356312E+01
 0.2044737838291E+01
 0.2023056240938E+01
 0.1999040869355E+01
 0.1971477916123E+01
 0.1938839525374E+01
 0.1899714706404E+01
 0.1853024619841E+01
 0.1798033907563E+01
 0.1734222873843E+01
 0.1661080035809E+01
 0.1578083654563E+01
 0.1485618942504E+01
 0.1386964017465E+01
 0.1291818420553E+01
 0.1223854916270E+01
 0.1236096307792E+01
 0.1427558702359E+01
 0.1912836281849E+01
 0.2704779369291E+01
 0.3584322200593E+01
 0.1918387051063E+01
 0.2037813003774E+01
 0.2140128112586E+01
 0.2202862675267E+01
 0.2228421269776E+01
 0.2229937481480E+01
 0.2218995527030E+01
 0.2202656399950E+01
 0.2184641817810E+01
 0.2166815712599E+01
 0.2150081875130E+01
 0.2134843782785E+01
 0.2121221442514E+01
 0.2109129002568E+01
 0.2098260896891E+01
 0.2088013636943E+01
 0.2077404670895E+01
 0.2065122487729E+01
 0.2049841395213E+01
 0.2030741522752E+01
 0.2008019886422E+01
 0.1982613604892E+01
 0.1955169475511E+01
 0.1925447336039E+01
 0.1892438443472E+01
 0.1854804870683E+01
 0.1811286881832E+01
 0.1760934449012E+01
 0.1703163942677E+01
 0.1637720333562E+01
 0.1564621287012E+01
 0.1484332637479E+01
 0.1398862762517E+01
 0.1313979173828E+01
 0.1243082194927E+01
 0.1214557164609E+01
 0.1282645291947E+01
 0.1528237619692E+01
 0.2018597677543E+01
 0.2727963147231E+01
 0.3473385515743E+01
 0.1873094021295E+01
 0.1982030296085E+01
 0.2079529162426E+01
 0.2145631709038E+01
 0.2178891848325E+01
 0.2188279330416E+01
 0.2183551270478E+01
 0.2171558262727E+01
 0.2156339465020E+01
 0.2140109216396E+01
 0.2124032284420E+01
 0.2108676338202E+01
 0.2094244105282E+01
 0.2080668516270E+01
 0.2067619701088E+01
 0.2054461853931E+01
 0.2040229465261E+01
 0.2023732505349E+01
 0.2003859277053E+01
 0.1979993528232E+01
 0.1952421164488E+01
 0.1922076728510E+01
 0.1889637584886E+01
 0.1854997190274E+01
 0.1817352334766E+01
 0.1775582464533E+01
 0.1728626625946E+01
 0.1675723870633E+01
 0.1616515432768E+01
 0.1551093311853E+01
 0.1480076081241E+01
 0.1404946472110E+01
 0.1329279699722E+01
 0.1261085446945E+01
 0.1216680586171E+01
 0.1226801961924E+01
 0.1341761667980E+01
 0.1622118993823E+01
 0.2101758443738E+01
 0.2737490841799E+01
 0.3379822878068E+01
 0.1831816419745E+01
 0.1931692722642E+01
 0.2024000301786E+01
 0.2091359175265E+01
 0.2130097803351E+01
 0.2145943286765E+01
 0.2146781926997E+01
 0.2138924565789E+01
 0.2126483793943E+01
 0.2111898782559E+01
 0.2096538621874E+01
 0.2081113432012E+01
 0.2065906280425E+01
 0.2050880553297E+01
 0.2035707874538E+01
 0.2019759221075E+01
 0.2002127587718E+01
 0.1981765435270E+01
 0.1957761342036E+01
 0.1929671215724E+01
 0.1897849643250E+01
 0.1863223920712E+01
 0.1826496918423E+01
 0.1787685810709E+01
 0.1746190605179E+01
 0.1701123303090E+01
 0.1651653892299E+01
 0.1597255564747E+01
 0.1537848613159E+01
 0.1473925425523E+01
 0.1406735604724E+01
 0.1338752314811E+01
 0.1274984705827E+01
 0.1225317003331E+01
 0.1207996749787E+01
 0.1253758849883E+01
 0.1405814393595E+01
 0.1706244410841E+01
 0.2166891350746E+01
 0.2738540641423E+01
 0.3299938919369E+01
 0.1793712001652E+01
 0.1885722420615E+01
 0.1972819510466E+01
 0.2040017601529E+01
 0.2082466567642E+01
 0.2103455786621E+01
 0.2109135246250E+01
 0.2105094723276E+01
 0.2095328779495E+01
 0.2082382371202E+01
 0.2067767940522E+01
 0.2052311569619E+01
 0.2036370959241E+01
 0.2019949164759E+01
 0.2002741250517E+01
 0.1984155653146E+01
 0.1963371804398E+01
 0.1939493281764E+01
 0.1911792730915E+01
 0.1879974021451E+01
 0.1844449313190E+01
 0.1806141326606E+01
 0.1765780322977E+01
 0.1723502130798E+01
 0.1678906246827E+01
 0.1631344220446E+01
 0.1580237126811E+01
 0.1525323079312E+01
 0.1466836925490E+01
 0.1405698967382E+01
 0.1343786897793E+01
 0.1284497097829E+01
 0.1234083420672E+01
 0.1203845724667E+01
 0.1212889692626E+01
 0.1290008143875E+01
 0.1470059907641E+01
 0.1780058677519E+01
 0.2217947000470E+01
 0.2734380611529E+01
 0.3231047119634E+01
 0.1758162518399E+01
 0.1843300198157E+01
 0.1925355521419E+01
 0.1991459623246E+01
 0.2036242093030E+01
 0.2061208848875E+01
 0.2070989047155E+01
 0.2070379145121E+01
 0.2063119784753E+01
 0.2051758627492E+01
 0.2037891654883E+01
 0.2022432132074E+01
 0.2005804107107E+01
 0.1988056684846E+01
 0.1968925721351E+01
 0.1947879778779E+01
 0.1924202204448E+01
 0.1897148653399E+01
 0.1866159810027E+01
 0.1831069389621E+01
 0.1792341868261E+01
 0.1750901702723E+01
 0.1707511750984E+01
 0.1662424091537E+01
 0.1615433081451E+01
 0.1566131059651E+01
 0.1514200747993E+01
 0.1459663238272E+01
 0.1403086714392E+01
 0.1345825651638E+01
 0.1290357916652E+01
 0.1240906080412E+01
 0.1204736700740E+01
 0.1194049111434E+01
 0.1227784326094E+01
 0.1331483977268E+01
 0.1531769970405E+01
 0.1844127046921E+01
 0.2258112686115E+01
 0.2727106139203E+01
 0.3171151939768E+01
 0.1724703726035E+01
 0.1803795994837E+01
 0.1881070795632E+01
 0.1945482394086E+01
 0.1991542869790E+01
 0.2019484288688E+01
 0.2032653504247E+01
 0.2035054611309E+01
 0.2030088287986E+01
 0.2020222300500E+01
 0.2007081646054E+01
 0.1991637888922E+01
 0.1974371359432E+01
 0.1955380734032E+01
 0.1934455326456E+01
 0.1911139444742E+01
 0.1884830033503E+01
 0.1854931235836E+01
 0.1821037095201E+01
 0.1783097792282E+01
 0.1741628432525E+01
 0.1697562936873E+01
 0.1651703129742E+01
 0.1604416137814E+01
 0.1555685778090E+01
 0.1505342181970E+01
 0.1453332605670E+01
 0.1399968397159E+01
 0.1346155960009E+01
 0.1293673660525E+01
 0.1245553147707E+01
 0.1206723749958E+01
 0.1185202017672E+01
 0.1193556736729E+01
 0.1249708448561E+01
 0.1375278525950E+01
 0.1589524099164E+01
 0.1899465466973E+01
 0.2289890105767E+01
 0.2718087696895E+01
 0.3118735466089E+01
 0.1692980136029E+01
 0.1766719489635E+01
 0.1839513707628E+01
 0.1901864745386E+01
 0.1948404526321E+01
 0.1978477271224E+01
 0.1994377547218E+01
 0.1999362873591E+01
 0.1996448401117E+01
 0.1987960650083E+01
 0.1975506977990E+01
 0.1960090009270E+01
 0.1942235305539E+01
 0.1922092021211E+01
 0.1899511242846E+01
 0.1874122765547E+01
 0.1845441153776E+01
 0.1813012890356E+01
 0.1776572411462E+01
 0.1736176480472E+01
 0.1692391138076E+01
 0.1646167590758E+01
 0.1598352903897E+01
 0.1549428309577E+01
 0.1499560909794E+01
 0.1448812410969E+01
 0.1397391438784E+01
 0.1345898184973E+01
 0.1295571247084E+01
 0.1248590202918E+01
 0.1208480345062E+01
 0.1180741439655E+01
 0.1173860783718E+01
 0.1200279394170E+01
 0.1276275580015E+01
 0.1419397102999E+01
 0.1642707682734E+01
 0.1947204071138E+01
 0.2315223735818E+01
 0.2708246691458E+01
 0.3072615431062E+01
 0.1662714880964E+01
 0.1731684798239E+01
 0.1800307216428E+01
 0.1860387781798E+01
 0.1906810013005E+01
 0.1938316886868E+01
 0.1956357067656E+01
 0.1963511546854E+01
 0.1962394928564E+01
 0.1955150784638E+01
 0.1943331223463E+01
 0.1927945573020E+01
 0.1909553313389E+01
 0.1888352780773E+01
 0.1864261370202E+01
 0.1836999390978E+01
 0.1806199038437E+01
 0.1771541662514E+01
 0.1732890798331E+01
 0.1690402371600E+01
 0.1644694587612E+01
 0.1596743091978E+01
 0.1547445666190E+01
 0.1497396385206E+01
 0.1446938676072E+01
 0.1396357145402E+01
 0.1346113988455E+01
 0.1297090162777E+01
 0.1250842263601E+01
 0.1209919269883E+01
 0.1178269611228E+01
 0.1161815618288E+01
 0.1169236413999E+01
 0.1212420360110E+01
 0.1305627216867E+01
 0.1462525663615E+01
 0.1691180409831E+01
 0.1988424629801E+01
 0.2335618961366E+01
 0.2698231088626E+01
 0.3031852091548E+01
 0.1633689111624E+01
 0.1698385001118E+01
 0.1763137254762E+01
 0.1820845582345E+01
 0.1866710445110E+01
 0.1899083064051E+01
 0.1918743458398E+01
 0.1927676447763E+01
 0.1928102664253E+01
 0.1921957847371E+01
 0.1910710388625E+01
 0.1895355580751E+01
 0.1876475854843E+01
 0.1854315724184E+01
 0.1828860318719E+01
 0.1799921836167E+01
 0.1767247337050E+01
 0.1730644981416E+01
 0.1690097561782E+01
 0.1645854390301E+01
 0.1598587282971E+01
 0.1549302402087E+01
 0.1498952564200E+01
 0.1448242784178E+01
 0.1397685103014E+01
 0.1347776524044E+01
 0.1299221619400E+01
 0.1253169178727E+01
 0.1211473699681E+01
 0.1177015042801E+01
 0.1154086603645E+01
 0.1148879997267E+01
 0.1170005042376E+01
 0.1228469487098E+01
 0.1336353847259E+01
 0.1503837939753E+01
 0.1735066960336E+01
 0.2024088803749E+01
 0.2352226756203E+01
 0.2688529806768E+01
 0.2995691221234E+01
 0.1605727581085E+01
 0.1666573552376E+01
 0.1727742146210E+01
 0.1783050094854E+01
 0.1828039179246E+01
 0.1860819934523E+01
 0.1881651639951E+01
 0.1892004707264E+01
 0.1893726607935E+01
 0.1888533931168E+01
 0.1877791392454E+01
 0.1862463431634E+01
 0.1843145272482E+01
 0.1820123395437E+01
 0.1793449659446E+01
 0.1763026786147E+01
 0.1728712066346E+01
 0.1690432254444E+01
 0.1648280733663E+01
 0.1602595451124E+01
 0.1554103046652E+01
 0.1503845016652E+01
 0.1452832237350E+01
 0.1401877980142E+01
 0.1351654527188E+01
 0.1302859492115E+01
 0.1256426302471E+01
 0.1213755300350E+01
 0.1176974645556E+01
 0.1149251653603E+01
 0.1135141476357E+01
 0.1140953325540E+01
 0.1174999424126E+01
 0.1247183430951E+01
 0.1367411436854E+01
 0.1542846767731E+01
 0.1774630237365E+01
 0.2055017261997E+01
 0.2365895660933E+01
 0.2679525799257E+01
 0.2963533593717E+01
 0.1578688367646E+01
 0.1636050501983E+01
 0.1693903488877E+01
 0.1746832697782E+01
 0.1790721107884E+01
 0.1823546105234E+01
 0.1845167162742E+01
 0.1856618173287E+01
 0.1859402811784E+01
 0.1855017588037E+01
 0.1844711038822E+01
 0.1829403823814E+01
 0.1809694925483E+01
 0.1785907839293E+01
 0.1758158341567E+01
 0.1726436332920E+01
 0.1690703487735E+01
 0.1650997011518E+01
 0.1607513115505E+01
 0.1560674201920E+01
 0.1511262443714E+01
 0.1460358189315E+01
 0.1409032103035E+01
 0.1358202232262E+01
 0.1308692201561E+01
 0.1261387642858E+01
 0.1217435867005E+01
 0.1178470328872E+01
 0.1146865763722E+01
 0.1126030069976E+01
 0.1120694797302E+01
 0.1137143799170E+01
 0.1183206529024E+01
 0.1267556904907E+01
 0.1398043821824E+01
 0.1579295244836E+01
 0.1810193481111E+01
 0.2081909372648E+01
 0.2377196274690E+01
 0.2671519281118E+01
 0.2934884258282E+01
 0.1552455927853E+01
 0.1606660969927E+01
 0.1661454780579E+01
 0.1712069209538E+01
 0.1754713479020E+01
 0.1787306610201E+01
 0.1809405285181E+01
 0.1821678012482E+01
 0.1825318620310E+01
 0.1821610511540E+01
 0.1811680137793E+01
 0.1796395409876E+01
 0.1776351586406E+01
 0.1751904016324E+01
 0.1723228329868E+01
 0.1690396754298E+01
 0.1653468481386E+01
 0.1612582818280E+01
 0.1568031241667E+01
 0.1520316196149E+01
 0.1470275011447E+01
 0.1419028700402E+01
 0.1367707628147E+01
 0.1317329543933E+01
 0.1268858987527E+01
 0.1223355158917E+01
 0.1182161805142E+01
 0.1147123863886E+01
 0.1120831694131E+01
 0.1106883016854E+01
 0.1110100466079E+01
 0.1136616061369E+01
 0.1193644063446E+01
 0.1288595579493E+01
 0.1427460075247E+01
 0.1612796259892E+01
 0.1841828936589E+01
 0.2105157355808E+01
 0.2386503650374E+01
 0.2664242234996E+01
 0.2911878154837E+01
 0.1526936125657E+01
 0.1578271272424E+01
 0.1630243793528E+01
 0.1678628736696E+01
 0.1719940038671E+01
 0.1752089842293E+01
 0.1774409354729E+01
 0.1787264855584E+01
 0.1791575603063E+01
 0.1788423921793E+01
 0.1778813145181E+01
 0.1763552612434E+01
 0.1743227681712E+01
 0.1718220312525E+01
 0.1688761092770E+01
 0.1654998832804E+01
 0.1617083001928E+01
 0.1575246956200E+01
 0.1529870413252E+01
 0.1481531556269E+01
 0.1431121848286E+01
 0.1379803612052E+01
 0.1328765782657E+01
 0.1279120235606E+01
 0.1231962003081E+01
 0.1188509605792E+01
 0.1150285868711E+01
 0.1119325352806E+01
 0.1098402556105E+01
 0.1091254488664E+01
 0.1102715136697E+01
 0.1138659761534E+01
 0.1205603033591E+01
 0.1309722016567E+01
 0.1455370895483E+01
 0.1643445000206E+01
 0.1869980775823E+01
 0.2125332188774E+01
 0.2394322728837E+01
 0.2657386077266E+01
 0.2894162126833E+01
 0.1502045986519E+01
 0.1550759242579E+01
 0.1600121870806E+01
 0.1646367005679E+01
 0.1686288877409E+01
 0.1717828198546E+01
 0.1740152014647E+01
 0.1753379323255E+01
 0.1758189206620E+01
 0.1755477731974E+01
 0.1746127412104E+01
 0.1730885533942E+01
 0.1710322413704E+01
 0.1684841391520E+01
 0.1654722634182E+01
 0.1620185388334E+01
 0.1581462260325E+01
 0.1538873249561E+01
 0.1492880085921E+01
 0.1444132779112E+01
 0.1393575667649E+01
 0.1342412447955E+01
 0.1291889151024E+01
 0.1243206593424E+01
 0.1197581071280E+01
 0.1156377938459E+01
 0.1121283748757E+01
 0.1094502822521E+01
 0.1078964316266E+01
 0.1078497250775E+01
 0.1097876059218E+01
 0.1142636307308E+01
 0.1218545923746E+01
 0.1330609640394E+01
 0.1481760139985E+01
 0.1671561578573E+01
 0.1895203428970E+01
 0.2143040749352E+01
 0.2400906003044E+01
 0.2651487157372E+01
 0.2877387507678E+01
 0.1477717798870E+01
 0.1524031518628E+01
 0.1570979660287E+01
 0.1615183437350E+01
 0.1653691938156E+01
 0.1684497690264E+01
 0.1706651690663E+01
 0.1720072858236E+01
 0.1725232780319E+01
 0.1722857907239E+01
 0.1713715010219E+01
 0.1698488097842E+01
 0.1677728552387E+01
 0.1651856223040E+01
 0.1621195323503E+01
 0.1586029160666E+01
 0.1546666340323E+01
 0.1503506353991E+01
 0.1457086939648E+01
 0.1408125875544E+01
 0.1357618504266E+01
 0.1306809105153E+01
 0.1256998601234E+01
 0.1209471249850E+01
 0.1165555510812E+01
 0.1126751466901E+01
 0.1094894421650E+01
 0.1072338743243E+01
 0.1062138971165E+01
 0.1068170961667E+01
 0.1095087605656E+01
 0.1148023977843E+01
 0.1231987993557E+01
 0.1350900222747E+01
 0.1506477641033E+01
 0.1697230822682E+01
 0.1917769312632E+01
 0.2158592272612E+01
 0.2406550779112E+01
 0.2646220830609E+01
 0.2862280571579E+01
 0.1453894182199E+01
 0.1498009221047E+01
 0.1542724089948E+01
 0.1584989969688E+01
 0.1622086113837E+01
 0.1652071401130E+01
 0.1673918287933E+01
 0.1687385712315E+01
 0.1692768006872E+01
 0.1690639368664E+01
 0.1681657824167E+01
 0.1666444666848E+01
 0.1645529574441E+01
 0.1619344483594E+01
 0.1588252166721E+01
 0.1552593580865E+01
 0.1512746302472E+01
 0.1469182406755E+01
 0.1422509788136E+01
 0.1373509757334E+01
 0.1323226245616E+01
 0.1272942605835E+01
 0.1224011865775E+01
 0.1177796029669E+01
 0.1135726854475E+01
 0.1099427547654E+01
 0.1070867705368E+01
 0.1052532447410E+01
 0.1047573236314E+01
 0.1059870978948E+01
 0.1093905453138E+01
 0.1154371590605E+01
 0.1245530602452E+01
 0.1370321272083E+01
 0.1529433985144E+01
 0.1720555856819E+01
 0.1937916013499E+01
 0.2172260993903E+01
 0.2411405624844E+01
 0.2641498618691E+01
 0.2848889241414E+01
 0.1430526049181E+01
 0.1472625285428E+01
 0.1515275466246E+01
 0.1555709390525E+01
 0.1591413312722E+01
 0.1620520900850E+01
 0.1641955131175E+01
 0.1655348726147E+01
 0.1660846204741E+01
 0.1658886807944E+01
 0.1650028025560E+01
 0.1634830362384E+01
 0.1613799991084E+01
 0.1587377004971E+01
 0.1555957426097E+01
 0.1519933554538E+01
 0.1479745087232E+01
 0.1435930004506E+01
 0.1389160612056E+01
 0.1340277337260E+01
 0.1290369819089E+01
 0.1240758387462E+01
 0.1192844939708E+01
 0.1148063445554E+01
 0.1107940402823E+01
 0.1074211106880E+01
 0.1048965608933E+01
 0.1034801136832E+01
 0.1034939039485E+01
 0.1053227978360E+01
 0.1093934203391E+01
 0.1161291850980E+01
 0.1258848255228E+01
 0.1388667756205E+01
 0.1550583112708E+01
 0.1741645312297E+01
 0.1955853680153E+01
 0.2184263778004E+01
 0.2415575826358E+01
 0.2637268272425E+01
 0.2837097834588E+01
 0.1407571026420E+01
 0.1447822256792E+01
 0.1488565135669E+01
 0.1527273800245E+01
 0.1561620257357E+01
 0.1589817177997E+01
 0.1610760447879E+01
 0.1623984808732E+01
 0.1629509499896E+01
 0.1627655493120E+01
 0.1618888600830E+01
 0.1603711453901E+01
 0.1582605729721E+01
 0.1556016240668E+01
 0.1524367214077E+01
 0.1488096180397E+01
 0.1447698329214E+01
 0.1403771085262E+01
 0.1357045500970E+01
 0.1308416542367E+01
 0.1259016291284E+01
 0.1210199493007E+01
 0.1163413351386E+01
 0.1120158019513E+01
 0.1082046538686E+01
 0.1050915852974E+01
 0.1028963316498E+01
 0.1018880503997E+01
 0.1023933613325E+01
 0.1047907087205E+01
 0.1094824418453E+01
 0.1168454491683E+01
 0.1271676815049E+01
 0.1405787321432E+01
 0.1569908754008E+01
 0.1760607168339E+01
 0.1971763562377E+01
 0.2194773222950E+01
 0.2419139283661E+01
 0.2633477564032E+01
 0.2826752448861E+01
 0.1384992197087E+01
 0.1423550501969E+01
 0.1462533554863E+01
 0.1499623236864E+01
 0.1532658123564E+01
 0.1559931224774E+01
 0.1580328488559E+01
 0.1593310154969E+01
 0.1598791864679E+01
 0.1596992043471E+01
 0.1588293906435E+01
 0.1573145794346E+01
 0.1552004551970E+01
 0.1525316741452E+01
 0.1493530062624E+01
 0.1457121414576E+01
 0.1416635098845E+01
 0.1372721731668E+01
 0.1326165517006E+01
 0.1277911248311E+01
 0.1229129881703E+01
 0.1181207659885E+01
 0.1135633304711E+01
 0.1093967436069E+01
 0.1057901824116E+01
 0.1029365224111E+01
 0.1010649876923E+01
 0.1004525050651E+01
 0.1014279263485E+01
 0.1043606618803E+01
 0.1096269261218E+01
 0.1175579504721E+01
 0.1283803115042E+01
 0.1421568291343E+01
 0.1587414674175E+01
 0.1777544230053E+01
 0.1985800220458E+01
 0.2203927395895E+01
 0.2422151782344E+01
 0.2630070435886E+01
 0.2817690855486E+01
 0.1362757086448E+01
 0.1399766759980E+01
 0.1437128692414E+01
 0.1472704464140E+01
 0.1504482102566E+01
 0.1530834381152E+01
 0.1550650372656E+01
 0.1563335251494E+01
 0.1568720041962E+01
 0.1566935174356E+01
 0.1558290247194E+01
 0.1543183299998E+01
 0.1522046512741E+01
 0.1495325653507E+01
 0.1463487491203E+01
 0.1427042712822E+01
 0.1386578609532E+01
 0.1342792935683E+01
 0.1296517519453E+01
 0.1248742171952E+01
 0.1200672926208E+01
 0.1153724342787E+01
 0.1109422731286E+01
 0.1069383573646E+01
 0.1035369940469E+01
 0.1009393149775E+01
 0.9938286931787E+00
 0.9915082001498E+00
 0.1005722901202E+01
 0.1040056518049E+01
 0.1098000931282E+01
 0.1182430715344E+01
 0.1295055956788E+01
 0.1435930105760E+01
 0.1603117473778E+01
 0.1792551540582E+01
 0.1998094562944E+01
 0.2211836517538E+01
 0.2424651208484E+01
 0.2626986643221E+01
 0.2809752833231E+01
 0.1340836834422E+01
 0.1376432958171E+01
 0.1412304698063E+01
 0.1446469906745E+01
 0.1477050927855E+01
 0.1502498503604E+01
 0.1521714713068E+01
 0.1534065694432E+01
 0.1539314349967E+01
 0.1537516388949E+01
 0.1528916446045E+01
 0.1513866440958E+01
 0.1492774428441E+01
 0.1466083211048E+01
 0.1434274549577E+01
 0.1397887629816E+01
 0.1357546870141E+01
 0.1313991302169E+01
 0.1268094923528E+01
 0.1220887690931E+01
 0.1173606755504E+01
 0.1127691634370E+01
 0.1084702218596E+01
 0.1046303387483E+01
 0.1014322457538E+01
 0.9908446280908E+00
 0.9783178268266E+00
 0.9796222250660E+00
 0.9980353708981E+00
 0.1037016591057E+01
 0.1099787049664E+01
 0.1188809852830E+01
 0.1305298459121E+01
 0.1448815771003E+01
 0.1617041383239E+01
 0.1805715145521E+01
 0.2008756786936E+01
 0.2218588056199E+01
 0.2426660823280E+01
 0.2624162731403E+01
 0.2802784257575E+01
 0.1319205514951E+01
 0.1353515239373E+01
 0.1388020791186E+01
 0.1420876719967E+01
 0.1450326398416E+01
 0.1474896013736E+01
 0.1493508071256E+01
 0.1505502852031E+01
 0.1510589379937E+01
 0.1508760614395E+01
 0.1500204395692E+01
 0.1485230731615E+01
 0.1464224346253E+01
 0.1437623219957E+01
 0.1405920337080E+01
 0.1369678381528E+01
 0.1329553290962E+01
 0.1286319699751E+01
 0.1240888400601E+01
 0.1194324596366E+01
 0.1147892494581E+01
 0.1103053091239E+01
 0.1061395825763E+01
 0.1024629663014E+01
 0.9946394610896E+00
 0.9735761590727E+00
 0.9639501642742E+00
 0.9686780379700E+00
 0.9910106287536E+00
 0.1034274610208E+01
 0.1101427125876E+01
 0.1194551206845E+01
 0.1314421641327E+01
 0.1460185943807E+01
 0.1629214562022E+01
 0.1817111673805E+01
 0.2017879054886E+01
 0.2224250726894E+01
 0.2428192038590E+01
 0.2621533371060E+01
 0.2796638929400E+01
 0.1297839571725E+01
 0.1330983156658E+01
 0.1364240327782E+01
 0.1395885977745E+01
 0.1424272914395E+01
 0.1447999862656E+01
 0.1466015278583E+01
 0.1477644394309E+01
 0.1482554592070E+01
 0.1480686774645E+01
 0.1472179576915E+01
 0.1457305203308E+01
 0.1436425997529E+01
 0.1409973518125E+01
 0.1378448487134E+01
 0.1342432361651E+01
 0.1302607235020E+01
 0.1259777850154E+01
 0.1214886509755E+01
 0.1169028767527E+01
 0.1123491772015E+01
 0.1079754455879E+01
 0.1039431781580E+01
 0.1004271641125E+01
 0.9762100488844E+00
 0.9574560522516E+00
 0.9505734685426E+00
 0.9585048732073E+00
 0.9844648146437E+00
 0.1031644371109E+01
 0.1102749206214E+01
 0.1199516905377E+01
 0.1322339105999E+01
 0.1470014337742E+01
 0.1639666511227E+01
 0.1826808416429E+01
 0.2025537875395E+01
 0.2228877738688E+01
 0.2429246842751E+01
 0.2619032727975E+01
 0.2791179441747E+01
 0.1276717347239E+01
 0.1308809003406E+01
 0.1340930015476E+01
 0.1371461967027E+01
 0.1398857038855E+01
 0.1421783442731E+01
 0.1439219659153E+01
 0.1450484717453E+01
 0.1455214826073E+01
 0.1453308306696E+01
 0.1444861544758E+01
 0.1430112858947E+01
 0.1409403236513E+01
 0.1383156416793E+01
 0.1351877624801E+01
 0.1316162622832E+01
 0.1276714527197E+01
 0.1234362869154E+01
 0.1190076273978E+01
 0.1144975782137E+01
 0.1100367353927E+01
 0.1057744291634E+01
 0.1018743085633E+01
 0.9851455411292E+00
 0.9589327264981E+00
 0.9423646438916E+00
 0.9380503527952E+00
 0.9489498974417E+00
 0.9782352664140E+00
 0.1028963771306E+01
 0.1103606769709E+01
 0.1203592803409E+01
 0.1328982667804E+01
 0.1478284171271E+01
 0.1648426284773E+01
 0.1834863685067E+01
 0.2031796193291E+01
 0.2232509491379E+01
 0.2429819935587E+01
 0.2616595733398E+01
 0.2786277682030E+01
 0.1255818687552E+01
 0.1286967253100E+01
 0.1318059251070E+01
 0.1347571575683E+01
 0.1374047091837E+01
 0.1396220467414E+01
 0.1413103178874E+01
 0.1424015282756E+01
 0.1428570737220E+01
 0.1426633622857E+01
 0.1418264379821E+01
 0.1403671104605E+01
 0.1383174459692E+01
 0.1357189119917E+01
 0.1326221796488E+01
 0.1290878323480E+01
 0.1251877922787E+01
 0.1210069760907E+01
 0.1166443702702E+01
 0.1122141464409E+01
 0.1078483705922E+01
 0.1036974536358E+01
 0.9992680215980E+00
 0.9671749950150E+00
 0.9427157210193E+00
 0.9281944452522E+00
 0.9262581992874E+00
 0.9398777776914E+00
 0.9721795190474E+00
 0.1026092969347E+01
 0.1103875917204E+01
 0.1206684956044E+01
 0.1334298792777E+01
 0.1484985439742E+01
 0.1655521279039E+01
 0.1841327324700E+01
 0.2036705220729E+01
 0.2235175852778E+01
 0.2429900601608E+01
 0.2614159230442E+01
 0.2781815187196E+01
 0.1235124608726E+01
 0.1265434088127E+01
 0.1295599558867E+01
 0.1324183760651E+01
 0.1349812777202E+01
 0.1371284830961E+01
 0.1387646536428E+01
 0.1398224882446E+01
 0.1402619163274E+01
 0.1400666517264E+01
 0.1392397097715E+01
 0.1377992148461E+01
 0.1357752995534E+01
 0.1332084111928E+01
 0.1301490863205E+01
 0.1266585132331E+01
 0.1228097527944E+01
 0.1186891858003E+01
 0.1143974252985E+01
 0.1100502363505E+01
 0.1057807476933E+01
 0.1017400970830E+01
 0.9809505819446E+00
 0.9502913958683E+00
 0.9274772191736E+00
 0.9148502313727E+00
 0.9150890364054E+00
 0.9311702267260E+00
 0.9661743223490E+00
 0.1022912667838E+01
 0.1103452877582E+01
 0.1208716636568E+01
 0.1338245726791E+01
 0.1490112839007E+01
 0.1660976442659E+01
 0.1846241302613E+01
 0.2040306040339E+01
 0.2236898098145E+01
 0.2429474344560E+01
 0.2611662993541E+01
 0.2777683449779E+01
 0.1214617014113E+01
 0.1244187002177E+01
 0.1273524113773E+01
 0.1301269087060E+01
 0.1326124844406E+01
 0.1346950460380E+01
 0.1362829213339E+01
 0.1373099848823E+01
 0.1377353434544E+01
 0.1375406524181E+01
 0.1367264020712E+01
 0.1353083369497E+01
 0.1333147467025E+01
 0.1307849517365E+01
 0.1277690862288E+01
 0.1243285596976E+01
 0.1205371179111E+01
 0.1164821214972E+01
 0.1122653237703E+01
 0.1080036171859E+01
 0.1038307915939E+01
 0.9989836149770E+00
 0.9637408194204E+00
 0.9344341781958E+00
 0.9131455493080E+00
 0.9022490908065E+00
 0.9044493958748E+00
 0.9227255531258E+00
 0.9601147129592E+00
 0.1019322556556E+01
 0.1102251840072E+01
 0.1209625850142E+01
 0.1340791200566E+01
 0.1493664196093E+01
 0.1664813781852E+01
 0.1849640315227E+01
 0.2042630998610E+01
 0.2237690562500E+01
 0.2428524303708E+01
 0.2609050637247E+01
 0.2773784219187E+01
 0.1194278453880E+01
 0.1223204463066E+01
 0.1251807334531E+01
 0.1278799327616E+01
 0.1302954782226E+01
 0.1323191163952E+01
 0.1338629491059E+01
 0.1348624213758E+01
 0.1352763630390E+01
 0.1350849226854E+01
 0.1342865106555E+01
 0.1328947648517E+01
 0.1309362118553E+01
 0.1284489423835E+01
 0.1254824329363E+01
 0.1220979468451E+01
 0.1183694773769E+01
 0.1143848947779E+01
 0.1102466173767E+01
 0.1060722077241E+01
 0.1019957216947E+01
 0.9816870492769E+00
 0.9475951250395E+00
 0.9195510321392E+00
 0.8996593112428E+00
 0.8903204424357E+00
 0.8942601601501E+00
 0.9144582336297E+00
 0.9539131672958E+00
 0.1015239941241E+01
 0.1100203113873E+01
 0.1209363299013E+01
 0.1341910623439E+01
 0.1495639302895E+01
 0.1667052079460E+01
 0.1851552382181E+01
 0.2043704911122E+01
 0.2237562045821E+01
 0.2427032475366E+01
 0.2606270423003E+01
 0.2770029839100E+01
 0.1174091919688E+01
 0.1202465625851E+01
 0.1230424535851E+01
 0.1256747114245E+01
 0.1280274542869E+01
 0.1299980481253E+01
 0.1315024443863E+01
 0.1324779827829E+01
 0.1328836789417E+01
 0.1326986521232E+01
 0.1319196236173E+01
 0.1305583661639E+01
 0.1286397106734E+01
 0.1262004168079E+01
 0.1232890580849E+01
 0.1199663982769E+01
 0.1163062553862E+01
 0.1123965521146E+01
 0.1083399072854E+01
 0.1042541052081E+01
 0.1002730797031E+01
 0.9654806676071E+00
 0.9324764401563E+00
 0.9055980600949E+00
 0.8869674629639E+00
 0.8790060289865E+00
 0.8844564120594E+00
 0.9062985250899E+00
 0.9474988571886E+00
 0.1010598573493E+01
 0.1097251605213E+01
 0.1207890750813E+01
 0.1341585684823E+01
 0.1496039063053E+01
 0.1667706758195E+01
 0.1851999398028E+01
 0.2043546087868E+01
 0.2236516994472E+01
 0.2424980753728E+01
 0.2603275978363E+01
 0.2766343593840E+01
 0.1154040669254E+01
 0.1181950088697E+01
 0.1209351631321E+01
 0.1235085636455E+01
 0.1258056296144E+01
 0.1277291539995E+01
 0.1291989916679E+01
 0.1301546449388E+01
 0.1305557082762E+01
 0.1303806842078E+01
 0.1296249466028E+01
 0.1282986140883E+01
 0.1264248759452E+01
 0.1240390589646E+01
 0.1211885962070E+01
 0.1179334105105E+01
 0.1143467348260E+01
 0.1105160990806E+01
 0.1065438682640E+01
 0.1025476089142E+01
 0.9866075178730E+00
 0.9503388732860E+00
 0.9183544154079E+00
 0.8925398890121E+00
 0.8750293774855E+00
 0.8682599010868E+00
 0.8749873029622E+00
 0.8981921368378E+00
 0.9408170315440E+00
 0.1005347697380E+01
 0.1093355604825E+01
 0.1205179772504E+01
 0.1339803302847E+01
 0.1494864887744E+01
 0.1666789841373E+01
 0.1850997625041E+01
 0.2042167189552E+01
 0.2234556480706E+01
 0.2422351810038E+01
 0.2600026936331E+01
 0.2762660082348E+01
 0.1134108076148E+01
 0.1161637684349E+01
 0.1188564878554E+01
 0.1213788379010E+01
 0.1236272209551E+01
 0.1255096919207E+01
 0.1269500489847E+01
 0.1278901806041E+01
 0.1282905951705E+01
 0.1281295350604E+01
 0.1274013242088E+01
 0.1261146097114E+01
 0.1242909797254E+01
 0.1219642245751E+01
 0.1191804054261E+01
 0.1159982729808E+01
 0.1124900767463E+01
 0.1087425194051E+01
 0.1048572672401E+01
 0.1009512378230E+01
 0.9715698464787E+00
 0.9362412150566E+00
 0.9052055140663E+00
 0.8803497362877E+00
 0.8638148680595E+00
 0.8580483911912E+00
 0.8658159421335E+00
 0.8900999715450E+00
 0.9338285353153E+00
 0.9994513184401E+00
 0.1088485874813E+01
 0.1201210797763E+01
 0.1336554873538E+01
 0.1492118293837E+01
 0.1664309979115E+01
 0.1848558116976E+01
 0.2039575923110E+01
 0.2231678995278E+01
 0.2419129820338E+01
 0.2596489498670E+01
 0.2758925607106E+01
 0.1114277501217E+01
 0.1141508302011E+01
 0.1168040660650E+01
 0.1192828894148E+01
 0.1214894252454E+01
 0.1233368520434E+01
 0.1247529435183E+01
 0.1256821634086E+01
 0.1260862214930E+01
 0.1259434087869E+01
 0.1252472578371E+01
 0.1240051007278E+01
 0.1222369518459E+01
 0.1199749588411E+01
 0.1172635841620E+01
 0.1141600837586E+01
 0.1107353352194E+01
 0.1070747890732E+01
 0.1032789765794E+01
 0.9946374276138E+00
 0.9576039597420E+00
 0.9231724684417E+00
 0.8930130655618E+00
 0.8690094347465E+00
 0.8533041866562E+00
 0.8483500824673E+00
 0.8569193145278E+00
 0.8819979451989E+00
 0.9265094775543E+00
 0.9928877006803E+00
 0.1082625026222E+01
 0.1195972502552E+01
 0.1331835784736E+01
 0.1487800668957E+01
 0.1660272515270E+01
 0.1844687064848E+01
 0.2035775580918E+01
 0.2227881063370E+01
 0.2415301050384E+01
 0.2592636925982E+01
 0.2755098570734E+01
 0.1094532182652E+01
 0.1121541735198E+01
 0.1147755298737E+01
 0.1172180603821E+01
 0.1193894021949E+01
 0.1212077447252E+01
 0.1226048665784E+01
 0.1235279699392E+01
 0.1239402148792E+01
 0.1238202096466E+01
 0.1231609201482E+01
 0.1219684966360E+01
 0.1202613947676E+01
 0.1180700103162E+01
 0.1154369837502E+01
 0.1124177608941E+01
 0.1090814675102E+01
 0.1055118854242E+01
 0.1018079820919E+01
 0.9808411310125E+00
 0.9446997944802E+00
 0.9111226647316E+00
 0.8817672715783E+00
 0.8585094186315E+00
 0.8434879968751E+00
 0.8391557737137E+00
 0.8482882296664E+00
 0.8738768919779E+00
 0.9188510557147E+00
 0.9856490947545E+00
 0.1075767180853E+01
 0.1189461471508E+01
 0.1325645170851E+01
 0.1481913180338E+01
 0.1654679579223E+01
 0.1839386059041E+01
 0.2030765426549E+01
 0.2223157690253E+01
 0.2410854302623E+01
 0.2588449954065E+01
 0.2751149872877E+01
 0.1074855142260E+01
 0.1101717551977E+01
 0.1127684891325E+01
 0.1151816628183E+01
 0.1173242588293E+01
 0.1191193893106E+01
 0.1205028681492E+01
 0.1214247802673E+01
 0.1218499543684E+01
 0.1217575513022E+01
 0.1211401662854E+01
 0.1200028804926E+01
 0.1183625947921E+01
 0.1162478409092E+01
 0.1136992169220E+01
 0.1107700493219E+01
 0.1075273394999E+01
 0.1040527912153E+01
 0.1004433857787E+01
 0.9681157808838E+00
 0.9328510443493E+00
 0.9000870694545E+00
 0.8714651665305E+00
 0.8488486717090E+00
 0.8343673212565E+00
 0.8304684395783E+00
 0.8399273016959E+00
 0.8657425562775E+00
 0.9108595400011E+00
 0.9777416993157E+00
 0.1067917913895E+01
 0.1181682145450E+01
 0.1317985894950E+01
 0.1474456814239E+01
 0.1647530193096E+01
 0.1832652263571E+01
 0.2024540927419E+01
 0.2217502639117E+01
 0.2405781226638E+01
 0.2583917134291E+01
 0.2747063299020E+01
 0.1055229105944E+01
 0.1082014984711E+01
 0.1107805177085E+01
 0.1131709637320E+01
 0.1152910358238E+01
 0.1170687037658E+01
 0.1184438511854E+01
 0.1193695772064E+01
 0.1198125739748E+01
 0.1197527634529E+01
 0.1191825421107E+01
 0.1181060174023E+01
 0.1165385297537E+01
 0.1145066320898E+01
 0.1120486621846E+01
 0.1092155233469E+01
 0.1060717263788E+01
 0.1026964936816E+01
 0.9918440338086E+00
 0.9564560291274E+00
 0.9220551052639E+00
 0.8900661122941E+00
 0.8621105342547E+00
 0.8400346384819E+00
 0.8259534625389E+00
 0.8223031842430E+00
 0.8318549585319E+00
 0.8576156711807E+00
 0.9025564190740E+00
 0.9691858577071E+00
 0.1059094478499E+01
 0.1172647049223E+01
 0.1308864755941E+01
 0.1465432543195E+01
 0.1638820391892E+01
 0.1824478500653E+01
 0.2017093833233E+01
 0.2210908540557E+01
 0.2400076492076E+01
 0.2579035094752E+01
 0.2742835894157E+01
 0.1035636436754E+01
 0.1062412836883E+01
 0.1088091418155E+01
 0.1111831723536E+01
 0.1132866954538E+01
 0.1150524951323E+01
 0.1164245657629E+01
 0.1173591445004E+01
 0.1178249644325E+01
 0.1178028960781E+01
 0.1172852896367E+01
 0.1162753598651E+01
 0.1147868732485E+01
 0.1128442873012E+01
 0.1104834640592E+01
 0.1077525846364E+01
 0.1047133085164E+01
 0.1014419784994E+01
 0.9803035665919E+00
 0.9458587948150E+00
 0.9123129693470E+00
 0.8810652687728E+00
 0.8537137811223E+00
 0.8320830978992E+00
 0.8182678966031E+00
 0.8146871842450E+00
 0.8241034743465E+00
 0.8495321180658E+00
 0.8939787044014E+00
 0.9600164911003E+00
 0.1049326317085E+01
 0.1162377307170E+01
 0.1298292929012E+01
 0.1454841628046E+01
 0.1628543360224E+01
 0.1814853245020E+01
 0.2008412096633E+01
 0.2203366829365E+01
 0.2393737820052E+01
 0.2573808716999E+01
 0.2738478315094E+01
 0.1016059079176E+01
 0.1042889405016E+01
 0.1068518301535E+01
 0.1092154291902E+01
 0.1113081110082E+01
 0.1130674507542E+01
 0.1144416031565E+01
 0.1153900641051E+01
 0.1158837733215E+01
 0.1159047215011E+01
 0.1154453498327E+01
 0.1145080501116E+01
 0.1131049954745E+01
 0.1112584305917E+01
 0.1090015291369E+01
 0.1063794556371E+01
 0.1034506623970E+01
 0.1002882185280E+01
 0.9698066028001E+00
 0.9363231178966E+00
 0.9036290666432E+00
 0.8730948931878E+00
 0.8462917650120E+00
 0.8250179982433E+00
 0.8113421339431E+00
 0.8076596144121E+00
 0.8167190164802E+00
 0.8415431574788E+00
 0.8851793861930E+00
 0.9502837676454E+00
 0.1038655867312E+01
 0.1150903461369E+01
 0.1286286657824E+01
 0.1442686071348E+01
 0.1616689595344E+01
 0.1803760528437E+01
 0.1998479629223E+01
 0.2194867499770E+01
 0.2386765865737E+01
 0.2568251221986E+01
 0.2734015153699E+01
 0.9964785135584E+00
 0.1023422414215E+01
 0.1049059856924E+01
 0.1072647967595E+01
 0.1093520575832E+01
 0.1111101303018E+01
 0.1124913899788E+01
 0.1134587127946E+01
 0.1139854038754E+01
 0.1140547346007E+01
 0.1136593631253E+01
 0.1128009197080E+01
 0.1114899609100E+01
 0.1097464016351E+01
 0.1076005180601E+01
 0.1050941684672E+01
 0.1022822466256E+01
 0.9923415729955E+00
 0.9603480325718E+00
 0.9278499583242E+00
 0.8960110541373E+00
 0.8661700025219E+00
 0.8398675799092E+00
 0.8188712524008E+00
 0.8052175470408E+00
 0.8012715507766E+00
 0.8097616962502E+00
 0.8337157181556E+00
 0.8762280305639E+00
 0.9400540068459E+00
 0.1027139675704E+01
 0.1138266618361E+01
 0.1272868231040E+01
 0.1428969252815E+01
 0.1603247116524E+01
 0.1791179759079E+01
 0.1987275884928E+01
 0.2185398667420E+01
 0.2379163943302E+01
 0.2562384158996E+01
 0.2729485224823E+01
 0.9768757198647E+00
 0.1003988965670E+01
 0.1029689388749E+01
 0.1053282517531E+01
 0.1074152040167E+01
 0.1091769583905E+01
 0.1105701822395E+01
 0.1115612580106E+01
 0.1121260124261E+01
 0.1122491511382E+01
 0.1119236675411E+01
 0.1111504863373E+01
 0.1099385226785E+01
 0.1083052469165E+01
 0.1062778331423E+01
 0.1038945489398E+01
 0.1012063826161E+01
 0.9827868683848E+00
 0.9519232451412E+00
 0.9204419362095E+00
 0.8894695478544E+00
 0.8603100074427E+00
 0.8344702925755E+00
 0.8136824897565E+00
 0.7999451581599E+00
 0.7955858407326E+00
 0.8033056074367E+00
 0.8261327224628E+00
 0.8672114971376E+00
 0.9294108092482E+00
 0.1014849827303E+01
 0.1124519951021E+01
 0.1258067280498E+01
 0.1413696782593E+01
 0.1588201742331E+01
 0.1777085455317E+01
 0.1974775251371E+01
 0.2174945913665E+01
 0.2370937577672E+01
 0.2556237283262E+01
 0.2724941814488E+01
 0.9572311499106E+00
 0.9845654954964E+00
 0.1010379421919E+01
 0.1034026786169E+01
 0.1054941060119E+01
 0.1072642179341E+01
 0.1086740595772E+01
 0.1096936533262E+01
 0.1103015049636E+01
 0.1104839047502E+01
 0.1102342950760E+01
 0.1095529483314E+01
 0.1084471141305E+01
 0.1069317075523E+01
 0.1050306020107E+01
 0.1027781960174E+01
 0.1002212301761E+01
 0.9742061994450E+00
 0.9445278262454E+00
 0.9141030129678E+00
 0.8840177975830E+00
 0.8555383898582E+00
 0.8301346309962E+00
 0.8094987644960E+00
 0.7955853860798E+00
 0.7906769347293E+00
 0.7974388390964E+00
 0.8188934271846E+00
 0.8582347556678E+00
 0.9184564033327E+00
 0.1001875708366E+01
 0.1109730599737E+01
 0.1241922463079E+01
 0.1396877635624E+01
 0.1571537481572E+01
 0.1761446908552E+01
 0.1960946233843E+01
 0.2163491387145E+01
 0.2362093867804E+01
 0.2549848322233E+01
 0.2720452850670E+01
 0.9375247079762E+00
 0.9651277444892E+00
 0.9911016608276E+00
 0.1014848645028E+01
 0.1035852004201E+01
 0.1053680442456E+01
 0.1067989197505E+01
 0.1078516337060E+01
 0.1085075330815E+01
 0.1087546429418E+01
 0.1085869666496E+01
 0.1080041772988E+01
 0.1070118379373E+01
 0.1056222039561E+01
 0.1038556573971E+01
 0.1017424567271E+01
 0.9932475792773E+00
 0.9665865679161E+00
 0.9381571950440E+00
 0.9088381104785E+00
 0.8796713008225E+00
 0.8518823236860E+00
 0.8269006219021E+00
 0.8063742184676E+00
 0.7922077496615E+00
 0.7866306737099E+00
 0.7922634482162E+00
 0.8121137542490E+00
 0.8494217723875E+00
 0.9073131935837E+00
 0.9883261169981E+00
 0.1093982024470E+01
 0.1224483604698E+01
 0.1378525651393E+01
 0.1553237102722E+01
 0.1744227798788E+01
 0.1945750411083E+01
 0.2151012624192E+01
 0.2352640644866E+01
 0.2543262619092E+01
 0.2716101016408E+01
 0.9177357391892E+00
 0.9456507376315E+00
 0.9718269599908E+00
 0.9957149538291E+00
 0.1016848004300E+01
 0.1034844196199E+01
 0.1049404731556E+01
 0.1060307103905E+01
 0.1067394892093E+01
 0.1070567220353E+01
 0.1069770856199E+01
 0.1064997087988E+01
 0.1056284525867E+01
 0.1043728171593E+01
 0.1027495127802E+01
 0.1007843961410E+01
 0.9851470807506E+00
 0.9599134526644E+00
 0.9328061739062E+00
 0.9046526607769E+00
 0.8764473478143E+00
 0.8493722304976E+00
 0.8248131695505E+00
 0.8043696918451E+00
 0.7898905217249E+00
 0.7835440222678E+00
 0.7878953717903E+00
 0.8059265750681E+00
 0.8409164187643E+00
 0.8961254713832E+00
 0.9743317173749E+00
 0.1077376849748E+01
 0.1205814386175E+01
 0.1358661491962E+01
 0.1533282955597E+01
 0.1725385785624E+01
 0.1929141120829E+01
 0.2137481015576E+01
 0.2342585385974E+01
 0.2536532651574E+01
 0.2711983733411E+01
 0.8978430257451E+00
 0.9261087737428E+00
 0.9525253069828E+00
 0.9765915340404E+00
 0.9978909174887E+00
 0.1016091685212E+01
 0.1030942375850E+01
 0.1042261657623E+01
 0.1049925016338E+01
 0.1053852016960E+01
 0.1053997305486E+01
 0.1050347317660E+01
 0.1042923569405E+01
 0.1031792673535E+01
 0.1017083343330E+01
 0.9990076274139E+00
 0.9778855570073E+00
 0.9541703508856E+00
 0.9284684900500E+00
 0.9015520837882E+00
 0.8743644938613E+00
 0.8480412655167E+00
 0.8239215715949E+00
 0.8035522790181E+00
 0.7887203324762E+00
 0.7815247455366E+00
 0.7844642673437E+00
 0.8004819195878E+00
 0.8328833571637E+00
 0.8850612483679E+00
 0.9600478363812E+00
 0.1060040262744E+01
 0.1185995686754E+01
 0.1337315200393E+01
 0.1511658172925E+01
 0.1704872141355E+01
 0.1911061845837E+01
 0.2122859824876E+01
 0.2331933835754E+01
 0.2529717437607E+01
 0.2708212953786E+01
 0.8778247911359E+00
 0.9064754249179E+00
 0.9331658170148E+00
 0.9574431534919E+00
 0.9789412955443E+00
 0.9973795311323E+00
 0.1012555330031E+01
 0.1024330480648E+01
 0.1032614293034E+01
 0.1037348391341E+01
 0.1038496473758E+01
 0.1036040768469E+01
 0.1029985729683E+01
 0.1020368896808E+01
 0.1007279090839E+01
 0.9908794896143E+00
 0.9714346227132E+00
 0.9493382528613E+00
 0.9251362036361E+00
 0.8995411864498E+00
 0.8734419510286E+00
 0.8479247252193E+00
 0.8242789634953E+00
 0.8039948229309E+00
 0.7887917184468E+00
 0.7806910262176E+00
 0.7821132700072E+00
 0.7959470762551E+00
 0.8255088420975E+00
 0.8743141433901E+00
 0.9456575698560E+00
 0.1042124004518E+01
 0.1165129700108E+01
 0.1314529517306E+01
 0.1488348405248E+01
 0.1682631517502E+01
 0.1891444261318E+01
 0.2107101593396E+01
 0.2320688223620E+01
 0.2522881854761E+01
 0.2704914634386E+01
 0.8576587126047E+00
 0.8867235462217E+00
 0.9137167396731E+00
 0.9382335220420E+00
 0.9599583613384E+00
 0.9786626902265E+00
 0.9941947630645E+00
 0.1006461661007E+01
 0.1015408567251E+01
 0.1021000834422E+01
 0.1023212415586E+01
 0.1022022042289E+01
 0.1017417271933E+01
 0.1009406077042E+01
 0.9980360958397E+00
 0.9834194703638E+00
 0.9657622333088E+00
 0.9453950485490E+00
 0.9227990589900E+00
 0.8986234780725E+00
 0.8736988921201E+00
 0.8490593677652E+00
 0.8259416821394E+00
 0.8057753400687E+00
 0.7902066129718E+00
 0.7811710212776E+00
 0.7809986613313E+00
 0.7925065565253E+00
 0.8190013745850E+00
 0.8641052386703E+00
 0.9313751445246E+00
 0.1023810987997E+01
 0.1143344959359E+01
 0.1290364160146E+01
 0.1463344306064E+01
 0.1658602011802E+01
 0.1870205951559E+01
 0.2090144692575E+01
 0.2308844847577E+01
 0.2516095917855E+01
 0.2702227657421E+01
 0.8373219428037E+00
 0.8668252972835E+00
 0.8941454799345E+00
 0.9189252998169E+00
 0.9408999925817E+00
 0.9598944137118E+00
 0.9758097622563E+00
 0.9886008428592E+00
 0.9982508956366E+00
 0.1004750708769E+01
 0.1008085711000E+01
 0.1008231919189E+01
 0.1005160317487E+01
 0.9988490532213E+00
 0.9893035564790E+00
 0.9765830051177E+00
 0.9608321050733E+00
 0.9423148650934E+00
 0.9214437558034E+00
 0.8988003962896E+00
 0.8751536585191E+00
 0.8514826352229E+00
 0.8289685360600E+00
 0.8089763643779E+00
 0.7930737711285E+00
 0.7831023583494E+00
 0.7812894518914E+00
 0.7903619089128E+00
 0.8135921524916E+00
 0.8546848080370E+00
 0.9174494561424E+00
 0.1005320563960E+01
 0.1120802432334E+01
 0.1264901331186E+01
 0.1436645065955E+01
 0.1632715815694E+01
 0.1847247934604E+01
 0.2071908735400E+01
 0.2296390514536E+01
 0.2509434078585E+01
 0.2700301579614E+01
 0.8167911417743E+00
 0.8467521767578E+00
 0.8744186340382E+00
 0.8994801165183E+00
 0.9217227089314E+00
 0.9410262056722E+00
 0.9573472793504E+00
 0.9706911782180E+00
 0.9810815093974E+00
 0.9885362126723E+00
 0.9930534076793E+00
 0.9946072480941E+00
 0.9931526534319E+00
 0.9886379730681E+00
 0.9810257318443E+00
 0.9703205124011E+00
 0.9566030749672E+00
 0.9400673305013E+00
 0.9210531341761E+00
 0.9000704357294E+00
 0.8778228617319E+00
 0.8552317647163E+00
 0.8334199670154E+00
 0.8136841944727E+00
 0.7975081171815E+00
 0.7866315682555E+00
 0.7831668808465E+00
 0.7897313730777E+00
 0.8095352572690E+00
 0.8463337886085E+00
 0.9041676391817E+00
 0.9869143876862E+00
 0.1097702815867E+01
 0.1238252735213E+01
 0.1408263329931E+01
 0.1604900782536E+01
 0.1822452345680E+01
 0.2052288630021E+01
 0.2283296744557E+01
 0.2502974308607E+01
 0.2699292002270E+01
 0.7960425204880E+00
 0.8264750723915E+00
 0.8545020429655E+00
 0.8798586019090E+00
 0.9023816598250E+00
 0.9220077753086E+00
 0.9387520721368E+00
 0.9526732814781E+00
 0.9638377891364E+00
 0.9722923629100E+00
 0.9780489840399E+00
 0.9810808548769E+00
 0.9813275504492E+00
 0.9787079923253E+00
 0.9731415064736E+00
 0.9645768212647E+00
 0.9530284002439E+00
 0.9386167611902E+00
 0.9216052690590E+00
 0.9024281725013E+00
 0.8817203685380E+00
 0.8603427744540E+00
 0.8393570847827E+00
 0.8199880233839E+00
 0.8036299958480E+00
 0.7919134447910E+00
 0.7868238381916E+00
 0.7908493802637E+00
 0.8071075385300E+00
 0.8393648659487E+00
 0.8918584808819E+00
 0.9689027837252E+00
 0.1074295149982E+01
 0.1210568451143E+01
 0.1378231938164E+01
 0.1575083319769E+01
 0.1795680925726E+01
 0.2031147823238E+01
 0.2269509736669E+01
 0.2496795676828E+01
 0.2699349639243E+01
 0.7750518979247E+00
 0.8059643301851E+00
 0.8343608653222E+00
 0.8600204234170E+00
 0.8828306045284E+00
 0.9027869733682E+00
 0.9199666328329E+00
 0.9344851812941E+00
 0.9464542494277E+00
 0.9559509966027E+00
 0.9630023352601E+00
 0.9675814708558E+00
 0.9696135919445E+00
 0.9689889702835E+00
 0.9655839319760E+00
 0.9592905554397E+00
 0.9500549957897E+00
 0.9379212708975E+00
 0.9230724716640E+00
 0.9058631820025E+00
 0.8868561663042E+00
 0.8668493188896E+00
 0.8468405658045E+00
 0.8279789378136E+00
 0.8115643140425E+00
 0.7991103269008E+00
 0.7924642239042E+00
 0.7939659278613E+00
 0.8066081887616E+00
 0.8341230488445E+00
 0.8808954301911E+00
 0.9516513913287E+00
 0.1050886782534E+01
 0.1182048010324E+01
 0.1346612976560E+01
 0.1543193049532E+01
 0.1766774743815E+01
 0.2008313109982E+01
 0.2254934954620E+01
 0.2490968217081E+01
 0.2700589936478E+01
 0.7537947712174E+00
 0.7851898538452E+00
 0.8139596764057E+00
 0.8399243307427E+00
 0.8630218820484E+00
 0.8833097100818E+00
 0.9009311047539E+00
 0.9160622773595E+00
 0.9288625458611E+00
 0.9394408084907E+00
 0.9478398007257E+00
 0.9540337010323E+00
 0.9579345333196E+00
 0.9594051782565E+00
 0.9582797586217E+00
 0.9543934821456E+00
 0.9476226121921E+00
 0.9379317996914E+00
 0.9254201930175E+00
 0.9103588418117E+00
 0.8932350960349E+00
 0.8747813949986E+00
 0.8559293904110E+00
 0.8377487534337E+00
 0.8214395342081E+00
 0.8083912695433E+00
 0.8003022346299E+00
 0.7993458551447E+00
 0.8083580352171E+00
 0.8309856546274E+00
 0.8716989429278E+00
 0.9355877945977E+00
 0.1027854673974E+01
 0.1152954110129E+01
 0.1313509921912E+01
 0.1509169658882E+01
 0.1735555801220E+01
 0.1983572201063E+01
 0.2239427658260E+01
 0.2485522169418E+01
 0.2702974336330E+01
 0.7322463930438E+00
 0.7641212675276E+00
 0.7932625914270E+00
 0.8195282042088E+00
 0.8429063632201E+00
 0.8635198442503E+00
 0.8815831826367E+00
 0.8973373039839E+00
 0.9109915117874E+00
 0.9226874341649E+00
 0.9324842453367E+00
 0.9403580455506E+00
 0.9462092048471E+00
 0.9498750328163E+00
 0.9511489652264E+00
 0.9498098291604E+00
 0.9456629535005E+00
 0.9385910587703E+00
 0.9286058231983E+00
 0.9158910121793E+00
 0.9008554437096E+00
 0.8841638866841E+00
 0.8666793992841E+00
 0.8493886573188E+00
 0.8333864801126E+00
 0.8199310619346E+00
 0.8105615568965E+00
 0.8072680482080E+00
 0.8126986131580E+00
 0.8303616839928E+00
 0.8647378981541E+00
 0.9212076938239E+00
 0.1005657846010E+01
 0.1123629376243E+01
 0.1279083718561E+01
 0.1472973148073E+01
 0.1701828590518E+01
 0.1956680096235E+01
 0.2222778569918E+01
 0.2480553154357E+01
 0.2705467720411E+01
 0.7103819454622E+00
 0.7427203366525E+00
 0.7722204465844E+00
 0.7987708185885E+00
 0.8224099566124E+00
 0.8433307276655E+00
 0.8618251874425E+00
 0.8782036061870E+00
 0.8927275043121E+00
 0.9055719553007E+00
 0.9168130488276E+00
 0.9264299289291E+00
 0.9343133456438E+00
 0.9402776690900E+00
 0.9440781158431E+00
 0.9454384869666E+00
 0.9440926781294E+00
 0.9398390262213E+00
 0.9325979775137E+00
 0.9224618996380E+00
 0.9097576218981E+00
 0.8950797432070E+00
 0.8792200343732E+00
 0.8630778101458E+00
 0.8476360876787E+00
 0.8340130869008E+00
 0.8235775674359E+00
 0.8181190209384E+00
 0.8200666596091E+00
 0.8327346209283E+00
 0.8605275656242E+00
 0.9090166626759E+00
 0.9847145875690E+00
 0.1094305170604E+01
 0.1243297696264E+01
 0.1434285029846E+01
 0.1665075122608E+01
 0.1927098969255E+01
 0.2204651822882E+01
 0.2475792783153E+01
 0.2710940374077E+01
 0.6881730114205E+00
 0.7209547126037E+00
 0.7507944845970E+00
 0.7776061990450E+00
 0.8014779927169E+00
 0.8226792876238E+00
 0.8415871803341E+00
 0.8585861608797E+00
 0.8739916441285E+00
 0.8880121166165E+00
 0.9007405464808E+00
 0.9121601550057E+00
 0.9221544820757E+00
 0.9305183869706E+00
 0.9369724185148E+00
 0.9411878437407E+00
 0.9428275361339E+00
 0.9416035031532E+00
 0.9373413847076E+00
 0.9300381640054E+00
 0.9199354904996E+00
 0.9075556527118E+00
 0.8936167277149E+00
 0.8789263186822E+00
 0.8643487858857E+00
 0.8508534373415E+00
 0.8396276053142E+00
 0.8322444182206E+00
 0.8308859997740E+00
 0.8386180782950E+00
 0.8596759598300E+00
 0.8996945058723E+00
 0.9657037555962E+00
 0.1065536598644E+01
 0.1206452060601E+01
 0.1393077198157E+01
 0.1624984098268E+01
 0.1894396605563E+01
 0.2184831193514E+01
 0.2471176743193E+01
 0.2724501960854E+01
 0.6655988490897E+00
 0.6988030794923E+00
 0.7289626684535E+00
 0.7560086456011E+00
 0.7800793995765E+00
 0.8015294017245E+00
 0.8208297652568E+00
 0.8384438928197E+00
 0.8547416134798E+00
 0.8699634911482E+00
 0.8842183978674E+00
 0.8974942713046E+00
 0.9096700298269E+00
 0.9205251807458E+00
 0.9297503477648E+00
 0.9369681839192E+00
 0.9417722893532E+00
 0.9437873943366E+00
 0.9427414571308E+00
 0.9385327808249E+00
 0.9313154831726E+00
 0.9215384558651E+00
 0.9098448204722E+00
 0.8969471373068E+00
 0.8835851512113E+00
 0.8705714099099E+00
 0.8589026874677E+00
 0.8499235700156E+00
 0.8455468374731E+00
 0.8485427435241E+00
 0.8628846875699E+00
 0.8941225682409E+00
 0.9496362577236E+00
 0.1038330728311E+01
 0.1169362291189E+01
 0.1349816239556E+01
 0.1581633931227E+01
 0.1858425732718E+01
 0.2163121739493E+01
 0.2468067398794E+01
 0.2741429556623E+01
 0.6426362135680E+00
 0.6762357502561E+00
 0.7066890994914E+00
 0.7339326418590E+00
 0.7581571261150E+00
 0.7798137618084E+00
 0.7994783986134E+00
 0.8176976980210E+00
 0.8348950006538E+00
 0.8513402161136E+00
 0.8671562810606E+00
 0.8823362490249E+00
 0.8967573621679E+00
 0.9101888574958E+00
 0.9222975823299E+00
 0.9326631357350E+00
 0.9408130433437E+00
 0.9462846952414E+00
 0.9487058129944E+00
 0.9478728746278E+00
 0.9438504357288E+00
 0.9370134398625E+00
 0.9279293454637E+00
 0.9172126064888E+00
 0.9054723114933E+00
 0.8933562366579E+00
 0.8816617796844E+00
 0.8714944827091E+00
 0.8644797353682E+00
 0.8630523564542E+00
 0.8708369808821E+00
 0.8931389146835E+00
 0.9374686628306E+00
 0.1013630467152E+01
 0.1132741043060E+01
 0.1304781873396E+01
 0.1534823655466E+01
 0.1818674175390E+01
 0.2139258077331E+01
 0.2466245939677E+01
 0.2761871144392E+01
 0.6192630004365E+00
 0.6532245664472E+00
 0.6839386730941E+00
 0.7113316849342E+00
 0.7356511572167E+00
 0.7574611781487E+00
 0.7774549309833E+00
 0.7962657119190E+00
 0.8143674077608E+00
 0.8320547759128E+00
 0.8494619668822E+00
 0.8665872614695E+00
 0.8833095196203E+00
 0.8993937676608E+00
 0.9144908113170E+00
 0.9281447256832E+00
 0.9398220072098E+00
 0.9489738202961E+00
 0.9551255015355E+00
 0.9579686686997E+00
 0.9574765727377E+00
 0.9539502303618E+00
 0.9478813469796E+00
 0.9397835272307E+00
 0.9301291444139E+00
 0.9193931287755E+00
 0.9081650925826E+00
 0.8973027201733E+00
 0.8881302014451E+00
 0.8827151144824E+00
 0.8842570220935E+00
 0.8976573435518E+00
 0.9302972056391E+00
 0.9925972987488E+00
 0.1097558602317E+01
 0.1258456291348E+01
 0.1484402064552E+01
 0.1774539611969E+01
 0.2112638084344E+01
 0.2465196873466E+01
 0.2786362934617E+01
 0.5954590538066E+00
 0.6297435613132E+00
 0.6606776067026E+00
 0.6881579120758E+00
 0.7124975787916E+00
 0.7343957195797E+00
 0.7546772108594E+00
 0.7740633999926E+00
 0.7930728771116E+00
 0.8120186117736E+00
 0.8310420038943E+00
 0.8501463572741E+00
 0.8692157659465E+00
 0.8880180968667E+00
 0.9061975897444E+00
 0.9232726631235E+00
 0.9386561826807E+00
 0.9517157962834E+00
 0.9618728587572E+00
 0.9687111387310E+00
 0.9721110435413E+00
 0.9723002368692E+00
 0.9696952049301E+00
 0.9647062854965E+00
 0.9576631218818E+00
 0.9488598378242E+00
 0.9386705219774E+00
 0.9276980942417E+00
 0.9169560320814E+00
 0.9081214084338E+00
 0.9039062648223E+00
 0.9086606652585E+00
 0.9293549626126E+00
 0.9766347671641E+00
 0.1065111606085E+01
 0.1211615133848E+01
 0.1430334532284E+01
 0.1725286278625E+01
 0.2082298018021E+01
 0.2464409179685E+01
 0.2815605690505E+01
 0.5712072542524E+00
 0.6057700871843E+00
 0.6368739678477E+00
 0.6643613912816E+00
 0.6886271696590E+00
 0.7105355737560E+00
 0.7310586504154E+00
 0.7510037463266E+00
 0.7709244568348E+00
 0.7911428753910E+00
 0.8118025548243E+00
 0.8329113072786E+00
 0.8543623478397E+00
 0.8759343758897E+00
 0.8972763784838E+00
 0.9178937097203E+00
 0.9371559959436E+00
 0.9543522703806E+00
 0.9687991105923E+00
 0.9799694178501E+00
 0.9876492627580E+00
 0.9919939709932E+00
 0.9933458685757E+00
 0.9920098465785E+00
 0.9881668813746E+00
 0.9819226874072E+00
 0.9734291976773E+00
 0.9630300766895E+00
 0.9514232282839E+00
 0.9398806369562E+00
 0.9305798294927E+00
 0.9271931904647E+00
 0.9360023419808E+00
 0.9674012289370E+00
 0.1037095979357E+01
 0.1165454719238E+01
 0.1372807190621E+01
 0.1670050616005E+01
 0.2046954647145E+01
 0.2463287626651E+01
 0.2850457225791E+01
 0.5464951176761E+00
 0.5812864759936E+00
 0.6124982182998E+00
 0.6398888016849E+00
 0.6639633202403E+00
 0.6857915841834E+00
 0.7065078041470E+00
 0.7269975981163E+00
 0.7478349392826E+00
 0.7693393411594E+00
 0.7916503925451E+00
 0.8147796386639E+00
 0.8386334891090E+00
 0.8630102638109E+00
 0.8875768400683E+00
 0.9118411939470E+00
 0.9351438886107E+00
 0.9567032946339E+00
 0.9757316515495E+00
 0.9915878839034E+00
 0.1003962024530E+01
 0.1012938262198E+01
 0.1018786073098E+01
 0.1021702716952E+01
 0.1021714619721E+01
 0.1018732143561E+01
 0.1012680129508E+01
 0.1003641713164E+01
 0.9919998571948E+00
 0.9786160245939E+00
 0.9651021627640E+00
 0.9543534152817E+00
 0.9517126520497E+00
 0.9668068033057E+00
 0.1015674052148E+01
 0.1121758042032E+01
 0.1312400387593E+01
 0.1607915350169E+01
 0.2004955935243E+01
 0.2461026543452E+01
 0.2891962049033E+01
 0.5213172301647E+00
 0.5562824635260E+00
 0.5875236407234E+00
 0.6146810890072E+00
 0.6384190046872E+00
 0.6600654580028E+00
 0.6809280605069E+00
 0.7019542458772E+00
 0.7237178080975E+00
 0.7465214871931E+00
 0.7704940574681E+00
 0.7956498634604E+00
 0.8219126472055E+00
 0.8491096670396E+00
 0.8769404845919E+00
 0.9049347611833E+00
 0.9324229025560E+00
 0.9585648398721E+00
 0.9824708939723E+00
 0.1003382822003E+01
 0.1020892337097E+01
 0.1035013399468E+01
 0.1045943637619E+01
 0.1053770004871E+01
 0.1058358441104E+01
 0.1059418044983E+01
 0.1056644038381E+01
 0.1049861975954E+01
 0.1039147354982E+01
 0.1024956144331E+01
 0.1008320117208E+01
 0.9912865613559E+00
 0.9780557560647E+00
 0.9769929053795E+00
 0.1003518924893E+01
 0.1083094996346E+01
 0.1250369326341E+01
 0.1538055051970E+01
 0.1954186507773E+01
 0.2456439777362E+01
 0.2941416492536E+01
 0.4956790614878E+00
 0.5307587430031E+00
 0.5619263173793E+00
 0.5886694068150E+00
 0.6118924779328E+00
 0.6332477274823E+00
 0.6542176237330E+00
 0.6757823440504E+00
 0.6984884316525E+00
 0.7226057531095E+00
 0.7482451749131E+00
 0.7754229038994E+00
 0.8040840572033E+00
 0.8340942660637E+00
 0.8652017916790E+00
 0.8969804983661E+00
 0.9287753292365E+00
 0.9597059862305E+00
 0.9887865350596E+00
 0.1015138493347E+01
 0.1038251882448E+01
 0.1058070222710E+01
 0.1074718965883E+01
 0.1088170736301E+01
 0.1098124804754E+01
 0.1104084632151E+01
 0.1105516532569E+01
 0.1101996676433E+01
 0.1093309044593E+01
 0.1079521936392E+01
 0.1061090747958E+01
 0.1039174217880E+01
 0.1016681851677E+01
 0.1000298345582E+01
 0.1003816971362E+01
 0.1053033010245E+01
 0.1189068063618E+01
 0.1460021328142E+01
 0.1891960021169E+01
 0.2447713669231E+01
 0.3000473528364E+01
 0.4696031119878E+00
 0.5047321797152E+00
 0.5356839120684E+00
 0.5617682043069E+00
 0.5842613503984E+00
 0.6052157123202E+00
 0.6262700425009E+00
 0.6483912682159E+00
 0.6720655093425E+00
 0.6975129505749E+00
 0.7248198976391E+00
 0.7540036803993E+00
 0.7850345508083E+00
 0.8178254973709E+00
 0.8521899459446E+00
 0.8877716228412E+00
 0.9239615447709E+00
 0.9598657367158E+00
 0.9944130287180E+00
 0.1026602367243E+01
 0.1055816978298E+01
 0.1081927236485E+01
 0.1104982978412E+01
 0.1124835708325E+01
 0.1141011333843E+01
 0.1152805634146E+01
 0.1159460980221E+01
 0.1160318424629E+01
 0.1154896258897E+01
 0.1142908744165E+01
 0.1124261154107E+01
 0.1099215906435E+01
 0.1069303080757E+01
 0.1039220205122E+01
 0.1020218337048E+01
 0.1036301448267E+01
 0.1132546070751E+01
 0.1374299529378E+01
 0.1814954957037E+01
 0.2432020809355E+01
 0.3071301328184E+01
 0.4431391354628E+00
 0.4782434205723E+00
 0.5087716346482E+00
 0.5338636592429E+00
 0.5553748713528E+00
 0.5758320780419E+00
 0.5969756692317E+00
 0.6196930207537E+00
 0.6443727930755E+00
 0.6711698283646E+00
 0.7001404658934E+00
 0.7313028509893E+00
 0.7646556527729E+00
 0.8001670565339E+00
 0.8377313813288E+00
 0.8770900419892E+00
 0.9177192728291E+00
 0.9587494260470E+00
 0.9990439439632E+00
 0.1037479102537E+01
 0.1073323785154E+01
 0.1106367765672E+01
 0.1136575695223E+01
 0.1163666125392E+01
 0.1186984135438E+01
 0.1205619489146E+01
 0.1218601256604E+01
 0.1225056118158E+01
 0.1224272802127E+01
 0.1215663660693E+01
 0.1198638398048E+01
 0.1172595794443E+01
 0.1137663381324E+01
 0.1096373373696E+01
 0.1056746081367E+01
 0.1038827597796E+01
 0.1087285959948E+01
 0.1283365685677E+01
 0.1719335635190E+01
 0.2404896487526E+01
 0.3156818245877E+01
 0.4163817640792E+00
 0.4513677507266E+00
 0.4811518805460E+00
 0.5047947142878E+00
 0.5250448418307E+00
 0.5449450996254E+00
 0.5662244650038E+00
 0.5896047252236E+00
 0.6153410690822E+00
 0.6435107652676E+00
 0.6741368484284E+00
 0.7072386569425E+00
 0.7428459080180E+00
 0.7809879322111E+00
 0.8216533242219E+00
 0.8647092011447E+00
 0.9097636906936E+00
 0.9560247616196E+00
 0.1002324757485E+01
 0.1047422639453E+01
 0.1090462374201E+01
 0.1131137222783E+01
 0.1169305842900E+01
 0.1204533412244E+01
 0.1235975855940E+01
 0.1262524760819E+01
 0.1283014522420E+01
 0.1296384617254E+01
 0.1301739117089E+01
 0.1298259847192E+01
 0.1284949658039E+01
 0.1260428966640E+01
 0.1223481068729E+01
 0.1174436112856E+01
 0.1117690217166E+01
 0.1067586241892E+01
 0.1062886648388E+01
 0.1193584569273E+01
 0.1601428515384E+01
 0.2359238279478E+01
 0.3261028826856E+01
 0.3895021665282E+00
 0.4242296381769E+00
 0.4527499634206E+00
 0.4743230021970E+00
 0.4930371615225E+00
 0.5123923913396E+00
 0.5339103992321E+00
 0.5580516351857E+00
 0.5849103491194E+00
 0.6144795275635E+00
 0.6467483952644E+00
 0.6817387939295E+00
 0.7195133358370E+00
 0.7601658906890E+00
 0.8037884735281E+00
 0.8503987742288E+00
 0.8997891013994E+00
 0.9513177127039E+00
 0.1003843454354E+01
 0.1056025404362E+01
 0.1106869086775E+01
 0.1155940677663E+01
 0.1202952132967E+01
 0.1247280846319E+01
 0.1287884844852E+01
 0.1323475819341E+01
 0.1352724102759E+01
 0.1374415347318E+01
 0.1387518148857E+01
 0.1391071004901E+01
 0.1383795741439E+01
 0.1363685819680E+01
 0.1328348545888E+01
 0.1276047869462E+01
 0.1207488857506E+01
 0.1130304540083E+01
 0.1072268113257E+01
 0.1118231924236E+01
 0.1459902396322E+01
 0.2283793524024E+01
 0.3389460661677E+01
 0.3628077554995E+00
 0.3970188484246E+00
 0.4233995587925E+00
 0.4420882514714E+00
 0.4590696404362E+00
 0.4780102273503E+00
 0.4999371993079E+00
 0.5249705548912E+00
 0.5530322348866E+00
 0.5840310324560E+00
 0.6179254539802E+00
 0.6547422453664E+00
 0.6945779014863E+00
 0.7375912465179E+00
 0.7839808380391E+00
 0.8339318886872E+00
 0.8874734129935E+00
 0.9442088568645E+00
 0.1003118028442E+01
 0.1062802926284E+01
 0.1122116199507E+01
 0.1180441005697E+01
 0.1237267103086E+01
 0.1291727772557E+01
 0.1342575756399E+01
 0.1388378582821E+01
 0.1427691982021E+01
 0.1459188068242E+01
 0.1481745047889E+01
 0.1494350303065E+01
 0.1495603846318E+01
 0.1483099330617E+01
 0.1453581165099E+01
 0.1403617771540E+01
 0.1330529731694E+01
 0.1235123670371E+01
 0.1131038663156E+01
 0.1081037551725E+01
 0.1301789885269E+01
 0.2161300447632E+01
 0.3549575197045E+01
 0.3368616959170E+00
 0.3699951923680E+00
 0.3927225668334E+00
 0.4075522754811E+00
 0.4228283608625E+00
 0.4416489742546E+00
 0.4642244338124E+00
 0.4903136989188E+00
 0.5196723174810E+00
 0.5521330161878E+00
 0.5876308697241E+00
 0.6262009757053E+00
 0.6679738538268E+00
 0.7131706096027E+00
 0.7620924189655E+00
 0.8150955215446E+00
 0.8724874665304E+00
 0.9342316876162E+00
 0.9995796308084E+00
 0.1067170953234E+01
 0.1135697333544E+01
 0.1204258291075E+01
 0.1271985016243E+01
 0.1337677523109E+01
 0.1399882151476E+01
 0.1457086176006E+01
 0.1507809977811E+01
 0.1550663434131E+01
 0.1584463157259E+01
 0.1608219727458E+01
 0.1620587843854E+01
 0.1619067007744E+01
 0.1600022581611E+01
 0.1559016812364E+01
 0.1490764112482E+01
 0.1390117693087E+01
 0.1256351723743E+01
 0.1117342187418E+01
 0.1157169470789E+01
 0.1968123471973E+01
 0.3750618460258E+01
 0.3127410011904E+00
 0.3434256281453E+00
 0.3598705312085E+00
 0.3699644927031E+00
 0.3840214119698E+00
 0.4031884224648E+00
 0.4267136514750E+00
 0.4540531716042E+00
 0.4848123205655E+00
 0.5187676174618E+00
 0.5558413240709E+00
 0.5960814376076E+00
 0.6396518452314E+00
 0.6868303170258E+00
 0.7380099746551E+00
 0.7937042128210E+00
 0.8545124625709E+00
 0.9208764913606E+00
 0.9925497590119E+00
 0.1068409757560E+01
 0.1147006026408E+01
 0.1226971919870E+01
 0.1306836056915E+01
 0.1384930251448E+01
 0.1459611555403E+01
 0.1529394254495E+01
 0.1592887553326E+01
 0.1648713863968E+01
 0.1695627993189E+01
 0.1732677285802E+01
 0.1758725757092E+01
 0.1771560129463E+01
 0.1767837731348E+01
 0.1743151728621E+01
 0.1691075319216E+01
 0.1602314096942E+01
 0.1465485844774E+01
 0.1270413078842E+01
 0.1104579085585E+01
 0.1685261305381E+01
 0.4001110684602E+01
 0.2926545417271E+00
 0.3172116189536E+00
 0.3230083956338E+00
 0.3284846222405E+00
 0.3424651645808E+00
 0.3625381222193E+00
 0.3873797408441E+00
 0.4161841342233E+00
 0.4484521703530E+00
 0.4839327486098E+00
 0.5225484515367E+00
 0.5643658198900E+00
 0.6095806990987E+00
 0.6585193682988E+00
 0.7116506232232E+00
 0.7696153951973E+00
 0.8332697627237E+00
 0.9036083009102E+00
 0.9812098084511E+00
 0.1065605197723E+01
 0.1155303477105E+01
 0.1248128835248E+01
 0.1341570402850E+01
 0.1433302119304E+01
 0.1521553432701E+01
 0.1605036526591E+01
 0.1682634072135E+01
 0.1753106608159E+01
 0.1815120090556E+01
 0.1867633303086E+01
 0.1909767545779E+01
 0.1940047791918E+01
 0.1956333082637E+01
 0.1955516567068E+01
 0.1932289143250E+01
 0.1876377010881E+01
 0.1771989827256E+01
 0.1587760033987E+01
 0.1276956881551E+01
 0.1369091819089E+01
 0.4300862261387E+01
 0.2816629245478E+00
 0.2890358990128E+00
 0.2786585860161E+00
 0.2828123508055E+00
 0.2980290293553E+00
 0.3196633173157E+00
 0.3462395636933E+00
 0.3767265244527E+00
 0.4106121209704E+00
 0.4476428985062E+00
 0.4877596708582E+00
 0.5310528756255E+00
 0.5777485844626E+00
 0.6282116414235E+00
 0.6829656801302E+00
 0.7427406671540E+00
 0.8085649770682E+00
 0.8819196697922E+00
 0.9645630588365E+00
 0.1057543230227E+01
 0.1159670492680E+01
 0.1267266115265E+01
 0.1375997238417E+01
 0.1482652607586E+01
 0.1585490165372E+01
 0.1683682258652E+01
 0.1776636295994E+01
 0.1863466233093E+01
 0.1942761275122E+01
 0.2013003452914E+01
 0.2073280865650E+01
 0.2123456355254E+01
 0.2163780277694E+01
 0.2193988926865E+01
 0.2211830253353E+01
 0.2212771090143E+01
 0.2181044255519E+01
 0.2104136222716E+01
 0.1843490722760E+01
 0.1419937679895E+01
 0.4628766333373E+01
 0.2937228507980E+00
 0.2439540720447E+00
 0.2250975647877E+00
 0.2332007771798E+00
 0.2505602815001E+00
 0.2746532390106E+00
 0.3033391170878E+00
 0.3357324150068E+00
 0.3713324281425E+00
 0.4099300880446E+00
 0.4514985685023E+00
 0.4961584387835E+00
 0.5441636079973E+00
 0.5959070444918E+00
 0.6519435980009E+00
 0.7130486003000E+00
 0.7803254732137E+00
 0.8554719379455E+00
 0.9414028416954E+00
 0.1042492923036E+01
 0.1158948301796E+01
 0.1283962957999E+01
 0.1410044239254E+01
 0.1532921409286E+01
 0.1651209556813E+01
 0.1764934917153E+01
 0.1874340706370E+01
 0.1979196645134E+01
 0.2078292547379E+01
 0.2168927280606E+01
 0.2248764402453E+01
 0.2320063340643E+01
 0.2387475560912E+01
 0.2454350421689E+01
 0.2524337258837E+01
 0.2601010462581E+01
 0.2694715202525E+01
 0.2791791620889E+01
 0.2999052653441E+01
 0.2674869688896E+01
 0.5378552482627E+01
 0.4442814764530E+00
 0.5184705524627E+00
 0.5956902114470E+00
 0.6687165776043E+00
 0.7339088987379E+00
 0.7895181837575E+00
 0.8348603381011E+00
 0.8698289881345E+00
 0.8946059632127E+00
 0.9095351037566E+00
 0.9151139982584E+00
 0.9115603677760E+00
 0.8993722429540E+00
 0.8796330754260E+00
 0.8528959312773E+00
 0.8190544476010E+00
 0.7776769071948E+00
 0.7283278639835E+00
 0.6709823615674E+00
 0.6026387171395E+00
 0.4313784793141E+00
 0.5127677943848E+00
 0.5956680423620E+00
 0.6739090111765E+00
 0.7439454135357E+00
 0.8040863973259E+00
 0.8536951020921E+00
 0.8926935263915E+00
 0.9212756574799E+00
 0.9398023132596E+00
 0.9487446269003E+00
 0.9483386976467E+00
 0.9391151315332E+00
 0.9220046407393E+00
 0.8974459512980E+00
 0.8654004553632E+00
 0.8254065898065E+00
 0.7768873473982E+00
 0.7173227382726E+00
 0.6449683835742E+00
 0.4185792814305E+00
 0.5079084387192E+00
 0.5968486657107E+00
 0.6802858397920E+00
 0.7550655212534E+00
 0.8196208059986E+00
 0.8733823085255E+00
 0.9163140102288E+00
 0.9486422812035E+00
 0.9707419111992E+00
 0.9830643486233E+00
 0.9859149156033E+00
 0.9798175394722E+00
 0.9655528207248E+00
 0.9434915515829E+00
 0.9135260107394E+00
 0.8750851122870E+00
 0.8269513389412E+00
 0.7669988317573E+00
 0.6968598391524E+00
 0.4060955137319E+00
 0.5037039227756E+00
 0.5989927889085E+00
 0.6876890954336E+00
 0.7671384389076E+00
 0.8359970524336E+00
 0.8938005471273E+00
 0.9405759237033E+00
 0.9765928873227E+00
 0.1002248689648E+01
 0.1018000887679E+01
 0.1024211508309E+01
 0.1021392428279E+01
 0.1010198880399E+01
 0.9909094401228E+00
 0.9633233562679E+00
 0.9266939278450E+00
 0.8797951219640E+00
 0.8215353535109E+00
 0.7538482206142E+00
 0.3939880554101E+00
 0.5001213210839E+00
 0.6019414453772E+00
 0.6959548112040E+00
 0.7800197211565E+00
 0.8530794704852E+00
 0.9148191649431E+00
 0.9653520676023E+00
 0.1005004677361E+01
 0.1034209743918E+01
 0.1053444682142E+01
 0.1063118545761E+01
 0.1063728592382E+01
 0.1055821833917E+01
 0.1039586015056E+01
 0.1014731283195E+01
 0.9804855587963E+00
 0.9358525339759E+00
 0.8802006827520E+00
 0.8151592516976E+00
 0.3822978110364E+00
 0.4971184025108E+00
 0.6055793737974E+00
 0.7049322880915E+00
 0.7935587522642E+00
 0.8707236869180E+00
 0.9362980001238E+00
 0.9905053116089E+00
 0.1033743997629E+01
 0.1066494015696E+01
 0.1089262670668E+01
 0.1102498908361E+01
 0.1106685472623E+01
 0.1102281420151E+01
 0.1089399714664E+01
 0.1067711668073E+01
 0.1036502726498E+01
 0.9949430325798E+00
 0.9425755314272E+00
 0.8805217886659E+00
 0.3710582981742E+00
 0.4946532447701E+00
 0.6098024368223E+00
 0.7144824622166E+00
 0.8076048635456E+00
 0.8887793157417E+00
 0.9580889392274E+00
 0.1015889121978E+01
 0.1062664743106E+01
 0.1098953630043E+01
 0.1125300862472E+01
 0.1142191481927E+01
 0.1150097890759E+01
 0.1149413811500E+01
 0.1140205151897E+01
 0.1122142955658E+01
 0.1094578801425E+01
 0.1056781382868E+01
 0.1008303729126E+01
 0.9497496323787E+00
 0.3603010714039E+00
 0.4926834413155E+00
 0.6145121733406E+00
 0.7244721439402E+00
 0.8220089994352E+00
 0.9070925538400E+00
 0.9800374770477E+00
 0.1041348196840E+01
 0.1091609068890E+01
 0.1131425308068E+01
 0.1161386666285E+01
 0.1182013801085E+01
 0.1193776212300E+01
 0.1197025804003E+01
 0.1191806682477E+01
 0.1177808227515E+01
 0.1154439363565E+01
 0.1121016256687E+01
 0.1077026367644E+01
 0.1022601618285E+01
 0.3500571635678E+00
 0.4911668938963E+00
 0.6196132526055E+00
 0.7347719577000E+00
 0.8366236050122E+00
 0.9255077714472E+00
 0.1001984220562E+01
 0.1066719661678E+01
 0.1120408662844E+01
 0.1163732137759E+01
 0.1197330935867E+01
 0.1221763455394E+01
 0.1237505607833E+01
 0.1244888513909E+01
 0.1243953162709E+01
 0.1234416029440E+01
 0.1215732329008E+01
 0.1187237329309E+01
 0.1148327095864E+01
 0.1098729209706E+01
 0.3403574295978E+00
 0.4900621042435E+00
 0.6250127101575E+00
 0.7452554215980E+00
 0.8513027340152E+00
 0.9438685388695E+00
 0.1023766317037E+01
 0.1091834534648E+01
 0.1148886363483E+01
 0.1195685453527E+01
 0.1232929768055E+01
 0.1261219206733E+01
 0.1281045649331E+01
 0.1292736674974E+01
 0.1296343578021E+01
 0.1291614151848E+01
 0.1278042109792E+01
 0.1254968948406E+01
 0.1221699824015E+01
 0.1177629097022E+01
 0.3312323967204E+00
 0.4893283745277E+00
 0.6306197626876E+00
 0.7557987685508E+00
 0.8659023741858E+00
 0.9620185924525E+00
 0.1045218841253E+01
 0.1116519355492E+01
 0.1176857989605E+01
 0.1227086827101E+01
 0.1267966386240E+01
 0.1300142498169E+01
 0.1324131796267E+01
 0.1340271956833E+01
 0.1348634242004E+01
 0.1349000140951E+01
 0.1340897101725E+01
 0.1323668243806E+01
 0.1296537657006E+01
 0.1258633652192E+01
 0.3227119325079E+00
 0.4889259627546E+00
 0.6363459437941E+00
 0.7662811687034E+00
 0.8802810159939E+00
 0.9798028576646E+00
 0.1066176217554E+01
 0.1140597904802E+01
 0.1204134294826E+01
 0.1257730185539E+01
 0.1302213281938E+01
 0.1338279722476E+01
 0.1366478473312E+01
 0.1387167890984E+01
 0.1400446211027E+01
 0.1406129943014E+01
 0.1403776999156E+01
 0.1392730192106E+01
 0.1372143517376E+01
 0.1340936749558E+01
 0.3148248484118E+00
 0.4888162418302E+00
 0.6421054197685E+00
 0.7765852033449E+00
 0.8943004095205E+00
 0.9970685740161E+00
 0.1086473710695E+01
 0.1163893015937E+01
 0.1230523056404E+01
 0.1287404140463E+01
 0.1335434783133E+01
 0.1375365293349E+01
 0.1407783209922E+01
 0.1433075645142E+01
 0.1451372777791E+01
 0.1462526490215E+01
 0.1466121940907E+01
 0.1461499315377E+01
 0.1447750233335E+01
 0.1423628825320E+01
 0.3075985033330E+00
 0.4889618814489E+00
 0.6478154229543E+00
 0.7865974971448E+00
 0.9078264525530E+00
 0.1013666499158E+01
 0.1105948966027E+01
 0.1186228441360E+01
 0.1255831256961E+01
 0.1315894499778E+01
 0.1367389979707E+01
 0.1411125261931E+01
 0.1447731367806E+01
 0.1477630171829E+01
 0.1500987095813E+01
 0.1517688716575E+01
 0.1527343501313E+01
 0.1529284957697E+01
 0.1522544780782E+01
 0.1505738162331E+01
 0.3010584388542E+00
 0.4893270589136E+00
 0.6533967697202E+00
 0.7962094621795E+00
 0.9207301792694E+00
 0.1029452185686E+01
 0.1124443604366E+01
 0.1207430781457E+01
 0.1279867369618E+01
 0.1342986964949E+01
 0.1397835953054E+01
 0.1445281327157E+01
 0.1486001240635E+01
 0.1520456617476E+01
 0.1548850027839E+01
 0.1571101099553E+01
 0.1586836792026E+01
 0.1595378006612E+01
 0.1595693901388E+01
 0.1586272908302E+01
 0.2952280705516E+00
 0.4898776998485E+00
 0.6587744369853E+00
 0.8053181135614E+00
 0.9328888131380E+00
 0.1044287305025E+01
 0.1141804853634E+01
 0.1227331459517E+01
 0.1302443724984E+01
 0.1368469971346E+01
 0.1426531221469E+01
 0.1477555099513E+01
 0.1522269378715E+01
 0.1561176899748E+01
 0.1594518167399E+01
 0.1622243482338E+01
 0.1643992884609E+01
 0.1659067523045E+01
 0.1666367904961E+01
 0.1664256939474E+01
 0.2901284370095E+00
 0.4905817418157E+00
 0.6638781746966E+00
 0.8138269268251E+00
 0.9441868553238E+00
 0.1058040994838E+01
 0.1157887196797E+01
 0.1245768719564E+01
 0.1323378924745E+01
 0.1392137611859E+01
 0.1453239304692E+01
 0.1507672490254E+01
 0.1556216003669E+01
 0.1599416323404E+01
 0.1637551853802E+01
 0.1670600807587E+01
 0.1698210845023E+01
 0.1719656042096E+01
 0.1733760649227E+01
 0.1738756610684E+01
 0.2857780193526E+00
 0.4914094162460E+00
 0.6686431370510E+00
 0.8216467111471E+00
 0.9545171800974E+00
 0.1070591201627E+01
 0.1172554006636E+01
 0.1262589611557E+01
 0.1342500252988E+01
 0.1413792573391E+01
 0.1477732310775E+01
 0.1535368108146E+01
 0.1587530384196E+01
 0.1634810086862E+01
 0.1677522970708E+01
 0.1715672420689E+01
 0.1748908840353E+01
 0.1776472839441E+01
 0.1797105274566E+01
 0.1808899185549E+01
 0.2821926276542E+00
 0.4923335390230E+00
 0.6730105102406E+00
 0.8286964694709E+00
 0.9637821058914E+00
 0.1081825986813E+01
 0.1185679134243E+01
 0.1277651925777E+01
 0.1359646036976E+01
 0.1433249023390E+01
 0.1499794466083E+01
 0.1560389571854E+01
 0.1615916071543E+01
 0.1667009559705E+01
 0.1714022367673E+01
 0.1756980718140E+01
 0.1795534043358E+01
 0.1828884989250E+01
 0.1855686091057E+01
 0.1873884689413E+01
 0.2793853456269E+00
 0.4933298021008E+00
 0.6769281224947E+00
 0.8349042277286E+00
 0.9718944225092E+00
 0.1091644775234E+01
 0.1197148426827E+01
 0.1290826045276E+01
 0.1374667915511E+01
 0.1450335390599E+01
 0.1519225517346E+01
 0.1582501653031E+01
 0.1641095896301E+01
 0.1695688214378E+01
 0.1746666762833E+01
 0.1794078984287E+01
 0.1837571228023E+01
 0.1876306288909E+01
 0.1908847054421E+01
 0.1932992384011E+01
 0.2773665228964E+00
 0.4943770578707E+00
 0.6803510197887E+00
 0.8402078113742E+00
 0.9787783493856E+00
 0.1099959517823E+01
 0.1206861142121E+01
 0.1301996676706E+01
 0.1387432965646E+01
 0.1464896979304E+01
 0.1535843932856E+01
 0.1601490166243E+01
 0.1662816633571E+01
 0.1720547111430E+01
 0.1775105025691E+01
 0.1826558340624E+01
 0.1874550084578E+01
 0.1918204326695E+01
 0.1955997390158E+01
 0.1985583080404E+01
 0.2761438005314E+00
 0.4954575886696E+00
 0.6832419928919E+00
 0.8445555509015E+00
 0.9843704035928E+00
 0.1106695743904E+01
 0.1214731230207E+01
 0.1311064423864E+01
 0.1397825643578E+01
 0.1476798363120E+01
 0.1549489838835E+01
 0.1617165533410E+01
 0.1680853259520E+01
 0.1741319863936E+01
 0.1799023783087E+01
 0.1854053801118E+01
 0.1906051345583E+01
 0.1954106055971E+01
 0.1996615381340E+01
 0.2031098931544E+01
 0.2757221551004E+00
 0.4965573546766E+00
 0.6855720430479E+00
 0.8479068999243E+00
 0.9886201581075E+00
 0.1111793480075E+01
 0.1220688455017E+01
 0.1317947169891E+01
 0.1405749498008E+01
 0.1485925508068E+01
 0.1560027632422E+01
 0.1629365958079E+01
 0.1695012734051E+01
 0.1757777026041E+01
 0.1818152324348E+01
 0.1876249468974E+01
 0.1931711867654E+01
 0.1983602119819E+01
 0.2030251242253E+01
 0.2069062629725E+01
 0.2761039479786E+00
 0.4976662143592E+00
 0.6873207752615E+00
 0.8502329513974E+00
 0.9914908728652E+00
 0.1115208014556E+01
 0.1224679329602E+01
 0.1322581236293E+01
 0.1411128617155E+01
 0.1492187578725E+01
 0.1567348218153E+01
 0.1637960151937E+01
 0.1705137253684E+01
 0.1769729864313E+01
 0.1832266800220E+01
 0.1892882939949E+01
 0.1951228821560E+01
 0.2006350179558E+01
 0.2056528568159E+01
 0.2099075868362E+01
 0.2772889699856E+00
 0.4987781129713E+00
 0.6884767107788E+00
 0.8515168410031E+00
 0.9929599850006E+00
 0.1116910489949E+01
 0.1226667843673E+01
 0.1324922291915E+01
 0.1413908776601E+01
 0.1495518388471E+01
 0.1571370823484E+01
 0.1642849565790E+01
 0.1711106929289E+01
 0.1777033481174E+01
 0.1841193721599E+01
 0.1903748983788E+01
 0.1964363173257E+01
 0.2022077504394E+01
 0.2075144809949E+01
 0.2120816138278E+01
 0.2792744770907E+00
 0.4998912359980E+00
 0.6890375129547E+00
 0.8517540299334E+00
 0.9930194481704E+00
 0.1116888310987E+01
 0.1226635965644E+01
 0.1324945989098E+01
 0.1414058259972E+01
 0.1495877460813E+01
 0.1572044356074E+01
 0.1643970084590E+01
 0.1712841848913E+01
 0.1779589261385E+01
 0.1844812758588E+01
 0.1908702565879E+01
 0.1970942617933E+01
 0.2030583212251E+01
 0.2085871876656E+01
 0.2134034485125E+01
 0.2820552185283E+00
 0.5010081258214E+00
 0.6890101233226E+00
 0.8509524628477E+00
 0.9916759148484E+00
 0.1115145357860E+01
 0.1224583905424E+01
 0.1322648308602E+01
 0.1411568329550E+01
 0.1493250674970E+01
 0.1569348272704E+01
 0.1641293153008E+01
 0.1710303489599E+01
 0.1777346608439E+01
 0.1843058824469E+01
 0.1907661241020E+01
 0.1970864100715E+01
 0.2031740494675E+01
 0.2088557368806E+01
 0.2138554988655E+01
 0.2856234649425E+00
 0.5021357609219E+00
 0.6884108067681E+00
 0.8491325999035E+00
 0.9889507589682E+00
 0.1111701999290E+01
 0.1220530127781E+01
 0.1318045598677E+01
 0.1406453328645E+01
 0.1487650475215E+01
 0.1563292938025E+01
 0.1634826306795E+01
 0.1703495447748E+01
 0.1770303934313E+01
 0.1835923408482E+01
 0.1900606909415E+01
 0.1964095999893E+01
 0.2025499030132E+01
 0.2083126745195E+01
 0.2134276253351E+01
 0.2899690522013E+00
 0.5032855991671E+00
 0.6872651106771E+00
 0.8463273289569E+00
 0.9848799438882E+00
 0.1106594906398E+01
 0.1214511111951E+01
 0.1311174298724E+01
 0.1398750402218E+01
 0.1479115628596E+01
 0.1553919457590E+01
 0.1624613091337E+01
 0.1692463459737E+01
 0.1758508857696E+01
 0.1823455089979E+01
 0.1887586853881E+01
 0.1950679922840E+01
 0.2011887649737E+01
 0.2069586595514E+01
 0.2121175049234E+01
 0.2950794447606E+00
 0.5044735829216E+00
 0.6856077406609E+00
 0.8425817655441E+00
 0.9795137437344E+00
 0.1099876672088E+01
 0.1206580857084E+01
 0.1302090342312E+01
 0.1388518827601E+01
 0.1467710523346E+01
 0.1541298981683E+01
 0.1610732364955E+01
 0.1677294700437E+01
 0.1742057575552E+01
 0.1805759158879E+01
 0.1868713918431E+01
 0.1930731918389E+01
 0.1991017118835E+01
 0.2048029141565E+01
 0.2099312387630E+01
 0.3009398387111E+00
 0.5057201093356E+00
 0.6834823672638E+00
 0.8379529616108E+00
 0.9729163388481E+00
 0.1091615251222E+01
 0.1196810142106E+01
 0.1290868242251E+01
 0.1375838953900E+01
 0.1453524006951E+01
 0.1525531487355E+01
 0.1593297002160E+01
 0.1658116367820E+01
 0.1721093386007E+01
 0.1782996270176E+01
 0.1844165665424E+01
 0.1904442753746E+01
 0.1963082538192E+01
 0.2018637676322E+01
 0.2068841835963E+01
 0.3075333058075E+00
 0.5070499608314E+00
 0.6809413786858E+00
 0.8325095506264E+00
 0.9651653117159E+00
 0.1081893239736E+01
 0.1185285550326E+01
 0.1277599862066E+01
 0.1360810748035E+01
 0.1436667758852E+01
 0.1506744044373E+01
 0.1572452022631E+01
 0.1635093583982E+01
 0.1695804356588E+01
 0.1755380047254E+01
 0.1814182359158E+01
 0.1872076904411E+01
 0.1928364364784E+01
 0.1981691467488E+01
 0.2030018000212E+01
 0.3148409694634E+00
 0.5084921879007E+00
 0.6780456053337E+00
 0.8263313706493E+00
 0.9563510756832E+00
 0.1070807007300E+01
 0.1172108263869E+01
 0.1262392874407E+01
 0.1343551938101E+01
 0.1417274173457E+01
 0.1485088545570E+01
 0.1548372160046E+01
 0.1608426666673E+01
 0.1666420162330E+01
 0.1723173521257E+01
 0.1779063516474E+01
 0.1833970112260E+01
 0.1887227280348E+01
 0.1937566460578E+01
 0.1983199392990E+01
 0.3228421717464E+00
 0.5100799229843E+00
 0.6748640677064E+00
 0.8195091471674E+00
 0.9465762915982E+00
 0.1058465711711E+01
 0.1157392654609E+01
 0.1245368947521E+01
 0.1324195793358E+01
 0.1395493768981E+01
 0.1460738903336E+01
 0.1521258928193E+01
 0.1578347947072E+01
 0.1633208352176E+01
 0.1686684463739E+01
 0.1739162710168E+01
 0.1790525203391E+01
 0.1840118146675E+01
 0.1886730352087E+01
 0.1928835664346E+01
 0.3315145425687E+00
 0.5118500828176E+00
 0.6714738726140E+00
 0.8121443782965E+00
 0.9359553350613E+00
 0.1044990180914E+01
 0.1141264673829E+01
 0.1226661692512E+01
 0.1302888569824E+01
 0.1371492094539E+01
 0.1433887606574E+01
 0.1491337047987E+01
 0.1545118221705E+01
 0.1596470404032E+01
 0.1646259927471E+01
 0.1694879968457E+01
 0.1742204741972E+01
 0.1787563478084E+01
 0.1829745146214E+01
 0.1867470905365E+01
 0.3408336930125E+00
 0.5138428997809E+00
 0.6679605036281E+00
 0.8043497273495E+00
 0.9246138179782E+00
 0.1030511583736E+01
 0.1123860025529E+01
 0.1206414490839E+01
 0.1279786733973E+01
 0.1345446183663E+01
 0.1404741607632E+01
 0.1458850028361E+01
 0.1509022673070E+01
 0.1556538502353E+01
 0.1602281271241E+01
 0.1646652160240E+01
 0.1689517670199E+01
 0.1730163044789E+01
 0.1767281660039E+01
 0.1799785143606E+01
 0.3507719932868E+00
 0.5161009941044E+00
 0.6644195211852E+00
 0.7962503783519E+00
 0.9126881339982E+00
 0.1015169482088E+01
 0.1105322155914E+01
 0.1184778378971E+01
 0.1255054131459E+01
 0.1317540515611E+01
 0.1373517428547E+01
 0.1424054677441E+01
 0.1470365190930E+01
 0.1513772452505E+01
 0.1555164037485E+01
 0.1594942822414E+01
 0.1632997077294E+01
 0.1668568209804E+01
 0.1700128088895E+01
 0.1726632011897E+01
 0.3612940353097E+00
 0.5186693111617E+00
 0.6609611686701E+00
 0.7879883202966E+00
 0.9003235321950E+00
 0.9991086917301E+00
 0.1085800133323E+01
 0.1161910606342E+01
 0.1228859253082E+01
 0.1287962649060E+01
 0.1340435342180E+01
 0.1387214604692E+01
 0.1429461180484E+01
 0.1468552336560E+01
 0.1505362739184E+01
 0.1540255004792E+01
 0.1573157417431E+01
 0.1603428929502E+01
 0.1629175313876E+01
 0.1649101178917E+01
 0.3723450435994E+00
 0.5215887177271E+00
 0.6577363652388E+00
 0.7797250874298E+00
 0.8876673389916E+00
 0.9824758026337E+00
 0.1065446478145E+01
 0.1137973534160E+01
 0.1201375629349E+01
 0.1256896556172E+01
 0.1305712578300E+01
 0.1348593943212E+01
 0.1386628466831E+01
 0.1421268456785E+01
 0.1453357431638E+01
 0.1483176944872E+01
 0.1510551775408E+01
 0.1535150227488E+01
 0.1555359824233E+01
 0.1568686222613E+01
 0.3837504052840E+00
 0.5250141894254E+00
 0.6549822987213E+00
 0.7716240475590E+00
 0.8748580359995E+00
 0.9654164166344E+00
 0.1044417656838E+01
 0.1113129787369E+01
 0.1172783547417E+01
 0.1224532252205E+01
 0.1269529560773E+01
 0.1308456651968E+01
 0.1342199062068E+01
 0.1372281761149E+01
 0.1399640405908E+01
 0.1424346750714E+01
 0.1446016063305E+01
 0.1464084439247E+01
 0.1478323370581E+01
 0.1489023572915E+01
 0.1140387621367E+01
 0.4409791885896E+00
 0.9069690591457E-01
 0.4451325709820E-02
 0.5838874022862E-01
 0.9476763579800E-01
 0.1213026755699E+00
 0.1405499142071E+00
 0.1530417279516E+00
 0.1587617642000E+00
 0.1569120545856E+00
 0.1459649850657E+00
 0.1251764462714E+00
 0.9728732527726E-01
 0.6457012847113E-01
 0.2956047369146E-01
 0.7986621737064E-02
 0.3982521580073E-01
 0.7364694024963E-01
 0.1141483804910E+00
 0.1175506530024E+01
 0.8356674414422E+00
 0.3295611903255E+00
 0.1253843322054E+00
 0.3033091826584E-01
 0.2764715688090E-01
 0.6614199330901E-01
 0.9321548805874E-01
 0.1118414795936E+00
 0.1229720323469E+00
 0.1266010455657E+00
 0.1235144173260E+00
 0.1121868387749E+00
 0.9181490459251E-01
 0.6446099967601E-01
 0.3331065854434E-01
 0.4601303622616E-02
 0.3050976009008E-01
 0.6193988418720E-01
 0.9366979977419E-01
 0.1084034067950E+01
 0.9506975337433E+00
 0.5574652388350E+00
 0.2822442161401E+00
 0.1378240584598E+00
 0.5365993712196E-01
 0.1591328535329E-02
 0.3842334140785E-01
 0.6475970893946E-01
 0.8255568130344E-01
 0.9290001698390E-01
 0.9706492493772E-01
 0.9344511654306E-01
 0.7998246547673E-01
 0.5850703848224E-01
 0.3221263989184E-01
 0.5300657460944E-02
 0.2370533210420E-01
 0.5032389347236E-01
 0.7418735260411E-01
 0.9924041060040E+00
 0.9661516569397E+00
 0.6931232656934E+00
 0.4328108581320E+00
 0.2561631320002E+00
 0.1456919197370E+00
 0.7342522270165E-01
 0.2371700927892E-01
 0.1170542778981E-01
 0.3714797235193E-01
 0.5464228550934E-01
 0.6590740275933E-01
 0.6947541881512E-01
 0.6269753056118E-01
 0.4726862232153E-01
 0.2644443247286E-01
 0.3915430208902E-02
 0.1945314267792E-01
 0.4054831040144E-01
 0.5753821507459E-01
 0.9119446843857E+00
 0.9418301153102E+00
 0.7641791158010E+00
 0.5469865711305E+00
 0.3688413157350E+00
 0.2418844347899E+00
 0.1539884062415E+00
 0.9200805628893E-01
 0.4694369430856E-01
 0.1341036525618E-01
 0.1154976596915E-01
 0.2980508902271E-01
 0.4035812951609E-01
 0.4025439125892E-01
 0.3104348150984E-01
 0.1610139268115E-01
 0.1241611835962E-02
 0.1854291099068E-01
 0.3387291865751E-01
 0.4472151605174E-01
 0.8439807102628E+00
 0.9017328370657E+00
 0.7943955346341E+00
 0.6254368062523E+00
 0.4635684657852E+00
 0.3337441450979E+00
 0.2362700682818E+00
 0.1641951055137E+00
 0.1101351284714E+00
 0.6863314345987E-01
 0.3653775235362E-01
 0.1151047882543E-01
 0.6404932732094E-02
 0.1281697126487E-01
 0.9979548012450E-02
 0.1749612887388E-02
 0.1036685197470E-01
 0.2179578991391E-01
 0.3130615051603E-01
 0.3657483931450E-01
 0.7870136829497E+00
 0.8567759002745E+00
 0.7997283976174E+00
 0.6752193630802E+00
 0.5376940167496E+00
 0.4152200554282E+00
 0.3155250825836E+00
 0.2373312930150E+00
 0.1762120559310E+00
 0.1277258468667E+00
 0.8890370953136E-01
 0.5728487438442E-01
 0.3335481731740E-01
 0.2020444827160E-01
 0.1665919055231E-01
 0.1912201663465E-01
 0.2437542081183E-01
 0.2988727751273E-01
 0.3369021864415E-01
 0.3383052397280E-01
 0.7391466023958E+00
 0.8121376521835E+00
 0.7904263121653E+00
 0.7038280244660E+00
 0.5928856084787E+00
 0.4840048667468E+00
 0.3883355847791E+00
 0.3085804056100E+00
 0.2432405387358E+00
 0.1894733986406E+00
 0.1449858996661E+00
 0.1075683626742E+00
 0.7751194269082E-01
 0.5794450949059E-01
 0.4809577056697E-01
 0.4441602134633E-01
 0.4370367520648E-01
 0.4340094879978E-01
 0.4169122354344E-01
 0.3705714721484E-01
 0.6986168241600E+00
 0.7702462739274E+00
 0.7730424888308E+00
 0.7175460176904E+00
 0.6323713340701E+00
 0.5402048160757E+00
 0.4530379648989E+00
 0.3758509311953E+00
 0.3094288282295E+00
 0.2525679043338E+00
 0.2039069750957E+00
 0.1617350312638E+00
 0.1263142427623E+00
 0.1008405624477E+00
 0.8498916204549E-01
 0.7534723726127E-01
 0.6882836593104E-01
 0.6288442351653E-01
 0.5584852491844E-01
 0.4664063087454E-01
 0.6639297941206E+00
 0.7321311083653E+00
 0.7517652932722E+00
 0.7212505328943E+00
 0.6596087134916E+00
 0.5851887626274E+00
 0.5093300976956E+00
 0.4379799683381E+00
 0.3734219978470E+00
 0.3158192101338E+00
 0.2647598084724E+00
 0.2191600833109E+00
 0.1793846493876E+00
 0.1487266431450E+00
 0.1273765922490E+00
 0.1121580103400E+00
 0.1001413548647E+00
 0.8880399971999E-01
 0.7660770419031E-01
 0.6285876363571E-01
 0.6338600556421E+00
 0.6980884559658E+00
 0.7292559408448E+00
 0.7185943441196E+00
 0.6777458942066E+00
 0.6208322942670E+00
 0.5577747500444E+00
 0.4945998046189E+00
 0.4343944355193E+00
 0.3783009145032E+00
 0.3267190248006E+00
 0.2792032301904E+00
 0.2362961640077E+00
 0.2013948990548E+00
 0.1752447594754E+00
 0.1549937446613E+00
 0.1379060474816E+00
 0.1214907242661E+00
 0.1042888607259E+00
 0.8588939455394E-01
 0.6074176216266E+00
 0.6680281894081E+00
 0.7071747043398E+00
 0.7122538858078E+00
 0.6894437717504E+00
 0.6490929969289E+00
 0.5993942155306E+00
 0.5459097721874E+00
 0.4919982692094E+00
 0.4393986145973E+00
 0.3891135015702E+00
 0.3412628082930E+00
 0.2965844070023E+00
 0.2585521547458E+00
 0.2284611437472E+00
 0.2038516408096E+00
 0.1822163415008E+00
 0.1611007791281E+00
 0.1390514941148E+00
 0.1157747808513E+00
 0.5838086793634E+00
 0.6416618372985E+00
 0.6865162005660E+00
 0.7041513124984E+00
 0.6968552196722E+00
 0.6717929017329E+00
 0.6353917423261E+00
 0.5924567113311E+00
 0.5462502801605E+00
 0.4987860158882E+00
 0.4514499071049E+00
 0.4048098289130E+00
 0.3597699630469E+00
 0.3198204479592E+00
 0.2867536163712E+00
 0.2585466621678E+00
 0.2329576252870E+00
 0.2075813049566E+00
 0.1808767180171E+00
 0.1524184390527E+00
 0.5623997858316E+00
 0.6186076195628E+00
 0.6678272303792E+00
 0.6956322623884E+00
 0.7016656830650E+00
 0.6905199968997E+00
 0.6669765591629E+00
 0.6349608446683E+00
 0.5974087926607E+00
 0.5563641398277E+00
 0.5133992820854E+00
 0.4693989186179E+00
 0.4253747543984E+00
 0.3847457000309E+00
 0.3497048800987E+00
 0.3186895306060E+00
 0.2897714294809E+00
 0.2606337306042E+00
 0.2295539476849E+00
 0.1956100069353E+00
 0.5426876610909E+00
 0.5984501358359E+00
 0.6513513530445E+00
 0.6876026015975E+00
 0.7051527916136E+00
 0.7065940086890E+00
 0.6952614886184E+00
 0.6741904604536E+00
 0.6458651220725E+00
 0.6121894270730E+00
 0.5747627243380E+00
 0.5346616643706E+00
 0.4929321615173E+00
 0.4528145568874E+00
 0.4167661593304E+00
 0.3836856048844E+00
 0.3520291644563E+00
 0.3196681722839E+00
 0.2846524162151E+00
 0.2450583818140E+00
 0.5242744069473E+00
 0.5807742847887E+00
 0.6371268776622E+00
 0.6806326276318E+00
 0.7082476086645E+00
 0.7210654990944E+00
 0.7212078042419E+00
 0.7108773586631E+00
 0.6920574384554E+00
 0.6664054854396E+00
 0.6354288425936E+00
 0.6002886663847E+00
 0.5619911529024E+00
 0.5234807627430E+00
 0.4873012599450E+00
 0.4527752239654E+00
 0.4188355687326E+00
 0.3837466470967E+00
 0.3454524869595E+00
 0.3004135264249E+00
 0.5068471633621E+00
 0.5651839932163E+00
 0.6250542071774E+00
 0.6750367704033E+00
 0.7115913105858E+00
 0.7347317463587E+00
 0.7455997568632E+00
 0.7456628967172E+00
 0.7364068697927E+00
 0.7191854270959E+00
 0.6953315402987E+00
 0.6660045660661E+00
 0.6321110100097E+00
 0.5961893587319E+00
 0.5606637415292E+00
 0.5251553750874E+00
 0.4891117166704E+00
 0.4515467700226E+00
 0.4107919513807E+00
 0.3612488009974E+00
 0.4901618868061E+00
 0.5513110384720E+00
 0.6149424427621E+00
 0.6709347420512E+00
 0.7155865458423E+00
 0.7481614696118E+00
 0.7690375714312E+00
 0.7790651574532E+00
 0.7792721971363E+00
 0.7706869644258E+00
 0.7544142931554E+00
 0.7315410959313E+00
 0.7028395711252E+00
 0.6703728637666E+00
 0.6362439599705E+00
 0.6001928983950E+00
 0.5619248577942E+00
 0.5214269362147E+00
 0.4788225040534E+00
 0.4268844791125E+00
 0.4740298186573E+00
 0.5388210079050E+00
 0.6065351355531E+00
 0.6683000899479E+00
 0.7204469292231E+00
 0.7617251380096E+00
 0.7919421805876E+00
 0.8114600518723E+00
 0.8209154336075E+00
 0.8210202544286E+00
 0.8126075655240E+00
 0.7966188050768E+00
 0.7736843392902E+00
 0.7453916797056E+00
 0.7134012929929E+00
 0.6774117713211E+00
 0.6371148333275E+00
 0.5924250570488E+00
 0.5464408128519E+00
 0.4958956912341E+00
 0.4583398604750E+00
 0.5273713634873E+00
 0.5995128811571E+00
 0.6670131794235E+00
 0.7262515919450E+00
 0.7756283470209E+00
 0.8145656271990E+00
 0.8430738894703E+00
 0.8614727460653E+00
 0.8702048808207E+00
 0.8698344486818E+00
 0.8609706101879E+00
 0.8440976062708E+00
 0.8204813965515E+00
 0.7912654915572E+00
 0.7561211679196E+00
 0.7145855599322E+00
 0.6662702994860E+00
 0.6127464986382E+00
 0.5624682021769E+00
 0.3972920641693E+00
 0.5322686067763E+00
 0.6564743011231E+00
 0.7671906097295E+00
 0.8644862565325E+00
 0.9491528462240E+00
 0.1022271273344E+01
 0.1085100329927E+01
 0.1138913440742E+01
 0.1184859499700E+01
 0.1224061457536E+01
 0.1257569496790E+01
 0.1286021563605E+01
 0.1311139140545E+01
 0.1334493964715E+01
 0.1355763131533E+01
 0.1374405104151E+01
 0.1389845929397E+01
 0.1403362256174E+01
 0.1424730911012E+01
 0.4124230640867E+00
 0.5422770223287E+00
 0.6610672891987E+00
 0.7654405853700E+00
 0.8555340172906E+00
 0.9324472709973E+00
 0.9974960328363E+00
 0.1052129685155E+01
 0.1097789218310E+01
 0.1135739359466E+01
 0.1167236780332E+01
 0.1193552973607E+01
 0.1215276122073E+01
 0.1234605205676E+01
 0.1253910499063E+01
 0.1272889080367E+01
 0.1291218058143E+01
 0.1308934157910E+01
 0.1329465011579E+01
 0.1350646270594E+01
 0.4278196580874E+00
 0.5525382129689E+00
 0.6656935330006E+00
 0.7631805659555E+00
 0.8452391202310E+00
 0.9133809035671E+00
 0.9693073896509E+00
 0.1014761250602E+01
 0.1051389685830E+01
 0.1080602232768E+01
 0.1103784813937E+01
 0.1122241754220E+01
 0.1136624829966E+01
 0.1149859448257E+01
 0.1165107824532E+01
 0.1182197348804E+01
 0.1200976510054E+01
 0.1221779370661E+01
 0.1245417644175E+01
 0.1265899071422E+01
 0.4436342886501E+00
 0.5632928815582E+00
 0.6705703195669E+00
 0.7604987267099E+00
 0.8335713977158E+00
 0.8918881586659E+00
 0.9376721731328E+00
 0.9730494080429E+00
 0.9999118389110E+00
 0.1019807733849E+01
 0.1034212322856E+01
 0.1044404077370E+01
 0.1051136872300E+01
 0.1058145183980E+01
 0.1069356122294E+01
 0.1084639553079E+01
 0.1103760608353E+01
 0.1126246687448E+01
 0.1151369662269E+01
 0.1174851340779E+01
 0.4600029706546E+00
 0.5748196538093E+00
 0.6759039740055E+00
 0.7574475714421E+00
 0.8204447845543E+00
 0.8678245956723E+00
 0.9024826703749E+00
 0.9270048998281E+00
 0.9435443903265E+00
 0.9537597626787E+00
 0.9591716300444E+00
 0.9609638771275E+00
 0.9600012738737E+00
 0.9608138604247E+00
 0.9679432217228E+00
 0.9811747965732E+00
 0.9999502548546E+00
 0.1023188648992E+01
 0.1050029361895E+01
 0.1078627596598E+01
 0.4770923035668E+00
 0.5874064921016E+00
 0.6818672727688E+00
 0.7539925325593E+00
 0.8056598696981E+00
 0.8409331399546E+00
 0.8635413510808E+00
 0.8765884975460E+00
 0.8824764715921E+00
 0.8829200425486E+00
 0.8794161453660E+00
 0.8729714776668E+00
 0.8645426118233E+00
 0.8593683454094E+00
 0.8623987194159E+00
 0.8732442335941E+00
 0.8910840274802E+00
 0.9146042072939E+00
 0.9434011185944E+00
 0.9779303135366E+00
 0.4951160355172E+00
 0.6013570473197E+00
 0.6885645414845E+00
 0.7499633283393E+00
 0.7888562809982E+00
 0.8108110900793E+00
 0.8205472352158E+00
 0.8217133028327E+00
 0.8169076270865E+00
 0.8078097906687E+00
 0.7957956089415E+00
 0.7815974186233E+00
 0.7662292454317E+00
 0.7555123400837E+00
 0.7545771377598E+00
 0.7628315840351E+00
 0.7793050924803E+00
 0.8026995253118E+00
 0.8333022105766E+00
 0.8735237251809E+00
 0.5143520369171E+00
 0.6169854040228E+00
 0.6959930492689E+00
 0.7449991384242E+00
 0.7694653119570E+00
 0.7768827596796E+00
 0.7730914400642E+00
 0.7622573331233E+00
 0.7470654717337E+00
 0.7290228945275E+00
 0.7092581789326E+00
 0.6881249790228E+00
 0.6666597240439E+00
 0.6511215066106E+00
 0.6465869485783E+00
 0.6522386530998E+00
 0.6670270599646E+00
 0.6898066561372E+00
 0.7215975153798E+00
 0.7664578089469E+00
 0.5351595910890E+00
 0.6346024343084E+00
 0.7039887194109E+00
 0.7384827648555E+00
 0.7466604237158E+00
 0.7383804635034E+00
 0.7206681229169E+00
 0.6980930077124E+00
 0.6732381143651E+00
 0.6472476400802E+00
 0.6208534207841E+00
 0.5939313372726E+00
 0.5675174353550E+00
 0.5481608177942E+00
 0.5406500135802E+00
 0.5439007160042E+00
 0.5567941929371E+00
 0.5783814294056E+00
 0.6103545611527E+00
 0.6581586253111E+00
 0.5579992140439E+00
 0.6544888477699E+00
 0.7121481189518E+00
 0.7294568431962E+00
 0.7193060728272E+00
 0.6943403744111E+00
 0.6627100854517E+00
 0.6291415897743E+00
 0.5958241372368E+00
 0.5632954811183E+00
 0.5317316853535E+00
 0.5004551274058E+00
 0.4705038454945E+00
 0.4485791495755E+00
 0.4389629279566E+00
 0.4402442515761E+00
 0.4511848447489E+00
 0.4709977930704E+00
 0.5019080546767E+00
 0.5504818036984E+00
 0.5834560530430E+00
 0.6768470540109E+00
 0.7197135714896E+00
 0.7165153497505E+00
 0.6859094633409E+00
 0.6436264917402E+00
 0.5986631743005E+00
 0.5554607330092E+00
 0.5154005055417E+00
 0.4781320133161E+00
 0.4431349753305E+00
 0.4091509295362E+00
 0.3772601155052E+00
 0.3542013574561E+00
 0.3435679124250E+00
 0.3435570470741E+00
 0.3527111479873E+00
 0.3702997163780E+00
 0.3988600243402E+00
 0.4457427406027E+00
 0.6122671052111E+00
 0.7017163040906E+00
 0.7254001576196E+00
 0.6976636566149E+00
 0.6445892574632E+00
 0.5850075471296E+00
 0.5281197081603E+00
 0.4773715299847E+00
 0.4328024424812E+00
 0.3928996057349E+00
 0.3563719717822E+00
 0.3214307050022E+00
 0.2892846446267E+00
 0.2666262940940E+00
 0.2562329273952E+00
 0.2558581612246E+00
 0.2636950571202E+00
 0.2789029275070E+00
 0.3040220076700E+00
 0.3467245280344E+00
 0.6453504737931E+00
 0.7288209691149E+00
 0.7271294608419E+00
 0.6701449763372E+00
 0.5930955700139E+00
 0.5173307764151E+00
 0.4510353747651E+00
 0.3956219078175E+00
 0.3491957086426E+00
 0.3089123028334E+00
 0.2727672854770E+00
 0.2385927931666E+00
 0.2078538981894E+00
 0.1871394132523E+00
 0.1783470576872E+00
 0.1787688634393E+00
 0.1861184006344E+00
 0.1992433610040E+00
 0.2202962729776E+00
 0.2566514950336E+00
 0.6838289771324E+00
 0.7572911989283E+00
 0.7216114370612E+00
 0.6302487140101E+00
 0.5289587164233E+00
 0.4398629267943E+00
 0.3680471014393E+00
 0.3115557898311E+00
 0.2660998809400E+00
 0.2275958964777E+00
 0.1935776920500E+00
 0.1617437209344E+00
 0.1339572534361E+00
 0.1166527765908E+00
 0.1108452604560E+00
 0.1133982122073E+00
 0.1214556239382E+00
 0.1333714456521E+00
 0.1504828487716E+00
 0.1791040754053E+00
 0.7290241601555E+00
 0.7851263893701E+00
 0.7036782291242E+00
 0.5731769544278E+00
 0.4499315011405E+00
 0.3528970776990E+00
 0.2808608918004E+00
 0.2272035393995E+00
 0.1852964506794E+00
 0.1503537483072E+00
 0.1198814451685E+00
 0.9172612001131E-01
 0.6826117183940E-01
 0.5569034400273E-01
 0.5418526007270E-01
 0.6026989608542E-01
 0.7051274611144E-01
 0.8269901032939E-01
 0.9699322769168E-01
 0.1178345564518E+00
 0.7823400747827E+00
 0.8081051200056E+00
 0.6652253994024E+00
 0.4932229916487E+00
 0.3550736579510E+00
 0.2586722584650E+00
 0.1925483504245E+00
 0.1451128555407E+00
 0.1085767873533E+00
 0.7837629262295E-01
 0.5246617275676E-01
 0.2907938155697E-01
 0.1118554255214E-01
 0.4694568240676E-02
 0.8485111657543E-02
 0.1933315785469E-01
 0.3331852900410E-01
 0.4773155974099E-01
 0.6146226597650E-01
 0.7643005869543E-01
 0.8448189622187E+00
 0.8173697247377E+00
 0.5936125405115E+00
 0.3851394398417E+00
 0.2469864743769E+00
 0.1624225922297E+00
 0.1071643488621E+00
 0.6781642533150E-01
 0.3739903645427E-01
 0.1246097060372E-01
 0.8319527925227E-02
 0.2610706435701E-01
 0.3757511705468E-01
 0.3743641987634E-01
 0.2697739443736E-01
 0.1000777324822E-01
 0.9169935250225E-02
 0.2789696278432E-01
 0.4430412387856E-01
 0.5779718893409E-01
 0.9151418258356E+00
 0.7934677692451E+00
 0.4700225615449E+00
 0.2490237181518E+00
 0.1361131800745E+00
 0.7122758335584E-01
 0.2847412235917E-01
 0.2857958026684E-02
 0.2737901217125E-01
 0.4711873484847E-01
 0.6234169416767E-01
 0.7379980031883E-01
 0.7776376973372E-01
 0.6989183054287E-01
 0.5212198303484E-01
 0.2833584531712E-01
 0.3794081148347E-02
 0.2162391434554E-01
 0.4419481667622E-01
 0.6328252074791E-01
 0.9837474215338E+00
 0.6878277838844E+00
 0.2728199122977E+00
 0.1103043829442E+00
 0.3601134285599E-01
 0.9619498859366E-02
 0.4126414600215E-01
 0.6583922519818E-01
 0.8552639995608E-01
 0.1005838513934E+00
 0.1102133305784E+00
 0.1145933530075E+00
 0.1098463153980E+00
 0.9330273406439E-01
 0.6758015986528E-01
 0.3652680038146E-01
 0.6428554140257E-02
 0.2640154873217E-01
 0.5733783691238E-01
 0.9096786869387E-01
 0.9459693770259E+00
 0.3535901524325E+00
 0.7093123485343E-01
 0.3722363953949E-02
 0.4697630216715E-01
 0.7721818858159E-01
 0.1013111829800E+00
 0.1213069413000E+00
 0.1372387661716E+00
 0.1484670047035E+00
 0.1532993588740E+00
 0.1494459493506E+00
 0.1337616682459E+00
 0.1074199423252E+00
 0.7359162187212E-01
 0.3540836604407E-01
 0.7393267345914E-02
 0.4092369743399E-01
 0.7766389418438E-01
 0.1333425094641E+00
 0.5374842999099E+00
 0.4693663611177E+00
 0.4073164645893E+00
 0.3492528368336E+00
 0.2946397912513E+00
 0.2439287931241E+00
 0.1977673723401E+00
 0.1568089417162E+00
 0.1216237203427E+00
 0.9265772809883E-01
 0.7020530957168E-01
 0.5439291488711E-01
 0.4518394238700E-01
 0.4240108621404E-01
 0.4571239605539E-01
 0.5458762834542E-01
 0.6833857551743E-01
 0.8623770365494E-01
 0.1076312482556E+00
 0.1330187228919E+00
 0.5854221656465E+00
 0.5214091531063E+00
 0.4544932228932E+00
 0.3897756155794E+00
 0.3286962258698E+00
 0.2718976687060E+00
 0.2199640437812E+00
 0.1734998114164E+00
 0.1331128615505E+00
 0.9936512722796E-01
 0.7271837979098E-01
 0.5348311957030E-01
 0.4179148172478E-01
 0.3762555867128E-01
 0.4082923118989E-01
 0.5099833193650E-01
 0.6749048718733E-01
 0.8960841214580E-01
 0.1168614450780E+00
 0.1491003712393E+00
 0.6351752425098E+00
 0.5715213989102E+00
 0.5041604100576E+00
 0.4362494334960E+00
 0.3703637548288E+00
 0.3079508964483E+00
 0.2500074372432E+00
 0.1973799214425E+00
 0.1508654321106E+00
 0.1112234487082E+00
 0.7914175878876E-01
 0.5517670218993E-01
 0.3968756368121E-01
 0.3283934625729E-01
 0.3470533545550E-01
 0.4511457754773E-01
 0.6346122907166E-01
 0.8894508147772E-01
 0.1207519377628E+00
 0.1579730778589E+00
 0.6900642751471E+00
 0.6249554306560E+00
 0.5568528827056E+00
 0.4871802960552E+00
 0.4179530768227E+00
 0.3508952634008E+00
 0.2873533812521E+00
 0.2284756287094E+00
 0.1753265139100E+00
 0.1289324700356E+00
 0.9027532137301E-01
 0.6024285093197E-01
 0.3953412915558E-01
 0.2856014477174E-01
 0.2760797761599E-01
 0.3694384780904E-01
 0.5614119056188E-01
 0.8422342511338E-01
 0.1200391421600E+00
 0.1623426997494E+00
 0.7503961323444E+00
 0.6837099361011E+00
 0.6145185714458E+00
 0.5433527587306E+00
 0.4715623040978E+00
 0.4006639051687E+00
 0.3320897887452E+00
 0.2671710400158E+00
 0.2071949699711E+00
 0.1534471011025E+00
 0.1072206915629E+00
 0.6978830418543E-01
 0.4231660941794E-01
 0.2565675776773E-01
 0.2018659967189E-01
 0.2668641761007E-01
 0.4548438602705E-01
 0.7548124535475E-01
 0.1151952086745E+00
 0.1630261179744E+00
 0.8160109917465E+00
 0.7483825874079E+00
 0.6782834139261E+00
 0.6058806161762E+00
 0.5320353952276E+00
 0.4579502779358E+00
 0.3849430289916E+00
 0.3143699887254E+00
 0.2476292434017E+00
 0.1861875583132E+00
 0.1315994091485E+00
 0.8550578082715E-01
 0.4960221500540E-01
 0.2550664897960E-01
 0.1402043551185E-01
 0.1514834196678E-01
 0.3158944576748E-01
 0.6263242532394E-01
 0.1062484357088E+00
 0.1602302823771E+00
 0.8866293278768E+00
 0.8190261745338E+00
 0.7486468974639E+00
 0.6755392279326E+00
 0.6002531161365E+00
 0.5236926338434E+00
 0.4469739863435E+00
 0.3713530468826E+00
 0.2982130111587E+00
 0.2290839872601E+00
 0.1656728914081E+00
 0.1098925013724E+00
 0.6389596642059E-01
 0.3018830830117E-01
 0.1189795661804E-01
 0.6881425159082E-02
 0.1507589898701E-01
 0.4541964764518E-01
 0.9277554401155E-01
 0.1538036729864E+00
 0.9619201689572E+00
 0.8954671487275E+00
 0.8257582223962E+00
 0.7528055864593E+00
 0.6769582415267E+00
 0.5988667896363E+00
 0.5194152096005E+00
 0.4396770255745E+00
 0.3609086935926E+00
 0.2845731985421E+00
 0.2123835599592E+00
 0.1463613794540E+00
 0.8892451699857E-01
 0.4314008907361E-01
 0.1473010189133E-01
 0.1245982937488E-01
 0.6416318348938E-02
 0.2385460086708E-01
 0.7413940218881E-01
 0.1440814748515E+00
 0.1041480504228E+01
 0.9773944843175E+00
 0.9095476478982E+00
 0.8379300001922E+00
 0.7627463348056E+00
 0.6844333696910E+00
 0.6036390600077E+00
 0.5212059712121E+00
 0.4381764069962E+00
 0.3558229436032E+00
 0.2757035041441E+00
 0.1997424631255E+00
 0.1303524609724E+00
 0.7068823376570E-01
 0.2603873156791E-01
 0.1649147087434E-01
 0.2091613165310E-01
 0.3514429429331E-02
 0.4975864031255E-01
 0.1311124280659E+00
 0.1124747432177E+01
 0.1064237599877E+01
 0.9995643917852E+00
 0.9306827659413E+00
 0.8576855923877E+00
 0.7808332152363E+00
 0.7005559744060E+00
 0.6174539775365E+00
 0.5323093427006E+00
 0.4461184319544E+00
 0.3601486095174E+00
 0.2760257554314E+00
 0.1958668345338E+00
 0.1225024018084E+00
 0.6004094290738E-01
 0.1864302500256E-01
 0.2440910362687E-01
 0.2086656466993E-01
 0.2153063166809E-01
 0.1124779210316E+00
 0.1210978288667E+01
 0.1155160200190E+01
 0.1094941364212E+01
 0.1030239223522E+01
 0.9610647539675E+00
 0.8875476398298E+00
 0.8099462233729E+00
 0.7286536914948E+00
 0.6442108839989E+00
 0.5573329786573E+00
 0.4689560613475E+00
 0.3803112909567E+00
 0.2930400131188E+00
 0.2093764700206E+00
 0.1324627202497E+00
 0.6704015475136E-01
 0.2262315291543E-01
 0.1645526731225E-01
 0.8696512354216E-02
 0.9130929506663E-01
 0.1299246603763E+01
 0.1249070788757E+01
 0.1194428620776E+01
 0.1135214125448E+01
 0.1071390340812E+01
 0.1003009416617E+01
 0.9302246331385E+00
 0.8532997462824E+00
 0.7726219870372E+00
 0.6887242733063E+00
 0.6023219763826E+00
 0.5143710938780E+00
 0.4261587733344E+00
 0.3394452951940E+00
 0.2566918823207E+00
 0.1814359292537E+00
 0.1189115060946E+00
 0.7705178456754E-01
 0.6922655552904E-01
 0.1269004667638E+00
 0.1388475547714E+01
 0.1344665401077E+01
 0.1296463584672E+01
 0.1243755389017E+01
 0.1186481588298E+01
 0.1124656467513E+01
 0.1058381515633E+01
 0.9878577820822E+00
 0.9134008138002E+00
 0.8354620222279E+00
 0.7546603715441E+00
 0.6718291037430E+00
 0.5880843076032E+00
 0.5049261209481E+00
 0.4243904121155E+00
 0.3492814633632E+00
 0.2835420340253E+00
 0.2328779685736E+00
 0.2059869649870E+00
 0.2166058656718E+00
 0.1477496987173E+01
 0.1440513520096E+01
 0.1399302477390E+01
 0.1353742834383E+01
 0.1303758343020E+01
 0.1249334437916E+01
 0.1190532134180E+01
 0.1127500793002E+01
 0.1060491950428E+01
 0.9898761714606E+00
 0.9161644560294E+00
 0.8400352229406E+00
 0.7623671529349E+00
 0.6842764987446E+00
 0.6071530831153E+00
 0.5326770193581E+00
 0.4627633559204E+00
 0.3992679565965E+00
 0.3428796209052E+00
 0.2879921434665E+00
 0.1565115226704E+01
 0.1535154405051E+01
 0.1501168277358E+01
 0.1463018392636E+01
 0.1420598022492E+01
 0.1373846839286E+01
 0.1322762381130E+01
 0.1267409295935E+01
 0.1207927069670E+01
 0.1144536240320E+01
 0.1077541950914E+01
 0.1007331870543E+01
 0.9343623684974E+00
 0.8591209278371E+00
 0.7820408779221E+00
 0.7033193906873E+00
 0.6225317903074E+00
 0.5378057874407E+00
 0.4439379520415E+00
 0.3290874139709E+00
 0.1650159265741E+01
 0.1627172299540E+01
 0.1600358945891E+01
 0.1569543400705E+01
 0.1534564358927E+01
 0.1495285857116E+01
 0.1451604050274E+01
 0.1403450144850E+01
 0.1350789022002E+01
 0.1293612037668E+01
 0.1231920918221E+01
 0.1165697266361E+01
 0.1094848334547E+01
 0.1019113261648E+01
 0.9379029644307E+00
 0.8500279392924E+00
 0.7532403435654E+00
 0.6434842357435E+00
 0.5139223016062E+00
 0.3550408297493E+00
 0.1731519826445E+01
 0.1715246165625E+01
 0.1695313294647E+01
 0.1671485123288E+01
 0.1643519187365E+01
 0.1611172538101E+01
 0.1574202792900E+01
 0.1532364028855E+01
 0.1485396387952E+01
 0.1433007175236E+01
 0.1374839750525E+01
 0.1310424468210E+01
 0.1239103073713E+01
 0.1159914150338E+01
 0.1071422723789E+01
 0.9714749487651E+00
 0.8568695528152E+00
 0.7230148036807E+00
 0.5639423583941E+00
 0.3740268933398E+00
 0.1808173389167E+01
 0.1798179174818E+01
 0.1784645721206E+01
 0.1767255763110E+01
 0.1745662878177E+01
 0.1719492133230E+01
 0.1688335632673E+01
 0.1651742447321E+01
 0.1609201678934E+01
 0.1560116560032E+01
 0.1503766500544E+01
 0.1439252901916E+01
 0.1365423569565E+01
 0.1280770318408E+01
 0.1183296813788E+01
 0.1070363784623E+01
 0.9385508039283E+00
 0.7836613697849E+00
 0.6012189364166E+00
 0.3889590693834E+00
 0.1879196095956E+01
 0.1874912956113E+01
 0.1867158839302E+01
 0.1855520043916E+01
 0.1839531182925E+01
 0.1818670949981E+01
 0.1792353242396E+01
 0.1759913241368E+01
 0.1720587487150E+01
 0.1673486539757E+01
 0.1617558471331E+01
 0.1551541372180E+01
 0.1473903710713E+01
 0.1382773716481E+01
 0.1275864899710E+01
 0.1150418470455E+01
 0.1003212675480E+01
 0.8307513214161E+00
 0.6299523939348E+00
 0.4011634956948E+00
 0.1943769799212E+01
 0.1944530483505E+01
 0.1941840386510E+01
 0.1935181945178E+01
 0.1923965663361E+01
 0.1907521538635E+01
 0.1885087243811E+01
 0.1855792697870E+01
 0.1818640529604E+01
 0.1772481960948E+01
 0.1715987831752E+01
 0.1647615129392E+01
 0.1565570907694E+01
 0.1467778624560E+01
 0.1351857953635E+01
 0.1215140124229E+01
 0.1054761357933E+01
 0.8679296731706E+00
 0.6527037033952E+00
 0.4114276033716E+00
 0.2001183027158E+01
 0.2006251721288E+01
 0.2007849907638E+01
 0.2005358202603E+01
 0.1998068105436E+01
 0.1985170119962E+01
 0.1965740556846E+01
 0.1938726494924E+01
 0.1902928995299E+01
 0.1856984987194E+01
 0.1799348758306E+01
 0.1728274883905E+01
 0.1641806012012E+01
 0.1537771597260E+01
 0.1413808064828E+01
 0.1267418347628E+01
 0.1096105038072E+01
 0.8976678695978E+00
 0.6710369360905E+00
 0.4201182258586E+00
 0.2050827537786E+01
 0.2059422213001E+01
 0.2064496416092E+01
 0.2065340243988E+01
 0.2061140172238E+01
 0.2050965939371E+01
 0.2033757154604E+01
 0.2008309772246E+01
 0.1973263063816E+01
 0.1927088223337E+01
 0.1868080334105E+01
 0.1794356249569E+01
 0.1703862121148E+01
 0.1594396024168E+01
 0.1463653829011E+01
 0.1309311874990E+01
 0.1129175968282E+01
 0.9214890012386E+00
 0.6858055374784E+00
 0.4271616488285E+00
 0.2092188851912E+01
 0.2103494430323E+01
 0.2111210565015E+01
 0.2114553807544E+01
 0.2112626404818E+01
 0.2104403018575E+01
 0.2088717837501E+01
 0.2064252800394E+01
 0.2029528049978E+01
 0.1982896233614E+01
 0.1922542815425E+01
 0.1846495173512E+01
 0.1752643948027E+01
 0.1638780983736E+01
 0.1502659813707E+01
 0.1342089248363E+01
 0.1155087297264E+01
 0.9401906382609E+00
 0.6973518434966E+00
 0.4323110009438E+00
 0.2124845560652E+01
 0.2138024023670E+01
 0.2147535444293E+01
 0.2152543428981E+01
 0.2152091367539E+01
 0.2145089232512E+01
 0.2130301242012E+01
 0.2106335312995E+01
 0.2071635704134E+01
 0.2024480731519E+01
 0.1962987920790E+01
 0.1885129400423E+01
 0.1788760719607E+01
 0.1671666691319E+01
 0.1531628958678E+01
 0.1366524305856E+01
 0.1174479783534E+01
 0.9541806986779E+00
 0.7057729021250E+00
 0.4353491082661E+00
 0.2148463999663E+01
 0.2162661387323E+01
 0.2173112703909E+01
 0.2178951717900E+01
 0.2179191068312E+01
 0.2172709198206E+01
 0.2158238206300E+01
 0.2134353508890E+01
 0.2099466748383E+01
 0.2051823903291E+01
 0.1989511026221E+01
 0.1910470454273E+01
 0.1812530694145E+01
 0.1693453589932E+01
 0.1551003455600E+01
 0.1383047060014E+01
 0.1187710018610E+01
 0.9636842204902E+00
 0.7111274131175E+00
 0.4361919615059E+00
 0.2162793110001E+01
 0.2177143231475E+01
 0.2187669905237E+01
 0.2193501280167E+01
 0.2193648454900E+01
 0.2186992611614E+01
 0.2172272655954E+01
 0.2148073930873E+01
 0.2112819275059E+01
 0.2064764283876E+01
 0.2001999149342E+01
 0.1922459987181E+01
 0.1823953181988E+01
 0.1704197131766E+01
 0.1560887361691E+01
 0.1391795398665E+01
 0.1194927632626E+01
 0.9688364298029E+00
 0.7135143032808E+00
 0.4348872043631E+00
 0.2167662111627E+01
 0.2181288205101E+01
 0.2191013666272E+01
 0.2195984872734E+01
 0.2195239978355E+01
 0.2187696660392E+01
 0.2172139449029E+01
 0.2147206579610E+01
 0.2111377332305E+01
 0.2062961498110E+01
 0.2000093133936E+01
 0.1920731423993E+01
 0.1822672498798E+01
 0.1703577739878E+01
 0.1561026882493E+01
 0.1392609747972E+01
 0.1196085965612E+01
 0.9697033253401E+00
 0.7130850388657E+00
 0.4316052376373E+00
 0.2162980796651E+01
 0.2174996416774E+01
 0.2183028591601E+01
 0.2186263745086E+01
 0.2183793069379E+01
 0.2174602117147E+01
 0.2157558359222E+01
 0.2131395771873E+01
 0.2094697200555E+01
 0.2045875913984E+01
 0.1983158058864E+01
 0.1904568267318E+01
 0.1807921971513E+01
 0.1690830551524E+01
 0.1550730028261E+01
 0.1384952099624E+01
 0.1190873686893E+01
 0.9662382520592E+00
 0.7100330094639E+00
 0.4266647528332E+00
 0.2148742627624E+01
 0.2158253351557E+01
 0.2163682924312E+01
 0.2164275525455E+01
 0.2159196182602E+01
 0.2147525056059E+01
 0.2128246532990E+01
 0.2100231638280E+01
 0.2062214946376E+01
 0.2012767456051E+01
 0.1950266392543E+01
 0.1872862814384E+01
 0.1778448935263E+01
 0.1664629994928E+01
 0.1528711602515E+01
 0.1367725333663E+01
 0.1178538361870E+01
 0.9581514344915E+00
 0.7045490845371E+00
 0.4205923629063E+00
 0.2125030014676E+01
 0.2131137467282E+01
 0.2133040744900E+01
 0.2130051867668E+01
 0.2121421899543E+01
 0.2106345170965E+01
 0.2083951441396E+01
 0.2053286059661E+01
 0.2013281613098E+01
 0.1962723145687E+01
 0.1900206846194E+01
 0.1824090702902E+01
 0.1732435599891E+01
 0.1622937310285E+01
 0.1492855523239E+01
 0.1338959439101E+01
 0.1157540833681E+01
 0.9446163902804E+00
 0.6966828343616E+00
 0.4142142787998E+00
 0.2092021130333E+01
 0.2093832523415E+01
 0.2091283210551E+01
 0.2083748788541E+01
 0.2070566092139E+01
 0.2051054361242E+01
 0.2024509706220E+01
 0.1990181425333E+01
 0.1947238867956E+01
 0.1894732127849E+01
 0.1831544900006E+01
 0.1756334750312E+01
 0.1667454361419E+01
 0.1562846899793E+01
 0.1439910438161E+01
 0.1295334660858E+01
 0.1124940713643E+01
 0.9236462685654E+00
 0.6859351398849E+00
 0.4087154367341E+00
 0.2049997569949E+01
 0.2046647719345E+01
 0.2038742489876E+01
 0.2025691292549E+01
 0.2006903217742E+01
 0.1981825698819E+01
 0.1949933926777E+01
 0.1910698547311E+01
 0.1863548326597E+01
 0.1807831661430E+01
 0.1742772875096E+01
 0.1667414745392E+01
 0.1580535972481E+01
 0.1480528957748E+01
 0.1365218457743E+01
 0.1231596302760E+01
 0.1075449080174E+01
 0.8909029606077E+00
 0.6702165752648E+00
 0.4054205447723E+00
 0.1999355821198E+01
 0.1990054257521E+01
 0.1975950113647E+01
 0.1956427670712E+01
 0.1930949460683E+01
 0.1899093720130E+01
 0.1860520288572E+01
 0.1814921399848E+01
 0.1761981154804E+01
 0.1701345750591E+01
 0.1632595269248E+01
 0.1555205239462E+01
 0.1468484136216E+01
 0.1371468674251E+01
 0.1262748599702E+01
 0.1140172258844E+01
 0.1000347005534E+01
 0.8377837870257E+00
 0.6435354797107E+00
 0.4044198982404E+00
 0.1940632476837E+01
 0.1924731629880E+01
 0.1903677556166E+01
 0.1876762651259E+01
 0.1843499680078E+01
 0.1803612858903E+01
 0.1756949039618E+01
 0.1703400485029E+01
 0.1642867000319E+01
 0.1575244799581E+01
 0.1500426067296E+01
 0.1418294698764E+01
 0.1328707225809E+01
 0.1231445989157E+01
 0.1126122538700E+01
 0.1011987130075E+01
 0.8875459018118E+00
 0.7497564822437E+00
 0.5921242974738E+00
 0.4002159343104E+00
 0.1874496475225E+01
 0.1851514142822E+01
 0.1822842267702E+01
 0.1787640454563E+01
 0.1745520314137E+01
 0.1696403685340E+01
 0.1640325913720E+01
 0.1577336497903E+01
 0.1507477042732E+01
 0.1430803542341E+01
 0.1347420390732E+01
 0.1257515570669E+01
 0.1161394822899E+01
 0.1059515838584E+01
 0.9525237782909E+00
 0.8412852671144E+00
 0.7269047988756E+00
 0.6106475770879E+00
 0.4935114234121E+00
 0.3728779529702E+00
 0.1801801730886E+01
 0.1771447405053E+01
 0.1734566984113E+01
 0.1690228383162E+01
 0.1638318950611E+01
 0.1579045466810E+01
 0.1512627681361E+01
 0.1439199329828E+01
 0.1358850955366E+01
 0.1271694511888E+01
 0.1177927249260E+01
 0.1077895849428E+01
 0.9721707268146E+00
 0.8616474796349E+00
 0.7477037057778E+00
 0.6324634504534E+00
 0.5192720034246E+00
 0.4136224161615E+00
 0.3251734252717E+00
 0.2736500357548E+00
 0.1723683562086E+01
 0.1685872465456E+01
 0.1640190847792E+01
 0.1585974129924E+01
 0.1523702958000E+01
 0.1454001527779E+01
 0.1377191434264E+01
 0.1293417425932E+01
 0.1202784452898E+01
 0.1105462083765E+01
 0.1001771510625E+01
 0.8922740338903E+00
 0.7778830476054E+00
 0.6600274686223E+00
 0.5409115375274E+00
 0.4239531200165E+00
 0.3145697165998E+00
 0.2216827654420E+00
 0.1609670121813E+00
 0.1641353454304E+00
 0.1641582124348E+01
 0.1596240022392E+01
 0.1540989279926E+01
 0.1476283244690E+01
 0.1403914750341E+01
 0.1324616577357E+01
 0.1238637165420E+01
 0.1146115519264E+01
 0.1047257725903E+01
 0.9424507518106E+00
 0.8323589815084E+00
 0.7180369102819E+00
 0.6010816202937E+00
 0.4838517783023E+00
 0.3697911584863E+00
 0.2639190381686E+00
 0.1735923773706E+00
 0.1097613369829E+00
 0.8915213566497E-01
 0.1348803007736E+00
 0.1557597253353E+01
 0.1503710343145E+01
 0.1436892567703E+01
 0.1362457214492E+01
 0.1281791074089E+01
 0.1195040249929E+01
 0.1102317414677E+01
 0.1003879971600E+01
 0.9002228735139E+00
 0.7921423394705E+00
 0.6808198061125E+00
 0.5679379835094E+00
 0.4558392266346E+00
 0.3477350368346E+00
 0.2479731073561E+00
 0.1623562839342E+00
 0.9847890168991E-01
 0.6602813569379E-01
 0.7669971136213E-01
 0.1388953737953E+00
 0.1472035445651E+01
 0.1402030649352E+01
 0.1326972625644E+01
 0.1247189331854E+01
 0.1161597223253E+01
 0.1070294655485E+01
 0.9737432911387E+00
 0.8726832661465E+00
 0.7681094424154E+00
 0.6613153978765E+00
 0.5539667614060E+00
 0.4481983777297E+00
 0.3467306654025E+00
 0.2529964582595E+00
 0.1712532732793E+00
 0.1066189033993E+00
 0.6490373958548E-01
 0.5211384964924E-01
 0.7250220816675E-01
 0.1269177898222E+00
</DataArray>
<DataArray type="Float64" Name="CK" NumberOfComponents="1" ComponentName0="CK" format="ascii">
 0.0000000000000E+00
 0.0000000000000E+00
 0.0000000000000E+00
 0.0000000000000E+00
 0.0000000000000E+00
 0.0000000000000E+00
 0.0000000000000E+00
 0.0000000000000E+00
 0.0000000000000E+00
 0.0000000000000E+00
 0.0000000000000E+00
 0.0000000000000E+00
 0.0000000000000E+00
 0.0000000000000E+00
 0.0000000000000E+00
 0.0000000000000E+00
 0.0000000000000E+00
 0.0000000000000E+00
 0.0000000000000E+00
 0.0000000000000E+00
 0.0000000000000E+00
 0.0000000000000E+00
 0.0000000000000E+00
 0.0000000000000E+00
 0.0000000000000E+00
 0.0000000000000E+00
 0.0000000000000E+00
 0.0000000000000E+00
 0.0000000000000E+00
 0.0000000000000E+00
 0.0000000000000E+00
 0.0000000000000E+00
 0.0000000000000E+00
 0.0000000000000E+00
 0.0000000000000E+00
 0.0000000000000E+00
 0.0000000000000E+00
 0.0000000000000E+00
 0.0000000000000E+00
 0.0000000000000E+00
 0.0000000000000E+00
 0.0000000000000E+00
 0.0000000000000E+00
 0.0000000000000E+00
 0.0000000000000E+00
 0.0000000000000E+00
 0.0000000000000E+00
 0.0000000000000E+00
 0.0000000000000E+00
 0.0000000000000E+00
 0.0000000000000E+00
 0.0000000000000E+00
 0.0000000000000E+00
 0.0000000000000E+00
 0.0000000000000E+00
 0.0000000000000E+00
 0.0000000000000E+00
 0.0000000000000E+00
 0.0000000000000E+00
 0.0000000000000E+00
 0.0000000000000E+00
 0.0000000000000E+00
 0.0000000000000E+00
 0.0000000000000E+00
 0.0000000000000E+00
 0.0000000000000E+00
 0.0000000000000E+00
 0.0000000000000E+00
 0.0000000000000E+00
 0.0000000000000E+00
 0.0000000000000E+00
 0.0000000000000E+00
 0.0000000000000E+00
 0.0000000000000E+00
 0.0000000000000E+00
 0.0000000000000E+00
 0.0000000000000E+00
 0.0000000000000E+00
 0.0000000000000E+00
 0.0000000000000E+00
 0.0000000000000E+00
 0.0000000000000E+00
 0.0000000000000E+00
 0.0000000000000E+00
 0.0000000000000E+00
 0.0000000000000E+00
 0.0000000000000E+00
 0.0000000000000E+00
 0.0000000000000E+00
 0.0000000000000E+00
 0.0000000000000E+00
 0.0000000000000E+00
 0.0000000000000E+00
 0.0000000000000E+00
 0.0000000000000E+00
 0.0000000000000E+00
 0.0000000000000E+00
 0.0000000000000E+00
 0.0000000000000E+00
 0.0000000000000E+00
 0.0000000000000E+00
 0.0000000000000E+00
 0.0000000000000E+00
 0.0000000000000E+00
 0.0000000000000E+00
 0.0000000000000E+00
 0.0000000000000E+00
 0.0000000000000E+00
 0.0000000000000E+00
 0.0000000000000E+00
 0.0000000000000E+00
 0.0000000000000E+00
 0.0000000000000E+00
 0.0000000000000E+00
 0.0000000000000E+00
 0.0000000000000E+00
 0.0000000000000E+00
 0.0000000000000E+00
 0.0000000000000E+00
 0.0000000000000E+00
 0.0000000000000E+00
 0.0000000000000E+00
 0.0000000000000E+00
 0.0000000000000E+00
 0.0000000000000E+00
 0.0000000000000E+00
 0.0000000000000E+00
 0.0000000000000E+00
 0.0000000000000E+00
 0.0000000000000E+00
 0.0000000000000E+00
 0.0000000000000E+00
 0.0000000000000E+00
 0.0000000000000E+00
 0.0000000000000E+00
 0.0000000000000E+00
 0.0000000000000E+00
 0.0000000000000E+00
 0.0000000000000E+00
 0.0000000000000E+00
 0.0000000000000E+00
 0.0000000000000E+00
 0.0000000000000E+00
 0.0000000000000E+00
 0.0000000000000E+00
 0.0000000000000E+00
 0.0000000000000E+00
 0.0000000000000E+00
 0.0000000000000E+00
 0.0000000000000E+00
 0.0000000000000E+00
 0.0000000000000E+00
 0.0000000000000E+00
 0.0000000000000E+00
 0.0000000000000E+00
 0.0000000000000E+00
 0.0000000000000E+00
 0.0000000000000E+00
 0.0000000000000E+00
 0.0000000000000E+00
 0.0000000000000E+00
 0.0000000000000E+00
 0.0000000000000E+00
 0.0000000000000E+00
 0.0000000000000E+00
 0.0000000000000E+00
 0.0000000000000E+00
 0.0000000000000E+00
 0.0000000000000E+00
 0.0000000000000E+00
 0.0000000000000E+00
 0.0000000000000E+00
 0.0000000000000E+00
 0.0000000000000E+00
 0.0000000000000E+00
 0.0000000000000E+00
 0.0000000000000E+00
 0.0000000000000E+00
 0.0000000000000E+00
 0.0000000000000E+00
 0.0000000000000E+00
 0.0000000000000E+00
 0.0000000000000E+00
 0.0000000000000E+00
 0.0000000000000E+00
 0.0000000000000E+00
 0.0000000000000E+00
 0.0000000000000E+00
 0.0000000000000E+00
 0.0000000000000E+00
 0.0000000000000E+00
 0.0000000000000E+00
 0.0000000000000E+00
 0.0000000000000E+00
 0.0000000000000E+00
 0.0000000000000E+00
 0.0000000000000E+00
 0.0000000000000E+00
 0.0000000000000E+00
 0.0000000000000E+00
 0.0000000000000E+00
 0.0000000000000E+00
 0.0000000000000E+00
 0.0000000000000E+00
 0.0000000000000E+00
 0.0000000000000E+00
 0.0000000000000E+00
 0.0000000000000E+00
 0.0000000000000E+00
 0.0000000000000E+00
 0.0000000000000E+00
 0.0000000000000E+00
 0.0000000000000E+00
 0.0000000000000E+00
 0.0000000000000E+00
 0.0000000000000E+00
 0.0000000000000E+00
 0.0000000000000E+00
 0.0000000000000E+00
 0.0000000000000E+00
 0.0000000000000E+00
 0.0000000000000E+00
 0.0000000000000E+00
 0.0000000000000E+00
 0.0000000000000E+00
 0.0000000000000E+00
 0.0000000000000E+00
 0.0000000000000E+00
 0.0000000000000E+00
 0.0000000000000E+00
 0.0000000000000E+00
 0.0000000000000E+00
 0.0000000000000E+00
 0.0000000000000E+00
 0.0000000000000E+00
 0.0000000000000E+00
 0.0000000000000E+00
 0.0000000000000E+00
 0.0000000000000E+00
 0.0000000000000E+00
 0.0000000000000E+00
 0.0000000000000E+00
 0.0000000000000E+00
 0.0000000000000E+00
 0.0000000000000E+00
 0.0000000000000E+00
 0.0000000000000E+00
 0.0000000000000E+00
 0.0000000000000E+00
 0.0000000000000E+00
 0.0000000000000E+00
 0.0000000000000E+00
 0.0000000000000E+00
 0.0000000000000E+00
 0.0000000000000E+00
 0.0000000000000E+00
 0.0000000000000E+00
 0.0000000000000E+00
 0.0000000000000E+00
 0.0000000000000E+00
 0.0000000000000E+00
 0.0000000000000E+00
 0.0000000000000E+00
 0.0000000000000E+00
 0.0000000000000E+00
 0.0000000000000E+00
 0.0000000000000E+00
 0.0000000000000E+00
 0.0000000000000E+00
 0.0000000000000E+00
 0.0000000000000E+00
 0.0000000000000E+00
 0.0000000000000E+00
 0.0000000000000E+00
 0.0000000000000E+00
 0.0000000000000E+00
 0.0000000000000E+00
 0.0000000000000E+00
 0.0000000000000E+00
 0.0000000000000E+00
 0.0000000000000E+00
 0.0000000000000E+00
 0.0000000000000E+00
 0.0000000000000E+00
 0.0000000000000E+00
 0.0000000000000E+00
 0.0000000000000E+00
 0.0000000000000E+00
 0.0000000000000E+00
 0.0000000000000E+00
 0.0000000000000E+00
 0.0000000000000E+00
 0.0000000000000E+00
 0.0000000000000E+00
 0.0000000000000E+00
 0.0000000000000E+00
 0.0000000000000E+00
 0.0000000000000E+00
 0.0000000000000E+00
 0.0000000000000E+00
 0.0000000000000E+00
 0.0000000000000E+00
 0.0000000000000E+00
 0.0000000000000E+00
 0.0000000000000E+00
 0.0000000000000E+00
 0.0000000000000E+00
 0.0000000000000E+00
 0.0000000000000E+00
 0.0000000000000E+00
 0.0000000000000E+00
 0.0000000000000E+00
 0.0000000000000E+00
 0.0000000000000E+00
 0.0000000000000E+00
 0.0000000000000E+00
 0.0000000000000E+00
 0.0000000000000E+00
 0.0000000000000E+00
 0.0000000000000E+00
 0.0000000000000E+00
 0.0000000000000E+00
 0.0000000000000E+00
 0.0000000000000E+00
 0.0000000000000E+00
 0.0000000000000E+00
 0.0000000000000E+00
 0.0000000000000E+00
 0.0000000000000E+00
 0.0000000000000E+00
 0.0000000000000E+00
 0.0000000000000E+00
 0.0000000000000E+00
 0.0000000000000E+00
 0.0000000000000E+00
 0.0000000000000E+00
 0.0000000000000E+00
 0.0000000000000E+00
 0.0000000000000E+00
 0.0000000000000E+00
 0.0000000000000E+00
 0.0000000000000E+00
 0.0000000000000E+00
 0.0000000000000E+00
 0.0000000000000E+00
 0.0000000000000E+00
 0.0000000000000E+00
 0.0000000000000E+00
 0.0000000000000E+00
 0.0000000000000E+00
 0.0000000000000E+00
 0.0000000000000E+00
 0.0000000000000E+00
 0.0000000000000E+00
 0.0000000000000E+00
 0.0000000000000E+00
 0.0000000000000E+00
 0.0000000000000E+00
 0.0000000000000E+00
 0.0000000000000E+00
 0.0000000000000E+00
 0.0000000000000E+00
 0.0000000000000E+00
 0.0000000000000E+00
 0.0000000000000E+00
 0.0000000000000E+00
 0.0000000000000E+00
 0.0000000000000E+00
 0.0000000000000E+00
 0.0000000000000E+00
 0.0000000000000E+00
 0.0000000000000E+00
 0.0000000000000E+00
 0.0000000000000E+00
 0.0000000000000E+00
 0.0000000000000E+00
 0.0000000000000E+00
 0.0000000000000E+00
 0.0000000000000E+00
 0.0000000000000E+00
 0.0000000000000E+00
 0.0000000000000E+00
 0.0000000000000E+00
 0.0000000000000E+00
 0.0000000000000E+00
 0.0000000000000E+00
 0.0000000000000E+00
 0.0000000000000E+00
 0.0000000000000E+00
 0.0000000000000E+00
 0.0000000000000E+00
 0.0000000000000E+00
 0.0000000000000E+00
 0.0000000000000E+00
 0.0000000000000E+00
 0.0000000000000E+00
 0.0000000000000E+00
 0.0000000000000E+00
 0.0000000000000E+00
 0.0000000000000E+00
 0.0000000000000E+00
 0.0000000000000E+00
 0.0000000000000E+00
 0.0000000000000E+00
 0.0000000000000E+00
 0.0000000000000E+00
 0.0000000000000E+00
 0.0000000000000E+00
 0.0000000000000E+00
 0.0000000000000E+00
 0.0000000000000E+00
 0.0000000000000E+00
 0.0000000000000E+00
 0.0000000000000E+00
 0.0000000000000E+00
 0.0000000000000E+00
 0.0000000000000E+00
 0.0000000000000E+00
 0.0000000000000E+00
 0.0000000000000E+00
 0.0000000000000E+00
 0.0000000000000E+00
 0.0000000000000E+00
 0.0000000000000E+00
 0.0000000000000E+00
 0.0000000000000E+00
 0.0000000000000E+00
 0.0000000000000E+00
 0.0000000000000E+00
 0.0000000000000E+00
 0.0000000000000E+00
 0.0000000000000E+00
 0.0000000000000E+00
 0.0000000000000E+00
 0.0000000000000E+00
 0.0000000000000E+00
 0.0000000000000E+00
 0.0000000000000E+00
 0.0000000000000E+00
 0.0000000000000E+00
 0.0000000000000E+00
 0.0000000000000E+00
 0.0000000000000E+00
 0.0000000000000E+00
 0.0000000000000E+00
 0.0000000000000E+00
 0.0000000000000E+00
 0.0000000000000E+00
 0.0000000000000E+00
 0.0000000000000E+00
 0.0000000000000E+00
 0.0000000000000E+00
 0.0000000000000E+00
 0.0000000000000E+00
 0.0000000000000E+00
 0.0000000000000E+00
 0.0000000000000E+00
 0.0000000000000E+00
 0.0000000000000E+00
 0.0000000000000E+00
 0.0000000000000E+00
 0.0000000000000E+00
 0.0000000000000E+00
 0.0000000000000E+00
 0.0000000000000E+00
 0.0000000000000E+00
 0.0000000000000E+00
 0.0000000000000E+00
 0.0000000000000E+00
 0.0000000000000E+00
 0.0000000000000E+00
 0.0000000000000E+00
 0.0000000000000E+00
 0.0000000000000E+00
 0.0000000000000E+00
 0.0000000000000E+00
 0.0000000000000E+00
 0.0000000000000E+00
 0.0000000000000E+00
 0.0000000000000E+00
 0.0000000000000E+00
 0.0000000000000E+00
 0.0000000000000E+00
 0.0000000000000E+00
 0.0000000000000E+00
 0.0000000000000E+00
 0.0000000000000E+00
 0.0000000000000E+00
 0.0000000000000E+00
 0.0000000000000E+00
 0.0000000000000E+00
 0.0000000000000E+00
 0.0000000000000E+00
 0.0000000000000E+00
 0.0000000000000E+00
 0.0000000000000E+00
 0.0000000000000E+00
 0.0000000000000E+00
 0.0000000000000E+00
 0.0000000000000E+00
 0.0000000000000E+00
 0.0000000000000E+00
 0.0000000000000E+00
 0.0000000000000E+00
 0.0000000000000E+00
 0.0000000000000E+00
 0.0000000000000E+00
 0.0000000000000E+00
 0.0000000000000E+00
 0.0000000000000E+00
 0.0000000000000E+00
 0.0000000000000E+00
 0.0000000000000E+00
 0.0000000000000E+00
 0.0000000000000E+00
 0.0000000000000E+00
 0.0000000000000E+00
 0.0000000000000E+00
 0.0000000000000E+00
 0.0000000000000E+00
 0.0000000000000E+00
 0.0000000000000E+00
 0.0000000000000E+00
 0.0000000000000E+00
 0.0000000000000E+00
 0.0000000000000E+00
 0.0000000000000E+00
 0.0000000000000E+00
 0.0000000000000E+00
 0.0000000000000E+00
 0.0000000000000E+00
 0.0000000000000E+00
 0.0000000000000E+00
 0.0000000000000E+00
 0.0000000000000E+00
 0.0000000000000E+00
 0.0000000000000E+00
 0.0000000000000E+00
 0.0000000000000E+00
 0.0000000000000E+00
 0.0000000000000E+00
 0.0000000000000E+00
 0.0000000000000E+00
 0.0000000000000E+00
 0.0000000000000E+00
 0.0000000000000E+00
 0.0000000000000E+00
 0.0000000000000E+00
 0.0000000000000E+00
 0.0000000000000E+00
 0.0000000000000E+00
 0.0000000000000E+00
 0.0000000000000E+00
 0.0000000000000E+00
 0.0000000000000E+00
 0.0000000000000E+00
 0.0000000000000E+00
 0.0000000000000E+00
 0.0000000000000E+00
 0.0000000000000E+00
 0.0000000000000E+00
 0.0000000000000E+00
 0.0000000000000E+00
 0.0000000000000E+00
 0.0000000000000E+00
 0.0000000000000E+00
 0.0000000000000E+00
 0.0000000000000E+00
 0.0000000000000E+00
 0.0000000000000E+00
 0.0000000000000E+00
 0.0000000000000E+00
 0.0000000000000E+00
 0.0000000000000E+00
 0.0000000000000E+00
 0.0000000000000E+00
 0.0000000000000E+00
 0.0000000000000E+00
 0.0000000000000E+00
 0.0000000000000E+00
 0.0000000000000E+00
 0.0000000000000E+00
 0.0000000000000E+00
 0.0000000000000E+00
 0.0000000000000E+00
 0.0000000000000E+00
 0.0000000000000E+00
 0.0000000000000E+00
 0.0000000000000E+00
 0.0000000000000E+00
 0.0000000000000E+00
 0.0000000000000E+00
 0.0000000000000E+00
 0.0000000000000E+00
 0.0000000000000E+00
 0.0000000000000E+00
 0.0000000000000E+00
 0.0000000000000E+00
 0.0000000000000E+00
 0.0000000000000E+00
 0.0000000000000E+00
 0.0000000000000E+00
 0.0000000000000E+00
 0.0000000000000E+00
 0.0000000000000E+00
 0.0000000000000E+00
 0.0000000000000E+00
 0.0000000000000E+00
 0.0000000000000E+00
 0.0000000000000E+00
 0.0000000000000E+00
 0.0000000000000E+00
 0.0000000000000E+00
 0.0000000000000E+00
 0.0000000000000E+00
 0.0000000000000E+00
 0.0000000000000E+00
 0.0000000000000E+00
 0.0000000000000E+00
 0.0000000000000E+00
 0.0000000000000E+00
 0.0000000000000E+00
 0.0000000000000E+00
 0.0000000000000E+00
 0.0000000000000E+00
 0.0000000000000E+00
 0.0000000000000E+00
 0.0000000000000E+00
 0.0000000000000E+00
 0.0000000000000E+00
 0.0000000000000E+00
 0.0000000000000E+00
 0.0000000000000E+00
 0.0000000000000E+00
 0.0000000000000E+00
 0.0000000000000E+00
 0.0000000000000E+00
 0.0000000000000E+00
 0.0000000000000E+00
 0.0000000000000E+00
 0.0000000000000E+00
 0.0000000000000E+00
 0.0000000000000E+00
 0.0000000000000E+00
 0.0000000000000E+00
 0.0000000000000E+00
 0.0000000000000E+00
 0.0000000000000E+00
 0.0000000000000E+00
 0.0000000000000E+00
 0.0000000000000E+00
 0.0000000000000E+00
 0.0000000000000E+00
 0.0000000000000E+00
 0.0000000000000E+00
 0.0000000000000E+00
 0.0000000000000E+00
 0.0000000000000E+00
 0.0000000000000E+00
 0.0000000000000E+00
 0.0000000000000E+00
 0.0000000000000E+00
 0.0000000000000E+00
 0.0000000000000E+00
 0.0000000000000E+00
 0.0000000000000E+00
 0.0000000000000E+00
 0.0000000000000E+00
 0.0000000000000E+00
 0.0000000000000E+00
 0.0000000000000E+00
 0.0000000000000E+00
 0.0000000000000E+00
 0.0000000000000E+00
 0.0000000000000E+00
 0.0000000000000E+00
 0.0000000000000E+00
 0.0000000000000E+00
 0.0000000000000E+00
 0.0000000000000E+00
 0.0000000000000E+00
 0.0000000000000E+00
 0.0000000000000E+00
 0.0000000000000E+00
 0.0000000000000E+00
 0.0000000000000E+00
 0.0000000000000E+00
 0.0000000000000E+00
 0.0000000000000E+00
 0.0000000000000E+00
 0.0000000000000E+00
 0.0000000000000E+00
 0.0000000000000E+00
 0.0000000000000E+00
 0.0000000000000E+00
 0.0000000000000E+00
 0.0000000000000E+00
 0.0000000000000E+00
 0.0000000000000E+00
 0.0000000000000E+00
 0.0000000000000E+00
 0.0000000000000E+00
 0.0000000000000E+00
 0.0000000000000E+00
 0.0000000000000E+00
 0.0000000000000E+00
 0.0000000000000E+00
 0.0000000000000E+00
 0.0000000000000E+00
 0.0000000000000E+00
 0.0000000000000E+00
 0.0000000000000E+00
 0.0000000000000E+00
 0.0000000000000E+00
 0.0000000000000E+00
 0.0000000000000E+00
 0.0000000000000E+00
 0.0000000000000E+00
 0.0000000000000E+00
 0.0000000000000E+00
 0.0000000000000E+00
 0.0000000000000E+00
 0.0000000000000E+00
 0.0000000000000E+00
 0.0000000000000E+00
 0.0000000000000E+00
 0.0000000000000E+00
 0.0000000000000E+00
 0.0000000000000E+00
 0.0000000000000E+00
 0.0000000000000E+00
 0.0000000000000E+00
 0.0000000000000E+00
 0.0000000000000E+00
 0.0000000000000E+00
 0.0000000000000E+00
 0.0000000000000E+00
 0.0000000000000E+00
 0.0000000000000E+00
 0.0000000000000E+00
 0.0000000000000E+00
 0.0000000000000E+00
 0.0000000000000E+00
 0.0000000000000E+00
 0.0000000000000E+00
 0.0000000000000E+00
 0.0000000000000E+00
 0.0000000000000E+00
 0.0000000000000E+00
 0.0000000000000E+00
 0.0000000000000E+00
 0.0000000000000E+00
 0.0000000000000E+00
 0.0000000000000E+00
 0.0000000000000E+00
 0.0000000000000E+00
 0.0000000000000E+00
 0.0000000000000E+00
 0.0000000000000E+00
 0.0000000000000E+00
 0.0000000000000E+00
 0.0000000000000E+00
 0.0000000000000E+00
 0.0000000000000E+00
 0.0000000000000E+00
 0.0000000000000E+00
 0.0000000000000E+00
 0.0000000000000E+00
 0.0000000000000E+00
 0.0000000000000E+00
 0.0000000000000E+00
 0.0000000000000E+00
 0.0000000000000E+00
 0.0000000000000E+00
 0.0000000000000E+00
 0.0000000000000E+00
 0.0000000000000E+00
 0.0000000000000E+00
 0.0000000000000E+00
 0.0000000000000E+00
 0.0000000000000E+00
 0.0000000000000E+00
 0.0000000000000E+00
 0.0000000000000E+00
 0.0000000000000E+00
 0.0000000000000E+00
 0.0000000000000E+00
 0.0000000000000E+00
 0.0000000000000E+00
 0.0000000000000E+00
 0.0000000000000E+00
 0.0000000000000E+00
 0.0000000000000E+00
 0.0000000000000E+00
 0.0000000000000E+00
 0.0000000000000E+00
 0.0000000000000E+00
 0.0000000000000E+00
 0.0000000000000E+00
 0.0000000000000E+00
 0.0000000000000E+00
 0.0000000000000E+00
 0.0000000000000E+00
 0.0000000000000E+00
 0.0000000000000E+00
 0.0000000000000E+00
 0.0000000000000E+00
 0.0000000000000E+00
 0.0000000000000E+00
 0.0000000000000E+00
 0.0000000000000E+00
 0.0000000000000E+00
 0.0000000000000E+00
 0.0000000000000E+00
 0.0000000000000E+00
 0.0000000000000E+00
 0.0000000000000E+00
 0.0000000000000E+00
 0.0000000000000E+00
 0.0000000000000E+00
 0.0000000000000E+00
 0.0000000000000E+00
 0.0000000000000E+00
 0.0000000000000E+00
 0.0000000000000E+00
 0.0000000000000E+00
 0.0000000000000E+00
 0.0000000000000E+00
 0.0000000000000E+00
 0.0000000000000E+00
 0.0000000000000E+00
 0.0000000000000E+00
 0.0000000000000E+00
 0.0000000000000E+00
 0.0000000000000E+00
 0.0000000000000E+00
 0.0000000000000E+00
 0.0000000000000E+00
 0.0000000000000E+00
 0.0000000000000E+00
 0.0000000000000E+00
 0.0000000000000E+00
 0.0000000000000E+00
 0.0000000000000E+00
 0.0000000000000E+00
 0.0000000000000E+00
 0.0000000000000E+00
 0.0000000000000E+00
 0.0000000000000E+00
 0.0000000000000E+00
 0.0000000000000E+00
 0.0000000000000E+00
 0.0000000000000E+00
 0.0000000000000E+00
 0.0000000000000E+00
 0.0000000000000E+00
 0.0000000000000E+00
 0.0000000000000E+00
 0.0000000000000E+00
 0.0000000000000E+00
 0.0000000000000E+00
 0.0000000000000E+00
 0.0000000000000E+00
 0.0000000000000E+00
 0.0000000000000E+00
 0.0000000000000E+00
 0.0000000000000E+00
 0.0000000000000E+00
 0.0000000000000E+00
 0.0000000000000E+00
 0.0000000000000E+00
 0.0000000000000E+00
 0.0000000000000E+00
 0.0000000000000E+00
 0.0000000000000E+00
 0.0000000000000E+00
 0.0000000000000E+00
 0.0000000000000E+00
 0.0000000000000E+00
 0.0000000000000E+00
 0.0000000000000E+00
 0.0000000000000E+00
 0.0000000000000E+00
 0.0000000000000E+00
 0.0000000000000E+00
 0.0000000000000E+00
 0.0000000000000E+00
 0.0000000000000E+00
 0.0000000000000E+00
 0.0000000000000E+00
 0.0000000000000E+00
 0.0000000000000E+00
 0.0000000000000E+00
 0.0000000000000E+00
 0.0000000000000E+00
 0.0000000000000E+00
 0.0000000000000E+00
 0.0000000000000E+00
 0.0000000000000E+00
 0.0000000000000E+00
 0.0000000000000E+00
 0.0000000000000E+00
 0.0000000000000E+00
 0.0000000000000E+00
 0.0000000000000E+00
 0.0000000000000E+00
 0.0000000000000E+00
 0.0000000000000E+00
 0.0000000000000E+00
 0.0000000000000E+00
 0.0000000000000E+00
 0.0000000000000E+00
 0.0000000000000E+00
 0.0000000000000E+00
 0.0000000000000E+00
 0.0000000000000E+00
 0.0000000000000E+00
 0.0000000000000E+00
 0.0000000000000E+00
 0.0000000000000E+00
 0.0000000000000E+00
 0.0000000000000E+00
 0.0000000000000E+00
 0.0000000000000E+00
 0.0000000000000E+00
 0.0000000000000E+00
 0.0000000000000E+00
 0.0000000000000E+00
 0.0000000000000E+00
 0.0000000000000E+00
 0.0000000000000E+00
 0.0000000000000E+00
 0.0000000000000E+00
 0.0000000000000E+00
 0.0000000000000E+00
 0.0000000000000E+00
 0.0000000000000E+00
 0.0000000000000E+00
 0.0000000000000E+00
 0.0000000000000E+00
 0.0000000000000E+00
 0.0000000000000E+00
 0.0000000000000E+00
 0.0000000000000E+00
 0.0000000000000E+00
 0.0000000000000E+00
 0.0000000000000E+00
 0.0000000000000E+00
 0.0000000000000E+00
 0.0000000000000E+00
 0.0000000000000E+00
 0.0000000000000E+00
 0.0000000000000E+00
 0.0000000000000E+00
 0.0000000000000E+00
 0.0000000000000E+00
 0.0000000000000E+00
 0.0000000000000E+00
 0.0000000000000E+00
 0.0000000000000E+00
 0.0000000000000E+00
 0.0000000000000E+00
 0.0000000000000E+00
 0.0000000000000E+00
 0.0000000000000E+00
 0.0000000000000E+00
 0.0000000000000E+00
 0.0000000000000E+00
 0.0000000000000E+00
 0.0000000000000E+00
 0.0000000000000E+00
 0.0000000000000E+00
 0.0000000000000E+00
 0.0000000000000E+00
 0.0000000000000E+00
 0.0000000000000E+00
 0.0000000000000E+00
 0.0000000000000E+00
 0.0000000000000E+00
 0.0000000000000E+00
 0.0000000000000E+00
 0.0000000000000E+00
 0.0000000000000E+00
 0.0000000000000E+00
 0.0000000000000E+00
 0.0000000000000E+00
 0.0000000000000E+00
 0.0000000000000E+00
 0.0000000000000E+00
 0.0000000000000E+00
 0.0000000000000E+00
 0.0000000000000E+00
 0.0000000000000E+00
 0.0000000000000E+00
 0.0000000000000E+00
 0.0000000000000E+00
 0.0000000000000E+00
 0.0000000000000E+00
 0.0000000000000E+00
 0.0000000000000E+00
 0.0000000000000E+00
 0.0000000000000E+00
 0.0000000000000E+00
 0.0000000000000E+00
 0.0000000000000E+00
 0.0000000000000E+00
 0.0000000000000E+00
 0.0000000000000E+00
 0.0000000000000E+00
 0.0000000000000E+00
 0.0000000000000E+00
 0.0000000000000E+00
 0.0000000000000E+00
 0.0000000000000E+00
 0.0000000000000E+00
 0.0000000000000E+00
 0.0000000000000E+00
 0.0000000000000E+00
 0.0000000000000E+00
 0.0000000000000E+00
 0.0000000000000E+00
 0.0000000000000E+00
 0.0000000000000E+00
 0.0000000000000E+00
 0.0000000000000E+00
 0.0000000000000E+00
 0.0000000000000E+00
 0.0000000000000E+00
 0.0000000000000E+00
 0.0000000000000E+00
 0.0000000000000E+00
 0.0000000000000E+00
 0.0000000000000E+00
 0.0000000000000E+00
 0.0000000000000E+00
 0.0000000000000E+00
 0.0000000000000E+00
 0.0000000000000E+00
 0.0000000000000E+00
 0.0000000000000E+00
 0.0000000000000E+00
 0.0000000000000E+00
 0.0000000000000E+00
 0.0000000000000E+00
 0.0000000000000E+00
 0.0000000000000E+00
 0.0000000000000E+00
 0.0000000000000E+00
 0.0000000000000E+00
 0.0000000000000E+00
 0.0000000000000E+00
 0.0000000000000E+00
 0.0000000000000E+00
 0.0000000000000E+00
 0.0000000000000E+00
 0.0000000000000E+00
 0.0000000000000E+00
 0.0000000000000E+00
 0.0000000000000E+00
 0.0000000000000E+00
 0.0000000000000E+00
 0.0000000000000E+00
 0.0000000000000E+00
 0.0000000000000E+00
 0.0000000000000E+00
 0.0000000000000E+00
 0.0000000000000E+00
 0.0000000000000E+00
 0.0000000000000E+00
 0.0000000000000E+00
 0.0000000000000E+00
 0.0000000000000E+00
 0.0000000000000E+00
 0.0000000000000E+00
 0.0000000000000E+00
 0.0000000000000E+00
 0.0000000000000E+00
 0.0000000000000E+00
 0.0000000000000E+00
 0.0000000000000E+00
 0.0000000000000E+00
 0.0000000000000E+00
 0.0000000000000E+00
 0.0000000000000E+00
 0.0000000000000E+00
 0.0000000000000E+00
 0.0000000000000E+00
 0.0000000000000E+00
 0.0000000000000E+00
 0.0000000000000E+00
 0.0000000000000E+00
 0.0000000000000E+00
 0.0000000000000E+00
 0.0000000000000E+00
 0.0000000000000E+00
 0.0000000000000E+00
 0.0000000000000E+00
 0.0000000000000E+00
 0.0000000000000E+00
 0.0000000000000E+00
 0.0000000000000E+00
 0.0000000000000E+00
 0.0000000000000E+00
 0.0000000000000E+00
 0.0000000000000E+00
 0.0000000000000E+00
 0.0000000000000E+00
 0.0000000000000E+00
 0.0000000000000E+00
 0.0000000000000E+00
 0.0000000000000E+00
 0.0000000000000E+00
 0.0000000000000E+00
 0.0000000000000E+00
 0.0000000000000E+00
 0.0000000000000E+00
 0.0000000000000E+00
 0.0000000000000E+00
 0.0000000000000E+00
 0.0000000000000E+00
 0.0000000000000E+00
 0.0000000000000E+00
 0.0000000000000E+00
 0.0000000000000E+00
 0.0000000000000E+00
 0.0000000000000E+00
 0.0000000000000E+00
 0.0000000000000E+00
 0.0000000000000E+00
 0.0000000000000E+00
 0.0000000000000E+00
 0.0000000000000E+00
 0.0000000000000E+00
 0.0000000000000E+00
 0.0000000000000E+00
 0.0000000000000E+00
 0.0000000000000E+00
 0.0000000000000E+00
 0.0000000000000E+00
 0.0000000000000E+00
 0.0000000000000E+00
 0.0000000000000E+00
 0.0000000000000E+00
 0.0000000000000E+00
 0.0000000000000E+00
 0.0000000000000E+00
 0.0000000000000E+00
 0.0000000000000E+00
 0.0000000000000E+00
 0.0000000000000E+00
 0.0000000000000E+00
 0.0000000000000E+00
 0.0000000000000E+00
 0.0000000000000E+00
 0.0000000000000E+00
 0.0000000000000E+00
 0.0000000000000E+00
 0.0000000000000E+00
 0.0000000000000E+00
 0.0000000000000E+00
 0.0000000000000E+00
 0.0000000000000E+00
 0.0000000000000E+00
 0.0000000000000E+00
 0.0000000000000E+00
 0.0000000000000E+00
 0.0000000000000E+00
 0.0000000000000E+00
 0.0000000000000E+00
 0.0000000000000E+00
 0.0000000000000E+00
 0.0000000000000E+00
 0.0000000000000E+00
 0.0000000000000E+00
 0.0000000000000E+00
 0.0000000000000E+00
 0.0000000000000E+00
 0.0000000000000E+00
 0.0000000000000E+00
 0.0000000000000E+00
 0.0000000000000E+00
 0.0000000000000E+00
 0.0000000000000E+00
 0.0000000000000E+00
 0.0000000000000E+00
 0.0000000000000E+00
 0.0000000000000E+00
 0.0000000000000E+00
 0.0000000000000E+00
 0.0000000000000E+00
 0.0000000000000E+00
 0.0000000000000E+00
 0.0000000000000E+00
 0.0000000000000E+00
 0.0000000000000E+00
 0.0000000000000E+00
 0.0000000000000E+00
 0.0000000000000E+00
 0.0000000000000E+00
 0.0000000000000E+00
 0.0000000000000E+00
 0.0000000000000E+00
 0.0000000000000E+00
 0.0000000000000E+00
 0.0000000000000E+00
 0.0000000000000E+00
 0.0000000000000E+00
 0.0000000000000E+00
 0.0000000000000E+00
 0.0000000000000E+00
 0.0000000000000E+00
 0.0000000000000E+00
 0.0000000000000E+00
 0.0000000000000E+00
 0.0000000000000E+00
 0.0000000000000E+00
 0.0000000000000E+00
 0.0000000000000E+00
 0.0000000000000E+00
 0.0000000000000E+00
 0.0000000000000E+00
 0.0000000000000E+00
 0.0000000000000E+00
 0.0000000000000E+00
 0.0000000000000E+00
 0.0000000000000E+00
 0.0000000000000E+00
 0.0000000000000E+00
 0.0000000000000E+00
 0.0000000000000E+00
 0.0000000000000E+00
 0.0000000000000E+00
 0.0000000000000E+00
 0.0000000000000E+00
 0.0000000000000E+00
 0.0000000000000E+00
 0.0000000000000E+00
 0.0000000000000E+00
 0.0000000000000E+00
 0.0000000000000E+00
 0.0000000000000E+00
 0.0000000000000E+00
 0.0000000000000E+00
 0.0000000000000E+00
 0.0000000000000E+00
 0.0000000000000E+00
 0.0000000000000E+00
 0.0000000000000E+00
 0.0000000000000E+00
 0.0000000000000E+00
 0.0000000000000E+00
 0.0000000000000E+00
 0.0000000000000E+00
 0.0000000000000E+00
 0.0000000000000E+00
 0.0000000000000E+00
 0.0000000000000E+00
 0.0000000000000E+00
 0.0000000000000E+00
 0.0000000000000E+00
 0.0000000000000E+00
 0.0000000000000E+00
 0.0000000000000E+00
 0.0000000000000E+00
 0.0000000000000E+00
 0.0000000000000E+00
 0.0000000000000E+00
 0.0000000000000E+00
 0.0000000000000E+00
 0.0000000000000E+00
 0.0000000000000E+00
 0.0000000000000E+00
 0.0000000000000E+00
 0.0000000000000E+00
 0.0000000000000E+00
 0.0000000000000E+00
 0.0000000000000E+00
 0.0000000000000E+00
 0.0000000000000E+00
 0.0000000000000E+00
 0.0000000000000E+00
 0.0000000000000E+00
 0.0000000000000E+00
 0.0000000000000E+00
 0.0000000000000E+00
 0.0000000000000E+00
 0.0000000000000E+00
 0.0000000000000E+00
 0.0000000000000E+00
 0.0000000000000E+00
 0.0000000000000E+00
 0.0000000000000E+00
 0.0000000000000E+00
 0.0000000000000E+00
 0.0000000000000E+00
 0.0000000000000E+00
 0.0000000000000E+00
 0.0000000000000E+00
 0.0000000000000E+00
 0.0000000000000E+00
 0.0000000000000E+00
 0.0000000000000E+00
 0.0000000000000E+00
 0.0000000000000E+00
 0.0000000000000E+00
 0.0000000000000E+00
 0.0000000000000E+00
 0.0000000000000E+00
 0.0000000000000E+00
 0.0000000000000E+00
 0.0000000000000E+00
 0.0000000000000E+00
 0.0000000000000E+00
 0.0000000000000E+00
 0.0000000000000E+00
 0.0000000000000E+00
 0.0000000000000E+00
 0.0000000000000E+00
 0.0000000000000E+00
 0.0000000000000E+00
 0.0000000000000E+00
 0.0000000000000E+00
 0.0000000000000E+00
 0.0000000000000E+00
 0.0000000000000E+00
 0.0000000000000E+00
 0.0000000000000E+00
 0.0000000000000E+00
 0.0000000000000E+00
 0.0000000000000E+00
 0.0000000000000E+00
 0.0000000000000E+00
 0.0000000000000E+00
 0.0000000000000E+00
 0.0000000000000E+00
 0.0000000000000E+00
 0.0000000000000E+00
 0.0000000000000E+00
 0.0000000000000E+00
 0.0000000000000E+00
 0.0000000000000E+00
 0.0000000000000E+00
 0.0000000000000E+00
 0.0000000000000E+00
 0.0000000000000E+00
 0.0000000000000E+00
 0.0000000000000E+00
 0.0000000000000E+00
 0.0000000000000E+00
 0.0000000000000E+00
 0.0000000000000E+00
 0.0000000000000E+00
 0.0000000000000E+00
 0.0000000000000E+00
 0.0000000000000E+00
 0.0000000000000E+00
 0.0000000000000E+00
 0.0000000000000E+00
 0.0000000000000E+00
 0.0000000000000E+00
 0.0000000000000E+00
 0.0000000000000E+00
 0.0000000000000E+00
 0.0000000000000E+00
 0.0000000000000E+00
 0.0000000000000E+00
 0.0000000000000E+00
 0.0000000000000E+00
 0.0000000000000E+00
 0.0000000000000E+00
 0.0000000000000E+00
 0.0000000000000E+00
 0.0000000000000E+00
 0.0000000000000E+00
 0.0000000000000E+00
 0.0000000000000E+00
 0.0000000000000E+00
 0.0000000000000E+00
 0.0000000000000E+00
 0.0000000000000E+00
 0.0000000000000E+00
 0.0000000000000E+00
 0.0000000000000E+00
 0.0000000000000E+00
 0.0000000000000E+00
 0.0000000000000E+00
 0.0000000000000E+00
 0.0000000000000E+00
 0.0000000000000E+00
 0.0000000000000E+00
 0.0000000000000E+00
 0.0000000000000E+00
 0.0000000000000E+00
 0.0000000000000E+00
 0.0000000000000E+00
 0.0000000000000E+00
 0.0000000000000E+00
 0.0000000000000E+00
 0.0000000000000E+00
 0.0000000000000E+00
 0.0000000000000E+00
 0.0000000000000E+00
 0.0000000000000E+00
 0.0000000000000E+00
 0.0000000000000E+00
 0.0000000000000E+00
 0.0000000000000E+00
 0.0000000000000E+00
 0.0000000000000E+00
 0.0000000000000E+00
 0.0000000000000E+00
 0.0000000000000E+00
 0.0000000000000E+00
 0.0000000000000E+00
 0.0000000000000E+00
 0.0000000000000E+00
 0.0000000000000E+00
 0.0000000000000E+00
 0.0000000000000E+00
 0.0000000000000E+00
 0.0000000000000E+00
 0.0000000000000E+00
 0.0000000000000E+00
 0.0000000000000E+00
 0.0000000000000E+00
 0.0000000000000E+00
 0.0000000000000E+00
 0.0000000000000E+00
 0.0000000000000E+00
 0.0000000000000E+00
 0.0000000000000E+00
 0.0000000000000E+00
 0.0000000000000E+00
 0.0000000000000E+00
 0.0000000000000E+00
 0.0000000000000E+00
 0.0000000000000E+00
 0.0000000000000E+00
 0.0000000000000E+00
 0.0000000000000E+00
 0.0000000000000E+00
 0.0000000000000E+00
 0.0000000000000E+00
 0.0000000000000E+00
 0.0000000000000E+00
 0.0000000000000E+00
 0.0000000000000E+00
 0.0000000000000E+00
 0.0000000000000E+00
 0.0000000000000E+00
 0.0000000000000E+00
 0.0000000000000E+00
 0.0000000000000E+00
 0.0000000000000E+00
 0.0000000000000E+00
 0.0000000000000E+00
 0.0000000000000E+00
 0.0000000000000E+00
 0.0000000000000E+00
 0.0000000000000E+00
 0.0000000000000E+00
 0.0000000000000E+00
 0.0000000000000E+00
 0.0000000000000E+00
 0.0000000000000E+00
 0.0000000000000E+00
 0.0000000000000E+00
 0.0000000000000E+00
 0.0000000000000E+00
 0.0000000000000E+00
 0.0000000000000E+00
 0.0000000000000E+00
 0.0000000000000E+00
 0.0000000000000E+00
 0.0000000000000E+00
 0.0000000000000E+00
 0.0000000000000E+00
 0.0000000000000E+00
 0.0000000000000E+00
 0.0000000000000E+00
 0.0000000000000E+00
 0.0000000000000E+00
 0.0000000000000E+00
 0.0000000000000E+00
 0.0000000000000E+00
 0.0000000000000E+00
 0.0000000000000E+00
 0.0000000000000E+00
 0.0000000000000E+00
 0.0000000000000E+00
 0.0000000000000E+00
 0.0000000000000E+00
 0.0000000000000E+00
 0.0000000000000E+00
 0.0000000000000E+00
 0.0000000000000E+00
 0.0000000000000E+00
 0.0000000000000E+00
 0.0000000000000E+00
 0.0000000000000E+00
 0.0000000000000E+00
 0.0000000000000E+00
 0.0000000000000E+00
 0.0000000000000E+00
 0.0000000000000E+00
 0.0000000000000E+00
 0.0000000000000E+00
 0.0000000000000E+00
 0.0000000000000E+00
 0.0000000000000E+00
 0.0000000000000E+00
 0.0000000000000E+00
 0.0000000000000E+00
 0.0000000000000E+00
 0.0000000000000E+00
 0.0000000000000E+00
 0.0000000000000E+00
 0.0000000000000E+00
 0.0000000000000E+00
 0.0000000000000E+00
 0.0000000000000E+00
 0.0000000000000E+00
 0.0000000000000E+00
 0.0000000000000E+00
 0.0000000000000E+00
 0.0000000000000E+00
 0.0000000000000E+00
 0.0000000000000E+00
 0.0000000000000E+00
 0.0000000000000E+00
 0.0000000000000E+00
 0.0000000000000E+00
 0.0000000000000E+00
 0.0000000000000E+00
 0.0000000000000E+00
 0.0000000000000E+00
 0.0000000000000E+00
 0.0000000000000E+00
 0.0000000000000E+00
 0.0000000000000E+00
 0.0000000000000E+00
 0.0000000000000E+00
 0.0000000000000E+00
 0.0000000000000E+00
 0.0000000000000E+00
 0.0000000000000E+00
 0.0000000000000E+00
 0.0000000000000E+00
 0.0000000000000E+00
 0.0000000000000E+00
 0.0000000000000E+00
 0.0000000000000E+00
 0.0000000000000E+00
 0.0000000000000E+00
 0.0000000000000E+00
 0.0000000000000E+00
 0.0000000000000E+00
 0.0000000000000E+00
 0.0000000000000E+00
 0.0000000000000E+00
 0.0000000000000E+00
 0.0000000000000E+00
 0.0000000000000E+00
 0.0000000000000E+00
 0.0000000000000E+00
 0.0000000000000E+00
 0.0000000000000E+00
 0.0000000000000E+00
 0.0000000000000E+00
 0.0000000000000E+00
 0.0000000000000E+00
 0.0000000000000E+00
 0.0000000000000E+00
 0.0000000000000E+00
 0.0000000000000E+00
 0.0000000000000E+00
 0.0000000000000E+00
 0.0000000000000E+00
 0.0000000000000E+00
 0.0000000000000E+00
 0.0000000000000E+00
 0.0000000000000E+00
 0.0000000000000E+00
 0.0000000000000E+00
 0.0000000000000E+00
 0.0000000000000E+00
 0.0000000000000E+00
 0.0000000000000E+00
 0.0000000000000E+00
 0.0000000000000E+00
 0.0000000000000E+00
 0.0000000000000E+00
 0.0000000000000E+00
 0.0000000000000E+00
 0.0000000000000E+00
 0.0000000000000E+00
 0.0000000000000E+00
 0.0000000000000E+00
 0.0000000000000E+00
 0.0000000000000E+00
 0.0000000000000E+00
 0.0000000000000E+00
 0.0000000000000E+00
 0.0000000000000E+00
 0.0000000000000E+00
 0.0000000000000E+00
 0.0000000000000E+00
 0.0000000000000E+00
 0.0000000000000E+00
 0.0000000000000E+00
 0.0000000000000E+00
 0.0000000000000E+00
 0.0000000000000E+00
 0.0000000000000E+00
 0.0000000000000E+00
 0.0000000000000E+00
 0.0000000000000E+00
 0.0000000000000E+00
 0.0000000000000E+00
 0.0000000000000E+00
 0.0000000000000E+00
 0.0000000000000E+00
 0.0000000000000E+00
 0.0000000000000E+00
 0.0000000000000E+00
 0.0000000000000E+00
 0.0000000000000E+00
 0.0000000000000E+00
 0.0000000000000E+00
 0.0000000000000E+00
 0.0000000000000E+00
 0.0000000000000E+00
 0.0000000000000E+00
 0.0000000000000E+00
 0.0000000000000E+00
 0.0000000000000E+00
 0.0000000000000E+00
 0.0000000000000E+00
 0.0000000000000E+00
 0.0000000000000E+00
 0.0000000000000E+00
 0.0000000000000E+00
 0.0000000000000E+00
 0.0000000000000E+00
 0.0000000000000E+00
 0.0000000000000E+00
 0.0000000000000E+00
 0.0000000000000E+00
 0.0000000000000E+00
 0.0000000000000E+00
 0.0000000000000E+00
 0.0000000000000E+00
 0.0000000000000E+00
 0.0000000000000E+00
 0.0000000000000E+00
 0.0000000000000E+00
 0.0000000000000E+00
 0.0000000000000E+00
 0.0000000000000E+00
 0.0000000000000E+00
 0.0000000000000E+00
 0.0000000000000E+00
 0.0000000000000E+00
 0.0000000000000E+00
 0.0000000000000E+00
 0.0000000000000E+00
 0.0000000000000E+00
 0.0000000000000E+00
 0.0000000000000E+00
 0.0000000000000E+00
 0.0000000000000E+00
 0.0000000000000E+00
 0.0000000000000E+00
 0.0000000000000E+00
 0.0000000000000E+00
 0.0000000000000E+00
 0.0000000000000E+00
 0.0000000000000E+00
 0.0000000000000E+00
 0.0000000000000E+00
 0.0000000000000E+00
 0.0000000000000E+00
 0.0000000000000E+00
 0.0000000000000E+00
 0.0000000000000E+00
 0.0000000000000E+00
 0.0000000000000E+00
 0.0000000000000E+00
 0.0000000000000E+00
 0.0000000000000E+00
 0.0000000000000E+00
 0.0000000000000E+00
 0.0000000000000E+00
 0.0000000000000E+00
 0.0000000000000E+00
 0.0000000000000E+00
 0.0000000000000E+00
 0.0000000000000E+00
 0.0000000000000E+00
 0.0000000000000E+00
 0.0000000000000E+00
 0.0000000000000E+00
 0.0000000000000E+00
 0.0000000000000E+00
 0.0000000000000E+00
 0.0000000000000E+00
 0.0000000000000E+00
 0.0000000000000E+00
 0.0000000000000E+00
 0.0000000000000E+00
 0.0000000000000E+00
 0.0000000000000E+00
 0.0000000000000E+00
 0.0000000000000E+00
 0.0000000000000E+00
 0.0000000000000E+00
 0.0000000000000E+00
 0.0000000000000E+00
 0.0000000000000E+00
 0.0000000000000E+00
 0.0000000000000E+00
 0.0000000000000E+00
 0.0000000000000E+00
 0.0000000000000E+00
 0.0000000000000E+00
 0.0000000000000E+00
 0.0000000000000E+00
 0.0000000000000E+00
 0.0000000000000E+00
 0.0000000000000E+00
 0.0000000000000E+00
 0.0000000000000E+00
 0.0000000000000E+00
 0.0000000000000E+00
 0.0000000000000E+00
 0.0000000000000E+00
 0.0000000000000E+00
 0.0000000000000E+00
 0.0000000000000E+00
 0.0000000000000E+00
 0.0000000000000E+00
 0.0000000000000E+00
 0.0000000000000E+00
 0.0000000000000E+00
 0.0000000000000E+00
 0.0000000000000E+00
 0.0000000000000E+00
 0.0000000000000E+00
 0.0000000000000E+00
 0.0000000000000E+00
 0.0000000000000E+00
 0.0000000000000E+00
 0.0000000000000E+00
 0.0000000000000E+00
 0.0000000000000E+00
 0.0000000000000E+00
 0.0000000000000E+00
 0.0000000000000E+00
 0.0000000000000E+00
 0.0000000000000E+00
 0.0000000000000E+00
 0.0000000000000E+00
 0.0000000000000E+00
 0.0000000000000E+00
 0.0000000000000E+00
 0.0000000000000E+00
 0.0000000000000E+00
 0.0000000000000E+00
 0.0000000000000E+00
 0.0000000000000E+00
 0.0000000000000E+00
 0.0000000000000E+00
 0.0000000000000E+00
 0.0000000000000E+00
 0.0000000000000E+00
 0.0000000000000E+00
 0.0000000000000E+00
 0.0000000000000E+00
 0.0000000000000E+00
 0.0000000000000E+00
 0.0000000000000E+00
 0.0000000000000E+00
 0.0000000000000E+00
 0.0000000000000E+00
 0.0000000000000E+00
 0.0000000000000E+00
 0.0000000000000E+00
 0.0000000000000E+00
 0.0000000000000E+00
 0.0000000000000E+00
 0.0000000000000E+00
 0.0000000000000E+00
 0.0000000000000E+00
 0.0000000000000E+00
 0.0000000000000E+00
 0.0000000000000E+00
 0.0000000000000E+00
 0.0000000000000E+00
 0.0000000000000E+00
 0.0000000000000E+00
 0.0000000000000E+00
 0.0000000000000E+00
 0.0000000000000E+00
 0.0000000000000E+00
 0.0000000000000E+00
 0.0000000000000E+00
 0.0000000000000E+00
 0.0000000000000E+00
 0.0000000000000E+00
 0.0000000000000E+00
 0.0000000000000E+00
 0.0000000000000E+00
 0.0000000000000E+00
 0.0000000000000E+00
 0.0000000000000E+00
 0.0000000000000E+00
 0.0000000000000E+00
 0.0000000000000E+00
 0.0000000000000E+00
 0.0000000000000E+00
 0.0000000000000E+00
 0.0000000000000E+00
 0.0000000000000E+00
 0.0000000000000E+00
 0.0000000000000E+00
 0.0000000000000E+00
 0.0000000000000E+00
 0.0000000000000E+00
 0.0000000000000E+00
 0.0000000000000E+00
 0.0000000000000E+00
 0.0000000000000E+00
 0.0000000000000E+00
 0.0000000000000E+00
 0.0000000000000E+00
 0.0000000000000E+00
 0.0000000000000E+00
 0.0000000000000E+00
 0.0000000000000E+00
 0.0000000000000E+00
 0.0000000000000E+00
 0.0000000000000E+00
 0.0000000000000E+00
 0.0000000000000E+00
 0.0000000000000E+00
 0.0000000000000E+00
 0.0000000000000E+00
 0.0000000000000E+00
 0.0000000000000E+00
 0.0000000000000E+00
 0.0000000000000E+00
 0.0000000000000E+00
 0.0000000000000E+00
 0.0000000000000E+00
 0.0000000000000E+00
 0.0000000000000E+00
 0.0000000000000E+00
 0.0000000000000E+00
 0.0000000000000E+00
 0.0000000000000E+00
 0.0000000000000E+00
 0.0000000000000E+00
 0.0000000000000E+00
 0.0000000000000E+00
 0.0000000000000E+00
 0.0000000000000E+00
 0.0000000000000E+00
 0.0000000000000E+00
 0.0000000000000E+00
 0.0000000000000E+00
 0.0000000000000E+00
 0.0000000000000E+00
 0.0000000000000E+00
 0.0000000000000E+00
 0.0000000000000E+00
 0.0000000000000E+00
 0.0000000000000E+00
 0.0000000000000E+00
 0.0000000000000E+00
 0.0000000000000E+00
 0.0000000000000E+00
 0.0000000000000E+00
 0.0000000000000E+00
 0.0000000000000E+00
 0.0000000000000E+00
 0.0000000000000E+00
 0.0000000000000E+00
 0.0000000000000E+00
 0.0000000000000E+00
 0.0000000000000E+00
 0.0000000000000E+00
 0.0000000000000E+00
 0.0000000000000E+00
 0.0000000000000E+00
 0.0000000000000E+00
 0.0000000000000E+00
 0.0000000000000E+00
 0.0000000000000E+00
 0.0000000000000E+00
 0.0000000000000E+00
 0.0000000000000E+00
 0.0000000000000E+00
 0.0000000000000E+00
 0.0000000000000E+00
 0.0000000000000E+00
 0.0000000000000E+00
 0.0000000000000E+00
 0.0000000000000E+00
 0.0000000000000E+00
 0.0000000000000E+00
 0.0000000000000E+00
 0.0000000000000E+00
 0.0000000000000E+00
 0.0000000000000E+00
 0.0000000000000E+00
 0.0000000000000E+00
 0.0000000000000E+00
 0.0000000000000E+00
 0.0000000000000E+00
 0.0000000000000E+00
 0.0000000000000E+00
 0.0000000000000E+00
 0.0000000000000E+00
 0.0000000000000E+00
 0.0000000000000E+00
 0.0000000000000E+00
 0.0000000000000E+00
 0.0000000000000E+00
 0.0000000000000E+00
 0.0000000000000E+00
 0.0000000000000E+00
 0.0000000000000E+00
 0.0000000000000E+00
 0.0000000000000E+00
 0.0000000000000E+00
 0.0000000000000E+00
 0.0000000000000E+00
 0.0000000000000E+00
 0.0000000000000E+00
 0.0000000000000E+00
 0.0000000000000E+00
 0.0000000000000E+00
 0.0000000000000E+00
 0.0000000000000E+00
 0.0000000000000E+00
 0.0000000000000E+00
 0.0000000000000E+00
 0.0000000000000E+00
 0.0000000000000E+00
 0.0000000000000E+00
 0.0000000000000E+00
 0.0000000000000E+00
 0.0000000000000E+00
 0.0000000000000E+00
 0.0000000000000E+00
 0.0000000000000E+00
 0.0000000000000E+00
 0.0000000000000E+00
 0.0000000000000E+00
 0.0000000000000E+00
 0.0000000000000E+00
 0.0000000000000E+00
 0.0000000000000E+00
 0.0000000000000E+00
 0.0000000000000E+00
 0.0000000000000E+00
 0.0000000000000E+00
 0.0000000000000E+00
 0.0000000000000E+00
 0.0000000000000E+00
 0.0000000000000E+00
 0.0000000000000E+00
 0.0000000000000E+00
 0.0000000000000E+00
 0.0000000000000E+00
 0.0000000000000E+00
 0.0000000000000E+00
 0.0000000000000E+00
 0.0000000000000E+00
 0.0000000000000E+00
 0.0000000000000E+00
 0.0000000000000E+00
 0.0000000000000E+00
 0.0000000000000E+00
 0.0000000000000E+00
 0.0000000000000E+00
 0.0000000000000E+00
 0.0000000000000E+00
 0.0000000000000E+00
 0.0000000000000E+00
 0.0000000000000E+00
 0.0000000000000E+00
 0.0000000000000E+00
 0.0000000000000E+00
 0.0000000000000E+00
 0.0000000000000E+00
 0.0000000000000E+00
 0.0000000000000E+00
 0.0000000000000E+00
 0.0000000000000E+00
 0.0000000000000E+00
 0.0000000000000E+00
 0.0000000000000E+00
 0.0000000000000E+00
 0.0000000000000E+00
 0.0000000000000E+00
 0.0000000000000E+00
 0.0000000000000E+00
 0.0000000000000E+00
 0.0000000000000E+00
 0.0000000000000E+00
 0.0000000000000E+00
 0.0000000000000E+00
 0.0000000000000E+00
 0.0000000000000E+00
 0.0000000000000E+00
 0.0000000000000E+00
 0.0000000000000E+00
 0.0000000000000E+00
 0.0000000000000E+00
 0.0000000000000E+00
 0.0000000000000E+00
 0.0000000000000E+00
 0.0000000000000E+00
 0.0000000000000E+00
 0.0000000000000E+00
 0.0000000000000E+00
 0.0000000000000E+00
 0.0000000000000E+00
 0.0000000000000E+00
 0.0000000000000E+00
 0.0000000000000E+00
 0.0000000000000E+00
 0.0000000000000E+00
 0.0000000000000E+00
 0.0000000000000E+00
 0.0000000000000E+00
 0.0000000000000E+00
 0.0000000000000E+00
 0.0000000000000E+00
 0.0000000000000E+00
 0.0000000000000E+00
 0.0000000000000E+00
 0.0000000000000E+00
 0.0000000000000E+00
 0.0000000000000E+00
 0.0000000000000E+00
 0.0000000000000E+00
 0.0000000000000E+00
 0.0000000000000E+00
 0.0000000000000E+00
 0.0000000000000E+00
 0.0000000000000E+00
 0.0000000000000E+00
 0.0000000000000E+00
 0.0000000000000E+00
 0.0000000000000E+00
 0.0000000000000E+00
 0.0000000000000E+00
 0.0000000000000E+00
 0.0000000000000E+00
 0.0000000000000E+00
 0.0000000000000E+00
 0.0000000000000E+00
 0.0000000000000E+00
 0.0000000000000E+00
 0.0000000000000E+00
 0.0000000000000E+00
 0.0000000000000E+00
 0.0000000000000E+00
 0.0000000000000E+00
 0.0000000000000E+00
 0.0000000000000E+00
 0.0000000000000E+00
 0.0000000000000E+00
 0.0000000000000E+00
 0.0000000000000E+00
 0.0000000000000E+00
 0.0000000000000E+00
 0.0000000000000E+00
 0.0000000000000E+00
 0.0000000000000E+00
 0.0000000000000E+00
 0.0000000000000E+00
 0.0000000000000E+00
 0.0000000000000E+00
 0.0000000000000E+00
 0.0000000000000E+00
 0.0000000000000E+00
 0.0000000000000E+00
 0.0000000000000E+00
 0.0000000000000E+00
 0.0000000000000E+00
 0.0000000000000E+00
 0.0000000000000E+00
 0.0000000000000E+00
 0.0000000000000E+00
 0.0000000000000E+00
 0.0000000000000E+00
 0.0000000000000E+00
 0.0000000000000E+00
 0.0000000000000E+00
 0.0000000000000E+00
 0.0000000000000E+00
 0.0000000000000E+00
 0.0000000000000E+00
 0.0000000000000E+00
 0.0000000000000E+00
 0.0000000000000E+00
 0.0000000000000E+00
 0.0000000000000E+00
 0.0000000000000E+00
 0.0000000000000E+00
 0.0000000000000E+00
 0.0000000000000E+00
 0.0000000000000E+00
 0.0000000000000E+00
 0.0000000000000E+00
 0.0000000000000E+00
 0.0000000000000E+00
 0.0000000000000E+00
 0.0000000000000E+00
 0.0000000000000E+00
 0.0000000000000E+00
 0.0000000000000E+00
 0.0000000000000E+00
 0.0000000000000E+00
 0.0000000000000E+00
 0.0000000000000E+00
 0.0000000000000E+00
 0.0000000000000E+00
 0.0000000000000E+00
 0.0000000000000E+00
 0.0000000000000E+00
 0.0000000000000E+00
 0.0000000000000E+00
 0.0000000000000E+00
 0.0000000000000E+00
 0.0000000000000E+00
 0.0000000000000E+00
 0.0000000000000E+00
 0.0000000000000E+00
 0.0000000000000E+00
 0.0000000000000E+00
 0.0000000000000E+00
 0.0000000000000E+00
 0.0000000000000E+00
 0.0000000000000E+00
 0.0000000000000E+00
 0.0000000000000E+00
 0.0000000000000E+00
 0.0000000000000E+00
 0.0000000000000E+00
 0.0000000000000E+00
 0.0000000000000E+00
 0.0000000000000E+00
 0.0000000000000E+00
 0.0000000000000E+00
 0.0000000000000E+00
 0.0000000000000E+00
 0.0000000000000E+00
 0.0000000000000E+00
 0.0000000000000E+00
 0.0000000000000E+00
 0.0000000000000E+00
 0.0000000000000E+00
 0.0000000000000E+00
 0.0000000000000E+00
 0.0000000000000E+00
 0.0000000000000E+00
 0.0000000000000E+00
 0.0000000000000E+00
 0.0000000000000E+00
 0.0000000000000E+00
 0.0000000000000E+00
 0.0000000000000E+00
 0.0000000000000E+00
 0.0000000000000E+00
 0.0000000000000E+00
 0.0000000000000E+00
 0.0000000000000E+00
 0.0000000000000E+00
 0.0000000000000E+00
 0.0000000000000E+00
 0.0000000000000E+00
 0.0000000000000E+00
 0.0000000000000E+00
 0.0000000000000E+00
 0.0000000000000E+00
 0.0000000000000E+00
 0.0000000000000E+00
 0.0000000000000E+00
 0.0000000000000E+00
 0.0000000000000E+00
 0.0000000000000E+00
 0.0000000000000E+00
 0.0000000000000E+00
 0.0000000000000E+00
 0.0000000000000E+00
 0.0000000000000E+00
 0.0000000000000E+00
 0.0000000000000E+00
 0.0000000000000E+00
 0.0000000000000E+00
 0.0000000000000E+00
 0.0000000000000E+00
 0.0000000000000E+00
 0.0000000000000E+00
 0.0000000000000E+00
 0.0000000000000E+00
 0.0000000000000E+00
 0.0000000000000E+00
 0.0000000000000E+00
 0.0000000000000E+00
 0.0000000000000E+00
 0.0000000000000E+00
 0.0000000000000E+00
 0.0000000000000E+00
 0.0000000000000E+00
 0.0000000000000E+00
 0.0000000000000E+00
 0.0000000000000E+00
 0.0000000000000E+00
 0.0000000000000E+00
 0.0000000000000E+00
 0.0000000000000E+00
 0.0000000000000E+00
 0.0000000000000E+00
 0.0000000000000E+00
 0.0000000000000E+00
 0.0000000000000E+00
 0.0000000000000E+00
 0.0000000000000E+00
 0.0000000000000E+00
 0.0000000000000E+00
 0.0000000000000E+00
 0.0000000000000E+00
 0.0000000000000E+00
 0.0000000000000E+00
 0.0000000000000E+00
 0.0000000000000E+00
 0.0000000000000E+00
 0.0000000000000E+00
 0.0000000000000E+00
 0.0000000000000E+00
 0.0000000000000E+00
 0.0000000000000E+00
 0.0000000000000E+00
 0.0000000000000E+00
 0.0000000000000E+00
 0.0000000000000E+00
 0.0000000000000E+00
 0.0000000000000E+00
 0.0000000000000E+00
 0.0000000000000E+00
 0.0000000000000E+00
 0.0000000000000E+00
 0.0000000000000E+00
 0.0000000000000E+00
 0.0000000000000E+00
 0.0000000000000E+00
 0.0000000000000E+00
 0.0000000000000E+00
 0.0000000000000E+00
 0.0000000000000E+00
 0.0000000000000E+00
 0.0000000000000E+00
 0.0000000000000E+00
 0.0000000000000E+00
 0.0000000000000E+00
 0.0000000000000E+00
 0.0000000000000E+00
 0.0000000000000E+00
 0.0000000000000E+00
 0.0000000000000E+00
 0.0000000000000E+00
 0.0000000000000E+00
 0.0000000000000E+00
 0.0000000000000E+00
 0.0000000000000E+00
 0.0000000000000E+00
 0.0000000000000E+00
 0.0000000000000E+00
 0.0000000000000E+00
 0.0000000000000E+00
 0.0000000000000E+00
 0.0000000000000E+00
 0.0000000000000E+00
 0.0000000000000E+00
 0.0000000000000E+00
 0.0000000000000E+00
 0.0000000000000E+00
 0.0000000000000E+00
 0.0000000000000E+00
 0.0000000000000E+00
 0.0000000000000E+00
 0.0000000000000E+00
 0.0000000000000E+00
 0.0000000000000E+00
 0.0000000000000E+00
 0.0000000000000E+00
 0.0000000000000E+00
 0.0000000000000E+00
 0.0000000000000E+00
 0.0000000000000E+00
 0.0000000000000E+00
 0.0000000000000E+00
 0.0000000000000E+00
 0.0000000000000E+00
 0.0000000000000E+00
 0.0000000000000E+00
 0.0000000000000E+00
 0.0000000000000E+00
 0.0000000000000E+00
 0.0000000000000E+00
 0.0000000000000E+00
 0.0000000000000E+00
 0.0000000000000E+00
 0.0000000000000E+00
 0.0000000000000E+00
 0.0000000000000E+00
 0.0000000000000E+00
 0.0000000000000E+00
 0.0000000000000E+00
 0.0000000000000E+00
 0.0000000000000E+00
 0.0000000000000E+00
 0.0000000000000E+00
 0.0000000000000E+00
 0.0000000000000E+00
 0.0000000000000E+00
 0.0000000000000E+00
 0.0000000000000E+00
 0.0000000000000E+00
 0.0000000000000E+00
 0.0000000000000E+00
 0.0000000000000E+00
 0.0000000000000E+00
 0.0000000000000E+00
 0.0000000000000E+00
 0.0000000000000E+00
 0.0000000000000E+00
 0.0000000000000E+00
 0.0000000000000E+00
 0.0000000000000E+00
 0.0000000000000E+00
 0.0000000000000E+00
 0.0000000000000E+00
 0.0000000000000E+00
 0.0000000000000E+00
 0.0000000000000E+00
 0.0000000000000E+00
 0.0000000000000E+00
 0.0000000000000E+00
 0.0000000000000E+00
 0.0000000000000E+00
 0.0000000000000E+00
 0.0000000000000E+00
 0.0000000000000E+00
 0.0000000000000E+00
 0.0000000000000E+00
 0.0000000000000E+00
 0.0000000000000E+00
 0.0000000000000E+00
 0.0000000000000E+00
 0.0000000000000E+00
 0.0000000000000E+00
 0.0000000000000E+00
 0.0000000000000E+00
 0.0000000000000E+00
 0.0000000000000E+00
 0.0000000000000E+00
 0.0000000000000E+00
 0.0000000000000E+00
 0.0000000000000E+00
 0.0000000000000E+00
 0.0000000000000E+00
 0.0000000000000E+00
 0.0000000000000E+00
 0.0000000000000E+00
 0.0000000000000E+00
 0.0000000000000E+00
 0.0000000000000E+00
 0.0000000000000E+00
 0.0000000000000E+00
 0.0000000000000E+00
 0.0000000000000E+00
 0.0000000000000E+00
 0.0000000000000E+00
 0.0000000000000E+00
 0.0000000000000E+00
 0.0000000000000E+00
 0.0000000000000E+00
 0.0000000000000E+00
 0.0000000000000E+00
 0.0000000000000E+00
 0.0000000000000E+00
 0.0000000000000E+00
 0.0000000000000E+00
 0.0000000000000E+00
 0.0000000000000E+00
 0.0000000000000E+00
 0.0000000000000E+00
 0.0000000000000E+00
 0.0000000000000E+00
 0.0000000000000E+00
 0.0000000000000E+00
 0.0000000000000E+00
 0.0000000000000E+00
 0.0000000000000E+00
 0.0000000000000E+00
 0.0000000000000E+00
 0.0000000000000E+00
 0.0000000000000E+00
 0.0000000000000E+00
 0.0000000000000E+00
 0.0000000000000E+00
 0.0000000000000E+00
 0.0000000000000E+00
 0.0000000000000E+00
 0.0000000000000E+00
 0.0000000000000E+00
 0.0000000000000E+00
 0.0000000000000E+00
 0.0000000000000E+00
 0.0000000000000E+00
 0.0000000000000E+00
 0.0000000000000E+00
 0.0000000000000E+00
 0.0000000000000E+00
 0.0000000000000E+00
 0.0000000000000E+00
 0.0000000000000E+00
 0.0000000000000E+00
 0.0000000000000E+00
 0.0000000000000E+00
 0.0000000000000E+00
 0.0000000000000E+00
 0.0000000000000E+00
 0.0000000000000E+00
 0.0000000000000E+00
 0.0000000000000E+00
 0.0000000000000E+00
 0.0000000000000E+00
 0.0000000000000E+00
 0.0000000000000E+00
 0.0000000000000E+00
 0.0000000000000E+00
 0.0000000000000E+00
 0.0000000000000E+00
 0.0000000000000E+00
 0.0000000000000E+00
 0.0000000000000E+00
 0.0000000000000E+00
 0.0000000000000E+00
 0.0000000000000E+00
 0.0000000000000E+00
 0.0000000000000E+00
 0.0000000000000E+00
 0.0000000000000E+00
 0.0000000000000E+00
 0.0000000000000E+00
 0.0000000000000E+00
 0.0000000000000E+00
 0.0000000000000E+00
 0.0000000000000E+00
 0.0000000000000E+00
 0.0000000000000E+00
 0.0000000000000E+00
 0.0000000000000E+00
 0.0000000000000E+00
 0.0000000000000E+00
 0.0000000000000E+00
 0.0000000000000E+00
 0.0000000000000E+00
 0.0000000000000E+00
 0.0000000000000E+00
 0.0000000000000E+00
 0.0000000000000E+00
 0.0000000000000E+00
 0.0000000000000E+00
 0.0000000000000E+00
 0.0000000000000E+00
 0.0000000000000E+00
 0.0000000000000E+00
 0.0000000000000E+00
 0.0000000000000E+00
 0.0000000000000E+00
 0.0000000000000E+00
 0.0000000000000E+00
 0.0000000000000E+00
 0.0000000000000E+00
 0.0000000000000E+00
 0.0000000000000E+00
 0.0000000000000E+00
 0.0000000000000E+00
 0.0000000000000E+00
 0.0000000000000E+00
 0.0000000000000E+00
 0.0000000000000E+00
 0.0000000000000E+00
 0.0000000000000E+00
 0.0000000000000E+00
 0.0000000000000E+00
 0.0000000000000E+00
 0.0000000000000E+00
 0.0000000000000E+00
 0.0000000000000E+00
 0.0000000000000E+00
 0.0000000000000E+00
 0.0000000000000E+00
 0.0000000000000E+00
 0.0000000000000E+00
 0.0000000000000E+00
 0.0000000000000E+00
 0.0000000000000E+00
 0.0000000000000E+00
 0.0000000000000E+00
 0.0000000000000E+00
 0.0000000000000E+00
 0.0000000000000E+00
 0.0000000000000E+00
 0.0000000000000E+00
 0.0000000000000E+00
 0.0000000000000E+00
 0.0000000000000E+00
 0.0000000000000E+00
 0.0000000000000E+00
 0.0000000000000E+00
 0.0000000000000E+00
 0.0000000000000E+00
 0.0000000000000E+00
 0.0000000000000E+00
 0.0000000000000E+00
 0.0000000000000E+00
 0.0000000000000E+00
 0.0000000000000E+00
 0.0000000000000E+00
 0.0000000000000E+00
 0.0000000000000E+00
 0.0000000000000E+00
 0.0000000000000E+00
 0.0000000000000E+00
 0.0000000000000E+00
 0.0000000000000E+00
 0.0000000000000E+00
 0.0000000000000E+00
 0.0000000000000E+00
 0.0000000000000E+00
 0.0000000000000E+00
 0.0000000000000E+00
 0.0000000000000E+00
 0.0000000000000E+00
 0.0000000000000E+00
 0.0000000000000E+00
 0.0000000000000E+00
 0.0000000000000E+00
 0.0000000000000E+00
 0.0000000000000E+00
 0.0000000000000E+00
 0.0000000000000E+00
 0.0000000000000E+00
 0.0000000000000E+00
 0.0000000000000E+00
 0.0000000000000E+00
 0.0000000000000E+00
 0.0000000000000E+00
 0.0000000000000E+00
 0.0000000000000E+00
 0.0000000000000E+00
 0.0000000000000E+00
 0.0000000000000E+00
 0.0000000000000E+00
 0.0000000000000E+00
 0.0000000000000E+00
 0.0000000000000E+00
 0.0000000000000E+00
 0.0000000000000E+00
 0.0000000000000E+00
 0.0000000000000E+00
 0.0000000000000E+00
 0.0000000000000E+00
 0.0000000000000E+00
 0.0000000000000E+00
 0.0000000000000E+00
 0.0000000000000E+00
 0.0000000000000E+00
 0.0000000000000E+00
 0.0000000000000E+00
 0.0000000000000E+00
 0.0000000000000E+00
 0.0000000000000E+00
 0.0000000000000E+00
 0.0000000000000E+00
 0.0000000000000E+00
 0.0000000000000E+00
 0.0000000000000E+00
 0.0000000000000E+00
 0.0000000000000E+00
 0.0000000000000E+00
 0.0000000000000E+00
 0.0000000000000E+00
 0.0000000000000E+00
 0.0000000000000E+00
 0.0000000000000E+00
 0.0000000000000E+00
 0.0000000000000E+00
 0.0000000000000E+00
 0.0000000000000E+00
 0.0000000000000E+00
 0.0000000000000E+00
 0.0000000000000E+00
 0.0000000000000E+00
 0.0000000000000E+00
 0.0000000000000E+00
 0.0000000000000E+00
 0.0000000000000E+00
 0.0000000000000E+00
 0.0000000000000E+00
 0.0000000000000E+00
 0.0000000000000E+00
 0.0000000000000E+00
 0.0000000000000E+00
 0.0000000000000E+00
 0.0000000000000E+00
 0.0000000000000E+00
 0.0000000000000E+00
 0.0000000000000E+00
 0.0000000000000E+00
 0.0000000000000E+00
 0.0000000000000E+00
 0.0000000000000E+00
 0.0000000000000E+00
 0.0000000000000E+00
 0.0000000000000E+00
 0.0000000000000E+00
 0.0000000000000E+00
 0.0000000000000E+00
 0.0000000000000E+00
 0.0000000000000E+00
 0.0000000000000E+00
 0.0000000000000E+00
 0.0000000000000E+00
 0.0000000000000E+00
 0.0000000000000E+00
 0.0000000000000E+00
 0.0000000000000E+00
 0.0000000000000E+00
 0.0000000000000E+00
 0.0000000000000E+00
 0.0000000000000E+00
 0.0000000000000E+00
 0.0000000000000E+00
 0.0000000000000E+00
 0.0000000000000E+00
 0.0000000000000E+00
 0.0000000000000E+00
 0.0000000000000E+00
 0.0000000000000E+00
 0.0000000000000E+00
 0.0000000000000E+00
 0.0000000000000E+00
 0.0000000000000E+00
 0.0000000000000E+00
 0.0000000000000E+00
 0.0000000000000E+00
 0.0000000000000E+00
 0.0000000000000E+00
 0.0000000000000E+00
 0.0000000000000E+00
 0.0000000000000E+00
 0.0000000000000E+00
 0.0000000000000E+00
 0.0000000000000E+00
 0.0000000000000E+00
 0.0000000000000E+00
 0.0000000000000E+00
 0.0000000000000E+00
 0.0000000000000E+00
 0.0000000000000E+00
 0.0000000000000E+00
 0.0000000000000E+00
 0.0000000000000E+00
 0.0000000000000E+00
 0.0000000000000E+00
 0.0000000000000E+00
 0.0000000000000E+00
 0.0000000000000E+00
 0.0000000000000E+00
 0.0000000000000E+00
 0.0000000000000E+00
 0.0000000000000E+00
 0.0000000000000E+00
 0.0000000000000E+00
 0.0000000000000E+00
 0.0000000000000E+00
 0.0000000000000E+00
 0.0000000000000E+00
 0.0000000000000E+00
 0.0000000000000E+00
 0.0000000000000E+00
 0.0000000000000E+00
 0.0000000000000E+00
 0.0000000000000E+00
 0.0000000000000E+00
 0.0000000000000E+00
 0.0000000000000E+00
 0.0000000000000E+00
 0.0000000000000E+00
 0.0000000000000E+00
 0.0000000000000E+00
 0.0000000000000E+00
 0.0000000000000E+00
 0.0000000000000E+00
 0.0000000000000E+00
 0.0000000000000E+00
 0.0000000000000E+00
 0.0000000000000E+00
 0.0000000000000E+00
 0.0000000000000E+00
 0.0000000000000E+00
 0.0000000000000E+00
 0.0000000000000E+00
 0.0000000000000E+00
 0.0000000000000E+00
 0.0000000000000E+00
 0.0000000000000E+00
 0.0000000000000E+00
 0.0000000000000E+00
 0.0000000000000E+00
 0.0000000000000E+00
 0.0000000000000E+00
 0.0000000000000E+00
 0.0000000000000E+00
 0.0000000000000E+00
 0.0000000000000E+00
 0.0000000000000E+00
 0.0000000000000E+00
 0.0000000000000E+00
 0.0000000000000E+00
 0.0000000000000E+00
 0.0000000000000E+00
 0.0000000000000E+00
 0.0000000000000E+00
 0.0000000000000E+00
 0.0000000000000E+00
 0.0000000000000E+00
 0.0000000000000E+00
 0.0000000000000E+00
 0.0000000000000E+00
 0.0000000000000E+00
 0.0000000000000E+00
 0.0000000000000E+00
 0.0000000000000E+00
 0.0000000000000E+00
 0.0000000000000E+00
 0.0000000000000E+00
 0.0000000000000E+00
 0.0000000000000E+00
 0.0000000000000E+00
 0.0000000000000E+00
 0.0000000000000E+00
 0.0000000000000E+00
 0.0000000000000E+00
 0.0000000000000E+00
 0.0000000000000E+00
 0.0000000000000E+00
 0.0000000000000E+00
 0.0000000000000E+00
 0.0000000000000E+00
 0.0000000000000E+00
 0.0000000000000E+00
 0.0000000000000E+00
 0.0000000000000E+00
 0.0000000000000E+00
 0.0000000000000E+00
 0.0000000000000E+00
 0.0000000000000E+00
 0.0000000000000E+00
 0.0000000000000E+00
 0.0000000000000E+00
 0.0000000000000E+00
 0.0000000000000E+00
 0.0000000000000E+00
 0.0000000000000E+00
 0.0000000000000E+00
 0.0000000000000E+00
 0.0000000000000E+00
 0.0000000000000E+00
 0.0000000000000E+00
 0.0000000000000E+00
 0.0000000000000E+00
 0.0000000000000E+00
 0.0000000000000E+00
 0.0000000000000E+00
 0.0000000000000E+00
 0.0000000000000E+00
 0.0000000000000E+00
 0.0000000000000E+00
 0.0000000000000E+00
 0.0000000000000E+00
 0.0000000000000E+00
 0.0000000000000E+00
 0.0000000000000E+00
 0.0000000000000E+00
 0.0000000000000E+00
 0.0000000000000E+00
 0.0000000000000E+00
 0.0000000000000E+00
 0.0000000000000E+00
 0.0000000000000E+00
 0.0000000000000E+00
 0.0000000000000E+00
 0.0000000000000E+00
 0.0000000000000E+00
 0.0000000000000E+00
 0.0000000000000E+00
 0.0000000000000E+00
 0.0000000000000E+00
 0.0000000000000E+00
 0.0000000000000E+00
 0.0000000000000E+00
 0.0000000000000E+00
 0.0000000000000E+00
 0.0000000000000E+00
 0.0000000000000E+00
 0.0000000000000E+00
 0.0000000000000E+00
 0.0000000000000E+00
 0.0000000000000E+00
 0.0000000000000E+00
 0.0000000000000E+00
 0.0000000000000E+00
 0.0000000000000E+00
 0.0000000000000E+00
 0.0000000000000E+00
 0.0000000000000E+00
 0.0000000000000E+00
 0.0000000000000E+00
 0.0000000000000E+00
 0.0000000000000E+00
 0.0000000000000E+00
 0.0000000000000E+00
 0.0000000000000E+00
 0.0000000000000E+00
 0.0000000000000E+00
 0.0000000000000E+00
 0.0000000000000E+00
 0.0000000000000E+00
 0.0000000000000E+00
 0.0000000000000E+00
 0.0000000000000E+00
 0.0000000000000E+00
 0.0000000000000E+00
 0.0000000000000E+00
 0.0000000000000E+00
 0.0000000000000E+00
 0.0000000000000E+00
 0.0000000000000E+00
 0.0000000000000E+00
 0.0000000000000E+00
 0.0000000000000E+00
 0.0000000000000E+00
 0.0000000000000E+00
 0.0000000000000E+00
 0.0000000000000E+00
 0.0000000000000E+00
 0.0000000000000E+00
 0.0000000000000E+00
 0.0000000000000E+00
 0.0000000000000E+00
 0.0000000000000E+00
 0.0000000000000E+00
 0.0000000000000E+00
 0.0000000000000E+00
 0.0000000000000E+00
 0.0000000000000E+00
 0.0000000000000E+00
 0.0000000000000E+00
 0.0000000000000E+00
 0.0000000000000E+00
 0.0000000000000E+00
 0.0000000000000E+00
 0.0000000000000E+00
 0.0000000000000E+00
 0.0000000000000E+00
 0.0000000000000E+00
 0.0000000000000E+00
 0.0000000000000E+00
 0.0000000000000E+00
 0.0000000000000E+00
 0.0000000000000E+00
 0.0000000000000E+00
 0.0000000000000E+00
 0.0000000000000E+00
 0.0000000000000E+00
 0.0000000000000E+00
 0.0000000000000E+00
 0.0000000000000E+00
 0.0000000000000E+00
 0.0000000000000E+00
 0.0000000000000E+00
 0.0000000000000E+00
 0.0000000000000E+00
 0.0000000000000E+00
 0.0000000000000E+00
 0.0000000000000E+00
 0.0000000000000E+00
 0.0000000000000E+00
 0.0000000000000E+00
 0.0000000000000E+00
 0.0000000000000E+00
 0.0000000000000E+00
 0.0000000000000E+00
 0.0000000000000E+00
 0.0000000000000E+00
 0.0000000000000E+00
 0.0000000000000E+00
 0.0000000000000E+00
 0.0000000000000E+00
 0.0000000000000E+00
 0.0000000000000E+00
 0.0000000000000E+00
 0.0000000000000E+00
 0.0000000000000E+00
 0.0000000000000E+00
 0.0000000000000E+00
 0.0000000000000E+00
 0.0000000000000E+00
 0.0000000000000E+00
 0.0000000000000E+00
 0.0000000000000E+00
 0.0000000000000E+00
 0.0000000000000E+00
 0.0000000000000E+00
 0.0000000000000E+00
 0.0000000000000E+00
 0.0000000000000E+00
 0.0000000000000E+00
 0.0000000000000E+00
 0.0000000000000E+00
 0.0000000000000E+00
 0.0000000000000E+00
 0.0000000000000E+00
 0.0000000000000E+00
 0.0000000000000E+00
 0.0000000000000E+00
 0.0000000000000E+00
 0.0000000000000E+00
 0.0000000000000E+00
 0.0000000000000E+00
 0.0000000000000E+00
 0.0000000000000E+00
 0.0000000000000E+00
 0.0000000000000E+00
 0.0000000000000E+00
 0.0000000000000E+00
 0.0000000000000E+00
 0.0000000000000E+00
 0.0000000000000E+00
 0.0000000000000E+00
 0.0000000000000E+00
 0.0000000000000E+00
 0.0000000000000E+00
 0.0000000000000E+00
 0.0000000000000E+00
 0.0000000000000E+00
 0.0000000000000E+00
 0.0000000000000E+00
 0.0000000000000E+00
 0.0000000000000E+00
 0.0000000000000E+00
 0.0000000000000E+00
 0.0000000000000E+00
 0.0000000000000E+00
 0.0000000000000E+00
 0.0000000000000E+00
 0.0000000000000E+00
 0.0000000000000E+00
 0.0000000000000E+00
 0.0000000000000E+00
 0.0000000000000E+00
 0.0000000000000E+00
 0.0000000000000E+00
 0.0000000000000E+00
 0.0000000000000E+00
 0.0000000000000E+00
 0.0000000000000E+00
 0.0000000000000E+00
 0.0000000000000E+00
 0.0000000000000E+00
 0.0000000000000E+00
 0.0000000000000E+00
 0.0000000000000E+00
 0.0000000000000E+00
 0.0000000000000E+00
 0.0000000000000E+00
 0.0000000000000E+00
 0.0000000000000E+00
 0.0000000000000E+00
 0.0000000000000E+00
 0.0000000000000E+00
 0.0000000000000E+00
 0.0000000000000E+00
 0.0000000000000E+00
 0.0000000000000E+00
 0.0000000000000E+00
 0.0000000000000E+00
 0.0000000000000E+00
 0.0000000000000E+00
 0.0000000000000E+00
 0.0000000000000E+00
 0.0000000000000E+00
 0.0000000000000E+00
 0.0000000000000E+00
 0.0000000000000E+00
 0.0000000000000E+00
 0.0000000000000E+00
 0.0000000000000E+00
 0.0000000000000E+00
 0.0000000000000E+00
 0.0000000000000E+00
 0.0000000000000E+00
 0.0000000000000E+00
 0.0000000000000E+00
 0.0000000000000E+00
 0.0000000000000E+00
 0.0000000000000E+00
 0.0000000000000E+00
 0.0000000000000E+00
 0.0000000000000E+00
 0.0000000000000E+00
 0.0000000000000E+00
 0.0000000000000E+00
 0.0000000000000E+00
 0.0000000000000E+00
 0.0000000000000E+00
 0.0000000000000E+00
 0.0000000000000E+00
 0.0000000000000E+00
 0.0000000000000E+00
 0.0000000000000E+00
 0.0000000000000E+00
 0.0000000000000E+00
 0.0000000000000E+00
 0.0000000000000E+00
 0.0000000000000E+00
 0.0000000000000E+00
 0.0000000000000E+00
 0.0000000000000E+00
 0.0000000000000E+00
 0.0000000000000E+00
 0.0000000000000E+00
 0.0000000000000E+00
 0.0000000000000E+00
 0.0000000000000E+00
 0.0000000000000E+00
 0.0000000000000E+00
 0.0000000000000E+00
 0.0000000000000E+00
 0.0000000000000E+00
 0.0000000000000E+00
 0.0000000000000E+00
 0.0000000000000E+00
 0.0000000000000E+00
 0.0000000000000E+00
 0.0000000000000E+00
 0.0000000000000E+00
 0.0000000000000E+00
 0.0000000000000E+00
 0.0000000000000E+00
 0.0000000000000E+00
 0.0000000000000E+00
 0.0000000000000E+00
 0.0000000000000E+00
 0.0000000000000E+00
 0.0000000000000E+00
 0.0000000000000E+00
 0.0000000000000E+00
 0.0000000000000E+00
 0.0000000000000E+00
 0.0000000000000E+00
 0.0000000000000E+00
 0.0000000000000E+00
 0.0000000000000E+00
 0.0000000000000E+00
 0.0000000000000E+00
 0.0000000000000E+00
 0.0000000000000E+00
 0.0000000000000E+00
 0.0000000000000E+00
 0.0000000000000E+00
 0.0000000000000E+00
 0.0000000000000E+00
 0.0000000000000E+00
 0.0000000000000E+00
 0.0000000000000E+00
 0.0000000000000E+00
 0.0000000000000E+00
 0.0000000000000E+00
 0.0000000000000E+00
 0.0000000000000E+00
 0.0000000000000E+00
 0.0000000000000E+00
 0.0000000000000E+00
 0.0000000000000E+00
 0.0000000000000E+00
 0.0000000000000E+00
 0.0000000000000E+00
 0.0000000000000E+00
 0.0000000000000E+00
 0.0000000000000E+00
 0.0000000000000E+00
 0.0000000000000E+00
 0.0000000000000E+00
 0.0000000000000E+00
 0.0000000000000E+00
 0.0000000000000E+00
 0.0000000000000E+00
 0.0000000000000E+00
 0.0000000000000E+00
 0.0000000000000E+00
 0.0000000000000E+00
 0.0000000000000E+00
 0.0000000000000E+00
 0.0000000000000E+00
 0.0000000000000E+00
 0.0000000000000E+00
 0.0000000000000E+00
 0.0000000000000E+00
 0.0000000000000E+00
 0.0000000000000E+00
 0.0000000000000E+00
 0.0000000000000E+00
 0.0000000000000E+00
 0.0000000000000E+00
 0.0000000000000E+00
 0.0000000000000E+00
 0.0000000000000E+00
 0.0000000000000E+00
 0.0000000000000E+00
 0.0000000000000E+00
 0.0000000000000E+00
 0.0000000000000E+00
 0.0000000000000E+00
 0.0000000000000E+00
 0.0000000000000E+00
 0.0000000000000E+00
 0.0000000000000E+00
 0.0000000000000E+00
 0.0000000000000E+00
 0.0000000000000E+00
 0.0000000000000E+00
 0.0000000000000E+00
 0.0000000000000E+00
 0.0000000000000E+00
 0.0000000000000E+00
 0.0000000000000E+00
 0.0000000000000E+00
 0.0000000000000E+00
 0.0000000000000E+00
 0.0000000000000E+00
 0.0000000000000E+00
 0.0000000000000E+00
 0.0000000000000E+00
 0.0000000000000E+00
 0.0000000000000E+00
 0.0000000000000E+00
 0.0000000000000E+00
 0.0000000000000E+00
 0.0000000000000E+00
 0.0000000000000E+00
 0.0000000000000E+00
 0.0000000000000E+00
 0.0000000000000E+00
 0.0000000000000E+00
 0.0000000000000E+00
 0.0000000000000E+00
 0.0000000000000E+00
 0.0000000000000E+00
 0.0000000000000E+00
 0.0000000000000E+00
 0.0000000000000E+00
 0.0000000000000E+00
 0.0000000000000E+00
 0.0000000000000E+00
 0.0000000000000E+00
 0.0000000000000E+00
 0.0000000000000E+00
 0.0000000000000E+00
 0.0000000000000E+00
 0.0000000000000E+00
 0.0000000000000E+00
 0.0000000000000E+00
 0.0000000000000E+00
 0.0000000000000E+00
 0.0000000000000E+00
 0.0000000000000E+00
 0.0000000000000E+00
 0.0000000000000E+00
 0.0000000000000E+00
 0.0000000000000E+00
 0.0000000000000E+00
 0.0000000000000E+00
 0.0000000000000E+00
 0.0000000000000E+00
 0.0000000000000E+00
 0.0000000000000E+00
 0.0000000000000E+00
 0.0000000000000E+00
 0.0000000000000E+00
 0.0000000000000E+00
 0.0000000000000E+00
 0.0000000000000E+00
 0.0000000000000E+00
 0.0000000000000E+00
 0.0000000000000E+00
 0.0000000000000E+00
 0.0000000000000E+00
 0.0000000000000E+00
 0.0000000000000E+00
 0.0000000000000E+00
 0.0000000000000E+00
 0.0000000000000E+00
 0.0000000000000E+00
 0.0000000000000E+00
 0.0000000000000E+00
 0.0000000000000E+00
 0.0000000000000E+00
 0.0000000000000E+00
 0.0000000000000E+00
 0.0000000000000E+00
 0.0000000000000E+00
 0.0000000000000E+00
 0.0000000000000E+00
 0.0000000000000E+00
 0.0000000000000E+00
 0.0000000000000E+00
 0.0000000000000E+00
 0.0000000000000E+00
 0.0000000000000E+00
 0.0000000000000E+00
 0.0000000000000E+00
 0.0000000000000E+00
 0.0000000000000E+00
 0.0000000000000E+00
 0.0000000000000E+00
 0.0000000000000E+00
 0.0000000000000E+00
 0.0000000000000E+00
 0.0000000000000E+00
 0.0000000000000E+00
 0.0000000000000E+00
 0.0000000000000E+00
 0.0000000000000E+00
 0.0000000000000E+00
 0.0000000000000E+00
 0.0000000000000E+00
 0.0000000000000E+00
 0.0000000000000E+00
 0.0000000000000E+00
 0.0000000000000E+00
 0.0000000000000E+00
 0.0000000000000E+00
 0.0000000000000E+00
 0.0000000000000E+00
 0.0000000000000E+00
 0.0000000000000E+00
 0.0000000000000E+00
 0.0000000000000E+00
 0.0000000000000E+00
 0.0000000000000E+00
 0.0000000000000E+00
 0.0000000000000E+00
 0.0000000000000E+00
 0.0000000000000E+00
 0.0000000000000E+00
 0.0000000000000E+00
 0.0000000000000E+00
 0.0000000000000E+00
 0.0000000000000E+00
 0.0000000000000E+00
 0.0000000000000E+00
 0.0000000000000E+00
 0.0000000000000E+00
 0.0000000000000E+00
 0.0000000000000E+00
 0.0000000000000E+00
 0.0000000000000E+00
 0.0000000000000E+00
 0.0000000000000E+00
 0.0000000000000E+00
 0.0000000000000E+00
 0.0000000000000E+00
 0.0000000000000E+00
 0.0000000000000E+00
 0.0000000000000E+00
 0.0000000000000E+00
 0.0000000000000E+00
 0.0000000000000E+00
 0.0000000000000E+00
 0.0000000000000E+00
 0.0000000000000E+00
 0.0000000000000E+00
 0.0000000000000E+00
 0.0000000000000E+00
 0.0000000000000E+00
 0.0000000000000E+00
 0.0000000000000E+00
 0.0000000000000E+00
 0.0000000000000E+00
 0.0000000000000E+00
 0.0000000000000E+00
 0.0000000000000E+00
 0.0000000000000E+00
 0.0000000000000E+00
 0.0000000000000E+00
 0.0000000000000E+00
 0.0000000000000E+00
 0.0000000000000E+00
 0.0000000000000E+00
 0.0000000000000E+00
 0.0000000000000E+00
 0.0000000000000E+00
 0.0000000000000E+00
 0.0000000000000E+00
 0.0000000000000E+00
 0.0000000000000E+00
 0.0000000000000E+00
 0.0000000000000E+00
 0.0000000000000E+00
 0.0000000000000E+00
 0.0000000000000E+00
 0.0000000000000E+00
 0.0000000000000E+00
 0.0000000000000E+00
 0.0000000000000E+00
 0.0000000000000E+00
 0.0000000000000E+00
 0.0000000000000E+00
 0.0000000000000E+00
 0.0000000000000E+00
 0.0000000000000E+00
 0.0000000000000E+00
 0.0000000000000E+00
 0.0000000000000E+00
 0.0000000000000E+00
 0.0000000000000E+00
 0.0000000000000E+00
 0.0000000000000E+00
 0.0000000000000E+00
 0.0000000000000E+00
 0.0000000000000E+00
 0.0000000000000E+00
 0.0000000000000E+00
 0.0000000000000E+00
 0.0000000000000E+00
 0.0000000000000E+00
 0.0000000000000E+00
 0.0000000000000E+00
 0.0000000000000E+00
 0.0000000000000E+00
 0.0000000000000E+00
 0.0000000000000E+00
 0.0000000000000E+00
 0.0000000000000E+00
 0.0000000000000E+00
 0.0000000000000E+00
 0.0000000000000E+00
 0.0000000000000E+00
 0.0000000000000E+00
 0.0000000000000E+00
 0.0000000000000E+00
 0.0000000000000E+00
 0.0000000000000E+00
 0.0000000000000E+00
 0.0000000000000E+00
 0.0000000000000E+00
 0.0000000000000E+00
 0.0000000000000E+00
 0.0000000000000E+00
 0.0000000000000E+00
 0.0000000000000E+00
 0.0000000000000E+00
 0.0000000000000E+00
 0.0000000000000E+00
 0.0000000000000E+00
 0.0000000000000E+00
 0.0000000000000E+00
 0.0000000000000E+00
 0.0000000000000E+00
 0.0000000000000E+00
 0.0000000000000E+00
 0.0000000000000E+00
 0.0000000000000E+00
 0.0000000000000E+00
 0.0000000000000E+00
 0.0000000000000E+00
 0.0000000000000E+00
 0.0000000000000E+00
 0.0000000000000E+00
 0.0000000000000E+00
 0.0000000000000E+00
 0.0000000000000E+00
 0.0000000000000E+00
 0.0000000000000E+00
 0.0000000000000E+00
 0.0000000000000E+00
 0.0000000000000E+00
 0.0000000000000E+00
 0.0000000000000E+00
 0.0000000000000E+00
 0.0000000000000E+00
 0.0000000000000E+00
 0.0000000000000E+00
 0.0000000000000E+00
 0.0000000000000E+00
 0.0000000000000E+00
 0.0000000000000E+00
 0.0000000000000E+00
 0.0000000000000E+00
 0.0000000000000E+00
 0.0000000000000E+00
 0.0000000000000E+00
 0.0000000000000E+00
 0.0000000000000E+00
 0.0000000000000E+00
 0.0000000000000E+00
 0.0000000000000E+00
 0.0000000000000E+00
 0.0000000000000E+00
 0.0000000000000E+00
 0.0000000000000E+00
 0.0000000000000E+00
 0.0000000000000E+00
 0.0000000000000E+00
 0.0000000000000E+00
 0.0000000000000E+00
 0.0000000000000E+00
 0.0000000000000E+00
 0.0000000000000E+00
 0.0000000000000E+00
 0.0000000000000E+00
 0.0000000000000E+00
 0.0000000000000E+00
 0.0000000000000E+00
 0.0000000000000E+00
 0.0000000000000E+00
 0.0000000000000E+00
 0.0000000000000E+00
 0.0000000000000E+00
 0.0000000000000E+00
 0.0000000000000E+00
 0.0000000000000E+00
 0.0000000000000E+00
 0.0000000000000E+00
 0.0000000000000E+00
 0.0000000000000E+00
 0.0000000000000E+00
 0.0000000000000E+00
 0.0000000000000E+00
 0.0000000000000E+00
 0.0000000000000E+00
 0.0000000000000E+00
 0.0000000000000E+00
 0.0000000000000E+00
 0.0000000000000E+00
 0.0000000000000E+00
 0.0000000000000E+00
 0.0000000000000E+00
 0.0000000000000E+00
 0.0000000000000E+00
 0.0000000000000E+00
 0.0000000000000E+00
 0.0000000000000E+00
 0.0000000000000E+00
 0.0000000000000E+00
 0.0000000000000E+00
 0.0000000000000E+00
 0.0000000000000E+00
 0.0000000000000E+00
 0.0000000000000E+00
 0.0000000000000E+00
 0.0000000000000E+00
 0.0000000000000E+00
 0.0000000000000E+00
 0.0000000000000E+00
 0.0000000000000E+00
 0.0000000000000E+00
 0.0000000000000E+00
 0.0000000000000E+00
 0.0000000000000E+00
 0.0000000000000E+00
 0.0000000000000E+00
 0.0000000000000E+00
 0.0000000000000E+00
 0.0000000000000E+00
 0.0000000000000E+00
 0.0000000000000E+00
 0.0000000000000E+00
 0.0000000000000E+00
 0.0000000000000E+00
 0.0000000000000E+00
 0.0000000000000E+00
 0.0000000000000E+00
 0.0000000000000E+00
 0.0000000000000E+00
 0.0000000000000E+00
 0.0000000000000E+00
 0.0000000000000E+00
 0.0000000000000E+00
 0.0000000000000E+00
 0.0000000000000E+00
 0.0000000000000E+00
 0.0000000000000E+00
 0.0000000000000E+00
 0.0000000000000E+00
 0.0000000000000E+00
 0.0000000000000E+00
 0.0000000000000E+00
 0.0000000000000E+00
 0.0000000000000E+00
 0.0000000000000E+00
 0.0000000000000E+00
 0.0000000000000E+00
 0.0000000000000E+00
 0.0000000000000E+00
 0.0000000000000E+00
 0.0000000000000E+00
 0.0000000000000E+00
 0.0000000000000E+00
 0.0000000000000E+00
 0.0000000000000E+00
 0.0000000000000E+00
 0.0000000000000E+00
 0.0000000000000E+00
 0.0000000000000E+00
 0.0000000000000E+00
 0.0000000000000E+00
 0.0000000000000E+00
 0.0000000000000E+00
 0.0000000000000E+00
 0.0000000000000E+00
 0.0000000000000E+00
 0.0000000000000E+00
 0.0000000000000E+00
 0.0000000000000E+00
 0.0000000000000E+00
 0.0000000000000E+00
 0.0000000000000E+00
 0.0000000000000E+00
 0.0000000000000E+00
 0.0000000000000E+00
 0.0000000000000E+00
 0.0000000000000E+00
 0.0000000000000E+00
 0.0000000000000E+00
 0.0000000000000E+00
 0.0000000000000E+00
 0.0000000000000E+00
 0.0000000000000E+00
 0.0000000000000E+00
 0.0000000000000E+00
 0.0000000000000E+00
 0.0000000000000E+00
 0.0000000000000E+00
 0.0000000000000E+00
 0.0000000000000E+00
 0.0000000000000E+00
 0.0000000000000E+00
 0.0000000000000E+00
 0.0000000000000E+00
 0.0000000000000E+00
 0.0000000000000E+00
 0.0000000000000E+00
 0.0000000000000E+00
 0.0000000000000E+00
 0.0000000000000E+00
 0.0000000000000E+00
 0.0000000000000E+00
 0.0000000000000E+00
 0.0000000000000E+00
 0.0000000000000E+00
 0.0000000000000E+00
 0.0000000000000E+00
 0.0000000000000E+00
 0.0000000000000E+00
 0.0000000000000E+00
 0.0000000000000E+00
 0.0000000000000E+00
 0.0000000000000E+00
 0.0000000000000E+00
 0.0000000000000E+00
 0.0000000000000E+00
 0.0000000000000E+00
 0.0000000000000E+00
 0.0000000000000E+00
 0.0000000000000E+00
 0.0000000000000E+00
 0.0000000000000E+00
 0.0000000000000E+00
 0.0000000000000E+00
 0.0000000000000E+00
 0.0000000000000E+00
 0.0000000000000E+00
 0.0000000000000E+00
 0.0000000000000E+00
 0.0000000000000E+00
 0.0000000000000E+00
 0.0000000000000E+00
 0.0000000000000E+00
 0.0000000000000E+00
 0.0000000000000E+00
 0.0000000000000E+00
 0.0000000000000E+00
 0.0000000000000E+00
 0.0000000000000E+00
 0.0000000000000E+00
 0.0000000000000E+00
 0.0000000000000E+00
 0.0000000000000E+00
 0.0000000000000E+00
 0.0000000000000E+00
 0.0000000000000E+00
 0.0000000000000E+00
 0.0000000000000E+00
 0.0000000000000E+00
 0.0000000000000E+00
 0.0000000000000E+00
 0.0000000000000E+00
 0.0000000000000E+00
 0.0000000000000E+00
 0.0000000000000E+00
 0.0000000000000E+00
 0.0000000000000E+00
 0.0000000000000E+00
 0.0000000000000E+00
 0.0000000000000E+00
 0.0000000000000E+00
 0.0000000000000E+00
 0.0000000000000E+00
 0.0000000000000E+00
 0.0000000000000E+00
 0.0000000000000E+00
 0.0000000000000E+00
 0.0000000000000E+00
 0.0000000000000E+00
 0.0000000000000E+00
 0.0000000000000E+00
 0.0000000000000E+00
 0.0000000000000E+00
 0.0000000000000E+00
 0.0000000000000E+00
 0.0000000000000E+00
 0.0000000000000E+00
 0.0000000000000E+00
 0.0000000000000E+00
 0.0000000000000E+00
 0.0000000000000E+00
 0.0000000000000E+00
 0.0000000000000E+00
 0.0000000000000E+00
 0.0000000000000E+00
 0.0000000000000E+00
 0.0000000000000E+00
 0.0000000000000E+00
 0.0000000000000E+00
 0.0000000000000E+00
 0.0000000000000E+00
 0.0000000000000E+00
 0.0000000000000E+00
 0.0000000000000E+00
 0.0000000000000E+00
 0.0000000000000E+00
 0.0000000000000E+00
 0.0000000000000E+00
 0.0000000000000E+00
 0.0000000000000E+00
 0.0000000000000E+00
 0.0000000000000E+00
 0.0000000000000E+00
 0.0000000000000E+00
 0.0000000000000E+00
 0.0000000000000E+00
 0.0000000000000E+00
 0.0000000000000E+00
 0.0000000000000E+00
 0.0000000000000E+00
 0.0000000000000E+00
 0.0000000000000E+00
 0.0000000000000E+00
 0.0000000000000E+00
 0.0000000000000E+00
 0.0000000000000E+00
 0.0000000000000E+00
 0.0000000000000E+00
 0.0000000000000E+00
 0.0000000000000E+00
 0.0000000000000E+00
 0.0000000000000E+00
 0.0000000000000E+00
 0.0000000000000E+00
 0.0000000000000E+00
 0.0000000000000E+00
 0.0000000000000E+00
 0.0000000000000E+00
 0.0000000000000E+00
 0.0000000000000E+00
 0.0000000000000E+00
 0.0000000000000E+00
 0.0000000000000E+00
 0.0000000000000E+00
 0.0000000000000E+00
 0.0000000000000E+00
 0.0000000000000E+00
 0.0000000000000E+00
 0.0000000000000E+00
 0.0000000000000E+00
 0.0000000000000E+00
 0.0000000000000E+00
 0.0000000000000E+00
 0.0000000000000E+00
 0.0000000000000E+00
 0.0000000000000E+00
 0.0000000000000E+00
 0.0000000000000E+00
 0.0000000000000E+00
 0.0000000000000E+00
 0.0000000000000E+00
 0.0000000000000E+00
 0.0000000000000E+00
 0.0000000000000E+00
 0.0000000000000E+00
 0.0000000000000E+00
 0.0000000000000E+00
 0.0000000000000E+00
 0.0000000000000E+00
 0.0000000000000E+00
 0.0000000000000E+00
 0.0000000000000E+00
 0.0000000000000E+00
 0.0000000000000E+00
 0.0000000000000E+00
 0.0000000000000E+00
 0.0000000000000E+00
 0.0000000000000E+00
 0.0000000000000E+00
 0.0000000000000E+00
 0.0000000000000E+00
 0.0000000000000E+00
 0.0000000000000E+00
 0.0000000000000E+00
 0.0000000000000E+00
 0.0000000000000E+00
 0.0000000000000E+00
 0.0000000000000E+00
 0.0000000000000E+00
 0.0000000000000E+00
 0.0000000000000E+00
 0.0000000000000E+00
 0.0000000000000E+00
 0.0000000000000E+00
 0.0000000000000E+00
 0.0000000000000E+00
 0.0000000000000E+00
 0.0000000000000E+00
 0.0000000000000E+00
 0.0000000000000E+00
 0.0000000000000E+00
 0.0000000000000E+00
 0.0000000000000E+00
 0.0000000000000E+00
 0.0000000000000E+00
 0.0000000000000E+00
 0.0000000000000E+00
 0.0000000000000E+00
 0.0000000000000E+00
 0.0000000000000E+00
 0.0000000000000E+00
 0.0000000000000E+00
 0.0000000000000E+00
 0.0000000000000E+00
 0.0000000000000E+00
 0.0000000000000E+00
 0.0000000000000E+00
 0.0000000000000E+00
 0.0000000000000E+00
 0.0000000000000E+00
 0.0000000000000E+00
 0.0000000000000E+00
 0.0000000000000E+00
 0.0000000000000E+00
 0.0000000000000E+00
 0.0000000000000E+00
 0.0000000000000E+00
 0.0000000000000E+00
 0.0000000000000E+00
 0.0000000000000E+00
 0.0000000000000E+00
 0.0000000000000E+00
 0.0000000000000E+00
 0.0000000000000E+00
 0.0000000000000E+00
 0.0000000000000E+00
 0.0000000000000E+00
 0.0000000000000E+00
 0.0000000000000E+00
 0.0000000000000E+00
 0.0000000000000E+00
 0.0000000000000E+00
 0.0000000000000E+00
 0.0000000000000E+00
 0.0000000000000E+00
 0.0000000000000E+00
 0.0000000000000E+00
 0.0000000000000E+00
 0.0000000000000E+00
 0.0000000000000E+00
 0.0000000000000E+00
 0.0000000000000E+00
 0.0000000000000E+00
 0.0000000000000E+00
 0.0000000000000E+00
 0.0000000000000E+00
 0.0000000000000E+00
 0.0000000000000E+00
 0.0000000000000E+00
 0.0000000000000E+00
 0.0000000000000E+00
 0.0000000000000E+00
 0.0000000000000E+00
 0.0000000000000E+00
 0.0000000000000E+00
 0.0000000000000E+00
 0.0000000000000E+00
 0.0000000000000E+00
 0.0000000000000E+00
 0.0000000000000E+00
 0.0000000000000E+00
 0.0000000000000E+00
 0.0000000000000E+00
 0.0000000000000E+00
 0.0000000000000E+00
 0.0000000000000E+00
 0.0000000000000E+00
 0.0000000000000E+00
 0.0000000000000E+00
 0.0000000000000E+00
 0.0000000000000E+00
 0.0000000000000E+00
 0.0000000000000E+00
 0.0000000000000E+00
 0.0000000000000E+00
 0.0000000000000E+00
 0.0000000000000E+00
 0.0000000000000E+00
 0.0000000000000E+00
 0.0000000000000E+00
 0.0000000000000E+00
 0.0000000000000E+00
 0.0000000000000E+00
 0.0000000000000E+00
 0.0000000000000E+00
 0.0000000000000E+00
 0.0000000000000E+00
 0.0000000000000E+00
 0.0000000000000E+00
 0.0000000000000E+00
 0.0000000000000E+00
 0.0000000000000E+00
 0.0000000000000E+00
 0.0000000000000E+00
 0.0000000000000E+00
 0.0000000000000E+00
 0.0000000000000E+00
 0.0000000000000E+00
 0.0000000000000E+00
 0.0000000000000E+00
 0.0000000000000E+00
 0.0000000000000E+00
 0.0000000000000E+00
 0.0000000000000E+00
 0.0000000000000E+00
 0.0000000000000E+00
 0.0000000000000E+00
 0.0000000000000E+00
 0.0000000000000E+00
 0.0000000000000E+00
 0.0000000000000E+00
 0.0000000000000E+00
 0.0000000000000E+00
 0.0000000000000E+00
 0.0000000000000E+00
 0.0000000000000E+00
 0.0000000000000E+00
 0.0000000000000E+00
 0.0000000000000E+00
 0.0000000000000E+00
 0.0000000000000E+00
 0.0000000000000E+00
 0.0000000000000E+00
 0.0000000000000E+00
 0.0000000000000E+00
 0.0000000000000E+00
 0.0000000000000E+00
 0.0000000000000E+00
 0.0000000000000E+00
 0.0000000000000E+00
 0.0000000000000E+00
 0.0000000000000E+00
 0.0000000000000E+00
 0.0000000000000E+00
 0.0000000000000E+00
 0.0000000000000E+00
 0.0000000000000E+00
 0.0000000000000E+00
 0.0000000000000E+00
 0.0000000000000E+00
 0.0000000000000E+00
 0.0000000000000E+00
 0.0000000000000E+00
 0.0000000000000E+00
 0.0000000000000E+00
 0.0000000000000E+00
 0.0000000000000E+00
 0.0000000000000E+00
 0.0000000000000E+00
 0.0000000000000E+00
 0.0000000000000E+00
 0.0000000000000E+00
 0.0000000000000E+00
 0.0000000000000E+00
 0.0000000000000E+00
 0.0000000000000E+00
 0.0000000000000E+00
 0.0000000000000E+00
 0.0000000000000E+00
 0.0000000000000E+00
 0.0000000000000E+00
 0.0000000000000E+00
 0.0000000000000E+00
 0.0000000000000E+00
 0.0000000000000E+00
 0.0000000000000E+00
 0.0000000000000E+00
 0.0000000000000E+00
 0.0000000000000E+00
 0.0000000000000E+00
 0.0000000000000E+00
 0.0000000000000E+00
 0.0000000000000E+00
 0.0000000000000E+00
 0.0000000000000E+00
 0.0000000000000E+00
 0.0000000000000E+00
 0.0000000000000E+00
 0.0000000000000E+00
 0.0000000000000E+00
 0.0000000000000E+00
 0.0000000000000E+00
 0.0000000000000E+00
 0.0000000000000E+00
 0.0000000000000E+00
 0.0000000000000E+00
 0.0000000000000E+00
 0.0000000000000E+00
 0.0000000000000E+00
 0.0000000000000E+00
 0.0000000000000E+00
 0.0000000000000E+00
 0.0000000000000E+00
 0.0000000000000E+00
 0.0000000000000E+00
 0.0000000000000E+00
 0.0000000000000E+00
 0.0000000000000E+00
 0.0000000000000E+00
 0.0000000000000E+00
 0.0000000000000E+00
 0.0000000000000E+00
 0.0000000000000E+00
 0.0000000000000E+00
 0.0000000000000E+00
 0.0000000000000E+00
 0.0000000000000E+00
 0.0000000000000E+00
 0.0000000000000E+00
 0.0000000000000E+00
 0.0000000000000E+00
 0.0000000000000E+00
 0.0000000000000E+00
 0.0000000000000E+00
 0.0000000000000E+00
 0.0000000000000E+00
 0.0000000000000E+00
 0.0000000000000E+00
 0.0000000000000E+00
 0.0000000000000E+00
 0.0000000000000E+00
 0.0000000000000E+00
 0.0000000000000E+00
 0.0000000000000E+00
 0.0000000000000E+00
 0.0000000000000E+00
 0.0000000000000E+00
 0.0000000000000E+00
 0.0000000000000E+00
 0.0000000000000E+00
 0.0000000000000E+00
 0.0000000000000E+00
 0.0000000000000E+00
 0.0000000000000E+00
 0.0000000000000E+00
 0.0000000000000E+00
 0.0000000000000E+00
 0.0000000000000E+00
 0.0000000000000E+00
 0.0000000000000E+00
 0.0000000000000E+00
 0.0000000000000E+00
 0.0000000000000E+00
 0.0000000000000E+00
 0.0000000000000E+00
 0.0000000000000E+00
 0.0000000000000E+00
 0.0000000000000E+00
 0.0000000000000E+00
 0.0000000000000E+00
 0.0000000000000E+00
 0.0000000000000E+00
 0.0000000000000E+00
 0.0000000000000E+00
 0.0000000000000E+00
 0.0000000000000E+00
 0.0000000000000E+00
 0.0000000000000E+00
 0.0000000000000E+00
 0.0000000000000E+00
 0.0000000000000E+00
 0.0000000000000E+00
 0.0000000000000E+00
 0.0000000000000E+00
 0.0000000000000E+00
 0.0000000000000E+00
 0.0000000000000E+00
 0.0000000000000E+00
 0.0000000000000E+00
 0.0000000000000E+00
 0.0000000000000E+00
 0.0000000000000E+00
 0.0000000000000E+00
 0.0000000000000E+00
 0.0000000000000E+00
 0.0000000000000E+00
 0.0000000000000E+00
 0.0000000000000E+00
 0.0000000000000E+00
 0.0000000000000E+00
 0.0000000000000E+00
 0.0000000000000E+00
 0.0000000000000E+00
 0.0000000000000E+00
 0.0000000000000E+00
 0.0000000000000E+00
 0.0000000000000E+00
 0.0000000000000E+00
 0.0000000000000E+00
 0.0000000000000E+00
 0.0000000000000E+00
 0.0000000000000E+00
 0.0000000000000E+00
 0.0000000000000E+00
 0.0000000000000E+00
 0.0000000000000E+00
 0.0000000000000E+00
 0.0000000000000E+00
 0.0000000000000E+00
 0.0000000000000E+00
 0.0000000000000E+00
 0.0000000000000E+00
 0.0000000000000E+00
 0.0000000000000E+00
 0.0000000000000E+00
 0.0000000000000E+00
 0.0000000000000E+00
 0.0000000000000E+00
 0.0000000000000E+00
 0.0000000000000E+00
 0.0000000000000E+00
 0.0000000000000E+00
 0.0000000000000E+00
 0.0000000000000E+00
 0.0000000000000E+00
 0.0000000000000E+00
 0.0000000000000E+00
 0.0000000000000E+00
 0.0000000000000E+00
 0.0000000000000E+00
 0.0000000000000E+00
 0.0000000000000E+00
 0.0000000000000E+00
 0.0000000000000E+00
 0.0000000000000E+00
 0.0000000000000E+00
 0.0000000000000E+00
 0.0000000000000E+00
 0.0000000000000E+00
 0.0000000000000E+00
 0.0000000000000E+00
 0.0000000000000E+00
 0.0000000000000E+00
 0.0000000000000E+00
 0.0000000000000E+00
 0.0000000000000E+00
 0.0000000000000E+00
 0.0000000000000E+00
 0.0000000000000E+00
 0.0000000000000E+00
 0.0000000000000E+00
 0.0000000000000E+00
 0.0000000000000E+00
 0.0000000000000E+00
 0.0000000000000E+00
 0.0000000000000E+00
 0.0000000000000E+00
 0.0000000000000E+00
 0.0000000000000E+00
 0.0000000000000E+00
 0.0000000000000E+00
 0.0000000000000E+00
 0.0000000000000E+00
 0.0000000000000E+00
 0.0000000000000E+00
 0.0000000000000E+00
 0.0000000000000E+00
 0.0000000000000E+00
 0.0000000000000E+00
 0.0000000000000E+00
 0.0000000000000E+00
 0.0000000000000E+00
 0.0000000000000E+00
 0.0000000000000E+00
 0.0000000000000E+00
 0.0000000000000E+00
 0.0000000000000E+00
 0.0000000000000E+00
 0.0000000000000E+00
 0.0000000000000E+00
 0.0000000000000E+00
 0.0000000000000E+00
 0.0000000000000E+00
 0.0000000000000E+00
 0.0000000000000E+00
 0.0000000000000E+00
 0.0000000000000E+00
 0.0000000000000E+00
 0.0000000000000E+00
 0.0000000000000E+00
 0.0000000000000E+00
 0.0000000000000E+00
 0.0000000000000E+00
 0.0000000000000E+00
 0.0000000000000E+00
 0.0000000000000E+00
 0.0000000000000E+00
 0.0000000000000E+00
 0.0000000000000E+00
 0.0000000000000E+00
 0.0000000000000E+00
 0.0000000000000E+00
 0.0000000000000E+00
 0.0000000000000E+00
 0.0000000000000E+00
 0.0000000000000E+00
 0.0000000000000E+00
 0.0000000000000E+00
 0.0000000000000E+00
 0.0000000000000E+00
 0.0000000000000E+00
 0.0000000000000E+00
 0.0000000000000E+00
 0.0000000000000E+00
 0.0000000000000E+00
 0.0000000000000E+00
 0.0000000000000E+00
 0.0000000000000E+00
 0.0000000000000E+00
 0.0000000000000E+00
 0.0000000000000E+00
 0.0000000000000E+00
 0.0000000000000E+00
 0.0000000000000E+00
 0.0000000000000E+00
 0.0000000000000E+00
 0.0000000000000E+00
 0.0000000000000E+00
 0.0000000000000E+00
 0.0000000000000E+00
 0.0000000000000E+00
 0.0000000000000E+00
 0.0000000000000E+00
 0.0000000000000E+00
 0.0000000000000E+00
 0.0000000000000E+00
 0.0000000000000E+00
 0.0000000000000E+00
 0.0000000000000E+00
 0.0000000000000E+00
 0.0000000000000E+00
 0.0000000000000E+00
 0.0000000000000E+00
 0.0000000000000E+00
 0.0000000000000E+00
 0.0000000000000E+00
 0.0000000000000E+00
 0.0000000000000E+00
 0.0000000000000E+00
 0.0000000000000E+00
 0.0000000000000E+00
 0.0000000000000E+00
 0.0000000000000E+00
 0.0000000000000E+00
 0.0000000000000E+00
 0.0000000000000E+00
 0.0000000000000E+00
 0.0000000000000E+00
 0.0000000000000E+00
 0.0000000000000E+00
 0.0000000000000E+00
 0.0000000000000E+00
 0.0000000000000E+00
 0.0000000000000E+00
 0.0000000000000E+00
 0.0000000000000E+00
 0.0000000000000E+00
 0.0000000000000E+00
 0.0000000000000E+00
 0.0000000000000E+00
 0.0000000000000E+00
 0.0000000000000E+00
 0.0000000000000E+00
 0.0000000000000E+00
 0.0000000000000E+00
 0.0000000000000E+00
 0.0000000000000E+00
 0.0000000000000E+00
 0.0000000000000E+00
 0.0000000000000E+00
 0.0000000000000E+00
 0.0000000000000E+00
 0.0000000000000E+00
 0.0000000000000E+00
 0.0000000000000E+00
 0.0000000000000E+00
 0.0000000000000E+00
 0.0000000000000E+00
 0.0000000000000E+00
 0.0000000000000E+00
 0.0000000000000E+00
 0.0000000000000E+00
 0.0000000000000E+00
 0.0000000000000E+00
 0.0000000000000E+00
 0.0000000000000E+00
 0.0000000000000E+00
 0.0000000000000E+00
 0.0000000000000E+00
 0.0000000000000E+00
 0.0000000000000E+00
 0.0000000000000E+00
 0.0000000000000E+00
 0.0000000000000E+00
 0.0000000000000E+00
 0.0000000000000E+00
 0.0000000000000E+00
 0.0000000000000E+00
 0.0000000000000E+00
 0.0000000000000E+00
 0.0000000000000E+00
 0.0000000000000E+00
 0.0000000000000E+00
 0.0000000000000E+00
 0.0000000000000E+00
 0.0000000000000E+00
 0.0000000000000E+00
 0.0000000000000E+00
 0.0000000000000E+00
 0.0000000000000E+00
 0.0000000000000E+00
 0.0000000000000E+00
 0.0000000000000E+00
 0.0000000000000E+00
 0.0000000000000E+00
 0.0000000000000E+00
 0.0000000000000E+00
 0.0000000000000E+00
 0.0000000000000E+00
 0.0000000000000E+00
 0.0000000000000E+00
 0.0000000000000E+00
 0.0000000000000E+00
 0.0000000000000E+00
 0.0000000000000E+00
 0.0000000000000E+00
 0.0000000000000E+00
 0.0000000000000E+00
 0.0000000000000E+00
 0.0000000000000E+00
 0.0000000000000E+00
 0.0000000000000E+00
 0.0000000000000E+00
 0.0000000000000E+00
 0.0000000000000E+00
 0.0000000000000E+00
 0.0000000000000E+00
 0.0000000000000E+00
 0.0000000000000E+00
 0.0000000000000E+00
 0.0000000000000E+00
 0.0000000000000E+00
 0.0000000000000E+00
 0.0000000000000E+00
 0.0000000000000E+00
 0.0000000000000E+00
 0.0000000000000E+00
 0.0000000000000E+00
 0.0000000000000E+00
 0.0000000000000E+00
 0.0000000000000E+00
 0.0000000000000E+00
 0.0000000000000E+00
 0.0000000000000E+00
 0.0000000000000E+00
 0.0000000000000E+00
 0.0000000000000E+00
 0.0000000000000E+00
 0.0000000000000E+00
 0.0000000000000E+00
 0.0000000000000E+00
 0.0000000000000E+00
 0.0000000000000E+00
 0.0000000000000E+00
 0.0000000000000E+00
 0.0000000000000E+00
 0.0000000000000E+00
 0.0000000000000E+00
 0.0000000000000E+00
 0.0000000000000E+00
 0.0000000000000E+00
 0.0000000000000E+00
 0.0000000000000E+00
 0.0000000000000E+00
 0.0000000000000E+00
 0.0000000000000E+00
 0.0000000000000E+00
 0.0000000000000E+00
 0.0000000000000E+00
 0.0000000000000E+00
 0.0000000000000E+00
 0.0000000000000E+00
 0.0000000000000E+00
 0.0000000000000E+00
 0.0000000000000E+00
 0.0000000000000E+00
 0.0000000000000E+00
 0.0000000000000E+00
 0.0000000000000E+00
 0.0000000000000E+00
 0.0000000000000E+00
 0.0000000000000E+00
 0.0000000000000E+00
 0.0000000000000E+00
 0.0000000000000E+00
 0.0000000000000E+00
 0.0000000000000E+00
 0.0000000000000E+00
 0.0000000000000E+00
 0.0000000000000E+00
 0.0000000000000E+00
 0.0000000000000E+00
 0.0000000000000E+00
 0.0000000000000E+00
 0.0000000000000E+00
 0.0000000000000E+00
 0.0000000000000E+00
 0.0000000000000E+00
 0.0000000000000E+00
 0.0000000000000E+00
 0.0000000000000E+00
 0.0000000000000E+00
 0.0000000000000E+00
 0.0000000000000E+00
 0.0000000000000E+00
 0.0000000000000E+00
 0.0000000000000E+00
 0.0000000000000E+00
 0.0000000000000E+00
 0.0000000000000E+00
 0.0000000000000E+00
 0.0000000000000E+00
 0.0000000000000E+00
 0.0000000000000E+00
 0.0000000000000E+00
 0.0000000000000E+00
 0.0000000000000E+00
 0.0000000000000E+00
 0.0000000000000E+00
 0.0000000000000E+00
 0.0000000000000E+00
 0.0000000000000E+00
 0.0000000000000E+00
 0.0000000000000E+00
 0.0000000000000E+00
 0.0000000000000E+00
 0.0000000000000E+00
 0.0000000000000E+00
 0.0000000000000E+00
 0.0000000000000E+00
 0.0000000000000E+00
 0.0000000000000E+00
 0.0000000000000E+00
 0.0000000000000E+00
 0.0000000000000E+00
 0.0000000000000E+00
 0.0000000000000E+00
 0.0000000000000E+00
 0.0000000000000E+00
 0.0000000000000E+00
 0.0000000000000E+00
 0.0000000000000E+00
 0.0000000000000E+00
 0.0000000000000E+00
 0.0000000000000E+00
 0.0000000000000E+00
 0.0000000000000E+00
 0.0000000000000E+00
 0.0000000000000E+00
 0.0000000000000E+00
 0.0000000000000E+00
 0.0000000000000E+00
 0.0000000000000E+00
 0.0000000000000E+00
 0.0000000000000E+00
 0.0000000000000E+00
 0.0000000000000E+00
 0.0000000000000E+00
 0.0000000000000E+00
 0.0000000000000E+00
 0.0000000000000E+00
 0.0000000000000E+00
 0.0000000000000E+00
 0.0000000000000E+00
 0.0000000000000E+00
 0.0000000000000E+00
 0.0000000000000E+00
 0.0000000000000E+00
 0.0000000000000E+00
 0.0000000000000E+00
 0.0000000000000E+00
 0.0000000000000E+00
 0.0000000000000E+00
 0.0000000000000E+00
 0.0000000000000E+00
 0.0000000000000E+00
 0.0000000000000E+00
 0.0000000000000E+00
 0.0000000000000E+00
 0.0000000000000E+00
 0.0000000000000E+00
 0.0000000000000E+00
 0.0000000000000E+00
 0.0000000000000E+00
 0.0000000000000E+00
 0.0000000000000E+00
 0.0000000000000E+00
 0.0000000000000E+00
 0.0000000000000E+00
 0.0000000000000E+00
 0.0000000000000E+00
 0.0000000000000E+00
 0.0000000000000E+00
 0.0000000000000E+00
 0.0000000000000E+00
 0.0000000000000E+00
 0.0000000000000E+00
 0.0000000000000E+00
 0.0000000000000E+00
 0.0000000000000E+00
 0.0000000000000E+00
 0.0000000000000E+00
 0.0000000000000E+00
 0.0000000000000E+00
 0.0000000000000E+00
 0.0000000000000E+00
 0.0000000000000E+00
 0.0000000000000E+00
 0.0000000000000E+00
 0.0000000000000E+00
 0.0000000000000E+00
 0.0000000000000E+00
 0.0000000000000E+00
 0.0000000000000E+00
 0.0000000000000E+00
 0.0000000000000E+00
 0.0000000000000E+00
 0.0000000000000E+00
 0.0000000000000E+00
 0.0000000000000E+00
 0.0000000000000E+00
 0.0000000000000E+00
 0.0000000000000E+00
 0.0000000000000E+00
 0.0000000000000E+00
 0.0000000000000E+00
 0.0000000000000E+00
 0.0000000000000E+00
 0.0000000000000E+00
 0.0000000000000E+00
 0.0000000000000E+00
 0.0000000000000E+00
 0.0000000000000E+00
 0.0000000000000E+00
 0.0000000000000E+00
 0.0000000000000E+00
 0.0000000000000E+00
 0.0000000000000E+00
 0.0000000000000E+00
 0.0000000000000E+00
 0.0000000000000E+00
 0.0000000000000E+00
 0.0000000000000E+00
 0.0000000000000E+00
 0.0000000000000E+00
 0.0000000000000E+00
 0.0000000000000E+00
 0.0000000000000E+00
 0.0000000000000E+00
 0.0000000000000E+00
 0.0000000000000E+00
 0.0000000000000E+00
 0.0000000000000E+00
 0.0000000000000E+00
 0.0000000000000E+00
 0.0000000000000E+00
 0.0000000000000E+00
 0.0000000000000E+00
 0.0000000000000E+00
 0.0000000000000E+00
 0.0000000000000E+00
 0.0000000000000E+00
 0.0000000000000E+00
 0.0000000000000E+00
 0.0000000000000E+00
 0.0000000000000E+00
 0.0000000000000E+00
 0.0000000000000E+00
 0.0000000000000E+00
 0.0000000000000E+00
 0.0000000000000E+00
 0.0000000000000E+00
 0.0000000000000E+00
 0.0000000000000E+00
 0.0000000000000E+00
 0.0000000000000E+00
 0.0000000000000E+00
 0.0000000000000E+00
 0.0000000000000E+00
 0.0000000000000E+00
 0.0000000000000E+00
 0.0000000000000E+00
 0.0000000000000E+00
 0.0000000000000E+00
 0.0000000000000E+00
 0.0000000000000E+00
 0.0000000000000E+00
 0.0000000000000E+00
 0.0000000000000E+00
 0.0000000000000E+00
 0.0000000000000E+00
 0.0000000000000E+00
 0.0000000000000E+00
 0.0000000000000E+00
 0.0000000000000E+00
 0.0000000000000E+00
 0.0000000000000E+00
 0.0000000000000E+00
 0.0000000000000E+00
 0.0000000000000E+00
 0.0000000000000E+00
 0.0000000000000E+00
 0.0000000000000E+00
 0.0000000000000E+00
 0.0000000000000E+00
 0.0000000000000E+00
 0.0000000000000E+00
 0.0000000000000E+00
 0.0000000000000E+00
 0.0000000000000E+00
 0.0000000000000E+00
 0.0000000000000E+00
 0.0000000000000E+00
 0.0000000000000E+00
 0.0000000000000E+00
 0.0000000000000E+00
 0.0000000000000E+00
 0.0000000000000E+00
 0.0000000000000E+00
 0.0000000000000E+00
 0.0000000000000E+00
 0.0000000000000E+00
 0.0000000000000E+00
 0.0000000000000E+00
 0.0000000000000E+00
 0.0000000000000E+00
 0.0000000000000E+00
 0.0000000000000E+00
 0.0000000000000E+00
 0.0000000000000E+00
 0.0000000000000E+00
 0.0000000000000E+00
 0.0000000000000E+00
 0.0000000000000E+00
 0.0000000000000E+00
 0.0000000000000E+00
 0.0000000000000E+00
 0.0000000000000E+00
 0.0000000000000E+00
 0.0000000000000E+00
 0.0000000000000E+00
 0.0000000000000E+00
 0.0000000000000E+00
 0.0000000000000E+00
 0.0000000000000E+00
 0.0000000000000E+00
 0.0000000000000E+00
 0.0000000000000E+00
 0.0000000000000E+00
 0.0000000000000E+00
 0.0000000000000E+00
 0.0000000000000E+00
 0.0000000000000E+00
 0.0000000000000E+00
 0.0000000000000E+00
 0.0000000000000E+00
 0.0000000000000E+00
 0.0000000000000E+00
 0.0000000000000E+00
 0.0000000000000E+00
 0.0000000000000E+00
 0.0000000000000E+00
 0.0000000000000E+00
 0.0000000000000E+00
 0.0000000000000E+00
 0.0000000000000E+00
 0.0000000000000E+00
 0.0000000000000E+00
 0.0000000000000E+00
 0.0000000000000E+00
 0.0000000000000E+00
 0.0000000000000E+00
 0.0000000000000E+00
 0.0000000000000E+00
 0.0000000000000E+00
 0.0000000000000E+00
 0.0000000000000E+00
 0.0000000000000E+00
 0.0000000000000E+00
 0.0000000000000E+00
 0.0000000000000E+00
 0.0000000000000E+00
 0.0000000000000E+00
 0.0000000000000E+00
 0.0000000000000E+00
 0.0000000000000E+00
 0.0000000000000E+00
 0.0000000000000E+00
 0.0000000000000E+00
 0.0000000000000E+00
 0.0000000000000E+00
 0.0000000000000E+00
 0.0000000000000E+00
 0.0000000000000E+00
 0.0000000000000E+00
 0.0000000000000E+00
 0.0000000000000E+00
 0.0000000000000E+00
 0.0000000000000E+00
 0.0000000000000E+00
 0.0000000000000E+00
 0.0000000000000E+00
 0.0000000000000E+00
 0.0000000000000E+00
 0.0000000000000E+00
 0.0000000000000E+00
 0.0000000000000E+00
 0.0000000000000E+00
 0.0000000000000E+00
 0.0000000000000E+00
 0.0000000000000E+00
 0.0000000000000E+00
 0.0000000000000E+00
 0.0000000000000E+00
 0.0000000000000E+00
 0.0000000000000E+00
 0.0000000000000E+00
 0.0000000000000E+00
 0.0000000000000E+00
 0.0000000000000E+00
 0.0000000000000E+00
 0.0000000000000E+00
 0.0000000000000E+00
 0.0000000000000E+00
 0.0000000000000E+00
 0.0000000000000E+00
 0.0000000000000E+00
 0.0000000000000E+00
 0.0000000000000E+00
 0.0000000000000E+00
 0.0000000000000E+00
 0.0000000000000E+00
 0.0000000000000E+00
 0.0000000000000E+00
 0.0000000000000E+00
 0.0000000000000E+00
 0.0000000000000E+00
 0.0000000000000E+00
 0.0000000000000E+00
 0.0000000000000E+00
 0.0000000000000E+00
 0.0000000000000E+00
 0.0000000000000E+00
 0.0000000000000E+00
 0.0000000000000E+00
 0.0000000000000E+00
 0.0000000000000E+00
 0.0000000000000E+00
 0.0000000000000E+00
 0.0000000000000E+00
 0.0000000000000E+00
 0.0000000000000E+00
 0.0000000000000E+00
 0.0000000000000E+00
 0.0000000000000E+00
 0.0000000000000E+00
 0.0000000000000E+00
 0.0000000000000E+00
 0.0000000000000E+00
 0.0000000000000E+00
 0.0000000000000E+00
 0.0000000000000E+00
 0.0000000000000E+00
 0.0000000000000E+00
 0.0000000000000E+00
 0.0000000000000E+00
 0.0000000000000E+00
 0.0000000000000E+00
 0.0000000000000E+00
 0.0000000000000E+00
 0.0000000000000E+00
 0.0000000000000E+00
 0.0000000000000E+00
 0.0000000000000E+00
 0.0000000000000E+00
 0.0000000000000E+00
 0.0000000000000E+00
 0.0000000000000E+00
 0.0000000000000E+00
 0.0000000000000E+00
 0.0000000000000E+00
 0.0000000000000E+00
 0.0000000000000E+00
 0.0000000000000E+00
 0.0000000000000E+00
 0.0000000000000E+00
 0.0000000000000E+00
 0.0000000000000E+00
 0.0000000000000E+00
 0.0000000000000E+00
 0.0000000000000E+00
 0.0000000000000E+00
 0.0000000000000E+00
 0.0000000000000E+00
 0.0000000000000E+00
 0.0000000000000E+00
 0.0000000000000E+00
 0.0000000000000E+00
 0.0000000000000E+00
 0.0000000000000E+00
 0.0000000000000E+00
 0.0000000000000E+00
 0.0000000000000E+00
 0.0000000000000E+00
 0.0000000000000E+00
 0.0000000000000E+00
 0.0000000000000E+00
 0.0000000000000E+00
 0.0000000000000E+00
 0.0000000000000E+00
 0.0000000000000E+00
 0.0000000000000E+00
 0.0000000000000E+00
 0.0000000000000E+00
 0.0000000000000E+00
 0.0000000000000E+00
 0.0000000000000E+00
 0.0000000000000E+00
 0.0000000000000E+00
 0.0000000000000E+00
 0.0000000000000E+00
 0.0000000000000E+00
 0.0000000000000E+00
 0.0000000000000E+00
 0.0000000000000E+00
 0.0000000000000E+00
 0.0000000000000E+00
 0.0000000000000E+00
 0.0000000000000E+00
 0.0000000000000E+00
 0.0000000000000E+00
 0.0000000000000E+00
 0.0000000000000E+00
 0.0000000000000E+00
 0.0000000000000E+00
 0.0000000000000E+00
 0.0000000000000E+00
 0.0000000000000E+00
 0.0000000000000E+00
 0.0000000000000E+00
 0.0000000000000E+00
 0.0000000000000E+00
 0.0000000000000E+00
 0.0000000000000E+00
 0.0000000000000E+00
 0.0000000000000E+00
 0.0000000000000E+00
 0.0000000000000E+00
 0.0000000000000E+00
 0.0000000000000E+00
 0.0000000000000E+00
 0.0000000000000E+00
 0.0000000000000E+00
 0.0000000000000E+00
 0.0000000000000E+00
 0.0000000000000E+00
 0.0000000000000E+00
 0.0000000000000E+00
 0.0000000000000E+00
 0.0000000000000E+00
 0.0000000000000E+00
 0.0000000000000E+00
 0.0000000000000E+00
 0.0000000000000E+00
 0.0000000000000E+00
 0.0000000000000E+00
 0.0000000000000E+00
 0.0000000000000E+00
 0.0000000000000E+00
 0.0000000000000E+00
 0.0000000000000E+00
 0.0000000000000E+00
 0.0000000000000E+00
 0.0000000000000E+00
 0.0000000000000E+00
 0.0000000000000E+00
 0.0000000000000E+00
 0.0000000000000E+00
 0.0000000000000E+00
 0.0000000000000E+00
 0.0000000000000E+00
 0.0000000000000E+00
 0.0000000000000E+00
 0.0000000000000E+00
 0.0000000000000E+00
 0.0000000000000E+00
 0.0000000000000E+00
 0.0000000000000E+00
 0.0000000000000E+00
 0.0000000000000E+00
 0.0000000000000E+00
 0.0000000000000E+00
 0.0000000000000E+00
 0.0000000000000E+00
 0.0000000000000E+00
 0.0000000000000E+00
 0.0000000000000E+00
 0.0000000000000E+00
 0.0000000000000E+00
 0.0000000000000E+00
 0.0000000000000E+00
 0.0000000000000E+00
 0.0000000000000E+00
 0.0000000000000E+00
 0.0000000000000E+00
 0.0000000000000E+00
 0.0000000000000E+00
 0.0000000000000E+00
 0.0000000000000E+00
 0.0000000000000E+00
 0.0000000000000E+00
 0.0000000000000E+00
 0.0000000000000E+00
 0.0000000000000E+00
 0.0000000000000E+00
 0.0000000000000E+00
 0.0000000000000E+00
 0.0000000000000E+00
 0.0000000000000E+00
 0.0000000000000E+00
 0.0000000000000E+00
 0.0000000000000E+00
 0.0000000000000E+00
 0.0000000000000E+00
 0.0000000000000E+00
 0.0000000000000E+00
 0.0000000000000E+00
 0.0000000000000E+00
 0.0000000000000E+00
 0.0000000000000E+00
 0.0000000000000E+00
 0.0000000000000E+00
 0.0000000000000E+00
 0.0000000000000E+00
 0.0000000000000E+00
 0.0000000000000E+00
 0.0000000000000E+00
 0.0000000000000E+00
 0.0000000000000E+00
 0.0000000000000E+00
 0.0000000000000E+00
 0.0000000000000E+00
 0.0000000000000E+00
 0.0000000000000E+00
 0.0000000000000E+00
 0.0000000000000E+00
 0.0000000000000E+00
 0.0000000000000E+00
 0.0000000000000E+00
 0.0000000000000E+00
 0.0000000000000E+00
 0.0000000000000E+00
 0.0000000000000E+00
 0.0000000000000E+00
 0.0000000000000E+00
 0.0000000000000E+00
 0.0000000000000E+00
 0.0000000000000E+00
 0.0000000000000E+00
 0.0000000000000E+00
 0.0000000000000E+00
 0.0000000000000E+00
 0.0000000000000E+00
 0.0000000000000E+00
 0.0000000000000E+00
 0.0000000000000E+00
 0.0000000000000E+00
 0.0000000000000E+00
 0.0000000000000E+00
 0.0000000000000E+00
 0.0000000000000E+00
 0.0000000000000E+00
 0.0000000000000E+00
 0.0000000000000E+00
 0.0000000000000E+00
 0.0000000000000E+00
 0.0000000000000E+00
 0.0000000000000E+00
 0.0000000000000E+00
 0.0000000000000E+00
 0.0000000000000E+00
 0.0000000000000E+00
 0.0000000000000E+00
 0.0000000000000E+00
 0.0000000000000E+00
 0.0000000000000E+00
 0.0000000000000E+00
 0.0000000000000E+00
 0.0000000000000E+00
 0.0000000000000E+00
 0.0000000000000E+00
 0.0000000000000E+00
 0.0000000000000E+00
 0.0000000000000E+00
 0.0000000000000E+00
 0.0000000000000E+00
 0.0000000000000E+00
 0.0000000000000E+00
 0.0000000000000E+00
 0.0000000000000E+00
 0.0000000000000E+00
 0.0000000000000E+00
 0.0000000000000E+00
 0.0000000000000E+00
 0.0000000000000E+00
 0.0000000000000E+00
 0.0000000000000E+00
 0.0000000000000E+00
 0.0000000000000E+00
 0.0000000000000E+00
 0.0000000000000E+00
 0.0000000000000E+00
 0.0000000000000E+00
 0.0000000000000E+00
 0.0000000000000E+00
 0.0000000000000E+00
 0.0000000000000E+00
 0.0000000000000E+00
 0.0000000000000E+00
 0.0000000000000E+00
 0.0000000000000E+00
 0.0000000000000E+00
 0.0000000000000E+00
 0.0000000000000E+00
 0.0000000000000E+00
 0.0000000000000E+00
 0.0000000000000E+00
 0.0000000000000E+00
 0.0000000000000E+00
 0.0000000000000E+00
 0.0000000000000E+00
 0.0000000000000E+00
 0.0000000000000E+00
 0.0000000000000E+00
 0.0000000000000E+00
 0.0000000000000E+00
 0.0000000000000E+00
 0.0000000000000E+00
 0.0000000000000E+00
 0.0000000000000E+00
 0.0000000000000E+00
 0.0000000000000E+00
 0.0000000000000E+00
 0.0000000000000E+00
 0.0000000000000E+00
 0.0000000000000E+00
 0.0000000000000E+00
 0.0000000000000E+00
 0.0000000000000E+00
 0.0000000000000E+00
 0.0000000000000E+00
 0.0000000000000E+00
 0.0000000000000E+00
 0.0000000000000E+00
 0.0000000000000E+00
 0.0000000000000E+00
 0.0000000000000E+00
 0.0000000000000E+00
 0.0000000000000E+00
 0.0000000000000E+00
 0.0000000000000E+00
 0.0000000000000E+00
 0.0000000000000E+00
 0.0000000000000E+00
 0.0000000000000E+00
 0.0000000000000E+00
 0.0000000000000E+00
 0.0000000000000E+00
 0.0000000000000E+00
 0.0000000000000E+00
 0.0000000000000E+00
 0.0000000000000E+00
 0.0000000000000E+00
 0.0000000000000E+00
 0.0000000000000E+00
 0.0000000000000E+00
 0.0000000000000E+00
 0.0000000000000E+00
 0.0000000000000E+00
 0.0000000000000E+00
 0.0000000000000E+00
 0.0000000000000E+00
 0.0000000000000E+00
 0.0000000000000E+00
 0.0000000000000E+00
 0.0000000000000E+00
 0.0000000000000E+00
 0.0000000000000E+00
 0.0000000000000E+00
 0.0000000000000E+00
 0.0000000000000E+00
 0.0000000000000E+00
 0.0000000000000E+00
 0.0000000000000E+00
 0.0000000000000E+00
 0.0000000000000E+00
 0.0000000000000E+00
 0.0000000000000E+00
 0.0000000000000E+00
 0.0000000000000E+00
 0.0000000000000E+00
 0.0000000000000E+00
 0.0000000000000E+00
 0.0000000000000E+00
 0.0000000000000E+00
 0.0000000000000E+00
 0.0000000000000E+00
 0.0000000000000E+00
 0.0000000000000E+00
 0.0000000000000E+00
 0.0000000000000E+00
 0.0000000000000E+00
 0.0000000000000E+00
 0.0000000000000E+00
 0.0000000000000E+00
 0.0000000000000E+00
 0.0000000000000E+00
 0.0000000000000E+00
 0.0000000000000E+00
 0.0000000000000E+00
 0.0000000000000E+00
 0.0000000000000E+00
 0.0000000000000E+00
 0.0000000000000E+00
 0.0000000000000E+00
 0.0000000000000E+00
 0.0000000000000E+00
 0.0000000000000E+00
 0.0000000000000E+00
 0.0000000000000E+00
 0.0000000000000E+00
 0.0000000000000E+00
 0.0000000000000E+00
 0.0000000000000E+00
 0.0000000000000E+00
 0.0000000000000E+00
 0.0000000000000E+00
 0.0000000000000E+00
 0.0000000000000E+00
 0.0000000000000E+00
 0.0000000000000E+00
 0.0000000000000E+00
 0.0000000000000E+00
 0.0000000000000E+00
 0.0000000000000E+00
 0.0000000000000E+00
 0.0000000000000E+00
 0.0000000000000E+00
 0.0000000000000E+00
 0.0000000000000E+00
 0.0000000000000E+00
 0.0000000000000E+00
 0.0000000000000E+00
 0.0000000000000E+00
 0.0000000000000E+00
 0.0000000000000E+00
 0.0000000000000E+00
 0.0000000000000E+00
 0.0000000000000E+00
 0.0000000000000E+00
 0.0000000000000E+00
 0.0000000000000E+00
 0.0000000000000E+00
 0.0000000000000E+00
 0.0000000000000E+00
 0.0000000000000E+00
 0.0000000000000E+00
 0.0000000000000E+00
 0.0000000000000E+00
 0.0000000000000E+00
 0.0000000000000E+00
 0.0000000000000E+00
 0.0000000000000E+00
 0.0000000000000E+00
 0.0000000000000E+00
 0.0000000000000E+00
 0.0000000000000E+00
 0.0000000000000E+00
 0.0000000000000E+00
 0.0000000000000E+00
 0.0000000000000E+00
 0.0000000000000E+00
 0.0000000000000E+00
 0.0000000000000E+00
 0.0000000000000E+00
 0.0000000000000E+00
 0.0000000000000E+00
 0.0000000000000E+00
 0.0000000000000E+00
 0.0000000000000E+00
 0.0000000000000E+00
 0.0000000000000E+00
 0.0000000000000E+00
 0.0000000000000E+00
 0.0000000000000E+00
 0.0000000000000E+00
 0.0000000000000E+00
 0.0000000000000E+00
 0.0000000000000E+00
 0.0000000000000E+00
 0.0000000000000E+00
 0.0000000000000E+00
 0.0000000000000E+00
 0.0000000000000E+00
 0.0000000000000E+00
 0.0000000000000E+00
 0.0000000000000E+00
 0.0000000000000E+00
 0.0000000000000E+00
 0.0000000000000E+00
 0.0000000000000E+00
 0.0000000000000E+00
 0.0000000000000E+00
 0.0000000000000E+00
 0.0000000000000E+00
 0.0000000000000E+00
 0.0000000000000E+00
 0.0000000000000E+00
 0.0000000000000E+00
 0.0000000000000E+00
 0.0000000000000E+00
 0.0000000000000E+00
 0.0000000000000E+00
 0.0000000000000E+00
 0.0000000000000E+00
 0.0000000000000E+00
 0.0000000000000E+00
 0.0000000000000E+00
 0.0000000000000E+00
 0.0000000000000E+00
 0.0000000000000E+00
 0.0000000000000E+00
 0.0000000000000E+00
 0.0000000000000E+00
 0.0000000000000E+00
 0.0000000000000E+00
 0.0000000000000E+00
 0.0000000000000E+00
 0.0000000000000E+00
 0.0000000000000E+00
 0.0000000000000E+00
 0.0000000000000E+00
 0.0000000000000E+00
 0.0000000000000E+00
 0.0000000000000E+00
 0.0000000000000E+00
 0.0000000000000E+00
 0.0000000000000E+00
 0.0000000000000E+00
 0.0000000000000E+00
 0.0000000000000E+00
 0.0000000000000E+00
 0.0000000000000E+00
 0.0000000000000E+00
 0.0000000000000E+00
 0.0000000000000E+00
 0.0000000000000E+00
 0.0000000000000E+00
 0.0000000000000E+00
 0.0000000000000E+00
 0.0000000000000E+00
 0.0000000000000E+00
 0.0000000000000E+00
 0.0000000000000E+00
 0.0000000000000E+00
 0.0000000000000E+00
 0.0000000000000E+00
 0.0000000000000E+00
 0.0000000000000E+00
 0.0000000000000E+00
 0.0000000000000E+00
 0.0000000000000E+00
 0.0000000000000E+00
 0.0000000000000E+00
 0.0000000000000E+00
 0.0000000000000E+00
 0.0000000000000E+00
 0.0000000000000E+00
 0.0000000000000E+00
 0.0000000000000E+00
 0.0000000000000E+00
 0.0000000000000E+00
 0.0000000000000E+00
 0.0000000000000E+00
 0.0000000000000E+00
 0.0000000000000E+00
 0.0000000000000E+00
 0.0000000000000E+00
 0.0000000000000E+00
 0.0000000000000E+00
 0.0000000000000E+00
 0.0000000000000E+00
 0.0000000000000E+00
 0.0000000000000E+00
 0.0000000000000E+00
 0.0000000000000E+00
 0.0000000000000E+00
 0.0000000000000E+00
 0.0000000000000E+00
 0.0000000000000E+00
 0.0000000000000E+00
 0.0000000000000E+00
 0.0000000000000E+00
 0.0000000000000E+00
 0.0000000000000E+00
 0.0000000000000E+00
 0.0000000000000E+00
 0.0000000000000E+00
 0.0000000000000E+00
 0.0000000000000E+00
 0.0000000000000E+00
 0.0000000000000E+00
 0.0000000000000E+00
 0.0000000000000E+00
 0.0000000000000E+00
 0.0000000000000E+00
 0.0000000000000E+00
 0.0000000000000E+00
 0.0000000000000E+00
 0.0000000000000E+00
 0.0000000000000E+00
 0.0000000000000E+00
 0.0000000000000E+00
 0.0000000000000E+00
 0.0000000000000E+00
 0.0000000000000E+00
 0.0000000000000E+00
 0.0000000000000E+00
 0.0000000000000E+00
 0.0000000000000E+00
 0.0000000000000E+00
 0.0000000000000E+00
 0.0000000000000E+00
 0.0000000000000E+00
 0.0000000000000E+00
 0.0000000000000E+00
 0.0000000000000E+00
 0.0000000000000E+00
 0.0000000000000E+00
 0.0000000000000E+00
 0.0000000000000E+00
 0.0000000000000E+00
 0.0000000000000E+00
 0.0000000000000E+00
 0.0000000000000E+00
 0.0000000000000E+00
 0.0000000000000E+00
 0.0000000000000E+00
 0.0000000000000E+00
 0.0000000000000E+00
 0.0000000000000E+00
 0.0000000000000E+00
 0.0000000000000E+00
 0.0000000000000E+00
 0.0000000000000E+00
 0.0000000000000E+00
 0.0000000000000E+00
 0.0000000000000E+00
 0.0000000000000E+00
 0.0000000000000E+00
 0.0000000000000E+00
 0.0000000000000E+00
 0.0000000000000E+00
 0.0000000000000E+00
 0.0000000000000E+00
 0.0000000000000E+00
 0.0000000000000E+00
 0.0000000000000E+00
 0.0000000000000E+00
 0.0000000000000E+00
 0.0000000000000E+00
 0.0000000000000E+00
 0.0000000000000E+00
 0.0000000000000E+00
 0.0000000000000E+00
 0.0000000000000E+00
 0.0000000000000E+00
 0.0000000000000E+00
 0.0000000000000E+00
 0.0000000000000E+00
 0.0000000000000E+00
 0.0000000000000E+00
 0.0000000000000E+00
 0.0000000000000E+00
 0.0000000000000E+00
 0.0000000000000E+00
 0.0000000000000E+00
 0.0000000000000E+00
 0.0000000000000E+00
 0.0000000000000E+00
 0.0000000000000E+00
 0.0000000000000E+00
 0.0000000000000E+00
 0.0000000000000E+00
 0.0000000000000E+00
 0.0000000000000E+00
 0.0000000000000E+00
 0.0000000000000E+00
 0.0000000000000E+00
 0.0000000000000E+00
 0.0000000000000E+00
 0.0000000000000E+00
 0.0000000000000E+00
 0.0000000000000E+00
 0.0000000000000E+00
 0.0000000000000E+00
 0.0000000000000E+00
 0.0000000000000E+00
 0.0000000000000E+00
 0.0000000000000E+00
 0.0000000000000E+00
 0.0000000000000E+00
 0.0000000000000E+00
 0.0000000000000E+00
 0.0000000000000E+00
 0.0000000000000E+00
 0.0000000000000E+00
 0.0000000000000E+00
 0.0000000000000E+00
 0.0000000000000E+00
 0.0000000000000E+00
 0.0000000000000E+00
 0.0000000000000E+00
 0.0000000000000E+00
 0.0000000000000E+00
 0.0000000000000E+00
 0.0000000000000E+00
 0.0000000000000E+00
 0.0000000000000E+00
 0.0000000000000E+00
 0.0000000000000E+00
 0.0000000000000E+00
 0.0000000000000E+00
 0.0000000000000E+00
 0.0000000000000E+00
 0.0000000000000E+00
 0.0000000000000E+00
 0.0000000000000E+00
 0.0000000000000E+00
 0.0000000000000E+00
 0.0000000000000E+00
 0.0000000000000E+00
 0.0000000000000E+00
 0.0000000000000E+00
 0.0000000000000E+00
 0.0000000000000E+00
 0.0000000000000E+00
 0.0000000000000E+00
 0.0000000000000E+00
 0.0000000000000E+00
 0.0000000000000E+00
 0.0000000000000E+00
 0.0000000000000E+00
 0.0000000000000E+00
 0.0000000000000E+00
 0.0000000000000E+00
 0.0000000000000E+00
 0.0000000000000E+00
 0.0000000000000E+00
 0.0000000000000E+00
 0.0000000000000E+00
 0.0000000000000E+00
 0.0000000000000E+00
 0.0000000000000E+00
 0.0000000000000E+00
 0.0000000000000E+00
 0.0000000000000E+00
 0.0000000000000E+00
 0.0000000000000E+00
 0.0000000000000E+00
 0.0000000000000E+00
 0.0000000000000E+00
 0.0000000000000E+00
 0.0000000000000E+00
 0.0000000000000E+00
 0.0000000000000E+00
 0.0000000000000E+00
 0.0000000000000E+00
 0.0000000000000E+00
 0.0000000000000E+00
 0.0000000000000E+00
 0.0000000000000E+00
 0.0000000000000E+00
 0.0000000000000E+00
 0.0000000000000E+00
 0.0000000000000E+00
 0.0000000000000E+00
 0.0000000000000E+00
 0.0000000000000E+00
 0.0000000000000E+00
 0.0000000000000E+00
 0.0000000000000E+00
 0.0000000000000E+00
 0.0000000000000E+00
 0.0000000000000E+00
 0.0000000000000E+00
 0.0000000000000E+00
 0.0000000000000E+00
 0.0000000000000E+00
 0.0000000000000E+00
 0.0000000000000E+00
 0.0000000000000E+00
 0.0000000000000E+00
 0.0000000000000E+00
 0.0000000000000E+00
 0.0000000000000E+00
 0.0000000000000E+00
 0.0000000000000E+00
 0.0000000000000E+00
 0.0000000000000E+00
 0.0000000000000E+00
 0.0000000000000E+00
 0.0000000000000E+00
 0.0000000000000E+00
 0.0000000000000E+00
 0.0000000000000E+00
 0.0000000000000E+00
 0.0000000000000E+00
 0.0000000000000E+00
 0.0000000000000E+00
 0.0000000000000E+00
 0.0000000000000E+00
 0.0000000000000E+00
 0.0000000000000E+00
 0.0000000000000E+00
 0.0000000000000E+00
 0.0000000000000E+00
 0.0000000000000E+00
 0.0000000000000E+00
 0.0000000000000E+00
 0.0000000000000E+00
 0.0000000000000E+00
 0.0000000000000E+00
 0.0000000000000E+00
 0.0000000000000E+00
 0.0000000000000E+00
 0.0000000000000E+00
 0.0000000000000E+00
 0.0000000000000E+00
 0.0000000000000E+00
 0.0000000000000E+00
 0.0000000000000E+00
 0.0000000000000E+00
 0.0000000000000E+00
 0.0000000000000E+00
 0.0000000000000E+00
 0.0000000000000E+00
 0.0000000000000E+00
 0.0000000000000E+00
 0.0000000000000E+00
 0.0000000000000E+00
 0.0000000000000E+00
 0.0000000000000E+00
 0.0000000000000E+00
 0.0000000000000E+00
 0.0000000000000E+00
 0.0000000000000E+00
 0.0000000000000E+00
 0.0000000000000E+00
 0.0000000000000E+00
 0.0000000000000E+00
 0.0000000000000E+00
 0.0000000000000E+00
 0.0000000000000E+00
 0.0000000000000E+00
 0.0000000000000E+00
 0.0000000000000E+00
 0.0000000000000E+00
 0.0000000000000E+00
 0.0000000000000E+00
 0.0000000000000E+00
 0.0000000000000E+00
 0.0000000000000E+00
 0.0000000000000E+00
 0.0000000000000E+00
 0.0000000000000E+00
 0.0000000000000E+00
 0.0000000000000E+00
 0.0000000000000E+00
 0.0000000000000E+00
 0.0000000000000E+00
 0.0000000000000E+00
 0.0000000000000E+00
 0.0000000000000E+00
 0.0000000000000E+00
 0.0000000000000E+00
 0.0000000000000E+00
 0.0000000000000E+00
 0.0000000000000E+00
 0.0000000000000E+00
 0.0000000000000E+00
 0.0000000000000E+00
 0.0000000000000E+00
 0.0000000000000E+00
 0.0000000000000E+00
 0.0000000000000E+00
 0.0000000000000E+00
 0.0000000000000E+00
 0.0000000000000E+00
 0.0000000000000E+00
 0.0000000000000E+00
 0.0000000000000E+00
 0.0000000000000E+00
 0.0000000000000E+00
 0.0000000000000E+00
 0.0000000000000E+00
 0.0000000000000E+00
 0.0000000000000E+00
 0.0000000000000E+00
 0.0000000000000E+00
 0.0000000000000E+00
 0.0000000000000E+00
 0.0000000000000E+00
 0.0000000000000E+00
 0.0000000000000E+00
 0.0000000000000E+00
 0.0000000000000E+00
 0.0000000000000E+00
 0.0000000000000E+00
 0.0000000000000E+00
 0.0000000000000E+00
 0.0000000000000E+00
 0.0000000000000E+00
 0.0000000000000E+00
 0.0000000000000E+00
 0.0000000000000E+00
 0.0000000000000E+00
 0.0000000000000E+00
 0.0000000000000E+00
 0.0000000000000E+00
 0.0000000000000E+00
 0.0000000000000E+00
 0.0000000000000E+00
 0.0000000000000E+00
 0.0000000000000E+00
 0.0000000000000E+00
 0.0000000000000E+00
 0.0000000000000E+00
 0.0000000000000E+00
 0.0000000000000E+00
 0.0000000000000E+00
 0.0000000000000E+00
 0.0000000000000E+00
 0.0000000000000E+00
 0.0000000000000E+00
 0.0000000000000E+00
 0.0000000000000E+00
 0.0000000000000E+00
 0.0000000000000E+00
 0.0000000000000E+00
 0.0000000000000E+00
 0.0000000000000E+00
 0.0000000000000E+00
 0.0000000000000E+00
 0.0000000000000E+00
 0.0000000000000E+00
 0.0000000000000E+00
 0.0000000000000E+00
 0.0000000000000E+00
 0.0000000000000E+00
 0.0000000000000E+00
 0.0000000000000E+00
 0.0000000000000E+00
 0.0000000000000E+00
 0.0000000000000E+00
 0.0000000000000E+00
 0.0000000000000E+00
 0.0000000000000E+00
 0.0000000000000E+00
 0.0000000000000E+00
 0.0000000000000E+00
 0.0000000000000E+00
 0.0000000000000E+00
 0.0000000000000E+00
 0.0000000000000E+00
 0.0000000000000E+00
 0.0000000000000E+00
 0.0000000000000E+00
 0.0000000000000E+00
 0.0000000000000E+00
 0.0000000000000E+00
 0.0000000000000E+00
 0.0000000000000E+00
 0.0000000000000E+00
 0.0000000000000E+00
 0.0000000000000E+00
 0.0000000000000E+00
 0.0000000000000E+00
 0.0000000000000E+00
 0.0000000000000E+00
 0.0000000000000E+00
 0.0000000000000E+00
</DataArray>
<DataArray type="Int32" Name="Region" format="ascii">
           1
           1
           1
           1
           1
           1
           1
           1
           1
           1
           1
           1
           1
           1
           1
           1
           1
           1
           1
           1
           1
           1
           1
           1
           1
           1
           1
           1
           1
           1
           1
           1
           1
           1
           1
           1
           1
           1
           1
           1
           1
           1
           1
           1
           1
           1
           1
           1
           1
           1
           1
           1
           1
           1
           1
           1
           1
           1
           1
           1
           1
           1
           1
           1
           1
           1
           1
           1
           1
           1
           1
           1
           1
           1
           1
           1
           1
           1
           1
           1
           1
           1
           1
           1
           1
           1
           1
           1
           1
           1
           1
           1
           1
           1
           1
           1
           1
           1
           1
           1
           1
           1
           1
           1
           1
           1
           1
           1
           1
           1
           1
           1
           1
           1
           1
           1
           1
           1
           1
           1
           1
           1
           1
           1
           1
           1
           1
           1
           1
           1
           1
           1
           1
           1
           1
           1
           1
           1
           1
           1
           1
           1
           1
           1
           1
           1
           1
           1
           1
           1
           1
           1
           1
           1
           1
           1
           1
           1
           1
           1
           1
           1
           1
           1
           1
           1
           1
           1
           1
           1
           1
           1
           1
           1
           1
           1
           1
           1
           1
           1
           1
           1
           1
           1
           1
           1
           1
           1
           1
           1
           1
           1
           1
           1
           1
           1
           1
           1
           1
           1
           1
           1
           1
           1
           1
           1
           1
           1
           1
           1
           1
           1
           1
           1
           1
           1
           1
           1
           1
           1
           1
           1
           1
           1
           1
           1
           1
           1
           1
           1
           1
           1
           1
           1
           1
           1
           1
           1
           1
           1
           1
           1
           1
           1
           1
           1
           1
           1
           1
           1
           1
           1
           1
           1
           1
           1
           1
           1
           1
           1
           1
           1
           1
           1
           1
           1
           1
           1
           1
           1
           1
           1
           1
           1
           1
           1
           1
           1
           1
           1
           1
           1
           1
           1
           1
           1
           1
           1
           1
           1
           1
           1
           1
           1
           1
           1
           1
           1
           1
           1
           1
           1
           1
           1
           1
           1
           1
           1
           1
           1
           1
           1
           1
           1
           1
           1
           1
           1
           1
           1
           1
           1
           1
           1
           1
           1
           1
           1
           1
           1
           1
           1
           1
           1
           1
           1
           1
           1
           1
           1
           1
           1
           1
           1
           1
           1
           1
           1
           1
           1
           1
           1
           1
           1
           1
           1
           1
           1
           1
           1
           1
           1
           1
           1
           1
           1
           1
           1
           1
           1
           1
           1
           1
           1
           1
           1
           1
           1
           1
           1
           1
           1
           1
           1
           1
           1
           1
           1
           1
           1
           1
           1
           1
           1
           1
           1
           1
           1
           1
           1
           1
           1
           1
           1
           1
           1
           1
           1
           1
           1
           1
           1
           1
           1
           1
           1
           1
           1
           1
           1
           1
           1
           1
           1
           1
           1
           1
           1
           1
           1
           1
           1
           1
           1
           1
           1
           1
           1
           1
           1
           1
           1
           1
           1
           1
           1
           1
           1
           1
           1
           1
           1
           1
           1
           1
           1
           1
           1
           1
           1
           1
           1
           1
           1
           1
           1
           1
           1
           1
           1
           1
           1
           1
           1
           1
           1
           1
           1
           1
           1
           1
           1
           1
           1
           1
           1
           1
           1
           1
           1
           1
           1
           1
           1
           1
           1
           1
           1
           1
           1
           1
           1
           1
           1
           1
           1
           1
           1
           1
           1
           1
           1
           1
           1
           1
           1
           1
           1
           1
           1
           1
           1
           1
           1
           1
           1
           1
           1
           1
           1
           1
           1
           1
           1
           1
           1
           1
           1
           1
           1
           1
           1
           1
           1
           1
           1
           1
           1
           1
           1
           1
           1
           1
           1
           1
           1
           1
           1
           1
           1
           1
           1
           1
           1
           1
           1
           1
           1
           1
           1
           1
           1
           1
           1
           1
           1
           1
           1
           1
           1
           1
           1
           1
           1
           1
           1
           1
           1
           1
           1
           1
           1
           1
           1
           1
           1
           1
           1
           1
           1
           1
           1
           1
           1
           1
           1
           1
           1
           1
           1
           1
           1
           1
           1
           1
           1
           1
           1
           1
           1
           1
           1
           1
           1
           1
           1
           1
           1
           1
           1
           1
           1
           1
           1
           1
           1
           1
           1
           1
           1
           1
           1
           1
           1
           1
           1
           1
           1
           1
           1
           1
           1
           1
           1
           1
           1
           1
           1
           1
           1
           1
           1
           1
           1
           1
           1
           1
           1
           1
           1
           1
           1
           1
           1
           1
           1
           1
           1
           1
           1
           1
           1
           1
           1
           1
           1
           1
           1
           1
           1
           1
           1
           1
           1
           1
           1
           1
           1
           1
           1
           1
           1
           1
           1
           1
           1
           1
           1
           1
           1
           1
           1
           1
           1
           1
           1
           1
           1
           1
           1
           1
           1
           1
           1
           1
           1
           1
           1
           1
           1
           1
           1
           1
           1
           1
           1
           1
           1
           1
           1
           1
           1
           1
           1
           1
           1
           1
           1
           1
           1
           1
           1
           1
           1
           1
           1
           1
           1
           1
           1
           1
           1
           1
           1
           1
           1
           1
           1
           1
           1
           1
           1
           1
           1
           1
           1
           1
           1
           1
           1
           1
           1
           1
           1
           1
           1
           1
           1
           1
           1
           1
           1
           1
           1
           1
           1
           1
           1
           1
           1
           1
           1
           1
           1
           1
           1
           1
           1
           1
           1
           1
           1
           1
           1
           1
           1
           1
           1
           1
           1
           1
           1
           1
           1
           1
           1
           1
           1
           1
           1
           1
           1
           1
           1
           1
           1
           1
           1
           1
           1
           1
           1
           1
           1
           1
           1
           1
           1
           1
           1
           1
           1
           1
           1
           1
           1
           1
           1
           1
           1
           1
           1
           1
           1
           1
           1
           1
           1
           1
           1
           1
           1
           1
           1
           1
           1
           1
           1
           1
           1
           1
           1
           1
           1
           1
           1
           1
           1
           1
           1
           1
           1
           1
           1
           1
           1
           1
           1
           1
           1
           1
           1
           1
           1
           1
           1
           1
           1
           1
           1
           1
           1
           1
           1
           1
           1
           1
           1
           1
           1
           1
           1
           1
           1
           1
           1
           1
           1
           1
           1
           1
           1
           1
           1
           1
           1
           1
           1
           1
           1
           1
           1
           1
           1
           1
           1
           1
           1
           1
           1
           1
           1
           1
           1
           1
           1
           1
           1
           1
           1
           1
           1
           1
           1
           1
           1
           1
           1
           1
           1
           1
           1
           1
           1
           1
           1
           1
           1
           1
           1
           1
           1
           1
           1
           1
           1
           1
           1
           1
           1
           1
           1
           1
           1
           1
           1
           1
           1
           1
           1
           1
           1
           1
           1
           1
           1
           1
           1
           1
           1
           1
           1
           1
           1
           1
           1
           1
           1
           1
           1
           1
           1
           1
           1
           1
           1
           1
           1
           1
           1
           1
           1
           1
           1
           1
           1
           1
           1
           1
           1
           1
           1
           1
           1
           1
           1
           1
           1
           1
           1
           1
           1
           1
           1
           1
           1
           1
           1
           1
           1
           1
           1
           1
           1
           1
           1
           1
           1
           1
           1
           1
           1
           1
           1
           1
           1
           1
           1
           1
           1
           1
           1
           1
           1
           1
           1
           1
           1
           1
           1
           1
           1
           1
           1
           1
           1
           1
           1
           1
           1
           1
           1
           1
           1
           1
           1
           1
           1
           1
           1
           1
           1
           1
           1
           1
           1
           1
           1
           1
           1
           1
           1
           1
           1
           1
           1
           1
           1
           1
           1
           1
           1
           1
           1
           1
           1
           1
           1
           1
           1
           1
           1
           1
           1
           1
           1
           1
           1
           1
           1
           1
           1
           1
           1
           1
           1
           1
           1
           1
           1
           1
           1
           1
           1
           1
           1
           1
           1
           1
           1
           1
           1
           1
           1
           1
           1
           1
           1
           1
           1
           1
           1
           1
           1
           1
           1
           1
           1
           1
           1
           1
           1
           1
           1
           1
           1
           1
           1
           1
           1
           1
           1
           1
           1
           1
           1
           1
           1
           1
           1
           1
           1
           1
           1
           1
           1
           1
           1
           1
           1
           1
           1
           1
           1
           1
           1
           1
           1
           1
           1
           1
           1
           1
           1
           1
           1
           1
           1
           1
           1
           1
           1
           1
           1
           1
           1
           1
           1
           1
           1
           1
           1
           1
           1
           1
           1
           1
           1
           1
           1
           1
           1
           1
           1
           1
           1
           1
           1
           1
           1
           1
           1
           1
           1
           1
           1
           1
           1
           1
           1
           1
           1
           1
           1
           1
           1
           1
           1
           1
           1
           1
           1
           1
           1
           1
           1
           1
           1
           1
           1
           1
           1
           1
           1
           1
           1
           1
           1
           1
           1
           1
           1
           1
           1
           1
           1
           1
           1
           1
           1
           1
           1
           1
           1
           1
           1
           1
           1
           1
           1
           1
           1
           1
           1
           1
           1
           1
           1
           1
           1
           1
           1
           1
           1
           1
           1
           1
           1
           1
           1
           1
           1
           1
           1
           1
           1
           1
           1
           1
           1
           1
           1
           1
           1
           1
           1
           1
           1
           1
           1
           1
           1
           1
           1
           1
           1
           1
           1
           1
           1
           1
           1
           1
           1
           1
           1
           1
           1
           1
           1
           1
           1
           1
           1
           1
           1
           1
           1
           1
           1
           1
           1
           1
           1
           1
           1
           1
           1
           1
           1
           1
           1
           1
           1
           1
           1
           1
           1
           1
           1
           1
           1
           1
           1
           1
           1
           1
           1
           1
           1
           1
           1
           1
           1
           1
           1
           1
           1
           1
           1
           1
           1
           1
           1
           1
           1
           1
           1
           1
           1
           1
           1
           1
           1
           1
           1
           1
           1
           1
           1
           1
           1
           1
           1
           1
           1
           1
           1
           1
           1
           1
           1
           1
           1
           1
           1
           1
           1
           1
           1
           1
           1
           1
           1
           1
           1
           1
           1
           1
           1
           1
           1
           1
           1
           1
           1
           1
           1
           1
           1
           1
           1
           1
           1
           1
           1
           1
           1
           1
           1
           1
           1
           1
           1
           1
           1
           1
           1
           1
           1
           1
           1
           1
           1
           1
           1
           1
           1
           1
           1
           1
           1
           1
           1
           1
           1
           1
           1
           1
           1
           1
           1
           1
           1
           1
           1
           1
           1
           1
           1
           1
           1
           1
           1
           1
           1
           1
           1
           1
           1
           1
           1
           1
           1
           1
           1
           1
           1
           1
           1
           1
           1
           1
           1
           1
           1
           1
           1
           1
           1
           1
           1
           1
           1
           1
           1
           1
           1
           1
           1
           1
           1
           1
           1
           1
           1
           1
           1
           1
           1
           1
           1
           1
           1
           1
           1
           1
           1
           1
           1
           1
           1
           1
           1
           1
           1
           1
           1
           1
           1
           1
           1
           1
           1
           1
           1
           1
           1
           1
           1
           1
           1
           1
           1
           1
           1
           1
           1
           1
           1
           1
           1
           1
           1
           1
           1
           1
           1
           1
           1
           1
           1
           1
           1
           1
           1
           1
           1
           1
           1
           1
           1
           1
           1
           1
           1
           1
           1
           1
           1
           1
           1
           1
           1
           1
           1
           1
           1
           1
           1
           1
           1
           1
           1
           1
           1
           1
           1
           1
           1
           1
           1
           1
           1
           1
           1
           1
           1
           1
           1
           1
           1
           1
           1
           1
           1
           1
           1
           1
           1
           1
           1
           1
           1
           1
           1
           1
           1
           1
           1
           1
           1
           1
           1
           1
           1
           1
           1
           1
           1
           1
           1
           1
           1
           1
           1
           1
           1
           1
           1
           1
           1
           1
           1
           1
           1
           1
           1
           1
           1
           1
           1
           1
           1
           1
           1
           1
           1
           1
           1
           1
           1
           1
           1
           1
           1
           1
           1
           1
           1
           1
           1
           1
           1
           1
           1
           1
           1
           1
           1
           1
           1
           1
           1
           1
           1
           1
           1
           1
           1
           1
           1
           1
           1
           1
           1
           1
           1
           1
           1
           1
           1
           1
           1
           1
           1
           1
           1
           1
           1
           1
           1
           1
           1
           1
           1
           1
           1
           1
           1
           1
           1
           1
           1
           1
           1
           1
           1
           1
           1
           1
           1
           1
           1
           1
           1
           1
           1
           1
           1
           1
           1
           1
           1
           1
           1
           1
           1
           1
           1
           1
           1
           1
           1
           1
           1
           1
           1
           1
           1
           1
           1
           1
           1
           1
           1
           1
           1
           1
           1
           1
           1
           1
           1
           1
           1
           1
           1
           1
           1
           1
           1
           1
           1
           1
           1
           1
           1
           1
           1
           1
           1
           1
           1
           1
           1
           1
           1
           1
           1
           1
           1
           1
           1
           1
           1
           1
           1
           1
           1
           1
           1
           1
           1
           1
           1
           1
           1
           1
           1
           1
           1
           1
           1
           1
           1
           1
           1
           1
           1
           1
           1
           1
           1
           1
           1
           1
           1
           1
           1
           1
           1
           1
           1
           1
           1
           1
           1
           1
           1
           1
           1
           1
           1
           1
           1
           1
           1
           1
           1
           1
           1
           1
           1
           1
           1
           1
           1
           1
           1
           1
           1
           1
           1
           1
           1
           1
           1
           1
           1
           1
           1
           1
           1
           1
           1
           1
           1
           1
           1
           1
           1
           1
           1
           1
           1
           1
           1
           1
           1
           1
           1
           1
           1
           1
           1
           1
           1
           1
           1
           1
           1
           1
           1
           1
           1
           1
           1
           1
           1
           1
           1
           1
           1
           1
           1
           1
           1
           1
           1
           1
           1
           1
           1
           1
           1
           1
           1
           1
           1
           1
           1
           1
           1
           1
           1
           1
           1
           1
           1
           1
           1
           1
           1
           1
           1
           1
           1
           1
           1
           1
           1
           1
           1
           1
           1
           1
           1
           1
           1
           1
           1
           1
           1
           1
           1
           1
           1
           1
           1
           1
           1
           1
           1
           1
           1
           1
           1
           1
           1
           1
           1
           1
           1
           1
           1
           1
           1
           1
           1
           1
           1
           1
           1
           1
           1
           1
           1
           1
           1
           1
           1
           1
           1
           1
           1
           1
           1
           1
           1
           1
           1
           1
           1
           1
           1
           1
           1
           1
           1
           1
           1
           1
           1
           1
           1
           1
           1
           1
           1
           1
           1
           1
           1
           1
           1
           1
           1
           1
           1
           1
           1
           1
           1
           1
           1
           1
           1
           1
           1
           1
           1
           1
           1
           1
           1
           1
           1
           1
           1
           1
           1
           1
           1
           1
           1
           1
           1
           1
           1
           1
           1
           1
           1
           1
           1
           1
           1
           1
           1
           1
           1
           1
           1
           1
           1
           1
           1
           1
           1
           1
           1
           1
           1
           1
           1
           1
           1
           1
           1
           1
           1
           1
           1
           1
           1
           1
           1
           1
           1
           1
           1
           1
           1
           1
           1
           1
           1
           1
           1
           1
           1
           1
           1
           1
           1
           1
           1
           1
           1
           1
           1
           1
           1
           1
           1
           1
           1
           1
           1
           1
           1
           1
           1
           1
           1
           1
           1
           1
           1
           1
           1
           1
           1
           1
           1
           1
           1
           1
           1
           1
           1
           1
           1
           1
           1
           1
           1
           1
           1
           1
           1
           1
           1
           1
           1
           1
           1
           1
           1
           1
           1
           1
           1
           1
           1
           1
           1
           1
           1
           1
           1
           1
           1
           1
           1
           1
           1
           1
           1
           1
           1
           1
           1
           1
           1
           1
           1
           1
           1
           1
           1
           1
           1
           1
           1
           1
           1
           1
           1
           1
           1
           1
           1
           1
           1
           1
           1
           1
           1
           1
           1
           1
           1
           1
           1
           1
           1
           1
           1
           1
           1
           1
           1
           1
           1
           1
           1
           1
           1
           1
           1
           1
           1
           1
           1
           1
           1
           1
           1
           1
           1
           1
           1
           1
           1
           1
           1
           1
           1
           1
           1
           1
           1
           1
           1
           1
           1
           1
           1
           1
           1
           1
           1
           1
           1
           1
           1
           1
           1
           1
           1
           1
           1
           1
           1
           1
           1
           1
           1
           1
           1
           1
           1
           1
           1
           1
           1
           1
           1
           1
           1
           1
           1
           1
           1
           1
           1
           1
           1
           1
           1
           1
           1
           1
           1
           1
           1
           1
           1
           1
           1
           1
           1
           1
           1
           1
           1
           1
           1
           1
           1
           1
           1
           1
           1
           1
           1
           1
           1
           1
           1
           1
           1
           1
           1
           1
           1
           1
           1
           1
           1
           1
           1
           1
           1
           1
           1
           1
           1
           1
           1
           1
           1
           1
           1
           1
           1
           1
           1
           1
           1
           1
           1
           1
           1
           1
           1
           1
           1
           1
           1
           1
           1
           1
           1
           1
           1
           1
           1
           1
           1
           1
           1
           1
           1
           1
           1
           1
           1
           1
           1
           1
           1
           1
           1
           1
           1
           1
           1
           1
           1
           1
           1
           1
           1
           1
           1
           1
           1
           1
           1
           1
           1
           1
           1
           1
           1
           1
           1
           1
           1
           1
           1
           1
           1
           1
           1
           1
           1
           1
           1
           1
           1
           1
           1
           1
           1
           1
           1
           1
           1
           1
           1
           1
           1
           1
           1
           1
           1
           1
           1
           1
           1
           1
           1
           1
           1
           1
           1
           1
           1
           1
           1
           1
           1
           1
           1
           1
           1
           1
           1
           1
           1
           1
           1
           1
           1
           1
           1
           1
           1
           1
           1
           1
           1
           1
           1
           1
           1
           1
           1
           1
           1
           1
           1
           1
           1
           1
           1
           1
           1
           1
           1
           1
           1
           1
           1
           1
           1
           1
           1
           1
           1
           1
           1
           1
           1
           1
           1
           1
           1
           1
           1
           1
           1
           1
           1
           1
           1
           1
           1
           1
           1
           1
           1
           1
           1
           1
           1
           1
           1
           1
           1
           1
           1
           1
           1
           1
           1
           1
           1
           1
           1
           1
           1
           1
           1
           1
           1
           1
           1
           1
           1
           1
           1
           1
           1
           1
           1
           1
           1
           1
           1
           1
           1
           1
           1
           1
           1
           1
           1
           1
           1
           1
           1
           1
           1
           1
           1
           1
           1
           1
           1
           1
           1
           1
           1
           1
           1
           1
           1
           1
           1
           1
           1
           1
           1
           1
           1
           1
           1
           1
           1
           1
           1
           1
           1
           1
           1
           1
           1
           1
           1
           1
           1
           1
           1
           1
           1
           1
           1
           1
           1
           1
           1
           1
           1
           1
           1
           1
           1
           1
           1
           1
           1
           1
           1
           1
           1
           1
           1
           1
           1
           1
           1
           1
           1
           1
           1
           1
           1
           1
           1
           1
           1
           1
           1
           1
           1
           1
           1
           1
           1
           1
           1
           1
           1
           1
           1
           1
           1
           1
           1
           1
           1
           1
           1
           1
           1
           1
           1
           1
           1
           1
           1
           1
           1
           1
           1
           1
           1
           1
           1
           1
           1
           1
           1
           1
           1
           1
           1
           1
           1
           1
           1
           1
           1
           1
           1
           1
           1
           1
           1
           1
           1
           1
           1
           1
           1
           1
           1
           1
           1
           1
           1
           1
           1
           1
           1
           1
           1
           1
           1
           1
           1
           1
           1
           1
           1
           1
           1
           1
           1
           1
           1
           1
           1
           1
           1
           1
           1
           1
           1
           1
           1
           1
           1
           1
           1
           1
           1
           1
           1
           1
           1
           1
           1
           1
           1
           1
           1
           1
           1
           1
           1
           1
           1
           1
           1
           1
           1
           1
           1
           1
           1
           1
           1
           1
           1
           1
           1
           1
           1
           1
           1
           1
           1
           1
           1
           1
           1
           1
           1
           1
           1
           1
           1
           1
           1
           1
           1
           1
           1
           1
           1
           1
           1
           1
           1
           1
           1
           1
           1
           1
           1
           1
           1
           1
           1
           1
           1
           1
           1
           1
           1
           1
           1
           1
           1
           1
           1
           1
           1
           1
           1
           1
           1
           1
           1
           1
           1
           1
           1
           1
           1
           1
           1
           1
           1
           1
           1
           1
           1
           1
           1
           1
           1
           1
           1
           1
           1
           1
           1
           1
           1
           1
           1
           1
           1
           1
           1
           1
           1
           1
           1
           1
           1
           1
           1
           1
           1
           1
           1
           1
           1
           1
           1
           1
           1
           1
           1
           1
           1
           1
           1
           1
           1
           1
           1
           1
           1
           1
           1
           1
           1
           1
           1
           1
           1
           1
           1
           1
           1
           1
           1
           1
           1
           1
           1
           1
           1
           1
           1
           1
           1
           1
           1
           1
           1
           1
           1
           1
           1
           1
           1
           1
           1
           1
           1
           1
           1
           1
           1
           1
           1
           1
           1
           1
           1
           1
           1
           1
           1
           1
           1
           1
           1
           1
           1
           1
           1
           1
           1
           1
           1
           1
           1
           1
           1
           1
           1
           1
           1
           1
           1
           1
           1
           1
           1
           1
           1
           1
           1
           1
           1
           1
           1
           1
           1
           1
           1
           1
           1
           1
           1
           1
           1
           1
           1
           1
           1
           1
           1
           1
           1
           1
           1
           1
           1
           1
           1
           1
           1
           1
           1
           1
           1
           1
           1
           1
           1
           1
           1
           1
           1
           1
           1
           1
           1
           1
           1
           1
           1
           1
           1
           1
           1
           1
           1
           1
           1
           1
           1
           1
           1
           1
           1
           1
           1
           1
           1
           1
           1
           1
           1
           1
           1
           1
           1
           1
           1
           1
           1
           1
           1
           1
           1
           1
           1
           1
           1
           1
           1
           1
           1
           1
           1
           1
           1
           1
           1
           1
           1
           1
           1
           1
           1
           1
           1
           1
           1
           1
           1
           1
           1
           1
           1
           1
           1
           1
           1
           1
           1
           1
           1
           1
           1
           1
           1
           1
           1
           1
           1
           1
           1
           1
           1
           1
           1
           1
           1
           1
           1
           1
           1
           1
           1
           1
           1
           2
           2
           2
           2
           2
           2
           2
           2
           2
           2
           2
           2
           2
           2
           2
           2
           2
           2
           2
           2
           2
           2
           2
           2
           2
           2
           2
           2
           2
           2
           2
           2
           2
           2
           2
           2
           2
           2
           2
           2
           2
           2
           2
           2
           2
           2
           2
           2
           2
           2
           2
           2
           2
           2
           2
           2
           2
           2
           2
           2
           2
           2
           2
           2
           2
           2
           2
           2
           2
           2
           2
           2
           2
           2
           2
           2
           2
           2
           2
           2
           2
           2
           2
           2
           2
           2
           2
           2
           2
           2
           2
           2
           2
           2
           2
           2
           2
           2
           2
           2
           2
           2
           2
           2
           2
           2
           2
           2
           2
           2
           2
           2
           2
           2
           2
           2
           2
           2
           2
           2
           2
           2
           2
           2
           2
           2
           2
           2
           2
           2
           2
           2
           2
           2
           2
           2
           2
           2
           2
           2
           2
           2
           2
           2
           2
           2
           2
           2
           2
           2
           2
           2
           2
           2
           2
           2
           2
           2
           2
           2
           2
           2
           2
           2
           2
           2
           2
           2
           2
           2
           2
           2
           2
           2
           2
           2
           2
           2
           2
           2
           2
           2
           2
           2
           2
           2
           2
           2
           2
           2
           2
           2
           2
           2
           2
           2
           2
           2
           2
           2
           2
           2
           2
           2
           2
           2
           2
           2
           2
           2
           2
           2
           2
           2
           2
           2
           2
           2
           2
           2
           2
           2
           2
           2
           2
           2
           2
           2
           2
           2
           2
           2
           2
           2
           2
           2
           2
           2
           2
           2
           2
           2
           2
           2
           2
           2
           2
           2
           2
           2
           2
           2
           2
           2
           2
           2
           2
           2
           2
           2
           2
           2
           2
           2
           2
           2
           2
           2
           2
           2
           2
           2
           2
           2
           2
           2
           2
           2
           2
           2
           2
           2
           2
           2
           2
           2
           2
           2
           2
           2
           2
           2
           2
           2
           2
           2
           2
           2
           2
           2
           2
           2
           2
           2
           2
           2
           2
           2
           2
           2
           2
           2
           2
           2
           2
           2
           2
           2
           2
           2
           2
           2
           2
           2
           2
           2
           2
           2
           2
           2
           2
           2
           2
           2
           2
           2
           2
           2
           2
           2
           2
           2
           2
           2
           2
           2
           2
           2
           2
           2
           2
           2
           2
           2
           2
           2
           2
           2
           2
           2
           2
           2
           2
           2
           2
           2
           2
           2
           2
           2
           2
           2
           2
           2
           2
           2
           2
           2
           2
           2
           2
           2
           2
           2
           2
           2
           2
           2
           2
           2
           2
           2
           2
           2
           2
           2
           2
           2
           2
           2
           2
           2
           2
           2
           2
           2
           2
           2
           2
           2
           2
           2
           2
           2
           2
           2
           2
           2
           2
           2
           2
           2
           2
           2
           2
           2
           2
           2
           2
           2
           2
           2
           2
           2
           2
           2
           2
           2
           2
           2
           2
           2
           2
           2
           2
           2
           2
           2
           2
           2
           2
           2
           2
           2
           2
           2
           2
           2
           2
           2
           2
           2
           2
           2
           2
           2
           2
           2
           2
           2
           2
           2
           2
           2
           2
           2
           2
           2
           2
           2
           2
           2
           2
           2
           2
           2
           2
           2
           2
           2
           2
           2
           2
           2
           2
           2
           2
           2
           2
           2
           2
           2
           2
           2
           2
           2
           2
           2
           2
           2
           2
           2
           2
           2
           2
           2
           2
           2
           2
           2
           2
           2
           2
           2
           2
           2
           2
           2
           2
           2
           2
           2
           2
           2
           2
           2
           2
           2
           2
           2
           2
           2
           2
           2
           2
           2
           2
           2
           2
           2
           2
           2
           2
           2
           2
           2
           2
           2
           2
           2
           2
           2
           2
           2
           2
           2
           2
           2
           2
           2
           2
           2
           2
           2
           2
           2
           2
           2
           2
           2
           2
           2
           2
           2
           2
           2
           2
           2
           2
           2
           2
           2
           2
           2
           2
           2
           2
           2
           2
           2
           2
           2
           2
           2
           2
           2
           2
           2
           2
           2
           2
           2
           2
           2
           2
           2
           2
           2
           2
           2
           2
           2
           2
           2
           2
           2
           2
           2
           2
           2
           2
           2
           2
           2
           2
           2
           2
           2
           2
           2
           2
           2
           2
           2
           2
           2
           2
           2
           2
           2
           2
           2
           2
           2
           2
           2
           2
           2
           2
           2
           2
           2
           2
           2
           2
           2
           2
           2
           2
           2
           2
           2
           2
           2
           2
           2
           2
           2
           2
           2
           2
           2
           2
           2
           2
           2
           2
           2
           2
           2
           2
           2
           2
           2
           2
           2
           2
           2
           2
           2
           2
           2
           2
           2
           2
           2
           2
           2
           2
           2
           2
           2
           2
           2
           2
           2
           2
           2
           2
           2
           2
           2
           2
           2
           2
           2
           2
           2
           2
           2
           2
           2
           2
           2
           2
           2
           2
           2
           2
           2
           2
           2
           2
           2
           2
           2
           2
           2
           2
           2
           2
           2
           2
           2
           2
           2
           2
           2
           2
           2
           2
           2
           2
           2
           2
           2
           2
           2
           2
           2
           2
           2
           2
           2
           2
           2
           2
           2
           2
           2
           2
           2
           2
           2
           2
           2
           2
           2
           2
           2
           2
           2
           2
           2
           2
           2
           2
           2
           2
           2
           2
           2
           2
           2
           2
           2
           2
           2
           2
           2
           2
           2
           2
           2
           2
           2
           2
           2
           2
           2
           2
           2
           2
           2
           2
           2
           2
           2
           2
           2
           2
           2
           2
           2
           2
           2
           2
           2
           2
           2
           2
           2
           2
           2
           2
           2
           2
           2
           2
           2
           2
           2
           2
           2
           2
           2
           2
           2
           2
           2
           2
           2
           2
           2
           2
           2
           2
           2
           2
           2
           2
           2
           2
           2
           2
           2
           2
           2
           2
           2
           2
           2
           2
           2
           2
           2
           2
           2
           2
           2
           2
           2
           2
           2
           2
           2
           2
           2
           2
           2
           2
           2
           2
           2
           2
           2
           2
           2
           2
           2
           2
           2
           2
           2
           2
           2
           2
           2
           2
           2
           2
           2
           2
           2
           2
           2
           2
           2
           2
           2
           2
           2
           2
           2
           2
           2
           2
           2
           2
           2
           2
           2
           2
           2
           2
           2
           2
           2
           2
           2
           2
           2
           2
           2
           2
           2
           2
           2
           2
           2
           2
           2
           2
           2
           2
           2
           2
           2
           2
           2
           2
           2
           2
           2
           2
           2
           2
           2
           2
           2
           2
           2
           2
           2
           2
           2
           2
           2
           2
           2
           2
           2
           2
           2
           2
           2
           2
           2
           2
           2
           2
           2
           2
           2
           2
           2
           2
           2
           2
           2
           2
           2
           2
           2
           2
           2
           2
           2
           2
           2
           2
           2
           2
           2
           2
           2
           2
           2
           2
           2
           2
           2
           2
           2
           2
           2
           2
           2
           2
           2
           2
           2
           2
           2
           2
           2
           2
           2
           2
           2
           2
           2
           2
           2
           2
           2
           2
           2
           2
           2
           2
           2
           2
           2
           2
           2
           2
           2
           2
           2
           2
           2
           2
           2
           2
           2
           2
           2
           2
           2
           2
           2
           2
           2
           2
           2
           2
           2
           2
           2
           2
           2
           2
           2
           2
           2
           2
           2
           2
           2
           2
           2
           2
           2
           2
           2
           2
           2
           2
           2
           2
           2
           2
           2
           2
           2
           2
           2
           2
           2
           2
           2
           2
           2
           2
           2
           2
           2
           2
           2
           2
           2
           2
           2
           2
           2
           2
           2
           2
           2
           2
           2
           2
           2
           2
           2
           2
           2
           2
           2
           2
           2
           2
           2
           2
           2
           2
           2
           2
           2
           2
           2
           2
           2
           2
           2
           2
           2
           2
           2
           2
           2
           2
           2
           2
           2
           2
           2
           2
           2
           2
           2
           2
           2
           2
           2
           2
           2
           2
           2
           2
           2
           2
           2
           2
           2
           2
           2
           2
           2
           2
           2
           2
           2
           2
           2
           2
           2
           2
           2
           2
           2
           2
           2
           2
           2
           2
           2
           2
           2
           2
           2
           2
           2
           2
           2
           2
           2
           2
           2
           2
           2
           2
           2
           2
           2
           2
           2
           2
           2
           2
           2
           2
           2
           2
           2
           2
           2
           2
           2
           2
           2
           2
           2
           2
           2
           2
           2
           2
           2
           2
           2
           2
           2
           2
           2
           2
           2
           2
           2
           2
           2
           2
           2
           2
           2
           2
           2
           2
           2
           2
           2
           2
           2
           2
           2
           2
           2
           2
           2
           2
           2
           2
           2
           2
           2
           2
           2
           2
           2
           2
           2
           2
           2
           2
           2
           2
           2
           2
           2
           2
           2
           2
           2
           2
           2
           2
           2
           2
           2
           2
           2
           2
           2
           2
           2
           2
           2
           2
           2
           2
           2
           2
           2
           2
           2
           2
           2
           2
           2
           2
           2
           2
           2
           2
           2
           2
           2
           2
           2
           2
           2
           2
           2
           2
           2
           2
           2
           2
           2
           2
           2
           2
           2
           2
           2
           2
           2
           2
           2
           2
           2
           2
           2
           2
           2
           2
           2
           2
           2
           2
           2
           2
           2
           2
           2
           2
           2
           2
           2
           2
           2
           2
           2
           2
           2
           2
           2
           2
           2
           2
           2
           2
           2
           2
           2
           2
           2
           2
           2
           2
           2
           2
           2
           2
           2
           2
           2
           2
           2
           2
           2
           2
           2
           2
           2
           2
           2
           2
           2
           2
           2
           2
           2
           2
           2
           2
           2
           2
           2
           2
           2
           2
           2
           2
           2
           2
           2
           2
           2
           2
           2
           2
           2
           2
           2
           2
           2
           2
           2
           2
           2
           2
           2
           2
           2
           2
           2
           2
           2
           2
           2
           2
           2
           2
           2
           2
           2
           2
           2
           2
           2
           2
           2
           2
           2
           2
           2
           2
           2
           2
           2
           2
           2
           2
           2
           2
           2
           2
           2
           2
           2
           2
           2
           2
           2
           2
           2
           2
           2
           2
           2
           2
           2
           2
           2
           2
           2
           2
           2
           2
           2
           2
           2
           2
           2
           2
           2
           2
           2
           2
           2
           2
           2
           2
           2
           2
           2
           2
           2
           2
           2
           2
           2
           2
           2
           2
           2
           2
           2
           2
           2
           2
           2
           2
           2
           2
           2
           2
           2
           2
           2
           2
           2
           2
           2
           2
           2
           2
           2
           2
           2
           2
           2
           2
           2
           2
           2
           2
           2
           2
           2
           2
           2
           2
           2
           2
           2
           2
           2
           2
           2
           2
           2
           2
           2
           2
           2
           2
           2
           2
           2
           2
           2
           2
           2
           2
           2
           2
           2
           2
           2
           2
           2
           2
           2
           2
           2
           2
           2
           2
           2
           2
           2
           2
           2
           2
           2
           2
           2
           2
           2
           2
           2
           2
           2
           2
           2
           2
           2
           2
           2
           2
           2
           2
           2
           2
           2
           2
           2
           2
           2
           2
           2
           2
           2
           2
           2
           2
           2
           2
           2
           2
           2
           2
           2
           2
           2
           2
           2
           2
           2
           2
           2
           2
           2
           2
           2
           2
           2
           2
           2
           2
           2
           2
           2
           2
           2
           2
           2
           2
           2
           2
           2
           2
           2
           2
           2
           2
           2
           2
           2
           2
           2
           2
           2
           2
           2
           2
           2
           2
           2
           2
           2
           2
           2
           2
           2
           2
           2
           2
           2
           2
           2
           2
           2
           2
           2
           2
           2
           2
           2
           2
           2
           2
           2
           2
           2
           2
           2
           2
           2
           2
           2
           2
           2
           2
           2
           2
           2
           2
           2
           2
           2
           2
           2
           2
           2
           2
           2
           2
           2
           2
           2
           2
           2
           2
           2
           2
           2
           2
           2
           2
           2
           2
           2
           2
           2
           2
           2
           2
           2
           2
           2
           2
           2
           2
           2
           2
           2
           2
           2
           2
           2
           2
           2
           2
           2
           2
           2
           2
           2
           2
           2
           2
           2
           2
           2
           2
           2
           2
           2
           2
           2
           2
           2
           2
           2
           2
           2
           2
           2
           2
           2
           2
           2
           2
           2
           2
           2
           2
           2
           2
           2
           2
           2
           2
           2
           2
           2
           2
           2
           2
           2
           2
           2
           2
           2
           2
           2
           2
           2
           2
           2
           2
           2
           2
           2
           2
           2
           2
           2
           2
           2
           2
           2
           2
           2
           2
           2
           2
           2
           2
           2
           2
           2
           2
           2
           2
           2
           2
           2
           2
           2
           2
           2
           2
           2
           2
           2
           2
           2
           2
           2
           2
           2
           2
           2
           2
           2
           2
           2
           2
           2
           2
           2
           2
           2
           2
           2
           2
           2
           2
           2
           2
           2
           2
           2
           2
           2
           2
           2
           2
           2
           2
           2
           2
           2
           2
           2
           2
           2
           2
           2
           2
           2
           2
           2
           2
           2
           2
           2
           2
           2
           2
           2
           2
           2
           2
           2
           2
           2
           2
           2
           2
           2
           2
           2
           2
           2
           2
           2
           2
           2
           2
           2
           2
           2
           2
           2
           2
           2
           2
           2
           2
           2
           2
           2
           2
           2
           2
           2
           2
           2
           2
           2
           2
           2
           2
           2
           2
           2
           2
           2
           2
           2
           2
           2
           2
           2
           2
           2
           2
           2
           2
           2
           2
           2
           2
           2
           2
           2
           2
           2
           2
           2
           2
           2
           2
           2
           2
           2
           2
           2
           2
           2
           2
           2
           2
           2
           2
           2
           2
           2
           2
           2
           2
           2
           2
           2
           2
           2
           2
           2
           2
           2
           2
           2
           2
           2
           2
           2
           2
           2
           2
           2
           2
           2
           2
           2
           2
           2
           2
           2
           2
           2
           2
           2
           2
           2
           2
           2
           2
           2
           2
           2
           2
           2
           2
           2
           2
           2
           2
           2
           2
           2
           2
           2
           2
           2
           2
           2
           2
           2
           2
           2
           2
           2
           2
           2
           2
           2
           2
           2
           2
           2
           2
           2
           2
           2
           2
           2
           2
           2
           2
           2
           2
           2
           2
           2
           2
           2
           2
           2
           2
           2
           2
           2
           2
           2
           2
           2
           2
           2
           2
           2
           2
           2
           2
           2
           2
           2
           2
           2
           2
           2
           2
           2
           2
           2
           2
           2
           2
           2
           2
           2
           2
           2
           2
           2
           2
           2
           2
           2
           2
           2
           2
           2
           2
           2
           2
           2
           2
           2
           2
           2
           2
           2
           2
           2
           2
           2
           2
           2
           2
           2
           2
           2
           2
           2
           2
           2
           2
           2
           2
           2
           2
           2
           2
           2
           2
           2
           2
           2
           2
           2
           2
           2
           2
           2
           2
           2
           2
           2
           2
           2
           2
           2
           2
           2
           2
           2
           2
           2
           2
           2
           2
           2
           2
           2
           2
           2
           2
           2
           2
           2
           2
           2
           2
           2
           2
           2
           2
           2
           2
           2
           2
           2
           2
           2
           2
           2
           2
           2
           2
           2
           2
           2
           2
           2
           2
           2
           2
           2
           2
           2
           2
           2
           2
           2
           2
           2
           2
           2
           2
           2
           2
           2
           2
           2
           2
           2
           2
           2
           2
           2
           2
           2
           2
           2
           2
           2
           2
           2
           2
           2
           2
           2
           2
           2
           2
           2
           2
           2
           2
           2
           2
           2
           2
           2
           2
           2
           2
           2
           2
           2
           2
           2
           2
           2
           2
           2
           2
           2
           2
           2
           2
           2
           2
           2
           2
           2
           2
           2
           2
           2
           2
           2
           2
           2
           2
           2
           2
           2
           2
           2
           2
           2
           2
           2
           2
           2
           2
           2
           2
           2
           2
           2
           2
           2
           2
           2
           2
           2
           2
           2
           2
           2
           2
           2
           2
           2
           2
           2
           2
           2
           2
           2
           2
           2
           2
           2
           2
           2
           2
           2
           2
           2
           2
           2
           2
           2
           2
           2
           2
           2
           2
           2
           2
           2
</DataArray>
</CellData>
</Piece>
</UnstructuredGrid>
</VTKFile>
