<VTKFile type="UnstructuredGrid" version="1,0" byte_order="LittleEndian">
<UnstructuredGrid>
<Piece NumberOfPoints="5802" NumberOfCells="5680">
<Points>
<DataArray type="Float64" NumberOfComponents="3" format="ascii">
-0.1100000000000E+01 -0.4304044648606E+01  0.0000000000000E+00
 0.0000000000000E+00 -0.4304044648606E+01  0.0000000000000E+00
 0.1100000000000E+01 -0.4304044648606E+01  0.0000000000000E+00
-0.1426338184892E+01 -0.1495137730994E+01  0.0000000000000E+00
-0.7131690856113E+00 -0.1351817918288E+01  0.0000000000000E+00
 0.7131690992823E+00 -0.1351817920119E+01  0.0000000000000E+00
 0.1426338184892E+01 -0.1495137730994E+01  0.0000000000000E+00
-0.1297471036855E+01  0.8924645033579E+00  0.0000000000000E+00
 0.1297471037589E+01  0.8924645030013E+00  0.0000000000000E+00
-0.7500000000000E+00  0.3449934570704E+00  0.0000000000000E+00
 0.7500000000000E+00  0.3449934570704E+00  0.0000000000000E+00
-0.1072500000000E+01 -0.4304044648606E+01  0.0000000000000E+00
-0.1045000000000E+01 -0.4304044648606E+01  0.0000000000000E+00
-0.1017500000000E+01 -0.4304044648606E+01  0.0000000000000E+00
-0.9900000000000E+00 -0.4304044648606E+01  0.0000000000000E+00
-0.9625000000000E+00 -0.4304044648606E+01  0.0000000000000E+00
-0.9350000000000E+00 -0.4304044648606E+01  0.0000000000000E+00
-0.9075000000000E+00 -0.4304044648606E+01  0.0000000000000E+00
-0.8800000000000E+00 -0.4304044648606E+01  0.0000000000000E+00
-0.8525000000000E+00 -0.4304044648606E+01  0.0000000000000E+00
-0.8250000000000E+00 -0.4304044648606E+01  0.0000000000000E+00
-0.7975000000000E+00 -0.4304044648606E+01  0.0000000000000E+00
-0.7700000000000E+00 -0.4304044648606E+01  0.0000000000000E+00
-0.7425000000000E+00 -0.4304044648606E+01  0.0000000000000E+00
-0.7150000000000E+00 -0.4304044648606E+01  0.0000000000000E+00
-0.6875000000000E+00 -0.4304044648606E+01  0.0000000000000E+00
-0.6600000000000E+00 -0.4304044648606E+01  0.0000000000000E+00
-0.6325000000000E+00 -0.4304044648606E+01  0.0000000000000E+00
-0.6050000000000E+00 -0.4304044648606E+01  0.0000000000000E+00
-0.5775000000000E+00 -0.4304044648606E+01  0.0000000000000E+00
-0.5500000000000E+00 -0.4304044648606E+01  0.0000000000000E+00
-0.5225000000000E+00 -0.4304044648606E+01  0.0000000000000E+00
-0.4950000000000E+00 -0.4304044648606E+01  0.0000000000000E+00
-0.4675000000000E+00 -0.4304044648606E+01  0.0000000000000E+00
-0.4400000000000E+00 -0.4304044648606E+01  0.0000000000000E+00
-0.4125000000000E+00 -0.4304044648606E+01  0.0000000000000E+00
-0.3850000000000E+00 -0.4304044648606E+01  0.0000000000000E+00
-0.3575000000000E+00 -0.4304044648606E+01  0.0000000000000E+00
-0.3300000000000E+00 -0.4304044648606E+01  0.0000000000000E+00
-0.3025000000000E+00 -0.4304044648606E+01  0.0000000000000E+00
-0.2750000000000E+00 -0.4304044648606E+01  0.0000000000000E+00
-0.2475000000000E+00 -0.4304044648606E+01  0.0000000000000E+00
-0.2200000000000E+00 -0.4304044648606E+01  0.0000000000000E+00
-0.1925000000000E+00 -0.4304044648606E+01  0.0000000000000E+00
-0.1650000000000E+00 -0.4304044648606E+01  0.0000000000000E+00
-0.1375000000000E+00 -0.4304044648606E+01  0.0000000000000E+00
-0.1100000000000E+00 -0.4304044648606E+01  0.0000000000000E+00
-0.8250000000000E-01 -0.4304044648606E+01  0.0000000000000E+00
-0.5500000000000E-01 -0.4304044648606E+01  0.0000000000000E+00
-0.2750000000000E-01 -0.4304044648606E+01  0.0000000000000E+00
 0.2750000000000E-01 -0.4304044648606E+01  0.0000000000000E+00
 0.5500000000000E-01 -0.4304044648606E+01  0.0000000000000E+00
 0.8250000000000E-01 -0.4304044648606E+01  0.0000000000000E+00
 0.1100000000000E+00 -0.4304044648606E+01  0.0000000000000E+00
 0.1375000000000E+00 -0.4304044648606E+01  0.0000000000000E+00
 0.1650000000000E+00 -0.4304044648606E+01  0.0000000000000E+00
 0.1925000000000E+00 -0.4304044648606E+01  0.0000000000000E+00
 0.2200000000000E+00 -0.4304044648606E+01  0.0000000000000E+00
 0.2475000000000E+00 -0.4304044648606E+01  0.0000000000000E+00
 0.2750000000000E+00 -0.4304044648606E+01  0.0000000000000E+00
 0.3025000000000E+00 -0.4304044648606E+01  0.0000000000000E+00
 0.3300000000000E+00 -0.4304044648606E+01  0.0000000000000E+00
 0.3575000000000E+00 -0.4304044648606E+01  0.0000000000000E+00
 0.3850000000000E+00 -0.4304044648606E+01  0.0000000000000E+00
 0.4125000000000E+00 -0.4304044648606E+01  0.0000000000000E+00
 0.4400000000000E+00 -0.4304044648606E+01  0.0000000000000E+00
 0.4675000000000E+00 -0.4304044648606E+01  0.0000000000000E+00
 0.4950000000000E+00 -0.4304044648606E+01  0.0000000000000E+00
 0.5225000000000E+00 -0.4304044648606E+01  0.0000000000000E+00
 0.5500000000000E+00 -0.4304044648606E+01  0.0000000000000E+00
 0.5775000000000E+00 -0.4304044648606E+01  0.0000000000000E+00
 0.6050000000000E+00 -0.4304044648606E+01  0.0000000000000E+00
 0.6325000000000E+00 -0.4304044648606E+01  0.0000000000000E+00
 0.6600000000000E+00 -0.4304044648606E+01  0.0000000000000E+00
 0.6875000000000E+00 -0.4304044648606E+01  0.0000000000000E+00
 0.7150000000000E+00 -0.4304044648606E+01  0.0000000000000E+00
 0.7425000000000E+00 -0.4304044648606E+01  0.0000000000000E+00
 0.7700000000000E+00 -0.4304044648606E+01  0.0000000000000E+00
 0.7975000000000E+00 -0.4304044648606E+01  0.0000000000000E+00
 0.8250000000000E+00 -0.4304044648606E+01  0.0000000000000E+00
 0.8525000000000E+00 -0.4304044648606E+01  0.0000000000000E+00
 0.8800000000000E+00 -0.4304044648606E+01  0.0000000000000E+00
 0.9075000000000E+00 -0.4304044648606E+01  0.0000000000000E+00
 0.9350000000000E+00 -0.4304044648606E+01  0.0000000000000E+00
 0.9625000000000E+00 -0.4304044648606E+01  0.0000000000000E+00
 0.9900000000000E+00 -0.4304044648606E+01  0.0000000000000E+00
 0.1017500000000E+01 -0.4304044648606E+01  0.0000000000000E+00
 0.1045000000000E+01 -0.4304044648606E+01  0.0000000000000E+00
 0.1072500000000E+01 -0.4304044648606E+01  0.0000000000000E+00
-0.1391152984612E+01 -0.1485826169004E+01  0.0000000000000E+00
-0.1355910848380E+01 -0.1476732672072E+01  0.0000000000000E+00
-0.1320612835817E+01 -0.1467858633912E+01  0.0000000000000E+00
-0.1285259981017E+01 -0.1459205415754E+01  0.0000000000000E+00
-0.1249853511796E+01 -0.1450774398559E+01  0.0000000000000E+00
-0.1214394584761E+01 -0.1442566916018E+01  0.0000000000000E+00
-0.1178884329493E+01 -0.1434584266595E+01  0.0000000000000E+00
-0.1143323993112E+01 -0.1426827745365E+01  0.0000000000000E+00
-0.1107714835036E+01 -0.1419298618073E+01  0.0000000000000E+00
-0.1072058114862E+01 -0.1411998118171E+01  0.0000000000000E+00
-0.1036355114016E+01 -0.1404927450906E+01  0.0000000000000E+00
-0.1000607103274E+01 -0.1398087786375E+01  0.0000000000000E+00
-0.9648154637952E+00 -0.1391480281711E+01  0.0000000000000E+00
-0.9289815514207E+00 -0.1385106053576E+01  0.0000000000000E+00
-0.8931067449032E+00 -0.1378966186997E+01  0.0000000000000E+00
-0.8571924453329E+00 -0.1373061734396E+01  0.0000000000000E+00
-0.8212400755349E+00 -0.1367393714636E+01  0.0000000000000E+00
-0.7852510794390E+00 -0.1361963112090E+01  0.0000000000000E+00
-0.7492269214199E+00 -0.1356770875739E+01  0.0000000000000E+00
-0.6777056485815E+00 -0.1347184849055E+01  0.0000000000000E+00
-0.6422126030433E+00 -0.1342784468384E+01  0.0000000000000E+00
-0.6066914054888E+00 -0.1338617534531E+01  0.0000000000000E+00
-0.5711435255488E+00 -0.1334684768748E+01  0.0000000000000E+00
-0.5355704233029E+00 -0.1330986852489E+01  0.0000000000000E+00
-0.4999736369017E+00 -0.1327524435880E+01  0.0000000000000E+00
-0.4643546817971E+00 -0.1324298126257E+01  0.0000000000000E+00
-0.4287150862649E+00 -0.1321308491716E+01  0.0000000000000E+00
-0.3930563807228E+00 -0.1318556059836E+01  0.0000000000000E+00
-0.3573801183139E+00 -0.1316041318931E+01  0.0000000000000E+00
-0.3216878730590E+00 -0.1313764717124E+01  0.0000000000000E+00
-0.2859812157621E+00 -0.1311726660302E+01  0.0000000000000E+00
-0.2502617257092E+00 -0.1309927512732E+01  0.0000000000000E+00
-0.2145309892672E+00 -0.1308367596678E+01  0.0000000000000E+00
-0.1787905926666E+00 -0.1307047191884E+01  0.0000000000000E+00
-0.1430421463503E+00 -0.1305966536203E+01  0.0000000000000E+00
-0.1072872541886E+00 -0.1305125824139E+01  0.0000000000000E+00
-0.7152752388590E-01 -0.1304525207180E+01  0.0000000000000E+00
-0.3576456602431E-01 -0.1304164793652E+01  0.0000000000000E+00
 0.6896563736758E-08 -0.1304044648606E+01  0.0000000000000E+00
 0.3576457981713E-01 -0.1304164793745E+01  0.0000000000000E+00
 0.7152753767778E-01 -0.1304525207365E+01  0.0000000000000E+00
 0.1072872679789E+00 -0.1305125824417E+01  0.0000000000000E+00
 0.1430421601384E+00 -0.1305966536574E+01  0.0000000000000E+00
 0.1787906064519E+00 -0.1307047192347E+01  0.0000000000000E+00
 0.2145310030492E+00 -0.1308367597233E+01  0.0000000000000E+00
 0.2502617394871E+00 -0.1309927513380E+01  0.0000000000000E+00
 0.2859812295354E+00 -0.1311726661042E+01  0.0000000000000E+00
 0.3216878868270E+00 -0.1313764717956E+01  0.0000000000000E+00
 0.3573801320760E+00 -0.1316041319855E+01  0.0000000000000E+00
 0.3930563944785E+00 -0.1318556060852E+01  0.0000000000000E+00
 0.4287151000135E+00 -0.1321308492824E+01  0.0000000000000E+00
 0.4643546955381E+00 -0.1324298127456E+01  0.0000000000000E+00
 0.4999736506343E+00 -0.1327524437170E+01  0.0000000000000E+00
 0.5355704370268E+00 -0.1330986853870E+01  0.0000000000000E+00
 0.5711435392633E+00 -0.1334684770220E+01  0.0000000000000E+00
 0.6066914191932E+00 -0.1338617536093E+01  0.0000000000000E+00
 0.6422126167371E+00 -0.1342784470036E+01  0.0000000000000E+00
 0.6777056622642E+00 -0.1347184850797E+01  0.0000000000000E+00
 0.7492269343955E+00 -0.1356770877566E+01  0.0000000000000E+00
 0.7852510917199E+00 -0.1361963113902E+01  0.0000000000000E+00
 0.8212400871220E+00 -0.1367393716423E+01  0.0000000000000E+00
 0.8571924562271E+00 -0.1373061736151E+01  0.0000000000000E+00
 0.8931067551055E+00 -0.1378966188709E+01  0.0000000000000E+00
 0.9289815609321E+00 -0.1385106055236E+01  0.0000000000000E+00
 0.9648154726170E+00 -0.1391480283310E+01  0.0000000000000E+00
 0.1000607111408E+01 -0.1398087787904E+01  0.0000000000000E+00
 0.1036355121463E+01 -0.1404927452356E+01  0.0000000000000E+00
 0.1072058121623E+01 -0.1411998119533E+01  0.0000000000000E+00
 0.1107714841113E+01 -0.1419298619338E+01  0.0000000000000E+00
 0.1143323998507E+01 -0.1426827746523E+01  0.0000000000000E+00
 0.1178884334206E+01 -0.1434584267638E+01  0.0000000000000E+00
 0.1214394588795E+01 -0.1442566916938E+01  0.0000000000000E+00
 0.1249853515153E+01 -0.1450774399347E+01  0.0000000000000E+00
 0.1285259983698E+01 -0.1459205416402E+01  0.0000000000000E+00
 0.1320612837825E+01 -0.1467858634410E+01  0.0000000000000E+00
 0.1355910849717E+01 -0.1476732672412E+01  0.0000000000000E+00
 0.1391152985279E+01 -0.1485826169179E+01  0.0000000000000E+00
-0.1500282641368E+01 -0.1374379525622E+01  0.0000000000000E+00
-0.1579712636672E+01 -0.1257117726587E+01  0.0000000000000E+00
-0.1659629531058E+01 -0.1140189019983E+01  0.0000000000000E+00
-0.1733164540211E+01 -0.1019175933670E+01  0.0000000000000E+00
-0.1798046249351E+01 -0.8933073152546E+00  0.0000000000000E+00
-0.1854662117542E+01 -0.7635066404071E+00  0.0000000000000E+00
-0.1902918776519E+01 -0.6303741789607E+00  0.0000000000000E+00
-0.1941975481337E+01 -0.4942606593644E+00  0.0000000000000E+00
-0.1971769159893E+01 -0.3558234883184E+00  0.0000000000000E+00
-0.1991516502432E+01 -0.2156092846034E+00  0.0000000000000E+00
-0.1999617540933E+01 -0.7424989119446E-01  0.0000000000000E+00
-0.1998781287050E+01  0.6736447573279E-01  0.0000000000000E+00
-0.1977369471108E+01  0.2070661279160E+00  0.0000000000000E+00
-0.1925316867218E+01  0.3385059547416E+00  0.0000000000000E+00
-0.1849365860808E+01  0.4578477771193E+00  0.0000000000000E+00
-0.1756248887890E+01  0.5644442091257E+00  0.0000000000000E+00
-0.1652195200841E+01  0.6604571002421E+00  0.0000000000000E+00
-0.1540277150090E+01  0.7471961778048E+00  0.0000000000000E+00
-0.1421865714943E+01  0.8248395163169E+00  0.0000000000000E+00
-0.1236157917423E+01  0.9206126839211E+00  0.0000000000000E+00
-0.1173981215584E+01  0.9468055532948E+00  0.0000000000000E+00
-0.1111281399127E+01  0.9717225607392E+00  0.0000000000000E+00
-0.1048246390832E+01  0.9957805369659E+00  0.0000000000000E+00
-0.9850026878781E+00  0.1019284763872E+01  0.0000000000000E+00
-0.9216449825030E+00  0.1042480347406E+01  0.0000000000000E+00
-0.8582438511844E+00  0.1065556940867E+01  0.0000000000000E+00
-0.7946812217419E+00  0.1088183183765E+01  0.0000000000000E+00
-0.7306767253970E+00  0.1109523680148E+01  0.0000000000000E+00
-0.6661180574429E+00  0.1129122063103E+01  0.0000000000000E+00
-0.6010093404920E+00  0.1146807084276E+01  0.0000000000000E+00
-0.5354041844713E+00  0.1162549250252E+01  0.0000000000000E+00
-0.4693692539535E+00  0.1176378185166E+01  0.0000000000000E+00
-0.4029695874389E+00  0.1188340213072E+01  0.0000000000000E+00
-0.3362668810131E+00  0.1198477309315E+01  0.0000000000000E+00
-0.2693161135181E+00  0.1206817739605E+01  0.0000000000000E+00
-0.2021667219355E+00  0.1213370604034E+01  0.0000000000000E+00
-0.1348660417516E+00  0.1218121850014E+01  0.0000000000000E+00
-0.6746061515966E-01  0.1221030416244E+01  0.0000000000000E+00
 0.4058847535558E-09  0.1222022719718E+01  0.0000000000000E+00
 0.6746061597099E-01  0.1221030416217E+01  0.0000000000000E+00
 0.1348660425620E+00  0.1218121849962E+01  0.0000000000000E+00
 0.2021667227442E+00  0.1213370603957E+01  0.0000000000000E+00
 0.2693161143243E+00  0.1206817739504E+01  0.0000000000000E+00
 0.3362668818164E+00  0.1198477309191E+01  0.0000000000000E+00
 0.4029695882387E+00  0.1188340212925E+01  0.0000000000000E+00
 0.4693692547501E+00  0.1176378184996E+01  0.0000000000000E+00
 0.5354041852619E+00  0.1162549250060E+01  0.0000000000000E+00
 0.6010093412774E+00  0.1146807084062E+01  0.0000000000000E+00
 0.6661180582227E+00  0.1129122062868E+01  0.0000000000000E+00
 0.7306767261711E+00  0.1109523679893E+01  0.0000000000000E+00
 0.7946812225112E+00  0.1088183183495E+01  0.0000000000000E+00
 0.8582438519506E+00  0.1065556940589E+01  0.0000000000000E+00
 0.9216449832687E+00  0.1042480347127E+01  0.0000000000000E+00
 0.9850026886429E+00  0.1019284763591E+01  0.0000000000000E+00
 0.1048246391595E+01  0.9957805366789E+00  0.0000000000000E+00
 0.1111281399886E+01  0.9717225604423E+00  0.0000000000000E+00
 0.1173981216337E+01  0.9468055529829E+00  0.0000000000000E+00
 0.1236157918167E+01  0.9206126835887E+00  0.0000000000000E+00
 0.1421865715609E+01  0.8248395159258E+00  0.0000000000000E+00
 0.1540277150686E+01  0.7471961773831E+00  0.0000000000000E+00
 0.1652195201364E+01  0.6604570997956E+00  0.0000000000000E+00
 0.1756248888337E+01  0.5644442086587E+00  0.0000000000000E+00
 0.1849365861169E+01  0.4578477766335E+00  0.0000000000000E+00
 0.1925316867476E+01  0.3385059542402E+00  0.0000000000000E+00
 0.1977369471244E+01  0.2070661274129E+00  0.0000000000000E+00
 0.1998781287072E+01  0.6736447525390E-01  0.0000000000000E+00
 0.1999617540926E+01 -0.7424989163157E-01  0.0000000000000E+00
 0.1991516502379E+01 -0.2156092849952E+00  0.0000000000000E+00
 0.1971769159793E+01 -0.3558234886609E+00  0.0000000000000E+00
 0.1941975481197E+01 -0.4942606596555E+00  0.0000000000000E+00
 0.1902918776353E+01 -0.6303741792004E+00  0.0000000000000E+00
 0.1854662117367E+01 -0.7635066405985E+00  0.0000000000000E+00
 0.1798046249184E+01 -0.8933073154033E+00  0.0000000000000E+00
 0.1733164540072E+01 -0.1019175933786E+01  0.0000000000000E+00
 0.1659629530969E+01 -0.1140189020080E+01  0.0000000000000E+00
 0.1579712636620E+01 -0.1257117726658E+01  0.0000000000000E+00
 0.1500282641316E+01 -0.1374379525643E+01  0.0000000000000E+00
-0.1100000000000E+01 -0.4234290980465E+01  0.0000000000000E+00
-0.1100000000000E+01 -0.4164537374556E+01  0.0000000000000E+00
-0.1100000000000E+01 -0.4094783637185E+01  0.0000000000000E+00
-0.1100000000000E+01 -0.4025029839181E+01  0.0000000000000E+00
-0.1100000000000E+01 -0.3955276133193E+01  0.0000000000000E+00
-0.1100000000000E+01 -0.3885522440291E+01  0.0000000000000E+00
-0.1100000000000E+01 -0.3815768738526E+01  0.0000000000000E+00
-0.1100000000000E+01 -0.3746015026237E+01  0.0000000000000E+00
-0.1100000000000E+01 -0.3676261319430E+01  0.0000000000000E+00
-0.1100000000000E+01 -0.3606507611668E+01  0.0000000000000E+00
-0.1100000000000E+01 -0.3536753776913E+01  0.0000000000000E+00
-0.1100000000000E+01 -0.3467000160269E+01  0.0000000000000E+00
-0.1100000000000E+01 -0.3397246335911E+01  0.0000000000000E+00
-0.1100000000000E+01 -0.3327491483183E+01  0.0000000000000E+00
-0.1100000000000E+01 -0.3257738937264E+01  0.0000000000000E+00
-0.1100000000000E+01 -0.3187985423319E+01  0.0000000000000E+00
-0.1100000000000E+01 -0.3118231710338E+01  0.0000000000000E+00
-0.1100000000000E+01 -0.3048478034801E+01  0.0000000000000E+00
-0.1100000000000E+01 -0.2978724449557E+01  0.0000000000000E+00
-0.1100081949193E+01 -0.2908970897701E+01  0.0000000000000E+00
-0.1100742728942E+01 -0.2839220824704E+01  0.0000000000000E+00
-0.1102521741007E+01 -0.2769490993372E+01  0.0000000000000E+00
-0.1105743074114E+01 -0.2699813216018E+01  0.0000000000000E+00
-0.1110533766938E+01 -0.2630225810104E+01  0.0000000000000E+00
-0.1116908162342E+01 -0.2560765504263E+01  0.0000000000000E+00
-0.1124837122290E+01 -0.2491465260483E+01  0.0000000000000E+00
-0.1134287691960E+01 -0.2422356178019E+01  0.0000000000000E+00
-0.1145243591943E+01 -0.2353469532743E+01  0.0000000000000E+00
-0.1157716694154E+01 -0.2284841544654E+01  0.0000000000000E+00
-0.1171756578450E+01 -0.2216517038769E+01  0.0000000000000E+00
-0.1187382332609E+01 -0.2148537564097E+01  0.0000000000000E+00
-0.1204496719736E+01 -0.2080917362614E+01  0.0000000000000E+00
-0.1223027229037E+01 -0.2013671356569E+01  0.0000000000000E+00
-0.1242939072837E+01 -0.1946821322119E+01  0.0000000000000E+00
-0.1264231112750E+01 -0.1880397992225E+01  0.0000000000000E+00
-0.1286935945292E+01 -0.1814444247962E+01  0.0000000000000E+00
-0.1311124079738E+01 -0.1749020523908E+01  0.0000000000000E+00
-0.1336914565389E+01 -0.1684211332234E+01  0.0000000000000E+00
-0.1364492429937E+01 -0.1620144016975E+01  0.0000000000000E+00
-0.1394146623869E+01 -0.1557011712595E+01  0.0000000000000E+00
 0.1394146623938E+01 -0.1557011712631E+01  0.0000000000000E+00
 0.1364492430018E+01 -0.1620144017018E+01  0.0000000000000E+00
 0.1336914565463E+01 -0.1684211332275E+01  0.0000000000000E+00
 0.1311124079803E+01 -0.1749020523939E+01  0.0000000000000E+00
 0.1286935945344E+01 -0.1814444247990E+01  0.0000000000000E+00
 0.1264231112793E+01 -0.1880397992249E+01  0.0000000000000E+00
 0.1242939072872E+01 -0.1946821322142E+01  0.0000000000000E+00
 0.1223027229066E+01 -0.2013671356589E+01  0.0000000000000E+00
 0.1204496719761E+01 -0.2080917362633E+01  0.0000000000000E+00
 0.1187382332630E+01 -0.2148537564113E+01  0.0000000000000E+00
 0.1171756578464E+01 -0.2216517038784E+01  0.0000000000000E+00
 0.1157716694160E+01 -0.2284841544667E+01  0.0000000000000E+00
 0.1145243591945E+01 -0.2353469532755E+01  0.0000000000000E+00
 0.1134287691960E+01 -0.2422356178030E+01  0.0000000000000E+00
 0.1124837122289E+01 -0.2491465260492E+01  0.0000000000000E+00
 0.1116908162341E+01 -0.2560765504273E+01  0.0000000000000E+00
 0.1110533766937E+01 -0.2630225810113E+01  0.0000000000000E+00
 0.1105743074114E+01 -0.2699813216027E+01  0.0000000000000E+00
 0.1102521741008E+01 -0.2769490993381E+01  0.0000000000000E+00
 0.1100742728943E+01 -0.2839220824713E+01  0.0000000000000E+00
 0.1100081949193E+01 -0.2908970897709E+01  0.0000000000000E+00
 0.1100000000000E+01 -0.2978724449564E+01  0.0000000000000E+00
 0.1100000000000E+01 -0.3048478034808E+01  0.0000000000000E+00
 0.1100000000000E+01 -0.3118231710345E+01  0.0000000000000E+00
 0.1100000000000E+01 -0.3187985423326E+01  0.0000000000000E+00
 0.1100000000000E+01 -0.3257738937270E+01  0.0000000000000E+00
 0.1100000000000E+01 -0.3327491483189E+01  0.0000000000000E+00
 0.1100000000000E+01 -0.3397246335917E+01  0.0000000000000E+00
 0.1100000000000E+01 -0.3467000160274E+01  0.0000000000000E+00
 0.1100000000000E+01 -0.3536753776917E+01  0.0000000000000E+00
 0.1100000000000E+01 -0.3606507611672E+01  0.0000000000000E+00
 0.1100000000000E+01 -0.3676261319434E+01  0.0000000000000E+00
 0.1100000000000E+01 -0.3746015026240E+01  0.0000000000000E+00
 0.1100000000000E+01 -0.3815768738529E+01  0.0000000000000E+00
 0.1100000000000E+01 -0.3885522440293E+01  0.0000000000000E+00
 0.1100000000000E+01 -0.3955276133195E+01  0.0000000000000E+00
 0.1100000000000E+01 -0.4025029839183E+01  0.0000000000000E+00
 0.1100000000000E+01 -0.4094783637186E+01  0.0000000000000E+00
 0.1100000000000E+01 -0.4164537374557E+01  0.0000000000000E+00
 0.1100000000000E+01 -0.4234290980466E+01  0.0000000000000E+00
-0.7132895388975E+00  0.3545892595695E+00  0.0000000000000E+00
-0.6764636662017E+00  0.3637314849837E+00  0.0000000000000E+00
-0.6395267434147E+00  0.3724145815178E+00  0.0000000000000E+00
-0.6024837198702E+00  0.3806330875003E+00  0.0000000000000E+00
-0.5653396500945E+00  0.3883817695657E+00  0.0000000000000E+00
-0.5280996171512E+00  0.3956556459469E+00  0.0000000000000E+00
-0.4907691319433E+00  0.4024499201459E+00  0.0000000000000E+00
-0.4533537451325E+00  0.4087600740826E+00  0.0000000000000E+00
-0.4158592885785E+00  0.4145818366128E+00  0.0000000000000E+00
-0.3782916751723E+00  0.4199112310808E+00  0.0000000000000E+00
-0.3406570303206E+00  0.4247445663511E+00  0.0000000000000E+00
-0.3029616164712E+00  0.4290784607705E+00  0.0000000000000E+00
-0.2652118192254E+00  0.4329098541257E+00  0.0000000000000E+00
-0.2274141490083E+00  0.4362360171118E+00  0.0000000000000E+00
-0.1895752452634E+00  0.4390545606537E+00  0.0000000000000E+00
-0.1517018295911E+00  0.4413634482121E+00  0.0000000000000E+00
-0.1138007051193E+00  0.4431610022710E+00  0.0000000000000E+00
-0.7587874076696E-01  0.4444459110349E+00  0.0000000000000E+00
-0.3794285511804E-01  0.4452172336970E+00  0.0000000000000E+00
-0.3330669073875E-15  0.4454744042321E+00  0.0000000000000E+00
 0.3794285511804E-01  0.4452172336970E+00  0.0000000000000E+00
 0.7587874076696E-01  0.4444459110349E+00  0.0000000000000E+00
 0.1138007051193E+00  0.4431610022710E+00  0.0000000000000E+00
 0.1517018295911E+00  0.4413634482121E+00  0.0000000000000E+00
 0.1895752452634E+00  0.4390545606537E+00  0.0000000000000E+00
 0.2274141490083E+00  0.4362360171118E+00  0.0000000000000E+00
 0.2652118192254E+00  0.4329098541257E+00  0.0000000000000E+00
 0.3029616164712E+00  0.4290784607705E+00  0.0000000000000E+00
 0.3406570303206E+00  0.4247445663511E+00  0.0000000000000E+00
 0.3782916751723E+00  0.4199112310808E+00  0.0000000000000E+00
 0.4158592885785E+00  0.4145818366128E+00  0.0000000000000E+00
 0.4533537451325E+00  0.4087600740826E+00  0.0000000000000E+00
 0.4907691319433E+00  0.4024499201459E+00  0.0000000000000E+00
 0.5280996171512E+00  0.3956556459469E+00  0.0000000000000E+00
 0.5653396500945E+00  0.3883817695657E+00  0.0000000000000E+00
 0.6024837198702E+00  0.3806330875003E+00  0.0000000000000E+00
 0.6395267434147E+00  0.3724145815178E+00  0.0000000000000E+00
 0.6764636662017E+00  0.3637314849837E+00  0.0000000000000E+00
 0.7132895388975E+00  0.3545892595695E+00  0.0000000000000E+00
-0.7498714525667E+00  0.2601244253178E+00  0.0000000000000E+00
-0.7494610908407E+00  0.1752564208624E+00  0.0000000000000E+00
-0.7487273443814E+00  0.9039062493678E-01  0.0000000000000E+00
-0.7476230150202E+00  0.5528898378488E-02  0.0000000000000E+00
-0.7460974662219E+00 -0.7932632445184E-01  0.0000000000000E+00
-0.7441028539882E+00 -0.1641717347835E+00  0.0000000000000E+00
-0.7416076935207E+00 -0.2490040130765E+00  0.0000000000000E+00
-0.7386208425271E+00 -0.3338203224162E+00  0.0000000000000E+00
-0.7352226651418E+00 -0.4186212392773E+00  0.0000000000000E+00
-0.7315845453817E+00 -0.5034122306519E+00  0.0000000000000E+00
-0.7279464255305E+00 -0.5882032220226E+00  0.0000000000000E+00
-0.7245482478836E+00 -0.6730041388732E+00  0.0000000000000E+00
-0.7215613964884E+00 -0.7578204481989E+00  0.0000000000000E+00
-0.7190662355151E+00 -0.8426527264768E+00  0.0000000000000E+00
-0.7170716227036E+00 -0.9274981367952E+00  0.0000000000000E+00
-0.7155460732803E+00 -0.1012353359614E+01  0.0000000000000E+00
-0.7144417432648E+00 -0.1097215086164E+01  0.0000000000000E+00
-0.7137079961342E+00 -0.1182080882084E+01  0.0000000000000E+00
-0.7132976337280E+00 -0.1266948886536E+01  0.0000000000000E+00
 0.7498714525670E+00  0.2601244252411E+00  0.0000000000000E+00
 0.7494610908447E+00  0.1752564207090E+00  0.0000000000000E+00
 0.7487273443980E+00  0.9039062470648E-01  0.0000000000000E+00
 0.7476230150664E+00  0.5528898070996E-02  0.0000000000000E+00
 0.7460974663270E+00 -0.7932632483698E-01  0.0000000000000E+00
 0.7441028541992E+00 -0.1641717352482E+00  0.0000000000000E+00
 0.7416076939094E+00 -0.2490040136230E+00  0.0000000000000E+00
 0.7386208431973E+00 -0.3338203230495E+00  0.0000000000000E+00
 0.7352226662333E+00 -0.4186212400042E+00  0.0000000000000E+00
 0.7315845470645E+00 -0.5034122314810E+00  0.0000000000000E+00
 0.7279464279870E+00 -0.5882032229617E+00  0.0000000000000E+00
 0.7245482512846E+00 -0.6730041399270E+00  0.0000000000000E+00
 0.7215614009742E+00 -0.7578204493675E+00  0.0000000000000E+00
 0.7190662411903E+00 -0.8426527277573E+00  0.0000000000000E+00
 0.7170716296405E+00 -0.9274981381818E+00  0.0000000000000E+00
 0.7155460815261E+00 -0.1012353361101E+01  0.0000000000000E+00
 0.7144417528489E+00 -0.1097215087745E+01  0.0000000000000E+00
 0.7137080070737E+00 -0.1182080883753E+01  0.0000000000000E+00
 0.7132976460316E+00 -0.1266948888289E+01  0.0000000000000E+00
-0.7773735518427E+00  0.3723670093848E+00  0.0000000000000E+00
-0.8047471036855E+00  0.3997405616991E+00  0.0000000000000E+00
-0.8321206555283E+00  0.4271141140135E+00  0.0000000000000E+00
-0.8594942073710E+00  0.4544876663279E+00  0.0000000000000E+00
-0.8868677592138E+00  0.4818612186423E+00  0.0000000000000E+00
-0.9142413110566E+00  0.5092347709566E+00  0.0000000000000E+00
-0.9416148628994E+00  0.5366083232710E+00  0.0000000000000E+00
-0.9689884147421E+00  0.5639818755854E+00  0.0000000000000E+00
-0.9963619665849E+00  0.5913554278998E+00  0.0000000000000E+00
-0.1023735518428E+01  0.6187289802141E+00  0.0000000000000E+00
-0.1051109070270E+01  0.6461025325285E+00  0.0000000000000E+00
-0.1078482622113E+01  0.6734760848429E+00  0.0000000000000E+00
-0.1105856173956E+01  0.7008496371573E+00  0.0000000000000E+00
-0.1133229725799E+01  0.7282231894716E+00  0.0000000000000E+00
-0.1160603277642E+01  0.7555967417860E+00  0.0000000000000E+00
-0.1187976829484E+01  0.7829702941004E+00  0.0000000000000E+00
-0.1215350381327E+01  0.8103438464148E+00  0.0000000000000E+00
-0.1242723933170E+01  0.8377173987291E+00  0.0000000000000E+00
-0.1270097485013E+01  0.8650909510435E+00  0.0000000000000E+00
 0.7773735518794E+00  0.3723670093669E+00  0.0000000000000E+00
 0.8047471037588E+00  0.3997405616635E+00  0.0000000000000E+00
 0.8321206556383E+00  0.4271141139600E+00  0.0000000000000E+00
 0.8594942075177E+00  0.4544876662566E+00  0.0000000000000E+00
 0.8868677593971E+00  0.4818612185531E+00  0.0000000000000E+00
 0.9142413112766E+00  0.5092347708497E+00  0.0000000000000E+00
 0.9416148631560E+00  0.5366083231462E+00  0.0000000000000E+00
 0.9689884150354E+00  0.5639818754428E+00  0.0000000000000E+00
 0.9963619669149E+00  0.5913554277393E+00  0.0000000000000E+00
 0.1023735518794E+01  0.6187289800359E+00  0.0000000000000E+00
 0.1051109070674E+01  0.6461025323324E+00  0.0000000000000E+00
 0.1078482622553E+01  0.6734760846289E+00  0.0000000000000E+00
 0.1105856174433E+01  0.7008496369255E+00  0.0000000000000E+00
 0.1133229726312E+01  0.7282231892220E+00  0.0000000000000E+00
 0.1160603278191E+01  0.7555967415186E+00  0.0000000000000E+00
 0.1187976830071E+01  0.7829702938151E+00  0.0000000000000E+00
 0.1215350381950E+01  0.8103438461117E+00  0.0000000000000E+00
 0.1242723933830E+01  0.8377173984082E+00  0.0000000000000E+00
 0.1270097485709E+01  0.8650909507048E+00  0.0000000000000E+00
-0.1072512531531E+01 -0.4234063866316E+01  0.0000000000000E+00
-0.1072525063052E+01 -0.4164083146461E+01  0.0000000000000E+00
-0.1072537594596E+01 -0.4094102294716E+01  0.0000000000000E+00
-0.1072550126150E+01 -0.4024121382140E+01  0.0000000000000E+00
-0.1072562657689E+01 -0.3954140561879E+01  0.0000000000000E+00
-0.1072575189225E+01 -0.3884159754748E+01  0.0000000000000E+00
-0.1072587720762E+01 -0.3814178938725E+01  0.0000000000000E+00
-0.1072600252302E+01 -0.3744198112143E+01  0.0000000000000E+00
-0.1072612783840E+01 -0.3674217291062E+01  0.0000000000000E+00
-0.1072625315378E+01 -0.3604236469021E+01  0.0000000000000E+00
-0.1072637846940E+01 -0.3534255519575E+01  0.0000000000000E+00
-0.1072650378462E+01 -0.3464274788950E+01  0.0000000000000E+00
-0.1072662910022E+01 -0.3394293849935E+01  0.0000000000000E+00
-0.1072675441766E+01 -0.3324311879201E+01  0.0000000000000E+00
-0.1072687973096E+01 -0.3254332222786E+01  0.0000000000000E+00
-0.1072700504600E+01 -0.3184351595195E+01  0.0000000000000E+00
-0.1072713036139E+01 -0.3114370767918E+01  0.0000000000000E+00
-0.1072725567672E+01 -0.3044389978209E+01  0.0000000000000E+00
-0.1072738099188E+01 -0.2974409279085E+01  0.0000000000000E+00
-0.1072830520992E+01 -0.2904428613303E+01  0.0000000000000E+00
-0.1073487230625E+01 -0.2834451427672E+01  0.0000000000000E+00
-0.1075234077757E+01 -0.2764494485924E+01  0.0000000000000E+00
-0.1078387008707E+01 -0.2694589599196E+01  0.0000000000000E+00
-0.1083069870449E+01 -0.2624775084183E+01  0.0000000000000E+00
-0.1089296645518E+01 -0.2555087669031E+01  0.0000000000000E+00
-0.1097038927970E+01 -0.2485560315349E+01  0.0000000000000E+00
-0.1106264590896E+01 -0.2416224123304E+01  0.0000000000000E+00
-0.1116957763942E+01 -0.2347110367907E+01  0.0000000000000E+00
-0.1129130020690E+01 -0.2278255270224E+01  0.0000000000000E+00
-0.1142829695345E+01 -0.2209703655273E+01  0.0000000000000E+00
-0.1158075396169E+01 -0.2141497071144E+01  0.0000000000000E+00
-0.1174772329272E+01 -0.2073649759721E+01  0.0000000000000E+00
-0.1192849805623E+01 -0.2006176643474E+01  0.0000000000000E+00
-0.1212273911551E+01 -0.1939099498740E+01  0.0000000000000E+00
-0.1233043537267E+01 -0.1872449058536E+01  0.0000000000000E+00
-0.1255190460318E+01 -0.1806268204055E+01  0.0000000000000E+00
-0.1278783418399E+01 -0.1740617371563E+01  0.0000000000000E+00
-0.1303938469955E+01 -0.1675581070262E+01  0.0000000000000E+00
-0.1330835993654E+01 -0.1611286650534E+01  0.0000000000000E+00
-0.1359757680489E+01 -0.1547927244028E+01  0.0000000000000E+00
-0.1045023674207E+01 -0.4233842070895E+01  0.0000000000000E+00
-0.1045047348392E+01 -0.4163639555816E+01  0.0000000000000E+00
-0.1045071022622E+01 -0.4093436908429E+01  0.0000000000000E+00
-0.1045094696873E+01 -0.4023234200019E+01  0.0000000000000E+00
-0.1045118371092E+01 -0.3953031584216E+01  0.0000000000000E+00
-0.1045142045307E+01 -0.3882828981585E+01  0.0000000000000E+00
-0.1045165719525E+01 -0.3812626370033E+01  0.0000000000000E+00
-0.1045189393746E+01 -0.3742423747889E+01  0.0000000000000E+00
-0.1045213067966E+01 -0.3672221131264E+01  0.0000000000000E+00
-0.1045236742186E+01 -0.3602018513676E+01  0.0000000000000E+00
-0.1045260416449E+01 -0.3531815768278E+01  0.0000000000000E+00
-0.1045284090638E+01 -0.3461613242396E+01  0.0000000000000E+00
-0.1045307764898E+01 -0.3391410507462E+01  0.0000000000000E+00
-0.1045331439506E+01 -0.3321206737540E+01  0.0000000000000E+00
-0.1045355113332E+01 -0.3251005289272E+01  0.0000000000000E+00
-0.1045378787486E+01 -0.3180802866750E+01  0.0000000000000E+00
-0.1045402461708E+01 -0.3110600243909E+01  0.0000000000000E+00
-0.1045426135917E+01 -0.3040397658755E+01  0.0000000000000E+00
-0.1045449810095E+01 -0.2970195164473E+01  0.0000000000000E+00
-0.1045551315657E+01 -0.2899992703486E+01  0.0000000000000E+00
-0.1046202566339E+01 -0.2829793723913E+01  0.0000000000000E+00
-0.1047915859739E+01 -0.2759614990390E+01  0.0000000000000E+00
-0.1050998999770E+01 -0.2689488312903E+01  0.0000000000000E+00
-0.1055572641697E+01 -0.2619452007401E+01  0.0000000000000E+00
-0.1061650407731E+01 -0.2549542801550E+01  0.0000000000000E+00
-0.1069204624013E+01 -0.2479793656596E+01  0.0000000000000E+00
-0.1078203991553E+01 -0.2410235673589E+01  0.0000000000000E+00
-0.1088633049045E+01 -0.2340900126704E+01  0.0000000000000E+00
-0.1100503071749E+01 -0.2271823238048E+01  0.0000000000000E+00
-0.1113861148214E+01 -0.2203049832639E+01  0.0000000000000E+00
-0.1128725407183E+01 -0.2134621457671E+01  0.0000000000000E+00
-0.1145003497769E+01 -0.2066552354937E+01  0.0000000000000E+00
-0.1162626552704E+01 -0.1998857447123E+01  0.0000000000000E+00
-0.1181561532320E+01 -0.1931558510742E+01  0.0000000000000E+00
-0.1201807355426E+01 -0.1864686278866E+01  0.0000000000000E+00
-0.1223394980603E+01 -0.1798283632802E+01  0.0000000000000E+00
-0.1246391373975E+01 -0.1732411010466E+01  0.0000000000000E+00
-0.1270909603116E+01 -0.1667152918159E+01  0.0000000000000E+00
-0.1297125397712E+01 -0.1602636712462E+01  0.0000000000000E+00
-0.1325313189253E+01 -0.1539055522277E+01  0.0000000000000E+00
-0.1017533453958E+01 -0.4233625628194E+01  0.0000000000000E+00
-0.1017566907886E+01 -0.4163206670607E+01  0.0000000000000E+00
-0.1017600361877E+01 -0.4092787580305E+01  0.0000000000000E+00
-0.1017633815897E+01 -0.4022368428792E+01  0.0000000000000E+00
-0.1017667269873E+01 -0.3951949370171E+01  0.0000000000000E+00
-0.1017700723842E+01 -0.3881530324762E+01  0.0000000000000E+00
-0.1017734177816E+01 -0.3811111270406E+01  0.0000000000000E+00
-0.1017767631795E+01 -0.3740692205424E+01  0.0000000000000E+00
-0.1017801085772E+01 -0.3670273145978E+01  0.0000000000000E+00
-0.1017834539748E+01 -0.3599854085567E+01  0.0000000000000E+00
-0.1017867993786E+01 -0.3529434896952E+01  0.0000000000000E+00
-0.1017901447719E+01 -0.3459015928528E+01  0.0000000000000E+00
-0.1017934901752E+01 -0.3388596750409E+01  0.0000000000000E+00
-0.1017968356278E+01 -0.3318176534111E+01  0.0000000000000E+00
-0.1018001809697E+01 -0.3247758646625E+01  0.0000000000000E+00
-0.1018035263581E+01 -0.3177339781880E+01  0.0000000000000E+00
-0.1018068717560E+01 -0.3106920716200E+01  0.0000000000000E+00
-0.1018102171522E+01 -0.3036501688322E+01  0.0000000000000E+00
-0.1018135625440E+01 -0.2966082751597E+01  0.0000000000000E+00
-0.1018244851837E+01 -0.2895663848120E+01  0.0000000000000E+00
-0.1018889280661E+01 -0.2825248427290E+01  0.0000000000000E+00
-0.1020567657443E+01 -0.2754853254624E+01  0.0000000000000E+00
-0.1023579643686E+01 -0.2684510138987E+01  0.0000000000000E+00
-0.1028042702948E+01 -0.2614257395599E+01  0.0000000000000E+00
-0.1033970097107E+01 -0.2544131751656E+01  0.0000000000000E+00
-0.1041334884389E+01 -0.2474166168050E+01  0.0000000000000E+00
-0.1050106593729E+01 -0.2404391746694E+01  0.0000000000000E+00
-0.1060270172863E+01 -0.2334839760947E+01  0.0000000000000E+00
-0.1071836598734E+01 -0.2265546433933E+01  0.0000000000000E+00
-0.1084851714238E+01 -0.2196556590667E+01  0.0000000000000E+00
-0.1099333168593E+01 -0.2127911777470E+01  0.0000000000000E+00
-0.1115191053912E+01 -0.2059626236046E+01  0.0000000000000E+00
-0.1132358324692E+01 -0.1991714889293E+01  0.0000000000000E+00
-0.1150802815268E+01 -0.1924199513894E+01  0.0000000000000E+00
-0.1170523473049E+01 -0.1857110842977E+01  0.0000000000000E+00
-0.1191550437648E+01 -0.1790491757958E+01  0.0000000000000E+00
-0.1213948903631E+01 -0.1724402698364E+01  0.0000000000000E+00
-0.1237828947684E+01 -0.1658928167667E+01  0.0000000000000E+00
-0.1263361650553E+01 -0.1594195528494E+01  0.0000000000000E+00
-0.1290814184204E+01 -0.1530397907066E+01  0.0000000000000E+00
-0.9900418962607E+00 -0.4233414571416E+01  0.0000000000000E+00
-0.9900837924840E+00 -0.4162784557239E+01  0.0000000000000E+00
-0.9901256887862E+00 -0.4092154409949E+01  0.0000000000000E+00
-0.9901675851249E+00 -0.4021524201263E+01  0.0000000000000E+00
-0.9902094814083E+00 -0.3950894085750E+01  0.0000000000000E+00
-0.9902513776839E+00 -0.3880263983487E+01  0.0000000000000E+00
-0.9902932739648E+00 -0.3809633872251E+01  0.0000000000000E+00
-0.9903351702520E+00 -0.3739003750357E+01  0.0000000000000E+00
-0.9903770665359E+00 -0.3668373634015E+01  0.0000000000000E+00
-0.9904189628203E+00 -0.3597743516705E+01  0.0000000000000E+00
-0.9904608591811E+00 -0.3527113270807E+01  0.0000000000000E+00
-0.9905027554109E+00 -0.3456483245761E+01  0.0000000000000E+00
-0.9905446517654E+00 -0.3385853010391E+01  0.0000000000000E+00
-0.9905865487375E+00 -0.3315221733730E+01  0.0000000000000E+00
-0.9906284443242E+00 -0.3244592792861E+01  0.0000000000000E+00
-0.9906703404922E+00 -0.3173962871804E+01  0.0000000000000E+00
-0.9907122367799E+00 -0.3103332749209E+01  0.0000000000000E+00
-0.9907541330450E+00 -0.3032702664530E+01  0.0000000000000E+00
-0.9907960292559E+00 -0.2962072671278E+01  0.0000000000000E+00
-0.9909116390403E+00 -0.2891442711229E+01  0.0000000000000E+00
-0.9915479085496E+00 -0.2820816235028E+01  0.0000000000000E+00
-0.9931900312463E+00 -0.2750210009053E+01  0.0000000000000E+00
-0.9961295262075E+00 -0.2679655841074E+01  0.0000000000000E+00
-0.1000480665275E+01 -0.2609192045601E+01  0.0000000000000E+00
-0.1006256349991E+01 -0.2538855349374E+01  0.0000000000000E+00
-0.1013430370667E+01 -0.2468678712937E+01  0.0000000000000E+00
-0.1021973084167E+01 -0.2398693239047E+01  0.0000000000000E+00
-0.1031869847265E+01 -0.2328930200265E+01  0.0000000000000E+00
-0.1043131338593E+01 -0.2259425820705E+01  0.0000000000000E+00
-0.1055802155392E+01 -0.2190224925383E+01  0.0000000000000E+00
-0.1069899467351E+01 -0.2121369059769E+01  0.0000000000000E+00
-0.1085335809584E+01 -0.2052872465477E+01  0.0000000000000E+00
-0.1102045958354E+01 -0.1984750065613E+01  0.0000000000000E+00
-0.1119998622005E+01 -0.1917023637028E+01  0.0000000000000E+00
-0.1139192776541E+01 -0.1849723912900E+01  0.0000000000000E+00
-0.1159657742613E+01 -0.1782893774755E+01  0.0000000000000E+00
-0.1181456943232E+01 -0.1716593663690E+01  0.0000000000000E+00
-0.1204697464179E+01 -0.1650908080416E+01  0.0000000000000E+00
-0.1229545737291E+01 -0.1585964393460E+01  0.0000000000000E+00
-0.1256261674990E+01 -0.1521955726426E+01  0.0000000000000E+00
-0.9625490307744E+00 -0.4233208934242E+01  0.0000000000000E+00
-0.9625980615051E+00 -0.4162373283074E+01  0.0000000000000E+00
-0.9626470923282E+00 -0.4091537498405E+01  0.0000000000000E+00
-0.9626961231939E+00 -0.4020701652163E+01  0.0000000000000E+00
-0.9627451539950E+00 -0.3949865899364E+01  0.0000000000000E+00
-0.9627941847868E+00 -0.3879030159854E+01  0.0000000000000E+00
-0.9628432155849E+00 -0.3808194411344E+01  0.0000000000000E+00
-0.9628922463903E+00 -0.3737358652146E+01  0.0000000000000E+00
-0.9629412771919E+00 -0.3666522898516E+01  0.0000000000000E+00
-0.9629903079942E+00 -0.3595687143916E+01  0.0000000000000E+00
-0.9630393388858E+00 -0.3524851260352E+01  0.0000000000000E+00
-0.9630883696240E+00 -0.3454015598284E+01  0.0000000000000E+00
-0.9631374005082E+00 -0.3383179725279E+01  0.0000000000000E+00
-0.9631864321153E+00 -0.3312342807951E+01  0.0000000000000E+00
-0.9632354621009E+00 -0.3241508233216E+01  0.0000000000000E+00
-0.9632844927670E+00 -0.3170672675440E+01  0.0000000000000E+00
-0.9633335235729E+00 -0.3099836915539E+01  0.0000000000000E+00
-0.9633825543526E+00 -0.3029001193664E+01  0.0000000000000E+00
-0.9634315850687E+00 -0.2958165563482E+01  0.0000000000000E+00
-0.9635522704534E+00 -0.2887329966460E+01  0.0000000000000E+00
-0.9641790728768E+00 -0.2816497854456E+01  0.0000000000000E+00
-0.9657836337437E+00 -0.2745685994687E+01  0.0000000000000E+00
-0.9686493297033E+00 -0.2674926193857E+01  0.0000000000000E+00
-0.9728872408782E+00 -0.2604256765783E+01  0.0000000000000E+00
-0.9785099084739E+00 -0.2533714436761E+01  0.0000000000000E+00
-0.9854918548825E+00 -0.2463332166997E+01  0.0000000000000E+00
-0.9938042649014E+00 -0.2393141060067E+01  0.0000000000000E+00
-0.1003432904341E+01 -0.2323172387757E+01  0.0000000000000E+00
-0.1014388153526E+01 -0.2253462375149E+01  0.0000000000000E+00
-0.1026713364044E+01 -0.2184055847255E+01  0.0000000000000E+00
-0.1040425226048E+01 -0.2114994348714E+01  0.0000000000000E+00
-0.1055438717652E+01 -0.2046292121059E+01  0.0000000000000E+00
-0.1071690436889E+01 -0.1977964087595E+01  0.0000000000000E+00
-0.1089149966106E+01 -0.1910032025335E+01  0.0000000000000E+00
-0.1107816309908E+01 -0.1842526667508E+01  0.0000000000000E+00
-0.1127717969982E+01 -0.1775490895749E+01  0.0000000000000E+00
-0.1148916597798E+01 -0.1708985152681E+01  0.0000000000000E+00
-0.1171516288212E+01 -0.1643093936327E+01  0.0000000000000E+00
-0.1195678824192E+01 -0.1577944620960E+01  0.0000000000000E+00
-0.1221656858605E+01 -0.1513730327639E+01  0.0000000000000E+00
-0.9350548857341E+00 -0.4233008749201E+01  0.0000000000000E+00
-0.9351097714192E+00 -0.4161972913172E+01  0.0000000000000E+00
-0.9351646572077E+00 -0.4090936943265E+01  0.0000000000000E+00
-0.9352195430440E+00 -0.4019900911610E+01  0.0000000000000E+00
-0.9352744288078E+00 -0.3948864973661E+01  0.0000000000000E+00
-0.9353293145614E+00 -0.3877829049040E+01  0.0000000000000E+00
-0.9353842003219E+00 -0.3806793115393E+01  0.0000000000000E+00
-0.9354390860907E+00 -0.3735757171028E+01  0.0000000000000E+00
-0.9354939718552E+00 -0.3664721232247E+01  0.0000000000000E+00
-0.9355488576204E+00 -0.3593685292493E+01  0.0000000000000E+00
-0.9356037434856E+00 -0.3522649223411E+01  0.0000000000000E+00
-0.9356586291791E+00 -0.3451613376450E+01  0.0000000000000E+00
-0.9357135150361E+00 -0.3380577317956E+01  0.0000000000000E+00
-0.9357684017023E+00 -0.3309540212189E+01  0.0000000000000E+00
-0.9358232865533E+00 -0.3238505455634E+01  0.0000000000000E+00
-0.9358781721661E+00 -0.3167469713260E+01  0.0000000000000E+00
-0.9359330579354E+00 -0.3096433768190E+01  0.0000000000000E+00
-0.9359879436753E+00 -0.3025397861254E+01  0.0000000000000E+00
-0.9360428293441E+00 -0.2954362046269E+01  0.0000000000000E+00
-0.9361673107769E+00 -0.2883326264402E+01  0.0000000000000E+00
-0.9367833665756E+00 -0.2812293968694E+01  0.0000000000000E+00
-0.9383490860972E+00 -0.2741281927175E+01  0.0000000000000E+00
-0.9411397035599E+00 -0.2670321945513E+01  0.0000000000000E+00
-0.9452631073643E+00 -0.2599452336852E+01  0.0000000000000E+00
-0.9507314783757E+00 -0.2528709827051E+01  0.0000000000000E+00
-0.9575200710652E+00 -0.2458127375992E+01  0.0000000000000E+00
-0.9656008981693E+00 -0.2387736088047E+01  0.0000000000000E+00
-0.9749601345276E+00 -0.2317567234247E+01  0.0000000000000E+00
-0.9856078621643E+00 -0.2247657040614E+01  0.0000000000000E+00
-0.9975861870151E+00 -0.2178050332159E+01  0.0000000000000E+00
-0.1010911319691E+01 -0.2108788652715E+01  0.0000000000000E+00
-0.1025500681307E+01 -0.2039886243729E+01  0.0000000000000E+00
-0.1041292691662E+01 -0.1971358028703E+01  0.0000000000000E+00
-0.1058257807111E+01 -0.1903225784809E+01  0.0000000000000E+00
-0.1076395060859E+01 -0.1835520245327E+01  0.0000000000000E+00
-0.1095732135628E+01 -0.1768284291992E+01  0.0000000000000E+00
-0.1116328911357E+01 -0.1701578368917E+01  0.0000000000000E+00
-0.1138286491965E+01 -0.1635486971509E+01  0.0000000000000E+00
-0.1161762011589E+01 -0.1570137479634E+01  0.0000000000000E+00
-0.1187000863524E+01 -0.1505723011870E+01  0.0000000000000E+00
-0.9075594888834E+00 -0.4232814047965E+01  0.0000000000000E+00
-0.9076189777137E+00 -0.4161583510873E+01  0.0000000000000E+00
-0.9076784666562E+00 -0.4090352839537E+01  0.0000000000000E+00
-0.9077379556503E+00 -0.4019122106283E+01  0.0000000000000E+00
-0.9077974445660E+00 -0.3947891466993E+01  0.0000000000000E+00
-0.9078569334706E+00 -0.3876660841067E+01  0.0000000000000E+00
-0.9079164223826E+00 -0.3805430206090E+01  0.0000000000000E+00
-0.9079759113037E+00 -0.3734199560366E+01  0.0000000000000E+00
-0.9080354002201E+00 -0.3662968920241E+01  0.0000000000000E+00
-0.9080948891373E+00 -0.3591738279139E+01  0.0000000000000E+00
-0.9081543781628E+00 -0.3520507508356E+01  0.0000000000000E+00
-0.9082138670023E+00 -0.3449276960303E+01  0.0000000000000E+00
-0.9082733560189E+00 -0.3378046200137E+01  0.0000000000000E+00
-0.9083328459126E+00 -0.3306814389827E+01  0.0000000000000E+00
-0.9083923338389E+00 -0.3235584935169E+01  0.0000000000000E+00
-0.9084518225908E+00 -0.3164354491989E+01  0.0000000000000E+00
-0.9085113115124E+00 -0.3093123845558E+01  0.0000000000000E+00
-0.9085708004021E+00 -0.3021893237364E+01  0.0000000000000E+00
-0.9086302892149E+00 -0.2950662721375E+01  0.0000000000000E+00
-0.9087573148855E+00 -0.2879432238462E+01  0.0000000000000E+00
-0.9093613722480E+00 -0.2808205242816E+01  0.0000000000000E+00
-0.9108869986093E+00 -0.2736998503262E+01  0.0000000000000E+00
-0.9136012857450E+00 -0.2665843824457E+01  0.0000000000000E+00
-0.9176089303279E+00 -0.2594779518890E+01  0.0000000000000E+00
-0.9229217528804E+00 -0.2523842311999E+01  0.0000000000000E+00
-0.9295157399506E+00 -0.2453065163345E+01  0.0000000000000E+00
-0.9373637322199E+00 -0.2382479178080E+01  0.0000000000000E+00
-0.9464523135519E+00 -0.2312115626497E+01  0.0000000000000E+00
-0.9567912676773E+00 -0.2242010735533E+01  0.0000000000000E+00
-0.9684214548780E+00 -0.2172209330199E+01  0.0000000000000E+00
-0.9813586062191E+00 -0.2102752953541E+01  0.0000000000000E+00
-0.9955225858144E+00 -0.2033655846927E+01  0.0000000000000E+00
-0.1010853635234E+01 -0.1964932934049E+01  0.0000000000000E+00
-0.1027323084841E+01 -0.1896605992232E+01  0.0000000000000E+00
-0.1044929996441E+01 -0.1828705754805E+01  0.0000000000000E+00
-0.1063701233792E+01 -0.1761275103603E+01  0.0000000000000E+00
-0.1083694905311E+01 -0.1694374484189E+01  0.0000000000000E+00
-0.1105009123960E+01 -0.1628088389422E+01  0.0000000000000E+00
-0.1127796375076E+01 -0.1562544204608E+01  0.0000000000000E+00
-0.1152294792365E+01 -0.1497935045915E+01  0.0000000000000E+00
-0.8800628705364E+00 -0.4232624862121E+01  0.0000000000000E+00
-0.8801257410166E+00 -0.4161205139353E+01  0.0000000000000E+00
-0.8801886116154E+00 -0.4089785281985E+01  0.0000000000000E+00
-0.8802514822688E+00 -0.4018365362534E+01  0.0000000000000E+00
-0.8803143528392E+00 -0.3946945537297E+01  0.0000000000000E+00
-0.8803772233979E+00 -0.3875525725460E+01  0.0000000000000E+00
-0.8804400939646E+00 -0.3804105904547E+01  0.0000000000000E+00
-0.8805029645407E+00 -0.3732686072859E+01  0.0000000000000E+00
-0.8805658351119E+00 -0.3661266246784E+01  0.0000000000000E+00
-0.8806287056840E+00 -0.3589846419731E+01  0.0000000000000E+00
-0.8806915763705E+00 -0.3518426462652E+01  0.0000000000000E+00
-0.8807544468605E+00 -0.3447006728894E+01  0.0000000000000E+00
-0.8808173175376E+00 -0.3375586782460E+01  0.0000000000000E+00
-0.8808801891417E+00 -0.3304165783093E+01  0.0000000000000E+00
-0.8809430586665E+00 -0.3232747145634E+01  0.0000000000000E+00
-0.8810059290639E+00 -0.3161327517028E+01  0.0000000000000E+00
-0.8810687996407E+00 -0.3089907684630E+01  0.0000000000000E+00
-0.8811316701837E+00 -0.3018487890573E+01  0.0000000000000E+00
-0.8811945406453E+00 -0.2947068188964E+01  0.0000000000000E+00
-0.8813228890586E+00 -0.2875648520392E+01  0.0000000000000E+00
-0.8819137264959E+00 -0.2804232340163E+01  0.0000000000000E+00
-0.8833980382182E+00 -0.2732836417874E+01  0.0000000000000E+00
-0.8860347735525E+00 -0.2661492557202E+01  0.0000000000000E+00
-0.8899254374389E+00 -0.2590239069998E+01  0.0000000000000E+00
-0.8950814900544E+00 -0.2519112681292E+01  0.0000000000000E+00
-0.9014796500221E+00 -0.2448146350332E+01  0.0000000000000E+00
-0.9090935859732E+00 -0.2377371183027E+01  0.0000000000000E+00
-0.9179102907911E+00 -0.2306818448954E+01  0.0000000000000E+00
-0.9279392499182E+00 -0.2236524375941E+01  0.0000000000000E+00
-0.9392200779827E+00 -0.2166533788996E+01  0.0000000000000E+00
-0.9517680264986E+00 -0.2096888230403E+01  0.0000000000000E+00
-0.9655054025790E+00 -0.2027601941450E+01  0.0000000000000E+00
-0.9803742695659E+00 -0.1958689846016E+01  0.0000000000000E+00
-0.9963468318319E+00 -0.1890173721573E+01  0.0000000000000E+00
-0.1013422179782E+01 -0.1822084301500E+01  0.0000000000000E+00
-0.1031626358213E+01 -0.1754464467729E+01  0.0000000000000E+00
-0.1051015704027E+01 -0.1687374667227E+01  0.0000000000000E+00
-0.1071685339213E+01 -0.1620899390382E+01  0.0000000000000E+00
-0.1093783100342E+01 -0.1555166027787E+01  0.0000000000000E+00
-0.1117539861519E+01 -0.1490367693265E+01  0.0000000000000E+00
-0.8525650613475E+00 -0.4232441222540E+01  0.0000000000000E+00
-0.8526301226369E+00 -0.4160837860356E+01  0.0000000000000E+00
-0.8526951840489E+00 -0.4089234363225E+01  0.0000000000000E+00
-0.8527602455175E+00 -0.4017630803852E+01  0.0000000000000E+00
-0.8528253069002E+00 -0.3946027338935E+01  0.0000000000000E+00
-0.8528903682708E+00 -0.3874423887452E+01  0.0000000000000E+00
-0.8529554296496E+00 -0.3802820426871E+01  0.0000000000000E+00
-0.8530204910382E+00 -0.3731216955486E+01  0.0000000000000E+00
-0.8530855524217E+00 -0.3659613489729E+01  0.0000000000000E+00
-0.8531506138061E+00 -0.3588010022991E+01  0.0000000000000E+00
-0.8532156753090E+00 -0.3516406425893E+01  0.0000000000000E+00
-0.8532807366084E+00 -0.3444803052690E+01  0.0000000000000E+00
-0.8533457981016E+00 -0.3373199466264E+01  0.0000000000000E+00
-0.8534108605539E+00 -0.3301594824198E+01  0.0000000000000E+00
-0.8534759208546E+00 -0.3229992550113E+01  0.0000000000000E+00
-0.8535409820583E+00 -0.3158389282333E+01  0.0000000000000E+00
-0.8536060434475E+00 -0.3086785810237E+01  0.0000000000000E+00
-0.8536711048019E+00 -0.3015182376580E+01  0.0000000000000E+00
-0.8537361660720E+00 -0.2943579035609E+01  0.0000000000000E+00
-0.8538646463877E+00 -0.2871975727635E+01  0.0000000000000E+00
-0.8544410730703E+00 -0.2800375909051E+01  0.0000000000000E+00
-0.8558828793436E+00 -0.2728796350200E+01  0.0000000000000E+00
-0.8584408720812E+00 -0.2657268853809E+01  0.0000000000000E+00
-0.8622133644880E+00 -0.2585831731108E+01  0.0000000000000E+00
-0.8672114563930E+00 -0.2514521706732E+01  0.0000000000000E+00
-0.8734125984922E+00 -0.2443371739627E+01  0.0000000000000E+00
-0.8807912873710E+00 -0.2372412936434E+01  0.0000000000000E+00
-0.8893349249278E+00 -0.2301676566038E+01  0.0000000000000E+00
-0.8990526983227E+00 -0.2231198857128E+01  0.0000000000000E+00
-0.9099829765306E+00 -0.2161024634712E+01  0.0000000000000E+00
-0.9221405315093E+00 -0.2091195440332E+01  0.0000000000000E+00
-0.9354501133705E+00 -0.2021725515203E+01  0.0000000000000E+00
-0.9498556072284E+00 -0.1952629783379E+01  0.0000000000000E+00
-0.9653300914659E+00 -0.1883930022482E+01  0.0000000000000E+00
-0.9818726850887E+00 -0.1815656965932E+01  0.0000000000000E+00
-0.9995086139303E+00 -0.1747853495759E+01  0.0000000000000E+00
-0.1018292443390E+01 -0.1680580060295E+01  0.0000000000000E+00
-0.1038316304469E+01 -0.1613921147526E+01  0.0000000000000E+00
-0.1059723385008E+01 -0.1548004153177E+01  0.0000000000000E+00
-0.1082737299492E+01 -0.1483022188796E+01  0.0000000000000E+00
-0.8250660920538E+00 -0.4232263159309E+01  0.0000000000000E+00
-0.8251321840486E+00 -0.4160481734051E+01  0.0000000000000E+00
-0.8251982761680E+00 -0.4088700173511E+01  0.0000000000000E+00
-0.8252643683448E+00 -0.4016918550576E+01  0.0000000000000E+00
-0.8253304604344E+00 -0.3945137022330E+01  0.0000000000000E+00
-0.8253965525117E+00 -0.3873355507552E+01  0.0000000000000E+00
-0.8254626445973E+00 -0.3801573983653E+01  0.0000000000000E+00
-0.8255287366929E+00 -0.3729792448923E+01  0.0000000000000E+00
-0.8255948287833E+00 -0.3658010919836E+01  0.0000000000000E+00
-0.8256609208746E+00 -0.3586229389765E+01  0.0000000000000E+00
-0.8257270130863E+00 -0.3514447729009E+01  0.0000000000000E+00
-0.8257931050913E+00 -0.3442666292706E+01  0.0000000000000E+00
-0.8258591972930E+00 -0.3370884642650E+01  0.0000000000000E+00
-0.8259252904692E+00 -0.3299101934328E+01  0.0000000000000E+00
-0.8259913814597E+00 -0.3227321599875E+01  0.0000000000000E+00
-0.8260574733674E+00 -0.3155540269257E+01  0.0000000000000E+00
-0.8261235654636E+00 -0.3083758733815E+01  0.0000000000000E+00
-0.8261896575244E+00 -0.3011977236907E+01  0.0000000000000E+00
-0.8262557494996E+00 -0.2940195832915E+01  0.0000000000000E+00
-0.8263832016146E+00 -0.2868414461884E+01  0.0000000000000E+00
-0.8269440574487E+00 -0.2796636581256E+01  0.0000000000000E+00
-0.8283421981958E+00 -0.2724878962100E+01  0.0000000000000E+00
-0.8308202882722E+00 -0.2653173406220E+01  0.0000000000000E+00
-0.8344734491439E+00 -0.2581558224248E+01  0.0000000000000E+00
-0.8393124202894E+00 -0.2510070140431E+01  0.0000000000000E+00
-0.8453153844756E+00 -0.2438742113425E+01  0.0000000000000E+00
-0.8524576662468E+00 -0.2367605250581E+01  0.0000000000000E+00
-0.8607270765120E+00 -0.2296690820111E+01  0.0000000000000E+00
-0.8701325041541E+00 -0.2226035051540E+01  0.0000000000000E+00
-0.8807110724950E+00 -0.2155682769878E+01  0.0000000000000E+00
-0.8924770739321E+00 -0.2085675515945E+01  0.0000000000000E+00
-0.9053577015745E+00 -0.2016027530883E+01  0.0000000000000E+00
-0.9192986623094E+00 -0.1946753738922E+01  0.0000000000000E+00
-0.9342739085305E+00 -0.1877875917823E+01  0.0000000000000E+00
-0.9502825878444E+00 -0.1809424801052E+01  0.0000000000000E+00
-0.9673491071235E+00 -0.1741443270728E+01  0.0000000000000E+00
-0.9855262602718E+00 -0.1673991776510E+01  0.0000000000000E+00
-0.1004903187288E+01 -0.1607154804054E+01  0.0000000000000E+00
-0.1025618427315E+01 -0.1541059754062E+01  0.0000000000000E+00
-0.1047888335209E+01 -0.1475899735876E+01  0.0000000000000E+00
-0.7975659939323E+00 -0.4232090701822E+01  0.0000000000000E+00
-0.7976319878057E+00 -0.4160136819232E+01  0.0000000000000E+00
-0.7976979818034E+00 -0.4088182801034E+01  0.0000000000000E+00
-0.7977639758586E+00 -0.4016228720290E+01  0.0000000000000E+00
-0.7978299698266E+00 -0.3944274734464E+01  0.0000000000000E+00
-0.7978959637823E+00 -0.3872320762138E+01  0.0000000000000E+00
-0.7979619577464E+00 -0.3800366780669E+01  0.0000000000000E+00
-0.7980279517205E+00 -0.3728412788344E+01  0.0000000000000E+00
-0.7980939456893E+00 -0.3656458801674E+01  0.0000000000000E+00
-0.7981599396591E+00 -0.3584504814019E+01  0.0000000000000E+00
-0.7982259337490E+00 -0.3512550695365E+01  0.0000000000000E+00
-0.7982919276325E+00 -0.3440596801702E+01  0.0000000000000E+00
-0.7983579217126E+00 -0.3368642693773E+01  0.0000000000000E+00
-0.7984239167656E+00 -0.3296687525035E+01  0.0000000000000E+00
-0.7984899096361E+00 -0.3224734735871E+01  0.0000000000000E+00
-0.7985559034225E+00 -0.3152780948147E+01  0.0000000000000E+00
-0.7986218973972E+00 -0.3080826955107E+01  0.0000000000000E+00
-0.7986878913365E+00 -0.3008873000694E+01  0.0000000000000E+00
-0.7987538851903E+00 -0.2936919139421E+01  0.0000000000000E+00
-0.7988791802779E+00 -0.2864965311072E+01  0.0000000000000E+00
-0.7994233364446E+00 -0.2793014974107E+01  0.0000000000000E+00
-0.8007766828600E+00 -0.2721084900299E+01  0.0000000000000E+00
-0.8031737414778E+00 -0.2649206890558E+01  0.0000000000000E+00
-0.8067064420217E+00 -0.2577419254934E+01  0.0000000000000E+00
-0.8113851636173E+00 -0.2505758717304E+01  0.0000000000000E+00
-0.8171888211005E+00 -0.2434258236037E+01  0.0000000000000E+00
-0.8240935669787E+00 -0.2362948919174E+01  0.0000000000000E+00
-0.8320876211673E+00 -0.2291862034276E+01  0.0000000000000E+00
-0.8411795742777E+00 -0.2221033811677E+01  0.0000000000000E+00
-0.8514053039785E+00 -0.2150509076388E+01  0.0000000000000E+00
-0.8627786231021E+00 -0.2080329368531E+01  0.0000000000000E+00
-0.8752291677545E+00 -0.2010508929178E+01  0.0000000000000E+00
-0.8887044665969E+00 -0.1941062682728E+01  0.0000000000000E+00
-0.9031793460348E+00 -0.1872012407076E+01  0.0000000000000E+00
-0.9186529822757E+00 -0.1803388835734E+01  0.0000000000000E+00
-0.9351489632314E+00 -0.1735234850908E+01  0.0000000000000E+00
-0.9527183113194E+00 -0.1667610903540E+01  0.0000000000000E+00
-0.9714471755213E+00 -0.1600601477032E+01  0.0000000000000E+00
-0.9914694463155E+00 -0.1534333976903E+01  0.0000000000000E+00
-0.1012994218913E+01 -0.1469001510359E+01  0.0000000000000E+00
-0.7700647981096E+00 -0.4231923878620E+01  0.0000000000000E+00
-0.7701295961614E+00 -0.4159803172976E+01  0.0000000000000E+00
-0.7701943943354E+00 -0.4087682331411E+01  0.0000000000000E+00
-0.7702591925656E+00 -0.4015561427154E+01  0.0000000000000E+00
-0.7703239907104E+00 -0.3943440618035E+01  0.0000000000000E+00
-0.7703887888430E+00 -0.3871319822448E+01  0.0000000000000E+00
-0.7704535869839E+00 -0.3799199017697E+01  0.0000000000000E+00
-0.7705183851345E+00 -0.3727078202063E+01  0.0000000000000E+00
-0.7705831832801E+00 -0.3654957392099E+01  0.0000000000000E+00
-0.7706479814265E+00 -0.3582836581146E+01  0.0000000000000E+00
-0.7707127796909E+00 -0.3510715638892E+01  0.0000000000000E+00
-0.7707775777527E+00 -0.3438594922150E+01  0.0000000000000E+00
-0.7708423760074E+00 -0.3366473990645E+01  0.0000000000000E+00
-0.7709071752175E+00 -0.3294351995872E+01  0.0000000000000E+00
-0.7709719722846E+00 -0.3222232386190E+01  0.0000000000000E+00
-0.7710367702510E+00 -0.3150111775632E+01  0.0000000000000E+00
-0.7711015684022E+00 -0.3077990959283E+01  0.0000000000000E+00
-0.7711663665187E+00 -0.3005870181650E+01  0.0000000000000E+00
-0.7712311645513E+00 -0.2933749497373E+01  0.0000000000000E+00
-0.7713532049104E+00 -0.2861628845984E+01  0.0000000000000E+00
-0.7718795637062E+00 -0.2789511686930E+01  0.0000000000000E+00
-0.7731870180811E+00 -0.2717414792663E+01  0.0000000000000E+00
-0.7755019475157E+00 -0.2645369963226E+01  0.0000000000000E+00
-0.7789130899857E+00 -0.2573415508111E+01  0.0000000000000E+00
-0.7834304642614E+00 -0.2501588150830E+01  0.0000000000000E+00
-0.7890337172463E+00 -0.2429920849482E+01  0.0000000000000E+00
-0.7956998294157E+00 -0.2358444712771E+01  0.0000000000000E+00
-0.8034174296876E+00 -0.2287191007629E+01  0.0000000000000E+00
-0.8121948104066E+00 -0.2216195965175E+01  0.0000000000000E+00
-0.8220666035875E+00 -0.2145504410416E+01  0.0000000000000E+00
-0.8330461424932E+00 -0.2075157882804E+01  0.0000000000000E+00
-0.8450655062273E+00 -0.2005170623341E+01  0.0000000000000E+00
-0.8580740452271E+00 -0.1935557556587E+01  0.0000000000000E+00
-0.8720474599112E+00 -0.1866340460572E+01  0.0000000000000E+00
-0.8869849550885E+00 -0.1797550068848E+01  0.0000000000000E+00
-0.9029092997104E+00 -0.1729229263707E+01  0.0000000000000E+00
-0.9198697447146E+00 -0.1661438497332E+01  0.0000000000000E+00
-0.9379494480500E+00 -0.1594262250943E+01  0.0000000000000E+00
-0.9572776515575E+00 -0.1527827934722E+01  0.0000000000000E+00
-0.9780561907860E+00 -0.1462328653807E+01  0.0000000000000E+00
-0.7425625381275E+00 -0.4231762717925E+01  0.0000000000000E+00
-0.7426250761992E+00 -0.4159480851731E+01  0.0000000000000E+00
-0.7426876143887E+00 -0.4087198849311E+01  0.0000000000000E+00
-0.7427501526326E+00 -0.4014916784060E+01  0.0000000000000E+00
-0.7428126907940E+00 -0.3942634814159E+01  0.0000000000000E+00
-0.7428752289437E+00 -0.3870352857819E+01  0.0000000000000E+00
-0.7429377671013E+00 -0.3798070892296E+01  0.0000000000000E+00
-0.7430003052684E+00 -0.3725788915866E+01  0.0000000000000E+00
-0.7430628434305E+00 -0.3653506945118E+01  0.0000000000000E+00
-0.7431253815935E+00 -0.3581224973379E+01  0.0000000000000E+00
-0.7431879198704E+00 -0.3508942870045E+01  0.0000000000000E+00
-0.7432504579517E+00 -0.3436660992727E+01  0.0000000000000E+00
-0.7433129962192E+00 -0.3364378900167E+01  0.0000000000000E+00
-0.7433755354087E+00 -0.3292095741962E+01  0.0000000000000E+00
-0.7434380725301E+00 -0.3219814974178E+01  0.0000000000000E+00
-0.7435006105193E+00 -0.3147533203282E+01  0.0000000000000E+00
-0.7435631486870E+00 -0.3075251226135E+01  0.0000000000000E+00
-0.7436256868211E+00 -0.3002969287790E+01  0.0000000000000E+00
-0.7436882248742E+00 -0.2930687443010E+01  0.0000000000000E+00
-0.7438059463465E+00 -0.2858405631084E+01  0.0000000000000E+00
-0.7443134436217E+00 -0.2786127312410E+01  0.0000000000000E+00
-0.7455739418209E+00 -0.2713869260097E+01  0.0000000000000E+00
-0.7478056779474E+00 -0.2641663273355E+01  0.0000000000000E+00
-0.7510941982260E+00 -0.2569547661129E+01  0.0000000000000E+00
-0.7554491610694E+00 -0.2497559146585E+01  0.0000000000000E+00
-0.7608509454467E+00 -0.2425730687557E+01  0.0000000000000E+00
-0.7672773598055E+00 -0.2354093393392E+01  0.0000000000000E+00
-0.7747174420619E+00 -0.2282678530414E+01  0.0000000000000E+00
-0.7831791862991E+00 -0.2211522330498E+01  0.0000000000000E+00
-0.7926959788783E+00 -0.2140669618651E+01  0.0000000000000E+00
-0.8032806734883E+00 -0.2070161933674E+01  0.0000000000000E+00
-0.8148677922298E+00 -0.2000013516502E+01  0.0000000000000E+00
-0.8274085073170E+00 -0.1930239291855E+01  0.0000000000000E+00
-0.8408793931821E+00 -0.1860861037888E+01  0.0000000000000E+00
-0.8552796832357E+00 -0.1791909488193E+01  0.0000000000000E+00
-0.8706313274695E+00 -0.1723427525147E+01  0.0000000000000E+00
-0.8869818053497E+00 -0.1655475602130E+01  0.0000000000000E+00
-0.9044112837790E+00 -0.1588138198255E+01  0.0000000000000E+00
-0.9230443559913E+00 -0.1521542728208E+01  0.0000000000000E+00
-0.9430755978615E+00 -0.1455882295130E+01  0.0000000000000E+00
-0.7150592470639E+00 -0.4231607246974E+01  0.0000000000000E+00
-0.7151184940750E+00 -0.4159169909968E+01  0.0000000000000E+00
-0.7151777411977E+00 -0.4086732436442E+01  0.0000000000000E+00
-0.7152369883719E+00 -0.4014294899951E+01  0.0000000000000E+00
-0.7152962354680E+00 -0.3941857459014E+01  0.0000000000000E+00
-0.7153554825529E+00 -0.3869420031669E+01  0.0000000000000E+00
-0.7154147296454E+00 -0.3796982595119E+01  0.0000000000000E+00
-0.7154739767468E+00 -0.3724545147640E+01  0.0000000000000E+00
-0.7155332238436E+00 -0.3652107705855E+01  0.0000000000000E+00
-0.7155924709412E+00 -0.3579670263077E+01  0.0000000000000E+00
-0.7156517181466E+00 -0.3507232688420E+01  0.0000000000000E+00
-0.7157109651668E+00 -0.3434795340266E+01  0.0000000000000E+00
-0.7157702123634E+00 -0.3362357776407E+01  0.0000000000000E+00
-0.7158294604335E+00 -0.3289919144611E+01  0.0000000000000E+00
-0.7158887065442E+00 -0.3217482908377E+01  0.0000000000000E+00
-0.7159479534771E+00 -0.3145045666874E+01  0.0000000000000E+00
-0.7160072005791E+00 -0.3072608218676E+01  0.0000000000000E+00
-0.7160664476493E+00 -0.3000170809363E+01  0.0000000000000E+00
-0.7161256946429E+00 -0.2927733493817E+01  0.0000000000000E+00
-0.7162380661482E+00 -0.2855296211092E+01  0.0000000000000E+00
-0.7167256708301E+00 -0.2782862422504E+01  0.0000000000000E+00
-0.7179381817940E+00 -0.2710448901796E+01  0.0000000000000E+00
-0.7200856935616E+00 -0.2638087447371E+01  0.0000000000000E+00
-0.7232505606037E+00 -0.2565816367651E+01  0.0000000000000E+00
-0.7274420809730E+00 -0.2493672385468E+01  0.0000000000000E+00
-0.7326413657027E+00 -0.2421688458397E+01  0.0000000000000E+00
-0.7388270512163E+00 -0.2349895696407E+01  0.0000000000000E+00
-0.7459885844246E+00 -0.2278325365235E+01  0.0000000000000E+00
-0.7541336611539E+00 -0.2207013697486E+01  0.0000000000000E+00
-0.7632944221120E+00 -0.2136005518168E+01  0.0000000000000E+00
-0.7734832414096E+00 -0.2065342365452E+01  0.0000000000000E+00
-0.7846370841437E+00 -0.1995038480210E+01  0.0000000000000E+00
-0.7967089443062E+00 -0.1925108787314E+01  0.0000000000000E+00
-0.8096762703438E+00 -0.1855575065041E+01  0.0000000000000E+00
-0.8235383242689E+00 -0.1786468047024E+01  0.0000000000000E+00
-0.8383162371141E+00 -0.1717830615718E+01  0.0000000000000E+00
-0.8540557168821E+00 -0.1649723225659E+01  0.0000000000000E+00
-0.8708339394160E+00 -0.1582230353929E+01  0.0000000000000E+00
-0.8887708493720E+00 -0.1515479419557E+01  0.0000000000000E+00
-0.9080537629396E+00 -0.1449663523759E+01  0.0000000000000E+00
-0.6875549585543E+00 -0.4231457492231E+01  0.0000000000000E+00
-0.6876099170595E+00 -0.4158870400615E+01  0.0000000000000E+00
-0.6876648756684E+00 -0.4086283172198E+01  0.0000000000000E+00
-0.6877198343249E+00 -0.4013695880685E+01  0.0000000000000E+00
-0.6877747929090E+00 -0.3941108684925E+01  0.0000000000000E+00
-0.6878297514828E+00 -0.3868521502783E+01  0.0000000000000E+00
-0.6878847100636E+00 -0.3795934311418E+01  0.0000000000000E+00
-0.6879396686527E+00 -0.3723347109101E+01  0.0000000000000E+00
-0.6879946272374E+00 -0.3650759912490E+01  0.0000000000000E+00
-0.6880495858229E+00 -0.3578172714884E+01  0.0000000000000E+00
-0.6881045445085E+00 -0.3505585385126E+01  0.0000000000000E+00
-0.6881595030222E+00 -0.3432998282340E+01  0.0000000000000E+00
-0.6882144616995E+00 -0.3360410963403E+01  0.0000000000000E+00
-0.6882694211871E+00 -0.3287822574321E+01  0.0000000000000E+00
-0.6883243788572E+00 -0.3215236585753E+01  0.0000000000000E+00
-0.6883793372900E+00 -0.3142649589838E+01  0.0000000000000E+00
-0.6884342958796E+00 -0.3070062386801E+01  0.0000000000000E+00
-0.6884892544397E+00 -0.2997475222730E+01  0.0000000000000E+00
-0.6885442129287E+00 -0.2924888152618E+01  0.0000000000000E+00
-0.6886502370222E+00 -0.2852301115297E+01  0.0000000000000E+00
-0.6891169516725E+00 -0.2779717572965E+01  0.0000000000000E+00
-0.6902804779749E+00 -0.2707154299975E+01  0.0000000000000E+00
-0.6923427679648E+00 -0.2634643093955E+01  0.0000000000000E+00
-0.6953829843556E+00 -0.2562222262823E+01  0.0000000000000E+00
-0.6994100648383E+00 -0.2489928529086E+01  0.0000000000000E+00
-0.7044058525081E+00 -0.2417794850073E+01  0.0000000000000E+00
-0.7103498117688E+00 -0.2345852336351E+01  0.0000000000000E+00
-0.7172317985216E+00 -0.2274132253092E+01  0.0000000000000E+00
-0.7250592103409E+00 -0.2202670833605E+01  0.0000000000000E+00
-0.7338629422812E+00 -0.2131512902894E+01  0.0000000000000E+00
-0.7436548888710E+00 -0.2060699998530E+01  0.0000000000000E+00
-0.7543744582030E+00 -0.1990246361320E+01  0.0000000000000E+00
-0.7659764660477E+00 -0.1920166916283E+01  0.0000000000000E+00
-0.7784392348670E+00 -0.1850483441816E+01  0.0000000000000E+00
-0.7917620552753E+00 -0.1781226671587E+01  0.0000000000000E+00
-0.8059652393467E+00 -0.1712439488130E+01  0.0000000000000E+00
-0.8210927236280E+00 -0.1644182347095E+01  0.0000000000000E+00
-0.8372186928899E+00 -0.1576539723603E+01  0.0000000000000E+00
-0.8544584432393E+00 -0.1509639040870E+01  0.0000000000000E+00
-0.8729920311679E+00 -0.1443673398257E+01  0.0000000000000E+00
-0.6600497067773E+00 -0.4231313479365E+01  0.0000000000000E+00
-0.6600994135103E+00 -0.4158582375012E+01  0.0000000000000E+00
-0.6601491203370E+00 -0.4085851133586E+01  0.0000000000000E+00
-0.6601988272069E+00 -0.4013119828939E+01  0.0000000000000E+00
-0.6602485340112E+00 -0.3940388620235E+01  0.0000000000000E+00
-0.6602982408062E+00 -0.3867657425176E+01  0.0000000000000E+00
-0.6603479476074E+00 -0.3794926220876E+01  0.0000000000000E+00
-0.6603976544162E+00 -0.3722195005602E+01  0.0000000000000E+00
-0.6604473612211E+00 -0.3649463796046E+01  0.0000000000000E+00
-0.6604970680267E+00 -0.3576732585492E+01  0.0000000000000E+00
-0.6605467749228E+00 -0.3504001242525E+01  0.0000000000000E+00
-0.6605964816634E+00 -0.3431270126979E+01  0.0000000000000E+00
-0.6606461885521E+00 -0.3358538794853E+01  0.0000000000000E+00
-0.6606958961735E+00 -0.3285806390460E+01  0.0000000000000E+00
-0.6607456021512E+00 -0.3213076391343E+01  0.0000000000000E+00
-0.6607953088186E+00 -0.3140345382881E+01  0.0000000000000E+00
-0.6608450156279E+00 -0.3067614166885E+01  0.0000000000000E+00
-0.6608947224105E+00 -0.2994882989933E+01  0.0000000000000E+00
-0.6609444291288E+00 -0.2922151907127E+01  0.0000000000000E+00
-0.6610431425442E+00 -0.2849420857080E+01  0.0000000000000E+00
-0.6614880039029E+00 -0.2776693302843E+01  0.0000000000000E+00
-0.6626015822945E+00 -0.2703986019355E+01  0.0000000000000E+00
-0.6645776872636E+00 -0.2631330803497E+01  0.0000000000000E+00
-0.6674922897633E+00 -0.2558765962702E+01  0.0000000000000E+00
-0.6713539671204E+00 -0.2486328219165E+01  0.0000000000000E+00
-0.6761452944910E+00 -0.2414050529980E+01  0.0000000000000E+00
-0.6818465642625E+00 -0.2341964006289E+01  0.0000000000000E+00
-0.6884480413232E+00 -0.2270099912718E+01  0.0000000000000E+00
-0.6959568250001E+00 -0.2198494483253E+01  0.0000000000000E+00
-0.7044025646942E+00 -0.2127192542900E+01  0.0000000000000E+00
-0.7137966753483E+00 -0.2056235628645E+01  0.0000000000000E+00
-0.7240810080500E+00 -0.1985637981238E+01  0.0000000000000E+00
-0.7352122003494E+00 -0.1915414525839E+01  0.0000000000000E+00
-0.7471694487241E+00 -0.1845587040956E+01  0.0000000000000E+00
-0.7599520723911E+00 -0.1776186260296E+01  0.0000000000000E+00
-0.7735795644664E+00 -0.1707255066466E+01  0.0000000000000E+00
-0.7880940900479E+00 -0.1638853916186E+01  0.0000000000000E+00
-0.8035668428218E+00 -0.1571067282696E+01  0.0000000000000E+00
-0.8201084703724E+00 -0.1504022593235E+01  0.0000000000000E+00
-0.8378917694826E+00 -0.1437912945380E+01  0.0000000000000E+00
-0.6325435264408E+00 -0.4231175233227E+01  0.0000000000000E+00
-0.6325870528428E+00 -0.4158305882860E+01  0.0000000000000E+00
-0.6326305793268E+00 -0.4085436395159E+01  0.0000000000000E+00
-0.6326741058486E+00 -0.4012566844116E+01  0.0000000000000E+00
-0.6327176323130E+00 -0.3939697389199E+01  0.0000000000000E+00
-0.6327611587693E+00 -0.3866827947953E+01  0.0000000000000E+00
-0.6328046852310E+00 -0.3793958497448E+01  0.0000000000000E+00
-0.6328482116994E+00 -0.3721089035949E+01  0.0000000000000E+00
-0.6328917381643E+00 -0.3648219580177E+01  0.0000000000000E+00
-0.6329352646298E+00 -0.3575350123407E+01  0.0000000000000E+00
-0.6329787911746E+00 -0.3502480533972E+01  0.0000000000000E+00
-0.6330223175833E+00 -0.3429611172390E+01  0.0000000000000E+00
-0.6330658441215E+00 -0.3356741593817E+01  0.0000000000000E+00
-0.6331093713015E+00 -0.3283870940938E+01  0.0000000000000E+00
-0.6331528970420E+00 -0.3211002697907E+01  0.0000000000000E+00
-0.6331964233866E+00 -0.3138133443612E+01  0.0000000000000E+00
-0.6332399498554E+00 -0.3065263981390E+01  0.0000000000000E+00
-0.6332834763008E+00 -0.2992394558285E+01  0.0000000000000E+00
-0.6333270026899E+00 -0.2919525229505E+01  0.0000000000000E+00
-0.6334174768685E+00 -0.2846655933456E+01  0.0000000000000E+00
-0.6338395563828E+00 -0.2773790134003E+01  0.0000000000000E+00
-0.6349022583205E+00 -0.2700944606649E+01  0.0000000000000E+00
-0.6367912497310E+00 -0.2628151147559E+01  0.0000000000000E+00
-0.6395793098040E+00 -0.2555448063701E+01  0.0000000000000E+00
-0.6432746555003E+00 -0.2482872076970E+01  0.0000000000000E+00
-0.6478605940350E+00 -0.2410456144233E+01  0.0000000000000E+00
-0.6533182457832E+00 -0.2338231377183E+01  0.0000000000000E+00
-0.6596382846166E+00 -0.2266229039926E+01  0.0000000000000E+00
-0.6668275116189E+00 -0.2194485367097E+01  0.0000000000000E+00
-0.6749143305382E+00 -0.2123045183699E+01  0.0000000000000E+00
-0.6839096767271E+00 -0.2051950026162E+01  0.0000000000000E+00
-0.6937578442685E+00 -0.1981214135179E+01  0.0000000000000E+00
-0.7044172924922E+00 -0.1910852436044E+01  0.0000000000000E+00
-0.7158680918929E+00 -0.1840886707377E+01  0.0000000000000E+00
-0.7281095902899E+00 -0.1771347682916E+01  0.0000000000000E+00
-0.7411604618417E+00 -0.1702278245340E+01  0.0000000000000E+00
-0.7550611002044E+00 -0.1633738852398E+01  0.0000000000000E+00
-0.7698797079675E+00 -0.1565813975523E+01  0.0000000000000E+00
-0.7857222842192E+00 -0.1498631045816E+01  0.0000000000000E+00
-0.8027543660217E+00 -0.1432383159141E+01  0.0000000000000E+00
-0.6050364527661E+00 -0.4231042777827E+01  0.0000000000000E+00
-0.6050729054997E+00 -0.4158040972176E+01  0.0000000000000E+00
-0.6051093583019E+00 -0.4085039028943E+01  0.0000000000000E+00
-0.6051458111359E+00 -0.4012037022253E+01  0.0000000000000E+00
-0.6051822639217E+00 -0.3939035111863E+01  0.0000000000000E+00
-0.6052187167008E+00 -0.3866033215170E+01  0.0000000000000E+00
-0.6052551694844E+00 -0.3793031309200E+01  0.0000000000000E+00
-0.6052916222736E+00 -0.3720029392216E+01  0.0000000000000E+00
-0.6053280750599E+00 -0.3647027480971E+01  0.0000000000000E+00
-0.6053645278467E+00 -0.3574025568724E+01  0.0000000000000E+00
-0.6054009806998E+00 -0.3501023523572E+01  0.0000000000000E+00
-0.6054374334390E+00 -0.3428021706688E+01  0.0000000000000E+00
-0.6054738862868E+00 -0.3355019672416E+01  0.0000000000000E+00
-0.6055103396719E+00 -0.3282016561887E+01  0.0000000000000E+00
-0.6055467918515E+00 -0.3209015865587E+01  0.0000000000000E+00
-0.6055832445370E+00 -0.3136014156184E+01  0.0000000000000E+00
-0.6056196973266E+00 -0.3063012238476E+01  0.0000000000000E+00
-0.6056561500965E+00 -0.2990010359956E+01  0.0000000000000E+00
-0.6056926028193E+00 -0.2917008575933E+01  0.0000000000000E+00
-0.6057739444239E+00 -0.2844006824612E+01  0.0000000000000E+00
-0.6061723487616E+00 -0.2771008570642E+01  0.0000000000000E+00
-0.6071832809226E+00 -0.2698030590064E+01  0.0000000000000E+00
-0.6089842654561E+00 -0.2625104678358E+01  0.0000000000000E+00
-0.6116448897857E+00 -0.2552269142045E+01  0.0000000000000E+00
-0.6151730105041E+00 -0.2479560702734E+01  0.0000000000000E+00
-0.6195526668839E+00 -0.2407012317074E+01  0.0000000000000E+00
-0.6247658072915E+00 -0.2334655097287E+01  0.0000000000000E+00
-0.6308035145786E+00 -0.2262520306978E+01  0.0000000000000E+00
-0.6376722915901E+00 -0.2190644181405E+01  0.0000000000000E+00
-0.6453992964206E+00 -0.2119071545571E+01  0.0000000000000E+00
-0.6539949848298E+00 -0.2047843935370E+01  0.0000000000000E+00
-0.6634060938944E+00 -0.1976975591441E+01  0.0000000000000E+00
-0.6735929047258E+00 -0.1906481439207E+01  0.0000000000000E+00
-0.6845363618356E+00 -0.1836383257392E+01  0.0000000000000E+00
-0.6962358416462E+00 -0.1766711779769E+01  0.0000000000000E+00
-0.7087091993589E+00 -0.1697509889085E+01  0.0000000000000E+00
-0.7219950571948E+00 -0.1628838044074E+01  0.0000000000000E+00
-0.7361586266348E+00 -0.1560780714435E+01  0.0000000000000E+00
-0.7513012582960E+00 -0.1493465334972E+01  0.0000000000000E+00
-0.7675812295093E+00 -0.1427084999909E+01  0.0000000000000E+00
-0.5775285214724E+00 -0.4230916136309E+01  0.0000000000000E+00
-0.5775570429194E+00 -0.4157787689254E+01  0.0000000000000E+00
-0.5775855644201E+00 -0.4084659104378E+01  0.0000000000000E+00
-0.5776140859456E+00 -0.4011530455935E+01  0.0000000000000E+00
-0.5776426074335E+00 -0.3938401903959E+01  0.0000000000000E+00
-0.5776711289161E+00 -0.3865273365703E+01  0.0000000000000E+00
-0.5776996504022E+00 -0.3792144818156E+01  0.0000000000000E+00
-0.5777281718927E+00 -0.3719016259574E+01  0.0000000000000E+00
-0.5777566933810E+00 -0.3645887706741E+01  0.0000000000000E+00
-0.5777852148696E+00 -0.3572759152905E+01  0.0000000000000E+00
-0.5778137364101E+00 -0.3499630465933E+01  0.0000000000000E+00
-0.5778422578615E+00 -0.3426502007624E+01  0.0000000000000E+00
-0.5778707793978E+00 -0.3353373331552E+01  0.0000000000000E+00
-0.5778993013546E+00 -0.3280243577355E+01  0.0000000000000E+00
-0.5779278223681E+00 -0.3207116241575E+01  0.0000000000000E+00
-0.5779563437775E+00 -0.3133987890935E+01  0.0000000000000E+00
-0.5779848652682E+00 -0.3060859331627E+01  0.0000000000000E+00
-0.5780133867437E+00 -0.2987730811577E+01  0.0000000000000E+00
-0.5780419081822E+00 -0.2914602386187E+01  0.0000000000000E+00
-0.5781132595947E+00 -0.2841473993472E+01  0.0000000000000E+00
-0.5784871311427E+00 -0.2768349098829E+01  0.0000000000000E+00
-0.5794454359221E+00 -0.2695244478816E+01  0.0000000000000E+00
-0.5811575559778E+00 -0.2622191928255E+01  0.0000000000000E+00
-0.5836898869641E+00 -0.2549229753241E+01  0.0000000000000E+00
-0.5870499251040E+00 -0.2476394675110E+01  0.0000000000000E+00
-0.5912224417263E+00 -0.2403719650301E+01  0.0000000000000E+00
-0.5961902131919E+00 -0.2331235791543E+01  0.0000000000000E+00
-0.6019447313292E+00 -0.2258974361963E+01  0.0000000000000E+00
-0.6084922007484E+00 -0.2186971597412E+01  0.0000000000000E+00
-0.6158585338908E+00 -0.2115272322895E+01  0.0000000000000E+00
-0.6240537069192E+00 -0.2043918073793E+01  0.0000000000000E+00
-0.6330268999046E+00 -0.1972923090693E+01  0.0000000000000E+00
-0.6427402157399E+00 -0.1902302299143E+01  0.0000000000000E+00
-0.6531754729551E+00 -0.1832077477966E+01  0.0000000000000E+00
-0.6643320765753E+00 -0.1762279360967E+01  0.0000000000000E+00
-0.6762270628454E+00 -0.1692950830957E+01  0.0000000000000E+00
-0.6888972825577E+00 -0.1624152347613E+01  0.0000000000000E+00
-0.7024049560735E+00 -0.1555968378978E+01  0.0000000000000E+00
-0.7168467855624E+00 -0.1488526363395E+01  0.0000000000000E+00
-0.7323737886136E+00 -0.1422019393519E+01  0.0000000000000E+00
-0.5500197687602E+00 -0.4230795330937E+01  0.0000000000000E+00
-0.5500395375027E+00 -0.4157546078617E+01  0.0000000000000E+00
-0.5500593062825E+00 -0.4084296688248E+01  0.0000000000000E+00
-0.5500790750795E+00 -0.4011047234207E+01  0.0000000000000E+00
-0.5500988438504E+00 -0.3937797876793E+01  0.0000000000000E+00
-0.5501186126176E+00 -0.3864548533122E+01  0.0000000000000E+00
-0.5501383813873E+00 -0.3791299180143E+01  0.0000000000000E+00
-0.5501581501600E+00 -0.3718049816112E+01  0.0000000000000E+00
-0.5501779189312E+00 -0.3644800457840E+01  0.0000000000000E+00
-0.5501976877026E+00 -0.3571551098563E+01  0.0000000000000E+00
-0.5502174565100E+00 -0.3498301605929E+01  0.0000000000000E+00
-0.5502372252556E+00 -0.3425052342338E+01  0.0000000000000E+00
-0.5502569940600E+00 -0.3351802860622E+01  0.0000000000000E+00
-0.5502767631559E+00 -0.3278552299001E+01  0.0000000000000E+00
-0.5502965315980E+00 -0.3205304159791E+01  0.0000000000000E+00
-0.5503163003145E+00 -0.3132055004046E+01  0.0000000000000E+00
-0.5503360690874E+00 -0.3058805639288E+01  0.0000000000000E+00
-0.5503558378497E+00 -0.2985556313852E+01  0.0000000000000E+00
-0.5503756065864E+00 -0.2912307083233E+01  0.0000000000000E+00
-0.5504361463889E+00 -0.2839057885264E+01  0.0000000000000E+00
-0.5507846637340E+00 -0.2765812186054E+01  0.0000000000000E+00
-0.5516895197264E+00 -0.2692586762654E+01  0.0000000000000E+00
-0.5533119539024E+00 -0.2619413409260E+01  0.0000000000000E+00
-0.5557151701444E+00 -0.2546330431560E+01  0.0000000000000E+00
-0.5589063043036E+00 -0.2473374550628E+01  0.0000000000000E+00
-0.5628708597639E+00 -0.2400578722707E+01  0.0000000000000E+00
-0.5675924408837E+00 -0.2327974061005E+01  0.0000000000000E+00
-0.5730629484655E+00 -0.2255591828195E+01  0.0000000000000E+00
-0.5792882888882E+00 -0.2183468260695E+01  0.0000000000000E+00
-0.5862931289399E+00 -0.2111648183508E+01  0.0000000000000E+00
-0.5940869651833E+00 -0.2040173131530E+01  0.0000000000000E+00
-0.6026214206831E+00 -0.1969057345296E+01  0.0000000000000E+00
-0.6118604201151E+00 -0.1898315750472E+01  0.0000000000000E+00
-0.6217866560276E+00 -0.1827970125978E+01  0.0000000000000E+00
-0.6323995620492E+00 -0.1758051205649E+01  0.0000000000000E+00
-0.6437153554685E+00 -0.1688601872357E+01  0.0000000000000E+00
-0.6557691156551E+00 -0.1619682586678E+01  0.0000000000000E+00
-0.6686200718399E+00 -0.1551377815076E+01  0.0000000000000E+00
-0.6823602777685E+00 -0.1483814999269E+01  0.0000000000000E+00
-0.6971334912775E+00 -0.1417187230416E+01  0.0000000000000E+00
-0.5225235369655E+00 -0.4230682327815E+01  0.0000000000000E+00
-0.5225470739100E+00 -0.4157320072474E+01  0.0000000000000E+00
-0.5225706108988E+00 -0.4083957678871E+01  0.0000000000000E+00
-0.5225941479082E+00 -0.4010595221498E+01  0.0000000000000E+00
-0.5226176848864E+00 -0.3937232860900E+01  0.0000000000000E+00
-0.5226412218603E+00 -0.3863870514067E+01  0.0000000000000E+00
-0.5226647588371E+00 -0.3790508157912E+01  0.0000000000000E+00
-0.5226882958175E+00 -0.3717145790687E+01  0.0000000000000E+00
-0.5227118327961E+00 -0.3643783429230E+01  0.0000000000000E+00
-0.5227353697749E+00 -0.3570421066767E+01  0.0000000000000E+00
-0.5227589067966E+00 -0.3497058570741E+01  0.0000000000000E+00
-0.5227824437448E+00 -0.3423696304111E+01  0.0000000000000E+00
-0.5228059807630E+00 -0.3350333819021E+01  0.0000000000000E+00
-0.5228295181282E+00 -0.3276970252358E+01  0.0000000000000E+00
-0.5228530547150E+00 -0.3203609111845E+01  0.0000000000000E+00
-0.5228765916285E+00 -0.3130246953227E+01  0.0000000000000E+00
-0.5229001286091E+00 -0.3056884585275E+01  0.0000000000000E+00
-0.5229236655771E+00 -0.2983522256705E+01  0.0000000000000E+00
-0.5229472025146E+00 -0.2910160023098E+01  0.0000000000000E+00
-0.5230094719650E+00 -0.2836797822117E+01  0.0000000000000E+00
-0.5233453200490E+00 -0.2763439120539E+01  0.0000000000000E+00
-0.5242096897925E+00 -0.2690100695875E+01  0.0000000000000E+00
-0.5257557587769E+00 -0.2616814341734E+01  0.0000000000000E+00
-0.5280435707054E+00 -0.2543618363426E+01  0.0000000000000E+00
-0.5310799046469E+00 -0.2470549481778E+01  0.0000000000000E+00
-0.5348509888241E+00 -0.2397640652849E+01  0.0000000000000E+00
-0.5393412473588E+00 -0.2324922990298E+01  0.0000000000000E+00
-0.5445429860314E+00 -0.2252427756369E+01  0.0000000000000E+00
-0.5504618158794E+00 -0.2180191188014E+01  0.0000000000000E+00
-0.5571211703511E+00 -0.2108258110234E+01  0.0000000000000E+00
-0.5645300712003E+00 -0.2036670057468E+01  0.0000000000000E+00
-0.5726425603411E+00 -0.1965441270206E+01  0.0000000000000E+00
-0.5814243662114E+00 -0.1894586674225E+01  0.0000000000000E+00
-0.5908590467288E+00 -0.1824128048532E+01  0.0000000000000E+00
-0.6009460638389E+00 -0.1754096126991E+01  0.0000000000000E+00
-0.6117008239636E+00 -0.1684533792533E+01  0.0000000000000E+00
-0.6231566524677E+00 -0.1615501506574E+01  0.0000000000000E+00
-0.6353698171822E+00 -0.1547083734099E+01  0.0000000000000E+00
-0.6484277690306E+00 -0.1479407919987E+01  0.0000000000000E+00
-0.6624670780150E+00 -0.1412667153993E+01  0.0000000000000E+00
-0.4950265829563E+00 -0.4230575000095E+01  0.0000000000000E+00
-0.4950531658889E+00 -0.4157105417131E+01  0.0000000000000E+00
-0.4950797488716E+00 -0.4083635695702E+01  0.0000000000000E+00
-0.4951063318774E+00 -0.4010165910410E+01  0.0000000000000E+00
-0.4951329148482E+00 -0.3936696222035E+01  0.0000000000000E+00
-0.4951594978139E+00 -0.3863226547444E+01  0.0000000000000E+00
-0.4951860807830E+00 -0.3789756863518E+01  0.0000000000000E+00
-0.4952126637562E+00 -0.3716287168507E+01  0.0000000000000E+00
-0.4952392467272E+00 -0.3642817479271E+01  0.0000000000000E+00
-0.4952658296986E+00 -0.3569347789027E+01  0.0000000000000E+00
-0.4952924127185E+00 -0.3495877965026E+01  0.0000000000000E+00
-0.4953189956551E+00 -0.3422408370756E+01  0.0000000000000E+00
-0.4953455786710E+00 -0.3348938557706E+01  0.0000000000000E+00
-0.4953721620788E+00 -0.3275467661502E+01  0.0000000000000E+00
-0.4953987446074E+00 -0.3201999194996E+01  0.0000000000000E+00
-0.4954253275049E+00 -0.3128529708896E+01  0.0000000000000E+00
-0.4954519104783E+00 -0.3055060013155E+01  0.0000000000000E+00
-0.4954784934375E+00 -0.2981590356855E+01  0.0000000000000E+00
-0.4955050763622E+00 -0.2908120795657E+01  0.0000000000000E+00
-0.4955683532472E+00 -0.2834651267061E+01  0.0000000000000E+00
-0.4958908098644E+00 -0.2761185238480E+01  0.0000000000000E+00
-0.4967139711667E+00 -0.2687739487860E+01  0.0000000000000E+00
-0.4981829527790E+00 -0.2614345808257E+01  0.0000000000000E+00
-0.5003546382236E+00 -0.2541042504616E+01  0.0000000000000E+00
-0.5032354497856E+00 -0.2467866297535E+01  0.0000000000000E+00
-0.5068123405251E+00 -0.2394850142894E+01  0.0000000000000E+00
-0.5110705543301E+00 -0.2322025154781E+01  0.0000000000000E+00
-0.5160028019559E+00 -0.2249422595037E+01  0.0000000000000E+00
-0.5216143991022E+00 -0.2177078701116E+01  0.0000000000000E+00
-0.5279275458778E+00 -0.2105038298018E+01  0.0000000000000E+00
-0.5349507892246E+00 -0.2033342919751E+01  0.0000000000000E+00
-0.5426405899055E+00 -0.1962006806759E+01  0.0000000000000E+00
-0.5509644801207E+00 -0.1891044884923E+01  0.0000000000000E+00
-0.5599068831572E+00 -0.1820478933337E+01  0.0000000000000E+00
-0.5694672892784E+00 -0.1750339685891E+01  0.0000000000000E+00
-0.5796602940392E+00 -0.1680670025571E+01  0.0000000000000E+00
-0.5905174688062E+00 -0.1611530414592E+01  0.0000000000000E+00
-0.6020921200010E+00 -0.1543005316536E+01  0.0000000000000E+00
-0.6144670957471E+00 -0.1475222179278E+01  0.0000000000000E+00
-0.6277717782043E+00 -0.1408374091247E+01  0.0000000000000E+00
-0.4675289422681E+00 -0.4230473366273E+01  0.0000000000000E+00
-0.4675578845103E+00 -0.4156902149577E+01  0.0000000000000E+00
-0.4675868268072E+00 -0.4083330794226E+01  0.0000000000000E+00
-0.4676157691291E+00 -0.4009759374922E+01  0.0000000000000E+00
-0.4676447114129E+00 -0.3936188052670E+01  0.0000000000000E+00
-0.4676736536913E+00 -0.3862616744221E+01  0.0000000000000E+00
-0.4677025959733E+00 -0.3789045426423E+01  0.0000000000000E+00
-0.4677315382597E+00 -0.3715474097525E+01  0.0000000000000E+00
-0.4677604805438E+00 -0.3641902774411E+01  0.0000000000000E+00
-0.4677894228283E+00 -0.3568331450288E+01  0.0000000000000E+00
-0.4678183651656E+00 -0.3494759992222E+01  0.0000000000000E+00
-0.4678473074123E+00 -0.3421188764204E+01  0.0000000000000E+00
-0.4678762497452E+00 -0.3347617317104E+01  0.0000000000000E+00
-0.4679051925048E+00 -0.3274044785352E+01  0.0000000000000E+00
-0.4679341343072E+00 -0.3200474686659E+01  0.0000000000000E+00
-0.4679630765113E+00 -0.3126903566961E+01  0.0000000000000E+00
-0.4679920187980E+00 -0.3053332237333E+01  0.0000000000000E+00
-0.4680209610692E+00 -0.2979760947200E+01  0.0000000000000E+00
-0.4680499033029E+00 -0.2906189752300E+01  0.0000000000000E+00
-0.4681135009444E+00 -0.2832618589982E+01  0.0000000000000E+00
-0.4684218794232E+00 -0.2759050928256E+01  0.0000000000000E+00
-0.4692031456246E+00 -0.2685503545485E+01  0.0000000000000E+00
-0.4705943532147E+00 -0.2612008234196E+01  0.0000000000000E+00
-0.4726492255332E+00 -0.2538603298994E+01  0.0000000000000E+00
-0.4753738280800E+00 -0.2465325460254E+01  0.0000000000000E+00
-0.4787558387513E+00 -0.2392207673692E+01  0.0000000000000E+00
-0.4827813212037E+00 -0.2319281053801E+01  0.0000000000000E+00
-0.4874433911652E+00 -0.2246576862038E+01  0.0000000000000E+00
-0.4927470690006E+00 -0.2174131336332E+01  0.0000000000000E+00
-0.4987133214795E+00 -0.2101989301687E+01  0.0000000000000E+00
-0.5053502207294E+00 -0.2030192291697E+01  0.0000000000000E+00
-0.5126166463610E+00 -0.1958754546766E+01  0.0000000000000E+00
-0.5204819343374E+00 -0.1887690992875E+01  0.0000000000000E+00
-0.5289313733153E+00 -0.1817023409196E+01  0.0000000000000E+00
-0.5379644818757E+00 -0.1746782529646E+01  0.0000000000000E+00
-0.5475950447077E+00 -0.1677011237263E+01  0.0000000000000E+00
-0.5578528791844E+00 -0.1607769995018E+01  0.0000000000000E+00
-0.5687883303103E+00 -0.1539143265162E+01  0.0000000000000E+00
-0.5804796434283E+00 -0.1471258498414E+01  0.0000000000000E+00
-0.5930490128488E+00 -0.1404308781941E+01  0.0000000000000E+00
-0.4400306507643E+00 -0.4230377443940E+01  0.0000000000000E+00
-0.4400613015012E+00 -0.4156710304996E+01  0.0000000000000E+00
-0.4400919522959E+00 -0.4083043027216E+01  0.0000000000000E+00
-0.4401226031172E+00 -0.4009375685400E+01  0.0000000000000E+00
-0.4401532538981E+00 -0.3935708440762E+01  0.0000000000000E+00
-0.4401839046733E+00 -0.3862041209946E+01  0.0000000000000E+00
-0.4402145554523E+00 -0.3788373969769E+01  0.0000000000000E+00
-0.4402452062360E+00 -0.3714706718477E+01  0.0000000000000E+00
-0.4402758570172E+00 -0.3641039472976E+01  0.0000000000000E+00
-0.4403065077989E+00 -0.3567372226465E+01  0.0000000000000E+00
-0.4403371586364E+00 -0.3493704845836E+01  0.0000000000000E+00
-0.4403678093781E+00 -0.3420037695556E+01  0.0000000000000E+00
-0.4403984602110E+00 -0.3346370325908E+01  0.0000000000000E+00
-0.4404291114958E+00 -0.3272701870193E+01  0.0000000000000E+00
-0.4404597617669E+00 -0.3199035850710E+01  0.0000000000000E+00
-0.4404904124634E+00 -0.3125368808892E+01  0.0000000000000E+00
-0.4405210632474E+00 -0.3051701556869E+01  0.0000000000000E+00
-0.4405517140149E+00 -0.2978034344391E+01  0.0000000000000E+00
-0.4405823647428E+00 -0.2904367227272E+01  0.0000000000000E+00
-0.4406456323261E+00 -0.2830700142715E+01  0.0000000000000E+00
-0.4409392818568E+00 -0.2757036559295E+01  0.0000000000000E+00
-0.4416780021563E+00 -0.2683393255768E+01  0.0000000000000E+00
-0.4429907849293E+00 -0.2609802024162E+01  0.0000000000000E+00
-0.4449281933311E+00 -0.2536301168759E+01  0.0000000000000E+00
-0.4474959360748E+00 -0.2462927409729E+01  0.0000000000000E+00
-0.4506824158919E+00 -0.2389713702628E+01  0.0000000000000E+00
-0.4544745162100E+00 -0.2316691162333E+01  0.0000000000000E+00
-0.4588657577271E+00 -0.2243891049936E+01  0.0000000000000E+00
-0.4638608654765E+00 -0.2171349603822E+01  0.0000000000000E+00
-0.4694795728885E+00 -0.2099111648990E+01  0.0000000000000E+00
-0.4757294772735E+00 -0.2027218718648E+01  0.0000000000000E+00
-0.4825718770898E+00 -0.1955685053162E+01  0.0000000000000E+00
-0.4899779120636E+00 -0.1884525578604E+01  0.0000000000000E+00
-0.4979337362219E+00 -0.1813762074224E+01  0.0000000000000E+00
-0.5064388964637E+00 -0.1743425273962E+01  0.0000000000000E+00
-0.5155063666123E+00 -0.1673558060906E+01  0.0000000000000E+00
-0.5251642100526E+00 -0.1604220898739E+01  0.0000000000000E+00
-0.5354598103634E+00 -0.1535498248461E+01  0.0000000000000E+00
-0.5464668101259E+00 -0.1467517563467E+01  0.0000000000000E+00
-0.5583002157936E+00 -0.1400471929739E+01  0.0000000000000E+00
-0.4125317441520E+00 -0.4230287249716E+01  0.0000000000000E+00
-0.4125634882758E+00 -0.4156529916629E+01  0.0000000000000E+00
-0.4125952324593E+00 -0.4082772444536E+01  0.0000000000000E+00
-0.4126269766705E+00 -0.4009014908329E+01  0.0000000000000E+00
-0.4126587208397E+00 -0.3935257469419E+01  0.0000000000000E+00
-0.4126904650030E+00 -0.3861500044347E+01  0.0000000000000E+00
-0.4127222091704E+00 -0.3787742609903E+01  0.0000000000000E+00
-0.4127539533425E+00 -0.3713985164330E+01  0.0000000000000E+00
-0.4127856975121E+00 -0.3640227724555E+01  0.0000000000000E+00
-0.4128174416822E+00 -0.3566470283769E+01  0.0000000000000E+00
-0.4128491859101E+00 -0.3492712708702E+01  0.0000000000000E+00
-0.4128809300387E+00 -0.3418955364265E+01  0.0000000000000E+00
-0.4129126742618E+00 -0.3345197800191E+01  0.0000000000000E+00
-0.4129444189530E+00 -0.3271439148721E+01  0.0000000000000E+00
-0.4129761625943E+00 -0.3197682936466E+01  0.0000000000000E+00
-0.4130079066762E+00 -0.3123925700623E+01  0.0000000000000E+00
-0.4130396508486E+00 -0.3050168254318E+01  0.0000000000000E+00
-0.4130713950040E+00 -0.2976410847608E+01  0.0000000000000E+00
-0.4131031391183E+00 -0.2902653536372E+01  0.0000000000000E+00
-0.4131654615348E+00 -0.2828896257679E+01  0.0000000000000E+00
-0.4134437670066E+00 -0.2755142480638E+01  0.0000000000000E+00
-0.4141393262886E+00 -0.2681408984369E+01  0.0000000000000E+00
-0.4153730691176E+00 -0.2607727560436E+01  0.0000000000000E+00
-0.4171923984613E+00 -0.2534136512816E+01  0.0000000000000E+00
-0.4196026662446E+00 -0.2460672561482E+01  0.0000000000000E+00
-0.4225930000332E+00 -0.2387368661845E+01  0.0000000000000E+00
-0.4261511030289E+00 -0.2314255929140E+01  0.0000000000000E+00
-0.4302709008973E+00 -0.2241365624120E+01  0.0000000000000E+00
-0.4349568233429E+00 -0.2168733985590E+01  0.0000000000000E+00
-0.4402273704565E+00 -0.2096405838553E+01  0.0000000000000E+00
-0.4460896647286E+00 -0.2024422715852E+01  0.0000000000000E+00
-0.4525074234658E+00 -0.1952798857813E+01  0.0000000000000E+00
-0.4594535901587E+00 -0.1881549190599E+01  0.0000000000000E+00
-0.4669151842055E+00 -0.1810695493531E+01  0.0000000000000E+00
-0.4748917808231E+00 -0.1740268500570E+01  0.0000000000000E+00
-0.4833955429692E+00 -0.1670311094851E+01  0.0000000000000E+00
-0.4924527800443E+00 -0.1600883740729E+01  0.0000000000000E+00
-0.5021079141925E+00 -0.1532070898023E+01  0.0000000000000E+00
-0.5124299852484E+00 -0.1464000022650E+01  0.0000000000000E+00
-0.5235268117985E+00 -0.1396864199472E+01  0.0000000000000E+00
-0.3850322598414E+00 -0.4230202799459E+01  0.0000000000000E+00
-0.3850645196540E+00 -0.4156361016191E+01  0.0000000000000E+00
-0.3850967795275E+00 -0.4082519093757E+01  0.0000000000000E+00
-0.3851290394289E+00 -0.4008677107136E+01  0.0000000000000E+00
-0.3851612992878E+00 -0.3934835217923E+01  0.0000000000000E+00
-0.3851935591407E+00 -0.3860993342564E+01  0.0000000000000E+00
-0.3852258189976E+00 -0.3787151457823E+01  0.0000000000000E+00
-0.3852580788595E+00 -0.3713309561940E+01  0.0000000000000E+00
-0.3852903387188E+00 -0.3639467671862E+01  0.0000000000000E+00
-0.3853225985785E+00 -0.3565625780771E+01  0.0000000000000E+00
-0.3853548584969E+00 -0.3491783755245E+01  0.0000000000000E+00
-0.3853871183145E+00 -0.3417941960614E+01  0.0000000000000E+00
-0.3854193782282E+00 -0.3344099946094E+01  0.0000000000000E+00
-0.3854516386174E+00 -0.3270256842933E+01  0.0000000000000E+00
-0.3854838979398E+00 -0.3196416181779E+01  0.0000000000000E+00
-0.3855161577099E+00 -0.3122574495866E+01  0.0000000000000E+00
-0.3855484175721E+00 -0.3048732599250E+01  0.0000000000000E+00
-0.3855806774169E+00 -0.2974890742274E+01  0.0000000000000E+00
-0.3856129372200E+00 -0.2901048980883E+01  0.0000000000000E+00
-0.3856737367721E+00 -0.2827207252015E+01  0.0000000000000E+00
-0.3859361204928E+00 -0.2753369025280E+01  0.0000000000000E+00
-0.3865879410748E+00 -0.2679551080143E+01  0.0000000000000E+00
-0.3877420662852E+00 -0.2605785207729E+01  0.0000000000000E+00
-0.3894427389025E+00 -0.2532109711729E+01  0.0000000000000E+00
-0.3916949540622E+00 -0.2458561311938E+01  0.0000000000000E+00
-0.3944885641635E+00 -0.2385172963623E+01  0.0000000000000E+00
-0.3978120921840E+00 -0.2311975782359E+01  0.0000000000000E+00
-0.4016598687551E+00 -0.2239001028580E+01  0.0000000000000E+00
-0.4060360282553E+00 -0.2166284941488E+01  0.0000000000000E+00
-0.4109578374357E+00 -0.2093872346084E+01  0.0000000000000E+00
-0.4164319439649E+00 -0.2021804774870E+01  0.0000000000000E+00
-0.4224244839971E+00 -0.1950096468140E+01  0.0000000000000E+00
-0.4289102047877E+00 -0.1878762352137E+01  0.0000000000000E+00
-0.4358769911063E+00 -0.1807824206249E+01  0.0000000000000E+00
-0.4433244464880E+00 -0.1737312764459E+01  0.0000000000000E+00
-0.4512639230252E+00 -0.1667270909945E+01  0.0000000000000E+00
-0.4597199761387E+00 -0.1597759107689E+01  0.0000000000000E+00
-0.4687340665305E+00 -0.1528861816408E+01  0.0000000000000E+00
-0.4783706313056E+00 -0.1460706494377E+01  0.0000000000000E+00
-0.4887303011774E+00 -0.1393486225414E+01  0.0000000000000E+00
-0.3575322348022E+00 -0.4230124107983E+01  0.0000000000000E+00
-0.3575644695756E+00 -0.4156203633308E+01  0.0000000000000E+00
-0.3575967044098E+00 -0.4082283019319E+01  0.0000000000000E+00
-0.3576289392720E+00 -0.4008362341075E+01  0.0000000000000E+00
-0.3576611740917E+00 -0.3934441760342E+01  0.0000000000000E+00
-0.3576934089054E+00 -0.3860521193479E+01  0.0000000000000E+00
-0.3577256437231E+00 -0.3786600617223E+01  0.0000000000000E+00
-0.3577578785457E+00 -0.3712680029813E+01  0.0000000000000E+00
-0.3577901133658E+00 -0.3638759448214E+01  0.0000000000000E+00
-0.3578223481863E+00 -0.3564838865602E+01  0.0000000000000E+00
-0.3578545830655E+00 -0.3490918148411E+01  0.0000000000000E+00
-0.3578868178439E+00 -0.3416997662361E+01  0.0000000000000E+00
-0.3579190527183E+00 -0.3343076956189E+01  0.0000000000000E+00
-0.3579512880679E+00 -0.3269155160214E+01  0.0000000000000E+00
-0.3579835223515E+00 -0.3195235808850E+01  0.0000000000000E+00
-0.3580157570825E+00 -0.3121315431634E+01  0.0000000000000E+00
-0.3580479919054E+00 -0.3047394843491E+01  0.0000000000000E+00
-0.3580802267110E+00 -0.2973474295030E+01  0.0000000000000E+00
-0.3581124614749E+00 -0.2899553842255E+01  0.0000000000000E+00
-0.3581711974348E+00 -0.2825633421987E+01  0.0000000000000E+00
-0.3584171186813E+00 -0.2751716504300E+01  0.0000000000000E+00
-0.3590246598484E+00 -0.2677819868980E+01  0.0000000000000E+00
-0.3600986267318E+00 -0.2603975306743E+01  0.0000000000000E+00
-0.3616801019192E+00 -0.2530221121018E+01  0.0000000000000E+00
-0.3637737237556E+00 -0.2456594031425E+01  0.0000000000000E+00
-0.3663700694726E+00 -0.2383126993105E+01  0.0000000000000E+00
-0.3694584818260E+00 -0.2309851121947E+01  0.0000000000000E+00
-0.3730336964106E+00 -0.2236797678087E+01  0.0000000000000E+00
-0.3770995522815E+00 -0.2164002901096E+01  0.0000000000000E+00
-0.3816720828503E+00 -0.2091511615977E+01  0.0000000000000E+00
-0.3867574609618E+00 -0.2019365354912E+01  0.0000000000000E+00
-0.3923242416169E+00 -0.1947578358163E+01  0.0000000000000E+00
-0.3983489758364E+00 -0.1876165552051E+01  0.0000000000000E+00
-0.4048204137615E+00 -0.1805148716025E+01  0.0000000000000E+00
-0.4117381872457E+00 -0.1734558584088E+01  0.0000000000000E+00
-0.4191128375166E+00 -0.1664438039460E+01  0.0000000000000E+00
-0.4269671660192E+00 -0.1594847547706E+01  0.0000000000000E+00
-0.4353396720069E+00 -0.1525871566515E+01  0.0000000000000E+00
-0.4442901898707E+00 -0.1457637556361E+01  0.0000000000000E+00
-0.4539121624448E+00 -0.1390338600087E+01  0.0000000000000E+00
-0.3300317063161E+00 -0.4230051189142E+01  0.0000000000000E+00
-0.3300634126040E+00 -0.4156057795692E+01  0.0000000000000E+00
-0.3300951189516E+00 -0.4082064262790E+01  0.0000000000000E+00
-0.3301268253268E+00 -0.4008070665569E+01  0.0000000000000E+00
-0.3301585316601E+00 -0.3934077165957E+01  0.0000000000000E+00
-0.3301902379875E+00 -0.3860083680227E+01  0.0000000000000E+00
-0.3302219443189E+00 -0.3786090185095E+01  0.0000000000000E+00
-0.3302536506551E+00 -0.3712096678799E+01  0.0000000000000E+00
-0.3302853569888E+00 -0.3638103178319E+01  0.0000000000000E+00
-0.3303170633230E+00 -0.3564109676825E+01  0.0000000000000E+00
-0.3303487697148E+00 -0.3490116040619E+01  0.0000000000000E+00
-0.3303804760076E+00 -0.3416122635783E+01  0.0000000000000E+00
-0.3304121823947E+00 -0.3342129010606E+01  0.0000000000000E+00
-0.3304438892493E+00 -0.3268134294553E+01  0.0000000000000E+00
-0.3304755950553E+00 -0.3194142025521E+01  0.0000000000000E+00
-0.3305073013014E+00 -0.3120148729626E+01  0.0000000000000E+00
-0.3305390076379E+00 -0.3046155222595E+01  0.0000000000000E+00
-0.3305707139574E+00 -0.2972161755286E+01  0.0000000000000E+00
-0.3306024202359E+00 -0.2898168383757E+01  0.0000000000000E+00
-0.3306585891574E+00 -0.2824175044720E+01  0.0000000000000E+00
-0.3308875444874E+00 -0.2750185208679E+01  0.0000000000000E+00
-0.3314503028045E+00 -0.2676215655717E+01  0.0000000000000E+00
-0.3324436079309E+00 -0.2602298176172E+01  0.0000000000000E+00
-0.3339053822620E+00 -0.2528471073228E+01  0.0000000000000E+00
-0.3358399073513E+00 -0.2454771066347E+01  0.0000000000000E+00
-0.3382384852618E+00 -0.2381231110551E+01  0.0000000000000E+00
-0.3410912785297E+00 -0.2307882322018E+01  0.0000000000000E+00
-0.3443934277111E+00 -0.2234755960610E+01  0.0000000000000E+00
-0.3481484765401E+00 -0.2161888266242E+01  0.0000000000000E+00
-0.3523712250890E+00 -0.2089324063914E+01  0.0000000000000E+00
-0.3570673713764E+00 -0.2017104885515E+01  0.0000000000000E+00
-0.3622078892501E+00 -0.1945244971277E+01  0.0000000000000E+00
-0.3677711334962E+00 -0.1873759247591E+01  0.0000000000000E+00
-0.3737467196281E+00 -0.1802669493966E+01  0.0000000000000E+00
-0.3801343078177E+00 -0.1732006444421E+01  0.0000000000000E+00
-0.3869436284280E+00 -0.1661812982214E+01  0.0000000000000E+00
-0.3941957289323E+00 -0.1592149573454E+01  0.0000000000000E+00
-0.4019261471290E+00 -0.1523100674874E+01  0.0000000000000E+00
-0.4101901147095E+00 -0.1454793748987E+01  0.0000000000000E+00
-0.4190738866231E+00 -0.1387421877732E+01  0.0000000000000E+00
-0.3025307117473E+00 -0.4229984055806E+01  0.0000000000000E+00
-0.3025614234671E+00 -0.4155923529079E+01  0.0000000000000E+00
-0.3025921352449E+00 -0.4081862862774E+01  0.0000000000000E+00
-0.3026228470493E+00 -0.4007802132092E+01  0.0000000000000E+00
-0.3026535588133E+00 -0.3933741499106E+01  0.0000000000000E+00
-0.3026842705714E+00 -0.3859680880016E+01  0.0000000000000E+00
-0.3027149823335E+00 -0.3785620251516E+01  0.0000000000000E+00
-0.3027456941002E+00 -0.3711559611840E+01  0.0000000000000E+00
-0.3027764058645E+00 -0.3637498977987E+01  0.0000000000000E+00
-0.3028071176292E+00 -0.3563438343118E+01  0.0000000000000E+00
-0.3028378294498E+00 -0.3489377573416E+01  0.0000000000000E+00
-0.3028685411744E+00 -0.3415317035292E+01  0.0000000000000E+00
-0.3028992529905E+00 -0.3341256276629E+01  0.0000000000000E+00
-0.3029299652593E+00 -0.3267194426099E+01  0.0000000000000E+00
-0.3029606765125E+00 -0.3193135024811E+01  0.0000000000000E+00
-0.3029913881918E+00 -0.3119074595728E+01  0.0000000000000E+00
-0.3030220999588E+00 -0.3045013955318E+01  0.0000000000000E+00
-0.3030528117094E+00 -0.2970953354665E+01  0.0000000000000E+00
-0.3030835234201E+00 -0.2896892849879E+01  0.0000000000000E+00
-0.3031366592207E+00 -0.2822832377572E+01  0.0000000000000E+00
-0.3033481825528E+00 -0.2748775408642E+01  0.0000000000000E+00
-0.3038656919401E+00 -0.2674738723447E+01  0.0000000000000E+00
-0.3047778692279E+00 -0.2600754111977E+01  0.0000000000000E+00
-0.3061194766177E+00 -0.2526859877189E+01  0.0000000000000E+00
-0.3078944388703E+00 -0.2453092738402E+01  0.0000000000000E+00
-0.3100947828795E+00 -0.2379485650525E+01  0.0000000000000E+00
-0.3127114909635E+00 -0.2306069730006E+01  0.0000000000000E+00
-0.3157401086385E+00 -0.2232876236452E+01  0.0000000000000E+00
-0.3191838843193E+00 -0.2159941410094E+01  0.0000000000000E+00
-0.3230563847390E+00 -0.2087310075932E+01  0.0000000000000E+00
-0.3273628330882E+00 -0.2015023765584E+01  0.0000000000000E+00
-0.3320766220613E+00 -0.1943096719253E+01  0.0000000000000E+00
-0.3371779102106E+00 -0.1871543863397E+01  0.0000000000000E+00
-0.3426571784222E+00 -0.1800386977578E+01  0.0000000000000E+00
-0.3485141151863E+00 -0.1729656795832E+01  0.0000000000000E+00
-0.3547576400016E+00 -0.1659396201451E+01  0.0000000000000E+00
-0.3614070463731E+00 -0.1589665661042E+01  0.0000000000000E+00
-0.3684949106376E+00 -0.1520549630462E+01  0.0000000000000E+00
-0.3760718617994E+00 -0.1452175574100E+01  0.0000000000000E+00
-0.3842169669163E+00 -0.1384736573063E+01  0.0000000000000E+00
-0.2750292889768E+00 -0.4229922719884E+01  0.0000000000000E+00
-0.2750585779274E+00 -0.4155800857289E+01  0.0000000000000E+00
-0.2750878669333E+00 -0.4081678855002E+01  0.0000000000000E+00
-0.2751171559646E+00 -0.4007556788283E+01  0.0000000000000E+00
-0.2751464449573E+00 -0.3933434819343E+01  0.0000000000000E+00
-0.2751757339445E+00 -0.3859312864309E+01  0.0000000000000E+00
-0.2752050229354E+00 -0.3785190899856E+01  0.0000000000000E+00
-0.2752343119307E+00 -0.3711068924220E+01  0.0000000000000E+00
-0.2752636009237E+00 -0.3636946954411E+01  0.0000000000000E+00
-0.2752928899171E+00 -0.3562824983585E+01  0.0000000000000E+00
-0.2753221789639E+00 -0.3488702877815E+01  0.0000000000000E+00
-0.2753514679190E+00 -0.3414581003814E+01  0.0000000000000E+00
-0.2753807569614E+00 -0.3340458909091E+01  0.0000000000000E+00
-0.2754100464356E+00 -0.3266335721598E+01  0.0000000000000E+00
-0.2754393349412E+00 -0.3192214985375E+01  0.0000000000000E+00
-0.2754686238532E+00 -0.3118093220505E+01  0.0000000000000E+00
-0.2754979128488E+00 -0.3043971244133E+01  0.0000000000000E+00
-0.2755272018287E+00 -0.2969849307552E+01  0.0000000000000E+00
-0.2755564907707E+00 -0.2895727466917E+01  0.0000000000000E+00
-0.2756061652489E+00 -0.2821605658747E+01  0.0000000000000E+00
-0.2757998283827E+00 -0.2747487354304E+01  0.0000000000000E+00
-0.2762716606411E+00 -0.2673389334195E+01  0.0000000000000E+00
-0.2771022818897E+00 -0.2599343388093E+01  0.0000000000000E+00
-0.2783232941339E+00 -0.2525387818747E+01  0.0000000000000E+00
-0.2799382653412E+00 -0.2451559345344E+01  0.0000000000000E+00
-0.2819399472355E+00 -0.2377890922692E+01  0.0000000000000E+00
-0.2843201419189E+00 -0.2304413667485E+01  0.0000000000000E+00
-0.2870747998656E+00 -0.2231158839097E+01  0.0000000000000E+00
-0.2902068741738E+00 -0.2158162678047E+01  0.0000000000000E+00
-0.2937286982369E+00 -0.2085470009335E+01  0.0000000000000E+00
-0.2976450204157E+00 -0.2013122364332E+01  0.0000000000000E+00
-0.3019316522513E+00 -0.1941133983216E+01  0.0000000000000E+00
-0.3065705560629E+00 -0.1869519792505E+01  0.0000000000000E+00
-0.3115530781095E+00 -0.1798301571807E+01  0.0000000000000E+00
-0.3168789352001E+00 -0.1727510055176E+01  0.0000000000000E+00
-0.3225562359690E+00 -0.1657188125934E+01  0.0000000000000E+00
-0.3286025199556E+00 -0.1587396251146E+01  0.0000000000000E+00
-0.3350474020297E+00 -0.1518218885865E+01  0.0000000000000E+00
-0.3419369085198E+00 -0.1449783496195E+01  0.0000000000000E+00
-0.3493429185865E+00 -0.1382283162483E+01  0.0000000000000E+00
-0.2475274763612E+00 -0.4229867192306E+01  0.0000000000000E+00
-0.2475549526979E+00 -0.4155689802184E+01  0.0000000000000E+00
-0.2475824290864E+00 -0.4081512272263E+01  0.0000000000000E+00
-0.2476099054988E+00 -0.4007334677864E+01  0.0000000000000E+00
-0.2476373818750E+00 -0.3933157181315E+01  0.0000000000000E+00
-0.2476648582459E+00 -0.3858979698684E+01  0.0000000000000E+00
-0.2476923346204E+00 -0.3784802206627E+01  0.0000000000000E+00
-0.2477198109990E+00 -0.3710624703378E+01  0.0000000000000E+00
-0.2477472873755E+00 -0.3636447205960E+01  0.0000000000000E+00
-0.2477747637523E+00 -0.3562269707525E+01  0.0000000000000E+00
-0.2478022401792E+00 -0.3488092074044E+01  0.0000000000000E+00
-0.2478297165201E+00 -0.3413914672507E+01  0.0000000000000E+00
-0.2478571929429E+00 -0.3339737050082E+01  0.0000000000000E+00
-0.2478846697707E+00 -0.3265558334068E+01  0.0000000000000E+00
-0.2479121456899E+00 -0.3191382071160E+01  0.0000000000000E+00
-0.2479396219904E+00 -0.3117204778836E+01  0.0000000000000E+00
-0.2479670983693E+00 -0.3043027274851E+01  0.0000000000000E+00
-0.2479945747334E+00 -0.2968849810686E+01  0.0000000000000E+00
-0.2480220510620E+00 -0.2894672442539E+01  0.0000000000000E+00
-0.2480678743733E+00 -0.2820495106846E+01  0.0000000000000E+00
-0.2482432874676E+00 -0.2746321275196E+01  0.0000000000000E+00
-0.2486690527616E+00 -0.2672167728422E+01  0.0000000000000E+00
-0.2494177281399E+00 -0.2598066255909E+01  0.0000000000000E+00
-0.2505177554111E+00 -0.2524055160221E+01  0.0000000000000E+00
-0.2519723457481E+00 -0.2450171160422E+01  0.0000000000000E+00
-0.2537749757042E+00 -0.2376447211231E+01  0.0000000000000E+00
-0.2559182671670E+00 -0.2302914429563E+01  0.0000000000000E+00
-0.2583985755675E+00 -0.2229604074582E+01  0.0000000000000E+00
-0.2612185586887E+00 -0.2156552387068E+01  0.0000000000000E+00
-0.2643893165847E+00 -0.2083804192021E+01  0.0000000000000E+00
-0.2679151227846E+00 -0.2011401020588E+01  0.0000000000000E+00
-0.2717742076764E+00 -0.1939357112923E+01  0.0000000000000E+00
-0.2759503373461E+00 -0.1867687395599E+01  0.0000000000000E+00
-0.2804357234259E+00 -0.1796413648268E+01  0.0000000000000E+00
-0.2852301110435E+00 -0.1725566604998E+01  0.0000000000000E+00
-0.2903407979693E+00 -0.1655189149140E+01  0.0000000000000E+00
-0.2957835697803E+00 -0.1585341748170E+01  0.0000000000000E+00
-0.3015850798740E+00 -0.1516108856418E+01  0.0000000000000E+00
-0.3077867519147E+00 -0.1447617941537E+01  0.0000000000000E+00
-0.3144532771611E+00 -0.1380062083186E+01  0.0000000000000E+00
-0.2200253122177E+00 -0.4229817482972E+01  0.0000000000000E+00
-0.2200506244127E+00 -0.4155590383561E+01  0.0000000000000E+00
-0.2200759366555E+00 -0.4081363144257E+01  0.0000000000000E+00
-0.2201012489203E+00 -0.4007135840432E+01  0.0000000000000E+00
-0.2201265611517E+00 -0.3932908634523E+01  0.0000000000000E+00
-0.2201518733783E+00 -0.3858681442540E+01  0.0000000000000E+00
-0.2201771856082E+00 -0.3784454241126E+01  0.0000000000000E+00
-0.2202024978419E+00 -0.3710227028512E+01  0.0000000000000E+00
-0.2202278100736E+00 -0.3635999821733E+01  0.0000000000000E+00
-0.2202531223056E+00 -0.3561772613937E+01  0.0000000000000E+00
-0.2202784345837E+00 -0.3487545271003E+01  0.0000000000000E+00
-0.2203037467827E+00 -0.3413318160169E+01  0.0000000000000E+00
-0.2203290590570E+00 -0.3339090828300E+01  0.0000000000000E+00
-0.2203543717045E+00 -0.3264862402108E+01  0.0000000000000E+00
-0.2203796835150E+00 -0.3190636430667E+01  0.0000000000000E+00
-0.2204049956767E+00 -0.3116409429118E+01  0.0000000000000E+00
-0.2204303079106E+00 -0.3042182215768E+01  0.0000000000000E+00
-0.2204556201309E+00 -0.2967955042264E+01  0.0000000000000E+00
-0.2204809323185E+00 -0.2893727964843E+01  0.0000000000000E+00
-0.2205225529353E+00 -0.2819500919865E+01  0.0000000000000E+00
-0.2206793644652E+00 -0.2745277379213E+01  0.0000000000000E+00
-0.2210587112750E+00 -0.2671074123923E+01  0.0000000000000E+00
-0.2217250892667E+00 -0.2596922943121E+01  0.0000000000000E+00
-0.2227037800508E+00 -0.2522862139205E+01  0.0000000000000E+00
-0.2239976380052E+00 -0.2448928431131E+01  0.0000000000000E+00
-0.2256008645120E+00 -0.2375154773537E+01  0.0000000000000E+00
-0.2275069012456E+00 -0.2301572283534E+01  0.0000000000000E+00
-0.2297125085923E+00 -0.2228212220101E+01  0.0000000000000E+00
-0.2322200490218E+00 -0.2155110824251E+01  0.0000000000000E+00
-0.2350393892486E+00 -0.2082312920983E+01  0.0000000000000E+00
-0.2381743279693E+00 -0.2009860041244E+01  0.0000000000000E+00
-0.2416055144180E+00 -0.1937766425166E+01  0.0000000000000E+00
-0.2453185184479E+00 -0.1866046999373E+01  0.0000000000000E+00
-0.2493064170647E+00 -0.1794723543554E+01  0.0000000000000E+00
-0.2535689837149E+00 -0.1723826791791E+01  0.0000000000000E+00
-0.2581127053052E+00 -0.1653399627459E+01  0.0000000000000E+00
-0.2629516134529E+00 -0.1583502518406E+01  0.0000000000000E+00
-0.2681094000786E+00 -0.1514219918310E+01  0.0000000000000E+00
-0.2736228861926E+00 -0.1445679296214E+01  0.0000000000000E+00
-0.2795495751478E+00 -0.1378073731162E+01  0.0000000000000E+00
-0.1925228350695E+00 -0.4229773600768E+01  0.0000000000000E+00
-0.1925456701187E+00 -0.4155502619191E+01  0.0000000000000E+00
-0.1925685052109E+00 -0.4081231497639E+01  0.0000000000000E+00
-0.1925913403229E+00 -0.4006960311527E+01  0.0000000000000E+00
-0.1926141754049E+00 -0.3932689223390E+01  0.0000000000000E+00
-0.1926370104825E+00 -0.3858418149187E+01  0.0000000000000E+00
-0.1926598455630E+00 -0.3784147065547E+01  0.0000000000000E+00
-0.1926826806470E+00 -0.3709875970701E+01  0.0000000000000E+00
-0.1927055157292E+00 -0.3635604881693E+01  0.0000000000000E+00
-0.1927283508117E+00 -0.3561333791667E+01  0.0000000000000E+00
-0.1927511859358E+00 -0.3487062566424E+01  0.0000000000000E+00
-0.1927740209885E+00 -0.3412791573417E+01  0.0000000000000E+00
-0.1927968561092E+00 -0.3338520359245E+01  0.0000000000000E+00
-0.1928196915665E+00 -0.3264248050103E+01  0.0000000000000E+00
-0.1928425262686E+00 -0.3189978197163E+01  0.0000000000000E+00
-0.1928653612877E+00 -0.3115707313507E+01  0.0000000000000E+00
-0.1928881963719E+00 -0.3041436217924E+01  0.0000000000000E+00
-0.1929110314439E+00 -0.2967165162210E+01  0.0000000000000E+00
-0.1929338664863E+00 -0.2892894202637E+01  0.0000000000000E+00
-0.1929709714044E+00 -0.2818623275497E+01  0.0000000000000E+00
-0.1931088683680E+00 -0.2744355852933E+01  0.0000000000000E+00
-0.1934414836956E+00 -0.2670108716159E+01  0.0000000000000E+00
-0.1940252513053E+00 -0.2595913654076E+01  0.0000000000000E+00
-0.1948822926087E+00 -0.2521808968931E+01  0.0000000000000E+00
-0.1960151051878E+00 -0.2447831379587E+01  0.0000000000000E+00
-0.1974186152532E+00 -0.2374013840609E+01  0.0000000000000E+00
-0.1990870842670E+00 -0.2300387469284E+01  0.0000000000000E+00
-0.2010176775699E+00 -0.2226983524425E+01  0.0000000000000E+00
-0.2032124623196E+00 -0.2153838247250E+01  0.0000000000000E+00
-0.2056800718913E+00 -0.2080996462759E+01  0.0000000000000E+00
-0.2084238301475E+00 -0.2008499701722E+01  0.0000000000000E+00
-0.2114268051683E+00 -0.1936362204253E+01  0.0000000000000E+00
-0.2146763705746E+00 -0.1864598897017E+01  0.0000000000000E+00
-0.2181664687455E+00 -0.1793231559741E+01  0.0000000000000E+00
-0.2218969014465E+00 -0.1722290926515E+01  0.0000000000000E+00
-0.2258733447208E+00 -0.1651819880738E+01  0.0000000000000E+00
-0.2301080762283E+00 -0.1581878890584E+01  0.0000000000000E+00
-0.2346218264090E+00 -0.1512552409157E+01  0.0000000000000E+00
-0.2394468136277E+00 -0.1443967906727E+01  0.0000000000000E+00
-0.2446333533281E+00 -0.1376318461792E+01  0.0000000000000E+00
-0.1650200836141E+00 -0.4229735553552E+01  0.0000000000000E+00
-0.1650401672104E+00 -0.4155426524793E+01  0.0000000000000E+00
-0.1650602508445E+00 -0.4081117355988E+01  0.0000000000000E+00
-0.1650803344960E+00 -0.4006808122590E+01  0.0000000000000E+00
-0.1651004181210E+00 -0.3932498987216E+01  0.0000000000000E+00
-0.1651205017423E+00 -0.3858189865784E+01  0.0000000000000E+00
-0.1651405853662E+00 -0.3783880734910E+01  0.0000000000000E+00
-0.1651606689930E+00 -0.3709571592824E+01  0.0000000000000E+00
-0.1651807526183E+00 -0.3635262456580E+01  0.0000000000000E+00
-0.1652008362438E+00 -0.3560953319316E+01  0.0000000000000E+00
-0.1652209199060E+00 -0.3486644046767E+01  0.0000000000000E+00
-0.1652410035053E+00 -0.3412335006573E+01  0.0000000000000E+00
-0.1652610871644E+00 -0.3338025745100E+01  0.0000000000000E+00
-0.1652811711196E+00 -0.3263715388096E+01  0.0000000000000E+00
-0.1653012544107E+00 -0.3189407488552E+01  0.0000000000000E+00
-0.1653213379804E+00 -0.3115098557765E+01  0.0000000000000E+00
-0.1653414216075E+00 -0.3040789414941E+01  0.0000000000000E+00
-0.1653615052238E+00 -0.2966480312009E+01  0.0000000000000E+00
-0.1653815888140E+00 -0.2892171305265E+01  0.0000000000000E+00
-0.1654139037265E+00 -0.2817862330946E+01  0.0000000000000E+00
-0.1655326118186E+00 -0.2743556861420E+01  0.0000000000000E+00
-0.1658182213616E+00 -0.2669271678057E+01  0.0000000000000E+00
-0.1663191042885E+00 -0.2595038569558E+01  0.0000000000000E+00
-0.1670542218109E+00 -0.2520895838043E+01  0.0000000000000E+00
-0.1680257147146E+00 -0.2446880202293E+01  0.0000000000000E+00
-0.1692292340380E+00 -0.2373024616811E+01  0.0000000000000E+00
-0.1706598610322E+00 -0.2299360199036E+01  0.0000000000000E+00
-0.1723151659912E+00 -0.2225918207636E+01  0.0000000000000E+00
-0.1741969207619E+00 -0.2152734884009E+01  0.0000000000000E+00
-0.1763125253801E+00 -0.2079855053154E+01  0.0000000000000E+00
-0.1786648288734E+00 -0.2007320245687E+01  0.0000000000000E+00
-0.1812393181677E+00 -0.1935144701707E+01  0.0000000000000E+00
-0.1840251706515E+00 -0.1863343347917E+01  0.0000000000000E+00
-0.1870171940779E+00 -0.1791937964073E+01  0.0000000000000E+00
-0.1902152185315E+00 -0.1720959284274E+01  0.0000000000000E+00
-0.1936241091919E+00 -0.1650450191940E+01  0.0000000000000E+00
-0.1972543897637E+00 -0.1580471155527E+01  0.0000000000000E+00
-0.2011238292027E+00 -0.1511106627642E+01  0.0000000000000E+00
-0.2052600432362E+00 -0.1442484079618E+01  0.0000000000000E+00
-0.2097061593950E+00 -0.1374796589482E+01  0.0000000000000E+00
-0.1375170965664E+00 -0.4229703348149E+01  0.0000000000000E+00
-0.1375341931175E+00 -0.4155362114015E+01  0.0000000000000E+00
-0.1375512897008E+00 -0.4081020739775E+01  0.0000000000000E+00
-0.1375683862990E+00 -0.4006679300913E+01  0.0000000000000E+00
-0.1375854828746E+00 -0.3932337960118E+01  0.0000000000000E+00
-0.1376025794470E+00 -0.3857996633271E+01  0.0000000000000E+00
-0.1376196760216E+00 -0.3783655296978E+01  0.0000000000000E+00
-0.1376367725988E+00 -0.3709313949468E+01  0.0000000000000E+00
-0.1376538691746E+00 -0.3634972607802E+01  0.0000000000000E+00
-0.1376709657507E+00 -0.3560631265117E+01  0.0000000000000E+00
-0.1376880623579E+00 -0.3486289787087E+01  0.0000000000000E+00
-0.1377051589116E+00 -0.3411948541514E+01  0.0000000000000E+00
-0.1377222555162E+00 -0.3337607074565E+01  0.0000000000000E+00
-0.1377393523729E+00 -0.3263264511611E+01  0.0000000000000E+00
-0.1377564486642E+00 -0.3188924407182E+01  0.0000000000000E+00
-0.1377735451928E+00 -0.3114583271062E+01  0.0000000000000E+00
-0.1377906417701E+00 -0.3040241922814E+01  0.0000000000000E+00
-0.1378077383383E+00 -0.2965900614475E+01  0.0000000000000E+00
-0.1378248348843E+00 -0.2891559402366E+01  0.0000000000000E+00
-0.1378521241988E+00 -0.2817218222675E+01  0.0000000000000E+00
-0.1379514078263E+00 -0.2742880547961E+01  0.0000000000000E+00
-0.1381897759909E+00 -0.2668563159723E+01  0.0000000000000E+00
-0.1386075386376E+00 -0.2594297846497E+01  0.0000000000000E+00
-0.1392204967773E+00 -0.2520122910295E+01  0.0000000000000E+00
-0.1400304343989E+00 -0.2446075069828E+01  0.0000000000000E+00
-0.1410337273682E+00 -0.2372187279545E+01  0.0000000000000E+00
-0.1422262767265E+00 -0.2298490657014E+01  0.0000000000000E+00
-0.1436060577199E+00 -0.2225016460781E+01  0.0000000000000E+00
-0.1451745468860E+00 -0.2151800932397E+01  0.0000000000000E+00
-0.1469379109210E+00 -0.2078888896859E+01  0.0000000000000E+00
-0.1488985240163E+00 -0.2006321884654E+01  0.0000000000000E+00
-0.1510442919439E+00 -0.1934114135868E+01  0.0000000000000E+00
-0.1533661958606E+00 -0.1862280577234E+01  0.0000000000000E+00
-0.1558599088936E+00 -0.1790842988534E+01  0.0000000000000E+00
-0.1585252894466E+00 -0.1719832103876E+01  0.0000000000000E+00
-0.1613663918356E+00 -0.1649290806696E+01  0.0000000000000E+00
-0.1643919858117E+00 -0.1579279565690E+01  0.0000000000000E+00
-0.1676168788429E+00 -0.1509882833043E+01  0.0000000000000E+00
-0.1710640840249E+00 -0.1441228080987E+01  0.0000000000000E+00
-0.1747695409720E+00 -0.1373508387153E+01  0.0000000000000E+00
-0.1100139131733E+00 -0.4229676990359E+01  0.0000000000000E+00
-0.1100278263343E+00 -0.4155309398459E+01  0.0000000000000E+00
-0.1100417395214E+00 -0.4080941666402E+01  0.0000000000000E+00
-0.1100556527207E+00 -0.4006573869701E+01  0.0000000000000E+00
-0.1100695659016E+00 -0.3932206171102E+01  0.0000000000000E+00
-0.1100834790799E+00 -0.3857838486456E+01  0.0000000000000E+00
-0.1100973922599E+00 -0.3783470792361E+01  0.0000000000000E+00
-0.1101113054421E+00 -0.3709103087044E+01  0.0000000000000E+00
-0.1101252186231E+00 -0.3634735387573E+01  0.0000000000000E+00
-0.1101391318044E+00 -0.3560367687083E+01  0.0000000000000E+00
-0.1101530450109E+00 -0.3485999851201E+01  0.0000000000000E+00
-0.1101669581740E+00 -0.3411632247857E+01  0.0000000000000E+00
-0.1101808713785E+00 -0.3337264423059E+01  0.0000000000000E+00
-0.1101947847881E+00 -0.3262895501867E+01  0.0000000000000E+00
-0.1102086977376E+00 -0.3188529040072E+01  0.0000000000000E+00
-0.1102226108802E+00 -0.3114161546221E+01  0.0000000000000E+00
-0.1102365240625E+00 -0.3039793840166E+01  0.0000000000000E+00
-0.1102504372373E+00 -0.2965426174034E+01  0.0000000000000E+00
-0.1102643503941E+00 -0.2891058604166E+01  0.0000000000000E+00
-0.1102864177656E+00 -0.2816691066711E+01  0.0000000000000E+00
-0.1103660805855E+00 -0.2742327034383E+01  0.0000000000000E+00
-0.1105570110314E+00 -0.2667983288788E+01  0.0000000000000E+00
-0.1108914570603E+00 -0.2593691618327E+01  0.0000000000000E+00
-0.1113820594814E+00 -0.2519490324921E+01  0.0000000000000E+00
-0.1120302454863E+00 -0.2445416127225E+01  0.0000000000000E+00
-0.1128331157681E+00 -0.2371501979645E+01  0.0000000000000E+00
-0.1137873911589E+00 -0.2297778999854E+01  0.0000000000000E+00
-0.1148914518564E+00 -0.2224278446299E+01  0.0000000000000E+00
-0.1161464790893E+00 -0.2151036560653E+01  0.0000000000000E+00
-0.1175574062147E+00 -0.2078098167915E+01  0.0000000000000E+00
-0.1191261325870E+00 -0.2005504798465E+01  0.0000000000000E+00
-0.1208429828240E+00 -0.1933270692377E+01  0.0000000000000E+00
-0.1227007418508E+00 -0.1861410776411E+01  0.0000000000000E+00
-0.1246959481691E+00 -0.1789946830370E+01  0.0000000000000E+00
-0.1268284885014E+00 -0.1718909588368E+01  0.0000000000000E+00
-0.1291016063007E+00 -0.1648341933855E+01  0.0000000000000E+00
-0.1315223173657E+00 -0.1578304335721E+01  0.0000000000000E+00
-0.1341024676744E+00 -0.1508881245808E+01  0.0000000000000E+00
-0.1368604676965E+00 -0.1440200137086E+01  0.0000000000000E+00
-0.1398250691276E+00 -0.1372454086857E+01  0.0000000000000E+00
-0.8251057255733E-01 -0.4229656484926E+01  0.0000000000000E+00
-0.8252114510523E-01 -0.4155268387612E+01  0.0000000000000E+00
-0.8253171767305E-01 -0.4080880150103E+01  0.0000000000000E+00
-0.8254229025007E-01 -0.4006491847932E+01  0.0000000000000E+00
-0.8255286281313E-01 -0.3932103643889E+01  0.0000000000000E+00
-0.8256343537422E-01 -0.3857715453803E+01  0.0000000000000E+00
-0.8257400793664E-01 -0.3783327254265E+01  0.0000000000000E+00
-0.8258458050067E-01 -0.3708939043503E+01  0.0000000000000E+00
-0.8259515306386E-01 -0.3634550838589E+01  0.0000000000000E+00
-0.8260572562719E-01 -0.3560162632655E+01  0.0000000000000E+00
-0.8261629820978E-01 -0.3485774291291E+01  0.0000000000000E+00
-0.8262687075930E-01 -0.3411386182529E+01  0.0000000000000E+00
-0.8263744334031E-01 -0.3336997852253E+01  0.0000000000000E+00
-0.8264801607719E-01 -0.3262608425281E+01  0.0000000000000E+00
-0.8265858846443E-01 -0.3188221458384E+01  0.0000000000000E+00
-0.8266916099838E-01 -0.3113833459145E+01  0.0000000000000E+00
-0.8267973356251E-01 -0.3039445247645E+01  0.0000000000000E+00
-0.8269030612096E-01 -0.2965057076078E+01  0.0000000000000E+00
-0.8270087866573E-01 -0.2890669000802E+01  0.0000000000000E+00
-0.8271756687138E-01 -0.2816280957935E+01  0.0000000000000E+00
-0.8277745166208E-01 -0.2741896420311E+01  0.0000000000000E+00
-0.8292078717006E-01 -0.2667532169621E+01  0.0000000000000E+00
-0.8317175936353E-01 -0.2593219994158E+01  0.0000000000000E+00
-0.8353984884971E-01 -0.2518998195776E+01  0.0000000000000E+00
-0.8402612602254E-01 -0.2444903493085E+01  0.0000000000000E+00
-0.8462841640204E-01 -0.2370968840455E+01  0.0000000000000E+00
-0.8534426061171E-01 -0.2297225355644E+01  0.0000000000000E+00
-0.8617244380030E-01 -0.2223704297020E+01  0.0000000000000E+00
-0.8711385188860E-01 -0.2150441906354E+01  0.0000000000000E+00
-0.8817218489417E-01 -0.2077483008642E+01  0.0000000000000E+00
-0.8934886733396E-01 -0.2004869134183E+01  0.0000000000000E+00
-0.9063664267160E-01 -0.1932614523043E+01  0.0000000000000E+00
-0.9203009960065E-01 -0.1860734102001E+01  0.0000000000000E+00
-0.9352664199702E-01 -0.1789249650877E+01  0.0000000000000E+00
-0.9512618490244E-01 -0.1718191903789E+01  0.0000000000000E+00
-0.9683116090668E-01 -0.1647603744198E+01  0.0000000000000E+00
-0.9864683185755E-01 -0.1577545641147E+01  0.0000000000000E+00
-0.1005820822409E+00 -0.1508102046211E+01  0.0000000000000E+00
-0.1026507199050E+00 -0.1439400432931E+01  0.0000000000000E+00
-0.1048743086251E+00 -0.1371633878354E+01  0.0000000000000E+00
-0.5500711393383E-01 -0.4229641835546E+01  0.0000000000000E+00
-0.5501422786132E-01 -0.4155239088865E+01  0.0000000000000E+00
-0.5502134180221E-01 -0.4080836201962E+01  0.0000000000000E+00
-0.5502845574929E-01 -0.4006433250383E+01  0.0000000000000E+00
-0.5503556968698E-01 -0.3932030396953E+01  0.0000000000000E+00
-0.5504268362334E-01 -0.3857627557482E+01  0.0000000000000E+00
-0.5504979756060E-01 -0.3783224708557E+01  0.0000000000000E+00
-0.5505691149894E-01 -0.3708821848406E+01  0.0000000000000E+00
-0.5506402543671E-01 -0.3634418994103E+01  0.0000000000000E+00
-0.5507113937459E-01 -0.3560016138781E+01  0.0000000000000E+00
-0.5507825332541E-01 -0.3485613148002E+01  0.0000000000000E+00
-0.5508536725399E-01 -0.3411210389871E+01  0.0000000000000E+00
-0.5509248120376E-01 -0.3336807410182E+01  0.0000000000000E+00
-0.5509959525840E-01 -0.3262403333581E+01  0.0000000000000E+00
-0.5510670907779E-01 -0.3188001717540E+01  0.0000000000000E+00
-0.5511382299589E-01 -0.3113599068954E+01  0.0000000000000E+00
-0.5512093693430E-01 -0.3039196208064E+01  0.0000000000000E+00
-0.5512805086889E-01 -0.2964793387116E+01  0.0000000000000E+00
-0.5513516479427E-01 -0.2890390662477E+01  0.0000000000000E+00
-0.5514635582678E-01 -0.2815987970245E+01  0.0000000000000E+00
-0.5518634458180E-01 -0.2741588783338E+01  0.0000000000000E+00
-0.5528196714690E-01 -0.2667209883509E+01  0.0000000000000E+00
-0.5544934750096E-01 -0.2592883058975E+01  0.0000000000000E+00
-0.5569480604889E-01 -0.2518646611538E+01  0.0000000000000E+00
-0.5601905638671E-01 -0.2444537259779E+01  0.0000000000000E+00
-0.5642064886117E-01 -0.2370587958044E+01  0.0000000000000E+00
-0.5689794388766E-01 -0.2296829824147E+01  0.0000000000000E+00
-0.5745013156543E-01 -0.2223294116403E+01  0.0000000000000E+00
-0.5807780250795E-01 -0.2150017076651E+01  0.0000000000000E+00
-0.5878342339336E-01 -0.2077043529887E+01  0.0000000000000E+00
-0.5956794390064E-01 -0.2004415006351E+01  0.0000000000000E+00
-0.6042652633910E-01 -0.1932145746102E+01  0.0000000000000E+00
-0.6135556317081E-01 -0.1860250675935E+01  0.0000000000000E+00
-0.6235332364616E-01 -0.1788751575680E+01  0.0000000000000E+00
-0.6341975112603E-01 -0.1717679179460E+01  0.0000000000000E+00
-0.6455646733708E-01 -0.1647076370742E+01  0.0000000000000E+00
-0.6576698017705E-01 -0.1577003618680E+01  0.0000000000000E+00
-0.6705721263822E-01 -0.1507545374656E+01  0.0000000000000E+00
-0.6843636995069E-01 -0.1438829112620E+01  0.0000000000000E+00
-0.6991882796803E-01 -0.1371047909439E+01  0.0000000000000E+00
-0.2750357658843E-01 -0.4229633044861E+01  0.0000000000000E+00
-0.2750715317366E-01 -0.4155221507503E+01  0.0000000000000E+00
-0.2751072976564E-01 -0.4080809829905E+01  0.0000000000000E+00
-0.2751430636072E-01 -0.4006398087624E+01  0.0000000000000E+00
-0.2751788295109E-01 -0.3931986443504E+01  0.0000000000000E+00
-0.2752145954079E-01 -0.3857574813344E+01  0.0000000000000E+00
-0.2752503613094E-01 -0.3783163173730E+01  0.0000000000000E+00
-0.2752861272163E-01 -0.3708751522888E+01  0.0000000000000E+00
-0.2753218931203E-01 -0.3634339877895E+01  0.0000000000000E+00
-0.2753576590249E-01 -0.3559928231882E+01  0.0000000000000E+00
-0.2753934249946E-01 -0.3485516450397E+01  0.0000000000000E+00
-0.2754291908525E-01 -0.3411104901588E+01  0.0000000000000E+00
-0.2754649568168E-01 -0.3336693131194E+01  0.0000000000000E+00
-0.2755007233085E-01 -0.3262280263758E+01  0.0000000000000E+00
-0.2755364886173E-01 -0.3187869857173E+01  0.0000000000000E+00
-0.2755722544225E-01 -0.3113458417920E+01  0.0000000000000E+00
-0.2756080203298E-01 -0.3039046766340E+01  0.0000000000000E+00
-0.2756437862178E-01 -0.2964635154705E+01  0.0000000000000E+00
-0.2756795520596E-01 -0.2890223639392E+01  0.0000000000000E+00
-0.2757357034351E-01 -0.2815812156483E+01  0.0000000000000E+00
-0.2759358434146E-01 -0.2741404178949E+01  0.0000000000000E+00
-0.2764141524306E-01 -0.2667016488579E+01  0.0000000000000E+00
-0.2772512503744E-01 -0.2592680873544E+01  0.0000000000000E+00
-0.2784787392694E-01 -0.2518435635618E+01  0.0000000000000E+00
-0.2801001870949E-01 -0.2444317493361E+01  0.0000000000000E+00
-0.2821083455843E-01 -0.2370359401105E+01  0.0000000000000E+00
-0.2844950168136E-01 -0.2296592476699E+01  0.0000000000000E+00
-0.2872561512776E-01 -0.2223047978426E+01  0.0000000000000E+00
-0.2903947020410E-01 -0.2149762148164E+01  0.0000000000000E+00
-0.2939230024913E-01 -0.2076779810912E+01  0.0000000000000E+00
-0.2978458010354E-01 -0.2004142496872E+01  0.0000000000000E+00
-0.3021389092229E-01 -0.1931864446101E+01  0.0000000000000E+00
-0.3067842893605E-01 -0.1859960585402E+01  0.0000000000000E+00
-0.3117732876971E-01 -0.1788452694611E+01  0.0000000000000E+00
-0.3171056210335E-01 -0.1717371507854E+01  0.0000000000000E+00
-0.3227893980056E-01 -0.1646759908603E+01  0.0000000000000E+00
-0.3288421580958E-01 -0.1576678366077E+01  0.0000000000000E+00
-0.3352935162807E-01 -0.1507211331542E+01  0.0000000000000E+00
-0.3421894987024E-01 -0.1438486279195E+01  0.0000000000000E+00
-0.3496019846693E-01 -0.1370696285795E+01  0.0000000000000E+00
 0.1466269727017E-09 -0.4229630114457E+01  0.0000000000000E+00
 0.2932532055263E-09 -0.4155215646697E+01  0.0000000000000E+00
 0.4398803798697E-09 -0.4080801038692E+01  0.0000000000000E+00
 0.5865072632801E-09 -0.4006386366002E+01  0.0000000000000E+00
 0.7331339456125E-09 -0.3931971791476E+01  0.0000000000000E+00
 0.8797607629187E-09 -0.3857557230911E+01  0.0000000000000E+00
 0.1026387601599E-08 -0.3783142660891E+01  0.0000000000000E+00
 0.1173014146470E-08 -0.3708728079643E+01  0.0000000000000E+00
 0.1319641038940E-08 -0.3634313504245E+01  0.0000000000000E+00
 0.1466267822695E-08 -0.3559898927826E+01  0.0000000000000E+00
 0.1612894884936E-08 -0.3485484215930E+01  0.0000000000000E+00
 0.1759521559980E-08 -0.3411069736718E+01  0.0000000000000E+00
 0.1906148624904E-08 -0.3336655035914E+01  0.0000000000000E+00
 0.2052777753410E-08 -0.3262239238024E+01  0.0000000000000E+00
 0.2199402290491E-08 -0.3187825901082E+01  0.0000000000000E+00
 0.2346028468075E-08 -0.3113411531432E+01  0.0000000000000E+00
 0.2492655403194E-08 -0.3038996949445E+01  0.0000000000000E+00
 0.2639282414546E-08 -0.2964582407406E+01  0.0000000000000E+00
 0.2785908708559E-08 -0.2890167961692E+01  0.0000000000000E+00
 0.2932963750762E-08 -0.2815753548382E+01  0.0000000000000E+00
 0.3081668126355E-08 -0.2741342640464E+01  0.0000000000000E+00
 0.3233148692405E-08 -0.2666952019738E+01  0.0000000000000E+00
 0.3388282564229E-08 -0.2592613474360E+01  0.0000000000000E+00
 0.3547520115210E-08 -0.2518365306095E+01  0.0000000000000E+00
 0.3711086251809E-08 -0.2444244233496E+01  0.0000000000000E+00
 0.3879109370085E-08 -0.2370283210891E+01  0.0000000000000E+00
 0.4051601455226E-08 -0.2296513356140E+01  0.0000000000000E+00
 0.4229037818245E-08 -0.2222965927515E+01  0.0000000000000E+00
 0.4411708547429E-08 -0.2149677166908E+01  0.0000000000000E+00
 0.4600299816833E-08 -0.2076691899317E+01  0.0000000000000E+00
 0.4792582977744E-08 -0.2004051654933E+01  0.0000000000000E+00
 0.4987928936109E-08 -0.1931770673812E+01  0.0000000000000E+00
 0.5187018094136E-08 -0.1859863882760E+01  0.0000000000000E+00
 0.5390384780373E-08 -0.1788353061614E+01  0.0000000000000E+00
 0.5598754705489E-08 -0.1717268944503E+01  0.0000000000000E+00
 0.5811610974171E-08 -0.1646654414899E+01  0.0000000000000E+00
 0.6029914565701E-08 -0.1576569942042E+01  0.0000000000000E+00
 0.6251219526846E-08 -0.1507099977162E+01  0.0000000000000E+00
 0.6476122786694E-08 -0.1438371994536E+01  0.0000000000000E+00
 0.6697123319916E-08 -0.1370579070886E+01  0.0000000000000E+00
 0.2750357688167E-01 -0.4229633044863E+01  0.0000000000000E+00
 0.2750715376015E-01 -0.4155221507507E+01  0.0000000000000E+00
 0.2751073064538E-01 -0.4080809829911E+01  0.0000000000000E+00
 0.2751430753371E-01 -0.4006398087633E+01  0.0000000000000E+00
 0.2751788441732E-01 -0.3931986443515E+01  0.0000000000000E+00
 0.2752146130026E-01 -0.3857574813358E+01  0.0000000000000E+00
 0.2752503818366E-01 -0.3783163173746E+01  0.0000000000000E+00
 0.2752861506759E-01 -0.3708751522906E+01  0.0000000000000E+00
 0.2753219195125E-01 -0.3634339877916E+01  0.0000000000000E+00
 0.2753576883495E-01 -0.3559928231905E+01  0.0000000000000E+00
 0.2753934572517E-01 -0.3485516450422E+01  0.0000000000000E+00
 0.2754292260420E-01 -0.3411104901615E+01  0.0000000000000E+00
 0.2754649949388E-01 -0.3336693131223E+01  0.0000000000000E+00
 0.2755007643630E-01 -0.3262280263790E+01  0.0000000000000E+00
 0.2755365326042E-01 -0.3187869857207E+01  0.0000000000000E+00
 0.2755723013419E-01 -0.3113458417957E+01  0.0000000000000E+00
 0.2756080701816E-01 -0.3039046766379E+01  0.0000000000000E+00
 0.2756438390021E-01 -0.2964635154746E+01  0.0000000000000E+00
 0.2756796077763E-01 -0.2890223639435E+01  0.0000000000000E+00
 0.2757357620929E-01 -0.2815812156528E+01  0.0000000000000E+00
 0.2759359050464E-01 -0.2741404178997E+01  0.0000000000000E+00
 0.2764142170919E-01 -0.2667016488629E+01  0.0000000000000E+00
 0.2772513181383E-01 -0.2592680873597E+01  0.0000000000000E+00
 0.2784788102180E-01 -0.2518435635673E+01  0.0000000000000E+00
 0.2801002613147E-01 -0.2444317493417E+01  0.0000000000000E+00
 0.2821084231645E-01 -0.2370359401164E+01  0.0000000000000E+00
 0.2844950978436E-01 -0.2296592476761E+01  0.0000000000000E+00
 0.2872562358562E-01 -0.2223047978490E+01  0.0000000000000E+00
 0.2903947902730E-01 -0.2149762148230E+01  0.0000000000000E+00
 0.2939230944951E-01 -0.2076779810981E+01  0.0000000000000E+00
 0.2978458968848E-01 -0.2004142496943E+01  0.0000000000000E+00
 0.3021390089791E-01 -0.1931864446174E+01  0.0000000000000E+00
 0.3067843930983E-01 -0.1859960585477E+01  0.0000000000000E+00
 0.3117733955022E-01 -0.1788452694688E+01  0.0000000000000E+00
 0.3171057330060E-01 -0.1717371507933E+01  0.0000000000000E+00
 0.3227895142350E-01 -0.1646759908685E+01  0.0000000000000E+00
 0.3288422786913E-01 -0.1576678366161E+01  0.0000000000000E+00
 0.3352936413022E-01 -0.1507211331629E+01  0.0000000000000E+00
 0.3421896282219E-01 -0.1438486279285E+01  0.0000000000000E+00
 0.3496021186087E-01 -0.1370696285886E+01  0.0000000000000E+00
 0.5500711422706E-01 -0.4229641835551E+01  0.0000000000000E+00
 0.5501422844776E-01 -0.4155239088874E+01  0.0000000000000E+00
 0.5502134268188E-01 -0.4080836201975E+01  0.0000000000000E+00
 0.5502845692218E-01 -0.4006433250401E+01  0.0000000000000E+00
 0.5503557115310E-01 -0.3932030396975E+01  0.0000000000000E+00
 0.5504268538268E-01 -0.3857627557509E+01  0.0000000000000E+00
 0.5504979961317E-01 -0.3783224708589E+01  0.0000000000000E+00
 0.5505691384472E-01 -0.3708821848442E+01  0.0000000000000E+00
 0.5506402807572E-01 -0.3634418994144E+01  0.0000000000000E+00
 0.5507114230682E-01 -0.3560016138826E+01  0.0000000000000E+00
 0.5507825655087E-01 -0.3485613148052E+01  0.0000000000000E+00
 0.5508537077267E-01 -0.3411210389926E+01  0.0000000000000E+00
 0.5509248501566E-01 -0.3336807410241E+01  0.0000000000000E+00
 0.5509959936354E-01 -0.3262403333645E+01  0.0000000000000E+00
 0.5510671347613E-01 -0.3188001717608E+01  0.0000000000000E+00
 0.5511382768746E-01 -0.3113599069026E+01  0.0000000000000E+00
 0.5512094191909E-01 -0.3039196208141E+01  0.0000000000000E+00
 0.5512805614690E-01 -0.2964793387197E+01  0.0000000000000E+00
 0.5513517036551E-01 -0.2890390662564E+01  0.0000000000000E+00
 0.5514636169210E-01 -0.2815987970336E+01  0.0000000000000E+00
 0.5518635074450E-01 -0.2741588783433E+01  0.0000000000000E+00
 0.5528197361253E-01 -0.2667209883609E+01  0.0000000000000E+00
 0.5544935427683E-01 -0.2592883059079E+01  0.0000000000000E+00
 0.5569481314320E-01 -0.2518646611647E+01  0.0000000000000E+00
 0.5601906380812E-01 -0.2444537259892E+01  0.0000000000000E+00
 0.5642065661860E-01 -0.2370587958162E+01  0.0000000000000E+00
 0.5689795199004E-01 -0.2296829824270E+01  0.0000000000000E+00
 0.5745014002266E-01 -0.2223294116531E+01  0.0000000000000E+00
 0.5807781133049E-01 -0.2150017076782E+01  0.0000000000000E+00
 0.5878343259305E-01 -0.2077043530024E+01  0.0000000000000E+00
 0.5956795348486E-01 -0.2004415006491E+01  0.0000000000000E+00
 0.6042653631398E-01 -0.1932145746248E+01  0.0000000000000E+00
 0.6135557354385E-01 -0.1860250676085E+01  0.0000000000000E+00
 0.6235333442590E-01 -0.1788751575835E+01  0.0000000000000E+00
 0.6341976232248E-01 -0.1717679179619E+01  0.0000000000000E+00
 0.6455647895921E-01 -0.1647076370906E+01  0.0000000000000E+00
 0.6576699223576E-01 -0.1577003618849E+01  0.0000000000000E+00
 0.6705722513951E-01 -0.1507545374830E+01  0.0000000000000E+00
 0.6843638290175E-01 -0.1438829112798E+01  0.0000000000000E+00
 0.6991884136106E-01 -0.1371047909622E+01  0.0000000000000E+00
 0.8251057285052E-01 -0.4229656484933E+01  0.0000000000000E+00
 0.8252114569160E-01 -0.4155268387626E+01  0.0000000000000E+00
 0.8253171855261E-01 -0.4080880150123E+01  0.0000000000000E+00
 0.8254229142281E-01 -0.4006491847959E+01  0.0000000000000E+00
 0.8255286427906E-01 -0.3932103643923E+01  0.0000000000000E+00
 0.8256343713333E-01 -0.3857715453844E+01  0.0000000000000E+00
 0.8257400998894E-01 -0.3783327254313E+01  0.0000000000000E+00
 0.8258458284615E-01 -0.3708939043558E+01  0.0000000000000E+00
 0.8259515570252E-01 -0.3634550838650E+01  0.0000000000000E+00
 0.8260572855905E-01 -0.3560162632723E+01  0.0000000000000E+00
 0.8261630143482E-01 -0.3485774291366E+01  0.0000000000000E+00
 0.8262687427753E-01 -0.3411386182611E+01  0.0000000000000E+00
 0.8263744715172E-01 -0.3336997852342E+01  0.0000000000000E+00
 0.8264802018179E-01 -0.3262608425376E+01  0.0000000000000E+00
 0.8265859286221E-01 -0.3188221458486E+01  0.0000000000000E+00
 0.8266916568935E-01 -0.3113833459254E+01  0.0000000000000E+00
 0.8267973854666E-01 -0.3039445247761E+01  0.0000000000000E+00
 0.8269031139830E-01 -0.2965057076200E+01  0.0000000000000E+00
 0.8270088423625E-01 -0.2890669000931E+01  0.0000000000000E+00
 0.8271757273595E-01 -0.2816280958071E+01  0.0000000000000E+00
 0.8277745782398E-01 -0.2741896420454E+01  0.0000000000000E+00
 0.8292079363485E-01 -0.2667532169771E+01  0.0000000000000E+00
 0.8317176613852E-01 -0.2593219994315E+01  0.0000000000000E+00
 0.8353985594311E-01 -0.2518998195939E+01  0.0000000000000E+00
 0.8402613344300E-01 -0.2444903493255E+01  0.0000000000000E+00
 0.8462842415848E-01 -0.2370968840632E+01  0.0000000000000E+00
 0.8534426871307E-01 -0.2297225355828E+01  0.0000000000000E+00
 0.8617245225646E-01 -0.2223704297211E+01  0.0000000000000E+00
 0.8711386071004E-01 -0.2150441906551E+01  0.0000000000000E+00
 0.8817219409272E-01 -0.2077483008847E+01  0.0000000000000E+00
 0.8934887691701E-01 -0.2004869134394E+01  0.0000000000000E+00
 0.9063665264527E-01 -0.1932614523261E+01  0.0000000000000E+00
 0.9203010997243E-01 -0.1860734102227E+01  0.0000000000000E+00
 0.9352665277546E-01 -0.1789249651109E+01  0.0000000000000E+00
 0.9512619609756E-01 -0.1718191904028E+01  0.0000000000000E+00
 0.9683117252744E-01 -0.1647603744444E+01  0.0000000000000E+00
 0.9864684391485E-01 -0.1577545641400E+01  0.0000000000000E+00
 0.1005820947408E+00 -0.1508102046472E+01  0.0000000000000E+00
 0.1026507328546E+00 -0.1439400433198E+01  0.0000000000000E+00
 0.1048743220166E+00 -0.1371633878628E+01  0.0000000000000E+00
 0.1100139134665E+00 -0.4229676990368E+01  0.0000000000000E+00
 0.1100278269205E+00 -0.4155309398477E+01  0.0000000000000E+00
 0.1100417404008E+00 -0.4080941666429E+01  0.0000000000000E+00
 0.1100556538932E+00 -0.4006573869738E+01  0.0000000000000E+00
 0.1100695673672E+00 -0.3932206171148E+01  0.0000000000000E+00
 0.1100834808386E+00 -0.3857838486511E+01  0.0000000000000E+00
 0.1100973943118E+00 -0.3783470792424E+01  0.0000000000000E+00
 0.1101113077871E+00 -0.3709103087117E+01  0.0000000000000E+00
 0.1101252212613E+00 -0.3634735387655E+01  0.0000000000000E+00
 0.1101391347357E+00 -0.3560367687174E+01  0.0000000000000E+00
 0.1101530482354E+00 -0.3485999851300E+01  0.0000000000000E+00
 0.1101669616916E+00 -0.3411632247966E+01  0.0000000000000E+00
 0.1101808751892E+00 -0.3337264423177E+01  0.0000000000000E+00
 0.1101947888920E+00 -0.3262895501994E+01  0.0000000000000E+00
 0.1102087021346E+00 -0.3188529040208E+01  0.0000000000000E+00
 0.1102226155703E+00 -0.3114161546366E+01  0.0000000000000E+00
 0.1102365290458E+00 -0.3039793840320E+01  0.0000000000000E+00
 0.1102504425137E+00 -0.2965426174197E+01  0.0000000000000E+00
 0.1102643559636E+00 -0.2891058604338E+01  0.0000000000000E+00
 0.1102864236291E+00 -0.2816691066893E+01  0.0000000000000E+00
 0.1103660867463E+00 -0.2742327034573E+01  0.0000000000000E+00
 0.1105570174950E+00 -0.2667983288988E+01  0.0000000000000E+00
 0.1108914638340E+00 -0.2593691618536E+01  0.0000000000000E+00
 0.1113820665735E+00 -0.2519490325139E+01  0.0000000000000E+00
 0.1120302529054E+00 -0.2445416127452E+01  0.0000000000000E+00
 0.1128331235231E+00 -0.2371501979881E+01  0.0000000000000E+00
 0.1137873992588E+00 -0.2297779000099E+01  0.0000000000000E+00
 0.1148914603110E+00 -0.2224278446553E+01  0.0000000000000E+00
 0.1161464879092E+00 -0.2151036560917E+01  0.0000000000000E+00
 0.1175574154117E+00 -0.2078098168188E+01  0.0000000000000E+00
 0.1191261421684E+00 -0.2005504798746E+01  0.0000000000000E+00
 0.1208429927959E+00 -0.1933270692668E+01  0.0000000000000E+00
 0.1227007522209E+00 -0.1861410776712E+01  0.0000000000000E+00
 0.1246959589458E+00 -0.1789946830680E+01  0.0000000000000E+00
 0.1268284996947E+00 -0.1718909588687E+01  0.0000000000000E+00
 0.1291016179195E+00 -0.1648341934183E+01  0.0000000000000E+00
 0.1315223294210E+00 -0.1578304336058E+01  0.0000000000000E+00
 0.1341024801722E+00 -0.1508881246156E+01  0.0000000000000E+00
 0.1368604806440E+00 -0.1440200137443E+01  0.0000000000000E+00
 0.1398250825170E+00 -0.1372454087222E+01  0.0000000000000E+00
 0.1375170968594E+00 -0.4229703348160E+01  0.0000000000000E+00
 0.1375341937036E+00 -0.4155362114038E+01  0.0000000000000E+00
 0.1375512905800E+00 -0.4081020739809E+01  0.0000000000000E+00
 0.1375683874712E+00 -0.4006679300958E+01  0.0000000000000E+00
 0.1375854843399E+00 -0.3932337960175E+01  0.0000000000000E+00
 0.1376025812054E+00 -0.3857996633339E+01  0.0000000000000E+00
 0.1376196780730E+00 -0.3783655297058E+01  0.0000000000000E+00
 0.1376367749433E+00 -0.3709313949559E+01  0.0000000000000E+00
 0.1376538718122E+00 -0.3634972607904E+01  0.0000000000000E+00
 0.1376709686813E+00 -0.3560631265231E+01  0.0000000000000E+00
 0.1376880655816E+00 -0.3486289787212E+01  0.0000000000000E+00
 0.1377051624283E+00 -0.3411948541650E+01  0.0000000000000E+00
 0.1377222593261E+00 -0.3337607074712E+01  0.0000000000000E+00
 0.1377393564758E+00 -0.3263264511770E+01  0.0000000000000E+00
 0.1377564530602E+00 -0.3188924407352E+01  0.0000000000000E+00
 0.1377735498818E+00 -0.3114583271243E+01  0.0000000000000E+00
 0.1377906467522E+00 -0.3040241923007E+01  0.0000000000000E+00
 0.1378077436134E+00 -0.2965900614679E+01  0.0000000000000E+00
 0.1378248404525E+00 -0.2891559402581E+01  0.0000000000000E+00
 0.1378521300609E+00 -0.2817218222902E+01  0.0000000000000E+00
 0.1379514139857E+00 -0.2742880548199E+01  0.0000000000000E+00
 0.1381897824530E+00 -0.2668563159972E+01  0.0000000000000E+00
 0.1386075454098E+00 -0.2594297846758E+01  0.0000000000000E+00
 0.1392205038678E+00 -0.2520122910568E+01  0.0000000000000E+00
 0.1400304418163E+00 -0.2446075070112E+01  0.0000000000000E+00
 0.1410337351215E+00 -0.2372187279840E+01  0.0000000000000E+00
 0.1422262848245E+00 -0.2298490657320E+01  0.0000000000000E+00
 0.1436060661727E+00 -0.2225016461099E+01  0.0000000000000E+00
 0.1451745557039E+00 -0.2151800932726E+01  0.0000000000000E+00
 0.1469379201159E+00 -0.2078888897200E+01  0.0000000000000E+00
 0.1488985335956E+00 -0.2006321885006E+01  0.0000000000000E+00
 0.1510443019137E+00 -0.1934114136231E+01  0.0000000000000E+00
 0.1533662062284E+00 -0.1862280577609E+01  0.0000000000000E+00
 0.1558599196680E+00 -0.1790842988921E+01  0.0000000000000E+00
 0.1585253006374E+00 -0.1719832104274E+01  0.0000000000000E+00
 0.1613664034520E+00 -0.1649290807107E+01  0.0000000000000E+00
 0.1643919978645E+00 -0.1579279566112E+01  0.0000000000000E+00
 0.1676168913382E+00 -0.1509882833477E+01  0.0000000000000E+00
 0.1710640969698E+00 -0.1441228081433E+01  0.0000000000000E+00
 0.1747695543587E+00 -0.1373508387609E+01  0.0000000000000E+00
 0.1650200839071E+00 -0.4229735553566E+01  0.0000000000000E+00
 0.1650401677963E+00 -0.4155426524821E+01  0.0000000000000E+00
 0.1650602517234E+00 -0.4081117356029E+01  0.0000000000000E+00
 0.1650803356679E+00 -0.4006808122644E+01  0.0000000000000E+00
 0.1651004195859E+00 -0.3932498987284E+01  0.0000000000000E+00
 0.1651205035002E+00 -0.3858189865866E+01  0.0000000000000E+00
 0.1651405874170E+00 -0.3783880735006E+01  0.0000000000000E+00
 0.1651606713369E+00 -0.3709571592933E+01  0.0000000000000E+00
 0.1651807552551E+00 -0.3635262456702E+01  0.0000000000000E+00
 0.1652008391737E+00 -0.3560953319452E+01  0.0000000000000E+00
 0.1652209231288E+00 -0.3486644046916E+01  0.0000000000000E+00
 0.1652410070211E+00 -0.3412335006736E+01  0.0000000000000E+00
 0.1652610909732E+00 -0.3338025745277E+01  0.0000000000000E+00
 0.1652811752214E+00 -0.3263715388287E+01  0.0000000000000E+00
 0.1653012588054E+00 -0.3189407488756E+01  0.0000000000000E+00
 0.1653213426681E+00 -0.3115098557982E+01  0.0000000000000E+00
 0.1653414265882E+00 -0.3040789415173E+01  0.0000000000000E+00
 0.1653615104974E+00 -0.2966480312253E+01  0.0000000000000E+00
 0.1653815943807E+00 -0.2892171305523E+01  0.0000000000000E+00
 0.1654139095870E+00 -0.2817862331218E+01  0.0000000000000E+00
 0.1655326179762E+00 -0.2743556861706E+01  0.0000000000000E+00
 0.1658182278219E+00 -0.2669271678356E+01  0.0000000000000E+00
 0.1663191110588E+00 -0.2595038569871E+01  0.0000000000000E+00
 0.1670542288993E+00 -0.2520895838369E+01  0.0000000000000E+00
 0.1680257221299E+00 -0.2446880202634E+01  0.0000000000000E+00
 0.1692292417891E+00 -0.2373024617165E+01  0.0000000000000E+00
 0.1706598691281E+00 -0.2299360199403E+01  0.0000000000000E+00
 0.1723151744417E+00 -0.2225918208017E+01  0.0000000000000E+00
 0.1741969295774E+00 -0.2152734884404E+01  0.0000000000000E+00
 0.1763125345726E+00 -0.2079855053562E+01  0.0000000000000E+00
 0.1786648384501E+00 -0.2007320246109E+01  0.0000000000000E+00
 0.1812393281348E+00 -0.1935144702143E+01  0.0000000000000E+00
 0.1840251810165E+00 -0.1863343348367E+01  0.0000000000000E+00
 0.1870172048494E+00 -0.1791937964537E+01  0.0000000000000E+00
 0.1902152297195E+00 -0.1720959284752E+01  0.0000000000000E+00
 0.1936241208052E+00 -0.1650450192432E+01  0.0000000000000E+00
 0.1972544018134E+00 -0.1580471156033E+01  0.0000000000000E+00
 0.2011238416948E+00 -0.1511106628163E+01  0.0000000000000E+00
 0.2052600561778E+00 -0.1442484080152E+01  0.0000000000000E+00
 0.2097061727783E+00 -0.1374796590029E+01  0.0000000000000E+00
 0.1925228353624E+00 -0.4229773600784E+01  0.0000000000000E+00
 0.1925456707045E+00 -0.4155502619222E+01  0.0000000000000E+00
 0.1925685060895E+00 -0.4081231497687E+01  0.0000000000000E+00
 0.1925913414945E+00 -0.4006960311591E+01  0.0000000000000E+00
 0.1926141768693E+00 -0.3932689223469E+01  0.0000000000000E+00
 0.1926370122398E+00 -0.3858418149282E+01  0.0000000000000E+00
 0.1926598476132E+00 -0.3784147065658E+01  0.0000000000000E+00
 0.1926826829901E+00 -0.3709875970828E+01  0.0000000000000E+00
 0.1927055183652E+00 -0.3635604881835E+01  0.0000000000000E+00
 0.1927283537406E+00 -0.3561333791825E+01  0.0000000000000E+00
 0.1927511891575E+00 -0.3487062566598E+01  0.0000000000000E+00
 0.1927740245031E+00 -0.3412791573608E+01  0.0000000000000E+00
 0.1927968599166E+00 -0.3338520359451E+01  0.0000000000000E+00
 0.1928196956668E+00 -0.3264248050325E+01  0.0000000000000E+00
 0.1928425306619E+00 -0.3189978197401E+01  0.0000000000000E+00
 0.1928653659738E+00 -0.3115707313761E+01  0.0000000000000E+00
 0.1928882013509E+00 -0.3041436218193E+01  0.0000000000000E+00
 0.1929110367158E+00 -0.2967165162496E+01  0.0000000000000E+00
 0.1929338720510E+00 -0.2892894202938E+01  0.0000000000000E+00
 0.1929709772629E+00 -0.2818623275814E+01  0.0000000000000E+00
 0.1931088745236E+00 -0.2744355853266E+01  0.0000000000000E+00
 0.1934414901538E+00 -0.2670108716509E+01  0.0000000000000E+00
 0.1940252580734E+00 -0.2595913654441E+01  0.0000000000000E+00
 0.1948822996948E+00 -0.2521808969312E+01  0.0000000000000E+00
 0.1960151126007E+00 -0.2447831379984E+01  0.0000000000000E+00
 0.1974186230017E+00 -0.2374013841021E+01  0.0000000000000E+00
 0.1990870923602E+00 -0.2300387469712E+01  0.0000000000000E+00
 0.2010176860176E+00 -0.2226983524869E+01  0.0000000000000E+00
 0.2032124711323E+00 -0.2153838247711E+01  0.0000000000000E+00
 0.2056800810808E+00 -0.2080996463236E+01  0.0000000000000E+00
 0.2084238397212E+00 -0.2008499702214E+01  0.0000000000000E+00
 0.2114268151323E+00 -0.1936362204762E+01  0.0000000000000E+00
 0.2146763809363E+00 -0.1864598897542E+01  0.0000000000000E+00
 0.2181664795136E+00 -0.1793231560282E+01  0.0000000000000E+00
 0.2218969126310E+00 -0.1722290927072E+01  0.0000000000000E+00
 0.2258733563306E+00 -0.1651819881312E+01  0.0000000000000E+00
 0.2301080882744E+00 -0.1581878891174E+01  0.0000000000000E+00
 0.2346218388973E+00 -0.1512552409764E+01  0.0000000000000E+00
 0.2394468265655E+00 -0.1443967907350E+01  0.0000000000000E+00
 0.2446333667075E+00 -0.1376318462430E+01  0.0000000000000E+00
 0.2200253125104E+00 -0.4229817482990E+01  0.0000000000000E+00
 0.2200506249983E+00 -0.4155590383597E+01  0.0000000000000E+00
 0.2200759375338E+00 -0.4081363144312E+01  0.0000000000000E+00
 0.2201012500914E+00 -0.4007135840505E+01  0.0000000000000E+00
 0.2201265626155E+00 -0.3932908634614E+01  0.0000000000000E+00
 0.2201518751349E+00 -0.3858681442649E+01  0.0000000000000E+00
 0.2201771876576E+00 -0.3784454241253E+01  0.0000000000000E+00
 0.2202025001840E+00 -0.3710227028657E+01  0.0000000000000E+00
 0.2202278127085E+00 -0.3635999821897E+01  0.0000000000000E+00
 0.2202531252333E+00 -0.3561772614118E+01  0.0000000000000E+00
 0.2202784378042E+00 -0.3487545271203E+01  0.0000000000000E+00
 0.2203037502959E+00 -0.3413318160387E+01  0.0000000000000E+00
 0.2203290628630E+00 -0.3339090828536E+01  0.0000000000000E+00
 0.2203543758033E+00 -0.3264862402362E+01  0.0000000000000E+00
 0.2203796879065E+00 -0.3190636430938E+01  0.0000000000000E+00
 0.2204050003610E+00 -0.3116409429408E+01  0.0000000000000E+00
 0.2204303128877E+00 -0.3042182216076E+01  0.0000000000000E+00
 0.2204556254008E+00 -0.2967955042590E+01  0.0000000000000E+00
 0.2204809378811E+00 -0.2893727965187E+01  0.0000000000000E+00
 0.2205225587916E+00 -0.2819500920227E+01  0.0000000000000E+00
 0.2206793706184E+00 -0.2745277379593E+01  0.0000000000000E+00
 0.2210587177307E+00 -0.2671074124321E+01  0.0000000000000E+00
 0.2217250960322E+00 -0.2596922943538E+01  0.0000000000000E+00
 0.2227037871342E+00 -0.2522862139640E+01  0.0000000000000E+00
 0.2239976454152E+00 -0.2448928431584E+01  0.0000000000000E+00
 0.2256008722577E+00 -0.2375154774008E+01  0.0000000000000E+00
 0.2275069093357E+00 -0.2301572284024E+01  0.0000000000000E+00
 0.2297125170368E+00 -0.2228212220609E+01  0.0000000000000E+00
 0.2322200578312E+00 -0.2155110824777E+01  0.0000000000000E+00
 0.2350393984347E+00 -0.2082312921528E+01  0.0000000000000E+00
 0.2381743375395E+00 -0.2009860041806E+01  0.0000000000000E+00
 0.2416055243783E+00 -0.1937766425747E+01  0.0000000000000E+00
 0.2453185288059E+00 -0.1866046999972E+01  0.0000000000000E+00
 0.2493064278290E+00 -0.1794723544173E+01  0.0000000000000E+00
 0.2535689948955E+00 -0.1723826792427E+01  0.0000000000000E+00
 0.2581127169110E+00 -0.1653399628115E+01  0.0000000000000E+00
 0.2629516254948E+00 -0.1583502519080E+01  0.0000000000000E+00
 0.2681094125627E+00 -0.1514219919004E+01  0.0000000000000E+00
 0.2736228991260E+00 -0.1445679296927E+01  0.0000000000000E+00
 0.2795495885227E+00 -0.1378073731891E+01  0.0000000000000E+00
 0.2475274766539E+00 -0.4229867192326E+01  0.0000000000000E+00
 0.2475549532832E+00 -0.4155689802224E+01  0.0000000000000E+00
 0.2475824299644E+00 -0.4081512272324E+01  0.0000000000000E+00
 0.2476099066694E+00 -0.4007334677945E+01  0.0000000000000E+00
 0.2476373833382E+00 -0.3933157181417E+01  0.0000000000000E+00
 0.2476648600018E+00 -0.3858979698806E+01  0.0000000000000E+00
 0.2476923366689E+00 -0.3784802206770E+01  0.0000000000000E+00
 0.2477198133402E+00 -0.3710624703541E+01  0.0000000000000E+00
 0.2477472900093E+00 -0.3636447206144E+01  0.0000000000000E+00
 0.2477747666787E+00 -0.3562269707729E+01  0.0000000000000E+00
 0.2478022433982E+00 -0.3488092074268E+01  0.0000000000000E+00
 0.2478297200318E+00 -0.3413914672752E+01  0.0000000000000E+00
 0.2478571967472E+00 -0.3339737050347E+01  0.0000000000000E+00
 0.2478846738677E+00 -0.3265558334353E+01  0.0000000000000E+00
 0.2479121500795E+00 -0.3191382071466E+01  0.0000000000000E+00
 0.2479396266726E+00 -0.3117204779162E+01  0.0000000000000E+00
 0.2479671033442E+00 -0.3043027275197E+01  0.0000000000000E+00
 0.2479945800010E+00 -0.2968849811053E+01  0.0000000000000E+00
 0.2480220566222E+00 -0.2894672442926E+01  0.0000000000000E+00
 0.2480678802269E+00 -0.2820495107254E+01  0.0000000000000E+00
 0.2482432936180E+00 -0.2746321275624E+01  0.0000000000000E+00
 0.2486690592144E+00 -0.2672167728870E+01  0.0000000000000E+00
 0.2494177349024E+00 -0.2598066256378E+01  0.0000000000000E+00
 0.2505177624914E+00 -0.2524055160710E+01  0.0000000000000E+00
 0.2519723531549E+00 -0.2450171160932E+01  0.0000000000000E+00
 0.2537749834465E+00 -0.2376447211761E+01  0.0000000000000E+00
 0.2559182752537E+00 -0.2302914430113E+01  0.0000000000000E+00
 0.2583985840084E+00 -0.2229604075153E+01  0.0000000000000E+00
 0.2612185674944E+00 -0.2156552387660E+01  0.0000000000000E+00
 0.2643893257669E+00 -0.2083804192633E+01  0.0000000000000E+00
 0.2679151323508E+00 -0.2011401021221E+01  0.0000000000000E+00
 0.2717742176326E+00 -0.1939357113576E+01  0.0000000000000E+00
 0.2759503476999E+00 -0.1867687396273E+01  0.0000000000000E+00
 0.2804357341858E+00 -0.1796413648963E+01  0.0000000000000E+00
 0.2852301222195E+00 -0.1725566605714E+01  0.0000000000000E+00
 0.2903408095704E+00 -0.1655189149877E+01  0.0000000000000E+00
 0.2957835818175E+00 -0.1585341748928E+01  0.0000000000000E+00
 0.3015850923532E+00 -0.1516108857198E+01  0.0000000000000E+00
 0.3077867648430E+00 -0.1447617942338E+01  0.0000000000000E+00
 0.3144532905308E+00 -0.1380062084006E+01  0.0000000000000E+00
 0.2750292892693E+00 -0.4229922719906E+01  0.0000000000000E+00
 0.2750585785124E+00 -0.4155800857335E+01  0.0000000000000E+00
 0.2750878678108E+00 -0.4081678855069E+01  0.0000000000000E+00
 0.2751171571346E+00 -0.4007556788374E+01  0.0000000000000E+00
 0.2751464464198E+00 -0.3933434819456E+01  0.0000000000000E+00
 0.2751757356995E+00 -0.3859312864444E+01  0.0000000000000E+00
 0.2752050249829E+00 -0.3785190900015E+01  0.0000000000000E+00
 0.2752343142707E+00 -0.3711068924401E+01  0.0000000000000E+00
 0.2752636035562E+00 -0.3636946954615E+01  0.0000000000000E+00
 0.2752928928421E+00 -0.3562824983812E+01  0.0000000000000E+00
 0.2753221821814E+00 -0.3488702878064E+01  0.0000000000000E+00
 0.2753514714290E+00 -0.3414581004086E+01  0.0000000000000E+00
 0.2753807607639E+00 -0.3340458909386E+01  0.0000000000000E+00
 0.2754100505306E+00 -0.3266335721915E+01  0.0000000000000E+00
 0.2754393393287E+00 -0.3192214985714E+01  0.0000000000000E+00
 0.2754686285332E+00 -0.3118093220867E+01  0.0000000000000E+00
 0.2754979178213E+00 -0.3043971244518E+01  0.0000000000000E+00
 0.2755272070937E+00 -0.2969849307959E+01  0.0000000000000E+00
 0.2755564963282E+00 -0.2895727467347E+01  0.0000000000000E+00
 0.2756061710997E+00 -0.2821605659200E+01  0.0000000000000E+00
 0.2757998345302E+00 -0.2747487354780E+01  0.0000000000000E+00
 0.2762716670907E+00 -0.2673389334693E+01  0.0000000000000E+00
 0.2771022886488E+00 -0.2599343388614E+01  0.0000000000000E+00
 0.2783233012108E+00 -0.2525387819291E+01  0.0000000000000E+00
 0.2799382727445E+00 -0.2451559345910E+01  0.0000000000000E+00
 0.2819399549741E+00 -0.2377890923281E+01  0.0000000000000E+00
 0.2843201500017E+00 -0.2304413668096E+01  0.0000000000000E+00
 0.2870748083025E+00 -0.2231158839731E+01  0.0000000000000E+00
 0.2902068829753E+00 -0.2158162678704E+01  0.0000000000000E+00
 0.2937287074149E+00 -0.2085470010015E+01  0.0000000000000E+00
 0.2976450299774E+00 -0.2013122365035E+01  0.0000000000000E+00
 0.3019316622029E+00 -0.1941133983942E+01  0.0000000000000E+00
 0.3065705664120E+00 -0.1869519793253E+01  0.0000000000000E+00
 0.3115530888646E+00 -0.1798301572579E+01  0.0000000000000E+00
 0.3168789463712E+00 -0.1727510055970E+01  0.0000000000000E+00
 0.3225562475650E+00 -0.1657188126752E+01  0.0000000000000E+00
 0.3286025319875E+00 -0.1587396251987E+01  0.0000000000000E+00
 0.3350474145034E+00 -0.1518218886732E+01  0.0000000000000E+00
 0.3419369214426E+00 -0.1449783497085E+01  0.0000000000000E+00
 0.3493429319505E+00 -0.1382283163393E+01  0.0000000000000E+00
 0.3025307120396E+00 -0.4229984055830E+01  0.0000000000000E+00
 0.3025614240518E+00 -0.4155923529129E+01  0.0000000000000E+00
 0.3025921361219E+00 -0.4081862862849E+01  0.0000000000000E+00
 0.3026228482187E+00 -0.4007802132191E+01  0.0000000000000E+00
 0.3026535602750E+00 -0.3933741499231E+01  0.0000000000000E+00
 0.3026842723255E+00 -0.3859680880166E+01  0.0000000000000E+00
 0.3027149843799E+00 -0.3785620251690E+01  0.0000000000000E+00
 0.3027456964389E+00 -0.3711559612040E+01  0.0000000000000E+00
 0.3027764084955E+00 -0.3637498978211E+01  0.0000000000000E+00
 0.3028071205526E+00 -0.3563438343367E+01  0.0000000000000E+00
 0.3028378326656E+00 -0.3489377573690E+01  0.0000000000000E+00
 0.3028685446825E+00 -0.3415317035591E+01  0.0000000000000E+00
 0.3028992567909E+00 -0.3341256276953E+01  0.0000000000000E+00
 0.3029299693521E+00 -0.3267194426448E+01  0.0000000000000E+00
 0.3029606808976E+00 -0.3193135025185E+01  0.0000000000000E+00
 0.3029913928693E+00 -0.3119074596126E+01  0.0000000000000E+00
 0.3030221049286E+00 -0.3045013955741E+01  0.0000000000000E+00
 0.3030528169715E+00 -0.2970953355113E+01  0.0000000000000E+00
 0.3030835289746E+00 -0.2896892850352E+01  0.0000000000000E+00
 0.3031366650683E+00 -0.2822832378069E+01  0.0000000000000E+00
 0.3033481886970E+00 -0.2748775409164E+01  0.0000000000000E+00
 0.3038656983863E+00 -0.2674738723994E+01  0.0000000000000E+00
 0.3047778759835E+00 -0.2600754112549E+01  0.0000000000000E+00
 0.3061194836908E+00 -0.2526859877786E+01  0.0000000000000E+00
 0.3078944462696E+00 -0.2453092739024E+01  0.0000000000000E+00
 0.3100947906140E+00 -0.2379485651171E+01  0.0000000000000E+00
 0.3127114990421E+00 -0.2306069730678E+01  0.0000000000000E+00
 0.3157401170710E+00 -0.2232876237149E+01  0.0000000000000E+00
 0.3191838931162E+00 -0.2159941410816E+01  0.0000000000000E+00
 0.3230563939122E+00 -0.2087310076679E+01  0.0000000000000E+00
 0.3273628426451E+00 -0.2015023766356E+01  0.0000000000000E+00
 0.3320766320079E+00 -0.1943096720051E+01  0.0000000000000E+00
 0.3371779205545E+00 -0.1871543864221E+01  0.0000000000000E+00
 0.3426571891719E+00 -0.1800386978427E+01  0.0000000000000E+00
 0.3485141263518E+00 -0.1729656796705E+01  0.0000000000000E+00
 0.3547576515920E+00 -0.1659396202350E+01  0.0000000000000E+00
 0.3614070583991E+00 -0.1589665661967E+01  0.0000000000000E+00
 0.3684949231053E+00 -0.1520549631415E+01  0.0000000000000E+00
 0.3760718747160E+00 -0.1452175575078E+01  0.0000000000000E+00
 0.3842169802741E+00 -0.1384736574064E+01  0.0000000000000E+00
 0.3300317066083E+00 -0.4230051189169E+01  0.0000000000000E+00
 0.3300634131883E+00 -0.4156057795746E+01  0.0000000000000E+00
 0.3300951198281E+00 -0.4082064262871E+01  0.0000000000000E+00
 0.3301268264954E+00 -0.4008070665678E+01  0.0000000000000E+00
 0.3301585331209E+00 -0.3934077166092E+01  0.0000000000000E+00
 0.3301902397405E+00 -0.3860083680390E+01  0.0000000000000E+00
 0.3302219463641E+00 -0.3786090185285E+01  0.0000000000000E+00
 0.3302536529925E+00 -0.3712096679016E+01  0.0000000000000E+00
 0.3302853596183E+00 -0.3638103178563E+01  0.0000000000000E+00
 0.3303170662447E+00 -0.3564109677096E+01  0.0000000000000E+00
 0.3303487729287E+00 -0.3490116040918E+01  0.0000000000000E+00
 0.3303804795136E+00 -0.3416122636108E+01  0.0000000000000E+00
 0.3304121861929E+00 -0.3342129010959E+01  0.0000000000000E+00
 0.3304438933397E+00 -0.3268134294932E+01  0.0000000000000E+00
 0.3304755994379E+00 -0.3194142025928E+01  0.0000000000000E+00
 0.3305073059761E+00 -0.3120148730060E+01  0.0000000000000E+00
 0.3305390126048E+00 -0.3046155223056E+01  0.0000000000000E+00
 0.3305707192164E+00 -0.2972161755774E+01  0.0000000000000E+00
 0.3306024257871E+00 -0.2898168384272E+01  0.0000000000000E+00
 0.3306585950016E+00 -0.2824175045263E+01  0.0000000000000E+00
 0.3308875506280E+00 -0.2750185209249E+01  0.0000000000000E+00
 0.3314503092469E+00 -0.2676215656314E+01  0.0000000000000E+00
 0.3324436146825E+00 -0.2602298176796E+01  0.0000000000000E+00
 0.3339053893309E+00 -0.2528471073879E+01  0.0000000000000E+00
 0.3358399147463E+00 -0.2454771067025E+01  0.0000000000000E+00
 0.3382384929918E+00 -0.2381231111256E+01  0.0000000000000E+00
 0.3410912866036E+00 -0.2307882322751E+01  0.0000000000000E+00
 0.3443934361388E+00 -0.2234755961370E+01  0.0000000000000E+00
 0.3481484853320E+00 -0.2161888267029E+01  0.0000000000000E+00
 0.3523712342570E+00 -0.2089324064728E+01  0.0000000000000E+00
 0.3570673809279E+00 -0.2017104886358E+01  0.0000000000000E+00
 0.3622078991912E+00 -0.1945244972146E+01  0.0000000000000E+00
 0.3677711438344E+00 -0.1873759248489E+01  0.0000000000000E+00
 0.3737467303719E+00 -0.1802669494891E+01  0.0000000000000E+00
 0.3801343189772E+00 -0.1732006445373E+01  0.0000000000000E+00
 0.3869436400121E+00 -0.1661812983195E+01  0.0000000000000E+00
 0.3941957409519E+00 -0.1592149574463E+01  0.0000000000000E+00
 0.4019261595902E+00 -0.1523100675912E+01  0.0000000000000E+00
 0.4101901276194E+00 -0.1454793750053E+01  0.0000000000000E+00
 0.4190738999739E+00 -0.1387421878824E+01  0.0000000000000E+00
 0.3575322350942E+00 -0.4230124108012E+01  0.0000000000000E+00
 0.3575644701596E+00 -0.4156203633367E+01  0.0000000000000E+00
 0.3575967052858E+00 -0.4082283019407E+01  0.0000000000000E+00
 0.3576289404400E+00 -0.4008362341192E+01  0.0000000000000E+00
 0.3576611755516E+00 -0.3934441760489E+01  0.0000000000000E+00
 0.3576934106573E+00 -0.3860521193655E+01  0.0000000000000E+00
 0.3577256457670E+00 -0.3786600617428E+01  0.0000000000000E+00
 0.3577578808816E+00 -0.3712680030048E+01  0.0000000000000E+00
 0.3577901159936E+00 -0.3638759448479E+01  0.0000000000000E+00
 0.3578223511061E+00 -0.3564838865896E+01  0.0000000000000E+00
 0.3578545862773E+00 -0.3490918148735E+01  0.0000000000000E+00
 0.3578868213477E+00 -0.3416997662714E+01  0.0000000000000E+00
 0.3579190565140E+00 -0.3343076956571E+01  0.0000000000000E+00
 0.3579512921557E+00 -0.3269155160625E+01  0.0000000000000E+00
 0.3579835267312E+00 -0.3195235809291E+01  0.0000000000000E+00
 0.3580157617542E+00 -0.3121315432104E+01  0.0000000000000E+00
 0.3580479968691E+00 -0.3047394843990E+01  0.0000000000000E+00
 0.3580802319667E+00 -0.2973474295559E+01  0.0000000000000E+00
 0.3581124670225E+00 -0.2899553842813E+01  0.0000000000000E+00
 0.3581712032753E+00 -0.2825633422575E+01  0.0000000000000E+00
 0.3584171248179E+00 -0.2751716504917E+01  0.0000000000000E+00
 0.3590246662867E+00 -0.2677819869626E+01  0.0000000000000E+00
 0.3600986334791E+00 -0.2603975307419E+01  0.0000000000000E+00
 0.3616801089837E+00 -0.2530221121722E+01  0.0000000000000E+00
 0.3637737311460E+00 -0.2456594032159E+01  0.0000000000000E+00
 0.3663700771977E+00 -0.2383126993868E+01  0.0000000000000E+00
 0.3694584898948E+00 -0.2309851122740E+01  0.0000000000000E+00
 0.3730337048331E+00 -0.2236797678909E+01  0.0000000000000E+00
 0.3770995610680E+00 -0.2164002901948E+01  0.0000000000000E+00
 0.3816720920128E+00 -0.2091511616858E+01  0.0000000000000E+00
 0.3867574705075E+00 -0.2019365355824E+01  0.0000000000000E+00
 0.3923242515520E+00 -0.1947578359104E+01  0.0000000000000E+00
 0.3983489861684E+00 -0.1876165553022E+01  0.0000000000000E+00
 0.4048204244990E+00 -0.1805148717026E+01  0.0000000000000E+00
 0.4117381983987E+00 -0.1734558585119E+01  0.0000000000000E+00
 0.4191128490940E+00 -0.1664438040521E+01  0.0000000000000E+00
 0.4269671780319E+00 -0.1594847548798E+01  0.0000000000000E+00
 0.4353396844610E+00 -0.1525871567639E+01  0.0000000000000E+00
 0.4442902027733E+00 -0.1457637557515E+01  0.0000000000000E+00
 0.4539121757881E+00 -0.1390338601268E+01  0.0000000000000E+00
 0.3850322601332E+00 -0.4230202799491E+01  0.0000000000000E+00
 0.3850645202376E+00 -0.4156361016254E+01  0.0000000000000E+00
 0.3850967804028E+00 -0.4082519093852E+01  0.0000000000000E+00
 0.3851290405960E+00 -0.4008677107263E+01  0.0000000000000E+00
 0.3851613007467E+00 -0.3934835218081E+01  0.0000000000000E+00
 0.3851935608914E+00 -0.3860993342754E+01  0.0000000000000E+00
 0.3852258210401E+00 -0.3787151458044E+01  0.0000000000000E+00
 0.3852580811937E+00 -0.3713309562193E+01  0.0000000000000E+00
 0.3852903413448E+00 -0.3639467672146E+01  0.0000000000000E+00
 0.3853226014963E+00 -0.3565625781087E+01  0.0000000000000E+00
 0.3853548617065E+00 -0.3491783755593E+01  0.0000000000000E+00
 0.3853871218159E+00 -0.3417941960993E+01  0.0000000000000E+00
 0.3854193820213E+00 -0.3344099946505E+01  0.0000000000000E+00
 0.3854516427024E+00 -0.3270256843375E+01  0.0000000000000E+00
 0.3854839023165E+00 -0.3196416182253E+01  0.0000000000000E+00
 0.3855161623784E+00 -0.3122574496372E+01  0.0000000000000E+00
 0.3855484225323E+00 -0.3048732599788E+01  0.0000000000000E+00
 0.3855806826689E+00 -0.2974890742843E+01  0.0000000000000E+00
 0.3856129427638E+00 -0.2901048981483E+01  0.0000000000000E+00
 0.3856737426085E+00 -0.2827207252647E+01  0.0000000000000E+00
 0.3859361266252E+00 -0.2753369025944E+01  0.0000000000000E+00
 0.3865879475086E+00 -0.2679551080838E+01  0.0000000000000E+00
 0.3877420730279E+00 -0.2605785208455E+01  0.0000000000000E+00
 0.3894427459622E+00 -0.2532109712488E+01  0.0000000000000E+00
 0.3916949614475E+00 -0.2458561312728E+01  0.0000000000000E+00
 0.3944885718833E+00 -0.2385172964444E+01  0.0000000000000E+00
 0.3978121002474E+00 -0.2311975783213E+01  0.0000000000000E+00
 0.4016598771719E+00 -0.2239001029465E+01  0.0000000000000E+00
 0.4060360370360E+00 -0.2166284942405E+01  0.0000000000000E+00
 0.4109578465920E+00 -0.2093872347033E+01  0.0000000000000E+00
 0.4164319535044E+00 -0.2021804775852E+01  0.0000000000000E+00
 0.4224244939258E+00 -0.1950096469153E+01  0.0000000000000E+00
 0.4289102151131E+00 -0.1878762353182E+01  0.0000000000000E+00
 0.4358770018369E+00 -0.1807824207326E+01  0.0000000000000E+00
 0.4433244576339E+00 -0.1737312765568E+01  0.0000000000000E+00
 0.4512639345954E+00 -0.1667270911087E+01  0.0000000000000E+00
 0.4597199881440E+00 -0.1597759108864E+01  0.0000000000000E+00
 0.4687340789769E+00 -0.1528861817618E+01  0.0000000000000E+00
 0.4783706442004E+00 -0.1460706495619E+01  0.0000000000000E+00
 0.4887303145127E+00 -0.1393486226685E+01  0.0000000000000E+00
 0.4125317444436E+00 -0.4230287249750E+01  0.0000000000000E+00
 0.4125634888589E+00 -0.4156529916697E+01  0.0000000000000E+00
 0.4125952333340E+00 -0.4082772444637E+01  0.0000000000000E+00
 0.4126269778367E+00 -0.4009014908464E+01  0.0000000000000E+00
 0.4126587222975E+00 -0.3935257469588E+01  0.0000000000000E+00
 0.4126904667524E+00 -0.3861500044550E+01  0.0000000000000E+00
 0.4127222112113E+00 -0.3787742610140E+01  0.0000000000000E+00
 0.4127539556750E+00 -0.3713985164601E+01  0.0000000000000E+00
 0.4127857001362E+00 -0.3640227724860E+01  0.0000000000000E+00
 0.4128174445979E+00 -0.3566470284108E+01  0.0000000000000E+00
 0.4128491891173E+00 -0.3492712709074E+01  0.0000000000000E+00
 0.4128809335375E+00 -0.3418955364671E+01  0.0000000000000E+00
 0.4129126780522E+00 -0.3345197800631E+01  0.0000000000000E+00
 0.4129444230349E+00 -0.3271439149195E+01  0.0000000000000E+00
 0.4129761669678E+00 -0.3197682936973E+01  0.0000000000000E+00
 0.4130079113412E+00 -0.3123925701164E+01  0.0000000000000E+00
 0.4130396558052E+00 -0.3050168254893E+01  0.0000000000000E+00
 0.4130714002522E+00 -0.2976410848217E+01  0.0000000000000E+00
 0.4131031446580E+00 -0.2902653537015E+01  0.0000000000000E+00
 0.4131654673669E+00 -0.2828896258356E+01  0.0000000000000E+00
 0.4134437731345E+00 -0.2755142481348E+01  0.0000000000000E+00
 0.4141393327177E+00 -0.2681408985113E+01  0.0000000000000E+00
 0.4153730758553E+00 -0.2607727561214E+01  0.0000000000000E+00
 0.4171924055158E+00 -0.2534136513627E+01  0.0000000000000E+00
 0.4196026736245E+00 -0.2460672562328E+01  0.0000000000000E+00
 0.4225930077475E+00 -0.2387368662724E+01  0.0000000000000E+00
 0.4261511110864E+00 -0.2314255930053E+01  0.0000000000000E+00
 0.4302709093080E+00 -0.2241365625067E+01  0.0000000000000E+00
 0.4349568321173E+00 -0.2168733986572E+01  0.0000000000000E+00
 0.4402273796064E+00 -0.2096405839569E+01  0.0000000000000E+00
 0.4460896742614E+00 -0.2024422716902E+01  0.0000000000000E+00
 0.4525074333876E+00 -0.1952798858897E+01  0.0000000000000E+00
 0.4594536004770E+00 -0.1881549191718E+01  0.0000000000000E+00
 0.4669151949288E+00 -0.1810695494684E+01  0.0000000000000E+00
 0.4748917919615E+00 -0.1740268501757E+01  0.0000000000000E+00
 0.4833955545316E+00 -0.1670311096074E+01  0.0000000000000E+00
 0.4924527920416E+00 -0.1600883741987E+01  0.0000000000000E+00
 0.5021079266308E+00 -0.1532070899318E+01  0.0000000000000E+00
 0.5124299981347E+00 -0.1464000023979E+01  0.0000000000000E+00
 0.5235268251251E+00 -0.1396864200833E+01  0.0000000000000E+00
 0.4400306510556E+00 -0.4230377443976E+01  0.0000000000000E+00
 0.4400613020839E+00 -0.4156710305068E+01  0.0000000000000E+00
 0.4400919531699E+00 -0.4083043027324E+01  0.0000000000000E+00
 0.4401226042826E+00 -0.4009375685544E+01  0.0000000000000E+00
 0.4401532553548E+00 -0.3935708440943E+01  0.0000000000000E+00
 0.4401839064213E+00 -0.3862041210162E+01  0.0000000000000E+00
 0.4402145574917E+00 -0.3788373970022E+01  0.0000000000000E+00
 0.4402452085667E+00 -0.3714706718766E+01  0.0000000000000E+00
 0.4402758596393E+00 -0.3641039473300E+01  0.0000000000000E+00
 0.4403065107123E+00 -0.3567372226825E+01  0.0000000000000E+00
 0.4403371618411E+00 -0.3493704846233E+01  0.0000000000000E+00
 0.4403678128741E+00 -0.3420037695989E+01  0.0000000000000E+00
 0.4403984639983E+00 -0.3346370326377E+01  0.0000000000000E+00
 0.4404291155744E+00 -0.3272701870698E+01  0.0000000000000E+00
 0.4404597661369E+00 -0.3199035851251E+01  0.0000000000000E+00
 0.4404904171248E+00 -0.3125368809468E+01  0.0000000000000E+00
 0.4405210682001E+00 -0.3051701557481E+01  0.0000000000000E+00
 0.4405517192589E+00 -0.2978034345040E+01  0.0000000000000E+00
 0.4405823702781E+00 -0.2904367227957E+01  0.0000000000000E+00
 0.4406456381536E+00 -0.2830700143436E+01  0.0000000000000E+00
 0.4409392879798E+00 -0.2757036560052E+01  0.0000000000000E+00
 0.4416780085804E+00 -0.2683393256561E+01  0.0000000000000E+00
 0.4429907916617E+00 -0.2609802024991E+01  0.0000000000000E+00
 0.4449282003801E+00 -0.2536301169624E+01  0.0000000000000E+00
 0.4474959434490E+00 -0.2462927410630E+01  0.0000000000000E+00
 0.4506824236002E+00 -0.2389713703565E+01  0.0000000000000E+00
 0.4544745242614E+00 -0.2316691163306E+01  0.0000000000000E+00
 0.4588657661314E+00 -0.2243891050946E+01  0.0000000000000E+00
 0.4638608742442E+00 -0.2171349604868E+01  0.0000000000000E+00
 0.4694795820315E+00 -0.2099111650073E+01  0.0000000000000E+00
 0.4757294867991E+00 -0.2027218719768E+01  0.0000000000000E+00
 0.4825718870042E+00 -0.1955685054318E+01  0.0000000000000E+00
 0.4899779223743E+00 -0.1884525579796E+01  0.0000000000000E+00
 0.4979337469374E+00 -0.1813762075454E+01  0.0000000000000E+00
 0.5064389075941E+00 -0.1743425275228E+01  0.0000000000000E+00
 0.5155063781664E+00 -0.1673558062210E+01  0.0000000000000E+00
 0.5251642220414E+00 -0.1604220900080E+01  0.0000000000000E+00
 0.5354598227929E+00 -0.1535498249841E+01  0.0000000000000E+00
 0.5464668230032E+00 -0.1467517564884E+01  0.0000000000000E+00
 0.5583002291111E+00 -0.1400471931189E+01  0.0000000000000E+00
 0.4675289425592E+00 -0.4230473366311E+01  0.0000000000000E+00
 0.4675578850925E+00 -0.4156902149654E+01  0.0000000000000E+00
 0.4675868276804E+00 -0.4083330794340E+01  0.0000000000000E+00
 0.4676157702935E+00 -0.4009759375075E+01  0.0000000000000E+00
 0.4676447128684E+00 -0.3936188052861E+01  0.0000000000000E+00
 0.4676736554378E+00 -0.3862616744450E+01  0.0000000000000E+00
 0.4677025980109E+00 -0.3789045426691E+01  0.0000000000000E+00
 0.4677315405884E+00 -0.3715474097832E+01  0.0000000000000E+00
 0.4677604831636E+00 -0.3641902774755E+01  0.0000000000000E+00
 0.4677894257392E+00 -0.3568331450670E+01  0.0000000000000E+00
 0.4678183683676E+00 -0.3494759992643E+01  0.0000000000000E+00
 0.4678473109054E+00 -0.3421188764663E+01  0.0000000000000E+00
 0.4678762535293E+00 -0.3347617317602E+01  0.0000000000000E+00
 0.4679051965800E+00 -0.3274044785887E+01  0.0000000000000E+00
 0.4679341386736E+00 -0.3200474687233E+01  0.0000000000000E+00
 0.4679630811688E+00 -0.3126903567574E+01  0.0000000000000E+00
 0.4679920237465E+00 -0.3053332237984E+01  0.0000000000000E+00
 0.4680209663088E+00 -0.2979760947889E+01  0.0000000000000E+00
 0.4680499088336E+00 -0.2906189753027E+01  0.0000000000000E+00
 0.4681135067670E+00 -0.2832618590747E+01  0.0000000000000E+00
 0.4684218855411E+00 -0.2759050929060E+01  0.0000000000000E+00
 0.4692031520433E+00 -0.2685503546327E+01  0.0000000000000E+00
 0.4705943599415E+00 -0.2612008235077E+01  0.0000000000000E+00
 0.4726492325763E+00 -0.2538603299912E+01  0.0000000000000E+00
 0.4753738354481E+00 -0.2465325461211E+01  0.0000000000000E+00
 0.4787558464532E+00 -0.2392207674687E+01  0.0000000000000E+00
 0.4827813292485E+00 -0.2319281054835E+01  0.0000000000000E+00
 0.4874433995627E+00 -0.2246576863109E+01  0.0000000000000E+00
 0.4927470777613E+00 -0.2174131337442E+01  0.0000000000000E+00
 0.4987133306152E+00 -0.2101989302836E+01  0.0000000000000E+00
 0.5053502302475E+00 -0.2030192292885E+01  0.0000000000000E+00
 0.5126166562676E+00 -0.1958754547993E+01  0.0000000000000E+00
 0.5204819446400E+00 -0.1887690994141E+01  0.0000000000000E+00
 0.5289313840225E+00 -0.1817023410501E+01  0.0000000000000E+00
 0.5379644929975E+00 -0.1746782530989E+01  0.0000000000000E+00
 0.5475950562530E+00 -0.1677011238647E+01  0.0000000000000E+00
 0.5578528911642E+00 -0.1607769996440E+01  0.0000000000000E+00
 0.5687883427305E+00 -0.1539143266628E+01  0.0000000000000E+00
 0.5804796562961E+00 -0.1471258499918E+01  0.0000000000000E+00
 0.5930490261565E+00 -0.1404308783480E+01  0.0000000000000E+00
 0.4950265832471E+00 -0.4230575000136E+01  0.0000000000000E+00
 0.4950531664706E+00 -0.4157105417212E+01  0.0000000000000E+00
 0.4950797497441E+00 -0.4083635695824E+01  0.0000000000000E+00
 0.4951063330407E+00 -0.4010165910572E+01  0.0000000000000E+00
 0.4951329163023E+00 -0.3936696222237E+01  0.0000000000000E+00
 0.4951594995589E+00 -0.3863226547687E+01  0.0000000000000E+00
 0.4951860828189E+00 -0.3789756863802E+01  0.0000000000000E+00
 0.4952126660828E+00 -0.3716287168831E+01  0.0000000000000E+00
 0.4952392493447E+00 -0.3642817479635E+01  0.0000000000000E+00
 0.4952658326070E+00 -0.3569347789432E+01  0.0000000000000E+00
 0.4952924159176E+00 -0.3495877965472E+01  0.0000000000000E+00
 0.4953189991451E+00 -0.3422408371242E+01  0.0000000000000E+00
 0.4953455824518E+00 -0.3348938558232E+01  0.0000000000000E+00
 0.4953721661504E+00 -0.3275467662068E+01  0.0000000000000E+00
 0.4953987489699E+00 -0.3201999195603E+01  0.0000000000000E+00
 0.4954253321582E+00 -0.3128529709543E+01  0.0000000000000E+00
 0.4954519154225E+00 -0.3055060013843E+01  0.0000000000000E+00
 0.4954784986724E+00 -0.2981590357583E+01  0.0000000000000E+00
 0.4955050818880E+00 -0.2908120796426E+01  0.0000000000000E+00
 0.4955683590647E+00 -0.2834651267871E+01  0.0000000000000E+00
 0.4958908159768E+00 -0.2761185239330E+01  0.0000000000000E+00
 0.4967139775797E+00 -0.2687739488751E+01  0.0000000000000E+00
 0.4981829594999E+00 -0.2614345809188E+01  0.0000000000000E+00
 0.5003546452605E+00 -0.2541042505588E+01  0.0000000000000E+00
 0.5032354571473E+00 -0.2467866298547E+01  0.0000000000000E+00
 0.5068123482204E+00 -0.2394850143946E+01  0.0000000000000E+00
 0.5110705623679E+00 -0.2322025155875E+01  0.0000000000000E+00
 0.5160028103462E+00 -0.2249422596171E+01  0.0000000000000E+00
 0.5216144078554E+00 -0.2177078702290E+01  0.0000000000000E+00
 0.5279275550057E+00 -0.2105038299234E+01  0.0000000000000E+00
 0.5349507987347E+00 -0.2033342921007E+01  0.0000000000000E+00
 0.5426405998039E+00 -0.1962006808056E+01  0.0000000000000E+00
 0.5509644904148E+00 -0.1891044886262E+01  0.0000000000000E+00
 0.5599068938557E+00 -0.1820478934717E+01  0.0000000000000E+00
 0.5694673003911E+00 -0.1750339687312E+01  0.0000000000000E+00
 0.5796603055753E+00 -0.1680670027035E+01  0.0000000000000E+00
 0.5905174807764E+00 -0.1611530416097E+01  0.0000000000000E+00
 0.6020921324114E+00 -0.1543005318085E+01  0.0000000000000E+00
 0.6144671086049E+00 -0.1475222180869E+01  0.0000000000000E+00
 0.6277717915016E+00 -0.1408374092875E+01  0.0000000000000E+00
 0.5225235372561E+00 -0.4230682327857E+01  0.0000000000000E+00
 0.5225470744911E+00 -0.4157320072559E+01  0.0000000000000E+00
 0.5225706117705E+00 -0.4083957678999E+01  0.0000000000000E+00
 0.5225941490704E+00 -0.4010595221668E+01  0.0000000000000E+00
 0.5226176863392E+00 -0.3937232861114E+01  0.0000000000000E+00
 0.5226412236036E+00 -0.3863870514323E+01  0.0000000000000E+00
 0.5226647608710E+00 -0.3790508158210E+01  0.0000000000000E+00
 0.5226882981420E+00 -0.3717145791029E+01  0.0000000000000E+00
 0.5227118354111E+00 -0.3643783429614E+01  0.0000000000000E+00
 0.5227353726805E+00 -0.3570421067194E+01  0.0000000000000E+00
 0.5227589099928E+00 -0.3497058571211E+01  0.0000000000000E+00
 0.5227824472315E+00 -0.3423696304623E+01  0.0000000000000E+00
 0.5228059845402E+00 -0.3350333819576E+01  0.0000000000000E+00
 0.5228295221960E+00 -0.3276970252956E+01  0.0000000000000E+00
 0.5228530590734E+00 -0.3203609112485E+01  0.0000000000000E+00
 0.5228765962774E+00 -0.3130246953910E+01  0.0000000000000E+00
 0.5229001335486E+00 -0.3056884586000E+01  0.0000000000000E+00
 0.5229236708072E+00 -0.2983522257473E+01  0.0000000000000E+00
 0.5229472080352E+00 -0.2910160023909E+01  0.0000000000000E+00
 0.5230094777771E+00 -0.2836797822971E+01  0.0000000000000E+00
 0.5233453261558E+00 -0.2763439121435E+01  0.0000000000000E+00
 0.5242096961996E+00 -0.2690100696814E+01  0.0000000000000E+00
 0.5257557654915E+00 -0.2616814342716E+01  0.0000000000000E+00
 0.5280435777358E+00 -0.2543618364450E+01  0.0000000000000E+00
 0.5310799120018E+00 -0.2470549482845E+01  0.0000000000000E+00
 0.5348509965123E+00 -0.2397640653958E+01  0.0000000000000E+00
 0.5393412553893E+00 -0.2324922991450E+01  0.0000000000000E+00
 0.5445429944141E+00 -0.2252427757564E+01  0.0000000000000E+00
 0.5504618246247E+00 -0.2180191189252E+01  0.0000000000000E+00
 0.5571211794709E+00 -0.2108258111516E+01  0.0000000000000E+00
 0.5645300807020E+00 -0.2036670058793E+01  0.0000000000000E+00
 0.5726425702308E+00 -0.1965441271575E+01  0.0000000000000E+00
 0.5814243764965E+00 -0.1894586675636E+01  0.0000000000000E+00
 0.5908590574180E+00 -0.1824128049987E+01  0.0000000000000E+00
 0.6009460749422E+00 -0.1754096128489E+01  0.0000000000000E+00
 0.6117008354898E+00 -0.1684533794076E+01  0.0000000000000E+00
 0.6231566644279E+00 -0.1615501508160E+01  0.0000000000000E+00
 0.6353698295822E+00 -0.1547083735733E+01  0.0000000000000E+00
 0.6484277818778E+00 -0.1479407921664E+01  0.0000000000000E+00
 0.6624670913015E+00 -0.1412667155710E+01  0.0000000000000E+00
 0.5500197690505E+00 -0.4230795330981E+01  0.0000000000000E+00
 0.5500395380833E+00 -0.4157546078707E+01  0.0000000000000E+00
 0.5500593071533E+00 -0.4084296688383E+01  0.0000000000000E+00
 0.5500790762406E+00 -0.4011047234387E+01  0.0000000000000E+00
 0.5500988453018E+00 -0.3937797877017E+01  0.0000000000000E+00
 0.5501186143593E+00 -0.3864548533391E+01  0.0000000000000E+00
 0.5501383834192E+00 -0.3791299180457E+01  0.0000000000000E+00
 0.5501581524822E+00 -0.3718049816471E+01  0.0000000000000E+00
 0.5501779215436E+00 -0.3644800458244E+01  0.0000000000000E+00
 0.5501976906053E+00 -0.3571551099011E+01  0.0000000000000E+00
 0.5502174597030E+00 -0.3498301606423E+01  0.0000000000000E+00
 0.5502372287388E+00 -0.3425052342876E+01  0.0000000000000E+00
 0.5502569978336E+00 -0.3351802861205E+01  0.0000000000000E+00
 0.5502767672198E+00 -0.3278552299629E+01  0.0000000000000E+00
 0.5502965359522E+00 -0.3205304160464E+01  0.0000000000000E+00
 0.5503163049589E+00 -0.3132055004764E+01  0.0000000000000E+00
 0.5503360740221E+00 -0.3058805640051E+01  0.0000000000000E+00
 0.5503558430746E+00 -0.2985556314660E+01  0.0000000000000E+00
 0.5503756121016E+00 -0.2912307084086E+01  0.0000000000000E+00
 0.5504361521952E+00 -0.2839057886161E+01  0.0000000000000E+00
 0.5507846698348E+00 -0.2765812186996E+01  0.0000000000000E+00
 0.5516895261272E+00 -0.2692586763641E+01  0.0000000000000E+00
 0.5533119606105E+00 -0.2619413410292E+01  0.0000000000000E+00
 0.5557151771680E+00 -0.2546330432637E+01  0.0000000000000E+00
 0.5589063116513E+00 -0.2473374551750E+01  0.0000000000000E+00
 0.5628708674447E+00 -0.2400578723873E+01  0.0000000000000E+00
 0.5675924489065E+00 -0.2327974062217E+01  0.0000000000000E+00
 0.5730629568402E+00 -0.2255591829452E+01  0.0000000000000E+00
 0.5792882976252E+00 -0.2183468261997E+01  0.0000000000000E+00
 0.5862931380511E+00 -0.2111648184856E+01  0.0000000000000E+00
 0.5940869746762E+00 -0.2040173132923E+01  0.0000000000000E+00
 0.6026214305636E+00 -0.1969057346735E+01  0.0000000000000E+00
 0.6118604303908E+00 -0.1898315751957E+01  0.0000000000000E+00
 0.6217866667071E+00 -0.1827970127509E+01  0.0000000000000E+00
 0.6323995731424E+00 -0.1758051207224E+01  0.0000000000000E+00
 0.6437153669844E+00 -0.1688601873979E+01  0.0000000000000E+00
 0.6557691276047E+00 -0.1619682588347E+01  0.0000000000000E+00
 0.6686200842292E+00 -0.1551377816794E+01  0.0000000000000E+00
 0.6823602906046E+00 -0.1483815001033E+01  0.0000000000000E+00
 0.6971335045526E+00 -0.1417187232221E+01  0.0000000000000E+00
 0.5775285217479E+00 -0.4230916136354E+01  0.0000000000000E+00
 0.5775570434703E+00 -0.4157787689344E+01  0.0000000000000E+00
 0.5775855652465E+00 -0.4084659104512E+01  0.0000000000000E+00
 0.5776140870475E+00 -0.4011530456114E+01  0.0000000000000E+00
 0.5776426088109E+00 -0.3938401904183E+01  0.0000000000000E+00
 0.5776711305689E+00 -0.3865273365972E+01  0.0000000000000E+00
 0.5776996523305E+00 -0.3792144818469E+01  0.0000000000000E+00
 0.5777281740965E+00 -0.3719016259932E+01  0.0000000000000E+00
 0.5777566958602E+00 -0.3645887707143E+01  0.0000000000000E+00
 0.5777852176243E+00 -0.3572759153353E+01  0.0000000000000E+00
 0.5778137394403E+00 -0.3499630466425E+01  0.0000000000000E+00
 0.5778422611671E+00 -0.3426502008162E+01  0.0000000000000E+00
 0.5778707829789E+00 -0.3353373332134E+01  0.0000000000000E+00
 0.5778993052112E+00 -0.3280243577982E+01  0.0000000000000E+00
 0.5779278265002E+00 -0.3207116242246E+01  0.0000000000000E+00
 0.5779563481850E+00 -0.3133987891651E+01  0.0000000000000E+00
 0.5779848699513E+00 -0.3060859332388E+01  0.0000000000000E+00
 0.5780133917022E+00 -0.2987730812382E+01  0.0000000000000E+00
 0.5780419134162E+00 -0.2914602387037E+01  0.0000000000000E+00
 0.5781132651049E+00 -0.2841473994368E+01  0.0000000000000E+00
 0.5784871369324E+00 -0.2768349099769E+01  0.0000000000000E+00
 0.5794454419965E+00 -0.2695244479801E+01  0.0000000000000E+00
 0.5811575623438E+00 -0.2622191929285E+01  0.0000000000000E+00
 0.5836898936295E+00 -0.2549229754315E+01  0.0000000000000E+00
 0.5870499320770E+00 -0.2476394676228E+01  0.0000000000000E+00
 0.5912224490155E+00 -0.2403719651464E+01  0.0000000000000E+00
 0.5961902208056E+00 -0.2331235792752E+01  0.0000000000000E+00
 0.6019447392772E+00 -0.2258974363216E+01  0.0000000000000E+00
 0.6084922090405E+00 -0.2186971598711E+01  0.0000000000000E+00
 0.6158585425385E+00 -0.2115272324239E+01  0.0000000000000E+00
 0.6240537159295E+00 -0.2043918075183E+01  0.0000000000000E+00
 0.6330269092831E+00 -0.1972923092128E+01  0.0000000000000E+00
 0.6427402254938E+00 -0.1902302300624E+01  0.0000000000000E+00
 0.6531754830925E+00 -0.1832077479492E+01  0.0000000000000E+00
 0.6643320871059E+00 -0.1762279362538E+01  0.0000000000000E+00
 0.6762270737778E+00 -0.1692950832575E+01  0.0000000000000E+00
 0.6888972939023E+00 -0.1624152349277E+01  0.0000000000000E+00
 0.7024049678359E+00 -0.1555968380692E+01  0.0000000000000E+00
 0.7168467977495E+00 -0.1488526365155E+01  0.0000000000000E+00
 0.7323738012168E+00 -0.1422019395320E+01  0.0000000000000E+00
 0.6050364530268E+00 -0.4231042777871E+01  0.0000000000000E+00
 0.6050729060210E+00 -0.4158040972265E+01  0.0000000000000E+00
 0.6051093590840E+00 -0.4085039029076E+01  0.0000000000000E+00
 0.6051458121786E+00 -0.4012037022431E+01  0.0000000000000E+00
 0.6051822652252E+00 -0.3939035112085E+01  0.0000000000000E+00
 0.6052187182649E+00 -0.3866033215436E+01  0.0000000000000E+00
 0.6052551713092E+00 -0.3793031309511E+01  0.0000000000000E+00
 0.6052916243591E+00 -0.3720029392571E+01  0.0000000000000E+00
 0.6053280774061E+00 -0.3647027481370E+01  0.0000000000000E+00
 0.6053645304536E+00 -0.3574025569168E+01  0.0000000000000E+00
 0.6054009835674E+00 -0.3501023524060E+01  0.0000000000000E+00
 0.6054374365673E+00 -0.3428021707220E+01  0.0000000000000E+00
 0.6054738896757E+00 -0.3355019672994E+01  0.0000000000000E+00
 0.6055103433215E+00 -0.3282016562509E+01  0.0000000000000E+00
 0.6055467957618E+00 -0.3209015866253E+01  0.0000000000000E+00
 0.6055832487080E+00 -0.3136014156895E+01  0.0000000000000E+00
 0.6056197017582E+00 -0.3063012239231E+01  0.0000000000000E+00
 0.6056561547889E+00 -0.2990010360755E+01  0.0000000000000E+00
 0.6056926077723E+00 -0.2917008576777E+01  0.0000000000000E+00
 0.6057739496384E+00 -0.2844006825500E+01  0.0000000000000E+00
 0.6061723542407E+00 -0.2771008571574E+01  0.0000000000000E+00
 0.6071832866711E+00 -0.2698030591041E+01  0.0000000000000E+00
 0.6089842714805E+00 -0.2625104679380E+01  0.0000000000000E+00
 0.6116448960934E+00 -0.2552269143111E+01  0.0000000000000E+00
 0.6151730171029E+00 -0.2479560703844E+01  0.0000000000000E+00
 0.6195526737819E+00 -0.2407012318228E+01  0.0000000000000E+00
 0.6247658144968E+00 -0.2334655098486E+01  0.0000000000000E+00
 0.6308035221003E+00 -0.2262520308222E+01  0.0000000000000E+00
 0.6376722994378E+00 -0.2190644182693E+01  0.0000000000000E+00
 0.6453993046053E+00 -0.2119071546904E+01  0.0000000000000E+00
 0.6539949933580E+00 -0.2047843936749E+01  0.0000000000000E+00
 0.6634061027715E+00 -0.1976975592865E+01  0.0000000000000E+00
 0.6735929139584E+00 -0.1906481440676E+01  0.0000000000000E+00
 0.6845363714316E+00 -0.1836383258907E+01  0.0000000000000E+00
 0.6962358516148E+00 -0.1766711781329E+01  0.0000000000000E+00
 0.7087092097083E+00 -0.1697509890691E+01  0.0000000000000E+00
 0.7219950679352E+00 -0.1628838045726E+01  0.0000000000000E+00
 0.7361586377713E+00 -0.1560780716136E+01  0.0000000000000E+00
 0.7513012698347E+00 -0.1493465336719E+01  0.0000000000000E+00
 0.7675812414413E+00 -0.1427085001696E+01  0.0000000000000E+00
 0.6325435266867E+00 -0.4231175233271E+01  0.0000000000000E+00
 0.6325870533346E+00 -0.4158305882947E+01  0.0000000000000E+00
 0.6326305800645E+00 -0.4085436395290E+01  0.0000000000000E+00
 0.6326741068323E+00 -0.4012566844291E+01  0.0000000000000E+00
 0.6327176335426E+00 -0.3939697389418E+01  0.0000000000000E+00
 0.6327611602448E+00 -0.3866827948216E+01  0.0000000000000E+00
 0.6328046869525E+00 -0.3793958497755E+01  0.0000000000000E+00
 0.6328482136668E+00 -0.3721089036299E+01  0.0000000000000E+00
 0.6328917403776E+00 -0.3648219580572E+01  0.0000000000000E+00
 0.6329352670890E+00 -0.3575350123845E+01  0.0000000000000E+00
 0.6329787938797E+00 -0.3502480534454E+01  0.0000000000000E+00
 0.6330223205343E+00 -0.3429611172916E+01  0.0000000000000E+00
 0.6330658473185E+00 -0.3356741594387E+01  0.0000000000000E+00
 0.6331093747444E+00 -0.3283870941551E+01  0.0000000000000E+00
 0.6331529007309E+00 -0.3211002698565E+01  0.0000000000000E+00
 0.6331964273214E+00 -0.3138133444314E+01  0.0000000000000E+00
 0.6332399540361E+00 -0.3065263982135E+01  0.0000000000000E+00
 0.6332834807274E+00 -0.2992394559074E+01  0.0000000000000E+00
 0.6333270073624E+00 -0.2919525230338E+01  0.0000000000000E+00
 0.6334174817877E+00 -0.2846655934332E+01  0.0000000000000E+00
 0.6338395615515E+00 -0.2773790134923E+01  0.0000000000000E+00
 0.6349022637435E+00 -0.2700944607613E+01  0.0000000000000E+00
 0.6367912554143E+00 -0.2628151148567E+01  0.0000000000000E+00
 0.6395793157545E+00 -0.2555448064753E+01  0.0000000000000E+00
 0.6432746617255E+00 -0.2482872078066E+01  0.0000000000000E+00
 0.6478606005424E+00 -0.2410456145372E+01  0.0000000000000E+00
 0.6533182525806E+00 -0.2338231378367E+01  0.0000000000000E+00
 0.6596382917126E+00 -0.2266229041154E+01  0.0000000000000E+00
 0.6668275190228E+00 -0.2194485368369E+01  0.0000000000000E+00
 0.6749143382604E+00 -0.2123045185016E+01  0.0000000000000E+00
 0.6839096847739E+00 -0.2051950027523E+01  0.0000000000000E+00
 0.6937578526447E+00 -0.1981214136585E+01  0.0000000000000E+00
 0.7044173012042E+00 -0.1910852437495E+01  0.0000000000000E+00
 0.7158681009481E+00 -0.1840886708872E+01  0.0000000000000E+00
 0.7281095996972E+00 -0.1771347684455E+01  0.0000000000000E+00
 0.7411604716089E+00 -0.1702278246925E+01  0.0000000000000E+00
 0.7550611103412E+00 -0.1633738854029E+01  0.0000000000000E+00
 0.7698797184786E+00 -0.1565813977203E+01  0.0000000000000E+00
 0.7857222951103E+00 -0.1498631047541E+01  0.0000000000000E+00
 0.8027543772834E+00 -0.1432383160906E+01  0.0000000000000E+00
 0.6600497070085E+00 -0.4231313479408E+01  0.0000000000000E+00
 0.6600994139727E+00 -0.4158582375098E+01  0.0000000000000E+00
 0.6601491210305E+00 -0.4085851133716E+01  0.0000000000000E+00
 0.6601988281316E+00 -0.4013119829111E+01  0.0000000000000E+00
 0.6602485351671E+00 -0.3940388620450E+01  0.0000000000000E+00
 0.6602982421932E+00 -0.3867657425435E+01  0.0000000000000E+00
 0.6603479492257E+00 -0.3794926221178E+01  0.0000000000000E+00
 0.6603976562657E+00 -0.3722195005947E+01  0.0000000000000E+00
 0.6604473633017E+00 -0.3649463796433E+01  0.0000000000000E+00
 0.6604970703385E+00 -0.3576732585922E+01  0.0000000000000E+00
 0.6605467774657E+00 -0.3504001242998E+01  0.0000000000000E+00
 0.6605964844376E+00 -0.3431270127496E+01  0.0000000000000E+00
 0.6606461915574E+00 -0.3358538795412E+01  0.0000000000000E+00
 0.6606958994101E+00 -0.3285806391062E+01  0.0000000000000E+00
 0.6607456056189E+00 -0.3213076391989E+01  0.0000000000000E+00
 0.6607953125175E+00 -0.3140345383569E+01  0.0000000000000E+00
 0.6608450195580E+00 -0.3067614167617E+01  0.0000000000000E+00
 0.6608947265717E+00 -0.2994882990707E+01  0.0000000000000E+00
 0.6609444335212E+00 -0.2922151907945E+01  0.0000000000000E+00
 0.6610431471685E+00 -0.2849420857941E+01  0.0000000000000E+00
 0.6614880087619E+00 -0.2776693303747E+01  0.0000000000000E+00
 0.6626015873924E+00 -0.2703986020302E+01  0.0000000000000E+00
 0.6645776926062E+00 -0.2631330804486E+01  0.0000000000000E+00
 0.6674922953571E+00 -0.2558765963735E+01  0.0000000000000E+00
 0.6713539729724E+00 -0.2486328220241E+01  0.0000000000000E+00
 0.6761453006083E+00 -0.2414050531099E+01  0.0000000000000E+00
 0.6818465706525E+00 -0.2341964007451E+01  0.0000000000000E+00
 0.6884480479942E+00 -0.2270099913923E+01  0.0000000000000E+00
 0.6959568319607E+00 -0.2198494484502E+01  0.0000000000000E+00
 0.7044025719548E+00 -0.2127192544193E+01  0.0000000000000E+00
 0.7137966829144E+00 -0.2056235629981E+01  0.0000000000000E+00
 0.7240810159262E+00 -0.1985637982619E+01  0.0000000000000E+00
 0.7352122085415E+00 -0.1915414527263E+01  0.0000000000000E+00
 0.7471694572393E+00 -0.1845587042425E+01  0.0000000000000E+00
 0.7599520812379E+00 -0.1776186261808E+01  0.0000000000000E+00
 0.7735795736522E+00 -0.1707255068023E+01  0.0000000000000E+00
 0.7880940995820E+00 -0.1638853917788E+01  0.0000000000000E+00
 0.8035668527085E+00 -0.1571067284346E+01  0.0000000000000E+00
 0.8201084806169E+00 -0.1504022594929E+01  0.0000000000000E+00
 0.8378917800749E+00 -0.1437912947113E+01  0.0000000000000E+00
 0.6875549587707E+00 -0.4231457492273E+01  0.0000000000000E+00
 0.6876099174925E+00 -0.4158870400699E+01  0.0000000000000E+00
 0.6876648763177E+00 -0.4086283172324E+01  0.0000000000000E+00
 0.6877198351908E+00 -0.4013695880853E+01  0.0000000000000E+00
 0.6877747939914E+00 -0.3941108685135E+01  0.0000000000000E+00
 0.6878297527816E+00 -0.3868521503035E+01  0.0000000000000E+00
 0.6878847115788E+00 -0.3795934311712E+01  0.0000000000000E+00
 0.6879396703844E+00 -0.3723347109437E+01  0.0000000000000E+00
 0.6879946291856E+00 -0.3650759912868E+01  0.0000000000000E+00
 0.6880495879875E+00 -0.3578172715304E+01  0.0000000000000E+00
 0.6881045468895E+00 -0.3505585385588E+01  0.0000000000000E+00
 0.6881595056197E+00 -0.3432998282844E+01  0.0000000000000E+00
 0.6882144645135E+00 -0.3360410963949E+01  0.0000000000000E+00
 0.6882694242176E+00 -0.3287822574909E+01  0.0000000000000E+00
 0.6883243821042E+00 -0.3215236586383E+01  0.0000000000000E+00
 0.6883793407534E+00 -0.3142649590510E+01  0.0000000000000E+00
 0.6884342995595E+00 -0.3070062387515E+01  0.0000000000000E+00
 0.6884892583360E+00 -0.2997475223486E+01  0.0000000000000E+00
 0.6885442170415E+00 -0.2924888153416E+01  0.0000000000000E+00
 0.6886502413522E+00 -0.2852301116137E+01  0.0000000000000E+00
 0.6891169562223E+00 -0.2779717573847E+01  0.0000000000000E+00
 0.6902804827484E+00 -0.2707154300899E+01  0.0000000000000E+00
 0.6923427729674E+00 -0.2634643094921E+01  0.0000000000000E+00
 0.6953829895934E+00 -0.2562222263831E+01  0.0000000000000E+00
 0.6994100703178E+00 -0.2489928530135E+01  0.0000000000000E+00
 0.7044058582361E+00 -0.2417794851164E+01  0.0000000000000E+00
 0.7103498177522E+00 -0.2345852337485E+01  0.0000000000000E+00
 0.7172318047682E+00 -0.2274132254268E+01  0.0000000000000E+00
 0.7250592168591E+00 -0.2202670834823E+01  0.0000000000000E+00
 0.7338629490808E+00 -0.2131512904156E+01  0.0000000000000E+00
 0.7436548959572E+00 -0.2060699999834E+01  0.0000000000000E+00
 0.7543744655799E+00 -0.1990246362667E+01  0.0000000000000E+00
 0.7659764737208E+00 -0.1920166917674E+01  0.0000000000000E+00
 0.7784392428430E+00 -0.1850483443250E+01  0.0000000000000E+00
 0.7917620635625E+00 -0.1781226673063E+01  0.0000000000000E+00
 0.8059652479520E+00 -0.1712439489651E+01  0.0000000000000E+00
 0.8210927325603E+00 -0.1644182348659E+01  0.0000000000000E+00
 0.8372187021531E+00 -0.1576539725215E+01  0.0000000000000E+00
 0.8544584528381E+00 -0.1509639042525E+01  0.0000000000000E+00
 0.8729920410917E+00 -0.1443673399950E+01  0.0000000000000E+00
 0.7150592472657E+00 -0.4231607247015E+01  0.0000000000000E+00
 0.7151184944785E+00 -0.4159169910049E+01  0.0000000000000E+00
 0.7151777418030E+00 -0.4086732436564E+01  0.0000000000000E+00
 0.7152369891790E+00 -0.4014294900114E+01  0.0000000000000E+00
 0.7152962364768E+00 -0.3941857459218E+01  0.0000000000000E+00
 0.7153554837636E+00 -0.3869420031913E+01  0.0000000000000E+00
 0.7154147310578E+00 -0.3796982595404E+01  0.0000000000000E+00
 0.7154739783610E+00 -0.3724545147966E+01  0.0000000000000E+00
 0.7155332256595E+00 -0.3652107706221E+01  0.0000000000000E+00
 0.7155924729589E+00 -0.3579670263484E+01  0.0000000000000E+00
 0.7156517203661E+00 -0.3507232688868E+01  0.0000000000000E+00
 0.7157109675880E+00 -0.3434795340755E+01  0.0000000000000E+00
 0.7157702149864E+00 -0.3362357776937E+01  0.0000000000000E+00
 0.7158294632583E+00 -0.3289919145182E+01  0.0000000000000E+00
 0.7158887095708E+00 -0.3217482908988E+01  0.0000000000000E+00
 0.7159479567055E+00 -0.3145045667526E+01  0.0000000000000E+00
 0.7160072040093E+00 -0.3072608219369E+01  0.0000000000000E+00
 0.7160664512812E+00 -0.3000170810097E+01  0.0000000000000E+00
 0.7161256984765E+00 -0.2927733494591E+01  0.0000000000000E+00
 0.7162380701844E+00 -0.2855296211907E+01  0.0000000000000E+00
 0.7167256750711E+00 -0.2782862423360E+01  0.0000000000000E+00
 0.7179381862435E+00 -0.2710448902693E+01  0.0000000000000E+00
 0.7200856982247E+00 -0.2638087448308E+01  0.0000000000000E+00
 0.7232505654860E+00 -0.2565816368629E+01  0.0000000000000E+00
 0.7274420860806E+00 -0.2493672386486E+01  0.0000000000000E+00
 0.7326413710420E+00 -0.2421688459455E+01  0.0000000000000E+00
 0.7388270567937E+00 -0.2349895697507E+01  0.0000000000000E+00
 0.7459885902476E+00 -0.2278325366376E+01  0.0000000000000E+00
 0.7541336672304E+00 -0.2207013698669E+01  0.0000000000000E+00
 0.7632944284514E+00 -0.2136005519392E+01  0.0000000000000E+00
 0.7734832480167E+00 -0.2065342366718E+01  0.0000000000000E+00
 0.7846370910221E+00 -0.1995038481518E+01  0.0000000000000E+00
 0.7967089514612E+00 -0.1925108788663E+01  0.0000000000000E+00
 0.8096762777816E+00 -0.1855575066432E+01  0.0000000000000E+00
 0.8235383319973E+00 -0.1786468048456E+01  0.0000000000000E+00
 0.8383162451398E+00 -0.1717830617193E+01  0.0000000000000E+00
 0.8540557252136E+00 -0.1649723227177E+01  0.0000000000000E+00
 0.8708339480567E+00 -0.1582230355494E+01  0.0000000000000E+00
 0.8887708583262E+00 -0.1515479421163E+01  0.0000000000000E+00
 0.9080537721960E+00 -0.1449663525402E+01  0.0000000000000E+00
 0.7425625383146E+00 -0.4231762717964E+01  0.0000000000000E+00
 0.7426250765734E+00 -0.4159480851809E+01  0.0000000000000E+00
 0.7426876149500E+00 -0.4087198849429E+01  0.0000000000000E+00
 0.7427501533810E+00 -0.4014916784217E+01  0.0000000000000E+00
 0.7428126917296E+00 -0.3942634814355E+01  0.0000000000000E+00
 0.7428752300663E+00 -0.3870352858055E+01  0.0000000000000E+00
 0.7429377684111E+00 -0.3798070892571E+01  0.0000000000000E+00
 0.7430003067652E+00 -0.3725788916180E+01  0.0000000000000E+00
 0.7430628451145E+00 -0.3653506945471E+01  0.0000000000000E+00
 0.7431253834646E+00 -0.3581224973772E+01  0.0000000000000E+00
 0.7431879219286E+00 -0.3508942870477E+01  0.0000000000000E+00
 0.7432504601970E+00 -0.3436660993198E+01  0.0000000000000E+00
 0.7433129986516E+00 -0.3364378900677E+01  0.0000000000000E+00
 0.7433755380283E+00 -0.3292095742512E+01  0.0000000000000E+00
 0.7434380753367E+00 -0.3219814974767E+01  0.0000000000000E+00
 0.7435006135130E+00 -0.3147533203911E+01  0.0000000000000E+00
 0.7435631518678E+00 -0.3075251226803E+01  0.0000000000000E+00
 0.7436256901890E+00 -0.3002969288497E+01  0.0000000000000E+00
 0.7436882284293E+00 -0.2930687443756E+01  0.0000000000000E+00
 0.7438059500894E+00 -0.2858405631870E+01  0.0000000000000E+00
 0.7443134475546E+00 -0.2786127313235E+01  0.0000000000000E+00
 0.7455739459472E+00 -0.2713869260962E+01  0.0000000000000E+00
 0.7478056822717E+00 -0.2641663274258E+01  0.0000000000000E+00
 0.7510942027536E+00 -0.2569547662071E+01  0.0000000000000E+00
 0.7554491658059E+00 -0.2497559147567E+01  0.0000000000000E+00
 0.7608509503981E+00 -0.2425730688578E+01  0.0000000000000E+00
 0.7672773649777E+00 -0.2354093394452E+01  0.0000000000000E+00
 0.7747174474621E+00 -0.2282678531514E+01  0.0000000000000E+00
 0.7831791919347E+00 -0.2211522331637E+01  0.0000000000000E+00
 0.7926959847584E+00 -0.2140669619831E+01  0.0000000000000E+00
 0.8032806796171E+00 -0.2070161934894E+01  0.0000000000000E+00
 0.8148677986107E+00 -0.2000013517763E+01  0.0000000000000E+00
 0.8274085139547E+00 -0.1930239293156E+01  0.0000000000000E+00
 0.8408794000826E+00 -0.1860861039229E+01  0.0000000000000E+00
 0.8552796904064E+00 -0.1791909489574E+01  0.0000000000000E+00
 0.8706313349167E+00 -0.1723427526570E+01  0.0000000000000E+00
 0.8869818130815E+00 -0.1655475603594E+01  0.0000000000000E+00
 0.9044112917983E+00 -0.1588138199765E+01  0.0000000000000E+00
 0.9230443643019E+00 -0.1521542729758E+01  0.0000000000000E+00
 0.9430756064517E+00 -0.1455882296715E+01  0.0000000000000E+00
 0.7700647982821E+00 -0.4231923878657E+01  0.0000000000000E+00
 0.7701295965064E+00 -0.4159803173051E+01  0.0000000000000E+00
 0.7701943948528E+00 -0.4087682331523E+01  0.0000000000000E+00
 0.7702591932555E+00 -0.4015561427305E+01  0.0000000000000E+00
 0.7703239915728E+00 -0.3943440618223E+01  0.0000000000000E+00
 0.7703887898779E+00 -0.3871319822673E+01  0.0000000000000E+00
 0.7704535881912E+00 -0.3799199017960E+01  0.0000000000000E+00
 0.7705183865143E+00 -0.3727078202364E+01  0.0000000000000E+00
 0.7705831848324E+00 -0.3654957392437E+01  0.0000000000000E+00
 0.7706479831513E+00 -0.3582836581522E+01  0.0000000000000E+00
 0.7707127815881E+00 -0.3510715639305E+01  0.0000000000000E+00
 0.7707775798224E+00 -0.3438594922601E+01  0.0000000000000E+00
 0.7708423782496E+00 -0.3366473991133E+01  0.0000000000000E+00
 0.7709071776321E+00 -0.3294351996398E+01  0.0000000000000E+00
 0.7709719748717E+00 -0.3222232386753E+01  0.0000000000000E+00
 0.7710367730106E+00 -0.3150111776233E+01  0.0000000000000E+00
 0.7711015713344E+00 -0.3077990959922E+01  0.0000000000000E+00
 0.7711663696233E+00 -0.3005870182326E+01  0.0000000000000E+00
 0.7712311678284E+00 -0.2933749498087E+01  0.0000000000000E+00
 0.7713532083606E+00 -0.2861628846736E+01  0.0000000000000E+00
 0.7718795673317E+00 -0.2789511687719E+01  0.0000000000000E+00
 0.7731870218849E+00 -0.2717414793489E+01  0.0000000000000E+00
 0.7755019515019E+00 -0.2645369964090E+01  0.0000000000000E+00
 0.7789130941592E+00 -0.2573415509012E+01  0.0000000000000E+00
 0.7834304686275E+00 -0.2501588151769E+01  0.0000000000000E+00
 0.7890337218105E+00 -0.2429920850458E+01  0.0000000000000E+00
 0.7956998341836E+00 -0.2358444713785E+01  0.0000000000000E+00
 0.8034174346658E+00 -0.2287191008681E+01  0.0000000000000E+00
 0.8121948156023E+00 -0.2216195966265E+01  0.0000000000000E+00
 0.8220666090092E+00 -0.2145504411545E+01  0.0000000000000E+00
 0.8330461481448E+00 -0.2075157883972E+01  0.0000000000000E+00
 0.8450655121117E+00 -0.2005170624547E+01  0.0000000000000E+00
 0.8580740513487E+00 -0.1935557557832E+01  0.0000000000000E+00
 0.8720474662756E+00 -0.1866340461856E+01  0.0000000000000E+00
 0.8869849617026E+00 -0.1797550070169E+01  0.0000000000000E+00
 0.9029093065802E+00 -0.1729229265069E+01  0.0000000000000E+00
 0.9198697518478E+00 -0.1661438498734E+01  0.0000000000000E+00
 0.9379494554491E+00 -0.1594262252389E+01  0.0000000000000E+00
 0.9572776592258E+00 -0.1527827936206E+01  0.0000000000000E+00
 0.9780561987112E+00 -0.1462328655324E+01  0.0000000000000E+00
 0.7975659940902E+00 -0.4232090701858E+01  0.0000000000000E+00
 0.7976319881214E+00 -0.4160136819303E+01  0.0000000000000E+00
 0.7976979822771E+00 -0.4088182801141E+01  0.0000000000000E+00
 0.7977639764901E+00 -0.4016228720433E+01  0.0000000000000E+00
 0.7978299706160E+00 -0.3944274734643E+01  0.0000000000000E+00
 0.7978959647296E+00 -0.3872320762352E+01  0.0000000000000E+00
 0.7979619588516E+00 -0.3800366780919E+01  0.0000000000000E+00
 0.7980279529835E+00 -0.3728412788629E+01  0.0000000000000E+00
 0.7980939471102E+00 -0.3656458801995E+01  0.0000000000000E+00
 0.7981599412379E+00 -0.3584504814375E+01  0.0000000000000E+00
 0.7982259354857E+00 -0.3512550695757E+01  0.0000000000000E+00
 0.7982919295271E+00 -0.3440596802130E+01  0.0000000000000E+00
 0.7983579237650E+00 -0.3368642694236E+01  0.0000000000000E+00
 0.7984239189759E+00 -0.3296687525534E+01  0.0000000000000E+00
 0.7984899120043E+00 -0.3224734736406E+01  0.0000000000000E+00
 0.7985559059486E+00 -0.3152780948717E+01  0.0000000000000E+00
 0.7986219000812E+00 -0.3080826955713E+01  0.0000000000000E+00
 0.7986878941783E+00 -0.3008873001336E+01  0.0000000000000E+00
 0.7987538881900E+00 -0.2936919140098E+01  0.0000000000000E+00
 0.7988791834362E+00 -0.2864965311785E+01  0.0000000000000E+00
 0.7994233397633E+00 -0.2793014974856E+01  0.0000000000000E+00
 0.8007766863419E+00 -0.2721084901084E+01  0.0000000000000E+00
 0.8031737451268E+00 -0.2649206891378E+01  0.0000000000000E+00
 0.8067064458421E+00 -0.2577419255790E+01  0.0000000000000E+00
 0.8113851676139E+00 -0.2505758718195E+01  0.0000000000000E+00
 0.8171888252784E+00 -0.2434258236964E+01  0.0000000000000E+00
 0.8240935713432E+00 -0.2362948920137E+01  0.0000000000000E+00
 0.8320876257245E+00 -0.2291862035274E+01  0.0000000000000E+00
 0.8411795790344E+00 -0.2221033812712E+01  0.0000000000000E+00
 0.8514053089427E+00 -0.2150509077459E+01  0.0000000000000E+00
 0.8627786282774E+00 -0.2080329369639E+01  0.0000000000000E+00
 0.8752291731434E+00 -0.2010508930323E+01  0.0000000000000E+00
 0.8887044722034E+00 -0.1941062683910E+01  0.0000000000000E+00
 0.9031793518640E+00 -0.1872012408295E+01  0.0000000000000E+00
 0.9186529883343E+00 -0.1803388836989E+01  0.0000000000000E+00
 0.9351489695250E+00 -0.1735234852202E+01  0.0000000000000E+00
 0.9527183178552E+00 -0.1667610904871E+01  0.0000000000000E+00
 0.9714471823014E+00 -0.1600601478405E+01  0.0000000000000E+00
 0.9914694533427E+00 -0.1534333978313E+01  0.0000000000000E+00
 0.1012994226174E+01 -0.1469001511800E+01  0.0000000000000E+00
 0.8250660921971E+00 -0.4232263159342E+01  0.0000000000000E+00
 0.8251321843352E+00 -0.4160481734118E+01  0.0000000000000E+00
 0.8251982765979E+00 -0.4088700173612E+01  0.0000000000000E+00
 0.8252643689180E+00 -0.4016918550710E+01  0.0000000000000E+00
 0.8253304611510E+00 -0.3945137022497E+01  0.0000000000000E+00
 0.8253965533715E+00 -0.3873355507753E+01  0.0000000000000E+00
 0.8254626456005E+00 -0.3801573983887E+01  0.0000000000000E+00
 0.8255287378394E+00 -0.3729792449191E+01  0.0000000000000E+00
 0.8255948300731E+00 -0.3658010920137E+01  0.0000000000000E+00
 0.8256609223078E+00 -0.3586229390100E+01  0.0000000000000E+00
 0.8257270146627E+00 -0.3514447729378E+01  0.0000000000000E+00
 0.8257931068110E+00 -0.3442666293108E+01  0.0000000000000E+00
 0.8258591991561E+00 -0.3370884643085E+01  0.0000000000000E+00
 0.8259252924756E+00 -0.3299101934797E+01  0.0000000000000E+00
 0.8259913836094E+00 -0.3227321600378E+01  0.0000000000000E+00
 0.8260574756604E+00 -0.3155540269793E+01  0.0000000000000E+00
 0.8261235679000E+00 -0.3083758734385E+01  0.0000000000000E+00
 0.8261896601041E+00 -0.3011977237510E+01  0.0000000000000E+00
 0.8262557522226E+00 -0.2940195833552E+01  0.0000000000000E+00
 0.8263832044815E+00 -0.2868414462554E+01  0.0000000000000E+00
 0.8269440604613E+00 -0.2796636581959E+01  0.0000000000000E+00
 0.8283422013566E+00 -0.2724878962837E+01  0.0000000000000E+00
 0.8308202915846E+00 -0.2653173406991E+01  0.0000000000000E+00
 0.8344734526118E+00 -0.2581558225052E+01  0.0000000000000E+00
 0.8393124239173E+00 -0.2510070141269E+01  0.0000000000000E+00
 0.8453153882681E+00 -0.2438742114296E+01  0.0000000000000E+00
 0.8524576702087E+00 -0.2367605251486E+01  0.0000000000000E+00
 0.8607270806491E+00 -0.2296690821050E+01  0.0000000000000E+00
 0.8701325084729E+00 -0.2226035052513E+01  0.0000000000000E+00
 0.8807110770029E+00 -0.2155682770885E+01  0.0000000000000E+00
 0.8924770786323E+00 -0.2085675516987E+01  0.0000000000000E+00
 0.9053577064690E+00 -0.2016027531960E+01  0.0000000000000E+00
 0.9192986674019E+00 -0.1946753740033E+01  0.0000000000000E+00
 0.9342739138258E+00 -0.1877875918969E+01  0.0000000000000E+00
 0.9502825933488E+00 -0.1809424802232E+01  0.0000000000000E+00
 0.9673491128421E+00 -0.1741443271944E+01  0.0000000000000E+00
 0.9855262662115E+00 -0.1673991777762E+01  0.0000000000000E+00
 0.1004903193450E+01 -0.1607154805347E+01  0.0000000000000E+00
 0.1025618433703E+01 -0.1541059755389E+01  0.0000000000000E+00
 0.1047888341808E+01 -0.1475899737231E+01  0.0000000000000E+00
 0.8525650614762E+00 -0.4232441222572E+01  0.0000000000000E+00
 0.8526301228944E+00 -0.4160837860419E+01  0.0000000000000E+00
 0.8526951844352E+00 -0.4089234363318E+01  0.0000000000000E+00
 0.8527602460326E+00 -0.4017630803977E+01  0.0000000000000E+00
 0.8528253075442E+00 -0.3946027339091E+01  0.0000000000000E+00
 0.8528903690435E+00 -0.3874423887639E+01  0.0000000000000E+00
 0.8529554305511E+00 -0.3802820427089E+01  0.0000000000000E+00
 0.8530204920685E+00 -0.3731216955735E+01  0.0000000000000E+00
 0.8530855535808E+00 -0.3659613490009E+01  0.0000000000000E+00
 0.8531506150940E+00 -0.3588010023303E+01  0.0000000000000E+00
 0.8532156767257E+00 -0.3516406426235E+01  0.0000000000000E+00
 0.8532807381539E+00 -0.3444803053064E+01  0.0000000000000E+00
 0.8533457997758E+00 -0.3373199466669E+01  0.0000000000000E+00
 0.8534108623570E+00 -0.3301594824634E+01  0.0000000000000E+00
 0.8534759227865E+00 -0.3229992550580E+01  0.0000000000000E+00
 0.8535409841189E+00 -0.3158389282831E+01  0.0000000000000E+00
 0.8536060456369E+00 -0.3086785810767E+01  0.0000000000000E+00
 0.8536711071201E+00 -0.3015182377140E+01  0.0000000000000E+00
 0.8537361685190E+00 -0.2943579036201E+01  0.0000000000000E+00
 0.8538646489641E+00 -0.2871975728258E+01  0.0000000000000E+00
 0.8544410757777E+00 -0.2800375909705E+01  0.0000000000000E+00
 0.8558828821841E+00 -0.2728796350886E+01  0.0000000000000E+00
 0.8584408750580E+00 -0.2657268854525E+01  0.0000000000000E+00
 0.8622133676045E+00 -0.2585831731856E+01  0.0000000000000E+00
 0.8672114596532E+00 -0.2514521707511E+01  0.0000000000000E+00
 0.8734126019002E+00 -0.2443371740437E+01  0.0000000000000E+00
 0.8807912909314E+00 -0.2372412937276E+01  0.0000000000000E+00
 0.8893349286460E+00 -0.2301676566911E+01  0.0000000000000E+00
 0.8990527022045E+00 -0.2231198858032E+01  0.0000000000000E+00
 0.9099829805832E+00 -0.2161024635649E+01  0.0000000000000E+00
 0.9221405357354E+00 -0.2091195441301E+01  0.0000000000000E+00
 0.9354501177719E+00 -0.2021725516204E+01  0.0000000000000E+00
 0.9498556118082E+00 -0.1952629784413E+01  0.0000000000000E+00
 0.9653300962285E+00 -0.1883930023548E+01  0.0000000000000E+00
 0.9818726900401E+00 -0.1815656967030E+01  0.0000000000000E+00
 0.9995086190752E+00 -0.1747853496891E+01  0.0000000000000E+00
 0.1018292448735E+01 -0.1680580061460E+01  0.0000000000000E+00
 0.1038316310015E+01 -0.1613921148730E+01  0.0000000000000E+00
 0.1059723390757E+01 -0.1548004154413E+01  0.0000000000000E+00
 0.1082737305430E+01 -0.1483022190057E+01  0.0000000000000E+00
 0.8800628706507E+00 -0.4232624862149E+01  0.0000000000000E+00
 0.8801257412452E+00 -0.4161205139410E+01  0.0000000000000E+00
 0.8801886119583E+00 -0.4089785282070E+01  0.0000000000000E+00
 0.8802514827260E+00 -0.4018365362649E+01  0.0000000000000E+00
 0.8803143534107E+00 -0.3946945537440E+01  0.0000000000000E+00
 0.8803772240837E+00 -0.3875525725631E+01  0.0000000000000E+00
 0.8804400947647E+00 -0.3804105904747E+01  0.0000000000000E+00
 0.8805029654551E+00 -0.3732686073087E+01  0.0000000000000E+00
 0.8805658361406E+00 -0.3661266247042E+01  0.0000000000000E+00
 0.8806287068270E+00 -0.3589846420017E+01  0.0000000000000E+00
 0.8806915776278E+00 -0.3518426462966E+01  0.0000000000000E+00
 0.8807544482321E+00 -0.3447006729237E+01  0.0000000000000E+00
 0.8808173190235E+00 -0.3375586782831E+01  0.0000000000000E+00
 0.8808801907419E+00 -0.3304165783493E+01  0.0000000000000E+00
 0.8809430603810E+00 -0.3232747146062E+01  0.0000000000000E+00
 0.8810059308927E+00 -0.3161327517485E+01  0.0000000000000E+00
 0.8810688015838E+00 -0.3089907685116E+01  0.0000000000000E+00
 0.8811316722411E+00 -0.3018487891087E+01  0.0000000000000E+00
 0.8811945428171E+00 -0.2947068189507E+01  0.0000000000000E+00
 0.8813228913452E+00 -0.2875648520963E+01  0.0000000000000E+00
 0.8819137288988E+00 -0.2804232340763E+01  0.0000000000000E+00
 0.8833980407394E+00 -0.2732836418503E+01  0.0000000000000E+00
 0.8860347761945E+00 -0.2661492557860E+01  0.0000000000000E+00
 0.8899254402048E+00 -0.2590239070684E+01  0.0000000000000E+00
 0.8950814929478E+00 -0.2519112682006E+01  0.0000000000000E+00
 0.9014796530467E+00 -0.2448146351075E+01  0.0000000000000E+00
 0.9090935891332E+00 -0.2377371183799E+01  0.0000000000000E+00
 0.9179102940913E+00 -0.2306818449755E+01  0.0000000000000E+00
 0.9279392533642E+00 -0.2236524376770E+01  0.0000000000000E+00
 0.9392200815813E+00 -0.2166533789856E+01  0.0000000000000E+00
 0.9517680302519E+00 -0.2096888231292E+01  0.0000000000000E+00
 0.9655054064884E+00 -0.2027601942369E+01  0.0000000000000E+00
 0.9803742736342E+00 -0.1958689846964E+01  0.0000000000000E+00
 0.9963468360632E+00 -0.1890173722552E+01  0.0000000000000E+00
 0.1013422184182E+01 -0.1822084302508E+01  0.0000000000000E+00
 0.1031626362785E+01 -0.1754464468768E+01  0.0000000000000E+00
 0.1051015708778E+01 -0.1687374668298E+01  0.0000000000000E+00
 0.1071685344144E+01 -0.1620899391489E+01  0.0000000000000E+00
 0.1093783105455E+01 -0.1555166028923E+01  0.0000000000000E+00
 0.1117539866798E+01 -0.1490367694424E+01  0.0000000000000E+00
 0.9075594889833E+00 -0.4232814047991E+01  0.0000000000000E+00
 0.9076189779134E+00 -0.4161583510925E+01  0.0000000000000E+00
 0.9076784669557E+00 -0.4090352839614E+01  0.0000000000000E+00
 0.9077379560498E+00 -0.4019122106386E+01  0.0000000000000E+00
 0.9077974450653E+00 -0.3947891467122E+01  0.0000000000000E+00
 0.9078569340697E+00 -0.3876660841222E+01  0.0000000000000E+00
 0.9079164230816E+00 -0.3805430206271E+01  0.0000000000000E+00
 0.9079759121025E+00 -0.3734199560572E+01  0.0000000000000E+00
 0.9080354011187E+00 -0.3662968920473E+01  0.0000000000000E+00
 0.9080948901358E+00 -0.3591738279397E+01  0.0000000000000E+00
 0.9081543792612E+00 -0.3520507508640E+01  0.0000000000000E+00
 0.9082138682005E+00 -0.3449276960612E+01  0.0000000000000E+00
 0.9082733573170E+00 -0.3378046200472E+01  0.0000000000000E+00
 0.9083328473105E+00 -0.3306814390188E+01  0.0000000000000E+00
 0.9083923353367E+00 -0.3235584935555E+01  0.0000000000000E+00
 0.9084518241884E+00 -0.3164354492402E+01  0.0000000000000E+00
 0.9085113132099E+00 -0.3093123845996E+01  0.0000000000000E+00
 0.9085708021995E+00 -0.3021893237829E+01  0.0000000000000E+00
 0.9086302911121E+00 -0.2950662721865E+01  0.0000000000000E+00
 0.9087573168832E+00 -0.2879432238978E+01  0.0000000000000E+00
 0.9093613743473E+00 -0.2808205243358E+01  0.0000000000000E+00
 0.9108870008119E+00 -0.2736998503829E+01  0.0000000000000E+00
 0.9136012880531E+00 -0.2665843825050E+01  0.0000000000000E+00
 0.9176089327442E+00 -0.2594779519508E+01  0.0000000000000E+00
 0.9229217554080E+00 -0.2523842312644E+01  0.0000000000000E+00
 0.9295157425928E+00 -0.2453065164015E+01  0.0000000000000E+00
 0.9373637349804E+00 -0.2382479178777E+01  0.0000000000000E+00
 0.9464523164353E+00 -0.2312115627219E+01  0.0000000000000E+00
 0.9567912706887E+00 -0.2242010736282E+01  0.0000000000000E+00
 0.9684214580236E+00 -0.2172209330975E+01  0.0000000000000E+00
 0.9813586095009E+00 -0.2102752954344E+01  0.0000000000000E+00
 0.9955225892331E+00 -0.2033655847757E+01  0.0000000000000E+00
 0.1010853638792E+01 -0.1964932934906E+01  0.0000000000000E+00
 0.1027323088543E+01 -0.1896605993116E+01  0.0000000000000E+00
 0.1044930000291E+01 -0.1828705755716E+01  0.0000000000000E+00
 0.1063701237794E+01 -0.1761275104543E+01  0.0000000000000E+00
 0.1083694909471E+01 -0.1694374485157E+01  0.0000000000000E+00
 0.1105009128278E+01 -0.1628088390423E+01  0.0000000000000E+00
 0.1127796379553E+01 -0.1562544205636E+01  0.0000000000000E+00
 0.1152294796986E+01 -0.1497935046963E+01  0.0000000000000E+00
 0.9350548858195E+00 -0.4233008749224E+01  0.0000000000000E+00
 0.9351097715901E+00 -0.4161972913217E+01  0.0000000000000E+00
 0.9351646574641E+00 -0.4090936943333E+01  0.0000000000000E+00
 0.9352195433858E+00 -0.4019900911701E+01  0.0000000000000E+00
 0.9352744292350E+00 -0.3948864973775E+01  0.0000000000000E+00
 0.9353293150740E+00 -0.3877829049177E+01  0.0000000000000E+00
 0.9353842009200E+00 -0.3806793115553E+01  0.0000000000000E+00
 0.9354390867743E+00 -0.3735757171211E+01  0.0000000000000E+00
 0.9354939726242E+00 -0.3664721232452E+01  0.0000000000000E+00
 0.9355488584749E+00 -0.3593685292720E+01  0.0000000000000E+00
 0.9356037444255E+00 -0.3522649223661E+01  0.0000000000000E+00
 0.9356586302045E+00 -0.3451613376723E+01  0.0000000000000E+00
 0.9357135161469E+00 -0.3380577318253E+01  0.0000000000000E+00
 0.9357684028986E+00 -0.3309540212508E+01  0.0000000000000E+00
 0.9358232878350E+00 -0.3238505455976E+01  0.0000000000000E+00
 0.9358781735332E+00 -0.3167469713625E+01  0.0000000000000E+00
 0.9359330593880E+00 -0.3096433768578E+01  0.0000000000000E+00
 0.9359879452134E+00 -0.3025397861664E+01  0.0000000000000E+00
 0.9360428309677E+00 -0.2954362046702E+01  0.0000000000000E+00
 0.9361673124864E+00 -0.2883326264858E+01  0.0000000000000E+00
 0.9367833683722E+00 -0.2812293969172E+01  0.0000000000000E+00
 0.9383490879822E+00 -0.2741281927676E+01  0.0000000000000E+00
 0.9411397055351E+00 -0.2670321946037E+01  0.0000000000000E+00
 0.9452631094320E+00 -0.2599452337398E+01  0.0000000000000E+00
 0.9507314805386E+00 -0.2528709827621E+01  0.0000000000000E+00
 0.9575200733262E+00 -0.2458127376583E+01  0.0000000000000E+00
 0.9656009005317E+00 -0.2387736088663E+01  0.0000000000000E+00
 0.9749601369954E+00 -0.2317567234886E+01  0.0000000000000E+00
 0.9856078647423E+00 -0.2247657041276E+01  0.0000000000000E+00
 0.9975861897091E+00 -0.2178050332845E+01  0.0000000000000E+00
 0.1010911322503E+01 -0.2108788653425E+01  0.0000000000000E+00
 0.1025500684237E+01 -0.2039886244463E+01  0.0000000000000E+00
 0.1041292694711E+01 -0.1971358029462E+01  0.0000000000000E+00
 0.1058257810283E+01 -0.1903225785592E+01  0.0000000000000E+00
 0.1076395064160E+01 -0.1835520246133E+01  0.0000000000000E+00
 0.1095732139060E+01 -0.1768284292824E+01  0.0000000000000E+00
 0.1116328914927E+01 -0.1701578369774E+01  0.0000000000000E+00
 0.1138286495672E+01 -0.1635486972397E+01  0.0000000000000E+00
 0.1161762015432E+01 -0.1570137480546E+01  0.0000000000000E+00
 0.1187000867489E+01 -0.1505723012798E+01  0.0000000000000E+00
 0.9625490308455E+00 -0.4233208934261E+01  0.0000000000000E+00
 0.9625980616473E+00 -0.4162373283113E+01  0.0000000000000E+00
 0.9626470925415E+00 -0.4091537498464E+01  0.0000000000000E+00
 0.9626961234783E+00 -0.4020701652242E+01  0.0000000000000E+00
 0.9627451543504E+00 -0.3949865899462E+01  0.0000000000000E+00
 0.9627941852133E+00 -0.3879030159972E+01  0.0000000000000E+00
 0.9628432160825E+00 -0.3808194411481E+01  0.0000000000000E+00
 0.9628922469590E+00 -0.3737358652303E+01  0.0000000000000E+00
 0.9629412778317E+00 -0.3666522898693E+01  0.0000000000000E+00
 0.9629903087051E+00 -0.3595687144111E+01  0.0000000000000E+00
 0.9630393396677E+00 -0.3524851260568E+01  0.0000000000000E+00
 0.9630883704770E+00 -0.3454015598519E+01  0.0000000000000E+00
 0.9631374014324E+00 -0.3383179725533E+01  0.0000000000000E+00
 0.9631864331105E+00 -0.3312342808225E+01  0.0000000000000E+00
 0.9632354631672E+00 -0.3241508233510E+01  0.0000000000000E+00
 0.9632844939044E+00 -0.3170672675753E+01  0.0000000000000E+00
 0.9633335247814E+00 -0.3099836915872E+01  0.0000000000000E+00
 0.9633825556321E+00 -0.3029001194016E+01  0.0000000000000E+00
 0.9634315864194E+00 -0.2958165563854E+01  0.0000000000000E+00
 0.9635522718756E+00 -0.2887329966851E+01  0.0000000000000E+00
 0.9641790743716E+00 -0.2816497854867E+01  0.0000000000000E+00
 0.9657836353121E+00 -0.2745685995118E+01  0.0000000000000E+00
 0.9686493313466E+00 -0.2674926194307E+01  0.0000000000000E+00
 0.9728872425984E+00 -0.2604256766253E+01  0.0000000000000E+00
 0.9785099102731E+00 -0.2533714437250E+01  0.0000000000000E+00
 0.9854918567633E+00 -0.2463332167505E+01  0.0000000000000E+00
 0.9938042668667E+00 -0.2393141060596E+01  0.0000000000000E+00
 0.1003432906395E+01 -0.2323172388306E+01  0.0000000000000E+00
 0.1014388155672E+01 -0.2253462375718E+01  0.0000000000000E+00
 0.1026713366288E+01 -0.2184055847844E+01  0.0000000000000E+00
 0.1040425228390E+01 -0.2114994349325E+01  0.0000000000000E+00
 0.1055438720094E+01 -0.2046292121691E+01  0.0000000000000E+00
 0.1071690439431E+01 -0.1977964088247E+01  0.0000000000000E+00
 0.1089149968751E+01 -0.1910032026008E+01  0.0000000000000E+00
 0.1107816312662E+01 -0.1842526668202E+01  0.0000000000000E+00
 0.1127717972847E+01 -0.1775490896466E+01  0.0000000000000E+00
 0.1148916600779E+01 -0.1708985153419E+01  0.0000000000000E+00
 0.1171516291308E+01 -0.1643093937094E+01  0.0000000000000E+00
 0.1195678827404E+01 -0.1577944621747E+01  0.0000000000000E+00
 0.1221656861916E+01 -0.1513730328440E+01  0.0000000000000E+00
 0.9900418963175E+00 -0.4233414571432E+01  0.0000000000000E+00
 0.9900837925975E+00 -0.4162784557271E+01  0.0000000000000E+00
 0.9901256889566E+00 -0.4092154409997E+01  0.0000000000000E+00
 0.9901675853520E+00 -0.4021524201328E+01  0.0000000000000E+00
 0.9902094816922E+00 -0.3950894085830E+01  0.0000000000000E+00
 0.9902513780245E+00 -0.3880263983584E+01  0.0000000000000E+00
 0.9902932743622E+00 -0.3809633872364E+01  0.0000000000000E+00
 0.9903351707061E+00 -0.3739003750486E+01  0.0000000000000E+00
 0.9903770670468E+00 -0.3668373634161E+01  0.0000000000000E+00
 0.9904189633881E+00 -0.3597743516867E+01  0.0000000000000E+00
 0.9904608598056E+00 -0.3527113270985E+01  0.0000000000000E+00
 0.9905027560921E+00 -0.3456483245955E+01  0.0000000000000E+00
 0.9905446525034E+00 -0.3385853010601E+01  0.0000000000000E+00
 0.9905865495323E+00 -0.3315221733956E+01  0.0000000000000E+00
 0.9906284451757E+00 -0.3244592793103E+01  0.0000000000000E+00
 0.9906703414006E+00 -0.3173962872062E+01  0.0000000000000E+00
 0.9907122377450E+00 -0.3103332749484E+01  0.0000000000000E+00
 0.9907541340669E+00 -0.3032702664821E+01  0.0000000000000E+00
 0.9907960303345E+00 -0.2962072671585E+01  0.0000000000000E+00
 0.9909116401763E+00 -0.2891442711552E+01  0.0000000000000E+00
 0.9915479097436E+00 -0.2820816235367E+01  0.0000000000000E+00
 0.9931900324991E+00 -0.2750210009408E+01  0.0000000000000E+00
 0.9961295275201E+00 -0.2679655841445E+01  0.0000000000000E+00
 0.1000480666649E+01 -0.2609192045989E+01  0.0000000000000E+00
 0.1006256351428E+01 -0.2538855349777E+01  0.0000000000000E+00
 0.1013430372169E+01 -0.2468678713357E+01  0.0000000000000E+00
 0.1021973085736E+01 -0.2398693239484E+01  0.0000000000000E+00
 0.1031869848906E+01 -0.2328930200717E+01  0.0000000000000E+00
 0.1043131340308E+01 -0.2259425821175E+01  0.0000000000000E+00
 0.1055802157187E+01 -0.2190224925870E+01  0.0000000000000E+00
 0.1069899469226E+01 -0.2121369060273E+01  0.0000000000000E+00
 0.1085335811539E+01 -0.2052872465999E+01  0.0000000000000E+00
 0.1102045960391E+01 -0.1984750066153E+01  0.0000000000000E+00
 0.1119998624125E+01 -0.1917023637585E+01  0.0000000000000E+00
 0.1139192778749E+01 -0.1849723913474E+01  0.0000000000000E+00
 0.1159657744912E+01 -0.1782893775349E+01  0.0000000000000E+00
 0.1181456945627E+01 -0.1716593664302E+01  0.0000000000000E+00
 0.1204697466668E+01 -0.1650908081054E+01  0.0000000000000E+00
 0.1229545739873E+01 -0.1585964394114E+01  0.0000000000000E+00
 0.1256261677649E+01 -0.1521955727091E+01  0.0000000000000E+00
 0.1017533454000E+01 -0.4233625628207E+01  0.0000000000000E+00
 0.1017566907971E+01 -0.4163206670632E+01  0.0000000000000E+00
 0.1017600362004E+01 -0.4092787580343E+01  0.0000000000000E+00
 0.1017633816067E+01 -0.4022368428842E+01  0.0000000000000E+00
 0.1017667270085E+01 -0.3951949370234E+01  0.0000000000000E+00
 0.1017700724097E+01 -0.3881530324838E+01  0.0000000000000E+00
 0.1017734178114E+01 -0.3811111270494E+01  0.0000000000000E+00
 0.1017767632135E+01 -0.3740692205524E+01  0.0000000000000E+00
 0.1017801086154E+01 -0.3670273146091E+01  0.0000000000000E+00
 0.1017834540173E+01 -0.3599854085692E+01  0.0000000000000E+00
 0.1017867994254E+01 -0.3529434897089E+01  0.0000000000000E+00
 0.1017901448229E+01 -0.3459015928678E+01  0.0000000000000E+00
 0.1017934902304E+01 -0.3388596750572E+01  0.0000000000000E+00
 0.1017968356873E+01 -0.3318176534286E+01  0.0000000000000E+00
 0.1018001810335E+01 -0.3247758646812E+01  0.0000000000000E+00
 0.1018035264261E+01 -0.3177339782080E+01  0.0000000000000E+00
 0.1018068718283E+01 -0.3106920716413E+01  0.0000000000000E+00
 0.1018102172287E+01 -0.3036501688547E+01  0.0000000000000E+00
 0.1018135626247E+01 -0.2966082751835E+01  0.0000000000000E+00
 0.1018244852688E+01 -0.2895663848371E+01  0.0000000000000E+00
 0.1018889281555E+01 -0.2825248427553E+01  0.0000000000000E+00
 0.1020567658381E+01 -0.2754853254900E+01  0.0000000000000E+00
 0.1023579644669E+01 -0.2684510139275E+01  0.0000000000000E+00
 0.1028042703977E+01 -0.2614257395899E+01  0.0000000000000E+00
 0.1033970098182E+01 -0.2544131751969E+01  0.0000000000000E+00
 0.1041334885514E+01 -0.2474166168375E+01  0.0000000000000E+00
 0.1050106594904E+01 -0.2404391747033E+01  0.0000000000000E+00
 0.1060270174092E+01 -0.2334839761298E+01  0.0000000000000E+00
 0.1071836600020E+01 -0.2265546434297E+01  0.0000000000000E+00
 0.1084851715585E+01 -0.2196556591045E+01  0.0000000000000E+00
 0.1099333170002E+01 -0.2127911777862E+01  0.0000000000000E+00
 0.1115191055382E+01 -0.2059626236452E+01  0.0000000000000E+00
 0.1132358326224E+01 -0.1991714889712E+01  0.0000000000000E+00
 0.1150802816865E+01 -0.1924199514328E+01  0.0000000000000E+00
 0.1170523474713E+01 -0.1857110843424E+01  0.0000000000000E+00
 0.1191550439383E+01 -0.1790491758421E+01  0.0000000000000E+00
 0.1213948905440E+01 -0.1724402698843E+01  0.0000000000000E+00
 0.1237828949566E+01 -0.1658928168167E+01  0.0000000000000E+00
 0.1263361652507E+01 -0.1594195529007E+01  0.0000000000000E+00
 0.1290814186213E+01 -0.1530397907585E+01  0.0000000000000E+00
 0.1045023674235E+01 -0.4233842070904E+01  0.0000000000000E+00
 0.1045047348449E+01 -0.4163639555833E+01  0.0000000000000E+00
 0.1045071022707E+01 -0.4093436908455E+01  0.0000000000000E+00
 0.1045094696986E+01 -0.4023234200054E+01  0.0000000000000E+00
 0.1045118371233E+01 -0.3953031584260E+01  0.0000000000000E+00
 0.1045142045477E+01 -0.3882828981637E+01  0.0000000000000E+00
 0.1045165719723E+01 -0.3812626370094E+01  0.0000000000000E+00
 0.1045189393973E+01 -0.3742423747959E+01  0.0000000000000E+00
 0.1045213068221E+01 -0.3672221131342E+01  0.0000000000000E+00
 0.1045236742469E+01 -0.3602018513763E+01  0.0000000000000E+00
 0.1045260416760E+01 -0.3531815768374E+01  0.0000000000000E+00
 0.1045284090977E+01 -0.3461613242500E+01  0.0000000000000E+00
 0.1045307765265E+01 -0.3391410507575E+01  0.0000000000000E+00
 0.1045331439902E+01 -0.3321206737662E+01  0.0000000000000E+00
 0.1045355113756E+01 -0.3251005289403E+01  0.0000000000000E+00
 0.1045378787939E+01 -0.3180802866889E+01  0.0000000000000E+00
 0.1045402462189E+01 -0.3110600244057E+01  0.0000000000000E+00
 0.1045426136426E+01 -0.3040397658911E+01  0.0000000000000E+00
 0.1045449810633E+01 -0.2970195164638E+01  0.0000000000000E+00
 0.1045551316223E+01 -0.2899992703660E+01  0.0000000000000E+00
 0.1046202566935E+01 -0.2829793724095E+01  0.0000000000000E+00
 0.1047915860364E+01 -0.2759614990581E+01  0.0000000000000E+00
 0.1050999000424E+01 -0.2689488313102E+01  0.0000000000000E+00
 0.1055572642382E+01 -0.2619452007610E+01  0.0000000000000E+00
 0.1061650408446E+01 -0.2549542801767E+01  0.0000000000000E+00
 0.1069204624761E+01 -0.2479793656821E+01  0.0000000000000E+00
 0.1078203992335E+01 -0.2410235673824E+01  0.0000000000000E+00
 0.1088633049863E+01 -0.2340900126947E+01  0.0000000000000E+00
 0.1100503072607E+01 -0.2271823238302E+01  0.0000000000000E+00
 0.1113861149115E+01 -0.2203049832902E+01  0.0000000000000E+00
 0.1128725408128E+01 -0.2134621457944E+01  0.0000000000000E+00
 0.1145003498756E+01 -0.2066552355220E+01  0.0000000000000E+00
 0.1162626553734E+01 -0.1998857447416E+01  0.0000000000000E+00
 0.1181561533394E+01 -0.1931558511045E+01  0.0000000000000E+00
 0.1201807356548E+01 -0.1864686279179E+01  0.0000000000000E+00
 0.1223394981775E+01 -0.1798283633127E+01  0.0000000000000E+00
 0.1246391375200E+01 -0.1732411010803E+01  0.0000000000000E+00
 0.1270909604393E+01 -0.1667152918514E+01  0.0000000000000E+00
 0.1297125399040E+01 -0.1602636712827E+01  0.0000000000000E+00
 0.1325313190613E+01 -0.1539055522643E+01  0.0000000000000E+00
 0.1072512531546E+01 -0.4234063866321E+01  0.0000000000000E+00
 0.1072525063080E+01 -0.4164083146470E+01  0.0000000000000E+00
 0.1072537594638E+01 -0.4094102294730E+01  0.0000000000000E+00
 0.1072550126207E+01 -0.4024121382159E+01  0.0000000000000E+00
 0.1072562657759E+01 -0.3954140561902E+01  0.0000000000000E+00
 0.1072575189309E+01 -0.3884159754776E+01  0.0000000000000E+00
 0.1072587720861E+01 -0.3814178938758E+01  0.0000000000000E+00
 0.1072600252414E+01 -0.3744198112180E+01  0.0000000000000E+00
 0.1072612783967E+01 -0.3674217291104E+01  0.0000000000000E+00
 0.1072625315520E+01 -0.3604236469068E+01  0.0000000000000E+00
 0.1072637847095E+01 -0.3534255519626E+01  0.0000000000000E+00
 0.1072650378631E+01 -0.3464274789006E+01  0.0000000000000E+00
 0.1072662910205E+01 -0.3394293849995E+01  0.0000000000000E+00
 0.1072675441964E+01 -0.3324311879266E+01  0.0000000000000E+00
 0.1072687973307E+01 -0.3254332222856E+01  0.0000000000000E+00
 0.1072700504825E+01 -0.3184351595269E+01  0.0000000000000E+00
 0.1072713036379E+01 -0.3114370767997E+01  0.0000000000000E+00
 0.1072725567926E+01 -0.3044389978293E+01  0.0000000000000E+00
 0.1072738099457E+01 -0.2974409279174E+01  0.0000000000000E+00
 0.1072830521275E+01 -0.2904428613396E+01  0.0000000000000E+00
 0.1073487230923E+01 -0.2834451427769E+01  0.0000000000000E+00
 0.1075234078069E+01 -0.2764494486027E+01  0.0000000000000E+00
 0.1078387009034E+01 -0.2694589599303E+01  0.0000000000000E+00
 0.1083069870790E+01 -0.2624775084295E+01  0.0000000000000E+00
 0.1089296645875E+01 -0.2555087669146E+01  0.0000000000000E+00
 0.1097038928343E+01 -0.2485560315469E+01  0.0000000000000E+00
 0.1106264591286E+01 -0.2416224123429E+01  0.0000000000000E+00
 0.1116957764351E+01 -0.2347110368037E+01  0.0000000000000E+00
 0.1129130021121E+01 -0.2278255270360E+01  0.0000000000000E+00
 0.1142829695801E+01 -0.2209703655415E+01  0.0000000000000E+00
 0.1158075396650E+01 -0.2141497071292E+01  0.0000000000000E+00
 0.1174772329777E+01 -0.2073649759875E+01  0.0000000000000E+00
 0.1192849806151E+01 -0.2006176643634E+01  0.0000000000000E+00
 0.1212273912104E+01 -0.1939099498907E+01  0.0000000000000E+00
 0.1233043537849E+01 -0.1872449058708E+01  0.0000000000000E+00
 0.1255190460929E+01 -0.1806268204236E+01  0.0000000000000E+00
 0.1278783419043E+01 -0.1740617371751E+01  0.0000000000000E+00
 0.1303938470630E+01 -0.1675581070464E+01  0.0000000000000E+00
 0.1330835994357E+01 -0.1611286650742E+01  0.0000000000000E+00
 0.1359757681202E+01 -0.1547927244234E+01  0.0000000000000E+00
-0.6778574956198E+00 -0.1262067680153E+01  0.0000000000000E+00
-0.6782770661586E+00 -0.1176951538939E+01  0.0000000000000E+00
-0.6790038521434E+00 -0.1091837606340E+01  0.0000000000000E+00
-0.6800826918120E+00 -0.1006727743275E+01  0.0000000000000E+00
-0.6815616898838E+00 -0.9216243838726E+00  0.0000000000000E+00
-0.6834862980979E+00 -0.8365308372119E+00  0.0000000000000E+00
-0.6858864270538E+00 -0.7514504222619E+00  0.0000000000000E+00
-0.6887536618310E+00 -0.6663859764994E+00  0.0000000000000E+00
-0.6920116565350E+00 -0.5813369229450E+00  0.0000000000000E+00
-0.6954975963156E+00 -0.4962977947840E+00  0.0000000000000E+00
-0.6989835360050E+00 -0.4112586666193E+00  0.0000000000000E+00
-0.7022415304475E+00 -0.3262096130549E+00  0.0000000000000E+00
-0.7051087648230E+00 -0.2411451672791E+00  0.0000000000000E+00
-0.7075088932732E+00 -0.1560647523149E+00  0.0000000000000E+00
-0.7094335009094E+00 -0.7097120564155E-01  0.0000000000000E+00
-0.7109124983562E+00  0.1413215377165E-01  0.0000000000000E+00
-0.7119913373706E+00  0.9924201684453E-01  0.0000000000000E+00
-0.7127181226840E+00  0.1843559494488E+00  0.0000000000000E+00
-0.7131376925427E+00  0.2694720906668E+00  0.0000000000000E+00
-0.6423834586364E+00 -0.1257430206780E+01  0.0000000000000E+00
-0.6428079469815E+00 -0.1172076973233E+01  0.0000000000000E+00
-0.6435234815340E+00 -0.1086725948382E+01  0.0000000000000E+00
-0.6445725406163E+00 -0.1001378993222E+01  0.0000000000000E+00
-0.6460006971461E+00 -0.9160385416585E+00  0.0000000000000E+00
-0.6478510106322E+00 -0.8307079030675E+00  0.0000000000000E+00
-0.6501518174942E+00 -0.7453903958721E+00  0.0000000000000E+00
-0.6528951456395E+00 -0.6600888580888E+00  0.0000000000000E+00
-0.6560086674312E+00 -0.5748027122585E+00  0.0000000000000E+00
-0.6593381371986E+00 -0.4895264917391E+00  0.0000000000000E+00
-0.6626676068748E+00 -0.4042502712162E+00  0.0000000000000E+00
-0.6657811284050E+00 -0.3189641253765E+00  0.0000000000000E+00
-0.6685244561486E+00 -0.2336625875806E+00  0.0000000000000E+00
-0.6708252625048E+00 -0.1483450803717E+00  0.0000000000000E+00
-0.6726755754131E+00 -0.6301444176865E-01  0.0000000000000E+00
-0.6741037313179E+00  0.2232600980478E-01  0.0000000000000E+00
-0.6751527897460E+00  0.1076729649727E+00  0.0000000000000E+00
-0.6758683236271E+00  0.1930239898287E+00  0.0000000000000E+00
-0.6762928112920E+00  0.2783772233786E+00  0.0000000000000E+00
-0.6068771248225E+00 -0.1253037464350E+01  0.0000000000000E+00
-0.6073023861501E+00 -0.1167458422578E+01  0.0000000000000E+00
-0.6080025244294E+00 -0.1081881589579E+01  0.0000000000000E+00
-0.6090176580661E+00 -0.9963088264196E+00  0.0000000000000E+00
-0.6103908281695E+00 -0.9107425667951E+00  0.0000000000000E+00
-0.6121627020206E+00 -0.8251861203621E+00  0.0000000000000E+00
-0.6143600418475E+00 -0.7396428050247E+00  0.0000000000000E+00
-0.6169753183957E+00 -0.6541154593135E+00  0.0000000000000E+00
-0.6199402222819E+00 -0.5686035053123E+00  0.0000000000000E+00
-0.6231090770279E+00 -0.4831014765433E+00  0.0000000000000E+00
-0.6262779316826E+00 -0.3975994477710E+00  0.0000000000000E+00
-0.6292428353073E+00 -0.3120874937608E+00  0.0000000000000E+00
-0.6318581114538E+00 -0.2265601480377E+00  0.0000000000000E+00
-0.6340554507749E+00 -0.1410168326875E+00  0.0000000000000E+00
-0.6358273240482E+00 -0.5546038624327E-01  0.0000000000000E+00
-0.6372004935266E+00  0.3010587339095E-01  0.0000000000000E+00
-0.6382156265091E+00  0.1156786365575E+00  0.0000000000000E+00
-0.6389157641170E+00  0.2012554695615E+00  0.0000000000000E+00
-0.6393410247644E+00  0.2868345113357E+00  0.0000000000000E+00
-0.5713401376445E+00 -0.1248890411137E+01  0.0000000000000E+00
-0.5717622009905E+00 -0.1163097082270E+01  0.0000000000000E+00
-0.5724429720439E+00 -0.1077305962247E+01  0.0000000000000E+00
-0.5734202092963E+00 -0.9915189122057E+00  0.0000000000000E+00
-0.5747344220463E+00 -0.9057383656401E+00  0.0000000000000E+00
-0.5764238853537E+00 -0.8199676324743E+00  0.0000000000000E+00
-0.5785137872467E+00 -0.7342100301194E+00  0.0000000000000E+00
-0.5809970413178E+00 -0.6484683975936E+00  0.0000000000000E+00
-0.5838093564268E+00 -0.5627421565474E+00  0.0000000000000E+00
-0.5868136252857E+00 -0.4770258406587E+00  0.0000000000000E+00
-0.5898178940533E+00 -0.3913095247669E+00  0.0000000000000E+00
-0.5926302089008E+00 -0.3055832837122E+00  0.0000000000000E+00
-0.5951134625703E+00 -0.2198416511753E+00  0.0000000000000E+00
-0.5972033639575E+00 -0.1340840488083E+00  0.0000000000000E+00
-0.5988928266870E+00 -0.4831331563190E-01  0.0000000000000E+00
-0.6002070388120E+00  0.3746723094278E-01  0.0000000000000E+00
-0.6011842754101E+00  0.1232542809908E+00  0.0000000000000E+00
-0.6018650457922E+00  0.2090454010180E+00  0.0000000000000E+00
-0.6022871084581E+00  0.2948387298880E+00  0.0000000000000E+00
-0.5357741369022E+00 -0.1244989956190E+01  0.0000000000000E+00
-0.5361892110234E+00 -0.1158994088951E+01  0.0000000000000E+00
-0.5368468236192E+00 -0.1073000430625E+01  0.0000000000000E+00
-0.5377823732698E+00 -0.9870108424148E+00  0.0000000000000E+00
-0.5390338374614E+00 -0.9010277576241E+00  0.0000000000000E+00
-0.5406370990385E+00 -0.8150544864300E+00  0.0000000000000E+00
-0.5426157718221E+00 -0.7290943457776E+00  0.0000000000000E+00
-0.5449632122597E+00 -0.6431501751464E+00  0.0000000000000E+00
-0.5476191474442E+00 -0.5572213957766E+00  0.0000000000000E+00
-0.5504550392749E+00 -0.4713025414940E+00  0.0000000000000E+00
-0.5532909310144E+00 -0.3853836872084E+00  0.0000000000000E+00
-0.5559468659374E+00 -0.2994549078308E+00  0.0000000000000E+00
-0.5582943059733E+00 -0.2135107371891E+00  0.0000000000000E+00
-0.5602729782511E+00 -0.1275505965254E+00  0.0000000000000E+00
-0.5618762392504E+00 -0.4157732532137E-01  0.0000000000000E+00
-0.5631277028170E+00  0.4440575947785E-01  0.0000000000000E+00
-0.5640632518133E+00  0.1303953476947E+00  0.0000000000000E+00
-0.5647208637377E+00  0.2163890060246E+00  0.0000000000000E+00
-0.5651359371787E+00  0.3023848732658E+00  0.0000000000000E+00
-0.5001808381180E+00 -0.1241336966218E+01  0.0000000000000E+00
-0.5005853091216E+00 -0.1155150525915E+01  0.0000000000000E+00
-0.5012161493549E+00 -0.1068966294589E+01  0.0000000000000E+00
-0.5021063974859E+00 -0.9827861335033E+00  0.0000000000000E+00
-0.5032914991826E+00 -0.8966124757853E+00  0.0000000000000E+00
-0.5048049450772E+00 -0.8104486318491E+00  0.0000000000000E+00
-0.5066687747735E+00 -0.7242979182013E+00  0.0000000000000E+00
-0.5088767875828E+00 -0.6381631747553E+00  0.0000000000000E+00
-0.5113727288271E+00 -0.5520438223657E+00  0.0000000000000E+00
-0.5140366296026E+00 -0.4659343949968E+00  0.0000000000000E+00
-0.5167005302870E+00 -0.3798249676253E+00  0.0000000000000E+00
-0.5191964712696E+00 -0.2937056152283E+00  0.0000000000000E+00
-0.5214044836774E+00 -0.2075708717725E+00  0.0000000000000E+00
-0.5232683128678E+00 -0.1214201581142E+00  0.0000000000000E+00
-0.5247817581846E+00 -0.3525631416868E-01  0.0000000000000E+00
-0.5259668592563E+00  0.5091734355727E-01  0.0000000000000E+00
-0.5268571067330E+00  0.1370975046484E+00  0.0000000000000E+00
-0.5274879462949E+00  0.2232817359786E+00  0.0000000000000E+00
-0.5278924166184E+00  0.3094681762846E+00  0.0000000000000E+00
-0.4645619564064E+00 -0.1237932258017E+01  0.0000000000000E+00
-0.4649524100802E+00 -0.1151567419413E+01  0.0000000000000E+00
-0.4655530637473E+00 -0.1065204789847E+01  0.0000000000000E+00
-0.4663945961656E+00 -0.9788462306392E+00  0.0000000000000E+00
-0.4675099211833E+00 -0.8924941747498E+00  0.0000000000000E+00
-0.4689301372252E+00 -0.8061519328155E+00  0.0000000000000E+00
-0.4706757096711E+00 -0.7198228209325E+00  0.0000000000000E+00
-0.4727408807035E+00 -0.6335096794204E+00  0.0000000000000E+00
-0.4750734138646E+00 -0.5472119287727E+00  0.0000000000000E+00
-0.4775619094464E+00 -0.4609241030837E+00  0.0000000000000E+00
-0.4800504049371E+00 -0.3746362773921E+00  0.0000000000000E+00
-0.4823829378366E+00 -0.2883385267376E+00  0.0000000000000E+00
-0.4844481084674E+00 -0.2020253852164E+00  0.0000000000000E+00
-0.4861936804074E+00 -0.1156962733237E+00  0.0000000000000E+00
-0.4876138958714E+00 -0.2935403138074E-01  0.0000000000000E+00
-0.4887292202642E+00  0.5699802451606E-01  0.0000000000000E+00
-0.4895707520282E+00  0.1433565837290E+00  0.0000000000000E+00
-0.4901714050239E+00  0.2297192132988E+00  0.0000000000000E+00
-0.4905618580176E+00  0.3160840519049E+00  0.0000000000000E+00
-0.4289192212257E+00 -0.1234776597180E+01  0.0000000000000E+00
-0.4292924445295E+00 -0.1148245732540E+01  0.0000000000000E+00
-0.4298596985868E+00 -0.1061717076994E+01  0.0000000000000E+00
-0.4306493022459E+00 -0.9751924919160E+00  0.0000000000000E+00
-0.4316916375313E+00 -0.8886744101102E+00  0.0000000000000E+00
-0.4330154106638E+00 -0.8021661424208E+00  0.0000000000000E+00
-0.4346395127912E+00 -0.7156710045621E+00  0.0000000000000E+00
-0.4365586289750E+00 -0.6291918372315E+00  0.0000000000000E+00
-0.4387245409721E+00 -0.5427280605867E+00  0.0000000000000E+00
-0.4410344182749E+00 -0.4562742088428E+00  0.0000000000000E+00
-0.4433442954865E+00 -0.3698203570966E+00  0.0000000000000E+00
-0.4455102072220E+00 -0.2833565804456E+00  0.0000000000000E+00
-0.4474293230042E+00 -0.1968774131066E+00  0.0000000000000E+00
-0.4490534246258E+00 -0.1103822752388E+00  0.0000000000000E+00
-0.4503771971804E+00 -0.2387400754147E-01  0.0000000000000E+00
-0.4514195318408E+00  0.6264407427117E-01  0.0000000000000E+00
-0.4522091348456E+00  0.1491686593542E+00  0.0000000000000E+00
-0.4527763882315E+00  0.2356973149040E+00  0.0000000000000E+00
-0.4531496108551E+00  0.3222281795461E+00  0.0000000000000E+00
-0.3932543780196E+00 -0.1231870698467E+01  0.0000000000000E+00
-0.3936073729461E+00 -0.1145186367233E+01  0.0000000000000E+00
-0.3941382293917E+00 -0.1058504245145E+01  0.0000000000000E+00
-0.3948729062967E+00 -0.9718261936258E+00  0.0000000000000E+00
-0.3958392538597E+00 -0.8851546453368E+00  0.0000000000000E+00
-0.3970635861021E+00 -0.7984929113133E+00  0.0000000000000E+00
-0.3985632199332E+00 -0.7118443069165E+00  0.0000000000000E+00
-0.4003332833000E+00 -0.6252116731933E+00  0.0000000000000E+00
-0.4023295761670E+00 -0.5385944299907E+00  0.0000000000000E+00
-0.4044578372269E+00 -0.4519871116356E+00  0.0000000000000E+00
-0.4065860981956E+00 -0.3653797932784E+00  0.0000000000000E+00
-0.4085823908010E+00 -0.2787625500701E+00  0.0000000000000E+00
-0.4103524537661E+00 -0.1921299163392E+00  0.0000000000000E+00
-0.4118520870914E+00 -0.1054813119341E+00  0.0000000000000E+00
-0.4130764187560E+00 -0.1881957790332E-01  0.0000000000000E+00
-0.4140427656940E+00  0.6785197039194E-01  0.0000000000000E+00
-0.4147774419447E+00  0.1545300219154E+00  0.0000000000000E+00
-0.4153082977189E+00  0.2412121440070E+00  0.0000000000000E+00
-0.4156612919653E+00  0.3278964752429E+00  0.0000000000000E+00
-0.3575691979619E+00 -0.1229215224608E+01  0.0000000000000E+00
-0.3578991845277E+00 -0.1142390160639E+01  0.0000000000000E+00
-0.3583908633752E+00 -0.1055567305864E+01  0.0000000000000E+00
-0.3590678335372E+00 -0.9687485217511E+00  0.0000000000000E+00
-0.3599554133833E+00 -0.8819362408292E+00  0.0000000000000E+00
-0.3610775247381E+00 -0.7951337743095E+00  0.0000000000000E+00
-0.3624499102658E+00 -0.7083444372294E+00  0.0000000000000E+00
-0.3640681408054E+00 -0.6215710709562E+00  0.0000000000000E+00
-0.3658920345241E+00 -0.5348130950523E+00  0.0000000000000E+00
-0.3678358993193E+00 -0.4480650439469E+00  0.0000000000000E+00
-0.3697797640233E+00 -0.3613169928396E+00  0.0000000000000E+00
-0.3716036574805E+00 -0.2745590169304E+00  0.0000000000000E+00
-0.3732218876184E+00 -0.1877856506502E+00  0.0000000000000E+00
-0.3745942726403E+00 -0.1009963135626E+00  0.0000000000000E+00
-0.3757163834173E+00 -0.1419384703630E-01  0.0000000000000E+00
-0.3766039626383E+00  0.7261843389131E-01  0.0000000000000E+00
-0.3772809321460E+00  0.1594372180084E+00  0.0000000000000E+00
-0.3777726103222E+00  0.2462600727866E+00  0.0000000000000E+00
-0.3781025962077E+00  0.3330851367569E+00  0.0000000000000E+00
-0.3218654826118E+00 -0.1226810785876E+01  0.0000000000000E+00
-0.3221699083761E+00 -0.1139857885184E+01  0.0000000000000E+00
-0.3226198571880E+00 -0.1052907193727E+01  0.0000000000000E+00
-0.3232365681736E+00 -0.9659605730175E+00  0.0000000000000E+00
-0.3240428278714E+00 -0.8790204554635E+00  0.0000000000000E+00
-0.3250601659129E+00 -0.7920901524360E+00  0.0000000000000E+00
-0.3263027507117E+00 -0.7051729786780E+00  0.0000000000000E+00
-0.3277665960040E+00 -0.6182717758481E+00  0.0000000000000E+00
-0.3294155381548E+00 -0.5313859632499E+00  0.0000000000000E+00
-0.3311724542660E+00 -0.4445100754058E+00  0.0000000000000E+00
-0.3329293702861E+00 -0.3576341875599E+00  0.0000000000000E+00
-0.3345783121753E+00 -0.2707483749570E+00  0.0000000000000E+00
-0.3360421570660E+00 -0.1838471721208E+00  0.0000000000000E+00
-0.3372847413589E+00 -0.9692999835613E-01  0.0000000000000E+00
-0.3383020788226E+00 -0.9999695322564E-02  0.0000000000000E+00
-0.3391083378954E+00  0.7694042223655E-01  0.0000000000000E+00
-0.3397250482267E+00  0.1638870429499E+00  0.0000000000000E+00
-0.3401749963672E+00  0.2508377344090E+00  0.0000000000000E+00
-0.3404794214513E+00  0.3377906351034E+00  0.0000000000000E+00
-0.2861450373520E+00 -0.1224657936950E+01  0.0000000000000E+00
-0.2864215844532E+00 -0.1137590244331E+01  0.0000000000000E+00
-0.2868274853715E+00 -0.1050524760987E+01  0.0000000000000E+00
-0.2873816193277E+00 -0.9634633484665E+00  0.0000000000000E+00
-0.2881042410273E+00 -0.8764084390695E+00  0.0000000000000E+00
-0.2890144879123E+00 -0.7893633443104E+00  0.0000000000000E+00
-0.2901249541400E+00 -0.7023313786683E+00  0.0000000000000E+00
-0.2914320963498E+00 -0.6153153840630E+00  0.0000000000000E+00
-0.2929037690984E+00 -0.5283147795659E+00  0.0000000000000E+00
-0.2944714186929E+00 -0.4413240997829E+00  0.0000000000000E+00
-0.2960390681962E+00 -0.3543334199984E+00  0.0000000000000E+00
-0.2975107406832E+00 -0.2673328154971E+00  0.0000000000000E+00
-0.2988178824914E+00 -0.1803168208862E+00  0.0000000000000E+00
-0.2999283482133E+00 -0.9328485523812E-01  0.0000000000000E+00
-0.3008385945204E+00 -0.6239760473675E-02  0.0000000000000E+00
-0.3015612155950E+00  0.8081514892790E-01  0.0000000000000E+00
-0.3021153488969E+00  0.1678765614522E+00  0.0000000000000E+00
-0.3025212491438E+00  0.2549420447980E+00  0.0000000000000E+00
-0.3027977955648E+00  0.3420097374179E+00  0.0000000000000E+00
-0.2504096817960E+00 -0.1222757176891E+01  0.0000000000000E+00
-0.2506562726981E+00 -0.1135587871943E+01  0.0000000000000E+00
-0.2510160481881E+00 -0.1048420776304E+01  0.0000000000000E+00
-0.2515055275823E+00 -0.9612577515542E+00  0.0000000000000E+00
-0.2521424337517E+00 -0.8741012299005E+00  0.0000000000000E+00
-0.2529435119511E+00 -0.7869545229834E+00  0.0000000000000E+00
-0.2539197820773E+00 -0.6998209450482E+00  0.0000000000000E+00
-0.2550681436771E+00 -0.6127033382460E+00  0.0000000000000E+00
-0.2563604694946E+00 -0.5256011214427E+00  0.0000000000000E+00
-0.2577367750435E+00 -0.4385088293183E+00  0.0000000000000E+00
-0.2591130805012E+00 -0.3514165371924E+00  0.0000000000000E+00
-0.2604054060573E+00 -0.2643143203854E+00  0.0000000000000E+00
-0.2615537672554E+00 -0.1771967135784E+00  0.0000000000000E+00
-0.2625300368757E+00 -0.9006313563793E-01  0.0000000000000E+00
-0.2633311144972E+00 -0.2916428716145E-02  0.0000000000000E+00
-0.2639680200416E+00  0.8424009294153E-01  0.0000000000000E+00
-0.2644574987815E+00  0.1714031176939E+00  0.0000000000000E+00
-0.2648172736002E+00  0.2585702133351E+00  0.0000000000000E+00
-0.2650638638220E+00  0.3457395182847E+00  0.0000000000000E+00
-0.2146612485249E+00 -0.1221108948317E+01  0.0000000000000E+00
-0.2148760519034E+00 -0.1133851330987E+01  0.0000000000000E+00
-0.2151878706402E+00 -0.1046595922996E+01  0.0000000000000E+00
-0.2156108641473E+00 -0.9593445859525E+00  0.0000000000000E+00
-0.2161602234591E+00 -0.8720997519805E+00  0.0000000000000E+00
-0.2168503016456E+00 -0.7848647328308E+00  0.0000000000000E+00
-0.2176905443385E+00 -0.6976428425456E+00  0.0000000000000E+00
-0.2186782939965E+00 -0.6104369234771E+00  0.0000000000000E+00
-0.2197894415477E+00 -0.5232463943124E+00  0.0000000000000E+00
-0.2209725717140E+00 -0.4360657897959E+00  0.0000000000000E+00
-0.2221557017892E+00 -0.3488851852782E+00  0.0000000000000E+00
-0.2232668490789E+00 -0.2616946561104E+00  0.0000000000000E+00
-0.2242545983352E+00 -0.1744887370377E+00  0.0000000000000E+00
-0.2250948405222E+00 -0.8726684674795E-01  0.0000000000000E+00
-0.2257849181308E+00 -0.3182759427317E-04  0.0000000000000E+00
-0.2263342768177E+00  0.8721300638113E-01  0.0000000000000E+00
-0.2267572696704E+00  0.1744643434270E+00  0.0000000000000E+00
-0.2270690877358E+00  0.2617197514199E+00  0.0000000000000E+00
-0.2272838904341E+00  0.3489773687512E+00  0.0000000000000E+00
-0.1789015764263E+00 -0.1219713636439E+01  0.0000000000000E+00
-0.1790830136144E+00 -0.1132381112142E+01  0.0000000000000E+00
-0.1793452969311E+00 -0.1045050797208E+01  0.0000000000000E+00
-0.1797002258847E+00 -0.9577245532724E+00  0.0000000000000E+00
-0.1801604596716E+00 -0.8704048123869E+00  0.0000000000000E+00
-0.1807379591784E+00 -0.7830948863965E+00  0.0000000000000E+00
-0.1814405957685E+00 -0.6957980891710E+00  0.0000000000000E+00
-0.1822661548159E+00 -0.6085172632330E+00  0.0000000000000E+00
-0.1831945454296E+00 -0.5212518271183E+00  0.0000000000000E+00
-0.1841829215412E+00 -0.4339963156258E+00  0.0000000000000E+00
-0.1851712975617E+00 -0.3467408041322E+00  0.0000000000000E+00
-0.1860996879139E+00 -0.2594753680149E+00  0.0000000000000E+00
-0.1869252465596E+00 -0.1721945420735E+00  0.0000000000000E+00
-0.1876278826438E+00 -0.8489774484416E-01  0.0000000000000E+00
-0.1882053815728E+00  0.2412181149585E-02  0.0000000000000E+00
-0.1886656147347E+00  0.8973192203785E-01  0.0000000000000E+00
-0.1890205430340E+00  0.1770581659759E+00  0.0000000000000E+00
-0.1892828256793E+00  0.2643884809106E+00  0.0000000000000E+00
-0.1894642621872E+00  0.3517210052090E+00  0.0000000000000E+00
-0.1431325314919E+00 -0.1218571569045E+01  0.0000000000000E+00
-0.1432792793728E+00 -0.1131177633129E+01  0.0000000000000E+00
-0.1434907041544E+00 -0.1043785906598E+01  0.0000000000000E+00
-0.1437762454418E+00 -0.9563982511045E+00  0.0000000000000E+00
-0.1441460305922E+00 -0.8690170986448E+00  0.0000000000000E+00
-0.1446096283113E+00 -0.7816457611397E+00  0.0000000000000E+00
-0.1451733356905E+00 -0.6942875523177E+00  0.0000000000000E+00
-0.1458353810224E+00 -0.6069453148415E+00  0.0000000000000E+00
-0.1465796915941E+00 -0.5196184671224E+00  0.0000000000000E+00
-0.1473719905470E+00 -0.4323015440042E+00  0.0000000000000E+00
-0.1481642894086E+00 -0.3449846208852E+00  0.0000000000000E+00
-0.1489085997188E+00 -0.2576577731640E+00  0.0000000000000E+00
-0.1495706446490E+00 -0.1703155356850E+00  0.0000000000000E+00
-0.1501343515224E+00 -0.8295732686004E-01  0.0000000000000E+00
-0.1505979486635E+00  0.4414010647753E-02  0.0000000000000E+00
-0.1509677331890E+00  0.9179516310974E-01  0.0000000000000E+00
-0.1512532738221E+00  0.1791828186046E+00  0.0000000000000E+00
-0.1514646979322E+00  0.2665745451367E+00  0.0000000000000E+00
-0.1516114451329E+00  0.3539684810533E+00  0.0000000000000E+00
-0.1073559775584E+00 -0.1217683014787E+01  0.0000000000000E+00
-0.1074669729805E+00 -0.1130241236752E+01  0.0000000000000E+00
-0.1076264760765E+00 -0.1042801668119E+01  0.0000000000000E+00
-0.1078415665488E+00 -0.9553661705542E+00  0.0000000000000E+00
-0.1081198399148E+00 -0.8679371760100E+00  0.0000000000000E+00
-0.1084684727000E+00 -0.7805179964667E+00  0.0000000000000E+00
-0.1088921877222E+00 -0.6931119455429E+00  0.0000000000000E+00
-0.1093896561947E+00 -0.6057218660102E+00  0.0000000000000E+00
-0.1099488235801E+00 -0.5183471761831E+00  0.0000000000000E+00
-0.1105439822303E+00 -0.4309824109404E+00  0.0000000000000E+00
-0.1111391407892E+00 -0.3436176456970E+00  0.0000000000000E+00
-0.1116983079131E+00 -0.2562429558684E+00  0.0000000000000E+00
-0.1121957759839E+00 -0.1688528763335E+00  0.0000000000000E+00
-0.1126194905003E+00 -0.8144682540749E-01  0.0000000000000E+00
-0.1129681227076E+00  0.5972354137743E-02  0.0000000000000E+00
-0.1132463954486E+00  0.9340134868365E-01  0.0000000000000E+00
-0.1134614852666E+00  0.1808368462493E+00  0.0000000000000E+00
-0.1136209876912E+00  0.2682764148838E+00  0.0000000000000E+00
-0.1137319824330E+00  0.3557181929189E+00  0.0000000000000E+00
-0.7157378539324E-01 -0.1217048183171E+01  0.0000000000000E+00
-0.7164822826765E-01 -0.1129572190533E+01  0.0000000000000E+00
-0.7175500958976E-01 -0.1042098407307E+01  0.0000000000000E+00
-0.7189884915972E-01 -0.9546286951723E+00  0.0000000000000E+00
-0.7208481065407E-01 -0.8671654860487E+00  0.0000000000000E+00
-0.7231767841974E-01 -0.7797120919591E+00  0.0000000000000E+00
-0.7260060099874E-01 -0.6922718264434E+00  0.0000000000000E+00
-0.7293269252678E-01 -0.6048475323512E+00  0.0000000000000E+00
-0.7330591664062E-01 -0.5174386279278E+00  0.0000000000000E+00
-0.7370313490275E-01 -0.4300396480768E+00  0.0000000000000E+00
-0.7410035307365E-01 -0.3426406682255E+00  0.0000000000000E+00
-0.7447357692595E-01 -0.2552317638011E+00  0.0000000000000E+00
-0.7480566805232E-01 -0.1678074697074E+00  0.0000000000000E+00
-0.7508859012547E-01 -0.8036720419022E-01  0.0000000000000E+00
-0.7532145731324E-01  0.7086189900652E-02  0.0000000000000E+00
-0.7550741818259E-01  0.9454939902542E-01  0.0000000000000E+00
-0.7565125709823E-01  0.1820191111605E+00  0.0000000000000E+00
-0.7575803774893E-01  0.2694928943870E+00  0.0000000000000E+00
-0.7583247994311E-01  0.3569688870258E+00  0.0000000000000E+00
-0.3578783098112E-01 -0.1216667224146E+01  0.0000000000000E+00
-0.3582518662058E-01 -0.1129170686043E+01  0.0000000000000E+00
-0.3587871148179E-01 -0.1041676357359E+01  0.0000000000000E+00
-0.3595076546273E-01 -0.9541860997805E+00  0.0000000000000E+00
-0.3604388039874E-01 -0.8667023452065E+00  0.0000000000000E+00
-0.3616044845866E-01 -0.7792284056865E+00  0.0000000000000E+00
-0.3630204390757E-01 -0.6917675947129E+00  0.0000000000000E+00
-0.3646822380494E-01 -0.6043227551822E+00  0.0000000000000E+00
-0.3665496996040E-01 -0.5168933052982E+00  0.0000000000000E+00
-0.3685371314750E-01 -0.4294737799797E+00  0.0000000000000E+00
-0.3705245624338E-01 -0.3420542546609E+00  0.0000000000000E+00
-0.3723920213730E-01 -0.2546248047764E+00  0.0000000000000E+00
-0.3740538163300E-01 -0.1671799652449E+00  0.0000000000000E+00
-0.3754697657605E-01 -0.7971915427061E-01  0.0000000000000E+00
-0.3766354405808E-01  0.7754785250058E-02  0.0000000000000E+00
-0.3775665836908E-01  0.9523853982455E-01  0.0000000000000E+00
-0.3782871169569E-01  0.1827287974037E+00  0.0000000000000E+00
-0.3788223588549E-01  0.2702231260879E+00  0.0000000000000E+00
-0.3791959084473E-01  0.3577196641912E+00  0.0000000000000E+00
 0.6209850736676E-08 -0.1216540227813E+01  0.0000000000000E+00
 0.5524735811083E-08 -0.1129036838433E+01  0.0000000000000E+00
 0.4843998396465E-08 -0.1041535658474E+01  0.0000000000000E+00
 0.4171790525972E-08 -0.9540385496249E+00  0.0000000000000E+00
 0.3514266425853E-08 -0.8665479437785E+00  0.0000000000000E+00
 0.2880364529407E-08 -0.7790671529925E+00  0.0000000000000E+00
 0.2282599226633E-08 -0.6915994907437E+00  0.0000000000000E+00
 0.1737109434959E-08 -0.6041477999442E+00  0.0000000000000E+00
 0.1261877266097E-08 -0.5167114987841E+00  0.0000000000000E+00
 0.8719449662753E-09 -0.4292851221871E+00  0.0000000000000E+00
 0.5732300334473E-09 -0.3418587455901E+00  0.0000000000000E+00
 0.3595447320818E-09 -0.2544224444300E+00  0.0000000000000E+00
 0.2157243325992E-09 -0.1669707536305E+00  0.0000000000000E+00
 0.1238229916565E-09 -0.7950309138169E-01  0.0000000000000E+00
 0.6781348193177E-10  0.7977699404264E-02  0.0000000000000E+00
 0.3529812102035E-10  0.9546830525066E-01  0.0000000000000E+00
 0.1742641910935E-10  0.1829654140998E+00  0.0000000000000E+00
 0.8104205705961E-11  0.2704665940585E+00  0.0000000000000E+00
 0.3215440234396E-11  0.3579699834387E+00  0.0000000000000E+00
 0.3578784340053E-01 -0.1216667224235E+01  0.0000000000000E+00
 0.3582519766977E-01 -0.1129170686128E+01  0.0000000000000E+00
 0.3587872116953E-01 -0.1041676357439E+01  0.0000000000000E+00
 0.3595077380607E-01 -0.9541860998557E+00  0.0000000000000E+00
 0.3604388742704E-01 -0.8667023452767E+00  0.0000000000000E+00
 0.3616045421917E-01 -0.7792284057513E+00  0.0000000000000E+00
 0.3630204847257E-01 -0.6917675947721E+00  0.0000000000000E+00
 0.3646822727897E-01 -0.6043227552356E+00  0.0000000000000E+00
 0.3665497248399E-01 -0.5168933053458E+00  0.0000000000000E+00
 0.3685371489124E-01 -0.4294737800217E+00  0.0000000000000E+00
 0.3705245738970E-01 -0.3420542546977E+00  0.0000000000000E+00
 0.3723920285627E-01 -0.2546248048085E+00  0.0000000000000E+00
 0.3740538206434E-01 -0.1671799652727E+00  0.0000000000000E+00
 0.3754697682360E-01 -0.7971915429417E-01  0.0000000000000E+00
 0.3766354419363E-01  0.7754785230528E-02  0.0000000000000E+00
 0.3775665843962E-01  0.9523853980896E-01  0.0000000000000E+00
 0.3782871173050E-01  0.1827287973920E+00  0.0000000000000E+00
 0.3788223590167E-01  0.2702231260801E+00  0.0000000000000E+00
 0.3791959085114E-01  0.3577196641874E+00  0.0000000000000E+00
 0.7157379781176E-01 -0.1217048183348E+01  0.0000000000000E+00
 0.7164823931600E-01 -0.1129572190701E+01  0.0000000000000E+00
 0.7175501927670E-01 -0.1042098407466E+01  0.0000000000000E+00
 0.7189885750231E-01 -0.9546286953227E+00  0.0000000000000E+00
 0.7208481768167E-01 -0.8671654861889E+00  0.0000000000000E+00
 0.7231768417959E-01 -0.7797120920887E+00  0.0000000000000E+00
 0.7260060556313E-01 -0.6922718265617E+00  0.0000000000000E+00
 0.7293269600025E-01 -0.6048475324578E+00  0.0000000000000E+00
 0.7330591916369E-01 -0.5174386280229E+00  0.0000000000000E+00
 0.7370313664601E-01 -0.4300396481608E+00  0.0000000000000E+00
 0.7410035421955E-01 -0.3426406682992E+00  0.0000000000000E+00
 0.7447357764454E-01 -0.2552317638653E+00  0.0000000000000E+00
 0.7480566848334E-01 -0.1678074697628E+00  0.0000000000000E+00
 0.7508859037274E-01 -0.8036720423734E-01  0.0000000000000E+00
 0.7532145744856E-01  0.7086189861597E-02  0.0000000000000E+00
 0.7550741825294E-01  0.9454939899424E-01  0.0000000000000E+00
 0.7565125713289E-01  0.1820191111371E+00  0.0000000000000E+00
 0.7575803776501E-01  0.2694928943715E+00  0.0000000000000E+00
 0.7583247994948E-01  0.3569688870181E+00  0.0000000000000E+00
 0.1073559899754E+00 -0.1217683015053E+01  0.0000000000000E+00
 0.1074669840274E+00 -0.1130241237005E+01  0.0000000000000E+00
 0.1076264857621E+00 -0.1042801668358E+01  0.0000000000000E+00
 0.1078415748901E+00 -0.9553661707798E+00  0.0000000000000E+00
 0.1081198469412E+00 -0.8679371762203E+00  0.0000000000000E+00
 0.1084684784588E+00 -0.7805179966610E+00  0.0000000000000E+00
 0.1088921922856E+00 -0.6931119457203E+00  0.0000000000000E+00
 0.1093896596672E+00 -0.6057218661702E+00  0.0000000000000E+00
 0.1099488261023E+00 -0.5183471763258E+00  0.0000000000000E+00
 0.1105439839728E+00 -0.4309824110663E+00  0.0000000000000E+00
 0.1111391419344E+00 -0.3436176458075E+00  0.0000000000000E+00
 0.1116983086311E+00 -0.2562429559646E+00  0.0000000000000E+00
 0.1121957764143E+00 -0.1688528764166E+00  0.0000000000000E+00
 0.1126194907471E+00 -0.8144682547815E-01  0.0000000000000E+00
 0.1129681228425E+00  0.5972354079172E-02  0.0000000000000E+00
 0.1132463955186E+00  0.9340134863688E-01  0.0000000000000E+00
 0.1134614853010E+00  0.1808368462143E+00  0.0000000000000E+00
 0.1136209877071E+00  0.2682764148604E+00  0.0000000000000E+00
 0.1137319824393E+00  0.3557181929073E+00  0.0000000000000E+00
 0.1431325439069E+00 -0.1218571569399E+01  0.0000000000000E+00
 0.1432792904178E+00 -0.1131177633466E+01  0.0000000000000E+00
 0.1434907138381E+00 -0.1043785906917E+01  0.0000000000000E+00
 0.1437762537814E+00 -0.9563982514053E+00  0.0000000000000E+00
 0.1441460376170E+00 -0.8690170989253E+00  0.0000000000000E+00
 0.1446096340685E+00 -0.7816457613987E+00  0.0000000000000E+00
 0.1451733402525E+00 -0.6942875525541E+00  0.0000000000000E+00
 0.1458353844936E+00 -0.6069453150547E+00  0.0000000000000E+00
 0.1465796941151E+00 -0.5196184673125E+00  0.0000000000000E+00
 0.1473719922884E+00 -0.4323015441721E+00  0.0000000000000E+00
 0.1481642905529E+00 -0.3449846210325E+00  0.0000000000000E+00
 0.1489086004358E+00 -0.2576577732924E+00  0.0000000000000E+00
 0.1495706450787E+00 -0.1703155357958E+00  0.0000000000000E+00
 0.1501343517685E+00 -0.8295732695422E-01  0.0000000000000E+00
 0.1505979487979E+00  0.4414010569677E-02  0.0000000000000E+00
 0.1509677332586E+00  0.9179516304740E-01  0.0000000000000E+00
 0.1512532738562E+00  0.1791828185579E+00  0.0000000000000E+00
 0.1514646979479E+00  0.2665745451056E+00  0.0000000000000E+00
 0.1516114451391E+00  0.3539684810378E+00  0.0000000000000E+00
 0.1789015888386E+00 -0.1219713636882E+01  0.0000000000000E+00
 0.1790830246568E+00 -0.1132381112564E+01  0.0000000000000E+00
 0.1793453066125E+00 -0.1045050797608E+01  0.0000000000000E+00
 0.1797002342220E+00 -0.9577245536482E+00  0.0000000000000E+00
 0.1801604666943E+00 -0.8704048127374E+00  0.0000000000000E+00
 0.1807379649337E+00 -0.7830948867202E+00  0.0000000000000E+00
 0.1814406003287E+00 -0.6957980894664E+00  0.0000000000000E+00
 0.1822661582854E+00 -0.6085172634995E+00  0.0000000000000E+00
 0.1831945479491E+00 -0.5212518273559E+00  0.0000000000000E+00
 0.1841829232813E+00 -0.4339963158356E+00  0.0000000000000E+00
 0.1851712987046E+00 -0.3467408043163E+00  0.0000000000000E+00
 0.1860996886299E+00 -0.2594753681753E+00  0.0000000000000E+00
 0.1869252469883E+00 -0.1721945422119E+00  0.0000000000000E+00
 0.1876278828891E+00 -0.8489774496185E-01  0.0000000000000E+00
 0.1882053817065E+00  0.2412181052021E-02  0.0000000000000E+00
 0.1886656148037E+00  0.8973192195995E-01  0.0000000000000E+00
 0.1890205430676E+00  0.1770581659176E+00  0.0000000000000E+00
 0.1892828256947E+00  0.2643884808718E+00  0.0000000000000E+00
 0.1894642621932E+00  0.3517210051896E+00  0.0000000000000E+00
 0.2146612609340E+00 -0.1221108948849E+01  0.0000000000000E+00
 0.2148760629428E+00 -0.1133851331493E+01  0.0000000000000E+00
 0.2151878803187E+00 -0.1046595923475E+01  0.0000000000000E+00
 0.2156108724819E+00 -0.9593445864034E+00  0.0000000000000E+00
 0.2161602304793E+00 -0.8720997524010E+00  0.0000000000000E+00
 0.2168503073985E+00 -0.7848647332192E+00  0.0000000000000E+00
 0.2176905488964E+00 -0.6976428429001E+00  0.0000000000000E+00
 0.2186782974640E+00 -0.6104369237968E+00  0.0000000000000E+00
 0.2197894440653E+00 -0.5232463945975E+00  0.0000000000000E+00
 0.2209725734523E+00 -0.4360657900476E+00  0.0000000000000E+00
 0.2221557029306E+00 -0.3488851854990E+00  0.0000000000000E+00
 0.2232668497935E+00 -0.2616946563028E+00  0.0000000000000E+00
 0.2242545987627E+00 -0.1744887372037E+00  0.0000000000000E+00
 0.2250948407665E+00 -0.8726684688914E-01  0.0000000000000E+00
 0.2257849182636E+00 -0.3182771130406E-04  0.0000000000000E+00
 0.2263342768860E+00  0.8721300628769E-01  0.0000000000000E+00
 0.2267572697036E+00  0.1744643433570E+00  0.0000000000000E+00
 0.2270690877509E+00  0.2617197513733E+00  0.0000000000000E+00
 0.2272838904400E+00  0.3489773687279E+00  0.0000000000000E+00
 0.2504096942013E+00 -0.1222757177511E+01  0.0000000000000E+00
 0.2506562837339E+00 -0.1135587872533E+01  0.0000000000000E+00
 0.2510160578632E+00 -0.1048420776863E+01  0.0000000000000E+00
 0.2515055359137E+00 -0.9612577520800E+00  0.0000000000000E+00
 0.2521424407689E+00 -0.8741012303908E+00  0.0000000000000E+00
 0.2529435177012E+00 -0.7869545234362E+00  0.0000000000000E+00
 0.2539197866326E+00 -0.6998209454615E+00  0.0000000000000E+00
 0.2550681471422E+00 -0.6127033386189E+00  0.0000000000000E+00
 0.2563604720100E+00 -0.5256011217751E+00  0.0000000000000E+00
 0.2577367767798E+00 -0.4385088296118E+00  0.0000000000000E+00
 0.2591130816408E+00 -0.3514165374499E+00  0.0000000000000E+00
 0.2604054067703E+00 -0.2643143206098E+00  0.0000000000000E+00
 0.2615537676815E+00 -0.1771967137720E+00  0.0000000000000E+00
 0.2625300371188E+00 -0.9006313580257E-01  0.0000000000000E+00
 0.2633311146290E+00 -0.2916428852618E-02  0.0000000000000E+00
 0.2639680201092E+00  0.8424009283257E-01  0.0000000000000E+00
 0.2644574988141E+00  0.1714031176123E+00  0.0000000000000E+00
 0.2648172736148E+00  0.2585702132807E+00  0.0000000000000E+00
 0.2650638638277E+00  0.3457395182575E+00  0.0000000000000E+00
 0.2861450497528E+00 -0.1224657937658E+01  0.0000000000000E+00
 0.2864215954848E+00 -0.1137590245005E+01  0.0000000000000E+00
 0.2868274950427E+00 -0.1050524761626E+01  0.0000000000000E+00
 0.2873816276554E+00 -0.9634633490672E+00  0.0000000000000E+00
 0.2881042480409E+00 -0.8764084396296E+00  0.0000000000000E+00
 0.2890144936591E+00 -0.7893633448277E+00  0.0000000000000E+00
 0.2901249586923E+00 -0.7023313791405E+00  0.0000000000000E+00
 0.2914320998121E+00 -0.6153153844889E+00  0.0000000000000E+00
 0.2929037716112E+00 -0.5283147799456E+00  0.0000000000000E+00
 0.2944714204269E+00 -0.4413241001183E+00  0.0000000000000E+00
 0.2960390693338E+00 -0.3543334202925E+00  0.0000000000000E+00
 0.2975107413944E+00 -0.2673328157534E+00  0.0000000000000E+00
 0.2988178829159E+00 -0.1803168211074E+00  0.0000000000000E+00
 0.2999283484550E+00 -0.9328485542617E-01  0.0000000000000E+00
 0.3008385946511E+00 -0.6239760629561E-02  0.0000000000000E+00
 0.3015612156617E+00  0.8081514880343E-01  0.0000000000000E+00
 0.3021153489287E+00  0.1678765613589E+00  0.0000000000000E+00
 0.3025212491580E+00  0.2549420447359E+00  0.0000000000000E+00
 0.3027977955703E+00  0.3420097373869E+00  0.0000000000000E+00
 0.3218654950076E+00 -0.1226810786673E+01  0.0000000000000E+00
 0.3221699194030E+00 -0.1139857885942E+01  0.0000000000000E+00
 0.3226198668546E+00 -0.1052907194445E+01  0.0000000000000E+00
 0.3232365764971E+00 -0.9659605736929E+00  0.0000000000000E+00
 0.3240428348810E+00 -0.8790204560934E+00  0.0000000000000E+00
 0.3250601716561E+00 -0.7920901530176E+00  0.0000000000000E+00
 0.3263027552606E+00 -0.7051729792090E+00  0.0000000000000E+00
 0.3277665994632E+00 -0.6182717763270E+00  0.0000000000000E+00
 0.3294155406647E+00 -0.5313859636768E+00  0.0000000000000E+00
 0.3311724559974E+00 -0.4445100757828E+00  0.0000000000000E+00
 0.3329293714212E+00 -0.3576341878906E+00  0.0000000000000E+00
 0.3345783128843E+00 -0.2707483752451E+00  0.0000000000000E+00
 0.3360421574886E+00 -0.1838471723695E+00  0.0000000000000E+00
 0.3372847415990E+00 -0.9692999856756E-01  0.0000000000000E+00
 0.3383020789519E+00 -0.9999695497830E-02  0.0000000000000E+00
 0.3391083379610E+00  0.7694042209661E-01  0.0000000000000E+00
 0.3397250482577E+00  0.1638870428451E+00  0.0000000000000E+00
 0.3401749963809E+00  0.2508377343392E+00  0.0000000000000E+00
 0.3404794214564E+00  0.3377906350684E+00  0.0000000000000E+00
 0.3575692103522E+00 -0.1229215225492E+01  0.0000000000000E+00
 0.3578991955492E+00 -0.1142390161481E+01  0.0000000000000E+00
 0.3583908730369E+00 -0.1055567306661E+01  0.0000000000000E+00
 0.3590678418560E+00 -0.9687485225011E+00  0.0000000000000E+00
 0.3599554203886E+00 -0.8819362415286E+00  0.0000000000000E+00
 0.3610775304771E+00 -0.7951337749554E+00  0.0000000000000E+00
 0.3624499148109E+00 -0.7083444378190E+00  0.0000000000000E+00
 0.3640681442610E+00 -0.6215710714880E+00  0.0000000000000E+00
 0.3658920370309E+00 -0.5348130955263E+00  0.0000000000000E+00
 0.3678359010477E+00 -0.4480650443656E+00  0.0000000000000E+00
 0.3697797651558E+00 -0.3613169932067E+00  0.0000000000000E+00
 0.3716036581872E+00 -0.2745590172503E+00  0.0000000000000E+00
 0.3732218880390E+00 -0.1877856509263E+00  0.0000000000000E+00
 0.3745942728787E+00 -0.1009963137974E+00  0.0000000000000E+00
 0.3757163835452E+00 -0.1419384723091E-01  0.0000000000000E+00
 0.3766039627027E+00  0.7261843373593E-01  0.0000000000000E+00
 0.3772809321762E+00  0.1594372178920E+00  0.0000000000000E+00
 0.3777726103353E+00  0.2462600727091E+00  0.0000000000000E+00
 0.3781025962126E+00  0.3330851367181E+00  0.0000000000000E+00
 0.3932543904037E+00 -0.1231870699439E+01  0.0000000000000E+00
 0.3936073839619E+00 -0.1145186368159E+01  0.0000000000000E+00
 0.3941382390479E+00 -0.1058504246021E+01  0.0000000000000E+00
 0.3948729146103E+00 -0.9718261944503E+00  0.0000000000000E+00
 0.3958392608602E+00 -0.8851546461056E+00  0.0000000000000E+00
 0.3970635918366E+00 -0.7984929120234E+00  0.0000000000000E+00
 0.3985632244741E+00 -0.7118443075646E+00  0.0000000000000E+00
 0.4003332867518E+00 -0.6252116737778E+00  0.0000000000000E+00
 0.4023295786701E+00 -0.5385944305118E+00  0.0000000000000E+00
 0.4044578389521E+00 -0.4519871120958E+00  0.0000000000000E+00
 0.4065860993252E+00 -0.3653797936820E+00  0.0000000000000E+00
 0.4085823915051E+00 -0.2787625504218E+00  0.0000000000000E+00
 0.4103524541845E+00 -0.1921299166427E+00  0.0000000000000E+00
 0.4118520873278E+00 -0.1054813121922E+00  0.0000000000000E+00
 0.4130764188822E+00 -0.1881957811723E-01  0.0000000000000E+00
 0.4140427657571E+00  0.6785197022115E-01  0.0000000000000E+00
 0.4147774419739E+00  0.1545300217875E+00  0.0000000000000E+00
 0.4153082977314E+00  0.2412121439217E+00  0.0000000000000E+00
 0.4156612919698E+00  0.3278964752003E+00  0.0000000000000E+00
 0.4289192336032E+00 -0.1234776598240E+01  0.0000000000000E+00
 0.4292924555389E+00 -0.1148245733549E+01  0.0000000000000E+00
 0.4298597082370E+00 -0.1061717077950E+01  0.0000000000000E+00
 0.4306493105539E+00 -0.9751924928149E+00  0.0000000000000E+00
 0.4316916445264E+00 -0.8886744109484E+00  0.0000000000000E+00
 0.4330154163933E+00 -0.8021661431949E+00  0.0000000000000E+00
 0.4346395173275E+00 -0.7156710052686E+00  0.0000000000000E+00
 0.4365586324225E+00 -0.6291918378687E+00  0.0000000000000E+00
 0.4387245434713E+00 -0.5427280611548E+00  0.0000000000000E+00
 0.4410344199965E+00 -0.4562742093445E+00  0.0000000000000E+00
 0.4433442966129E+00 -0.3698203575366E+00  0.0000000000000E+00
 0.4455102079233E+00 -0.2833565808289E+00  0.0000000000000E+00
 0.4474293234200E+00 -0.1968774134374E+00  0.0000000000000E+00
 0.4490534248601E+00 -0.1103822755201E+00  0.0000000000000E+00
 0.4503771973049E+00 -0.2387400777464E-01  0.0000000000000E+00
 0.4514195319025E+00  0.6264407408500E-01  0.0000000000000E+00
 0.4522091348738E+00  0.1491686592148E+00  0.0000000000000E+00
 0.4527763882432E+00  0.2356973148111E+00  0.0000000000000E+00
 0.4531496108593E+00  0.3222281794997E+00  0.0000000000000E+00
 0.4645619687765E+00 -0.1237932259164E+01  0.0000000000000E+00
 0.4649524210827E+00 -0.1151567420505E+01  0.0000000000000E+00
 0.4655530733909E+00 -0.1065204790881E+01  0.0000000000000E+00
 0.4663946044674E+00 -0.9788462316122E+00  0.0000000000000E+00
 0.4675099281727E+00 -0.8924941756571E+00  0.0000000000000E+00
 0.4689301429494E+00 -0.8061519336535E+00  0.0000000000000E+00
 0.4706757142023E+00 -0.7198228216974E+00  0.0000000000000E+00
 0.4727408841464E+00 -0.6335096801102E+00  0.0000000000000E+00
 0.4750734163596E+00 -0.5472119293876E+00  0.0000000000000E+00
 0.4775619111642E+00 -0.4609241036267E+00  0.0000000000000E+00
 0.4800504060600E+00 -0.3746362778683E+00  0.0000000000000E+00
 0.4823829385348E+00 -0.2883385271526E+00  0.0000000000000E+00
 0.4844481088806E+00 -0.2020253855745E+00  0.0000000000000E+00
 0.4861936806394E+00 -0.1156962736281E+00  0.0000000000000E+00
 0.4876138959940E+00 -0.2935403163311E-01  0.0000000000000E+00
 0.4887292203243E+00  0.5699802431457E-01  0.0000000000000E+00
 0.4895707520552E+00  0.1433565835781E+00  0.0000000000000E+00
 0.4901714050349E+00  0.2297192131983E+00  0.0000000000000E+00
 0.4905618580214E+00  0.3160840518546E+00  0.0000000000000E+00
 0.5001808504803E+00 -0.1241336967453E+01  0.0000000000000E+00
 0.5005853201167E+00 -0.1155150527090E+01  0.0000000000000E+00
 0.5012161589915E+00 -0.1068966295702E+01  0.0000000000000E+00
 0.5021064057811E+00 -0.9827861345503E+00  0.0000000000000E+00
 0.5032915061658E+00 -0.8966124767617E+00  0.0000000000000E+00
 0.5048049507956E+00 -0.8104486327508E+00  0.0000000000000E+00
 0.5066687792994E+00 -0.7242979190243E+00  0.0000000000000E+00
 0.5088767910208E+00 -0.6381631754975E+00  0.0000000000000E+00
 0.5113727313176E+00 -0.5520438230273E+00  0.0000000000000E+00
 0.5140366313163E+00 -0.4659343955811E+00  0.0000000000000E+00
 0.5167005314062E+00 -0.3798249681376E+00  0.0000000000000E+00
 0.5191964719646E+00 -0.2937056156747E+00  0.0000000000000E+00
 0.5214044840877E+00 -0.2075708721577E+00  0.0000000000000E+00
 0.5232683130974E+00 -0.1214201584418E+00  0.0000000000000E+00
 0.5247817583051E+00 -0.3525631444021E-01  0.0000000000000E+00
 0.5259668593148E+00  0.5091734334048E-01  0.0000000000000E+00
 0.5268571067588E+00  0.1370975044860E+00  0.0000000000000E+00
 0.5274879463051E+00  0.2232817358704E+00  0.0000000000000E+00
 0.5278924166218E+00  0.3094681762305E+00  0.0000000000000E+00
 0.5357741492561E+00 -0.1244989957511E+01  0.0000000000000E+00
 0.5361892220105E+00 -0.1158994090209E+01  0.0000000000000E+00
 0.5368468332483E+00 -0.1073000431817E+01  0.0000000000000E+00
 0.5377823815580E+00 -0.9870108435357E+00  0.0000000000000E+00
 0.5390338444379E+00 -0.9010277586693E+00  0.0000000000000E+00
 0.5406371047507E+00 -0.8150544873953E+00  0.0000000000000E+00
 0.5426157763422E+00 -0.7290943466587E+00  0.0000000000000E+00
 0.5449632156924E+00 -0.6431501759410E+00  0.0000000000000E+00
 0.5476191499298E+00 -0.5572213964849E+00  0.0000000000000E+00
 0.5504550409842E+00 -0.4713025421194E+00  0.0000000000000E+00
 0.5532909321297E+00 -0.3853836877569E+00  0.0000000000000E+00
 0.5559468666287E+00 -0.2994549083086E+00  0.0000000000000E+00
 0.5582943063805E+00 -0.2135107376014E+00  0.0000000000000E+00
 0.5602729784780E+00 -0.1275505968760E+00  0.0000000000000E+00
 0.5618762393687E+00 -0.4157732561200E-01  0.0000000000000E+00
 0.5631277028737E+00  0.4440575924581E-01  0.0000000000000E+00
 0.5640632518377E+00  0.1303953475209E+00  0.0000000000000E+00
 0.5647208637470E+00  0.2163890059088E+00  0.0000000000000E+00
 0.5651359371817E+00  0.3023848732079E+00  0.0000000000000E+00
 0.5713401499894E+00 -0.1248890412545E+01  0.0000000000000E+00
 0.5717622119691E+00 -0.1163097083611E+01  0.0000000000000E+00
 0.5724429816650E+00 -0.1077305963517E+01  0.0000000000000E+00
 0.5734202175769E+00 -0.9915189134002E+00  0.0000000000000E+00
 0.5747344290158E+00 -0.9057383667540E+00  0.0000000000000E+00
 0.5764238910593E+00 -0.8199676335031E+00  0.0000000000000E+00
 0.5785137917608E+00 -0.7342100310583E+00  0.0000000000000E+00
 0.5809970447448E+00 -0.6484683984404E+00  0.0000000000000E+00
 0.5838093589073E+00 -0.5627421573021E+00  0.0000000000000E+00
 0.5868136269902E+00 -0.4770258413251E+00  0.0000000000000E+00
 0.5898178951644E+00 -0.3913095253513E+00  0.0000000000000E+00
 0.5926302095884E+00 -0.3055832842213E+00  0.0000000000000E+00
 0.5951134629742E+00 -0.2198416516146E+00  0.0000000000000E+00
 0.5972033641815E+00 -0.1340840491819E+00  0.0000000000000E+00
 0.5988928268029E+00 -0.4831331594156E-01  0.0000000000000E+00
 0.6002070388669E+00  0.3746723069555E-01  0.0000000000000E+00
 0.6011842754332E+00  0.1232542808057E+00  0.0000000000000E+00
 0.6018650458005E+00  0.2090454008946E+00  0.0000000000000E+00
 0.6022871084605E+00  0.2948387298263E+00  0.0000000000000E+00
 0.6068771371579E+00 -0.1253037465844E+01  0.0000000000000E+00
 0.6073023971197E+00 -0.1167458424002E+01  0.0000000000000E+00
 0.6080025340419E+00 -0.1081881590927E+01  0.0000000000000E+00
 0.6090176663387E+00 -0.9963088276876E+00  0.0000000000000E+00
 0.6103908351315E+00 -0.9107425679775E+00  0.0000000000000E+00
 0.6121627077193E+00 -0.8251861214541E+00  0.0000000000000E+00
 0.6143600463551E+00 -0.7396428060213E+00  0.0000000000000E+00
 0.6169753218167E+00 -0.6541154602123E+00  0.0000000000000E+00
 0.6199402247568E+00 -0.5686035061133E+00  0.0000000000000E+00
 0.6231090787274E+00 -0.4831014772506E+00  0.0000000000000E+00
 0.6262779327892E+00 -0.3975994483912E+00  0.0000000000000E+00
 0.6292428359909E+00 -0.3120874943012E+00  0.0000000000000E+00
 0.6318581118542E+00 -0.2265601485040E+00  0.0000000000000E+00
 0.6340554509959E+00 -0.1410168330840E+00  0.0000000000000E+00
 0.6358273241616E+00 -0.5546038657190E-01  0.0000000000000E+00
 0.6372004935795E+00  0.3010587312856E-01  0.0000000000000E+00
 0.6382156265306E+00  0.1156786363610E+00  0.0000000000000E+00
 0.6389157641243E+00  0.2012554694305E+00  0.0000000000000E+00
 0.6393410247663E+00  0.2868345112703E+00  0.0000000000000E+00
 0.6423834709618E+00 -0.1257430208361E+01  0.0000000000000E+00
 0.6428079579416E+00 -0.1172076974739E+01  0.0000000000000E+00
 0.6435234911376E+00 -0.1086725949808E+01  0.0000000000000E+00
 0.6445725488804E+00 -0.1001378994563E+01  0.0000000000000E+00
 0.6460007041001E+00 -0.9160385429092E+00  0.0000000000000E+00
 0.6478510163235E+00 -0.8307079042225E+00  0.0000000000000E+00
 0.6501518219949E+00 -0.7453903969262E+00  0.0000000000000E+00
 0.6528951490542E+00 -0.6600888590394E+00  0.0000000000000E+00
 0.6560086699003E+00 -0.5748027131058E+00  0.0000000000000E+00
 0.6593381388929E+00 -0.4895264924872E+00  0.0000000000000E+00
 0.6626676079766E+00 -0.4042502718721E+00  0.0000000000000E+00
 0.6657811290843E+00 -0.3189641259479E+00  0.0000000000000E+00
 0.6685244565453E+00 -0.2336625880737E+00  0.0000000000000E+00
 0.6708252627226E+00 -0.1483450807910E+00  0.0000000000000E+00
 0.6726755755239E+00 -0.6301444211619E-01  0.0000000000000E+00
 0.6741037313687E+00  0.2232600952730E-01  0.0000000000000E+00
 0.6751527897659E+00  0.1076729647648E+00  0.0000000000000E+00
 0.6758683236333E+00  0.1930239896902E+00  0.0000000000000E+00
 0.6762928112935E+00  0.2783772233094E+00  0.0000000000000E+00
 0.6778575079345E+00 -0.1262067681820E+01  0.0000000000000E+00
 0.6782770771087E+00 -0.1176951540526E+01  0.0000000000000E+00
 0.6790038617375E+00 -0.1091837607843E+01  0.0000000000000E+00
 0.6800827000673E+00 -0.1006727744689E+01  0.0000000000000E+00
 0.6815616968295E+00 -0.9216243851913E+00  0.0000000000000E+00
 0.6834863037813E+00 -0.8365308384297E+00  0.0000000000000E+00
 0.6858864315472E+00 -0.7514504233734E+00  0.0000000000000E+00
 0.6887536652390E+00 -0.6663859775017E+00  0.0000000000000E+00
 0.6920116589981E+00 -0.5813369238382E+00  0.0000000000000E+00
 0.6954975980043E+00 -0.4962977955727E+00  0.0000000000000E+00
 0.6989835371017E+00 -0.4112586673108E+00  0.0000000000000E+00
 0.7022415311224E+00 -0.3262096136574E+00  0.0000000000000E+00
 0.7051087652158E+00 -0.2411451677989E+00  0.0000000000000E+00
 0.7075088934877E+00 -0.1560647527569E+00  0.0000000000000E+00
 0.7094335010174E+00 -0.7097120600793E-01  0.0000000000000E+00
 0.7109124984047E+00  0.1413215347913E-01  0.0000000000000E+00
 0.7119913373889E+00  0.9924201662545E-01  0.0000000000000E+00
 0.7127181226891E+00  0.1843559493029E+00  0.0000000000000E+00
 0.7131376925436E+00  0.2694720905938E+00  0.0000000000000E+00
-0.1461382977135E+01 -0.1366969715354E+01  0.0000000000000E+00
-0.1536838318740E+01 -0.1251434914183E+01  0.0000000000000E+00
-0.1612772383862E+01 -0.1136216660518E+01  0.0000000000000E+00
-0.1682662190134E+01 -0.1017118437211E+01  0.0000000000000E+00
-0.1744352422289E+01 -0.8934077853993E+00  0.0000000000000E+00
-0.1798213558619E+01 -0.7659621724060E+00  0.0000000000000E+00
-0.1844158474103E+01 -0.6353520178781E+00  0.0000000000000E+00
-0.1881388018209E+01 -0.5019106555406E+00  0.0000000000000E+00
-0.1909838253907E+01 -0.3662625943974E+00  0.0000000000000E+00
-0.1928756468757E+01 -0.2289268443260E+00  0.0000000000000E+00
-0.1936610695830E+01 -0.9050316094402E-01  0.0000000000000E+00
-0.1935962495635E+01  0.4816323147748E-01  0.0000000000000E+00
-0.1915746975476E+01  0.1850134490903E+00  0.0000000000000E+00
-0.1866398119172E+01  0.3140157130469E+00  0.0000000000000E+00
-0.1794320744535E+01  0.4315254877347E+00  0.0000000000000E+00
-0.1705912240744E+01  0.5369275948221E+00  0.0000000000000E+00
-0.1607092793437E+01  0.6322756433932E+00  0.0000000000000E+00
-0.1500783670345E+01  0.7188137666816E+00  0.0000000000000E+00
-0.1388289662873E+01  0.7967110478414E+00  0.0000000000000E+00
-0.1422429226874E+01 -0.1359767065380E+01  0.0000000000000E+00
-0.1493912765281E+01 -0.1245948355879E+01  0.0000000000000E+00
-0.1565866851627E+01 -0.1132429649044E+01  0.0000000000000E+00
-0.1632114304946E+01 -0.1015235383770E+01  0.0000000000000E+00
-0.1690615909786E+01 -0.8936717932586E+00  0.0000000000000E+00
-0.1741725163678E+01 -0.7685703365138E+00  0.0000000000000E+00
-0.1785361184768E+01 -0.6404715832861E+00  0.0000000000000E+00
-0.1820766416911E+01 -0.5096914726017E+00  0.0000000000000E+00
-0.1847876058184E+01 -0.3768216156395E+00  0.0000000000000E+00
-0.1865967993324E+01 -0.2423534138595E+00  0.0000000000000E+00
-0.1873578256475E+01 -0.1068545354329E+00  0.0000000000000E+00
-0.1873120957503E+01  0.2887478878923E-01  0.0000000000000E+00
-0.1854104576422E+01  0.1628844644037E+00  0.0000000000000E+00
-0.1807462310472E+01  0.2894600596444E+00  0.0000000000000E+00
-0.1739261410714E+01  0.4051486846621E+00  0.0000000000000E+00
-0.1655564219598E+01  0.5093673682636E+00  0.0000000000000E+00
-0.1561981855766E+01  0.6040614774211E+00  0.0000000000000E+00
-0.1461284503982E+01  0.6904095498839E+00  0.0000000000000E+00
-0.1354710767645E+01  0.7685716769124E+00  0.0000000000000E+00
-0.1383422395682E+01 -0.1352772899744E+01  0.0000000000000E+00
-0.1450936926762E+01 -0.1240659305974E+01  0.0000000000000E+00
-0.1518913830188E+01 -0.1128829170111E+01  0.0000000000000E+00
-0.1581521725986E+01 -0.1013527888229E+01  0.0000000000000E+00
-0.1636837498850E+01 -0.8941003841387E+00  0.0000000000000E+00
-0.1685197665562E+01 -0.7713321085327E+00  0.0000000000000E+00
-0.1726527587358E+01 -0.6457337815459E+00  0.0000000000000E+00
-0.1760111302466E+01 -0.5176039475250E+00  0.0000000000000E+00
-0.1785883144110E+01 -0.3875013196816E+00  0.0000000000000E+00
-0.1803151594074E+01 -0.2558896915364E+00  0.0000000000000E+00
-0.1810520687586E+01 -0.1233046437126E+00  0.0000000000000E+00
-0.1810257084305E+01  0.9498587900696E-02  0.0000000000000E+00
-0.1792442632968E+01  0.1406786833209E+00  0.0000000000000E+00
-0.1748509748075E+01  0.2648385733975E+00  0.0000000000000E+00
-0.1684188114646E+01  0.3787170164180E+00  0.0000000000000E+00
-0.1605205028395E+01  0.4817632478827E+00  0.0000000000000E+00
-0.1516862540600E+01  0.5758143908855E+00  0.0000000000000E+00
-0.1421779752733E+01  0.6619833862764E+00  0.0000000000000E+00
-0.1321129080072E+01  0.7404213328697E+00  0.0000000000000E+00
-0.1344363461517E+01 -0.1345988511677E+01  0.0000000000000E+00
-0.1407911724722E+01 -0.1235568989505E+01  0.0000000000000E+00
-0.1471914184652E+01 -0.1125416380539E+01  0.0000000000000E+00
-0.1530885262298E+01 -0.1011997039425E+01  0.0000000000000E+00
-0.1583017942955E+01 -0.8946945791509E+00  0.0000000000000E+00
-0.1628631762636E+01 -0.7742484420609E+00  0.0000000000000E+00
-0.1667658325614E+01 -0.6511394989236E+00  0.0000000000000E+00
-0.1699423264513E+01 -0.5256488994063E+00  0.0000000000000E+00
-0.1723860047741E+01 -0.3983024585749E+00  0.0000000000000E+00
-0.1740307754039E+01 -0.2695363624626E+00  0.0000000000000E+00
-0.1747438419795E+01 -0.1398541040076E+00  0.0000000000000E+00
-0.1747371254740E+01 -0.9965922536359E-02  0.0000000000000E+00
-0.1730761473034E+01  0.1183956213862E+00  0.0000000000000E+00
-0.1689540710730E+01  0.2401508372010E+00  0.0000000000000E+00
-0.1629101087155E+01  0.3522301339270E+00  0.0000000000000E+00
-0.1554834850913E+01  0.4541149533462E+00  0.0000000000000E+00
-0.1471734985227E+01  0.5475341727792E+00  0.0000000000000E+00
-0.1382269507802E+01  0.6335351346815E+00  0.0000000000000E+00
-0.1287544645600E+01  0.7122599448561E+00  0.0000000000000E+00
-0.1305253595826E+01 -0.1339415213000E+01  0.0000000000000E+00
-0.1364838274543E+01 -0.1230678649356E+01  0.0000000000000E+00
-0.1424868974351E+01 -0.1122192454299E+01  0.0000000000000E+00
-0.1480205916758E+01 -0.1010643942172E+01  0.0000000000000E+00
-0.1529158187961E+01 -0.8954554136531E+00  0.0000000000000E+00
-0.1572028343215E+01 -0.7773203027582E+00  0.0000000000000E+00
-0.1608754229756E+01 -0.6566896311765E+00  0.0000000000000E+00
-0.1638703074586E+01 -0.5338271539178E+00  0.0000000000000E+00
-0.1661807481336E+01 -0.4092257877632E+00  0.0000000000000E+00
-0.1677437125571E+01 -0.2832941117465E+00  0.0000000000000E+00
-0.1684332044841E+01 -0.1565035310225E+00  0.0000000000000E+00
-0.1684463999390E+01 -0.2951928680034E-01  0.0000000000000E+00
-0.1669061564887E+01  0.9603480454536E-01  0.0000000000000E+00
-0.1630555602536E+01  0.2153964467291E+00  0.0000000000000E+00
-0.1574000666711E+01  0.3256877018770E+00  0.0000000000000E+00
-0.1504453958951E+01  0.4264222175976E+00  0.0000000000000E+00
-0.1426599394119E+01  0.5192206236651E+00  0.0000000000000E+00
-0.1342753905869E+01  0.6050646627177E+00  0.0000000000000E+00
-0.1253957532744E+01  0.6840874469890E+00  0.0000000000000E+00
-0.1266093896943E+01 -0.1333054270719E+01  0.0000000000000E+00
-0.1321717616255E+01 -0.1225989485819E+01  0.0000000000000E+00
-0.1377779181010E+01 -0.1119158524968E+01  0.0000000000000E+00
-0.1429484612826E+01 -0.1009469663358E+01  0.0000000000000E+00
-0.1475259099109E+01 -0.8963838878734E+00  0.0000000000000E+00
-0.1515388214367E+01 -0.7805486242106E+00  0.0000000000000E+00
-0.1549816048729E+01 -0.6623850452667E+00  0.0000000000000E+00
-0.1577951423558E+01 -0.5421395114141E+00  0.0000000000000E+00
-0.1599726077743E+01 -0.4202720410058E+00  0.0000000000000E+00
-0.1614540283554E+01 -0.2971636065640E+00  0.0000000000000E+00
-0.1621202079703E+01 -0.1732535253581E+00  0.0000000000000E+00
-0.1621535777370E+01 -0.4916203891051E-01  0.0000000000000E+00
-0.1607343309956E+01  0.7359576528685E-01  0.0000000000000E+00
-0.1571554767384E+01  0.1905750010332E+00  0.0000000000000E+00
-0.1518887139772E+01  0.2990893859719E+00  0.0000000000000E+00
-0.1454062581599E+01  0.3986847730844E+00  0.0000000000000E+00
-0.1381455939042E+01  0.4908735428029E+00  0.0000000000000E+00
-0.1303233061414E+01  0.5765718365090E+00  0.0000000000000E+00
-0.1220367798727E+01  0.6559037723053E+00  0.0000000000000E+00
-0.1226885434598E+01 -0.1326906918420E+01  0.0000000000000E+00
-0.1278550759514E+01 -0.1221502667451E+01  0.0000000000000E+00
-0.1330645754203E+01 -0.1116315696059E+01  0.0000000000000E+00
-0.1378722240279E+01 -0.1008475241632E+01  0.0000000000000E+00
-0.1421321506754E+01 -0.8974809757901E+00  0.0000000000000E+00
-0.1458712147377E+01 -0.7839343158880E+00  0.0000000000000E+00
-0.1490844495113E+01 -0.6682265862935E+00  0.0000000000000E+00
-0.1517168965702E+01 -0.5505867527475E+00  0.0000000000000E+00
-0.1537616433326E+01 -0.4314419350033E+00  0.0000000000000E+00
-0.1551617766864E+01 -0.3111454995403E+00  0.0000000000000E+00
-0.1558049006250E+01 -0.1901046756128E+00  0.0000000000000E+00
-0.1558587013893E+01 -0.6889470344107E-01  0.0000000000000E+00
-0.1545607077695E+01  0.5107804305651E-01  0.0000000000000E+00
-0.1512538520197E+01  0.1656861039298E+00  0.0000000000000E+00
-0.1463760767663E+01  0.2724348549213E+00  0.0000000000000E+00
-0.1403660927249E+01  0.3709023539556E+00  0.0000000000000E+00
-0.1336304775877E+01  0.4624927302273E+00  0.0000000000000E+00
-0.1263707078111E+01  0.5480565223604E+00  0.0000000000000E+00
-0.1186775495267E+01  0.6277088537534E+00  0.0000000000000E+00
-0.1187629395366E+01 -0.1320974386387E+01  0.0000000000000E+00
-0.1235338830454E+01 -0.1217219359810E+01  0.0000000000000E+00
-0.1283469759628E+01 -0.1113665068416E+01  0.0000000000000E+00
-0.1327919804237E+01 -0.1007661713037E+01  0.0000000000000E+00
-0.1367346355235E+01 -0.8987476485388E+00  0.0000000000000E+00
-0.1402001025609E+01 -0.7874782839299E+00  0.0000000000000E+00
-0.1431840391102E+01 -0.6742150953269E+00  0.0000000000000E+00
-0.1456356461827E+01 -0.5591696538526E+00  0.0000000000000E+00
-0.1475479247296E+01 -0.4427361805032E+00  0.0000000000000E+00
-0.1488670212889E+01 -0.3252404361983E+00  0.0000000000000E+00
-0.1494873399790E+01 -0.2070575620616E+00  0.0000000000000E+00
-0.1495618221986E+01 -0.8871779540677E-01  0.0000000000000E+00
-0.1483853318484E+01  0.2848118797714E-01  0.0000000000000E+00
-0.1453507248027E+01  0.1407293705068E+00  0.0000000000000E+00
-0.1408621873567E+01  0.2457237885353E+00  0.0000000000000E+00
-0.1353249254825E+01  0.3430747044833E+00  0.0000000000000E+00
-0.1291146099045E+01  0.4340779944504E+00  0.0000000000000E+00
-0.1224176085705E+01  0.5195185928221E+00  0.0000000000000E+00
-0.1153180687300E+01  0.5995026277207E+00  0.0000000000000E+00
-0.1148326976788E+01 -0.1315257877050E+01  0.0000000000000E+00
-0.1192082964804E+01 -0.1213140702054E+01  0.0000000000000E+00
-0.1236252271205E+01 -0.1111207717923E+01  0.0000000000000E+00
-0.1277078316727E+01 -0.1007030090139E+01  0.0000000000000E+00
-0.1313334594560E+01 -0.9001848553013E+00  0.0000000000000E+00
-0.1345255736939E+01 -0.7911814140789E+00  0.0000000000000E+00
-0.1372804562317E+01 -0.6803513946257E+00  0.0000000000000E+00
-0.1395514675171E+01 -0.5678889734651E+00  0.0000000000000E+00
-0.1413315220375E+01 -0.4541554726861E+00  0.0000000000000E+00
-0.1425698259699E+01 -0.3394490481422E+00  0.0000000000000E+00
-0.1431675835588E+01 -0.2241127527187E+00  0.0000000000000E+00
-0.1432629913986E+01 -0.1086318192211E+00  0.0000000000000E+00
-0.1422082481537E+01  0.5804759131052E-02  0.0000000000000E+00
-0.1394461336550E+01  0.1157044232416E+00  0.0000000000000E+00
-0.1353470779282E+01  0.2189558725478E+00  0.0000000000000E+00
-0.1302827821999E+01  0.3152015735085E+00  0.0000000000000E+00
-0.1245980101937E+01  0.4056291472893E+00  0.0000000000000E+00
-0.1184640213205E+01  0.4909579225658E+00  0.0000000000000E+00
-0.1119583439366E+01  0.5712850316116E+00  0.0000000000000E+00
-0.1108979375216E+01 -0.1309758562184E+01  0.0000000000000E+00
-0.1148784295643E+01 -0.1209267804259E+01  0.0000000000000E+00
-0.1188994358740E+01 -0.1108944692962E+01  0.0000000000000E+00
-0.1226198784311E+01 -0.1006581359642E+01  0.0000000000000E+00
-0.1259287168077E+01 -0.9017935211183E+00  0.0000000000000E+00
-0.1288477161522E+01 -0.7950445697246E+00  0.0000000000000E+00
-0.1313737825754E+01 -0.6866362859398E+00  0.0000000000000E+00
-0.1334644359599E+01 -0.5767454517047E+00  0.0000000000000E+00
-0.1351125043330E+01 -0.4657004900490E+00  0.0000000000000E+00
-0.1362702534998E+01 -0.3537719522543E+00  0.0000000000000E+00
-0.1368456878322E+01 -0.2412708028569E+00  0.0000000000000E+00
-0.1369622591563E+01 -0.1286372685415E+00  0.0000000000000E+00
-0.1360295005660E+01 -0.1695167559519E-01  0.0000000000000E+00
-0.1335401161793E+01  0.9061089160135E-01  0.0000000000000E+00
-0.1298307798104E+01  0.1921307980690E+00  0.0000000000000E+00
-0.1252396879368E+01  0.2872827138462E+00  0.0000000000000E+00
-0.1200806972471E+01  0.3771460033088E+00  0.0000000000000E+00
-0.1145099585870E+01  0.4623743879392E+00  0.0000000000000E+00
-0.1085983814086E+01  0.5430560035856E+00  0.0000000000000E+00
-0.1069587807609E+01 -0.1304477586773E+01  0.0000000000000E+00
-0.1105443975430E+01 -0.1205601751120E+01  0.0000000000000E+00
-0.1141697110190E+01 -0.1106877017936E+01  0.0000000000000E+00
-0.1175282230482E+01 -0.1006316485686E+01  0.0000000000000E+00
-0.1205205034859E+01 -0.9035745498883E+00  0.0000000000000E+00
-0.1231666194052E+01 -0.7990685945414E+00  0.0000000000000E+00
-0.1254641011766E+01 -0.6930705527353E+00  0.0000000000000E+00
-0.1273746281175E+01 -0.5857398118447E+00  0.0000000000000E+00
-0.1288909417977E+01 -0.4773718956829E+00  0.0000000000000E+00
-0.1299683676407E+01 -0.3682097514539E+00  0.0000000000000E+00
-0.1305217101473E+01 -0.2585322552314E+00  0.0000000000000E+00
-0.1306596764096E+01 -0.1487346259530E+00  0.0000000000000E+00
-0.1298491336305E+01 -0.3978853868330E-01  0.0000000000000E+00
-0.1276327105409E+01  0.6544841325714E-01  0.0000000000000E+00
-0.1243133247977E+01  0.1652482630036E+00  0.0000000000000E+00
-0.1201956681219E+01  0.2593178837163E+00  0.0000000000000E+00
-0.1155626901319E+01  0.3486283811055E+00  0.0000000000000E+00
-0.1105554330784E+01  0.4337678679626E+00  0.0000000000000E+00
-0.1052381874987E+01  0.5148154831302E+00  0.0000000000000E+00
-0.1030153478891E+01 -0.1299416062439E+01  0.0000000000000E+00
-0.1062063143085E+01 -0.1202143595677E+01  0.0000000000000E+00
-0.1094361598468E+01 -0.1105005687296E+01  0.0000000000000E+00
-0.1124329662344E+01 -0.1006236404253E+01  0.0000000000000E+00
-0.1151089136449E+01 -0.9055288192595E+00  0.0000000000000E+00
-0.1174823710759E+01 -0.8032543079536E+00  0.0000000000000E+00
-0.1195514931520E+01 -0.6996549563073E+00  0.0000000000000E+00
-0.1212821186271E+01 -0.5948727571351E+00  0.0000000000000E+00
-0.1226669026167E+01 -0.4891703348581E+00  0.0000000000000E+00
-0.1236642301545E+01 -0.3827630330845E+00  0.0000000000000E+00
-0.1241957058761E+01 -0.2758976392924E+00  0.0000000000000E+00
-0.1243552921638E+01 -0.1689243630130E+00  0.0000000000000E+00
-0.1236671900503E+01 -0.6270624381806E-01  0.0000000000000E+00
-0.1217239532245E+01  0.4021663263883E-01  0.0000000000000E+00
-0.1187947432191E+01  0.1383079702589E+00  0.0000000000000E+00
-0.1151507469733E+01  0.2313068448822E+00  0.0000000000000E+00
-0.1110440069832E+01  0.3200761016069E+00  0.0000000000000E+00
-0.1066004568682E+01  0.4051382429913E+00  0.0000000000000E+00
-0.1018777682354E+01  0.4865634102839E+00  0.0000000000000E+00
-0.9906777036991E+00 -0.1294575088408E+01  0.0000000000000E+00
-0.1018643046870E+01 -0.1198894379352E+01  0.0000000000000E+00
-0.1046989005467E+01 -0.1103331684666E+01  0.0000000000000E+00
-0.1073342195220E+01 -0.1006342041053E+01  0.0000000000000E+00
-0.1096940521322E+01 -0.9076571968749E+00  0.0000000000000E+00
-0.1117950692994E+01 -0.8076025194146E+00  0.0000000000000E+00
-0.1136360498971E+01 -0.7063902478163E+00  0.0000000000000E+00
-0.1151869921146E+01 -0.6041449803516E+00  0.0000000000000E+00
-0.1164404646165E+01 -0.5010964418930E+00  0.0000000000000E+00
-0.1173579120367E+01 -0.3974323729538E+00  0.0000000000000E+00
-0.1178677391469E+01 -0.2933674723030E+00  0.0000000000000E+00
-0.1180491636525E+01 -0.1892069384262E+00  0.0000000000000E+00
-0.1174837201104E+01 -0.8570519127675E-01  0.0000000000000E+00
-0.1158138874721E+01  0.1491520765000E-01  0.0000000000000E+00
-0.1132750711982E+01  0.1113096355665E+00  0.0000000000000E+00
-0.1101049534424E+01  0.2032493705286E+00  0.0000000000000E+00
-0.1065246695464E+01  0.2914889951333E+00  0.0000000000000E+00
-0.1026450444716E+01  0.3764854001971E+00  0.0000000000000E+00
-0.9851713088512E+00  0.4582997287889E+00  0.0000000000000E+00
-0.9511617699266E+00 -0.1289955725504E+01  0.0000000000000E+00
-0.9751849067139E+00 -0.1195855107115E+01  0.0000000000000E+00
-0.9995804831506E+00 -0.1101855959167E+01  0.0000000000000E+00
-0.1022320913129E+01 -0.1006634289366E+01  0.0000000000000E+00
-0.1042760205564E+01 -0.9099605201844E+00  0.0000000000000E+00
-0.1061048088928E+01 -0.8121140105493E+00  0.0000000000000E+00
-0.1077178594388E+01 -0.7132771530690E+00  0.0000000000000E+00
-0.1090893298189E+01 -0.6135571514881E+00  0.0000000000000E+00
-0.1102117022494E+01 -0.5131508309729E+00  0.0000000000000E+00
-0.1110494809551E+01 -0.4122183294437E+00  0.0000000000000E+00
-0.1115378708452E+01 -0.3109422568459E+00  0.0000000000000E+00
-0.1117413449799E+01 -0.2095827989697E+00  0.0000000000000E+00
-0.1112987711460E+01 -0.1087857720977E+00  0.0000000000000E+00
-0.1099025538536E+01 -0.1045619698468E-01  0.0000000000000E+00
-0.1077543425416E+01  0.8425297945760E-01  0.0000000000000E+00
-0.1050583145725E+01  0.1751452370352E+00  0.0000000000000E+00
-0.1020046981025E+01  0.2628668939426E+00  0.0000000000000E+00
-0.9868920940821E+00  0.3478092277359E+00  0.0000000000000E+00
-0.9515628220696E+00  0.4300243827152E+00  0.0000000000000E+00
-0.9116069872608E+00 -0.1285559004498E+01  0.0000000000000E+00
-0.9316899632209E+00 -0.1193026755469E+01  0.0000000000000E+00
-0.9521372030405E+00 -0.1100579433030E+01  0.0000000000000E+00
-0.9712669185257E+00 -0.1007114017167E+01  0.0000000000000E+00
-0.9885492225798E+00 -0.9124396029110E+00  0.0000000000000E+00
-0.1004116862923E+01 -0.8167895408345E+00  0.0000000000000E+00
-0.1017970113108E+01 -0.7203163773010E+00  0.0000000000000E+00
-0.1029892143722E+01 -0.6231099215445E+00  0.0000000000000E+00
-0.1039806912476E+01 -0.5253340988647E+00  0.0000000000000E+00
-0.1047390057437E+01 -0.4271214450931E+00  0.0000000000000E+00
-0.1052061629091E+01 -0.3286224812346E+00  0.0000000000000E+00
-0.1054318911882E+01 -0.2300523787265E+00  0.0000000000000E+00
-0.1051123913148E+01 -0.1319483661985E+00  0.0000000000000E+00
-0.1039899936456E+01 -0.3589790699629E-01  0.0000000000000E+00
-0.1022325916455E+01  0.5713773042639E-01  0.0000000000000E+00
-0.1000108578797E+01  0.1469942271592E+00  0.0000000000000E+00
-0.9748411328702E+00  0.2342096350805E+00  0.0000000000000E+00
-0.9473296543422E+00  0.3191096169583E+00  0.0000000000000E+00
-0.9179522907849E+00  0.4017373177321E+00  0.0000000000000E+00
-0.8720146866331E+00 -0.1281385925185E+01  0.0000000000000E+00
-0.8881594771479E+00 -0.1190410271569E+01  0.0000000000000E+00
-0.9046603557195E+00 -0.1099503000773E+01  0.0000000000000E+00
-0.9201813318361E+00 -0.1007782066347E+01  0.0000000000000E+00
-0.9343086226444E+00 -0.9150952343233E+00  0.0000000000000E+00
-0.9471579951153E+00 -0.8216298469200E+00  0.0000000000000E+00
-0.9587359651358E+00 -0.7275086045478E+00  0.0000000000000E+00
-0.9688672976347E+00 -0.6328039219456E+00  0.0000000000000E+00
-0.9774750858942E+00 -0.5376468243853E+00  0.0000000000000E+00
-0.9842655637184E+00 -0.4421422461151E+00  0.0000000000000E+00
-0.9887267829990E+00 -0.3464086190817E+00  0.0000000000000E+00
-0.9912085823139E+00 -0.2506160987026E+00  0.0000000000000E+00
-0.9892462957472E+00 -0.1551933420424E+00  0.0000000000000E+00
-0.9807624881220E+00 -0.6141023828673E-01  0.0000000000000E+00
-0.9670985347967E+00  0.2996362516681E-01  0.0000000000000E+00
-0.9496261133913E+00  0.1187961302237E+00  0.0000000000000E+00
-0.9296293608063E+00  0.2055170605213E+00  0.0000000000000E+00
-0.9077632653588E+00  0.2903864625034E+00  0.0000000000000E+00
-0.8843397849235E+00  0.3734384811542E+00  0.0000000000000E+00
-0.8323862196444E+00 -0.1277437455478E+01  0.0000000000000E+00
-0.8445947288565E+00 -0.1188006572371E+01  0.0000000000000E+00
-0.8571511503101E+00 -0.1098627528392E+01  0.0000000000000E+00
-0.8690652909581E+00 -0.1008639251951E+01  0.0000000000000E+00
-0.8800394724388E+00 -0.9179281785215E+00  0.0000000000000E+00
-0.8901724809746E+00 -0.8266356419629E+00  0.0000000000000E+00
-0.8994770747405E+00 -0.7348544970267E+00  0.0000000000000E+00
-0.9078196130017E+00 -0.6426397639724E+00  0.0000000000000E+00
-0.9151223246404E+00 -0.5500895678812E+00  0.0000000000000E+00
-0.9211220391125E+00 -0.4572812419253E+00  0.0000000000000E+00
-0.9253748097363E+00 -0.3643011288742E+00  0.0000000000000E+00
-0.9280830294945E+00 -0.2712743664508E+00  0.0000000000000E+00
-0.9273553566028E+00 -0.1785210563106E+00  0.0000000000000E+00
-0.9216136198406E+00 -0.8699349664939E-01  0.0000000000000E+00
-0.9118616357056E+00  0.2730408804202E-02  0.0000000000000E+00
-0.8991360337160E+00  0.9055074230215E-01  0.0000000000000E+00
-0.8844118779828E+00  0.1767890173054E+00  0.0000000000000E+00
-0.8681930692261E+00  0.2616396623902E+00  0.0000000000000E+00
-0.8507253755287E+00  0.3451278219878E+00  0.0000000000000E+00
-0.7927229579626E+00 -0.1273714530528E+01  0.0000000000000E+00
-0.8009970177392E+00 -0.1185816543790E+01  0.0000000000000E+00
-0.8096108139298E+00 -0.1097953852569E+01  0.0000000000000E+00
-0.8179199507468E+00 -0.1009686361438E+01  0.0000000000000E+00
-0.8257428545609E+00 -0.9209391737407E+00  0.0000000000000E+00
-0.8331613308469E+00 -0.8318076149775E+00  0.0000000000000E+00
-0.8401943800219E+00 -0.7423546945341E+00  0.0000000000000E+00
-0.8467499556851E+00 -0.6526180382057E+00  0.0000000000000E+00
-0.8527494223438E+00 -0.5626628707190E+00  0.0000000000000E+00
-0.8579602050271E+00 -0.4725389246792E+00  0.0000000000000E+00
-0.8620063584978E+00 -0.3823004535589E+00  0.0000000000000E+00
-0.8649428304042E+00 -0.2920275757042E+00  0.0000000000000E+00
-0.8654516005855E+00 -0.2019318535823E+00  0.0000000000000E+00
-0.8624537643804E+00 -0.1126479774958E+00  0.0000000000000E+00
-0.8566155798348E+00 -0.2456216487784E-01  0.0000000000000E+00
-0.8486386282961E+00  0.6225786639916E-01  0.0000000000000E+00
-0.8391889007890E+00  0.1480253576752E+00  0.0000000000000E+00
-0.8286192101987E+00  0.2328691181076E+00  0.0000000000000E+00
-0.8171091347244E+00  0.3168052909748E+00  0.0000000000000E+00
-0.7530262926939E+00 -0.1270218051859E+01  0.0000000000000E+00
-0.7573676616205E+00 -0.1183841039890E+01  0.0000000000000E+00
-0.7620405911220E+00 -0.1097482779905E+01  0.0000000000000E+00
-0.7667464824764E+00 -0.1010924153951E+01  0.0000000000000E+00
-0.7714198670190E+00 -0.9241289316708E+00  0.0000000000000E+00
-0.7761255694772E+00 -0.8371464302010E+00  0.0000000000000E+00
-0.7808888324672E+00 -0.7500098138566E+00  0.0000000000000E+00
-0.7856592039196E+00 -0.6627393139834E+00  0.0000000000000E+00
-0.7903571839912E+00 -0.5753672547891E+00  0.0000000000000E+00
-0.7947807932090E+00 -0.4879157688224E+00  0.0000000000000E+00
-0.7986220877978E+00 -0.4004070201384E+00  0.0000000000000E+00
-0.8017885703212E+00 -0.3128761060169E+00  0.0000000000000E+00
-0.8035355398389E+00 -0.2254260660222E+00  0.0000000000000E+00
-0.8032833607526E+00 -0.1383739655889E+00  0.0000000000000E+00
-0.8013607330460E+00 -0.5191433321603E-01  0.0000000000000E+00
-0.7981341898262E+00  0.3391731262723E-01  0.0000000000000E+00
-0.7939606487436E+00  0.1192259392064E+00  0.0000000000000E+00
-0.7890418346189E+00  0.2040747347020E+00  0.0000000000000E+00
-0.7834911356789E+00  0.2884708406368E+00  0.0000000000000E+00
 0.7530263043685E+00 -0.1270218053608E+01  0.0000000000000E+00
 0.7573676719998E+00 -0.1183841041557E+01  0.0000000000000E+00
 0.7620406002124E+00 -0.1097482781485E+01  0.0000000000000E+00
 0.7667464902935E+00 -0.1010924155438E+01  0.0000000000000E+00
 0.7714198735918E+00 -0.9241289330601E+00  0.0000000000000E+00
 0.7761255748516E+00 -0.8371464314874E+00  0.0000000000000E+00
 0.7808888367128E+00 -0.7500098150348E+00  0.0000000000000E+00
 0.7856592071364E+00 -0.6627393150508E+00  0.0000000000000E+00
 0.7903571863134E+00 -0.5753672557459E+00  0.0000000000000E+00
 0.7947807947991E+00 -0.4879157696728E+00  0.0000000000000E+00
 0.7986220888290E+00 -0.4004070208897E+00  0.0000000000000E+00
 0.8017885709542E+00 -0.3128761066771E+00  0.0000000000000E+00
 0.8035355402108E+00 -0.2254260665967E+00  0.0000000000000E+00
 0.8032833609624E+00 -0.1383739660813E+00  0.0000000000000E+00
 0.8013607331609E+00 -0.5191433362778E-01  0.0000000000000E+00
 0.7981341898900E+00  0.3391731229450E-01  0.0000000000000E+00
 0.7939606487837E+00  0.1192259389523E+00  0.0000000000000E+00
 0.7890418346513E+00  0.2040747345265E+00  0.0000000000000E+00
 0.7834911357119E+00  0.2884708405401E+00  0.0000000000000E+00
 0.7927229690089E+00 -0.1273714532262E+01  0.0000000000000E+00
 0.8009970275589E+00 -0.1185816545447E+01  0.0000000000000E+00
 0.8096108225272E+00 -0.1097953854141E+01  0.0000000000000E+00
 0.8179199581358E+00 -0.1009686362918E+01  0.0000000000000E+00
 0.8257428607702E+00 -0.9209391751259E+00  0.0000000000000E+00
 0.8331613359210E+00 -0.8318076162633E+00  0.0000000000000E+00
 0.8401943840277E+00 -0.7423546957159E+00  0.0000000000000E+00
 0.8467499587182E+00 -0.6526180392811E+00  0.0000000000000E+00
 0.8527494245320E+00 -0.5626628716882E+00  0.0000000000000E+00
 0.8579602065249E+00 -0.4725389255462E+00  0.0000000000000E+00
 0.8620063594690E+00 -0.3823004543303E+00  0.0000000000000E+00
 0.8649428310004E+00 -0.2920275763873E+00  0.0000000000000E+00
 0.8654516009409E+00 -0.2019318541816E+00  0.0000000000000E+00
 0.8624537645892E+00 -0.1126479780131E+00  0.0000000000000E+00
 0.8566155799597E+00 -0.2456216531384E-01  0.0000000000000E+00
 0.8486386283778E+00  0.6225786604307E-01  0.0000000000000E+00
 0.8391889008528E+00  0.1480253573988E+00  0.0000000000000E+00
 0.8286192102596E+00  0.2328691179110E+00  0.0000000000000E+00
 0.8171091347902E+00  0.3168052908585E+00  0.0000000000000E+00
 0.8323862300631E+00 -0.1277437457190E+01  0.0000000000000E+00
 0.8445947381175E+00 -0.1188006574008E+01  0.0000000000000E+00
 0.8571511584150E+00 -0.1098627529947E+01  0.0000000000000E+00
 0.8690652979196E+00 -0.1008639253417E+01  0.0000000000000E+00
 0.8800394782851E+00 -0.9179281798955E+00  0.0000000000000E+00
 0.8901724857490E+00 -0.8266356432415E+00  0.0000000000000E+00
 0.8994770785070E+00 -0.7348544982060E+00  0.0000000000000E+00
 0.9078196158517E+00 -0.6426397650503E+00  0.0000000000000E+00
 0.9151223266951E+00 -0.5500895688577E+00  0.0000000000000E+00
 0.9211220405183E+00 -0.4572812428042E+00  0.0000000000000E+00
 0.9253748106480E+00 -0.3643011296615E+00  0.0000000000000E+00
 0.9280830300542E+00 -0.2712743671533E+00  0.0000000000000E+00
 0.9273553569420E+00 -0.1785210569313E+00  0.0000000000000E+00
 0.9216136200487E+00 -0.8699349718877E-01  0.0000000000000E+00
 0.9118616358407E+00  0.2730408346272E-02  0.0000000000000E+00
 0.8991360338156E+00  0.9055074192457E-01  0.0000000000000E+00
 0.8844118780703E+00  0.1767890170080E+00  0.0000000000000E+00
 0.8681930693155E+00  0.2616396621734E+00  0.0000000000000E+00
 0.8507253756273E+00  0.3451278218524E+00  0.0000000000000E+00
 0.8720146964251E+00 -0.1281385926866E+01  0.0000000000000E+00
 0.8881594858509E+00 -0.1190410273179E+01  0.0000000000000E+00
 0.9046603633328E+00 -0.1099503002303E+01  0.0000000000000E+00
 0.9201813383709E+00 -0.1007782067791E+01  0.0000000000000E+00
 0.9343086281286E+00 -0.9150952356790E+00  0.0000000000000E+00
 0.9471579995906E+00 -0.8216298481850E+00  0.0000000000000E+00
 0.9587359686636E+00 -0.7275086057185E+00  0.0000000000000E+00
 0.9688673003020E+00 -0.6328039230203E+00  0.0000000000000E+00
 0.9774750878159E+00 -0.5376468253640E+00  0.0000000000000E+00
 0.9842655650327E+00 -0.4421422470013E+00  0.0000000000000E+00
 0.9887267838514E+00 -0.3464086198808E+00  0.0000000000000E+00
 0.9912085828374E+00 -0.2506160994206E+00  0.0000000000000E+00
 0.9892462960706E+00 -0.1551933426814E+00  0.0000000000000E+00
 0.9807624883295E+00 -0.6141023884543E-01  0.0000000000000E+00
 0.9670985349422E+00  0.2996362468928E-01  0.0000000000000E+00
 0.9496261135090E+00  0.1187961298265E+00  0.0000000000000E+00
 0.9296293609177E+00  0.2055170602043E+00  0.0000000000000E+00
 0.9077632654769E+00  0.2903864622674E+00  0.0000000000000E+00
 0.8843397850549E+00  0.3734384810002E+00  0.0000000000000E+00
 0.9116069964270E+00 -0.1285559006139E+01  0.0000000000000E+00
 0.9316899713668E+00 -0.1193026757043E+01  0.0000000000000E+00
 0.9521372101630E+00 -0.1100579434527E+01  0.0000000000000E+00
 0.9712669246345E+00 -0.1007114018582E+01  0.0000000000000E+00
 0.9885492277025E+00 -0.9124396042416E+00  0.0000000000000E+00
 0.1004116867100E+01 -0.8167895420793E+00  0.0000000000000E+00
 0.1017970116397E+01 -0.7203163784571E+00  0.0000000000000E+00
 0.1029892146207E+01 -0.6231099226104E+00  0.0000000000000E+00
 0.1039806914265E+01 -0.5253340998405E+00  0.0000000000000E+00
 0.1047390058661E+01 -0.4271214459819E+00  0.0000000000000E+00
 0.1052061629884E+01 -0.3286224820412E+00  0.0000000000000E+00
 0.1054318912369E+01 -0.2300523794564E+00  0.0000000000000E+00
 0.1051123913456E+01 -0.1319483668524E+00  0.0000000000000E+00
 0.1039899936664E+01 -0.3589790757152E-01  0.0000000000000E+00
 0.1022325916611E+01  0.5713772993158E-01  0.0000000000000E+00
 0.1000108578933E+01  0.1469942267442E+00  0.0000000000000E+00
 0.9748411330057E+00  0.2342096347455E+00  0.0000000000000E+00
 0.9473296544890E+00  0.3191096167040E+00  0.0000000000000E+00
 0.9179522909491E+00  0.4017373175599E+00  0.0000000000000E+00
 0.9511617784682E+00 -0.1289955727096E+01  0.0000000000000E+00
 0.9751849143037E+00 -0.1195855108645E+01  0.0000000000000E+00
 0.9995804897833E+00 -0.1101855960624E+01  0.0000000000000E+00
 0.1022320918812E+01 -0.1006634290744E+01  0.0000000000000E+00
 0.1042760210326E+01 -0.9099605214829E+00  0.0000000000000E+00
 0.1061048092807E+01 -0.8121140117675E+00  0.0000000000000E+00
 0.1077178597441E+01 -0.7132771542044E+00  0.0000000000000E+00
 0.1090893300493E+01 -0.6135571525397E+00  0.0000000000000E+00
 0.1102117024151E+01 -0.5131508319408E+00  0.0000000000000E+00
 0.1110494810684E+01 -0.4122183303305E+00  0.0000000000000E+00
 0.1115378709188E+01 -0.3109422576558E+00  0.0000000000000E+00
 0.1117413450252E+01 -0.2095827997078E+00  0.0000000000000E+00
 0.1112987711753E+01 -0.1087857727634E+00  0.0000000000000E+00
 0.1099025538743E+01 -0.1045619757369E-01  0.0000000000000E+00
 0.1077543425583E+01  0.8425297894781E-01  0.0000000000000E+00
 0.1050583145880E+01  0.1751452366042E+00  0.0000000000000E+00
 0.1020046981184E+01  0.2628668935907E+00  0.0000000000000E+00
 0.9868920942577E+00  0.3478092274642E+00  0.0000000000000E+00
 0.9515628222668E+00  0.4300243825253E+00  0.0000000000000E+00
 0.9906777116171E+00 -0.1294575089943E+01  0.0000000000000E+00
 0.1018643053905E+01 -0.1198894380829E+01  0.0000000000000E+00
 0.1046989011611E+01 -0.1103331686075E+01  0.0000000000000E+00
 0.1073342200480E+01 -0.1006342042387E+01  0.0000000000000E+00
 0.1096940525724E+01 -0.9076571981345E+00  0.0000000000000E+00
 0.1117950696577E+01 -0.8076025205997E+00  0.0000000000000E+00
 0.1136360501787E+01 -0.7063902489253E+00  0.0000000000000E+00
 0.1151869923269E+01 -0.6041449813834E+00  0.0000000000000E+00
 0.1164404647691E+01 -0.5010964428479E+00  0.0000000000000E+00
 0.1173579121410E+01 -0.3974323738340E+00  0.0000000000000E+00
 0.1178677392146E+01 -0.2933674731123E+00  0.0000000000000E+00
 0.1180491636942E+01 -0.1892069391688E+00  0.0000000000000E+00
 0.1174837201382E+01 -0.8570519195099E-01  0.0000000000000E+00
 0.1158138874929E+01  0.1491520704997E-01  0.0000000000000E+00
 0.1132750712161E+01  0.1113096350441E+00  0.0000000000000E+00
 0.1101049534597E+01  0.2032493700836E+00  0.0000000000000E+00
 0.1065246695648E+01  0.2914889947660E+00  0.0000000000000E+00
 0.1026450444921E+01  0.3764853999090E+00  0.0000000000000E+00
 0.9851713090814E+00  0.4582997285817E+00  0.0000000000000E+00
 0.1030153486187E+01 -0.1299416063908E+01  0.0000000000000E+00
 0.1062063149566E+01 -0.1202143597094E+01  0.0000000000000E+00
 0.1094361604124E+01 -0.1105005688649E+01  0.0000000000000E+00
 0.1124329667181E+01 -0.1006236405536E+01  0.0000000000000E+00
 0.1151089140492E+01 -0.9055288204733E+00  0.0000000000000E+00
 0.1174823714046E+01 -0.8032543090994E+00  0.0000000000000E+00
 0.1195514934100E+01 -0.6996549573837E+00  0.0000000000000E+00
 0.1212821188214E+01 -0.5948727581417E+00  0.0000000000000E+00
 0.1226669027563E+01 -0.4891703357950E+00  0.0000000000000E+00
 0.1236642302499E+01 -0.3827630339536E+00  0.0000000000000E+00
 0.1241957059382E+01 -0.2758976400968E+00  0.0000000000000E+00
 0.1243552922021E+01 -0.1689243637565E+00  0.0000000000000E+00
 0.1236671900766E+01 -0.6270624449766E-01  0.0000000000000E+00
 0.1217239532454E+01  0.4021663203052E-01  0.0000000000000E+00
 0.1187947432381E+01  0.1383079697260E+00  0.0000000000000E+00
 0.1151507469925E+01  0.2313068444249E+00  0.0000000000000E+00
 0.1110440070041E+01  0.3200761012256E+00  0.0000000000000E+00
 0.1066004568916E+01  0.4051382426875E+00  0.0000000000000E+00
 0.1018777682617E+01  0.4865634100600E+00  0.0000000000000E+00
 0.1069587814283E+01 -0.1304477588167E+01  0.0000000000000E+00
 0.1105443981358E+01 -0.1205601752468E+01  0.0000000000000E+00
 0.1141697115360E+01 -0.1106877019225E+01  0.0000000000000E+00
 0.1175282234897E+01 -0.1006316486910E+01  0.0000000000000E+00
 0.1205205038544E+01 -0.9035745510495E+00  0.0000000000000E+00
 0.1231666197044E+01 -0.7990685956414E+00  0.0000000000000E+00
 0.1254641014112E+01 -0.6930705537734E+00  0.0000000000000E+00
 0.1273746282939E+01 -0.5857398128207E+00  0.0000000000000E+00
 0.1288909419242E+01 -0.4773718965968E+00  0.0000000000000E+00
 0.1299683677272E+01 -0.3682097523073E+00  0.0000000000000E+00
 0.1305217102037E+01 -0.2585322560269E+00  0.0000000000000E+00
 0.1306596764446E+01 -0.1487346266938E+00  0.0000000000000E+00
 0.1298491336554E+01 -0.3978853936507E-01  0.0000000000000E+00
 0.1276327105619E+01  0.6544841264325E-01  0.0000000000000E+00
 0.1243133248179E+01  0.1652482624626E+00  0.0000000000000E+00
 0.1201956681431E+01  0.2593178832485E+00  0.0000000000000E+00
 0.1155626901552E+01  0.3486283807115E+00  0.0000000000000E+00
 0.1105554331047E+01  0.4337678676442E+00  0.0000000000000E+00
 0.1052381875283E+01  0.5148154828900E+00  0.0000000000000E+00
 0.1108979381271E+01 -0.1309758563495E+01  0.0000000000000E+00
 0.1148784301020E+01 -0.1209267805530E+01  0.0000000000000E+00
 0.1188994363424E+01 -0.1108944694180E+01  0.0000000000000E+00
 0.1226198788305E+01 -0.1006581360800E+01  0.0000000000000E+00
 0.1259287171406E+01 -0.9017935222202E+00  0.0000000000000E+00
 0.1288477164220E+01 -0.7950445707726E+00  0.0000000000000E+00
 0.1313737827865E+01 -0.6866362869336E+00  0.0000000000000E+00
 0.1334644361185E+01 -0.5767454526446E+00  0.0000000000000E+00
 0.1351125044467E+01 -0.4657004909350E+00  0.0000000000000E+00
 0.1362702535776E+01 -0.3537719530876E+00  0.0000000000000E+00
 0.1368456878830E+01 -0.2412708036395E+00  0.0000000000000E+00
 0.1369622591879E+01 -0.1286372692759E+00  0.0000000000000E+00
 0.1360295005896E+01 -0.1695167627600E-01  0.0000000000000E+00
 0.1335401162004E+01  0.9061089098460E-01  0.0000000000000E+00
 0.1298307798319E+01  0.1921307975221E+00  0.0000000000000E+00
 0.1252396879599E+01  0.2872827133698E+00  0.0000000000000E+00
 0.1200806972730E+01  0.3771460029035E+00  0.0000000000000E+00
 0.1145099586162E+01  0.4623743876070E+00  0.0000000000000E+00
 0.1085983814416E+01  0.5430560033294E+00  0.0000000000000E+00
 0.1148326982225E+01 -0.1315257878269E+01  0.0000000000000E+00
 0.1192082969631E+01 -0.1213140703241E+01  0.0000000000000E+00
 0.1236252275405E+01 -0.1111207719063E+01  0.0000000000000E+00
 0.1277078320301E+01 -0.1007030091224E+01  0.0000000000000E+00
 0.1313334597533E+01 -0.9001848563373E+00  0.0000000000000E+00
 0.1345255739343E+01 -0.7911814150685E+00  0.0000000000000E+00
 0.1372804564196E+01 -0.6803513955696E+00  0.0000000000000E+00
 0.1395514676580E+01 -0.5678889743635E+00  0.0000000000000E+00
 0.1413315221384E+01 -0.4541554735392E+00  0.0000000000000E+00
 0.1425698260390E+01 -0.3394490489509E+00  0.0000000000000E+00
 0.1431675836041E+01 -0.2241127534843E+00  0.0000000000000E+00
 0.1432629914269E+01 -0.1086318199455E+00  0.0000000000000E+00
 0.1422082481760E+01  0.5804758454327E-02  0.0000000000000E+00
 0.1394461336764E+01  0.1157044226246E+00  0.0000000000000E+00
 0.1353470779509E+01  0.2189558719973E+00  0.0000000000000E+00
 0.1302827822250E+01  0.3152015730252E+00  0.0000000000000E+00
 0.1245980102221E+01  0.4056291468740E+00  0.0000000000000E+00
 0.1184640213527E+01  0.4909579222208E+00  0.0000000000000E+00
 0.1119583439729E+01  0.5712850313400E+00  0.0000000000000E+00
 0.1187629400186E+01 -0.1320974387505E+01  0.0000000000000E+00
 0.1235338834732E+01 -0.1217219360904E+01  0.0000000000000E+00
 0.1283469763345E+01 -0.1113665069469E+01  0.0000000000000E+00
 0.1327919807393E+01 -0.1007661714042E+01  0.0000000000000E+00
 0.1367346357854E+01 -0.8987476495021E+00  0.0000000000000E+00
 0.1402001027722E+01 -0.7874782848550E+00  0.0000000000000E+00
 0.1431840392749E+01 -0.6742150962150E+00  0.0000000000000E+00
 0.1456356463060E+01 -0.5591696547043E+00  0.0000000000000E+00
 0.1475479248178E+01 -0.4427361813186E+00  0.0000000000000E+00
 0.1488670213493E+01 -0.3252404369779E+00  0.0000000000000E+00
 0.1494873400188E+01 -0.2070575628063E+00  0.0000000000000E+00
 0.1495618222237E+01 -0.8871779611777E-01  0.0000000000000E+00
 0.1483853318695E+01  0.2848118730761E-01  0.0000000000000E+00
 0.1453507248244E+01  0.1407293698923E+00  0.0000000000000E+00
 0.1408621873807E+01  0.2457237879833E+00  0.0000000000000E+00
 0.1353249255096E+01  0.3430747039949E+00  0.0000000000000E+00
 0.1291146099354E+01  0.4340779940265E+00  0.0000000000000E+00
 0.1224176086056E+01  0.5195185924651E+00  0.0000000000000E+00
 0.1153180687696E+01  0.5995026274340E+00  0.0000000000000E+00
 0.1226885438803E+01 -0.1326906919430E+01  0.0000000000000E+00
 0.1278550763245E+01 -0.1221502668444E+01  0.0000000000000E+00
 0.1330645757439E+01 -0.1116315697018E+01  0.0000000000000E+00
 0.1378722243017E+01 -0.1008475242550E+01  0.0000000000000E+00
 0.1421321509020E+01 -0.8974809766741E+00  0.0000000000000E+00
 0.1458712149199E+01 -0.7839343167424E+00  0.0000000000000E+00
 0.1490844496529E+01 -0.6682265871201E+00  0.0000000000000E+00
 0.1517168966759E+01 -0.5505867535472E+00  0.0000000000000E+00
 0.1537616434081E+01 -0.4314419357761E+00  0.0000000000000E+00
 0.1551617767383E+01 -0.3111455002865E+00  0.0000000000000E+00
 0.1558049006595E+01 -0.1901046763326E+00  0.0000000000000E+00
 0.1558587014113E+01 -0.6889470413509E-01  0.0000000000000E+00
 0.1545607077895E+01  0.5107804239726E-01  0.0000000000000E+00
 0.1512538520417E+01  0.1656861033204E+00  0.0000000000000E+00
 0.1463760767916E+01  0.2724348543701E+00  0.0000000000000E+00
 0.1403660927541E+01  0.3709023534638E+00  0.0000000000000E+00
 0.1336304776212E+01  0.4624927297960E+00  0.0000000000000E+00
 0.1263707078492E+01  0.5480565219923E+00  0.0000000000000E+00
 0.1186775495697E+01  0.6277088534522E+00  0.0000000000000E+00
 0.1266093900534E+01 -0.1333054271612E+01  0.0000000000000E+00
 0.1321717619441E+01 -0.1225989486703E+01  0.0000000000000E+00
 0.1377779183766E+01 -0.1119158525826E+01  0.0000000000000E+00
 0.1429484615149E+01 -0.1009469664182E+01  0.0000000000000E+00
 0.1475259101023E+01 -0.8963838886716E+00  0.0000000000000E+00
 0.1515388215900E+01 -0.7805486249883E+00  0.0000000000000E+00
 0.1549816049915E+01 -0.6623850460261E+00  0.0000000000000E+00
 0.1577951424441E+01 -0.5421395121565E+00  0.0000000000000E+00
 0.1599726078373E+01 -0.4202720417312E+00  0.0000000000000E+00
 0.1614540283988E+01 -0.2971636072724E+00  0.0000000000000E+00
 0.1621202079995E+01 -0.1732535260491E+00  0.0000000000000E+00
 0.1621535777559E+01 -0.4916203958404E-01  0.0000000000000E+00
 0.1607343310144E+01  0.7359576464093E-01  0.0000000000000E+00
 0.1571554767608E+01  0.1905750004316E+00  0.0000000000000E+00
 0.1518887140039E+01  0.2990893854236E+00  0.0000000000000E+00
 0.1454062581912E+01  0.3986847725911E+00  0.0000000000000E+00
 0.1381455939403E+01  0.4908735423656E+00  0.0000000000000E+00
 0.1303233061826E+01  0.5765718361307E+00  0.0000000000000E+00
 0.1220367799190E+01  0.6559037719900E+00  0.0000000000000E+00
 0.1305253598805E+01 -0.1339415213768E+01  0.0000000000000E+00
 0.1364838277184E+01 -0.1230678650124E+01  0.0000000000000E+00
 0.1424868976629E+01 -0.1122192455048E+01  0.0000000000000E+00
 0.1480205918667E+01 -0.1010643942895E+01  0.0000000000000E+00
 0.1529158189524E+01 -0.8954554143590E+00  0.0000000000000E+00
 0.1572028344460E+01 -0.7773203034531E+00  0.0000000000000E+00
 0.1608754230714E+01 -0.6566896318631E+00  0.0000000000000E+00
 0.1638703075296E+01 -0.5338271545977E+00  0.0000000000000E+00
 0.1661807481841E+01 -0.4092257884365E+00  0.0000000000000E+00
 0.1677437125922E+01 -0.2832941124128E+00  0.0000000000000E+00
 0.1684332045081E+01 -0.1565035316807E+00  0.0000000000000E+00
 0.1684463999550E+01 -0.2951928744993E-01  0.0000000000000E+00
 0.1669061565065E+01  0.9603480391581E-01  0.0000000000000E+00
 0.1630555602763E+01  0.2153964461378E+00  0.0000000000000E+00
 0.1574000666993E+01  0.3256877013338E+00  0.0000000000000E+00
 0.1504453959286E+01  0.4264222171044E+00  0.0000000000000E+00
 0.1426599394506E+01  0.5192206232231E+00  0.0000000000000E+00
 0.1342753906311E+01  0.6050646623300E+00  0.0000000000000E+00
 0.1253957533241E+01  0.6840874466600E+00  0.0000000000000E+00
 0.1344363463886E+01 -0.1345988512312E+01  0.0000000000000E+00
 0.1407911726821E+01 -0.1235568990149E+01  0.0000000000000E+00
 0.1471914186453E+01 -0.1125416381172E+01  0.0000000000000E+00
 0.1530885263794E+01 -0.1011997040041E+01  0.0000000000000E+00
 0.1583017944169E+01 -0.8946945797580E+00  0.0000000000000E+00
 0.1628631763594E+01 -0.7742484426668E+00  0.0000000000000E+00
 0.1667658326345E+01 -0.6511394995318E+00  0.0000000000000E+00
 0.1699423265050E+01 -0.5256489000186E+00  0.0000000000000E+00
 0.1723860048123E+01 -0.3983024591913E+00  0.0000000000000E+00
 0.1740307754306E+01 -0.2695363630824E+00  0.0000000000000E+00
 0.1747438419983E+01 -0.1398541046292E+00  0.0000000000000E+00
 0.1747371254871E+01 -0.9965923158563E-02  0.0000000000000E+00
 0.1730761473203E+01  0.1183956207761E+00  0.0000000000000E+00
 0.1689540710963E+01  0.2401508366226E+00  0.0000000000000E+00
 0.1629101087451E+01  0.3522301333911E+00  0.0000000000000E+00
 0.1554834851269E+01  0.4541149528549E+00  0.0000000000000E+00
 0.1471734985641E+01  0.5475341723337E+00  0.0000000000000E+00
 0.1382269508274E+01  0.6335351342853E+00  0.0000000000000E+00
 0.1287544646131E+01  0.7122599445139E+00  0.0000000000000E+00
 0.1383422397442E+01 -0.1352772900237E+01  0.0000000000000E+00
 0.1450936928321E+01 -0.1240659306487E+01  0.0000000000000E+00
 0.1518913831514E+01 -0.1128829170621E+01  0.0000000000000E+00
 0.1581521727071E+01 -0.1013527888730E+01  0.0000000000000E+00
 0.1636837499717E+01 -0.8941003846407E+00  0.0000000000000E+00
 0.1685197666234E+01 -0.7713321090438E+00  0.0000000000000E+00
 0.1726527587863E+01 -0.6457337820702E+00  0.0000000000000E+00
 0.1760111302833E+01 -0.5176039480646E+00  0.0000000000000E+00
 0.1785883144369E+01 -0.3875013202364E+00  0.0000000000000E+00
 0.1803151594260E+01 -0.2558896921055E+00  0.0000000000000E+00
 0.1810520687724E+01 -0.1233046442937E+00  0.0000000000000E+00
 0.1810257084407E+01  0.9498587309285E-02  0.0000000000000E+00
 0.1792442633128E+01  0.1406786827331E+00  0.0000000000000E+00
 0.1748509748313E+01  0.2648385728346E+00  0.0000000000000E+00
 0.1684188114957E+01  0.3787170158914E+00  0.0000000000000E+00
 0.1605205028773E+01  0.4817632473949E+00  0.0000000000000E+00
 0.1516862541040E+01  0.5758143904379E+00  0.0000000000000E+00
 0.1421779753236E+01  0.6619833858726E+00  0.0000000000000E+00
 0.1321129080636E+01  0.7404213325146E+00  0.0000000000000E+00
 0.1422429228029E+01 -0.1359767065724E+01  0.0000000000000E+00
 0.1493912766301E+01 -0.1245948356251E+01  0.0000000000000E+00
 0.1565866852479E+01 -0.1132429649424E+01  0.0000000000000E+00
 0.1632114305621E+01 -0.1015235384149E+01  0.0000000000000E+00
 0.1690615910306E+01 -0.8936717936491E+00  0.0000000000000E+00
 0.1741725164067E+01 -0.7685703369241E+00  0.0000000000000E+00
 0.1785361185048E+01 -0.6404715837209E+00  0.0000000000000E+00
 0.1820766417108E+01 -0.5096914730635E+00  0.0000000000000E+00
 0.1847876058322E+01 -0.3768216161282E+00  0.0000000000000E+00
 0.1865967993429E+01 -0.2423534143737E+00  0.0000000000000E+00
 0.1873578256564E+01 -0.1068545359697E+00  0.0000000000000E+00
 0.1873120957578E+01  0.2887478823199E-01  0.0000000000000E+00
 0.1854104576573E+01  0.1628844638412E+00  0.0000000000000E+00
 0.1807462310716E+01  0.2894600590995E+00  0.0000000000000E+00
 0.1739261411041E+01  0.4051486841471E+00  0.0000000000000E+00
 0.1655564219998E+01  0.5093673677810E+00  0.0000000000000E+00
 0.1561981856234E+01  0.6040614769726E+00  0.0000000000000E+00
 0.1461284504515E+01  0.6904095494733E+00  0.0000000000000E+00
 0.1354710768243E+01  0.7685716765449E+00  0.0000000000000E+00
 0.1461382977685E+01 -0.1366969715541E+01  0.0000000000000E+00
 0.1536838319223E+01 -0.1251434914409E+01  0.0000000000000E+00
 0.1612772384243E+01 -0.1136216660760E+01  0.0000000000000E+00
 0.1682662190401E+01 -0.1017118437462E+01  0.0000000000000E+00
 0.1744352422465E+01 -0.8934077856720E+00  0.0000000000000E+00
 0.1798213558725E+01 -0.7659621727097E+00  0.0000000000000E+00
 0.1844158474159E+01 -0.6353520182180E+00  0.0000000000000E+00
 0.1881388018237E+01 -0.5019106559195E+00  0.0000000000000E+00
 0.1909838253925E+01 -0.3662625948152E+00  0.0000000000000E+00
 0.1928756468782E+01 -0.2289268447810E+00  0.0000000000000E+00
 0.1936610695870E+01 -0.9050316143287E-01  0.0000000000000E+00
 0.1935962495682E+01  0.4816323095776E-01  0.0000000000000E+00
 0.1915746975620E+01  0.1850134485560E+00  0.0000000000000E+00
 0.1866398119422E+01  0.3140157125225E+00  0.0000000000000E+00
 0.1794320744879E+01  0.4315254872332E+00  0.0000000000000E+00
 0.1705912241167E+01  0.5369275943465E+00  0.0000000000000E+00
 0.1607092793932E+01  0.6322756429451E+00  0.0000000000000E+00
 0.1500783670909E+01  0.7188137662650E+00  0.0000000000000E+00
 0.1388289663505E+01  0.7967110474620E+00  0.0000000000000E+00
-0.7394329578238E+00  0.3828904307871E+00  0.0000000000000E+00
-0.7655763767500E+00  0.4111916020047E+00  0.0000000000000E+00
-0.7917197956763E+00  0.4394927732223E+00  0.0000000000000E+00
-0.8178632146026E+00  0.4677939444398E+00  0.0000000000000E+00
-0.8440066335289E+00  0.4960951156574E+00  0.0000000000000E+00
-0.8701500524552E+00  0.5243962868750E+00  0.0000000000000E+00
-0.8962934713814E+00  0.5526974580926E+00  0.0000000000000E+00
-0.9224368903077E+00  0.5809986293101E+00  0.0000000000000E+00
-0.9485803092340E+00  0.6092998005277E+00  0.0000000000000E+00
-0.9747237281603E+00  0.6376009717453E+00  0.0000000000000E+00
-0.1000867147087E+01  0.6659021429629E+00  0.0000000000000E+00
-0.1027010566013E+01  0.6942033141804E+00  0.0000000000000E+00
-0.1053153984939E+01  0.7225044853980E+00  0.0000000000000E+00
-0.1079297403865E+01  0.7508056566156E+00  0.0000000000000E+00
-0.1105440822792E+01  0.7791068278332E+00  0.0000000000000E+00
-0.1131584241718E+01  0.8074079990507E+00  0.0000000000000E+00
-0.1157727660644E+01  0.8357091702683E+00  0.0000000000000E+00
-0.1183871079571E+01  0.8640103414859E+00  0.0000000000000E+00
-0.1210014498497E+01  0.8923115127035E+00  0.0000000000000E+00
-0.7013395436708E+00  0.3928851883992E+00  0.0000000000000E+00
-0.7262154211400E+00  0.4220388918148E+00  0.0000000000000E+00
-0.7510912986091E+00  0.4511925952303E+00  0.0000000000000E+00
-0.7759671760782E+00  0.4803462986459E+00  0.0000000000000E+00
-0.8008430535474E+00  0.5095000020614E+00  0.0000000000000E+00
-0.8257189310165E+00  0.5386537054770E+00  0.0000000000000E+00
-0.8505948084856E+00  0.5678074088926E+00  0.0000000000000E+00
-0.8754706859548E+00  0.5969611123081E+00  0.0000000000000E+00
-0.9003465634239E+00  0.6261148157237E+00  0.0000000000000E+00
-0.9252224408930E+00  0.6552685191392E+00  0.0000000000000E+00
-0.9500983183622E+00  0.6844222225548E+00  0.0000000000000E+00
-0.9749741958313E+00  0.7135759259704E+00  0.0000000000000E+00
-0.9998500733004E+00  0.7427296293859E+00  0.0000000000000E+00
-0.1024725950770E+01  0.7718833328015E+00  0.0000000000000E+00
-0.1049601828239E+01  0.8010370362170E+00  0.0000000000000E+00
-0.1074477705708E+01  0.8301907396326E+00  0.0000000000000E+00
-0.1099353583177E+01  0.8593444430482E+00  0.0000000000000E+00
-0.1124229460646E+01  0.8884981464637E+00  0.0000000000000E+00
-0.1149105338115E+01  0.9176518498793E+00  0.0000000000000E+00
-0.6631144762003E+00  0.4023799804788E+00  0.0000000000000E+00
-0.6867022089859E+00  0.4323453794399E+00  0.0000000000000E+00
-0.7102899417715E+00  0.4623107784010E+00  0.0000000000000E+00
-0.7338776745571E+00  0.4922761773621E+00  0.0000000000000E+00
-0.7574654073427E+00  0.5222415763231E+00  0.0000000000000E+00
-0.7810531401284E+00  0.5522069752842E+00  0.0000000000000E+00
-0.8046408729140E+00  0.5821723742453E+00  0.0000000000000E+00
-0.8282286056996E+00  0.6121377732064E+00  0.0000000000000E+00
-0.8518163384852E+00  0.6421031721674E+00  0.0000000000000E+00
-0.8754040712708E+00  0.6720685711285E+00  0.0000000000000E+00
-0.8989918040564E+00  0.7020339700896E+00  0.0000000000000E+00
-0.9225795368421E+00  0.7319993690506E+00  0.0000000000000E+00
-0.9461672696277E+00  0.7619647680117E+00  0.0000000000000E+00
-0.9697550024133E+00  0.7919301669728E+00  0.0000000000000E+00
-0.9933427351989E+00  0.8218955659339E+00  0.0000000000000E+00
-0.1016930467985E+01  0.8518609648949E+00  0.0000000000000E+00
-0.1040518200770E+01  0.8818263638560E+00  0.0000000000000E+00
-0.1064105933556E+01  0.9117917628171E+00  0.0000000000000E+00
-0.1087693666341E+01  0.9417571617782E+00  0.0000000000000E+00
-0.6247718534183E+00  0.4113904599736E+00  0.0000000000000E+00
-0.6470599869664E+00  0.4421478324469E+00  0.0000000000000E+00
-0.6693481205145E+00  0.4729052049202E+00  0.0000000000000E+00
-0.6916362540626E+00  0.5036625773935E+00  0.0000000000000E+00
-0.7139243876107E+00  0.5344199498667E+00  0.0000000000000E+00
-0.7362125211588E+00  0.5651773223400E+00  0.0000000000000E+00
-0.7585006547069E+00  0.5959346948133E+00  0.0000000000000E+00
-0.7807887882550E+00  0.6266920672866E+00  0.0000000000000E+00
-0.8030769218031E+00  0.6574494397599E+00  0.0000000000000E+00
-0.8253650553512E+00  0.6882068122331E+00  0.0000000000000E+00
-0.8476531888993E+00  0.7189641847064E+00  0.0000000000000E+00
-0.8699413224474E+00  0.7497215571797E+00  0.0000000000000E+00
-0.8922294559955E+00  0.7804789296530E+00  0.0000000000000E+00
-0.9145175895436E+00  0.8112363021263E+00  0.0000000000000E+00
-0.9368057230917E+00  0.8419936745995E+00  0.0000000000000E+00
-0.9590938566398E+00  0.8727510470728E+00  0.0000000000000E+00
-0.9813819901879E+00  0.9035084195461E+00  0.0000000000000E+00
-0.1003670123736E+01  0.9342657920194E+00  0.0000000000000E+00
-0.1025958257284E+01  0.9650231644927E+00  0.0000000000000E+00
-0.5863228019837E+00  0.4199269192811E+00  0.0000000000000E+00
-0.6073059538729E+00  0.4514720689964E+00  0.0000000000000E+00
-0.6282891057621E+00  0.4830172187117E+00  0.0000000000000E+00
-0.6492722576512E+00  0.5145623684270E+00  0.0000000000000E+00
-0.6702554095404E+00  0.5461075181424E+00  0.0000000000000E+00
-0.6912385614296E+00  0.5776526678577E+00  0.0000000000000E+00
-0.7122217133188E+00  0.6091978175730E+00  0.0000000000000E+00
-0.7332048652079E+00  0.6407429672884E+00  0.0000000000000E+00
-0.7541880170971E+00  0.6722881170037E+00  0.0000000000000E+00
-0.7751711689863E+00  0.7038332667190E+00  0.0000000000000E+00
-0.7961543208755E+00  0.7353784164343E+00  0.0000000000000E+00
-0.8171374727647E+00  0.7669235661497E+00  0.0000000000000E+00
-0.8381206246538E+00  0.7984687158650E+00  0.0000000000000E+00
-0.8591037765430E+00  0.8300138655803E+00  0.0000000000000E+00
-0.8800869284322E+00  0.8615590152956E+00  0.0000000000000E+00
-0.9010700803214E+00  0.8931041650110E+00  0.0000000000000E+00
-0.9220532322105E+00  0.9246493147263E+00  0.0000000000000E+00
-0.9430363840997E+00  0.9561944644416E+00  0.0000000000000E+00
-0.9640195359889E+00  0.9877396141569E+00  0.0000000000000E+00
-0.5477768854188E+00  0.4279968810199E+00  0.0000000000000E+00
-0.5674541536864E+00  0.4603381160929E+00  0.0000000000000E+00
-0.5871314219540E+00  0.4926793511658E+00  0.0000000000000E+00
-0.6068086902216E+00  0.5250205862388E+00  0.0000000000000E+00
-0.6264859584892E+00  0.5573618213118E+00  0.0000000000000E+00
-0.6461632267567E+00  0.5897030563848E+00  0.0000000000000E+00
-0.6658404950243E+00  0.6220442914577E+00  0.0000000000000E+00
-0.6855177632919E+00  0.6543855265307E+00  0.0000000000000E+00
-0.7051950315595E+00  0.6867267616037E+00  0.0000000000000E+00
-0.7248722998271E+00  0.7190679966767E+00  0.0000000000000E+00
-0.7445495680947E+00  0.7514092317496E+00  0.0000000000000E+00
-0.7642268363623E+00  0.7837504668226E+00  0.0000000000000E+00
-0.7839041046299E+00  0.8160917018956E+00  0.0000000000000E+00
-0.8035813728974E+00  0.8484329369686E+00  0.0000000000000E+00
-0.8232586411650E+00  0.8807741720415E+00  0.0000000000000E+00
-0.8429359094326E+00  0.9131154071145E+00  0.0000000000000E+00
-0.8626131777002E+00  0.9454566421875E+00  0.0000000000000E+00
-0.8822904459678E+00  0.9777978772605E+00  0.0000000000000E+00
-0.9019677142354E+00  0.1010139112333E+01  0.0000000000000E+00
-0.5091428679054E+00  0.4356052711820E+00  0.0000000000000E+00
-0.5275166038674E+00  0.4687606222180E+00  0.0000000000000E+00
-0.5458903398295E+00  0.5019159732541E+00  0.0000000000000E+00
-0.5642640757915E+00  0.5350713242901E+00  0.0000000000000E+00
-0.5826378117536E+00  0.5682266753261E+00  0.0000000000000E+00
-0.6010115477157E+00  0.6013820263622E+00  0.0000000000000E+00
-0.6193852836777E+00  0.6345373773982E+00  0.0000000000000E+00
-0.6377590196398E+00  0.6676927284343E+00  0.0000000000000E+00
-0.6561327556018E+00  0.7008480794703E+00  0.0000000000000E+00
-0.6745064915639E+00  0.7340034305064E+00  0.0000000000000E+00
-0.6928802275259E+00  0.7671587815424E+00  0.0000000000000E+00
-0.7112539634880E+00  0.8003141325785E+00  0.0000000000000E+00
-0.7296276994500E+00  0.8334694836145E+00  0.0000000000000E+00
-0.7480014354121E+00  0.8666248346506E+00  0.0000000000000E+00
-0.7663751713741E+00  0.8997801856866E+00  0.0000000000000E+00
-0.7847489073362E+00  0.9329355367227E+00  0.0000000000000E+00
-0.8031226432983E+00  0.9660908877587E+00  0.0000000000000E+00
-0.8214963792603E+00  0.9992462387948E+00  0.0000000000000E+00
-0.8398701152224E+00  0.1032401589831E+01  0.0000000000000E+00
-0.4704201189630E+00  0.4427312295667E+00  0.0000000000000E+00
-0.4874864927934E+00  0.4767023850508E+00  0.0000000000000E+00
-0.5045528666239E+00  0.5106735405349E+00  0.0000000000000E+00
-0.5216192404544E+00  0.5446446960190E+00  0.0000000000000E+00
-0.5386856142848E+00  0.5786158515031E+00  0.0000000000000E+00
-0.5557519881153E+00  0.6125870069873E+00  0.0000000000000E+00
-0.5728183619458E+00  0.6465581624714E+00  0.0000000000000E+00
-0.5898847357762E+00  0.6805293179555E+00  0.0000000000000E+00
-0.6069511096067E+00  0.7145004734396E+00  0.0000000000000E+00
-0.6240174834372E+00  0.7484716289237E+00  0.0000000000000E+00
-0.6410838572677E+00  0.7824427844079E+00  0.0000000000000E+00
-0.6581502310981E+00  0.8164139398920E+00  0.0000000000000E+00
-0.6752166049286E+00  0.8503850953761E+00  0.0000000000000E+00
-0.6922829787591E+00  0.8843562508602E+00  0.0000000000000E+00
-0.7093493525895E+00  0.9183274063443E+00  0.0000000000000E+00
-0.7264157264200E+00  0.9522985618284E+00  0.0000000000000E+00
-0.7434821002505E+00  0.9862697173126E+00  0.0000000000000E+00
-0.7605484740810E+00  0.1020240872797E+01  0.0000000000000E+00
-0.7776148479114E+00  0.1054212028281E+01  0.0000000000000E+00
-0.4316001604194E+00  0.4493289287895E+00  0.0000000000000E+00
-0.4473410322604E+00  0.4840760209663E+00  0.0000000000000E+00
-0.4630819041013E+00  0.5188231131430E+00  0.0000000000000E+00
-0.4788227759422E+00  0.5535702053198E+00  0.0000000000000E+00
-0.4945636477831E+00  0.5883172974965E+00  0.0000000000000E+00
-0.5103045196240E+00  0.6230643896733E+00  0.0000000000000E+00
-0.5260453914650E+00  0.6578114818500E+00  0.0000000000000E+00
-0.5417862633059E+00  0.6925585740268E+00  0.0000000000000E+00
-0.5575271351468E+00  0.7273056662035E+00  0.0000000000000E+00
-0.5732680069877E+00  0.7620527583802E+00  0.0000000000000E+00
-0.5890088788287E+00  0.7967998505570E+00  0.0000000000000E+00
-0.6047497506696E+00  0.8315469427337E+00  0.0000000000000E+00
-0.6204906225105E+00  0.8662940349105E+00  0.0000000000000E+00
-0.6362314943514E+00  0.9010411270872E+00  0.0000000000000E+00
-0.6519723661924E+00  0.9357882192640E+00  0.0000000000000E+00
-0.6677132380333E+00  0.9705353114407E+00  0.0000000000000E+00
-0.6834541098742E+00  0.1005282403617E+01  0.0000000000000E+00
-0.6991949817151E+00  0.1040029495794E+01  0.0000000000000E+00
-0.7149358535560E+00  0.1074776587971E+01  0.0000000000000E+00
-0.3926829942859E+00  0.4553717726819E+00  0.0000000000000E+00
-0.4070743133994E+00  0.4908323142830E+00  0.0000000000000E+00
-0.4214656325129E+00  0.5262928558841E+00  0.0000000000000E+00
-0.4358569516264E+00  0.5617533974853E+00  0.0000000000000E+00
-0.4502482707400E+00  0.5972139390864E+00  0.0000000000000E+00
-0.4646395898535E+00  0.6326744806875E+00  0.0000000000000E+00
-0.4790309089670E+00  0.6681350222886E+00  0.0000000000000E+00
-0.4934222280806E+00  0.7035955638897E+00  0.0000000000000E+00
-0.5078135471941E+00  0.7390561054908E+00  0.0000000000000E+00
-0.5222048663076E+00  0.7745166470919E+00  0.0000000000000E+00
-0.5365961854212E+00  0.8099771886930E+00  0.0000000000000E+00
-0.5509875045347E+00  0.8454377302941E+00  0.0000000000000E+00
-0.5653788236482E+00  0.8808982718952E+00  0.0000000000000E+00
-0.5797701427618E+00  0.9163588134963E+00  0.0000000000000E+00
-0.5941614618753E+00  0.9518193550975E+00  0.0000000000000E+00
-0.6085527809888E+00  0.9872798966986E+00  0.0000000000000E+00
-0.6229441001024E+00  0.1022740438300E+01  0.0000000000000E+00
-0.6373354192159E+00  0.1058200979901E+01  0.0000000000000E+00
-0.6517267383294E+00  0.1093661521502E+01  0.0000000000000E+00
-0.3536746458292E+00  0.4608476922473E+00  0.0000000000000E+00
-0.3666922613378E+00  0.4969508181436E+00  0.0000000000000E+00
-0.3797098768463E+00  0.5330539440399E+00  0.0000000000000E+00
-0.3927274923549E+00  0.5691570699361E+00  0.0000000000000E+00
-0.4057451078635E+00  0.6052601958324E+00  0.0000000000000E+00
-0.4187627233720E+00  0.6413633217287E+00  0.0000000000000E+00
-0.4317803388806E+00  0.6774664476250E+00  0.0000000000000E+00
-0.4447979543892E+00  0.7135695735212E+00  0.0000000000000E+00
-0.4578155698977E+00  0.7496726994175E+00  0.0000000000000E+00
-0.4708331854063E+00  0.7857758253138E+00  0.0000000000000E+00
-0.4838508009149E+00  0.8218789512100E+00  0.0000000000000E+00
-0.4968684164235E+00  0.8579820771063E+00  0.0000000000000E+00
-0.5098860319320E+00  0.8940852030026E+00  0.0000000000000E+00
-0.5229036474406E+00  0.9301883288989E+00  0.0000000000000E+00
-0.5359212629492E+00  0.9662914547951E+00  0.0000000000000E+00
-0.5489388784577E+00  0.1002394580691E+01  0.0000000000000E+00
-0.5619564939663E+00  0.1038497706588E+01  0.0000000000000E+00
-0.5749741094749E+00  0.1074600832484E+01  0.0000000000000E+00
-0.5879917249834E+00  0.1110703958380E+01  0.0000000000000E+00
-0.3145837448712E+00  0.4657520002446E+00  0.0000000000000E+00
-0.3262058732712E+00  0.5024255397187E+00  0.0000000000000E+00
-0.3378280016712E+00  0.5390990791928E+00  0.0000000000000E+00
-0.3494501300712E+00  0.5757726186668E+00  0.0000000000000E+00
-0.3610722584712E+00  0.6124461581409E+00  0.0000000000000E+00
-0.3726943868712E+00  0.6491196976150E+00  0.0000000000000E+00
-0.3843165152712E+00  0.6857932370891E+00  0.0000000000000E+00
-0.3959386436712E+00  0.7224667765632E+00  0.0000000000000E+00
-0.4075607720712E+00  0.7591403160373E+00  0.0000000000000E+00
-0.4191829004712E+00  0.7958138555114E+00  0.0000000000000E+00
-0.4308050288712E+00  0.8324873949855E+00  0.0000000000000E+00
-0.4424271572712E+00  0.8691609344596E+00  0.0000000000000E+00
-0.4540492856712E+00  0.9058344739336E+00  0.0000000000000E+00
-0.4656714140712E+00  0.9425080134077E+00  0.0000000000000E+00
-0.4772935424712E+00  0.9791815528818E+00  0.0000000000000E+00
-0.4889156708713E+00  0.1015855092356E+01  0.0000000000000E+00
-0.5005377992713E+00  0.1052528631830E+01  0.0000000000000E+00
-0.5121599276713E+00  0.1089202171304E+01  0.0000000000000E+00
-0.5237820560713E+00  0.1125875710778E+01  0.0000000000000E+00
-0.2754196909618E+00  0.4700832706777E+00  0.0000000000000E+00
-0.2856275626982E+00  0.5072566872297E+00  0.0000000000000E+00
-0.2958354344346E+00  0.5444301037817E+00  0.0000000000000E+00
-0.3060433061710E+00  0.5816035203337E+00  0.0000000000000E+00
-0.3162511779074E+00  0.6187769368857E+00  0.0000000000000E+00
-0.3264590496438E+00  0.6559503534378E+00  0.0000000000000E+00
-0.3366669213802E+00  0.6931237699898E+00  0.0000000000000E+00
-0.3468747931166E+00  0.7302971865418E+00  0.0000000000000E+00
-0.3570826648530E+00  0.7674706030938E+00  0.0000000000000E+00
-0.3672905365894E+00  0.8046440196458E+00  0.0000000000000E+00
-0.3774984083258E+00  0.8418174361978E+00  0.0000000000000E+00
-0.3877062800623E+00  0.8789908527498E+00  0.0000000000000E+00
-0.3979141517987E+00  0.9161642693018E+00  0.0000000000000E+00
-0.4081220235351E+00  0.9533376858538E+00  0.0000000000000E+00
-0.4183298952715E+00  0.9905111024059E+00  0.0000000000000E+00
-0.4285377670079E+00  0.1027684518958E+01  0.0000000000000E+00
-0.4387456387443E+00  0.1064857935510E+01  0.0000000000000E+00
-0.4489535104807E+00  0.1102031352062E+01  0.0000000000000E+00
-0.4591613822171E+00  0.1139204768614E+01  0.0000000000000E+00
-0.2361919209299E+00  0.4738412269098E+00  0.0000000000000E+00
-0.2449696928514E+00  0.5114464367078E+00  0.0000000000000E+00
-0.2537474647729E+00  0.5490516465058E+00  0.0000000000000E+00
-0.2625252366944E+00  0.5866568563038E+00  0.0000000000000E+00
-0.2713030086160E+00  0.6242620661018E+00  0.0000000000000E+00
-0.2800807805375E+00  0.6618672758998E+00  0.0000000000000E+00
-0.2888585524590E+00  0.6994724856977E+00  0.0000000000000E+00
-0.2976363243805E+00  0.7370776954957E+00  0.0000000000000E+00
-0.3064140963021E+00  0.7746829052937E+00  0.0000000000000E+00
-0.3151918682236E+00  0.8122881150917E+00  0.0000000000000E+00
-0.3239696401451E+00  0.8498933248897E+00  0.0000000000000E+00
-0.3327474120667E+00  0.8874985346877E+00  0.0000000000000E+00
-0.3415251839882E+00  0.9251037444857E+00  0.0000000000000E+00
-0.3503029559097E+00  0.9627089542837E+00  0.0000000000000E+00
-0.3590807278312E+00  0.1000314164082E+01  0.0000000000000E+00
-0.3678584997528E+00  0.1037919373880E+01  0.0000000000000E+00
-0.3766362716743E+00  0.1075524583678E+01  0.0000000000000E+00
-0.3854140435958E+00  0.1113129793476E+01  0.0000000000000E+00
-0.3941918155173E+00  0.1150735003274E+01  0.0000000000000E+00
-0.1969098270509E+00  0.4770256980868E+00  0.0000000000000E+00
-0.2042444088384E+00  0.5149968355198E+00  0.0000000000000E+00
-0.2115789906258E+00  0.5529679729529E+00  0.0000000000000E+00
-0.2189135724133E+00  0.5909391103860E+00  0.0000000000000E+00
-0.2262481542008E+00  0.6289102478191E+00  0.0000000000000E+00
-0.2335827359883E+00  0.6668813852521E+00  0.0000000000000E+00
-0.2409173177758E+00  0.7048525226852E+00  0.0000000000000E+00
-0.2482518995633E+00  0.7428236601183E+00  0.0000000000000E+00
-0.2555864813508E+00  0.7807947975513E+00  0.0000000000000E+00
-0.2629210631383E+00  0.8187659349844E+00  0.0000000000000E+00
-0.2702556449257E+00  0.8567370724175E+00  0.0000000000000E+00
-0.2775902267132E+00  0.8947082098506E+00  0.0000000000000E+00
-0.2849248085007E+00  0.9326793472836E+00  0.0000000000000E+00
-0.2922593902882E+00  0.9706504847167E+00  0.0000000000000E+00
-0.2995939720757E+00  0.1008621622150E+01  0.0000000000000E+00
-0.3069285538632E+00  0.1046592759583E+01  0.0000000000000E+00
-0.3142631356507E+00  0.1084563897016E+01  0.0000000000000E+00
-0.3215977174382E+00  0.1122535034449E+01  0.0000000000000E+00
-0.3289322992256E+00  0.1160506171882E+01  0.0000000000000E+00
-0.1575825437874E+00  0.4796361627817E+00  0.0000000000000E+00
-0.1634632579838E+00  0.5179088773513E+00  0.0000000000000E+00
-0.1693439721801E+00  0.5561815919210E+00  0.0000000000000E+00
-0.1752246863765E+00  0.5944543064906E+00  0.0000000000000E+00
-0.1811054005728E+00  0.6327270210602E+00  0.0000000000000E+00
-0.1869861147692E+00  0.6709997356298E+00  0.0000000000000E+00
-0.1928668289655E+00  0.7092724501995E+00  0.0000000000000E+00
-0.1987475431619E+00  0.7475451647691E+00  0.0000000000000E+00
-0.2046282573582E+00  0.7858178793387E+00  0.0000000000000E+00
-0.2105089715546E+00  0.8240905939083E+00  0.0000000000000E+00
-0.2163896857509E+00  0.8623633084779E+00  0.0000000000000E+00
-0.2222703999473E+00  0.9006360230476E+00  0.0000000000000E+00
-0.2281511141436E+00  0.9389087376172E+00  0.0000000000000E+00
-0.2340318283400E+00  0.9771814521868E+00  0.0000000000000E+00
-0.2399125425363E+00  0.1015454166756E+01  0.0000000000000E+00
-0.2457932567327E+00  0.1053726881326E+01  0.0000000000000E+00
-0.2516739709290E+00  0.1091999595896E+01  0.0000000000000E+00
-0.2575546851254E+00  0.1130272310465E+01  0.0000000000000E+00
-0.2634353993217E+00  0.1168545025035E+01  0.0000000000000E+00
-0.1182190059601E+00  0.4816714823591E+00  0.0000000000000E+00
-0.1226373068009E+00  0.5201819624472E+00  0.0000000000000E+00
-0.1270556076417E+00  0.5586924425354E+00  0.0000000000000E+00
-0.1314739084825E+00  0.5972029226235E+00  0.0000000000000E+00
-0.1358922093234E+00  0.6357134027116E+00  0.0000000000000E+00
-0.1403105101642E+00  0.6742238827997E+00  0.0000000000000E+00
-0.1447288110050E+00  0.7127343628879E+00  0.0000000000000E+00
-0.1491471118458E+00  0.7512448429760E+00  0.0000000000000E+00
-0.1535654126866E+00  0.7897553230641E+00  0.0000000000000E+00
-0.1579837135274E+00  0.8282658031523E+00  0.0000000000000E+00
-0.1624020143682E+00  0.8667762832404E+00  0.0000000000000E+00
-0.1668203152090E+00  0.9052867633285E+00  0.0000000000000E+00
-0.1712386160498E+00  0.9437972434166E+00  0.0000000000000E+00
-0.1756569168906E+00  0.9823077235048E+00  0.0000000000000E+00
-0.1800752177314E+00  0.1020818203593E+01  0.0000000000000E+00
-0.1844935185722E+00  0.1059328683681E+01  0.0000000000000E+00
-0.1889118194131E+00  0.1097839163769E+01  0.0000000000000E+00
-0.1933301202539E+00  0.1136349643857E+01  0.0000000000000E+00
-0.1977484210947E+00  0.1174860123945E+01  0.0000000000000E+00
-0.7882810581620E-01  0.4831297079839E+00  0.0000000000000E+00
-0.8177747086543E-01  0.5218135049328E+00  0.0000000000000E+00
-0.8472683591466E-01  0.5604973018818E+00  0.0000000000000E+00
-0.8767620096390E-01  0.5991810988308E+00  0.0000000000000E+00
-0.9062556601313E-01  0.6378648957797E+00  0.0000000000000E+00
-0.9357493106237E-01  0.6765486927287E+00  0.0000000000000E+00
-0.9652429611160E-01  0.7152324896776E+00  0.0000000000000E+00
-0.9947366116083E-01  0.7539162866266E+00  0.0000000000000E+00
-0.1024230262101E+00  0.7926000835756E+00  0.0000000000000E+00
-0.1053723912593E+00  0.8312838805245E+00  0.0000000000000E+00
-0.1083217563085E+00  0.8699676774735E+00  0.0000000000000E+00
-0.1112711213578E+00  0.9086514744224E+00  0.0000000000000E+00
-0.1142204864070E+00  0.9473352713714E+00  0.0000000000000E+00
-0.1171698514562E+00  0.9860190683204E+00  0.0000000000000E+00
-0.1201192165055E+00  0.1024702865269E+01  0.0000000000000E+00
-0.1230685815547E+00  0.1063386662218E+01  0.0000000000000E+00
-0.1260179466039E+00  0.1102070459167E+01  0.0000000000000E+00
-0.1289673116532E+00  0.1140754256116E+01  0.0000000000000E+00
-0.1319166767024E+00  0.1179438053065E+01  0.0000000000000E+00
-0.3941874312013E-01  0.4840078928243E+00  0.0000000000000E+00
-0.4089463112221E-01  0.5227985519517E+00  0.0000000000000E+00
-0.4237051912429E-01  0.5615892110790E+00  0.0000000000000E+00
-0.4384640712637E-01  0.6003798702064E+00  0.0000000000000E+00
-0.4532229512845E-01  0.6391705293337E+00  0.0000000000000E+00
-0.4679818313053E-01  0.6779611884610E+00  0.0000000000000E+00
-0.4827407113261E-01  0.7167518475884E+00  0.0000000000000E+00
-0.4974995913469E-01  0.7555425067157E+00  0.0000000000000E+00
-0.5122584713677E-01  0.7943331658430E+00  0.0000000000000E+00
-0.5270173513885E-01  0.8331238249704E+00  0.0000000000000E+00
-0.5417762314093E-01  0.8719144840977E+00  0.0000000000000E+00
-0.5565351114301E-01  0.9107051432250E+00  0.0000000000000E+00
-0.5712939914509E-01  0.9494958023524E+00  0.0000000000000E+00
-0.5860528714717E-01  0.9882864614797E+00  0.0000000000000E+00
-0.6008117514925E-01  0.1027077120607E+01  0.0000000000000E+00
-0.6155706315133E-01  0.1065867779734E+01  0.0000000000000E+00
-0.6303295115341E-01  0.1104658438862E+01  0.0000000000000E+00
-0.6450883915549E-01  0.1143449097989E+01  0.0000000000000E+00
-0.6598472715757E-01  0.1182239757116E+01  0.0000000000000E+00
 0.2029389626142E-10  0.4843018200064E+00  0.0000000000000E+00
 0.4058818043640E-10  0.5231292357807E+00  0.0000000000000E+00
 0.6088245073360E-10  0.5619566515550E+00  0.0000000000000E+00
 0.8117677654195E-10  0.6007840673293E+00  0.0000000000000E+00
 0.1014709774502E-09  0.6396114831037E+00  0.0000000000000E+00
 0.1217652893808E-09  0.6784388988780E+00  0.0000000000000E+00
 0.1420595458002E-09  0.7172663146523E+00  0.0000000000000E+00
 0.1623538299752E-09  0.7560937304266E+00  0.0000000000000E+00
 0.1826479198611E-09  0.7949211462009E+00  0.0000000000000E+00
 0.2029422873028E-09  0.8337485619753E+00  0.0000000000000E+00
 0.2232365992334E-09  0.8725759777496E+00  0.0000000000000E+00
 0.2435308556528E-09  0.9114033935239E+00  0.0000000000000E+00
 0.2638250010499E-09  0.9502308092982E+00  0.0000000000000E+00
 0.2841192574693E-09  0.9890582250725E+00  0.0000000000000E+00
 0.3044134583776E-09  0.1027885640847E+01  0.0000000000000E+00
 0.3247076037747E-09  0.1066713056621E+01  0.0000000000000E+00
 0.3450020822387E-09  0.1105540472396E+01  0.0000000000000E+00
 0.3652963386581E-09  0.1144367888170E+01  0.0000000000000E+00
 0.3855903730329E-09  0.1183195303944E+01  0.0000000000000E+00
 0.3941874316069E-01  0.4840078928230E+00  0.0000000000000E+00
 0.4089463120334E-01  0.5227985519491E+00  0.0000000000000E+00
 0.4237051924599E-01  0.5615892110751E+00  0.0000000000000E+00
 0.4384640728863E-01  0.6003798702011E+00  0.0000000000000E+00
 0.4532229533128E-01  0.6391705293271E+00  0.0000000000000E+00
 0.4679818337393E-01  0.6779611884531E+00  0.0000000000000E+00
 0.4827407141658E-01  0.7167518475791E+00  0.0000000000000E+00
 0.4974995945922E-01  0.7555425067052E+00  0.0000000000000E+00
 0.5122584750187E-01  0.7943331658312E+00  0.0000000000000E+00
 0.5270173554452E-01  0.8331238249572E+00  0.0000000000000E+00
 0.5417762358717E-01  0.8719144840832E+00  0.0000000000000E+00
 0.5565351162981E-01  0.9107051432092E+00  0.0000000000000E+00
 0.5712939967246E-01  0.9494958023353E+00  0.0000000000000E+00
 0.5860528771511E-01  0.9882864614613E+00  0.0000000000000E+00
 0.6008117575775E-01  0.1027077120587E+01  0.0000000000000E+00
 0.6155706380040E-01  0.1065867779713E+01  0.0000000000000E+00
 0.6303295184305E-01  0.1104658438839E+01  0.0000000000000E+00
 0.6450883988570E-01  0.1143449097965E+01  0.0000000000000E+00
 0.6598472792834E-01  0.1182239757091E+01  0.0000000000000E+00
 0.7882810585671E-01  0.4831297079813E+00  0.0000000000000E+00
 0.8177747094646E-01  0.5218135049277E+00  0.0000000000000E+00
 0.8472683603621E-01  0.5604973018741E+00  0.0000000000000E+00
 0.8767620112596E-01  0.5991810988204E+00  0.0000000000000E+00
 0.9062556621572E-01  0.6378648957668E+00  0.0000000000000E+00
 0.9357493130547E-01  0.6765486927132E+00  0.0000000000000E+00
 0.9652429639522E-01  0.7152324896596E+00  0.0000000000000E+00
 0.9947366148497E-01  0.7539162866059E+00  0.0000000000000E+00
 0.1024230265747E+00  0.7926000835523E+00  0.0000000000000E+00
 0.1053723916645E+00  0.8312838804987E+00  0.0000000000000E+00
 0.1083217567542E+00  0.8699676774451E+00  0.0000000000000E+00
 0.1112711218440E+00  0.9086514743914E+00  0.0000000000000E+00
 0.1142204869337E+00  0.9473352713378E+00  0.0000000000000E+00
 0.1171698520235E+00  0.9860190682842E+00  0.0000000000000E+00
 0.1201192171132E+00  0.1024702865231E+01  0.0000000000000E+00
 0.1230685822030E+00  0.1063386662177E+01  0.0000000000000E+00
 0.1260179472927E+00  0.1102070459123E+01  0.0000000000000E+00
 0.1289673123825E+00  0.1140754256070E+01  0.0000000000000E+00
 0.1319166774722E+00  0.1179438053016E+01  0.0000000000000E+00
 0.1182190060006E+00  0.4816714823553E+00  0.0000000000000E+00
 0.1226373068818E+00  0.5201819624396E+00  0.0000000000000E+00
 0.1270556077630E+00  0.5586924425239E+00  0.0000000000000E+00
 0.1314739086443E+00  0.5972029226082E+00  0.0000000000000E+00
 0.1358922095255E+00  0.6357134026926E+00  0.0000000000000E+00
 0.1403105104068E+00  0.6742238827769E+00  0.0000000000000E+00
 0.1447288112880E+00  0.7127343628612E+00  0.0000000000000E+00
 0.1491471121693E+00  0.7512448429455E+00  0.0000000000000E+00
 0.1535654130505E+00  0.7897553230298E+00  0.0000000000000E+00
 0.1579837139318E+00  0.8282658031141E+00  0.0000000000000E+00
 0.1624020148130E+00  0.8667762831985E+00  0.0000000000000E+00
 0.1668203156943E+00  0.9052867632828E+00  0.0000000000000E+00
 0.1712386165755E+00  0.9437972433671E+00  0.0000000000000E+00
 0.1756569174567E+00  0.9823077234514E+00  0.0000000000000E+00
 0.1800752183380E+00  0.1020818203536E+01  0.0000000000000E+00
 0.1844935192192E+00  0.1059328683620E+01  0.0000000000000E+00
 0.1889118201005E+00  0.1097839163704E+01  0.0000000000000E+00
 0.1933301209817E+00  0.1136349643789E+01  0.0000000000000E+00
 0.1977484218630E+00  0.1174860123873E+01  0.0000000000000E+00
 0.1575825438277E+00  0.4796361627767E+00  0.0000000000000E+00
 0.1634632580644E+00  0.5179088773413E+00  0.0000000000000E+00
 0.1693439723011E+00  0.5561815919059E+00  0.0000000000000E+00
 0.1752246865377E+00  0.5944543064706E+00  0.0000000000000E+00
 0.1811054007744E+00  0.6327270210352E+00  0.0000000000000E+00
 0.1869861150110E+00  0.6709997355998E+00  0.0000000000000E+00
 0.1928668292477E+00  0.7092724501644E+00  0.0000000000000E+00
 0.1987475434844E+00  0.7475451647290E+00  0.0000000000000E+00
 0.2046282577210E+00  0.7858178792936E+00  0.0000000000000E+00
 0.2105089719577E+00  0.8240905938582E+00  0.0000000000000E+00
 0.2163896861943E+00  0.8623633084229E+00  0.0000000000000E+00
 0.2222704004310E+00  0.9006360229875E+00  0.0000000000000E+00
 0.2281511146677E+00  0.9389087375521E+00  0.0000000000000E+00
 0.2340318289043E+00  0.9771814521167E+00  0.0000000000000E+00
 0.2399125431410E+00  0.1015454166681E+01  0.0000000000000E+00
 0.2457932573776E+00  0.1053726881246E+01  0.0000000000000E+00
 0.2516739716143E+00  0.1091999595811E+01  0.0000000000000E+00
 0.2575546858510E+00  0.1130272310375E+01  0.0000000000000E+00
 0.2634354000876E+00  0.1168545024940E+01  0.0000000000000E+00
 0.1969098270910E+00  0.4770256980806E+00  0.0000000000000E+00
 0.2042444089187E+00  0.5149968355075E+00  0.0000000000000E+00
 0.2115789907463E+00  0.5529679729344E+00  0.0000000000000E+00
 0.2189135725740E+00  0.5909391103613E+00  0.0000000000000E+00
 0.2262481544016E+00  0.6289102477881E+00  0.0000000000000E+00
 0.2335827362293E+00  0.6668813852150E+00  0.0000000000000E+00
 0.2409173180569E+00  0.7048525226419E+00  0.0000000000000E+00
 0.2482518998846E+00  0.7428236600688E+00  0.0000000000000E+00
 0.2555864817122E+00  0.7807947974957E+00  0.0000000000000E+00
 0.2629210635399E+00  0.8187659349226E+00  0.0000000000000E+00
 0.2702556453675E+00  0.8567370723495E+00  0.0000000000000E+00
 0.2775902271952E+00  0.8947082097764E+00  0.0000000000000E+00
 0.2849248090228E+00  0.9326793472033E+00  0.0000000000000E+00
 0.2922593908505E+00  0.9706504846302E+00  0.0000000000000E+00
 0.2995939726781E+00  0.1008621622057E+01  0.0000000000000E+00
 0.3069285545058E+00  0.1046592759484E+01  0.0000000000000E+00
 0.3142631363334E+00  0.1084563896911E+01  0.0000000000000E+00
 0.3215977181611E+00  0.1122535034338E+01  0.0000000000000E+00
 0.3289322999887E+00  0.1160506171765E+01  0.0000000000000E+00
 0.2361919209698E+00  0.4738412269025E+00  0.0000000000000E+00
 0.2449696929314E+00  0.5114464366931E+00  0.0000000000000E+00
 0.2537474648929E+00  0.5490516464838E+00  0.0000000000000E+00
 0.2625252368544E+00  0.5866568562744E+00  0.0000000000000E+00
 0.2713030088159E+00  0.6242620660651E+00  0.0000000000000E+00
 0.2800807807774E+00  0.6618672758557E+00  0.0000000000000E+00
 0.2888585527389E+00  0.6994724856464E+00  0.0000000000000E+00
 0.2976363247005E+00  0.7370776954370E+00  0.0000000000000E+00
 0.3064140966620E+00  0.7746829052277E+00  0.0000000000000E+00
 0.3151918686235E+00  0.8122881150183E+00  0.0000000000000E+00
 0.3239696405850E+00  0.8498933248090E+00  0.0000000000000E+00
 0.3327474125465E+00  0.8874985345996E+00  0.0000000000000E+00
 0.3415251845080E+00  0.9251037443903E+00  0.0000000000000E+00
 0.3503029564696E+00  0.9627089541809E+00  0.0000000000000E+00
 0.3590807284311E+00  0.1000314163972E+01  0.0000000000000E+00
 0.3678585003926E+00  0.1037919373762E+01  0.0000000000000E+00
 0.3766362723541E+00  0.1075524583553E+01  0.0000000000000E+00
 0.3854140443156E+00  0.1113129793344E+01  0.0000000000000E+00
 0.3941918162772E+00  0.1150735003134E+01  0.0000000000000E+00
 0.2754196910016E+00  0.4700832706692E+00  0.0000000000000E+00
 0.2856275627779E+00  0.5072566872127E+00  0.0000000000000E+00
 0.2958354345541E+00  0.5444301037562E+00  0.0000000000000E+00
 0.3060433063303E+00  0.5816035202998E+00  0.0000000000000E+00
 0.3162511781066E+00  0.6187769368433E+00  0.0000000000000E+00
 0.3264590498828E+00  0.6559503533868E+00  0.0000000000000E+00
 0.3366669216591E+00  0.6931237699303E+00  0.0000000000000E+00
 0.3468747934353E+00  0.7302971864738E+00  0.0000000000000E+00
 0.3570826652115E+00  0.7674706030173E+00  0.0000000000000E+00
 0.3672905369878E+00  0.8046440195609E+00  0.0000000000000E+00
 0.3774984087640E+00  0.8418174361044E+00  0.0000000000000E+00
 0.3877062805402E+00  0.8789908526479E+00  0.0000000000000E+00
 0.3979141523165E+00  0.9161642691914E+00  0.0000000000000E+00
 0.4081220240927E+00  0.9533376857349E+00  0.0000000000000E+00
 0.4183298958690E+00  0.9905111022785E+00  0.0000000000000E+00
 0.4285377676452E+00  0.1027684518822E+01  0.0000000000000E+00
 0.4387456394214E+00  0.1064857935365E+01  0.0000000000000E+00
 0.4489535111977E+00  0.1102031351909E+01  0.0000000000000E+00
 0.4591613829739E+00  0.1139204768453E+01  0.0000000000000E+00
 0.3145837449108E+00  0.4657520002350E+00  0.0000000000000E+00
 0.3262058733503E+00  0.5024255396995E+00  0.0000000000000E+00
 0.3378280017898E+00  0.5390990791639E+00  0.0000000000000E+00
 0.3494501302294E+00  0.5757726186284E+00  0.0000000000000E+00
 0.3610722586689E+00  0.6124461580929E+00  0.0000000000000E+00
 0.3726943871084E+00  0.6491196975574E+00  0.0000000000000E+00
 0.3843165155480E+00  0.6857932370219E+00  0.0000000000000E+00
 0.3959386439875E+00  0.7224667764863E+00  0.0000000000000E+00
 0.4075607724270E+00  0.7591403159508E+00  0.0000000000000E+00
 0.4191829008666E+00  0.7958138554153E+00  0.0000000000000E+00
 0.4308050293061E+00  0.8324873948798E+00  0.0000000000000E+00
 0.4424271577456E+00  0.8691609343443E+00  0.0000000000000E+00
 0.4540492861852E+00  0.9058344738087E+00  0.0000000000000E+00
 0.4656714146247E+00  0.9425080132732E+00  0.0000000000000E+00
 0.4772935430642E+00  0.9791815527377E+00  0.0000000000000E+00
 0.4889156715038E+00  0.1015855092202E+01  0.0000000000000E+00
 0.5005377999433E+00  0.1052528631667E+01  0.0000000000000E+00
 0.5121599283828E+00  0.1089202171131E+01  0.0000000000000E+00
 0.5237820568224E+00  0.1125875710596E+01  0.0000000000000E+00
 0.3536746458685E+00  0.4608476922366E+00  0.0000000000000E+00
 0.3666922614163E+00  0.4969508181222E+00  0.0000000000000E+00
 0.3797098769641E+00  0.5330539440077E+00  0.0000000000000E+00
 0.3927274925120E+00  0.5691570698933E+00  0.0000000000000E+00
 0.4057451080598E+00  0.6052601957789E+00  0.0000000000000E+00
 0.4187627236076E+00  0.6413633216644E+00  0.0000000000000E+00
 0.4317803391555E+00  0.6774664475500E+00  0.0000000000000E+00
 0.4447979547033E+00  0.7135695734356E+00  0.0000000000000E+00
 0.4578155702512E+00  0.7496726993211E+00  0.0000000000000E+00
 0.4708331857990E+00  0.7857758252067E+00  0.0000000000000E+00
 0.4838508013468E+00  0.8218789510922E+00  0.0000000000000E+00
 0.4968684168947E+00  0.8579820769778E+00  0.0000000000000E+00
 0.5098860324425E+00  0.8940852028634E+00  0.0000000000000E+00
 0.5229036479903E+00  0.9301883287489E+00  0.0000000000000E+00
 0.5359212635382E+00  0.9662914546345E+00  0.0000000000000E+00
 0.5489388790860E+00  0.1002394580520E+01  0.0000000000000E+00
 0.5619564946338E+00  0.1038497706406E+01  0.0000000000000E+00
 0.5749741101817E+00  0.1074600832291E+01  0.0000000000000E+00
 0.5879917257295E+00  0.1110703958177E+01  0.0000000000000E+00
 0.3926829943248E+00  0.4553717726702E+00  0.0000000000000E+00
 0.4070743134774E+00  0.4908323142595E+00  0.0000000000000E+00
 0.4214656326299E+00  0.5262928558488E+00  0.0000000000000E+00
 0.4358569517824E+00  0.5617533974382E+00  0.0000000000000E+00
 0.4502482709349E+00  0.5972139390275E+00  0.0000000000000E+00
 0.4646395900874E+00  0.6326744806169E+00  0.0000000000000E+00
 0.4790309092400E+00  0.6681350222062E+00  0.0000000000000E+00
 0.4934222283925E+00  0.7035955637956E+00  0.0000000000000E+00
 0.5078135475450E+00  0.7390561053849E+00  0.0000000000000E+00
 0.5222048666975E+00  0.7745166469743E+00  0.0000000000000E+00
 0.5365961858501E+00  0.8099771885636E+00  0.0000000000000E+00
 0.5509875050026E+00  0.8454377301529E+00  0.0000000000000E+00
 0.5653788241551E+00  0.8808982717423E+00  0.0000000000000E+00
 0.5797701433076E+00  0.9163588133316E+00  0.0000000000000E+00
 0.5941614624601E+00  0.9518193549210E+00  0.0000000000000E+00
 0.6085527816127E+00  0.9872798965103E+00  0.0000000000000E+00
 0.6229441007652E+00  0.1022740438100E+01  0.0000000000000E+00
 0.6373354199177E+00  0.1058200979689E+01  0.0000000000000E+00
 0.6517267390702E+00  0.1093661521278E+01  0.0000000000000E+00
 0.4316001604581E+00  0.4493289287768E+00  0.0000000000000E+00
 0.4473410323378E+00  0.4840760209408E+00  0.0000000000000E+00
 0.4630819042174E+00  0.5188231131049E+00  0.0000000000000E+00
 0.4788227760970E+00  0.5535702052689E+00  0.0000000000000E+00
 0.4945636479767E+00  0.5883172974329E+00  0.0000000000000E+00
 0.5103045198563E+00  0.6230643895969E+00  0.0000000000000E+00
 0.5260453917359E+00  0.6578114817609E+00  0.0000000000000E+00
 0.5417862636155E+00  0.6925585739250E+00  0.0000000000000E+00
 0.5575271354952E+00  0.7273056660890E+00  0.0000000000000E+00
 0.5732680073748E+00  0.7620527582530E+00  0.0000000000000E+00
 0.5890088792544E+00  0.7967998504170E+00  0.0000000000000E+00
 0.6047497511341E+00  0.8315469425810E+00  0.0000000000000E+00
 0.6204906230137E+00  0.8662940347451E+00  0.0000000000000E+00
 0.6362314948933E+00  0.9010411269091E+00  0.0000000000000E+00
 0.6519723667730E+00  0.9357882190731E+00  0.0000000000000E+00
 0.6677132386526E+00  0.9705353112371E+00  0.0000000000000E+00
 0.6834541105322E+00  0.1005282403401E+01  0.0000000000000E+00
 0.6991949824118E+00  0.1040029495565E+01  0.0000000000000E+00
 0.7149358542915E+00  0.1074776587729E+01  0.0000000000000E+00
 0.4704201190014E+00  0.4427312295532E+00  0.0000000000000E+00
 0.4874864928703E+00  0.4767023850238E+00  0.0000000000000E+00
 0.5045528667393E+00  0.5106735404944E+00  0.0000000000000E+00
 0.5216192406082E+00  0.5446446959651E+00  0.0000000000000E+00
 0.5386856144772E+00  0.5786158514357E+00  0.0000000000000E+00
 0.5557519883461E+00  0.6125870069063E+00  0.0000000000000E+00
 0.5728183622150E+00  0.6465581623769E+00  0.0000000000000E+00
 0.5898847360840E+00  0.6805293178476E+00  0.0000000000000E+00
 0.6069511099529E+00  0.7145004733182E+00  0.0000000000000E+00
 0.6240174838218E+00  0.7484716287888E+00  0.0000000000000E+00
 0.6410838576908E+00  0.7824427842594E+00  0.0000000000000E+00
 0.6581502315597E+00  0.8164139397300E+00  0.0000000000000E+00
 0.6752166054286E+00  0.8503850952007E+00  0.0000000000000E+00
 0.6922829792976E+00  0.8843562506713E+00  0.0000000000000E+00
 0.7093493531665E+00  0.9183274061419E+00  0.0000000000000E+00
 0.7264157270354E+00  0.9522985616125E+00  0.0000000000000E+00
 0.7434821009044E+00  0.9862697170832E+00  0.0000000000000E+00
 0.7605484747733E+00  0.1020240872554E+01  0.0000000000000E+00
 0.7776148486422E+00  0.1054212028024E+01  0.0000000000000E+00
 0.5091428679437E+00  0.4356052711680E+00  0.0000000000000E+00
 0.5275166039441E+00  0.4687606221902E+00  0.0000000000000E+00
 0.5458903399444E+00  0.5019159732123E+00  0.0000000000000E+00
 0.5642640759448E+00  0.5350713242345E+00  0.0000000000000E+00
 0.5826378119451E+00  0.5682266752566E+00  0.0000000000000E+00
 0.6010115479455E+00  0.6013820262787E+00  0.0000000000000E+00
 0.6193852839459E+00  0.6345373773009E+00  0.0000000000000E+00
 0.6377590199462E+00  0.6676927283230E+00  0.0000000000000E+00
 0.6561327559466E+00  0.7008480793452E+00  0.0000000000000E+00
 0.6745064919470E+00  0.7340034303673E+00  0.0000000000000E+00
 0.6928802279473E+00  0.7671587813894E+00  0.0000000000000E+00
 0.7112539639477E+00  0.8003141324116E+00  0.0000000000000E+00
 0.7296276999480E+00  0.8334694834337E+00  0.0000000000000E+00
 0.7480014359484E+00  0.8666248344558E+00  0.0000000000000E+00
 0.7663751719488E+00  0.8997801854780E+00  0.0000000000000E+00
 0.7847489079491E+00  0.9329355365001E+00  0.0000000000000E+00
 0.8031226439495E+00  0.9660908875223E+00  0.0000000000000E+00
 0.8214963799499E+00  0.9992462385444E+00  0.0000000000000E+00
 0.8398701159502E+00  0.1032401589567E+01  0.0000000000000E+00
 0.5477768854571E+00  0.4279968810059E+00  0.0000000000000E+00
 0.5674541537630E+00  0.4603381160649E+00  0.0000000000000E+00
 0.5871314220688E+00  0.4926793511240E+00  0.0000000000000E+00
 0.6068086903747E+00  0.5250205861830E+00  0.0000000000000E+00
 0.6264859586806E+00  0.5573618212420E+00  0.0000000000000E+00
 0.6461632269865E+00  0.5897030563010E+00  0.0000000000000E+00
 0.6658404952923E+00  0.6220442913601E+00  0.0000000000000E+00
 0.6855177635982E+00  0.6543855264191E+00  0.0000000000000E+00
 0.7051950319041E+00  0.6867267614781E+00  0.0000000000000E+00
 0.7248723002099E+00  0.7190679965371E+00  0.0000000000000E+00
 0.7445495685158E+00  0.7514092315961E+00  0.0000000000000E+00
 0.7642268368217E+00  0.7837504666552E+00  0.0000000000000E+00
 0.7839041051276E+00  0.8160917017142E+00  0.0000000000000E+00
 0.8035813734334E+00  0.8484329367732E+00  0.0000000000000E+00
 0.8232586417393E+00  0.8807741718322E+00  0.0000000000000E+00
 0.8429359100452E+00  0.9131154068912E+00  0.0000000000000E+00
 0.8626131783511E+00  0.9454566419503E+00  0.0000000000000E+00
 0.8822904466569E+00  0.9777978770093E+00  0.0000000000000E+00
 0.9019677149628E+00  0.1010139112068E+01  0.0000000000000E+00
 0.5863228020220E+00  0.4199269192670E+00  0.0000000000000E+00
 0.6073059539494E+00  0.4514720689682E+00  0.0000000000000E+00
 0.6282891058768E+00  0.4830172186695E+00  0.0000000000000E+00
 0.6492722578042E+00  0.5145623683708E+00  0.0000000000000E+00
 0.6702554097316E+00  0.5461075180720E+00  0.0000000000000E+00
 0.6912385616590E+00  0.5776526677733E+00  0.0000000000000E+00
 0.7122217135865E+00  0.6091978174745E+00  0.0000000000000E+00
 0.7332048655139E+00  0.6407429671758E+00  0.0000000000000E+00
 0.7541880174413E+00  0.6722881168770E+00  0.0000000000000E+00
 0.7751711693687E+00  0.7038332665783E+00  0.0000000000000E+00
 0.7961543212961E+00  0.7353784162796E+00  0.0000000000000E+00
 0.8171374732236E+00  0.7669235659808E+00  0.0000000000000E+00
 0.8381206251510E+00  0.7984687156821E+00  0.0000000000000E+00
 0.8591037770784E+00  0.8300138653833E+00  0.0000000000000E+00
 0.8800869290058E+00  0.8615590150846E+00  0.0000000000000E+00
 0.9010700809332E+00  0.8931041647858E+00  0.0000000000000E+00
 0.9220532328607E+00  0.9246493144871E+00  0.0000000000000E+00
 0.9430363847881E+00  0.9561944641884E+00  0.0000000000000E+00
 0.9640195367155E+00  0.9877396138896E+00  0.0000000000000E+00
 0.6247718534565E+00  0.4113904599593E+00  0.0000000000000E+00
 0.6470599870427E+00  0.4421478324182E+00  0.0000000000000E+00
 0.6693481206289E+00  0.4729052048771E+00  0.0000000000000E+00
 0.6916362542152E+00  0.5036625773361E+00  0.0000000000000E+00
 0.7139243878014E+00  0.5344199497950E+00  0.0000000000000E+00
 0.7362125213877E+00  0.5651773222539E+00  0.0000000000000E+00
 0.7585006549739E+00  0.5959346947128E+00  0.0000000000000E+00
 0.7807887885601E+00  0.6266920671718E+00  0.0000000000000E+00
 0.8030769221464E+00  0.6574494396307E+00  0.0000000000000E+00
 0.8253650557326E+00  0.6882068120896E+00  0.0000000000000E+00
 0.8476531893188E+00  0.7189641845486E+00  0.0000000000000E+00
 0.8699413229051E+00  0.7497215570075E+00  0.0000000000000E+00
 0.8922294564913E+00  0.7804789294664E+00  0.0000000000000E+00
 0.9145175900776E+00  0.8112363019254E+00  0.0000000000000E+00
 0.9368057236638E+00  0.8419936743843E+00  0.0000000000000E+00
 0.9590938572500E+00  0.8727510468432E+00  0.0000000000000E+00
 0.9813819908363E+00  0.9035084193021E+00  0.0000000000000E+00
 0.1003670124423E+01  0.9342657917611E+00  0.0000000000000E+00
 0.1025958258009E+01  0.9650231642200E+00  0.0000000000000E+00
 0.6631144762382E+00  0.4023799804640E+00  0.0000000000000E+00
 0.6867022090618E+00  0.4323453794102E+00  0.0000000000000E+00
 0.7102899418854E+00  0.4623107783564E+00  0.0000000000000E+00
 0.7338776747089E+00  0.4922761773027E+00  0.0000000000000E+00
 0.7574654075325E+00  0.5222415762489E+00  0.0000000000000E+00
 0.7810531403561E+00  0.5522069751951E+00  0.0000000000000E+00
 0.8046408731796E+00  0.5821723741413E+00  0.0000000000000E+00
 0.8282286060032E+00  0.6121377730876E+00  0.0000000000000E+00
 0.8518163388268E+00  0.6421031720338E+00  0.0000000000000E+00
 0.8754040716504E+00  0.6720685709800E+00  0.0000000000000E+00
 0.8989918044739E+00  0.7020339699262E+00  0.0000000000000E+00
 0.9225795372975E+00  0.7319993688725E+00  0.0000000000000E+00
 0.9461672701211E+00  0.7619647678187E+00  0.0000000000000E+00
 0.9697550029446E+00  0.7919301667649E+00  0.0000000000000E+00
 0.9933427357682E+00  0.8218955657111E+00  0.0000000000000E+00
 0.1016930468592E+01  0.8518609646574E+00  0.0000000000000E+00
 0.1040518201415E+01  0.8818263636036E+00  0.0000000000000E+00
 0.1064105934239E+01  0.9117917625498E+00  0.0000000000000E+00
 0.1087693667062E+01  0.9417571614961E+00  0.0000000000000E+00
 0.7013395437085E+00  0.3928851883836E+00  0.0000000000000E+00
 0.7262154212153E+00  0.4220388917836E+00  0.0000000000000E+00
 0.7510912987220E+00  0.4511925951835E+00  0.0000000000000E+00
 0.7759671762288E+00  0.4803462985835E+00  0.0000000000000E+00
 0.8008430537356E+00  0.5095000019835E+00  0.0000000000000E+00
 0.8257189312424E+00  0.5386537053834E+00  0.0000000000000E+00
 0.8505948087492E+00  0.5678074087834E+00  0.0000000000000E+00
 0.8754706862560E+00  0.5969611121833E+00  0.0000000000000E+00
 0.9003465637627E+00  0.6261148155833E+00  0.0000000000000E+00
 0.9252224412695E+00  0.6552685189833E+00  0.0000000000000E+00
 0.9500983187763E+00  0.6844222223832E+00  0.0000000000000E+00
 0.9749741962831E+00  0.7135759257832E+00  0.0000000000000E+00
 0.9998500737899E+00  0.7427296291831E+00  0.0000000000000E+00
 0.1024725951297E+01  0.7718833325831E+00  0.0000000000000E+00
 0.1049601828803E+01  0.8010370359831E+00  0.0000000000000E+00
 0.1074477706310E+01  0.8301907393830E+00  0.0000000000000E+00
 0.1099353583817E+01  0.8593444427830E+00  0.0000000000000E+00
 0.1124229461324E+01  0.8884981461829E+00  0.0000000000000E+00
 0.1149105338831E+01  0.9176518495829E+00  0.0000000000000E+00
 0.7394329578610E+00  0.3828904307705E+00  0.0000000000000E+00
 0.7655763768245E+00  0.4111916019715E+00  0.0000000000000E+00
 0.7917197957880E+00  0.4394927731724E+00  0.0000000000000E+00
 0.8178632147515E+00  0.4677939443734E+00  0.0000000000000E+00
 0.8440066337150E+00  0.4960951155743E+00  0.0000000000000E+00
 0.8701500526785E+00  0.5243962867753E+00  0.0000000000000E+00
 0.8962934716420E+00  0.5526974579763E+00  0.0000000000000E+00
 0.9224368906055E+00  0.5809986291772E+00  0.0000000000000E+00
 0.9485803095690E+00  0.6092998003782E+00  0.0000000000000E+00
 0.9747237285325E+00  0.6376009715791E+00  0.0000000000000E+00
 0.1000867147496E+01  0.6659021427801E+00  0.0000000000000E+00
 0.1027010566459E+01  0.6942033139810E+00  0.0000000000000E+00
 0.1053153985423E+01  0.7225044851820E+00  0.0000000000000E+00
 0.1079297404386E+01  0.7508056563830E+00  0.0000000000000E+00
 0.1105440823350E+01  0.7791068275839E+00  0.0000000000000E+00
 0.1131584242313E+01  0.8074079987849E+00  0.0000000000000E+00
 0.1157727661277E+01  0.8357091699858E+00  0.0000000000000E+00
 0.1183871080240E+01  0.8640103411868E+00  0.0000000000000E+00
 0.1210014499204E+01  0.8923115123877E+00  0.0000000000000E+00
</DataArray>
</Points>
<Cells>
<DataArray type="Int64" Name="connectivity" format="ascii">
0 11 438 243
243 438 439 244
244 439 440 245
245 440 441 246
246 441 442 247
247 442 443 248
248 443 444 249
249 444 445 250
250 445 446 251
251 446 447 252
252 447 448 253
253 448 449 254
254 449 450 255
255 450 451 256
256 451 452 257
257 452 453 258
258 453 454 259
259 454 455 260
260 455 456 261
261 456 457 262
262 457 458 263
263 458 459 264
264 459 460 265
265 460 461 266
266 461 462 267
267 462 463 268
268 463 464 269
269 464 465 270
270 465 466 271
271 466 467 272
272 467 468 273
273 468 469 274
274 469 470 275
275 470 471 276
276 471 472 277
277 472 473 278
278 473 474 279
279 474 475 280
280 475 476 281
281 476 477 282
282 477 89 3
11 12 478 438
438 478 479 439
439 479 480 440
440 480 481 441
441 481 482 442
442 482 483 443
443 483 484 444
444 484 485 445
445 485 486 446
446 486 487 447
447 487 488 448
448 488 489 449
449 489 490 450
450 490 491 451
451 491 492 452
452 492 493 453
453 493 494 454
454 494 495 455
455 495 496 456
456 496 497 457
457 497 498 458
458 498 499 459
459 499 500 460
460 500 501 461
461 501 502 462
462 502 503 463
463 503 504 464
464 504 505 465
465 505 506 466
466 506 507 467
467 507 508 468
468 508 509 469
469 509 510 470
470 510 511 471
471 511 512 472
472 512 513 473
473 513 514 474
474 514 515 475
475 515 516 476
476 516 517 477
477 517 90 89
12 13 518 478
478 518 519 479
479 519 520 480
480 520 521 481
481 521 522 482
482 522 523 483
483 523 524 484
484 524 525 485
485 525 526 486
486 526 527 487
487 527 528 488
488 528 529 489
489 529 530 490
490 530 531 491
491 531 532 492
492 532 533 493
493 533 534 494
494 534 535 495
495 535 536 496
496 536 537 497
497 537 538 498
498 538 539 499
499 539 540 500
500 540 541 501
501 541 542 502
502 542 543 503
503 543 544 504
504 544 545 505
505 545 546 506
506 546 547 507
507 547 548 508
508 548 549 509
509 549 550 510
510 550 551 511
511 551 552 512
512 552 553 513
513 553 554 514
514 554 555 515
515 555 556 516
516 556 557 517
517 557 91 90
13 14 558 518
518 558 559 519
519 559 560 520
520 560 561 521
521 561 562 522
522 562 563 523
523 563 564 524
524 564 565 525
525 565 566 526
526 566 567 527
527 567 568 528
528 568 569 529
529 569 570 530
530 570 571 531
531 571 572 532
532 572 573 533
533 573 574 534
534 574 575 535
535 575 576 536
536 576 577 537
537 577 578 538
538 578 579 539
539 579 580 540
540 580 581 541
541 581 582 542
542 582 583 543
543 583 584 544
544 584 585 545
545 585 586 546
546 586 587 547
547 587 588 548
548 588 589 549
549 589 590 550
550 590 591 551
551 591 592 552
552 592 593 553
553 593 594 554
554 594 595 555
555 595 596 556
556 596 597 557
557 597 92 91
14 15 598 558
558 598 599 559
559 599 600 560
560 600 601 561
561 601 602 562
562 602 603 563
563 603 604 564
564 604 605 565
565 605 606 566
566 606 607 567
567 607 608 568
568 608 609 569
569 609 610 570
570 610 611 571
571 611 612 572
572 612 613 573
573 613 614 574
574 614 615 575
575 615 616 576
576 616 617 577
577 617 618 578
578 618 619 579
579 619 620 580
580 620 621 581
581 621 622 582
582 622 623 583
583 623 624 584
584 624 625 585
585 625 626 586
586 626 627 587
587 627 628 588
588 628 629 589
589 629 630 590
590 630 631 591
591 631 632 592
592 632 633 593
593 633 634 594
594 634 635 595
595 635 636 596
596 636 637 597
597 637 93 92
15 16 638 598
598 638 639 599
599 639 640 600
600 640 641 601
601 641 642 602
602 642 643 603
603 643 644 604
604 644 645 605
605 645 646 606
606 646 647 607
607 647 648 608
608 648 649 609
609 649 650 610
610 650 651 611
611 651 652 612
612 652 653 613
613 653 654 614
614 654 655 615
615 655 656 616
616 656 657 617
617 657 658 618
618 658 659 619
619 659 660 620
620 660 661 621
621 661 662 622
622 662 663 623
623 663 664 624
624 664 665 625
625 665 666 626
626 666 667 627
627 667 668 628
628 668 669 629
629 669 670 630
630 670 671 631
631 671 672 632
632 672 673 633
633 673 674 634
634 674 675 635
635 675 676 636
636 676 677 637
637 677 94 93
16 17 678 638
638 678 679 639
639 679 680 640
640 680 681 641
641 681 682 642
642 682 683 643
643 683 684 644
644 684 685 645
645 685 686 646
646 686 687 647
647 687 688 648
648 688 689 649
649 689 690 650
650 690 691 651
651 691 692 652
652 692 693 653
653 693 694 654
654 694 695 655
655 695 696 656
656 696 697 657
657 697 698 658
658 698 699 659
659 699 700 660
660 700 701 661
661 701 702 662
662 702 703 663
663 703 704 664
664 704 705 665
665 705 706 666
666 706 707 667
667 707 708 668
668 708 709 669
669 709 710 670
670 710 711 671
671 711 712 672
672 712 713 673
673 713 714 674
674 714 715 675
675 715 716 676
676 716 717 677
677 717 95 94
17 18 718 678
678 718 719 679
679 719 720 680
680 720 721 681
681 721 722 682
682 722 723 683
683 723 724 684
684 724 725 685
685 725 726 686
686 726 727 687
687 727 728 688
688 728 729 689
689 729 730 690
690 730 731 691
691 731 732 692
692 732 733 693
693 733 734 694
694 734 735 695
695 735 736 696
696 736 737 697
697 737 738 698
698 738 739 699
699 739 740 700
700 740 741 701
701 741 742 702
702 742 743 703
703 743 744 704
704 744 745 705
705 745 746 706
706 746 747 707
707 747 748 708
708 748 749 709
709 749 750 710
710 750 751 711
711 751 752 712
712 752 753 713
713 753 754 714
714 754 755 715
715 755 756 716
716 756 757 717
717 757 96 95
18 19 758 718
718 758 759 719
719 759 760 720
720 760 761 721
721 761 762 722
722 762 763 723
723 763 764 724
724 764 765 725
725 765 766 726
726 766 767 727
727 767 768 728
728 768 769 729
729 769 770 730
730 770 771 731
731 771 772 732
732 772 773 733
733 773 774 734
734 774 775 735
735 775 776 736
736 776 777 737
737 777 778 738
738 778 779 739
739 779 780 740
740 780 781 741
741 781 782 742
742 782 783 743
743 783 784 744
744 784 785 745
745 785 786 746
746 786 787 747
747 787 788 748
748 788 789 749
749 789 790 750
750 790 791 751
751 791 792 752
752 792 793 753
753 793 794 754
754 794 795 755
755 795 796 756
756 796 797 757
757 797 97 96
19 20 798 758
758 798 799 759
759 799 800 760
760 800 801 761
761 801 802 762
762 802 803 763
763 803 804 764
764 804 805 765
765 805 806 766
766 806 807 767
767 807 808 768
768 808 809 769
769 809 810 770
770 810 811 771
771 811 812 772
772 812 813 773
773 813 814 774
774 814 815 775
775 815 816 776
776 816 817 777
777 817 818 778
778 818 819 779
779 819 820 780
780 820 821 781
781 821 822 782
782 822 823 783
783 823 824 784
784 824 825 785
785 825 826 786
786 826 827 787
787 827 828 788
788 828 829 789
789 829 830 790
790 830 831 791
791 831 832 792
792 832 833 793
793 833 834 794
794 834 835 795
795 835 836 796
796 836 837 797
797 837 98 97
20 21 838 798
798 838 839 799
799 839 840 800
800 840 841 801
801 841 842 802
802 842 843 803
803 843 844 804
804 844 845 805
805 845 846 806
806 846 847 807
807 847 848 808
808 848 849 809
809 849 850 810
810 850 851 811
811 851 852 812
812 852 853 813
813 853 854 814
814 854 855 815
815 855 856 816
816 856 857 817
817 857 858 818
818 858 859 819
819 859 860 820
820 860 861 821
821 861 862 822
822 862 863 823
823 863 864 824
824 864 865 825
825 865 866 826
826 866 867 827
827 867 868 828
828 868 869 829
829 869 870 830
830 870 871 831
831 871 872 832
832 872 873 833
833 873 874 834
834 874 875 835
835 875 876 836
836 876 877 837
837 877 99 98
21 22 878 838
838 878 879 839
839 879 880 840
840 880 881 841
841 881 882 842
842 882 883 843
843 883 884 844
844 884 885 845
845 885 886 846
846 886 887 847
847 887 888 848
848 888 889 849
849 889 890 850
850 890 891 851
851 891 892 852
852 892 893 853
853 893 894 854
854 894 895 855
855 895 896 856
856 896 897 857
857 897 898 858
858 898 899 859
859 899 900 860
860 900 901 861
861 901 902 862
862 902 903 863
863 903 904 864
864 904 905 865
865 905 906 866
866 906 907 867
867 907 908 868
868 908 909 869
869 909 910 870
870 910 911 871
871 911 912 872
872 912 913 873
873 913 914 874
874 914 915 875
875 915 916 876
876 916 917 877
877 917 100 99
22 23 918 878
878 918 919 879
879 919 920 880
880 920 921 881
881 921 922 882
882 922 923 883
883 923 924 884
884 924 925 885
885 925 926 886
886 926 927 887
887 927 928 888
888 928 929 889
889 929 930 890
890 930 931 891
891 931 932 892
892 932 933 893
893 933 934 894
894 934 935 895
895 935 936 896
896 936 937 897
897 937 938 898
898 938 939 899
899 939 940 900
900 940 941 901
901 941 942 902
902 942 943 903
903 943 944 904
904 944 945 905
905 945 946 906
906 946 947 907
907 947 948 908
908 948 949 909
909 949 950 910
910 950 951 911
911 951 952 912
912 952 953 913
913 953 954 914
914 954 955 915
915 955 956 916
916 956 957 917
917 957 101 100
23 24 958 918
918 958 959 919
919 959 960 920
920 960 961 921
921 961 962 922
922 962 963 923
923 963 964 924
924 964 965 925
925 965 966 926
926 966 967 927
927 967 968 928
928 968 969 929
929 969 970 930
930 970 971 931
931 971 972 932
932 972 973 933
933 973 974 934
934 974 975 935
935 975 976 936
936 976 977 937
937 977 978 938
938 978 979 939
939 979 980 940
940 980 981 941
941 981 982 942
942 982 983 943
943 983 984 944
944 984 985 945
945 985 986 946
946 986 987 947
947 987 988 948
948 988 989 949
949 989 990 950
950 990 991 951
951 991 992 952
952 992 993 953
953 993 994 954
954 994 995 955
955 995 996 956
956 996 997 957
957 997 102 101
24 25 998 958
958 998 999 959
959 999 1000 960
960 1000 1001 961
961 1001 1002 962
962 1002 1003 963
963 1003 1004 964
964 1004 1005 965
965 1005 1006 966
966 1006 1007 967
967 1007 1008 968
968 1008 1009 969
969 1009 1010 970
970 1010 1011 971
971 1011 1012 972
972 1012 1013 973
973 1013 1014 974
974 1014 1015 975
975 1015 1016 976
976 1016 1017 977
977 1017 1018 978
978 1018 1019 979
979 1019 1020 980
980 1020 1021 981
981 1021 1022 982
982 1022 1023 983
983 1023 1024 984
984 1024 1025 985
985 1025 1026 986
986 1026 1027 987
987 1027 1028 988
988 1028 1029 989
989 1029 1030 990
990 1030 1031 991
991 1031 1032 992
992 1032 1033 993
993 1033 1034 994
994 1034 1035 995
995 1035 1036 996
996 1036 1037 997
997 1037 103 102
25 26 1038 998
998 1038 1039 999
999 1039 1040 1000
1000 1040 1041 1001
1001 1041 1042 1002
1002 1042 1043 1003
1003 1043 1044 1004
1004 1044 1045 1005
1005 1045 1046 1006
1006 1046 1047 1007
1007 1047 1048 1008
1008 1048 1049 1009
1009 1049 1050 1010
1010 1050 1051 1011
1011 1051 1052 1012
1012 1052 1053 1013
1013 1053 1054 1014
1014 1054 1055 1015
1015 1055 1056 1016
1016 1056 1057 1017
1017 1057 1058 1018
1018 1058 1059 1019
1019 1059 1060 1020
1020 1060 1061 1021
1021 1061 1062 1022
1022 1062 1063 1023
1023 1063 1064 1024
1024 1064 1065 1025
1025 1065 1066 1026
1026 1066 1067 1027
1027 1067 1068 1028
1028 1068 1069 1029
1029 1069 1070 1030
1030 1070 1071 1031
1031 1071 1072 1032
1032 1072 1073 1033
1033 1073 1074 1034
1034 1074 1075 1035
1035 1075 1076 1036
1036 1076 1077 1037
1037 1077 104 103
26 27 1078 1038
1038 1078 1079 1039
1039 1079 1080 1040
1040 1080 1081 1041
1041 1081 1082 1042
1042 1082 1083 1043
1043 1083 1084 1044
1044 1084 1085 1045
1045 1085 1086 1046
1046 1086 1087 1047
1047 1087 1088 1048
1048 1088 1089 1049
1049 1089 1090 1050
1050 1090 1091 1051
1051 1091 1092 1052
1052 1092 1093 1053
1053 1093 1094 1054
1054 1094 1095 1055
1055 1095 1096 1056
1056 1096 1097 1057
1057 1097 1098 1058
1058 1098 1099 1059
1059 1099 1100 1060
1060 1100 1101 1061
1061 1101 1102 1062
1062 1102 1103 1063
1063 1103 1104 1064
1064 1104 1105 1065
1065 1105 1106 1066
1066 1106 1107 1067
1067 1107 1108 1068
1068 1108 1109 1069
1069 1109 1110 1070
1070 1110 1111 1071
1071 1111 1112 1072
1072 1112 1113 1073
1073 1113 1114 1074
1074 1114 1115 1075
1075 1115 1116 1076
1076 1116 1117 1077
1077 1117 105 104
27 28 1118 1078
1078 1118 1119 1079
1079 1119 1120 1080
1080 1120 1121 1081
1081 1121 1122 1082
1082 1122 1123 1083
1083 1123 1124 1084
1084 1124 1125 1085
1085 1125 1126 1086
1086 1126 1127 1087
1087 1127 1128 1088
1088 1128 1129 1089
1089 1129 1130 1090
1090 1130 1131 1091
1091 1131 1132 1092
1092 1132 1133 1093
1093 1133 1134 1094
1094 1134 1135 1095
1095 1135 1136 1096
1096 1136 1137 1097
1097 1137 1138 1098
1098 1138 1139 1099
1099 1139 1140 1100
1100 1140 1141 1101
1101 1141 1142 1102
1102 1142 1143 1103
1103 1143 1144 1104
1104 1144 1145 1105
1105 1145 1146 1106
1106 1146 1147 1107
1107 1147 1148 1108
1108 1148 1149 1109
1109 1149 1150 1110
1110 1150 1151 1111
1111 1151 1152 1112
1112 1152 1153 1113
1113 1153 1154 1114
1114 1154 1155 1115
1115 1155 1156 1116
1116 1156 1157 1117
1117 1157 106 105
28 29 1158 1118
1118 1158 1159 1119
1119 1159 1160 1120
1120 1160 1161 1121
1121 1161 1162 1122
1122 1162 1163 1123
1123 1163 1164 1124
1124 1164 1165 1125
1125 1165 1166 1126
1126 1166 1167 1127
1127 1167 1168 1128
1128 1168 1169 1129
1129 1169 1170 1130
1130 1170 1171 1131
1131 1171 1172 1132
1132 1172 1173 1133
1133 1173 1174 1134
1134 1174 1175 1135
1135 1175 1176 1136
1136 1176 1177 1137
1137 1177 1178 1138
1138 1178 1179 1139
1139 1179 1180 1140
1140 1180 1181 1141
1141 1181 1182 1142
1142 1182 1183 1143
1143 1183 1184 1144
1144 1184 1185 1145
1145 1185 1186 1146
1146 1186 1187 1147
1147 1187 1188 1148
1148 1188 1189 1149
1149 1189 1190 1150
1150 1190 1191 1151
1151 1191 1192 1152
1152 1192 1193 1153
1153 1193 1194 1154
1154 1194 1195 1155
1155 1195 1196 1156
1156 1196 1197 1157
1157 1197 107 106
29 30 1198 1158
1158 1198 1199 1159
1159 1199 1200 1160
1160 1200 1201 1161
1161 1201 1202 1162
1162 1202 1203 1163
1163 1203 1204 1164
1164 1204 1205 1165
1165 1205 1206 1166
1166 1206 1207 1167
1167 1207 1208 1168
1168 1208 1209 1169
1169 1209 1210 1170
1170 1210 1211 1171
1171 1211 1212 1172
1172 1212 1213 1173
1173 1213 1214 1174
1174 1214 1215 1175
1175 1215 1216 1176
1176 1216 1217 1177
1177 1217 1218 1178
1178 1218 1219 1179
1179 1219 1220 1180
1180 1220 1221 1181
1181 1221 1222 1182
1182 1222 1223 1183
1183 1223 1224 1184
1184 1224 1225 1185
1185 1225 1226 1186
1186 1226 1227 1187
1187 1227 1228 1188
1188 1228 1229 1189
1189 1229 1230 1190
1190 1230 1231 1191
1191 1231 1232 1192
1192 1232 1233 1193
1193 1233 1234 1194
1194 1234 1235 1195
1195 1235 1236 1196
1196 1236 1237 1197
1197 1237 4 107
30 31 1238 1198
1198 1238 1239 1199
1199 1239 1240 1200
1200 1240 1241 1201
1201 1241 1242 1202
1202 1242 1243 1203
1203 1243 1244 1204
1204 1244 1245 1205
1205 1245 1246 1206
1206 1246 1247 1207
1207 1247 1248 1208
1208 1248 1249 1209
1209 1249 1250 1210
1210 1250 1251 1211
1211 1251 1252 1212
1212 1252 1253 1213
1213 1253 1254 1214
1214 1254 1255 1215
1215 1255 1256 1216
1216 1256 1257 1217
1217 1257 1258 1218
1218 1258 1259 1219
1219 1259 1260 1220
1220 1260 1261 1221
1221 1261 1262 1222
1222 1262 1263 1223
1223 1263 1264 1224
1224 1264 1265 1225
1225 1265 1266 1226
1226 1266 1267 1227
1227 1267 1268 1228
1228 1268 1269 1229
1229 1269 1270 1230
1230 1270 1271 1231
1231 1271 1272 1232
1232 1272 1273 1233
1233 1273 1274 1234
1234 1274 1275 1235
1235 1275 1276 1236
1236 1276 1277 1237
1237 1277 108 4
31 32 1278 1238
1238 1278 1279 1239
1239 1279 1280 1240
1240 1280 1281 1241
1241 1281 1282 1242
1242 1282 1283 1243
1243 1283 1284 1244
1244 1284 1285 1245
1245 1285 1286 1246
1246 1286 1287 1247
1247 1287 1288 1248
1248 1288 1289 1249
1249 1289 1290 1250
1250 1290 1291 1251
1251 1291 1292 1252
1252 1292 1293 1253
1253 1293 1294 1254
1254 1294 1295 1255
1255 1295 1296 1256
1256 1296 1297 1257
1257 1297 1298 1258
1258 1298 1299 1259
1259 1299 1300 1260
1260 1300 1301 1261
1261 1301 1302 1262
1262 1302 1303 1263
1263 1303 1304 1264
1264 1304 1305 1265
1265 1305 1306 1266
1266 1306 1307 1267
1267 1307 1308 1268
1268 1308 1309 1269
1269 1309 1310 1270
1270 1310 1311 1271
1271 1311 1312 1272
1272 1312 1313 1273
1273 1313 1314 1274
1274 1314 1315 1275
1275 1315 1316 1276
1276 1316 1317 1277
1277 1317 109 108
32 33 1318 1278
1278 1318 1319 1279
1279 1319 1320 1280
1280 1320 1321 1281
1281 1321 1322 1282
1282 1322 1323 1283
1283 1323 1324 1284
1284 1324 1325 1285
1285 1325 1326 1286
1286 1326 1327 1287
1287 1327 1328 1288
1288 1328 1329 1289
1289 1329 1330 1290
1290 1330 1331 1291
1291 1331 1332 1292
1292 1332 1333 1293
1293 1333 1334 1294
1294 1334 1335 1295
1295 1335 1336 1296
1296 1336 1337 1297
1297 1337 1338 1298
1298 1338 1339 1299
1299 1339 1340 1300
1300 1340 1341 1301
1301 1341 1342 1302
1302 1342 1343 1303
1303 1343 1344 1304
1304 1344 1345 1305
1305 1345 1346 1306
1306 1346 1347 1307
1307 1347 1348 1308
1308 1348 1349 1309
1309 1349 1350 1310
1310 1350 1351 1311
1311 1351 1352 1312
1312 1352 1353 1313
1313 1353 1354 1314
1314 1354 1355 1315
1315 1355 1356 1316
1316 1356 1357 1317
1317 1357 110 109
33 34 1358 1318
1318 1358 1359 1319
1319 1359 1360 1320
1320 1360 1361 1321
1321 1361 1362 1322
1322 1362 1363 1323
1323 1363 1364 1324
1324 1364 1365 1325
1325 1365 1366 1326
1326 1366 1367 1327
1327 1367 1368 1328
1328 1368 1369 1329
1329 1369 1370 1330
1330 1370 1371 1331
1331 1371 1372 1332
1332 1372 1373 1333
1333 1373 1374 1334
1334 1374 1375 1335
1335 1375 1376 1336
1336 1376 1377 1337
1337 1377 1378 1338
1338 1378 1379 1339
1339 1379 1380 1340
1340 1380 1381 1341
1341 1381 1382 1342
1342 1382 1383 1343
1343 1383 1384 1344
1344 1384 1385 1345
1345 1385 1386 1346
1346 1386 1387 1347
1347 1387 1388 1348
1348 1388 1389 1349
1349 1389 1390 1350
1350 1390 1391 1351
1351 1391 1392 1352
1352 1392 1393 1353
1353 1393 1394 1354
1354 1394 1395 1355
1355 1395 1396 1356
1356 1396 1397 1357
1357 1397 111 110
34 35 1398 1358
1358 1398 1399 1359
1359 1399 1400 1360
1360 1400 1401 1361
1361 1401 1402 1362
1362 1402 1403 1363
1363 1403 1404 1364
1364 1404 1405 1365
1365 1405 1406 1366
1366 1406 1407 1367
1367 1407 1408 1368
1368 1408 1409 1369
1369 1409 1410 1370
1370 1410 1411 1371
1371 1411 1412 1372
1372 1412 1413 1373
1373 1413 1414 1374
1374 1414 1415 1375
1375 1415 1416 1376
1376 1416 1417 1377
1377 1417 1418 1378
1378 1418 1419 1379
1379 1419 1420 1380
1380 1420 1421 1381
1381 1421 1422 1382
1382 1422 1423 1383
1383 1423 1424 1384
1384 1424 1425 1385
1385 1425 1426 1386
1386 1426 1427 1387
1387 1427 1428 1388
1388 1428 1429 1389
1389 1429 1430 1390
1390 1430 1431 1391
1391 1431 1432 1392
1392 1432 1433 1393
1393 1433 1434 1394
1394 1434 1435 1395
1395 1435 1436 1396
1396 1436 1437 1397
1397 1437 112 111
35 36 1438 1398
1398 1438 1439 1399
1399 1439 1440 1400
1400 1440 1441 1401
1401 1441 1442 1402
1402 1442 1443 1403
1403 1443 1444 1404
1404 1444 1445 1405
1405 1445 1446 1406
1406 1446 1447 1407
1407 1447 1448 1408
1408 1448 1449 1409
1409 1449 1450 1410
1410 1450 1451 1411
1411 1451 1452 1412
1412 1452 1453 1413
1413 1453 1454 1414
1414 1454 1455 1415
1415 1455 1456 1416
1416 1456 1457 1417
1417 1457 1458 1418
1418 1458 1459 1419
1419 1459 1460 1420
1420 1460 1461 1421
1421 1461 1462 1422
1422 1462 1463 1423
1423 1463 1464 1424
1424 1464 1465 1425
1425 1465 1466 1426
1426 1466 1467 1427
1427 1467 1468 1428
1428 1468 1469 1429
1429 1469 1470 1430
1430 1470 1471 1431
1431 1471 1472 1432
1432 1472 1473 1433
1433 1473 1474 1434
1434 1474 1475 1435
1435 1475 1476 1436
1436 1476 1477 1437
1437 1477 113 112
36 37 1478 1438
1438 1478 1479 1439
1439 1479 1480 1440
1440 1480 1481 1441
1441 1481 1482 1442
1442 1482 1483 1443
1443 1483 1484 1444
1444 1484 1485 1445
1445 1485 1486 1446
1446 1486 1487 1447
1447 1487 1488 1448
1448 1488 1489 1449
1449 1489 1490 1450
1450 1490 1491 1451
1451 1491 1492 1452
1452 1492 1493 1453
1453 1493 1494 1454
1454 1494 1495 1455
1455 1495 1496 1456
1456 1496 1497 1457
1457 1497 1498 1458
1458 1498 1499 1459
1459 1499 1500 1460
1460 1500 1501 1461
1461 1501 1502 1462
1462 1502 1503 1463
1463 1503 1504 1464
1464 1504 1505 1465
1465 1505 1506 1466
1466 1506 1507 1467
1467 1507 1508 1468
1468 1508 1509 1469
1469 1509 1510 1470
1470 1510 1511 1471
1471 1511 1512 1472
1472 1512 1513 1473
1473 1513 1514 1474
1474 1514 1515 1475
1475 1515 1516 1476
1476 1516 1517 1477
1477 1517 114 113
37 38 1518 1478
1478 1518 1519 1479
1479 1519 1520 1480
1480 1520 1521 1481
1481 1521 1522 1482
1482 1522 1523 1483
1483 1523 1524 1484
1484 1524 1525 1485
1485 1525 1526 1486
1486 1526 1527 1487
1487 1527 1528 1488
1488 1528 1529 1489
1489 1529 1530 1490
1490 1530 1531 1491
1491 1531 1532 1492
1492 1532 1533 1493
1493 1533 1534 1494
1494 1534 1535 1495
1495 1535 1536 1496
1496 1536 1537 1497
1497 1537 1538 1498
1498 1538 1539 1499
1499 1539 1540 1500
1500 1540 1541 1501
1501 1541 1542 1502
1502 1542 1543 1503
1503 1543 1544 1504
1504 1544 1545 1505
1505 1545 1546 1506
1506 1546 1547 1507
1507 1547 1548 1508
1508 1548 1549 1509
1509 1549 1550 1510
1510 1550 1551 1511
1511 1551 1552 1512
1512 1552 1553 1513
1513 1553 1554 1514
1514 1554 1555 1515
1515 1555 1556 1516
1516 1556 1557 1517
1517 1557 115 114
38 39 1558 1518
1518 1558 1559 1519
1519 1559 1560 1520
1520 1560 1561 1521
1521 1561 1562 1522
1522 1562 1563 1523
1523 1563 1564 1524
1524 1564 1565 1525
1525 1565 1566 1526
1526 1566 1567 1527
1527 1567 1568 1528
1528 1568 1569 1529
1529 1569 1570 1530
1530 1570 1571 1531
1531 1571 1572 1532
1532 1572 1573 1533
1533 1573 1574 1534
1534 1574 1575 1535
1535 1575 1576 1536
1536 1576 1577 1537
1537 1577 1578 1538
1538 1578 1579 1539
1539 1579 1580 1540
1540 1580 1581 1541
1541 1581 1582 1542
1542 1582 1583 1543
1543 1583 1584 1544
1544 1584 1585 1545
1545 1585 1586 1546
1546 1586 1587 1547
1547 1587 1588 1548
1548 1588 1589 1549
1549 1589 1590 1550
1550 1590 1591 1551
1551 1591 1592 1552
1552 1592 1593 1553
1553 1593 1594 1554
1554 1594 1595 1555
1555 1595 1596 1556
1556 1596 1597 1557
1557 1597 116 115
39 40 1598 1558
1558 1598 1599 1559
1559 1599 1600 1560
1560 1600 1601 1561
1561 1601 1602 1562
1562 1602 1603 1563
1563 1603 1604 1564
1564 1604 1605 1565
1565 1605 1606 1566
1566 1606 1607 1567
1567 1607 1608 1568
1568 1608 1609 1569
1569 1609 1610 1570
1570 1610 1611 1571
1571 1611 1612 1572
1572 1612 1613 1573
1573 1613 1614 1574
1574 1614 1615 1575
1575 1615 1616 1576
1576 1616 1617 1577
1577 1617 1618 1578
1578 1618 1619 1579
1579 1619 1620 1580
1580 1620 1621 1581
1581 1621 1622 1582
1582 1622 1623 1583
1583 1623 1624 1584
1584 1624 1625 1585
1585 1625 1626 1586
1586 1626 1627 1587
1587 1627 1628 1588
1588 1628 1629 1589
1589 1629 1630 1590
1590 1630 1631 1591
1591 1631 1632 1592
1592 1632 1633 1593
1593 1633 1634 1594
1594 1634 1635 1595
1595 1635 1636 1596
1596 1636 1637 1597
1597 1637 117 116
40 41 1638 1598
1598 1638 1639 1599
1599 1639 1640 1600
1600 1640 1641 1601
1601 1641 1642 1602
1602 1642 1643 1603
1603 1643 1644 1604
1604 1644 1645 1605
1605 1645 1646 1606
1606 1646 1647 1607
1607 1647 1648 1608
1608 1648 1649 1609
1609 1649 1650 1610
1610 1650 1651 1611
1611 1651 1652 1612
1612 1652 1653 1613
1613 1653 1654 1614
1614 1654 1655 1615
1615 1655 1656 1616
1616 1656 1657 1617
1617 1657 1658 1618
1618 1658 1659 1619
1619 1659 1660 1620
1620 1660 1661 1621
1621 1661 1662 1622
1622 1662 1663 1623
1623 1663 1664 1624
1624 1664 1665 1625
1625 1665 1666 1626
1626 1666 1667 1627
1627 1667 1668 1628
1628 1668 1669 1629
1629 1669 1670 1630
1630 1670 1671 1631
1631 1671 1672 1632
1632 1672 1673 1633
1633 1673 1674 1634
1634 1674 1675 1635
1635 1675 1676 1636
1636 1676 1677 1637
1637 1677 118 117
41 42 1678 1638
1638 1678 1679 1639
1639 1679 1680 1640
1640 1680 1681 1641
1641 1681 1682 1642
1642 1682 1683 1643
1643 1683 1684 1644
1644 1684 1685 1645
1645 1685 1686 1646
1646 1686 1687 1647
1647 1687 1688 1648
1648 1688 1689 1649
1649 1689 1690 1650
1650 1690 1691 1651
1651 1691 1692 1652
1652 1692 1693 1653
1653 1693 1694 1654
1654 1694 1695 1655
1655 1695 1696 1656
1656 1696 1697 1657
1657 1697 1698 1658
1658 1698 1699 1659
1659 1699 1700 1660
1660 1700 1701 1661
1661 1701 1702 1662
1662 1702 1703 1663
1663 1703 1704 1664
1664 1704 1705 1665
1665 1705 1706 1666
1666 1706 1707 1667
1667 1707 1708 1668
1668 1708 1709 1669
1669 1709 1710 1670
1670 1710 1711 1671
1671 1711 1712 1672
1672 1712 1713 1673
1673 1713 1714 1674
1674 1714 1715 1675
1675 1715 1716 1676
1676 1716 1717 1677
1677 1717 119 118
42 43 1718 1678
1678 1718 1719 1679
1679 1719 1720 1680
1680 1720 1721 1681
1681 1721 1722 1682
1682 1722 1723 1683
1683 1723 1724 1684
1684 1724 1725 1685
1685 1725 1726 1686
1686 1726 1727 1687
1687 1727 1728 1688
1688 1728 1729 1689
1689 1729 1730 1690
1690 1730 1731 1691
1691 1731 1732 1692
1692 1732 1733 1693
1693 1733 1734 1694
1694 1734 1735 1695
1695 1735 1736 1696
1696 1736 1737 1697
1697 1737 1738 1698
1698 1738 1739 1699
1699 1739 1740 1700
1700 1740 1741 1701
1701 1741 1742 1702
1702 1742 1743 1703
1703 1743 1744 1704
1704 1744 1745 1705
1705 1745 1746 1706
1706 1746 1747 1707
1707 1747 1748 1708
1708 1748 1749 1709
1709 1749 1750 1710
1710 1750 1751 1711
1711 1751 1752 1712
1712 1752 1753 1713
1713 1753 1754 1714
1714 1754 1755 1715
1715 1755 1756 1716
1716 1756 1757 1717
1717 1757 120 119
43 44 1758 1718
1718 1758 1759 1719
1719 1759 1760 1720
1720 1760 1761 1721
1721 1761 1762 1722
1722 1762 1763 1723
1723 1763 1764 1724
1724 1764 1765 1725
1725 1765 1766 1726
1726 1766 1767 1727
1727 1767 1768 1728
1728 1768 1769 1729
1729 1769 1770 1730
1730 1770 1771 1731
1731 1771 1772 1732
1732 1772 1773 1733
1733 1773 1774 1734
1734 1774 1775 1735
1735 1775 1776 1736
1736 1776 1777 1737
1737 1777 1778 1738
1738 1778 1779 1739
1739 1779 1780 1740
1740 1780 1781 1741
1741 1781 1782 1742
1742 1782 1783 1743
1743 1783 1784 1744
1744 1784 1785 1745
1745 1785 1786 1746
1746 1786 1787 1747
1747 1787 1788 1748
1748 1788 1789 1749
1749 1789 1790 1750
1750 1790 1791 1751
1751 1791 1792 1752
1752 1792 1793 1753
1753 1793 1794 1754
1754 1794 1795 1755
1755 1795 1796 1756
1756 1796 1797 1757
1757 1797 121 120
44 45 1798 1758
1758 1798 1799 1759
1759 1799 1800 1760
1760 1800 1801 1761
1761 1801 1802 1762
1762 1802 1803 1763
1763 1803 1804 1764
1764 1804 1805 1765
1765 1805 1806 1766
1766 1806 1807 1767
1767 1807 1808 1768
1768 1808 1809 1769
1769 1809 1810 1770
1770 1810 1811 1771
1771 1811 1812 1772
1772 1812 1813 1773
1773 1813 1814 1774
1774 1814 1815 1775
1775 1815 1816 1776
1776 1816 1817 1777
1777 1817 1818 1778
1778 1818 1819 1779
1779 1819 1820 1780
1780 1820 1821 1781
1781 1821 1822 1782
1782 1822 1823 1783
1783 1823 1824 1784
1784 1824 1825 1785
1785 1825 1826 1786
1786 1826 1827 1787
1787 1827 1828 1788
1788 1828 1829 1789
1789 1829 1830 1790
1790 1830 1831 1791
1791 1831 1832 1792
1792 1832 1833 1793
1793 1833 1834 1794
1794 1834 1835 1795
1795 1835 1836 1796
1796 1836 1837 1797
1797 1837 122 121
45 46 1838 1798
1798 1838 1839 1799
1799 1839 1840 1800
1800 1840 1841 1801
1801 1841 1842 1802
1802 1842 1843 1803
1803 1843 1844 1804
1804 1844 1845 1805
1805 1845 1846 1806
1806 1846 1847 1807
1807 1847 1848 1808
1808 1848 1849 1809
1809 1849 1850 1810
1810 1850 1851 1811
1811 1851 1852 1812
1812 1852 1853 1813
1813 1853 1854 1814
1814 1854 1855 1815
1815 1855 1856 1816
1816 1856 1857 1817
1817 1857 1858 1818
1818 1858 1859 1819
1819 1859 1860 1820
1820 1860 1861 1821
1821 1861 1862 1822
1822 1862 1863 1823
1823 1863 1864 1824
1824 1864 1865 1825
1825 1865 1866 1826
1826 1866 1867 1827
1827 1867 1868 1828
1828 1868 1869 1829
1829 1869 1870 1830
1830 1870 1871 1831
1831 1871 1872 1832
1832 1872 1873 1833
1833 1873 1874 1834
1834 1874 1875 1835
1835 1875 1876 1836
1836 1876 1877 1837
1837 1877 123 122
46 47 1878 1838
1838 1878 1879 1839
1839 1879 1880 1840
1840 1880 1881 1841
1841 1881 1882 1842
1842 1882 1883 1843
1843 1883 1884 1844
1844 1884 1885 1845
1845 1885 1886 1846
1846 1886 1887 1847
1847 1887 1888 1848
1848 1888 1889 1849
1849 1889 1890 1850
1850 1890 1891 1851
1851 1891 1892 1852
1852 1892 1893 1853
1853 1893 1894 1854
1854 1894 1895 1855
1855 1895 1896 1856
1856 1896 1897 1857
1857 1897 1898 1858
1858 1898 1899 1859
1859 1899 1900 1860
1860 1900 1901 1861
1861 1901 1902 1862
1862 1902 1903 1863
1863 1903 1904 1864
1864 1904 1905 1865
1865 1905 1906 1866
1866 1906 1907 1867
1867 1907 1908 1868
1868 1908 1909 1869
1869 1909 1910 1870
1870 1910 1911 1871
1871 1911 1912 1872
1872 1912 1913 1873
1873 1913 1914 1874
1874 1914 1915 1875
1875 1915 1916 1876
1876 1916 1917 1877
1877 1917 124 123
47 48 1918 1878
1878 1918 1919 1879
1879 1919 1920 1880
1880 1920 1921 1881
1881 1921 1922 1882
1882 1922 1923 1883
1883 1923 1924 1884
1884 1924 1925 1885
1885 1925 1926 1886
1886 1926 1927 1887
1887 1927 1928 1888
1888 1928 1929 1889
1889 1929 1930 1890
1890 1930 1931 1891
1891 1931 1932 1892
1892 1932 1933 1893
1893 1933 1934 1894
1894 1934 1935 1895
1895 1935 1936 1896
1896 1936 1937 1897
1897 1937 1938 1898
1898 1938 1939 1899
1899 1939 1940 1900
1900 1940 1941 1901
1901 1941 1942 1902
1902 1942 1943 1903
1903 1943 1944 1904
1904 1944 1945 1905
1905 1945 1946 1906
1906 1946 1947 1907
1907 1947 1948 1908
1908 1948 1949 1909
1909 1949 1950 1910
1910 1950 1951 1911
1911 1951 1952 1912
1912 1952 1953 1913
1913 1953 1954 1914
1914 1954 1955 1915
1915 1955 1956 1916
1916 1956 1957 1917
1917 1957 125 124
48 49 1958 1918
1918 1958 1959 1919
1919 1959 1960 1920
1920 1960 1961 1921
1921 1961 1962 1922
1922 1962 1963 1923
1923 1963 1964 1924
1924 1964 1965 1925
1925 1965 1966 1926
1926 1966 1967 1927
1927 1967 1968 1928
1928 1968 1969 1929
1929 1969 1970 1930
1930 1970 1971 1931
1931 1971 1972 1932
1932 1972 1973 1933
1933 1973 1974 1934
1934 1974 1975 1935
1935 1975 1976 1936
1936 1976 1977 1937
1937 1977 1978 1938
1938 1978 1979 1939
1939 1979 1980 1940
1940 1980 1981 1941
1941 1981 1982 1942
1942 1982 1983 1943
1943 1983 1984 1944
1944 1984 1985 1945
1945 1985 1986 1946
1946 1986 1987 1947
1947 1987 1988 1948
1948 1988 1989 1949
1949 1989 1990 1950
1950 1990 1991 1951
1951 1991 1992 1952
1952 1992 1993 1953
1953 1993 1994 1954
1954 1994 1995 1955
1955 1995 1996 1956
1956 1996 1997 1957
1957 1997 126 125
49 1 1998 1958
1958 1998 1999 1959
1959 1999 2000 1960
1960 2000 2001 1961
1961 2001 2002 1962
1962 2002 2003 1963
1963 2003 2004 1964
1964 2004 2005 1965
1965 2005 2006 1966
1966 2006 2007 1967
1967 2007 2008 1968
1968 2008 2009 1969
1969 2009 2010 1970
1970 2010 2011 1971
1971 2011 2012 1972
1972 2012 2013 1973
1973 2013 2014 1974
1974 2014 2015 1975
1975 2015 2016 1976
1976 2016 2017 1977
1977 2017 2018 1978
1978 2018 2019 1979
1979 2019 2020 1980
1980 2020 2021 1981
1981 2021 2022 1982
1982 2022 2023 1983
1983 2023 2024 1984
1984 2024 2025 1985
1985 2025 2026 1986
1986 2026 2027 1987
1987 2027 2028 1988
1988 2028 2029 1989
1989 2029 2030 1990
1990 2030 2031 1991
1991 2031 2032 1992
1992 2032 2033 1993
1993 2033 2034 1994
1994 2034 2035 1995
1995 2035 2036 1996
1996 2036 2037 1997
1997 2037 127 126
1 50 2038 1998
1998 2038 2039 1999
1999 2039 2040 2000
2000 2040 2041 2001
2001 2041 2042 2002
2002 2042 2043 2003
2003 2043 2044 2004
2004 2044 2045 2005
2005 2045 2046 2006
2006 2046 2047 2007
2007 2047 2048 2008
2008 2048 2049 2009
2009 2049 2050 2010
2010 2050 2051 2011
2011 2051 2052 2012
2012 2052 2053 2013
2013 2053 2054 2014
2014 2054 2055 2015
2015 2055 2056 2016
2016 2056 2057 2017
2017 2057 2058 2018
2018 2058 2059 2019
2019 2059 2060 2020
2020 2060 2061 2021
2021 2061 2062 2022
2022 2062 2063 2023
2023 2063 2064 2024
2024 2064 2065 2025
2025 2065 2066 2026
2026 2066 2067 2027
2027 2067 2068 2028
2028 2068 2069 2029
2029 2069 2070 2030
2030 2070 2071 2031
2031 2071 2072 2032
2032 2072 2073 2033
2033 2073 2074 2034
2034 2074 2075 2035
2035 2075 2076 2036
2036 2076 2077 2037
2037 2077 128 127
50 51 2078 2038
2038 2078 2079 2039
2039 2079 2080 2040
2040 2080 2081 2041
2041 2081 2082 2042
2042 2082 2083 2043
2043 2083 2084 2044
2044 2084 2085 2045
2045 2085 2086 2046
2046 2086 2087 2047
2047 2087 2088 2048
2048 2088 2089 2049
2049 2089 2090 2050
2050 2090 2091 2051
2051 2091 2092 2052
2052 2092 2093 2053
2053 2093 2094 2054
2054 2094 2095 2055
2055 2095 2096 2056
2056 2096 2097 2057
2057 2097 2098 2058
2058 2098 2099 2059
2059 2099 2100 2060
2060 2100 2101 2061
2061 2101 2102 2062
2062 2102 2103 2063
2063 2103 2104 2064
2064 2104 2105 2065
2065 2105 2106 2066
2066 2106 2107 2067
2067 2107 2108 2068
2068 2108 2109 2069
2069 2109 2110 2070
2070 2110 2111 2071
2071 2111 2112 2072
2072 2112 2113 2073
2073 2113 2114 2074
2074 2114 2115 2075
2075 2115 2116 2076
2076 2116 2117 2077
2077 2117 129 128
51 52 2118 2078
2078 2118 2119 2079
2079 2119 2120 2080
2080 2120 2121 2081
2081 2121 2122 2082
2082 2122 2123 2083
2083 2123 2124 2084
2084 2124 2125 2085
2085 2125 2126 2086
2086 2126 2127 2087
2087 2127 2128 2088
2088 2128 2129 2089
2089 2129 2130 2090
2090 2130 2131 2091
2091 2131 2132 2092
2092 2132 2133 2093
2093 2133 2134 2094
2094 2134 2135 2095
2095 2135 2136 2096
2096 2136 2137 2097
2097 2137 2138 2098
2098 2138 2139 2099
2099 2139 2140 2100
2100 2140 2141 2101
2101 2141 2142 2102
2102 2142 2143 2103
2103 2143 2144 2104
2104 2144 2145 2105
2105 2145 2146 2106
2106 2146 2147 2107
2107 2147 2148 2108
2108 2148 2149 2109
2109 2149 2150 2110
2110 2150 2151 2111
2111 2151 2152 2112
2112 2152 2153 2113
2113 2153 2154 2114
2114 2154 2155 2115
2115 2155 2156 2116
2116 2156 2157 2117
2117 2157 130 129
52 53 2158 2118
2118 2158 2159 2119
2119 2159 2160 2120
2120 2160 2161 2121
2121 2161 2162 2122
2122 2162 2163 2123
2123 2163 2164 2124
2124 2164 2165 2125
2125 2165 2166 2126
2126 2166 2167 2127
2127 2167 2168 2128
2128 2168 2169 2129
2129 2169 2170 2130
2130 2170 2171 2131
2131 2171 2172 2132
2132 2172 2173 2133
2133 2173 2174 2134
2134 2174 2175 2135
2135 2175 2176 2136
2136 2176 2177 2137
2137 2177 2178 2138
2138 2178 2179 2139
2139 2179 2180 2140
2140 2180 2181 2141
2141 2181 2182 2142
2142 2182 2183 2143
2143 2183 2184 2144
2144 2184 2185 2145
2145 2185 2186 2146
2146 2186 2187 2147
2147 2187 2188 2148
2148 2188 2189 2149
2149 2189 2190 2150
2150 2190 2191 2151
2151 2191 2192 2152
2152 2192 2193 2153
2153 2193 2194 2154
2154 2194 2195 2155
2155 2195 2196 2156
2156 2196 2197 2157
2157 2197 131 130
53 54 2198 2158
2158 2198 2199 2159
2159 2199 2200 2160
2160 2200 2201 2161
2161 2201 2202 2162
2162 2202 2203 2163
2163 2203 2204 2164
2164 2204 2205 2165
2165 2205 2206 2166
2166 2206 2207 2167
2167 2207 2208 2168
2168 2208 2209 2169
2169 2209 2210 2170
2170 2210 2211 2171
2171 2211 2212 2172
2172 2212 2213 2173
2173 2213 2214 2174
2174 2214 2215 2175
2175 2215 2216 2176
2176 2216 2217 2177
2177 2217 2218 2178
2178 2218 2219 2179
2179 2219 2220 2180
2180 2220 2221 2181
2181 2221 2222 2182
2182 2222 2223 2183
2183 2223 2224 2184
2184 2224 2225 2185
2185 2225 2226 2186
2186 2226 2227 2187
2187 2227 2228 2188
2188 2228 2229 2189
2189 2229 2230 2190
2190 2230 2231 2191
2191 2231 2232 2192
2192 2232 2233 2193
2193 2233 2234 2194
2194 2234 2235 2195
2195 2235 2236 2196
2196 2236 2237 2197
2197 2237 132 131
54 55 2238 2198
2198 2238 2239 2199
2199 2239 2240 2200
2200 2240 2241 2201
2201 2241 2242 2202
2202 2242 2243 2203
2203 2243 2244 2204
2204 2244 2245 2205
2205 2245 2246 2206
2206 2246 2247 2207
2207 2247 2248 2208
2208 2248 2249 2209
2209 2249 2250 2210
2210 2250 2251 2211
2211 2251 2252 2212
2212 2252 2253 2213
2213 2253 2254 2214
2214 2254 2255 2215
2215 2255 2256 2216
2216 2256 2257 2217
2217 2257 2258 2218
2218 2258 2259 2219
2219 2259 2260 2220
2220 2260 2261 2221
2221 2261 2262 2222
2222 2262 2263 2223
2223 2263 2264 2224
2224 2264 2265 2225
2225 2265 2266 2226
2226 2266 2267 2227
2227 2267 2268 2228
2228 2268 2269 2229
2229 2269 2270 2230
2230 2270 2271 2231
2231 2271 2272 2232
2232 2272 2273 2233
2233 2273 2274 2234
2234 2274 2275 2235
2235 2275 2276 2236
2236 2276 2277 2237
2237 2277 133 132
55 56 2278 2238
2238 2278 2279 2239
2239 2279 2280 2240
2240 2280 2281 2241
2241 2281 2282 2242
2242 2282 2283 2243
2243 2283 2284 2244
2244 2284 2285 2245
2245 2285 2286 2246
2246 2286 2287 2247
2247 2287 2288 2248
2248 2288 2289 2249
2249 2289 2290 2250
2250 2290 2291 2251
2251 2291 2292 2252
2252 2292 2293 2253
2253 2293 2294 2254
2254 2294 2295 2255
2255 2295 2296 2256
2256 2296 2297 2257
2257 2297 2298 2258
2258 2298 2299 2259
2259 2299 2300 2260
2260 2300 2301 2261
2261 2301 2302 2262
2262 2302 2303 2263
2263 2303 2304 2264
2264 2304 2305 2265
2265 2305 2306 2266
2266 2306 2307 2267
2267 2307 2308 2268
2268 2308 2309 2269
2269 2309 2310 2270
2270 2310 2311 2271
2271 2311 2312 2272
2272 2312 2313 2273
2273 2313 2314 2274
2274 2314 2315 2275
2275 2315 2316 2276
2276 2316 2317 2277
2277 2317 134 133
56 57 2318 2278
2278 2318 2319 2279
2279 2319 2320 2280
2280 2320 2321 2281
2281 2321 2322 2282
2282 2322 2323 2283
2283 2323 2324 2284
2284 2324 2325 2285
2285 2325 2326 2286
2286 2326 2327 2287
2287 2327 2328 2288
2288 2328 2329 2289
2289 2329 2330 2290
2290 2330 2331 2291
2291 2331 2332 2292
2292 2332 2333 2293
2293 2333 2334 2294
2294 2334 2335 2295
2295 2335 2336 2296
2296 2336 2337 2297
2297 2337 2338 2298
2298 2338 2339 2299
2299 2339 2340 2300
2300 2340 2341 2301
2301 2341 2342 2302
2302 2342 2343 2303
2303 2343 2344 2304
2304 2344 2345 2305
2305 2345 2346 2306
2306 2346 2347 2307
2307 2347 2348 2308
2308 2348 2349 2309
2309 2349 2350 2310
2310 2350 2351 2311
2311 2351 2352 2312
2312 2352 2353 2313
2313 2353 2354 2314
2314 2354 2355 2315
2315 2355 2356 2316
2316 2356 2357 2317
2317 2357 135 134
57 58 2358 2318
2318 2358 2359 2319
2319 2359 2360 2320
2320 2360 2361 2321
2321 2361 2362 2322
2322 2362 2363 2323
2323 2363 2364 2324
2324 2364 2365 2325
2325 2365 2366 2326
2326 2366 2367 2327
2327 2367 2368 2328
2328 2368 2369 2329
2329 2369 2370 2330
2330 2370 2371 2331
2331 2371 2372 2332
2332 2372 2373 2333
2333 2373 2374 2334
2334 2374 2375 2335
2335 2375 2376 2336
2336 2376 2377 2337
2337 2377 2378 2338
2338 2378 2379 2339
2339 2379 2380 2340
2340 2380 2381 2341
2341 2381 2382 2342
2342 2382 2383 2343
2343 2383 2384 2344
2344 2384 2385 2345
2345 2385 2386 2346
2346 2386 2387 2347
2347 2387 2388 2348
2348 2388 2389 2349
2349 2389 2390 2350
2350 2390 2391 2351
2351 2391 2392 2352
2352 2392 2393 2353
2353 2393 2394 2354
2354 2394 2395 2355
2355 2395 2396 2356
2356 2396 2397 2357
2357 2397 136 135
58 59 2398 2358
2358 2398 2399 2359
2359 2399 2400 2360
2360 2400 2401 2361
2361 2401 2402 2362
2362 2402 2403 2363
2363 2403 2404 2364
2364 2404 2405 2365
2365 2405 2406 2366
2366 2406 2407 2367
2367 2407 2408 2368
2368 2408 2409 2369
2369 2409 2410 2370
2370 2410 2411 2371
2371 2411 2412 2372
2372 2412 2413 2373
2373 2413 2414 2374
2374 2414 2415 2375
2375 2415 2416 2376
2376 2416 2417 2377
2377 2417 2418 2378
2378 2418 2419 2379
2379 2419 2420 2380
2380 2420 2421 2381
2381 2421 2422 2382
2382 2422 2423 2383
2383 2423 2424 2384
2384 2424 2425 2385
2385 2425 2426 2386
2386 2426 2427 2387
2387 2427 2428 2388
2388 2428 2429 2389
2389 2429 2430 2390
2390 2430 2431 2391
2391 2431 2432 2392
2392 2432 2433 2393
2393 2433 2434 2394
2394 2434 2435 2395
2395 2435 2436 2396
2396 2436 2437 2397
2397 2437 137 136
59 60 2438 2398
2398 2438 2439 2399
2399 2439 2440 2400
2400 2440 2441 2401
2401 2441 2442 2402
2402 2442 2443 2403
2403 2443 2444 2404
2404 2444 2445 2405
2405 2445 2446 2406
2406 2446 2447 2407
2407 2447 2448 2408
2408 2448 2449 2409
2409 2449 2450 2410
2410 2450 2451 2411
2411 2451 2452 2412
2412 2452 2453 2413
2413 2453 2454 2414
2414 2454 2455 2415
2415 2455 2456 2416
2416 2456 2457 2417
2417 2457 2458 2418
2418 2458 2459 2419
2419 2459 2460 2420
2420 2460 2461 2421
2421 2461 2462 2422
2422 2462 2463 2423
2423 2463 2464 2424
2424 2464 2465 2425
2425 2465 2466 2426
2426 2466 2467 2427
2427 2467 2468 2428
2428 2468 2469 2429
2429 2469 2470 2430
2430 2470 2471 2431
2431 2471 2472 2432
2432 2472 2473 2433
2433 2473 2474 2434
2434 2474 2475 2435
2435 2475 2476 2436
2436 2476 2477 2437
2437 2477 138 137
60 61 2478 2438
2438 2478 2479 2439
2439 2479 2480 2440
2440 2480 2481 2441
2441 2481 2482 2442
2442 2482 2483 2443
2443 2483 2484 2444
2444 2484 2485 2445
2445 2485 2486 2446
2446 2486 2487 2447
2447 2487 2488 2448
2448 2488 2489 2449
2449 2489 2490 2450
2450 2490 2491 2451
2451 2491 2492 2452
2452 2492 2493 2453
2453 2493 2494 2454
2454 2494 2495 2455
2455 2495 2496 2456
2456 2496 2497 2457
2457 2497 2498 2458
2458 2498 2499 2459
2459 2499 2500 2460
2460 2500 2501 2461
2461 2501 2502 2462
2462 2502 2503 2463
2463 2503 2504 2464
2464 2504 2505 2465
2465 2505 2506 2466
2466 2506 2507 2467
2467 2507 2508 2468
2468 2508 2509 2469
2469 2509 2510 2470
2470 2510 2511 2471
2471 2511 2512 2472
2472 2512 2513 2473
2473 2513 2514 2474
2474 2514 2515 2475
2475 2515 2516 2476
2476 2516 2517 2477
2477 2517 139 138
61 62 2518 2478
2478 2518 2519 2479
2479 2519 2520 2480
2480 2520 2521 2481
2481 2521 2522 2482
2482 2522 2523 2483
2483 2523 2524 2484
2484 2524 2525 2485
2485 2525 2526 2486
2486 2526 2527 2487
2487 2527 2528 2488
2488 2528 2529 2489
2489 2529 2530 2490
2490 2530 2531 2491
2491 2531 2532 2492
2492 2532 2533 2493
2493 2533 2534 2494
2494 2534 2535 2495
2495 2535 2536 2496
2496 2536 2537 2497
2497 2537 2538 2498
2498 2538 2539 2499
2499 2539 2540 2500
2500 2540 2541 2501
2501 2541 2542 2502
2502 2542 2543 2503
2503 2543 2544 2504
2504 2544 2545 2505
2505 2545 2546 2506
2506 2546 2547 2507
2507 2547 2548 2508
2508 2548 2549 2509
2509 2549 2550 2510
2510 2550 2551 2511
2511 2551 2552 2512
2512 2552 2553 2513
2513 2553 2554 2514
2514 2554 2555 2515
2515 2555 2556 2516
2516 2556 2557 2517
2517 2557 140 139
62 63 2558 2518
2518 2558 2559 2519
2519 2559 2560 2520
2520 2560 2561 2521
2521 2561 2562 2522
2522 2562 2563 2523
2523 2563 2564 2524
2524 2564 2565 2525
2525 2565 2566 2526
2526 2566 2567 2527
2527 2567 2568 2528
2528 2568 2569 2529
2529 2569 2570 2530
2530 2570 2571 2531
2531 2571 2572 2532
2532 2572 2573 2533
2533 2573 2574 2534
2534 2574 2575 2535
2535 2575 2576 2536
2536 2576 2577 2537
2537 2577 2578 2538
2538 2578 2579 2539
2539 2579 2580 2540
2540 2580 2581 2541
2541 2581 2582 2542
2542 2582 2583 2543
2543 2583 2584 2544
2544 2584 2585 2545
2545 2585 2586 2546
2546 2586 2587 2547
2547 2587 2588 2548
2548 2588 2589 2549
2549 2589 2590 2550
2550 2590 2591 2551
2551 2591 2592 2552
2552 2592 2593 2553
2553 2593 2594 2554
2554 2594 2595 2555
2555 2595 2596 2556
2556 2596 2597 2557
2557 2597 141 140
63 64 2598 2558
2558 2598 2599 2559
2559 2599 2600 2560
2560 2600 2601 2561
2561 2601 2602 2562
2562 2602 2603 2563
2563 2603 2604 2564
2564 2604 2605 2565
2565 2605 2606 2566
2566 2606 2607 2567
2567 2607 2608 2568
2568 2608 2609 2569
2569 2609 2610 2570
2570 2610 2611 2571
2571 2611 2612 2572
2572 2612 2613 2573
2573 2613 2614 2574
2574 2614 2615 2575
2575 2615 2616 2576
2576 2616 2617 2577
2577 2617 2618 2578
2578 2618 2619 2579
2579 2619 2620 2580
2580 2620 2621 2581
2581 2621 2622 2582
2582 2622 2623 2583
2583 2623 2624 2584
2584 2624 2625 2585
2585 2625 2626 2586
2586 2626 2627 2587
2587 2627 2628 2588
2588 2628 2629 2589
2589 2629 2630 2590
2590 2630 2631 2591
2591 2631 2632 2592
2592 2632 2633 2593
2593 2633 2634 2594
2594 2634 2635 2595
2595 2635 2636 2596
2596 2636 2637 2597
2597 2637 142 141
64 65 2638 2598
2598 2638 2639 2599
2599 2639 2640 2600
2600 2640 2641 2601
2601 2641 2642 2602
2602 2642 2643 2603
2603 2643 2644 2604
2604 2644 2645 2605
2605 2645 2646 2606
2606 2646 2647 2607
2607 2647 2648 2608
2608 2648 2649 2609
2609 2649 2650 2610
2610 2650 2651 2611
2611 2651 2652 2612
2612 2652 2653 2613
2613 2653 2654 2614
2614 2654 2655 2615
2615 2655 2656 2616
2616 2656 2657 2617
2617 2657 2658 2618
2618 2658 2659 2619
2619 2659 2660 2620
2620 2660 2661 2621
2621 2661 2662 2622
2622 2662 2663 2623
2623 2663 2664 2624
2624 2664 2665 2625
2625 2665 2666 2626
2626 2666 2667 2627
2627 2667 2668 2628
2628 2668 2669 2629
2629 2669 2670 2630
2630 2670 2671 2631
2631 2671 2672 2632
2632 2672 2673 2633
2633 2673 2674 2634
2634 2674 2675 2635
2635 2675 2676 2636
2636 2676 2677 2637
2637 2677 143 142
65 66 2678 2638
2638 2678 2679 2639
2639 2679 2680 2640
2640 2680 2681 2641
2641 2681 2682 2642
2642 2682 2683 2643
2643 2683 2684 2644
2644 2684 2685 2645
2645 2685 2686 2646
2646 2686 2687 2647
2647 2687 2688 2648
2648 2688 2689 2649
2649 2689 2690 2650
2650 2690 2691 2651
2651 2691 2692 2652
2652 2692 2693 2653
2653 2693 2694 2654
2654 2694 2695 2655
2655 2695 2696 2656
2656 2696 2697 2657
2657 2697 2698 2658
2658 2698 2699 2659
2659 2699 2700 2660
2660 2700 2701 2661
2661 2701 2702 2662
2662 2702 2703 2663
2663 2703 2704 2664
2664 2704 2705 2665
2665 2705 2706 2666
2666 2706 2707 2667
2667 2707 2708 2668
2668 2708 2709 2669
2669 2709 2710 2670
2670 2710 2711 2671
2671 2711 2712 2672
2672 2712 2713 2673
2673 2713 2714 2674
2674 2714 2715 2675
2675 2715 2716 2676
2676 2716 2717 2677
2677 2717 144 143
66 67 2718 2678
2678 2718 2719 2679
2679 2719 2720 2680
2680 2720 2721 2681
2681 2721 2722 2682
2682 2722 2723 2683
2683 2723 2724 2684
2684 2724 2725 2685
2685 2725 2726 2686
2686 2726 2727 2687
2687 2727 2728 2688
2688 2728 2729 2689
2689 2729 2730 2690
2690 2730 2731 2691
2691 2731 2732 2692
2692 2732 2733 2693
2693 2733 2734 2694
2694 2734 2735 2695
2695 2735 2736 2696
2696 2736 2737 2697
2697 2737 2738 2698
2698 2738 2739 2699
2699 2739 2740 2700
2700 2740 2741 2701
2701 2741 2742 2702
2702 2742 2743 2703
2703 2743 2744 2704
2704 2744 2745 2705
2705 2745 2746 2706
2706 2746 2747 2707
2707 2747 2748 2708
2708 2748 2749 2709
2709 2749 2750 2710
2710 2750 2751 2711
2711 2751 2752 2712
2712 2752 2753 2713
2713 2753 2754 2714
2714 2754 2755 2715
2715 2755 2756 2716
2716 2756 2757 2717
2717 2757 145 144
67 68 2758 2718
2718 2758 2759 2719
2719 2759 2760 2720
2720 2760 2761 2721
2721 2761 2762 2722
2722 2762 2763 2723
2723 2763 2764 2724
2724 2764 2765 2725
2725 2765 2766 2726
2726 2766 2767 2727
2727 2767 2768 2728
2728 2768 2769 2729
2729 2769 2770 2730
2730 2770 2771 2731
2731 2771 2772 2732
2732 2772 2773 2733
2733 2773 2774 2734
2734 2774 2775 2735
2735 2775 2776 2736
2736 2776 2777 2737
2737 2777 2778 2738
2738 2778 2779 2739
2739 2779 2780 2740
2740 2780 2781 2741
2741 2781 2782 2742
2742 2782 2783 2743
2743 2783 2784 2744
2744 2784 2785 2745
2745 2785 2786 2746
2746 2786 2787 2747
2747 2787 2788 2748
2748 2788 2789 2749
2749 2789 2790 2750
2750 2790 2791 2751
2751 2791 2792 2752
2752 2792 2793 2753
2753 2793 2794 2754
2754 2794 2795 2755
2755 2795 2796 2756
2756 2796 2797 2757
2757 2797 146 145
68 69 2798 2758
2758 2798 2799 2759
2759 2799 2800 2760
2760 2800 2801 2761
2761 2801 2802 2762
2762 2802 2803 2763
2763 2803 2804 2764
2764 2804 2805 2765
2765 2805 2806 2766
2766 2806 2807 2767
2767 2807 2808 2768
2768 2808 2809 2769
2769 2809 2810 2770
2770 2810 2811 2771
2771 2811 2812 2772
2772 2812 2813 2773
2773 2813 2814 2774
2774 2814 2815 2775
2775 2815 2816 2776
2776 2816 2817 2777
2777 2817 2818 2778
2778 2818 2819 2779
2779 2819 2820 2780
2780 2820 2821 2781
2781 2821 2822 2782
2782 2822 2823 2783
2783 2823 2824 2784
2784 2824 2825 2785
2785 2825 2826 2786
2786 2826 2827 2787
2787 2827 2828 2788
2788 2828 2829 2789
2789 2829 2830 2790
2790 2830 2831 2791
2791 2831 2832 2792
2792 2832 2833 2793
2793 2833 2834 2794
2794 2834 2835 2795
2795 2835 2836 2796
2796 2836 2837 2797
2797 2837 5 146
69 70 2838 2798
2798 2838 2839 2799
2799 2839 2840 2800
2800 2840 2841 2801
2801 2841 2842 2802
2802 2842 2843 2803
2803 2843 2844 2804
2804 2844 2845 2805
2805 2845 2846 2806
2806 2846 2847 2807
2807 2847 2848 2808
2808 2848 2849 2809
2809 2849 2850 2810
2810 2850 2851 2811
2811 2851 2852 2812
2812 2852 2853 2813
2813 2853 2854 2814
2814 2854 2855 2815
2815 2855 2856 2816
2816 2856 2857 2817
2817 2857 2858 2818
2818 2858 2859 2819
2819 2859 2860 2820
2820 2860 2861 2821
2821 2861 2862 2822
2822 2862 2863 2823
2823 2863 2864 2824
2824 2864 2865 2825
2825 2865 2866 2826
2826 2866 2867 2827
2827 2867 2868 2828
2828 2868 2869 2829
2829 2869 2870 2830
2830 2870 2871 2831
2831 2871 2872 2832
2832 2872 2873 2833
2833 2873 2874 2834
2834 2874 2875 2835
2835 2875 2876 2836
2836 2876 2877 2837
2837 2877 147 5
70 71 2878 2838
2838 2878 2879 2839
2839 2879 2880 2840
2840 2880 2881 2841
2841 2881 2882 2842
2842 2882 2883 2843
2843 2883 2884 2844
2844 2884 2885 2845
2845 2885 2886 2846
2846 2886 2887 2847
2847 2887 2888 2848
2848 2888 2889 2849
2849 2889 2890 2850
2850 2890 2891 2851
2851 2891 2892 2852
2852 2892 2893 2853
2853 2893 2894 2854
2854 2894 2895 2855
2855 2895 2896 2856
2856 2896 2897 2857
2857 2897 2898 2858
2858 2898 2899 2859
2859 2899 2900 2860
2860 2900 2901 2861
2861 2901 2902 2862
2862 2902 2903 2863
2863 2903 2904 2864
2864 2904 2905 2865
2865 2905 2906 2866
2866 2906 2907 2867
2867 2907 2908 2868
2868 2908 2909 2869
2869 2909 2910 2870
2870 2910 2911 2871
2871 2911 2912 2872
2872 2912 2913 2873
2873 2913 2914 2874
2874 2914 2915 2875
2875 2915 2916 2876
2876 2916 2917 2877
2877 2917 148 147
71 72 2918 2878
2878 2918 2919 2879
2879 2919 2920 2880
2880 2920 2921 2881
2881 2921 2922 2882
2882 2922 2923 2883
2883 2923 2924 2884
2884 2924 2925 2885
2885 2925 2926 2886
2886 2926 2927 2887
2887 2927 2928 2888
2888 2928 2929 2889
2889 2929 2930 2890
2890 2930 2931 2891
2891 2931 2932 2892
2892 2932 2933 2893
2893 2933 2934 2894
2894 2934 2935 2895
2895 2935 2936 2896
2896 2936 2937 2897
2897 2937 2938 2898
2898 2938 2939 2899
2899 2939 2940 2900
2900 2940 2941 2901
2901 2941 2942 2902
2902 2942 2943 2903
2903 2943 2944 2904
2904 2944 2945 2905
2905 2945 2946 2906
2906 2946 2947 2907
2907 2947 2948 2908
2908 2948 2949 2909
2909 2949 2950 2910
2910 2950 2951 2911
2911 2951 2952 2912
2912 2952 2953 2913
2913 2953 2954 2914
2914 2954 2955 2915
2915 2955 2956 2916
2916 2956 2957 2917
2917 2957 149 148
72 73 2958 2918
2918 2958 2959 2919
2919 2959 2960 2920
2920 2960 2961 2921
2921 2961 2962 2922
2922 2962 2963 2923
2923 2963 2964 2924
2924 2964 2965 2925
2925 2965 2966 2926
2926 2966 2967 2927
2927 2967 2968 2928
2928 2968 2969 2929
2929 2969 2970 2930
2930 2970 2971 2931
2931 2971 2972 2932
2932 2972 2973 2933
2933 2973 2974 2934
2934 2974 2975 2935
2935 2975 2976 2936
2936 2976 2977 2937
2937 2977 2978 2938
2938 2978 2979 2939
2939 2979 2980 2940
2940 2980 2981 2941
2941 2981 2982 2942
2942 2982 2983 2943
2943 2983 2984 2944
2944 2984 2985 2945
2945 2985 2986 2946
2946 2986 2987 2947
2947 2987 2988 2948
2948 2988 2989 2949
2949 2989 2990 2950
2950 2990 2991 2951
2951 2991 2992 2952
2952 2992 2993 2953
2953 2993 2994 2954
2954 2994 2995 2955
2955 2995 2996 2956
2956 2996 2997 2957
2957 2997 150 149
73 74 2998 2958
2958 2998 2999 2959
2959 2999 3000 2960
2960 3000 3001 2961
2961 3001 3002 2962
2962 3002 3003 2963
2963 3003 3004 2964
2964 3004 3005 2965
2965 3005 3006 2966
2966 3006 3007 2967
2967 3007 3008 2968
2968 3008 3009 2969
2969 3009 3010 2970
2970 3010 3011 2971
2971 3011 3012 2972
2972 3012 3013 2973
2973 3013 3014 2974
2974 3014 3015 2975
2975 3015 3016 2976
2976 3016 3017 2977
2977 3017 3018 2978
2978 3018 3019 2979
2979 3019 3020 2980
2980 3020 3021 2981
2981 3021 3022 2982
2982 3022 3023 2983
2983 3023 3024 2984
2984 3024 3025 2985
2985 3025 3026 2986
2986 3026 3027 2987
2987 3027 3028 2988
2988 3028 3029 2989
2989 3029 3030 2990
2990 3030 3031 2991
2991 3031 3032 2992
2992 3032 3033 2993
2993 3033 3034 2994
2994 3034 3035 2995
2995 3035 3036 2996
2996 3036 3037 2997
2997 3037 151 150
74 75 3038 2998
2998 3038 3039 2999
2999 3039 3040 3000
3000 3040 3041 3001
3001 3041 3042 3002
3002 3042 3043 3003
3003 3043 3044 3004
3004 3044 3045 3005
3005 3045 3046 3006
3006 3046 3047 3007
3007 3047 3048 3008
3008 3048 3049 3009
3009 3049 3050 3010
3010 3050 3051 3011
3011 3051 3052 3012
3012 3052 3053 3013
3013 3053 3054 3014
3014 3054 3055 3015
3015 3055 3056 3016
3016 3056 3057 3017
3017 3057 3058 3018
3018 3058 3059 3019
3019 3059 3060 3020
3020 3060 3061 3021
3021 3061 3062 3022
3022 3062 3063 3023
3023 3063 3064 3024
3024 3064 3065 3025
3025 3065 3066 3026
3026 3066 3067 3027
3027 3067 3068 3028
3028 3068 3069 3029
3029 3069 3070 3030
3030 3070 3071 3031
3031 3071 3072 3032
3032 3072 3073 3033
3033 3073 3074 3034
3034 3074 3075 3035
3035 3075 3076 3036
3036 3076 3077 3037
3037 3077 152 151
75 76 3078 3038
3038 3078 3079 3039
3039 3079 3080 3040
3040 3080 3081 3041
3041 3081 3082 3042
3042 3082 3083 3043
3043 3083 3084 3044
3044 3084 3085 3045
3045 3085 3086 3046
3046 3086 3087 3047
3047 3087 3088 3048
3048 3088 3089 3049
3049 3089 3090 3050
3050 3090 3091 3051
3051 3091 3092 3052
3052 3092 3093 3053
3053 3093 3094 3054
3054 3094 3095 3055
3055 3095 3096 3056
3056 3096 3097 3057
3057 3097 3098 3058
3058 3098 3099 3059
3059 3099 3100 3060
3060 3100 3101 3061
3061 3101 3102 3062
3062 3102 3103 3063
3063 3103 3104 3064
3064 3104 3105 3065
3065 3105 3106 3066
3066 3106 3107 3067
3067 3107 3108 3068
3068 3108 3109 3069
3069 3109 3110 3070
3070 3110 3111 3071
3071 3111 3112 3072
3072 3112 3113 3073
3073 3113 3114 3074
3074 3114 3115 3075
3075 3115 3116 3076
3076 3116 3117 3077
3077 3117 153 152
76 77 3118 3078
3078 3118 3119 3079
3079 3119 3120 3080
3080 3120 3121 3081
3081 3121 3122 3082
3082 3122 3123 3083
3083 3123 3124 3084
3084 3124 3125 3085
3085 3125 3126 3086
3086 3126 3127 3087
3087 3127 3128 3088
3088 3128 3129 3089
3089 3129 3130 3090
3090 3130 3131 3091
3091 3131 3132 3092
3092 3132 3133 3093
3093 3133 3134 3094
3094 3134 3135 3095
3095 3135 3136 3096
3096 3136 3137 3097
3097 3137 3138 3098
3098 3138 3139 3099
3099 3139 3140 3100
3100 3140 3141 3101
3101 3141 3142 3102
3102 3142 3143 3103
3103 3143 3144 3104
3104 3144 3145 3105
3105 3145 3146 3106
3106 3146 3147 3107
3107 3147 3148 3108
3108 3148 3149 3109
3109 3149 3150 3110
3110 3150 3151 3111
3111 3151 3152 3112
3112 3152 3153 3113
3113 3153 3154 3114
3114 3154 3155 3115
3115 3155 3156 3116
3116 3156 3157 3117
3117 3157 154 153
77 78 3158 3118
3118 3158 3159 3119
3119 3159 3160 3120
3120 3160 3161 3121
3121 3161 3162 3122
3122 3162 3163 3123
3123 3163 3164 3124
3124 3164 3165 3125
3125 3165 3166 3126
3126 3166 3167 3127
3127 3167 3168 3128
3128 3168 3169 3129
3129 3169 3170 3130
3130 3170 3171 3131
3131 3171 3172 3132
3132 3172 3173 3133
3133 3173 3174 3134
3134 3174 3175 3135
3135 3175 3176 3136
3136 3176 3177 3137
3137 3177 3178 3138
3138 3178 3179 3139
3139 3179 3180 3140
3140 3180 3181 3141
3141 3181 3182 3142
3142 3182 3183 3143
3143 3183 3184 3144
3144 3184 3185 3145
3145 3185 3186 3146
3146 3186 3187 3147
3147 3187 3188 3148
3148 3188 3189 3149
3149 3189 3190 3150
3150 3190 3191 3151
3151 3191 3192 3152
3152 3192 3193 3153
3153 3193 3194 3154
3154 3194 3195 3155
3155 3195 3196 3156
3156 3196 3197 3157
3157 3197 155 154
78 79 3198 3158
3158 3198 3199 3159
3159 3199 3200 3160
3160 3200 3201 3161
3161 3201 3202 3162
3162 3202 3203 3163
3163 3203 3204 3164
3164 3204 3205 3165
3165 3205 3206 3166
3166 3206 3207 3167
3167 3207 3208 3168
3168 3208 3209 3169
3169 3209 3210 3170
3170 3210 3211 3171
3171 3211 3212 3172
3172 3212 3213 3173
3173 3213 3214 3174
3174 3214 3215 3175
3175 3215 3216 3176
3176 3216 3217 3177
3177 3217 3218 3178
3178 3218 3219 3179
3179 3219 3220 3180
3180 3220 3221 3181
3181 3221 3222 3182
3182 3222 3223 3183
3183 3223 3224 3184
3184 3224 3225 3185
3185 3225 3226 3186
3186 3226 3227 3187
3187 3227 3228 3188
3188 3228 3229 3189
3189 3229 3230 3190
3190 3230 3231 3191
3191 3231 3232 3192
3192 3232 3233 3193
3193 3233 3234 3194
3194 3234 3235 3195
3195 3235 3236 3196
3196 3236 3237 3197
3197 3237 156 155
79 80 3238 3198
3198 3238 3239 3199
3199 3239 3240 3200
3200 3240 3241 3201
3201 3241 3242 3202
3202 3242 3243 3203
3203 3243 3244 3204
3204 3244 3245 3205
3205 3245 3246 3206
3206 3246 3247 3207
3207 3247 3248 3208
3208 3248 3249 3209
3209 3249 3250 3210
3210 3250 3251 3211
3211 3251 3252 3212
3212 3252 3253 3213
3213 3253 3254 3214
3214 3254 3255 3215
3215 3255 3256 3216
3216 3256 3257 3217
3217 3257 3258 3218
3218 3258 3259 3219
3219 3259 3260 3220
3220 3260 3261 3221
3221 3261 3262 3222
3222 3262 3263 3223
3223 3263 3264 3224
3224 3264 3265 3225
3225 3265 3266 3226
3226 3266 3267 3227
3227 3267 3268 3228
3228 3268 3269 3229
3229 3269 3270 3230
3230 3270 3271 3231
3231 3271 3272 3232
3232 3272 3273 3233
3233 3273 3274 3234
3234 3274 3275 3235
3235 3275 3276 3236
3236 3276 3277 3237
3237 3277 157 156
80 81 3278 3238
3238 3278 3279 3239
3239 3279 3280 3240
3240 3280 3281 3241
3241 3281 3282 3242
3242 3282 3283 3243
3243 3283 3284 3244
3244 3284 3285 3245
3245 3285 3286 3246
3246 3286 3287 3247
3247 3287 3288 3248
3248 3288 3289 3249
3249 3289 3290 3250
3250 3290 3291 3251
3251 3291 3292 3252
3252 3292 3293 3253
3253 3293 3294 3254
3254 3294 3295 3255
3255 3295 3296 3256
3256 3296 3297 3257
3257 3297 3298 3258
3258 3298 3299 3259
3259 3299 3300 3260
3260 3300 3301 3261
3261 3301 3302 3262
3262 3302 3303 3263
3263 3303 3304 3264
3264 3304 3305 3265
3265 3305 3306 3266
3266 3306 3307 3267
3267 3307 3308 3268
3268 3308 3309 3269
3269 3309 3310 3270
3270 3310 3311 3271
3271 3311 3312 3272
3272 3312 3313 3273
3273 3313 3314 3274
3274 3314 3315 3275
3275 3315 3316 3276
3276 3316 3317 3277
3277 3317 158 157
81 82 3318 3278
3278 3318 3319 3279
3279 3319 3320 3280
3280 3320 3321 3281
3281 3321 3322 3282
3282 3322 3323 3283
3283 3323 3324 3284
3284 3324 3325 3285
3285 3325 3326 3286
3286 3326 3327 3287
3287 3327 3328 3288
3288 3328 3329 3289
3289 3329 3330 3290
3290 3330 3331 3291
3291 3331 3332 3292
3292 3332 3333 3293
3293 3333 3334 3294
3294 3334 3335 3295
3295 3335 3336 3296
3296 3336 3337 3297
3297 3337 3338 3298
3298 3338 3339 3299
3299 3339 3340 3300
3300 3340 3341 3301
3301 3341 3342 3302
3302 3342 3343 3303
3303 3343 3344 3304
3304 3344 3345 3305
3305 3345 3346 3306
3306 3346 3347 3307
3307 3347 3348 3308
3308 3348 3349 3309
3309 3349 3350 3310
3310 3350 3351 3311
3311 3351 3352 3312
3312 3352 3353 3313
3313 3353 3354 3314
3314 3354 3355 3315
3315 3355 3356 3316
3316 3356 3357 3317
3317 3357 159 158
82 83 3358 3318
3318 3358 3359 3319
3319 3359 3360 3320
3320 3360 3361 3321
3321 3361 3362 3322
3322 3362 3363 3323
3323 3363 3364 3324
3324 3364 3365 3325
3325 3365 3366 3326
3326 3366 3367 3327
3327 3367 3368 3328
3328 3368 3369 3329
3329 3369 3370 3330
3330 3370 3371 3331
3331 3371 3372 3332
3332 3372 3373 3333
3333 3373 3374 3334
3334 3374 3375 3335
3335 3375 3376 3336
3336 3376 3377 3337
3337 3377 3378 3338
3338 3378 3379 3339
3339 3379 3380 3340
3340 3380 3381 3341
3341 3381 3382 3342
3342 3382 3383 3343
3343 3383 3384 3344
3344 3384 3385 3345
3345 3385 3386 3346
3346 3386 3387 3347
3347 3387 3388 3348
3348 3388 3389 3349
3349 3389 3390 3350
3350 3390 3391 3351
3351 3391 3392 3352
3352 3392 3393 3353
3353 3393 3394 3354
3354 3394 3395 3355
3355 3395 3396 3356
3356 3396 3397 3357
3357 3397 160 159
83 84 3398 3358
3358 3398 3399 3359
3359 3399 3400 3360
3360 3400 3401 3361
3361 3401 3402 3362
3362 3402 3403 3363
3363 3403 3404 3364
3364 3404 3405 3365
3365 3405 3406 3366
3366 3406 3407 3367
3367 3407 3408 3368
3368 3408 3409 3369
3369 3409 3410 3370
3370 3410 3411 3371
3371 3411 3412 3372
3372 3412 3413 3373
3373 3413 3414 3374
3374 3414 3415 3375
3375 3415 3416 3376
3376 3416 3417 3377
3377 3417 3418 3378
3378 3418 3419 3379
3379 3419 3420 3380
3380 3420 3421 3381
3381 3421 3422 3382
3382 3422 3423 3383
3383 3423 3424 3384
3384 3424 3425 3385
3385 3425 3426 3386
3386 3426 3427 3387
3387 3427 3428 3388
3388 3428 3429 3389
3389 3429 3430 3390
3390 3430 3431 3391
3391 3431 3432 3392
3392 3432 3433 3393
3393 3433 3434 3394
3394 3434 3435 3395
3395 3435 3436 3396
3396 3436 3437 3397
3397 3437 161 160
84 85 3438 3398
3398 3438 3439 3399
3399 3439 3440 3400
3400 3440 3441 3401
3401 3441 3442 3402
3402 3442 3443 3403
3403 3443 3444 3404
3404 3444 3445 3405
3405 3445 3446 3406
3406 3446 3447 3407
3407 3447 3448 3408
3408 3448 3449 3409
3409 3449 3450 3410
3410 3450 3451 3411
3411 3451 3452 3412
3412 3452 3453 3413
3413 3453 3454 3414
3414 3454 3455 3415
3415 3455 3456 3416
3416 3456 3457 3417
3417 3457 3458 3418
3418 3458 3459 3419
3419 3459 3460 3420
3420 3460 3461 3421
3421 3461 3462 3422
3422 3462 3463 3423
3423 3463 3464 3424
3424 3464 3465 3425
3425 3465 3466 3426
3426 3466 3467 3427
3427 3467 3468 3428
3428 3468 3469 3429
3429 3469 3470 3430
3430 3470 3471 3431
3431 3471 3472 3432
3432 3472 3473 3433
3433 3473 3474 3434
3434 3474 3475 3435
3435 3475 3476 3436
3436 3476 3477 3437
3437 3477 162 161
85 86 3478 3438
3438 3478 3479 3439
3439 3479 3480 3440
3440 3480 3481 3441
3441 3481 3482 3442
3442 3482 3483 3443
3443 3483 3484 3444
3444 3484 3485 3445
3445 3485 3486 3446
3446 3486 3487 3447
3447 3487 3488 3448
3448 3488 3489 3449
3449 3489 3490 3450
3450 3490 3491 3451
3451 3491 3492 3452
3452 3492 3493 3453
3453 3493 3494 3454
3454 3494 3495 3455
3455 3495 3496 3456
3456 3496 3497 3457
3457 3497 3498 3458
3458 3498 3499 3459
3459 3499 3500 3460
3460 3500 3501 3461
3461 3501 3502 3462
3462 3502 3503 3463
3463 3503 3504 3464
3464 3504 3505 3465
3465 3505 3506 3466
3466 3506 3507 3467
3467 3507 3508 3468
3468 3508 3509 3469
3469 3509 3510 3470
3470 3510 3511 3471
3471 3511 3512 3472
3472 3512 3513 3473
3473 3513 3514 3474
3474 3514 3515 3475
3475 3515 3516 3476
3476 3516 3517 3477
3477 3517 163 162
86 87 3518 3478
3478 3518 3519 3479
3479 3519 3520 3480
3480 3520 3521 3481
3481 3521 3522 3482
3482 3522 3523 3483
3483 3523 3524 3484
3484 3524 3525 3485
3485 3525 3526 3486
3486 3526 3527 3487
3487 3527 3528 3488
3488 3528 3529 3489
3489 3529 3530 3490
3490 3530 3531 3491
3491 3531 3532 3492
3492 3532 3533 3493
3493 3533 3534 3494
3494 3534 3535 3495
3495 3535 3536 3496
3496 3536 3537 3497
3497 3537 3538 3498
3498 3538 3539 3499
3499 3539 3540 3500
3500 3540 3541 3501
3501 3541 3542 3502
3502 3542 3543 3503
3503 3543 3544 3504
3504 3544 3545 3505
3505 3545 3546 3506
3506 3546 3547 3507
3507 3547 3548 3508
3508 3548 3549 3509
3509 3549 3550 3510
3510 3550 3551 3511
3511 3551 3552 3512
3512 3552 3553 3513
3513 3553 3554 3514
3514 3554 3555 3515
3515 3555 3556 3516
3516 3556 3557 3517
3517 3557 164 163
87 88 3558 3518
3518 3558 3559 3519
3519 3559 3560 3520
3520 3560 3561 3521
3521 3561 3562 3522
3522 3562 3563 3523
3523 3563 3564 3524
3524 3564 3565 3525
3525 3565 3566 3526
3526 3566 3567 3527
3527 3567 3568 3528
3528 3568 3569 3529
3529 3569 3570 3530
3530 3570 3571 3531
3531 3571 3572 3532
3532 3572 3573 3533
3533 3573 3574 3534
3534 3574 3575 3535
3535 3575 3576 3536
3536 3576 3577 3537
3537 3577 3578 3538
3538 3578 3579 3539
3539 3579 3580 3540
3540 3580 3581 3541
3541 3581 3582 3542
3542 3582 3583 3543
3543 3583 3584 3544
3544 3584 3585 3545
3545 3585 3586 3546
3546 3586 3587 3547
3547 3587 3588 3548
3548 3588 3589 3549
3549 3589 3590 3550
3550 3590 3591 3551
3551 3591 3592 3552
3552 3592 3593 3553
3553 3593 3594 3554
3554 3594 3595 3555
3555 3595 3596 3556
3556 3596 3597 3557
3557 3597 165 164
88 2 322 3558
3558 322 321 3559
3559 321 320 3560
3560 320 319 3561
3561 319 318 3562
3562 318 317 3563
3563 317 316 3564
3564 316 315 3565
3565 315 314 3566
3566 314 313 3567
3567 313 312 3568
3568 312 311 3569
3569 311 310 3570
3570 310 309 3571
3571 309 308 3572
3572 308 307 3573
3573 307 306 3574
3574 306 305 3575
3575 305 304 3576
3576 304 303 3577
3577 303 302 3578
3578 302 301 3579
3579 301 300 3580
3580 300 299 3581
3581 299 298 3582
3582 298 297 3583
3583 297 296 3584
3584 296 295 3585
3585 295 294 3586
3586 294 293 3587
3587 293 292 3588
3588 292 291 3589
3589 291 290 3590
3590 290 289 3591
3591 289 288 3592
3592 288 287 3593
3593 287 286 3594
3594 286 285 3595
3595 285 284 3596
3596 284 283 3597
3597 283 6 165
4 108 3598 380
380 3598 3599 379
379 3599 3600 378
378 3600 3601 377
377 3601 3602 376
376 3602 3603 375
375 3603 3604 374
374 3604 3605 373
373 3605 3606 372
372 3606 3607 371
371 3607 3608 370
370 3608 3609 369
369 3609 3610 368
368 3610 3611 367
367 3611 3612 366
366 3612 3613 365
365 3613 3614 364
364 3614 3615 363
363 3615 3616 362
362 3616 323 9
108 109 3617 3598
3598 3617 3618 3599
3599 3618 3619 3600
3600 3619 3620 3601
3601 3620 3621 3602
3602 3621 3622 3603
3603 3622 3623 3604
3604 3623 3624 3605
3605 3624 3625 3606
3606 3625 3626 3607
3607 3626 3627 3608
3608 3627 3628 3609
3609 3628 3629 3610
3610 3629 3630 3611
3611 3630 3631 3612
3612 3631 3632 3613
3613 3632 3633 3614
3614 3633 3634 3615
3615 3634 3635 3616
3616 3635 324 323
109 110 3636 3617
3617 3636 3637 3618
3618 3637 3638 3619
3619 3638 3639 3620
3620 3639 3640 3621
3621 3640 3641 3622
3622 3641 3642 3623
3623 3642 3643 3624
3624 3643 3644 3625
3625 3644 3645 3626
3626 3645 3646 3627
3627 3646 3647 3628
3628 3647 3648 3629
3629 3648 3649 3630
3630 3649 3650 3631
3631 3650 3651 3632
3632 3651 3652 3633
3633 3652 3653 3634
3634 3653 3654 3635
3635 3654 325 324
110 111 3655 3636
3636 3655 3656 3637
3637 3656 3657 3638
3638 3657 3658 3639
3639 3658 3659 3640
3640 3659 3660 3641
3641 3660 3661 3642
3642 3661 3662 3643
3643 3662 3663 3644
3644 3663 3664 3645
3645 3664 3665 3646
3646 3665 3666 3647
3647 3666 3667 3648
3648 3667 3668 3649
3649 3668 3669 3650
3650 3669 3670 3651
3651 3670 3671 3652
3652 3671 3672 3653
3653 3672 3673 3654
3654 3673 326 325
111 112 3674 3655
3655 3674 3675 3656
3656 3675 3676 3657
3657 3676 3677 3658
3658 3677 3678 3659
3659 3678 3679 3660
3660 3679 3680 3661
3661 3680 3681 3662
3662 3681 3682 3663
3663 3682 3683 3664
3664 3683 3684 3665
3665 3684 3685 3666
3666 3685 3686 3667
3667 3686 3687 3668
3668 3687 3688 3669
3669 3688 3689 3670
3670 3689 3690 3671
3671 3690 3691 3672
3672 3691 3692 3673
3673 3692 327 326
112 113 3693 3674
3674 3693 3694 3675
3675 3694 3695 3676
3676 3695 3696 3677
3677 3696 3697 3678
3678 3697 3698 3679
3679 3698 3699 3680
3680 3699 3700 3681
3681 3700 3701 3682
3682 3701 3702 3683
3683 3702 3703 3684
3684 3703 3704 3685
3685 3704 3705 3686
3686 3705 3706 3687
3687 3706 3707 3688
3688 3707 3708 3689
3689 3708 3709 3690
3690 3709 3710 3691
3691 3710 3711 3692
3692 3711 328 327
113 114 3712 3693
3693 3712 3713 3694
3694 3713 3714 3695
3695 3714 3715 3696
3696 3715 3716 3697
3697 3716 3717 3698
3698 3717 3718 3699
3699 3718 3719 3700
3700 3719 3720 3701
3701 3720 3721 3702
3702 3721 3722 3703
3703 3722 3723 3704
3704 3723 3724 3705
3705 3724 3725 3706
3706 3725 3726 3707
3707 3726 3727 3708
3708 3727 3728 3709
3709 3728 3729 3710
3710 3729 3730 3711
3711 3730 329 328
114 115 3731 3712
3712 3731 3732 3713
3713 3732 3733 3714
3714 3733 3734 3715
3715 3734 3735 3716
3716 3735 3736 3717
3717 3736 3737 3718
3718 3737 3738 3719
3719 3738 3739 3720
3720 3739 3740 3721
3721 3740 3741 3722
3722 3741 3742 3723
3723 3742 3743 3724
3724 3743 3744 3725
3725 3744 3745 3726
3726 3745 3746 3727
3727 3746 3747 3728
3728 3747 3748 3729
3729 3748 3749 3730
3730 3749 330 329
115 116 3750 3731
3731 3750 3751 3732
3732 3751 3752 3733
3733 3752 3753 3734
3734 3753 3754 3735
3735 3754 3755 3736
3736 3755 3756 3737
3737 3756 3757 3738
3738 3757 3758 3739
3739 3758 3759 3740
3740 3759 3760 3741
3741 3760 3761 3742
3742 3761 3762 3743
3743 3762 3763 3744
3744 3763 3764 3745
3745 3764 3765 3746
3746 3765 3766 3747
3747 3766 3767 3748
3748 3767 3768 3749
3749 3768 331 330
116 117 3769 3750
3750 3769 3770 3751
3751 3770 3771 3752
3752 3771 3772 3753
3753 3772 3773 3754
3754 3773 3774 3755
3755 3774 3775 3756
3756 3775 3776 3757
3757 3776 3777 3758
3758 3777 3778 3759
3759 3778 3779 3760
3760 3779 3780 3761
3761 3780 3781 3762
3762 3781 3782 3763
3763 3782 3783 3764
3764 3783 3784 3765
3765 3784 3785 3766
3766 3785 3786 3767
3767 3786 3787 3768
3768 3787 332 331
117 118 3788 3769
3769 3788 3789 3770
3770 3789 3790 3771
3771 3790 3791 3772
3772 3791 3792 3773
3773 3792 3793 3774
3774 3793 3794 3775
3775 3794 3795 3776
3776 3795 3796 3777
3777 3796 3797 3778
3778 3797 3798 3779
3779 3798 3799 3780
3780 3799 3800 3781
3781 3800 3801 3782
3782 3801 3802 3783
3783 3802 3803 3784
3784 3803 3804 3785
3785 3804 3805 3786
3786 3805 3806 3787
3787 3806 333 332
118 119 3807 3788
3788 3807 3808 3789
3789 3808 3809 3790
3790 3809 3810 3791
3791 3810 3811 3792
3792 3811 3812 3793
3793 3812 3813 3794
3794 3813 3814 3795
3795 3814 3815 3796
3796 3815 3816 3797
3797 3816 3817 3798
3798 3817 3818 3799
3799 3818 3819 3800
3800 3819 3820 3801
3801 3820 3821 3802
3802 3821 3822 3803
3803 3822 3823 3804
3804 3823 3824 3805
3805 3824 3825 3806
3806 3825 334 333
119 120 3826 3807
3807 3826 3827 3808
3808 3827 3828 3809
3809 3828 3829 3810
3810 3829 3830 3811
3811 3830 3831 3812
3812 3831 3832 3813
3813 3832 3833 3814
3814 3833 3834 3815
3815 3834 3835 3816
3816 3835 3836 3817
3817 3836 3837 3818
3818 3837 3838 3819
3819 3838 3839 3820
3820 3839 3840 3821
3821 3840 3841 3822
3822 3841 3842 3823
3823 3842 3843 3824
3824 3843 3844 3825
3825 3844 335 334
120 121 3845 3826
3826 3845 3846 3827
3827 3846 3847 3828
3828 3847 3848 3829
3829 3848 3849 3830
3830 3849 3850 3831
3831 3850 3851 3832
3832 3851 3852 3833
3833 3852 3853 3834
3834 3853 3854 3835
3835 3854 3855 3836
3836 3855 3856 3837
3837 3856 3857 3838
3838 3857 3858 3839
3839 3858 3859 3840
3840 3859 3860 3841
3841 3860 3861 3842
3842 3861 3862 3843
3843 3862 3863 3844
3844 3863 336 335
121 122 3864 3845
3845 3864 3865 3846
3846 3865 3866 3847
3847 3866 3867 3848
3848 3867 3868 3849
3849 3868 3869 3850
3850 3869 3870 3851
3851 3870 3871 3852
3852 3871 3872 3853
3853 3872 3873 3854
3854 3873 3874 3855
3855 3874 3875 3856
3856 3875 3876 3857
3857 3876 3877 3858
3858 3877 3878 3859
3859 3878 3879 3860
3860 3879 3880 3861
3861 3880 3881 3862
3862 3881 3882 3863
3863 3882 337 336
122 123 3883 3864
3864 3883 3884 3865
3865 3884 3885 3866
3866 3885 3886 3867
3867 3886 3887 3868
3868 3887 3888 3869
3869 3888 3889 3870
3870 3889 3890 3871
3871 3890 3891 3872
3872 3891 3892 3873
3873 3892 3893 3874
3874 3893 3894 3875
3875 3894 3895 3876
3876 3895 3896 3877
3877 3896 3897 3878
3878 3897 3898 3879
3879 3898 3899 3880
3880 3899 3900 3881
3881 3900 3901 3882
3882 3901 338 337
123 124 3902 3883
3883 3902 3903 3884
3884 3903 3904 3885
3885 3904 3905 3886
3886 3905 3906 3887
3887 3906 3907 3888
3888 3907 3908 3889
3889 3908 3909 3890
3890 3909 3910 3891
3891 3910 3911 3892
3892 3911 3912 3893
3893 3912 3913 3894
3894 3913 3914 3895
3895 3914 3915 3896
3896 3915 3916 3897
3897 3916 3917 3898
3898 3917 3918 3899
3899 3918 3919 3900
3900 3919 3920 3901
3901 3920 339 338
124 125 3921 3902
3902 3921 3922 3903
3903 3922 3923 3904
3904 3923 3924 3905
3905 3924 3925 3906
3906 3925 3926 3907
3907 3926 3927 3908
3908 3927 3928 3909
3909 3928 3929 3910
3910 3929 3930 3911
3911 3930 3931 3912
3912 3931 3932 3913
3913 3932 3933 3914
3914 3933 3934 3915
3915 3934 3935 3916
3916 3935 3936 3917
3917 3936 3937 3918
3918 3937 3938 3919
3919 3938 3939 3920
3920 3939 340 339
125 126 3940 3921
3921 3940 3941 3922
3922 3941 3942 3923
3923 3942 3943 3924
3924 3943 3944 3925
3925 3944 3945 3926
3926 3945 3946 3927
3927 3946 3947 3928
3928 3947 3948 3929
3929 3948 3949 3930
3930 3949 3950 3931
3931 3950 3951 3932
3932 3951 3952 3933
3933 3952 3953 3934
3934 3953 3954 3935
3935 3954 3955 3936
3936 3955 3956 3937
3937 3956 3957 3938
3938 3957 3958 3939
3939 3958 341 340
126 127 3959 3940
3940 3959 3960 3941
3941 3960 3961 3942
3942 3961 3962 3943
3943 3962 3963 3944
3944 3963 3964 3945
3945 3964 3965 3946
3946 3965 3966 3947
3947 3966 3967 3948
3948 3967 3968 3949
3949 3968 3969 3950
3950 3969 3970 3951
3951 3970 3971 3952
3952 3971 3972 3953
3953 3972 3973 3954
3954 3973 3974 3955
3955 3974 3975 3956
3956 3975 3976 3957
3957 3976 3977 3958
3958 3977 342 341
127 128 3978 3959
3959 3978 3979 3960
3960 3979 3980 3961
3961 3980 3981 3962
3962 3981 3982 3963
3963 3982 3983 3964
3964 3983 3984 3965
3965 3984 3985 3966
3966 3985 3986 3967
3967 3986 3987 3968
3968 3987 3988 3969
3969 3988 3989 3970
3970 3989 3990 3971
3971 3990 3991 3972
3972 3991 3992 3973
3973 3992 3993 3974
3974 3993 3994 3975
3975 3994 3995 3976
3976 3995 3996 3977
3977 3996 343 342
128 129 3997 3978
3978 3997 3998 3979
3979 3998 3999 3980
3980 3999 4000 3981
3981 4000 4001 3982
3982 4001 4002 3983
3983 4002 4003 3984
3984 4003 4004 3985
3985 4004 4005 3986
3986 4005 4006 3987
3987 4006 4007 3988
3988 4007 4008 3989
3989 4008 4009 3990
3990 4009 4010 3991
3991 4010 4011 3992
3992 4011 4012 3993
3993 4012 4013 3994
3994 4013 4014 3995
3995 4014 4015 3996
3996 4015 344 343
129 130 4016 3997
3997 4016 4017 3998
3998 4017 4018 3999
3999 4018 4019 4000
4000 4019 4020 4001
4001 4020 4021 4002
4002 4021 4022 4003
4003 4022 4023 4004
4004 4023 4024 4005
4005 4024 4025 4006
4006 4025 4026 4007
4007 4026 4027 4008
4008 4027 4028 4009
4009 4028 4029 4010
4010 4029 4030 4011
4011 4030 4031 4012
4012 4031 4032 4013
4013 4032 4033 4014
4014 4033 4034 4015
4015 4034 345 344
130 131 4035 4016
4016 4035 4036 4017
4017 4036 4037 4018
4018 4037 4038 4019
4019 4038 4039 4020
4020 4039 4040 4021
4021 4040 4041 4022
4022 4041 4042 4023
4023 4042 4043 4024
4024 4043 4044 4025
4025 4044 4045 4026
4026 4045 4046 4027
4027 4046 4047 4028
4028 4047 4048 4029
4029 4048 4049 4030
4030 4049 4050 4031
4031 4050 4051 4032
4032 4051 4052 4033
4033 4052 4053 4034
4034 4053 346 345
131 132 4054 4035
4035 4054 4055 4036
4036 4055 4056 4037
4037 4056 4057 4038
4038 4057 4058 4039
4039 4058 4059 4040
4040 4059 4060 4041
4041 4060 4061 4042
4042 4061 4062 4043
4043 4062 4063 4044
4044 4063 4064 4045
4045 4064 4065 4046
4046 4065 4066 4047
4047 4066 4067 4048
4048 4067 4068 4049
4049 4068 4069 4050
4050 4069 4070 4051
4051 4070 4071 4052
4052 4071 4072 4053
4053 4072 347 346
132 133 4073 4054
4054 4073 4074 4055
4055 4074 4075 4056
4056 4075 4076 4057
4057 4076 4077 4058
4058 4077 4078 4059
4059 4078 4079 4060
4060 4079 4080 4061
4061 4080 4081 4062
4062 4081 4082 4063
4063 4082 4083 4064
4064 4083 4084 4065
4065 4084 4085 4066
4066 4085 4086 4067
4067 4086 4087 4068
4068 4087 4088 4069
4069 4088 4089 4070
4070 4089 4090 4071
4071 4090 4091 4072
4072 4091 348 347
133 134 4092 4073
4073 4092 4093 4074
4074 4093 4094 4075
4075 4094 4095 4076
4076 4095 4096 4077
4077 4096 4097 4078
4078 4097 4098 4079
4079 4098 4099 4080
4080 4099 4100 4081
4081 4100 4101 4082
4082 4101 4102 4083
4083 4102 4103 4084
4084 4103 4104 4085
4085 4104 4105 4086
4086 4105 4106 4087
4087 4106 4107 4088
4088 4107 4108 4089
4089 4108 4109 4090
4090 4109 4110 4091
4091 4110 349 348
134 135 4111 4092
4092 4111 4112 4093
4093 4112 4113 4094
4094 4113 4114 4095
4095 4114 4115 4096
4096 4115 4116 4097
4097 4116 4117 4098
4098 4117 4118 4099
4099 4118 4119 4100
4100 4119 4120 4101
4101 4120 4121 4102
4102 4121 4122 4103
4103 4122 4123 4104
4104 4123 4124 4105
4105 4124 4125 4106
4106 4125 4126 4107
4107 4126 4127 4108
4108 4127 4128 4109
4109 4128 4129 4110
4110 4129 350 349
135 136 4130 4111
4111 4130 4131 4112
4112 4131 4132 4113
4113 4132 4133 4114
4114 4133 4134 4115
4115 4134 4135 4116
4116 4135 4136 4117
4117 4136 4137 4118
4118 4137 4138 4119
4119 4138 4139 4120
4120 4139 4140 4121
4121 4140 4141 4122
4122 4141 4142 4123
4123 4142 4143 4124
4124 4143 4144 4125
4125 4144 4145 4126
4126 4145 4146 4127
4127 4146 4147 4128
4128 4147 4148 4129
4129 4148 351 350
136 137 4149 4130
4130 4149 4150 4131
4131 4150 4151 4132
4132 4151 4152 4133
4133 4152 4153 4134
4134 4153 4154 4135
4135 4154 4155 4136
4136 4155 4156 4137
4137 4156 4157 4138
4138 4157 4158 4139
4139 4158 4159 4140
4140 4159 4160 4141
4141 4160 4161 4142
4142 4161 4162 4143
4143 4162 4163 4144
4144 4163 4164 4145
4145 4164 4165 4146
4146 4165 4166 4147
4147 4166 4167 4148
4148 4167 352 351
137 138 4168 4149
4149 4168 4169 4150
4150 4169 4170 4151
4151 4170 4171 4152
4152 4171 4172 4153
4153 4172 4173 4154
4154 4173 4174 4155
4155 4174 4175 4156
4156 4175 4176 4157
4157 4176 4177 4158
4158 4177 4178 4159
4159 4178 4179 4160
4160 4179 4180 4161
4161 4180 4181 4162
4162 4181 4182 4163
4163 4182 4183 4164
4164 4183 4184 4165
4165 4184 4185 4166
4166 4185 4186 4167
4167 4186 353 352
138 139 4187 4168
4168 4187 4188 4169
4169 4188 4189 4170
4170 4189 4190 4171
4171 4190 4191 4172
4172 4191 4192 4173
4173 4192 4193 4174
4174 4193 4194 4175
4175 4194 4195 4176
4176 4195 4196 4177
4177 4196 4197 4178
4178 4197 4198 4179
4179 4198 4199 4180
4180 4199 4200 4181
4181 4200 4201 4182
4182 4201 4202 4183
4183 4202 4203 4184
4184 4203 4204 4185
4185 4204 4205 4186
4186 4205 354 353
139 140 4206 4187
4187 4206 4207 4188
4188 4207 4208 4189
4189 4208 4209 4190
4190 4209 4210 4191
4191 4210 4211 4192
4192 4211 4212 4193
4193 4212 4213 4194
4194 4213 4214 4195
4195 4214 4215 4196
4196 4215 4216 4197
4197 4216 4217 4198
4198 4217 4218 4199
4199 4218 4219 4200
4200 4219 4220 4201
4201 4220 4221 4202
4202 4221 4222 4203
4203 4222 4223 4204
4204 4223 4224 4205
4205 4224 355 354
140 141 4225 4206
4206 4225 4226 4207
4207 4226 4227 4208
4208 4227 4228 4209
4209 4228 4229 4210
4210 4229 4230 4211
4211 4230 4231 4212
4212 4231 4232 4213
4213 4232 4233 4214
4214 4233 4234 4215
4215 4234 4235 4216
4216 4235 4236 4217
4217 4236 4237 4218
4218 4237 4238 4219
4219 4238 4239 4220
4220 4239 4240 4221
4221 4240 4241 4222
4222 4241 4242 4223
4223 4242 4243 4224
4224 4243 356 355
141 142 4244 4225
4225 4244 4245 4226
4226 4245 4246 4227
4227 4246 4247 4228
4228 4247 4248 4229
4229 4248 4249 4230
4230 4249 4250 4231
4231 4250 4251 4232
4232 4251 4252 4233
4233 4252 4253 4234
4234 4253 4254 4235
4235 4254 4255 4236
4236 4255 4256 4237
4237 4256 4257 4238
4238 4257 4258 4239
4239 4258 4259 4240
4240 4259 4260 4241
4241 4260 4261 4242
4242 4261 4262 4243
4243 4262 357 356
142 143 4263 4244
4244 4263 4264 4245
4245 4264 4265 4246
4246 4265 4266 4247
4247 4266 4267 4248
4248 4267 4268 4249
4249 4268 4269 4250
4250 4269 4270 4251
4251 4270 4271 4252
4252 4271 4272 4253
4253 4272 4273 4254
4254 4273 4274 4255
4255 4274 4275 4256
4256 4275 4276 4257
4257 4276 4277 4258
4258 4277 4278 4259
4259 4278 4279 4260
4260 4279 4280 4261
4261 4280 4281 4262
4262 4281 358 357
143 144 4282 4263
4263 4282 4283 4264
4264 4283 4284 4265
4265 4284 4285 4266
4266 4285 4286 4267
4267 4286 4287 4268
4268 4287 4288 4269
4269 4288 4289 4270
4270 4289 4290 4271
4271 4290 4291 4272
4272 4291 4292 4273
4273 4292 4293 4274
4274 4293 4294 4275
4275 4294 4295 4276
4276 4295 4296 4277
4277 4296 4297 4278
4278 4297 4298 4279
4279 4298 4299 4280
4280 4299 4300 4281
4281 4300 359 358
144 145 4301 4282
4282 4301 4302 4283
4283 4302 4303 4284
4284 4303 4304 4285
4285 4304 4305 4286
4286 4305 4306 4287
4287 4306 4307 4288
4288 4307 4308 4289
4289 4308 4309 4290
4290 4309 4310 4291
4291 4310 4311 4292
4292 4311 4312 4293
4293 4312 4313 4294
4294 4313 4314 4295
4295 4314 4315 4296
4296 4315 4316 4297
4297 4316 4317 4298
4298 4317 4318 4299
4299 4318 4319 4300
4300 4319 360 359
145 146 4320 4301
4301 4320 4321 4302
4302 4321 4322 4303
4303 4322 4323 4304
4304 4323 4324 4305
4305 4324 4325 4306
4306 4325 4326 4307
4307 4326 4327 4308
4308 4327 4328 4309
4309 4328 4329 4310
4310 4329 4330 4311
4311 4330 4331 4312
4312 4331 4332 4313
4313 4332 4333 4314
4314 4333 4334 4315
4315 4334 4335 4316
4316 4335 4336 4317
4317 4336 4337 4318
4318 4337 4338 4319
4319 4338 361 360
146 5 399 4320
4320 399 398 4321
4321 398 397 4322
4322 397 396 4323
4323 396 395 4324
4324 395 394 4325
4325 394 393 4326
4326 393 392 4327
4327 392 391 4328
4328 391 390 4329
4329 390 389 4330
4330 389 388 4331
4331 388 387 4332
4332 387 386 4333
4333 386 385 4334
4334 385 384 4335
4335 384 383 4336
4336 383 382 4337
4337 382 381 4338
4338 381 10 361
3 89 4339 166
166 4339 4340 167
167 4340 4341 168
168 4341 4342 169
169 4342 4343 170
170 4343 4344 171
171 4344 4345 172
172 4345 4346 173
173 4346 4347 174
174 4347 4348 175
175 4348 4349 176
176 4349 4350 177
177 4350 4351 178
178 4351 4352 179
179 4352 4353 180
180 4353 4354 181
181 4354 4355 182
182 4355 4356 183
183 4356 4357 184
184 4357 418 7
89 90 4358 4339
4339 4358 4359 4340
4340 4359 4360 4341
4341 4360 4361 4342
4342 4361 4362 4343
4343 4362 4363 4344
4344 4363 4364 4345
4345 4364 4365 4346
4346 4365 4366 4347
4347 4366 4367 4348
4348 4367 4368 4349
4349 4368 4369 4350
4350 4369 4370 4351
4351 4370 4371 4352
4352 4371 4372 4353
4353 4372 4373 4354
4354 4373 4374 4355
4355 4374 4375 4356
4356 4375 4376 4357
4357 4376 417 418
90 91 4377 4358
4358 4377 4378 4359
4359 4378 4379 4360
4360 4379 4380 4361
4361 4380 4381 4362
4362 4381 4382 4363
4363 4382 4383 4364
4364 4383 4384 4365
4365 4384 4385 4366
4366 4385 4386 4367
4367 4386 4387 4368
4368 4387 4388 4369
4369 4388 4389 4370
4370 4389 4390 4371
4371 4390 4391 4372
4372 4391 4392 4373
4373 4392 4393 4374
4374 4393 4394 4375
4375 4394 4395 4376
4376 4395 416 417
91 92 4396 4377
4377 4396 4397 4378
4378 4397 4398 4379
4379 4398 4399 4380
4380 4399 4400 4381
4381 4400 4401 4382
4382 4401 4402 4383
4383 4402 4403 4384
4384 4403 4404 4385
4385 4404 4405 4386
4386 4405 4406 4387
4387 4406 4407 4388
4388 4407 4408 4389
4389 4408 4409 4390
4390 4409 4410 4391
4391 4410 4411 4392
4392 4411 4412 4393
4393 4412 4413 4394
4394 4413 4414 4395
4395 4414 415 416
92 93 4415 4396
4396 4415 4416 4397
4397 4416 4417 4398
4398 4417 4418 4399
4399 4418 4419 4400
4400 4419 4420 4401
4401 4420 4421 4402
4402 4421 4422 4403
4403 4422 4423 4404
4404 4423 4424 4405
4405 4424 4425 4406
4406 4425 4426 4407
4407 4426 4427 4408
4408 4427 4428 4409
4409 4428 4429 4410
4410 4429 4430 4411
4411 4430 4431 4412
4412 4431 4432 4413
4413 4432 4433 4414
4414 4433 414 415
93 94 4434 4415
4415 4434 4435 4416
4416 4435 4436 4417
4417 4436 4437 4418
4418 4437 4438 4419
4419 4438 4439 4420
4420 4439 4440 4421
4421 4440 4441 4422
4422 4441 4442 4423
4423 4442 4443 4424
4424 4443 4444 4425
4425 4444 4445 4426
4426 4445 4446 4427
4427 4446 4447 4428
4428 4447 4448 4429
4429 4448 4449 4430
4430 4449 4450 4431
4431 4450 4451 4432
4432 4451 4452 4433
4433 4452 413 414
94 95 4453 4434
4434 4453 4454 4435
4435 4454 4455 4436
4436 4455 4456 4437
4437 4456 4457 4438
4438 4457 4458 4439
4439 4458 4459 4440
4440 4459 4460 4441
4441 4460 4461 4442
4442 4461 4462 4443
4443 4462 4463 4444
4444 4463 4464 4445
4445 4464 4465 4446
4446 4465 4466 4447
4447 4466 4467 4448
4448 4467 4468 4449
4449 4468 4469 4450
4450 4469 4470 4451
4451 4470 4471 4452
4452 4471 412 413
95 96 4472 4453
4453 4472 4473 4454
4454 4473 4474 4455
4455 4474 4475 4456
4456 4475 4476 4457
4457 4476 4477 4458
4458 4477 4478 4459
4459 4478 4479 4460
4460 4479 4480 4461
4461 4480 4481 4462
4462 4481 4482 4463
4463 4482 4483 4464
4464 4483 4484 4465
4465 4484 4485 4466
4466 4485 4486 4467
4467 4486 4487 4468
4468 4487 4488 4469
4469 4488 4489 4470
4470 4489 4490 4471
4471 4490 411 412
96 97 4491 4472
4472 4491 4492 4473
4473 4492 4493 4474
4474 4493 4494 4475
4475 4494 4495 4476
4476 4495 4496 4477
4477 4496 4497 4478
4478 4497 4498 4479
4479 4498 4499 4480
4480 4499 4500 4481
4481 4500 4501 4482
4482 4501 4502 4483
4483 4502 4503 4484
4484 4503 4504 4485
4485 4504 4505 4486
4486 4505 4506 4487
4487 4506 4507 4488
4488 4507 4508 4489
4489 4508 4509 4490
4490 4509 410 411
97 98 4510 4491
4491 4510 4511 4492
4492 4511 4512 4493
4493 4512 4513 4494
4494 4513 4514 4495
4495 4514 4515 4496
4496 4515 4516 4497
4497 4516 4517 4498
4498 4517 4518 4499
4499 4518 4519 4500
4500 4519 4520 4501
4501 4520 4521 4502
4502 4521 4522 4503
4503 4522 4523 4504
4504 4523 4524 4505
4505 4524 4525 4506
4506 4525 4526 4507
4507 4526 4527 4508
4508 4527 4528 4509
4509 4528 409 410
98 99 4529 4510
4510 4529 4530 4511
4511 4530 4531 4512
4512 4531 4532 4513
4513 4532 4533 4514
4514 4533 4534 4515
4515 4534 4535 4516
4516 4535 4536 4517
4517 4536 4537 4518
4518 4537 4538 4519
4519 4538 4539 4520
4520 4539 4540 4521
4521 4540 4541 4522
4522 4541 4542 4523
4523 4542 4543 4524
4524 4543 4544 4525
4525 4544 4545 4526
4526 4545 4546 4527
4527 4546 4547 4528
4528 4547 408 409
99 100 4548 4529
4529 4548 4549 4530
4530 4549 4550 4531
4531 4550 4551 4532
4532 4551 4552 4533
4533 4552 4553 4534
4534 4553 4554 4535
4535 4554 4555 4536
4536 4555 4556 4537
4537 4556 4557 4538
4538 4557 4558 4539
4539 4558 4559 4540
4540 4559 4560 4541
4541 4560 4561 4542
4542 4561 4562 4543
4543 4562 4563 4544
4544 4563 4564 4545
4545 4564 4565 4546
4546 4565 4566 4547
4547 4566 407 408
100 101 4567 4548
4548 4567 4568 4549
4549 4568 4569 4550
4550 4569 4570 4551
4551 4570 4571 4552
4552 4571 4572 4553
4553 4572 4573 4554
4554 4573 4574 4555
4555 4574 4575 4556
4556 4575 4576 4557
4557 4576 4577 4558
4558 4577 4578 4559
4559 4578 4579 4560
4560 4579 4580 4561
4561 4580 4581 4562
4562 4581 4582 4563
4563 4582 4583 4564
4564 4583 4584 4565
4565 4584 4585 4566
4566 4585 406 407
101 102 4586 4567
4567 4586 4587 4568
4568 4587 4588 4569
4569 4588 4589 4570
4570 4589 4590 4571
4571 4590 4591 4572
4572 4591 4592 4573
4573 4592 4593 4574
4574 4593 4594 4575
4575 4594 4595 4576
4576 4595 4596 4577
4577 4596 4597 4578
4578 4597 4598 4579
4579 4598 4599 4580
4580 4599 4600 4581
4581 4600 4601 4582
4582 4601 4602 4583
4583 4602 4603 4584
4584 4603 4604 4585
4585 4604 405 406
102 103 4605 4586
4586 4605 4606 4587
4587 4606 4607 4588
4588 4607 4608 4589
4589 4608 4609 4590
4590 4609 4610 4591
4591 4610 4611 4592
4592 4611 4612 4593
4593 4612 4613 4594
4594 4613 4614 4595
4595 4614 4615 4596
4596 4615 4616 4597
4597 4616 4617 4598
4598 4617 4618 4599
4599 4618 4619 4600
4600 4619 4620 4601
4601 4620 4621 4602
4602 4621 4622 4603
4603 4622 4623 4604
4604 4623 404 405
103 104 4624 4605
4605 4624 4625 4606
4606 4625 4626 4607
4607 4626 4627 4608
4608 4627 4628 4609
4609 4628 4629 4610
4610 4629 4630 4611
4611 4630 4631 4612
4612 4631 4632 4613
4613 4632 4633 4614
4614 4633 4634 4615
4615 4634 4635 4616
4616 4635 4636 4617
4617 4636 4637 4618
4618 4637 4638 4619
4619 4638 4639 4620
4620 4639 4640 4621
4621 4640 4641 4622
4622 4641 4642 4623
4623 4642 403 404
104 105 4643 4624
4624 4643 4644 4625
4625 4644 4645 4626
4626 4645 4646 4627
4627 4646 4647 4628
4628 4647 4648 4629
4629 4648 4649 4630
4630 4649 4650 4631
4631 4650 4651 4632
4632 4651 4652 4633
4633 4652 4653 4634
4634 4653 4654 4635
4635 4654 4655 4636
4636 4655 4656 4637
4637 4656 4657 4638
4638 4657 4658 4639
4639 4658 4659 4640
4640 4659 4660 4641
4641 4660 4661 4642
4642 4661 402 403
105 106 4662 4643
4643 4662 4663 4644
4644 4663 4664 4645
4645 4664 4665 4646
4646 4665 4666 4647
4647 4666 4667 4648
4648 4667 4668 4649
4649 4668 4669 4650
4650 4669 4670 4651
4651 4670 4671 4652
4652 4671 4672 4653
4653 4672 4673 4654
4654 4673 4674 4655
4655 4674 4675 4656
4656 4675 4676 4657
4657 4676 4677 4658
4658 4677 4678 4659
4659 4678 4679 4660
4660 4679 4680 4661
4661 4680 401 402
106 107 4681 4662
4662 4681 4682 4663
4663 4682 4683 4664
4664 4683 4684 4665
4665 4684 4685 4666
4666 4685 4686 4667
4667 4686 4687 4668
4668 4687 4688 4669
4669 4688 4689 4670
4670 4689 4690 4671
4671 4690 4691 4672
4672 4691 4692 4673
4673 4692 4693 4674
4674 4693 4694 4675
4675 4694 4695 4676
4676 4695 4696 4677
4677 4696 4697 4678
4678 4697 4698 4679
4679 4698 4699 4680
4680 4699 400 401
107 4 380 4681
4681 380 379 4682
4682 379 378 4683
4683 378 377 4684
4684 377 376 4685
4685 376 375 4686
4686 375 374 4687
4687 374 373 4688
4688 373 372 4689
4689 372 371 4690
4690 371 370 4691
4691 370 369 4692
4692 369 368 4693
4693 368 367 4694
4694 367 366 4695
4695 366 365 4696
4696 365 364 4697
4697 364 363 4698
4698 363 362 4699
4699 362 9 400
5 147 4700 399
399 4700 4701 398
398 4701 4702 397
397 4702 4703 396
396 4703 4704 395
395 4704 4705 394
394 4705 4706 393
393 4706 4707 392
392 4707 4708 391
391 4708 4709 390
390 4709 4710 389
389 4710 4711 388
388 4711 4712 387
387 4712 4713 386
386 4713 4714 385
385 4714 4715 384
384 4715 4716 383
383 4716 4717 382
382 4717 4718 381
381 4718 419 10
147 148 4719 4700
4700 4719 4720 4701
4701 4720 4721 4702
4702 4721 4722 4703
4703 4722 4723 4704
4704 4723 4724 4705
4705 4724 4725 4706
4706 4725 4726 4707
4707 4726 4727 4708
4708 4727 4728 4709
4709 4728 4729 4710
4710 4729 4730 4711
4711 4730 4731 4712
4712 4731 4732 4713
4713 4732 4733 4714
4714 4733 4734 4715
4715 4734 4735 4716
4716 4735 4736 4717
4717 4736 4737 4718
4718 4737 420 419
148 149 4738 4719
4719 4738 4739 4720
4720 4739 4740 4721
4721 4740 4741 4722
4722 4741 4742 4723
4723 4742 4743 4724
4724 4743 4744 4725
4725 4744 4745 4726
4726 4745 4746 4727
4727 4746 4747 4728
4728 4747 4748 4729
4729 4748 4749 4730
4730 4749 4750 4731
4731 4750 4751 4732
4732 4751 4752 4733
4733 4752 4753 4734
4734 4753 4754 4735
4735 4754 4755 4736
4736 4755 4756 4737
4737 4756 421 420
149 150 4757 4738
4738 4757 4758 4739
4739 4758 4759 4740
4740 4759 4760 4741
4741 4760 4761 4742
4742 4761 4762 4743
4743 4762 4763 4744
4744 4763 4764 4745
4745 4764 4765 4746
4746 4765 4766 4747
4747 4766 4767 4748
4748 4767 4768 4749
4749 4768 4769 4750
4750 4769 4770 4751
4751 4770 4771 4752
4752 4771 4772 4753
4753 4772 4773 4754
4754 4773 4774 4755
4755 4774 4775 4756
4756 4775 422 421
150 151 4776 4757
4757 4776 4777 4758
4758 4777 4778 4759
4759 4778 4779 4760
4760 4779 4780 4761
4761 4780 4781 4762
4762 4781 4782 4763
4763 4782 4783 4764
4764 4783 4784 4765
4765 4784 4785 4766
4766 4785 4786 4767
4767 4786 4787 4768
4768 4787 4788 4769
4769 4788 4789 4770
4770 4789 4790 4771
4771 4790 4791 4772
4772 4791 4792 4773
4773 4792 4793 4774
4774 4793 4794 4775
4775 4794 423 422
151 152 4795 4776
4776 4795 4796 4777
4777 4796 4797 4778
4778 4797 4798 4779
4779 4798 4799 4780
4780 4799 4800 4781
4781 4800 4801 4782
4782 4801 4802 4783
4783 4802 4803 4784
4784 4803 4804 4785
4785 4804 4805 4786
4786 4805 4806 4787
4787 4806 4807 4788
4788 4807 4808 4789
4789 4808 4809 4790
4790 4809 4810 4791
4791 4810 4811 4792
4792 4811 4812 4793
4793 4812 4813 4794
4794 4813 424 423
152 153 4814 4795
4795 4814 4815 4796
4796 4815 4816 4797
4797 4816 4817 4798
4798 4817 4818 4799
4799 4818 4819 4800
4800 4819 4820 4801
4801 4820 4821 4802
4802 4821 4822 4803
4803 4822 4823 4804
4804 4823 4824 4805
4805 4824 4825 4806
4806 4825 4826 4807
4807 4826 4827 4808
4808 4827 4828 4809
4809 4828 4829 4810
4810 4829 4830 4811
4811 4830 4831 4812
4812 4831 4832 4813
4813 4832 425 424
153 154 4833 4814
4814 4833 4834 4815
4815 4834 4835 4816
4816 4835 4836 4817
4817 4836 4837 4818
4818 4837 4838 4819
4819 4838 4839 4820
4820 4839 4840 4821
4821 4840 4841 4822
4822 4841 4842 4823
4823 4842 4843 4824
4824 4843 4844 4825
4825 4844 4845 4826
4826 4845 4846 4827
4827 4846 4847 4828
4828 4847 4848 4829
4829 4848 4849 4830
4830 4849 4850 4831
4831 4850 4851 4832
4832 4851 426 425
154 155 4852 4833
4833 4852 4853 4834
4834 4853 4854 4835
4835 4854 4855 4836
4836 4855 4856 4837
4837 4856 4857 4838
4838 4857 4858 4839
4839 4858 4859 4840
4840 4859 4860 4841
4841 4860 4861 4842
4842 4861 4862 4843
4843 4862 4863 4844
4844 4863 4864 4845
4845 4864 4865 4846
4846 4865 4866 4847
4847 4866 4867 4848
4848 4867 4868 4849
4849 4868 4869 4850
4850 4869 4870 4851
4851 4870 427 426
155 156 4871 4852
4852 4871 4872 4853
4853 4872 4873 4854
4854 4873 4874 4855
4855 4874 4875 4856
4856 4875 4876 4857
4857 4876 4877 4858
4858 4877 4878 4859
4859 4878 4879 4860
4860 4879 4880 4861
4861 4880 4881 4862
4862 4881 4882 4863
4863 4882 4883 4864
4864 4883 4884 4865
4865 4884 4885 4866
4866 4885 4886 4867
4867 4886 4887 4868
4868 4887 4888 4869
4869 4888 4889 4870
4870 4889 428 427
156 157 4890 4871
4871 4890 4891 4872
4872 4891 4892 4873
4873 4892 4893 4874
4874 4893 4894 4875
4875 4894 4895 4876
4876 4895 4896 4877
4877 4896 4897 4878
4878 4897 4898 4879
4879 4898 4899 4880
4880 4899 4900 4881
4881 4900 4901 4882
4882 4901 4902 4883
4883 4902 4903 4884
4884 4903 4904 4885
4885 4904 4905 4886
4886 4905 4906 4887
4887 4906 4907 4888
4888 4907 4908 4889
4889 4908 429 428
157 158 4909 4890
4890 4909 4910 4891
4891 4910 4911 4892
4892 4911 4912 4893
4893 4912 4913 4894
4894 4913 4914 4895
4895 4914 4915 4896
4896 4915 4916 4897
4897 4916 4917 4898
4898 4917 4918 4899
4899 4918 4919 4900
4900 4919 4920 4901
4901 4920 4921 4902
4902 4921 4922 4903
4903 4922 4923 4904
4904 4923 4924 4905
4905 4924 4925 4906
4906 4925 4926 4907
4907 4926 4927 4908
4908 4927 430 429
158 159 4928 4909
4909 4928 4929 4910
4910 4929 4930 4911
4911 4930 4931 4912
4912 4931 4932 4913
4913 4932 4933 4914
4914 4933 4934 4915
4915 4934 4935 4916
4916 4935 4936 4917
4917 4936 4937 4918
4918 4937 4938 4919
4919 4938 4939 4920
4920 4939 4940 4921
4921 4940 4941 4922
4922 4941 4942 4923
4923 4942 4943 4924
4924 4943 4944 4925
4925 4944 4945 4926
4926 4945 4946 4927
4927 4946 431 430
159 160 4947 4928
4928 4947 4948 4929
4929 4948 4949 4930
4930 4949 4950 4931
4931 4950 4951 4932
4932 4951 4952 4933
4933 4952 4953 4934
4934 4953 4954 4935
4935 4954 4955 4936
4936 4955 4956 4937
4937 4956 4957 4938
4938 4957 4958 4939
4939 4958 4959 4940
4940 4959 4960 4941
4941 4960 4961 4942
4942 4961 4962 4943
4943 4962 4963 4944
4944 4963 4964 4945
4945 4964 4965 4946
4946 4965 432 431
160 161 4966 4947
4947 4966 4967 4948
4948 4967 4968 4949
4949 4968 4969 4950
4950 4969 4970 4951
4951 4970 4971 4952
4952 4971 4972 4953
4953 4972 4973 4954
4954 4973 4974 4955
4955 4974 4975 4956
4956 4975 4976 4957
4957 4976 4977 4958
4958 4977 4978 4959
4959 4978 4979 4960
4960 4979 4980 4961
4961 4980 4981 4962
4962 4981 4982 4963
4963 4982 4983 4964
4964 4983 4984 4965
4965 4984 433 432
161 162 4985 4966
4966 4985 4986 4967
4967 4986 4987 4968
4968 4987 4988 4969
4969 4988 4989 4970
4970 4989 4990 4971
4971 4990 4991 4972
4972 4991 4992 4973
4973 4992 4993 4974
4974 4993 4994 4975
4975 4994 4995 4976
4976 4995 4996 4977
4977 4996 4997 4978
4978 4997 4998 4979
4979 4998 4999 4980
4980 4999 5000 4981
4981 5000 5001 4982
4982 5001 5002 4983
4983 5002 5003 4984
4984 5003 434 433
162 163 5004 4985
4985 5004 5005 4986
4986 5005 5006 4987
4987 5006 5007 4988
4988 5007 5008 4989
4989 5008 5009 4990
4990 5009 5010 4991
4991 5010 5011 4992
4992 5011 5012 4993
4993 5012 5013 4994
4994 5013 5014 4995
4995 5014 5015 4996
4996 5015 5016 4997
4997 5016 5017 4998
4998 5017 5018 4999
4999 5018 5019 5000
5000 5019 5020 5001
5001 5020 5021 5002
5002 5021 5022 5003
5003 5022 435 434
163 164 5023 5004
5004 5023 5024 5005
5005 5024 5025 5006
5006 5025 5026 5007
5007 5026 5027 5008
5008 5027 5028 5009
5009 5028 5029 5010
5010 5029 5030 5011
5011 5030 5031 5012
5012 5031 5032 5013
5013 5032 5033 5014
5014 5033 5034 5015
5015 5034 5035 5016
5016 5035 5036 5017
5017 5036 5037 5018
5018 5037 5038 5019
5019 5038 5039 5020
5020 5039 5040 5021
5021 5040 5041 5022
5022 5041 436 435
164 165 5042 5023
5023 5042 5043 5024
5024 5043 5044 5025
5025 5044 5045 5026
5026 5045 5046 5027
5027 5046 5047 5028
5028 5047 5048 5029
5029 5048 5049 5030
5030 5049 5050 5031
5031 5050 5051 5032
5032 5051 5052 5033
5033 5052 5053 5034
5034 5053 5054 5035
5035 5054 5055 5036
5036 5055 5056 5037
5037 5056 5057 5038
5038 5057 5058 5039
5039 5058 5059 5040
5040 5059 5060 5041
5041 5060 437 436
165 6 242 5042
5042 242 241 5043
5043 241 240 5044
5044 240 239 5045
5045 239 238 5046
5046 238 237 5047
5047 237 236 5048
5048 236 235 5049
5049 235 234 5050
5050 234 233 5051
5051 233 232 5052
5052 232 231 5053
5053 231 230 5054
5054 230 229 5055
5055 229 228 5056
5056 228 227 5057
5057 227 226 5058
5058 226 225 5059
5059 225 224 5060
5060 224 8 437
9 323 5061 400
400 5061 5062 401
401 5062 5063 402
402 5063 5064 403
403 5064 5065 404
404 5065 5066 405
405 5066 5067 406
406 5067 5068 407
407 5068 5069 408
408 5069 5070 409
409 5070 5071 410
410 5071 5072 411
411 5072 5073 412
412 5073 5074 413
413 5074 5075 414
414 5075 5076 415
415 5076 5077 416
416 5077 5078 417
417 5078 5079 418
418 5079 185 7
323 324 5080 5061
5061 5080 5081 5062
5062 5081 5082 5063
5063 5082 5083 5064
5064 5083 5084 5065
5065 5084 5085 5066
5066 5085 5086 5067
5067 5086 5087 5068
5068 5087 5088 5069
5069 5088 5089 5070
5070 5089 5090 5071
5071 5090 5091 5072
5072 5091 5092 5073
5073 5092 5093 5074
5074 5093 5094 5075
5075 5094 5095 5076
5076 5095 5096 5077
5077 5096 5097 5078
5078 5097 5098 5079
5079 5098 186 185
324 325 5099 5080
5080 5099 5100 5081
5081 5100 5101 5082
5082 5101 5102 5083
5083 5102 5103 5084
5084 5103 5104 5085
5085 5104 5105 5086
5086 5105 5106 5087
5087 5106 5107 5088
5088 5107 5108 5089
5089 5108 5109 5090
5090 5109 5110 5091
5091 5110 5111 5092
5092 5111 5112 5093
5093 5112 5113 5094
5094 5113 5114 5095
5095 5114 5115 5096
5096 5115 5116 5097
5097 5116 5117 5098
5098 5117 187 186
325 326 5118 5099
5099 5118 5119 5100
5100 5119 5120 5101
5101 5120 5121 5102
5102 5121 5122 5103
5103 5122 5123 5104
5104 5123 5124 5105
5105 5124 5125 5106
5106 5125 5126 5107
5107 5126 5127 5108
5108 5127 5128 5109
5109 5128 5129 5110
5110 5129 5130 5111
5111 5130 5131 5112
5112 5131 5132 5113
5113 5132 5133 5114
5114 5133 5134 5115
5115 5134 5135 5116
5116 5135 5136 5117
5117 5136 188 187
326 327 5137 5118
5118 5137 5138 5119
5119 5138 5139 5120
5120 5139 5140 5121
5121 5140 5141 5122
5122 5141 5142 5123
5123 5142 5143 5124
5124 5143 5144 5125
5125 5144 5145 5126
5126 5145 5146 5127
5127 5146 5147 5128
5128 5147 5148 5129
5129 5148 5149 5130
5130 5149 5150 5131
5131 5150 5151 5132
5132 5151 5152 5133
5133 5152 5153 5134
5134 5153 5154 5135
5135 5154 5155 5136
5136 5155 189 188
327 328 5156 5137
5137 5156 5157 5138
5138 5157 5158 5139
5139 5158 5159 5140
5140 5159 5160 5141
5141 5160 5161 5142
5142 5161 5162 5143
5143 5162 5163 5144
5144 5163 5164 5145
5145 5164 5165 5146
5146 5165 5166 5147
5147 5166 5167 5148
5148 5167 5168 5149
5149 5168 5169 5150
5150 5169 5170 5151
5151 5170 5171 5152
5152 5171 5172 5153
5153 5172 5173 5154
5154 5173 5174 5155
5155 5174 190 189
328 329 5175 5156
5156 5175 5176 5157
5157 5176 5177 5158
5158 5177 5178 5159
5159 5178 5179 5160
5160 5179 5180 5161
5161 5180 5181 5162
5162 5181 5182 5163
5163 5182 5183 5164
5164 5183 5184 5165
5165 5184 5185 5166
5166 5185 5186 5167
5167 5186 5187 5168
5168 5187 5188 5169
5169 5188 5189 5170
5170 5189 5190 5171
5171 5190 5191 5172
5172 5191 5192 5173
5173 5192 5193 5174
5174 5193 191 190
329 330 5194 5175
5175 5194 5195 5176
5176 5195 5196 5177
5177 5196 5197 5178
5178 5197 5198 5179
5179 5198 5199 5180
5180 5199 5200 5181
5181 5200 5201 5182
5182 5201 5202 5183
5183 5202 5203 5184
5184 5203 5204 5185
5185 5204 5205 5186
5186 5205 5206 5187
5187 5206 5207 5188
5188 5207 5208 5189
5189 5208 5209 5190
5190 5209 5210 5191
5191 5210 5211 5192
5192 5211 5212 5193
5193 5212 192 191
330 331 5213 5194
5194 5213 5214 5195
5195 5214 5215 5196
5196 5215 5216 5197
5197 5216 5217 5198
5198 5217 5218 5199
5199 5218 5219 5200
5200 5219 5220 5201
5201 5220 5221 5202
5202 5221 5222 5203
5203 5222 5223 5204
5204 5223 5224 5205
5205 5224 5225 5206
5206 5225 5226 5207
5207 5226 5227 5208
5208 5227 5228 5209
5209 5228 5229 5210
5210 5229 5230 5211
5211 5230 5231 5212
5212 5231 193 192
331 332 5232 5213
5213 5232 5233 5214
5214 5233 5234 5215
5215 5234 5235 5216
5216 5235 5236 5217
5217 5236 5237 5218
5218 5237 5238 5219
5219 5238 5239 5220
5220 5239 5240 5221
5221 5240 5241 5222
5222 5241 5242 5223
5223 5242 5243 5224
5224 5243 5244 5225
5225 5244 5245 5226
5226 5245 5246 5227
5227 5246 5247 5228
5228 5247 5248 5229
5229 5248 5249 5230
5230 5249 5250 5231
5231 5250 194 193
332 333 5251 5232
5232 5251 5252 5233
5233 5252 5253 5234
5234 5253 5254 5235
5235 5254 5255 5236
5236 5255 5256 5237
5237 5256 5257 5238
5238 5257 5258 5239
5239 5258 5259 5240
5240 5259 5260 5241
5241 5260 5261 5242
5242 5261 5262 5243
5243 5262 5263 5244
5244 5263 5264 5245
5245 5264 5265 5246
5246 5265 5266 5247
5247 5266 5267 5248
5248 5267 5268 5249
5249 5268 5269 5250
5250 5269 195 194
333 334 5270 5251
5251 5270 5271 5252
5252 5271 5272 5253
5253 5272 5273 5254
5254 5273 5274 5255
5255 5274 5275 5256
5256 5275 5276 5257
5257 5276 5277 5258
5258 5277 5278 5259
5259 5278 5279 5260
5260 5279 5280 5261
5261 5280 5281 5262
5262 5281 5282 5263
5263 5282 5283 5264
5264 5283 5284 5265
5265 5284 5285 5266
5266 5285 5286 5267
5267 5286 5287 5268
5268 5287 5288 5269
5269 5288 196 195
334 335 5289 5270
5270 5289 5290 5271
5271 5290 5291 5272
5272 5291 5292 5273
5273 5292 5293 5274
5274 5293 5294 5275
5275 5294 5295 5276
5276 5295 5296 5277
5277 5296 5297 5278
5278 5297 5298 5279
5279 5298 5299 5280
5280 5299 5300 5281
5281 5300 5301 5282
5282 5301 5302 5283
5283 5302 5303 5284
5284 5303 5304 5285
5285 5304 5305 5286
5286 5305 5306 5287
5287 5306 5307 5288
5288 5307 197 196
335 336 5308 5289
5289 5308 5309 5290
5290 5309 5310 5291
5291 5310 5311 5292
5292 5311 5312 5293
5293 5312 5313 5294
5294 5313 5314 5295
5295 5314 5315 5296
5296 5315 5316 5297
5297 5316 5317 5298
5298 5317 5318 5299
5299 5318 5319 5300
5300 5319 5320 5301
5301 5320 5321 5302
5302 5321 5322 5303
5303 5322 5323 5304
5304 5323 5324 5305
5305 5324 5325 5306
5306 5325 5326 5307
5307 5326 198 197
336 337 5327 5308
5308 5327 5328 5309
5309 5328 5329 5310
5310 5329 5330 5311
5311 5330 5331 5312
5312 5331 5332 5313
5313 5332 5333 5314
5314 5333 5334 5315
5315 5334 5335 5316
5316 5335 5336 5317
5317 5336 5337 5318
5318 5337 5338 5319
5319 5338 5339 5320
5320 5339 5340 5321
5321 5340 5341 5322
5322 5341 5342 5323
5323 5342 5343 5324
5324 5343 5344 5325
5325 5344 5345 5326
5326 5345 199 198
337 338 5346 5327
5327 5346 5347 5328
5328 5347 5348 5329
5329 5348 5349 5330
5330 5349 5350 5331
5331 5350 5351 5332
5332 5351 5352 5333
5333 5352 5353 5334
5334 5353 5354 5335
5335 5354 5355 5336
5336 5355 5356 5337
5337 5356 5357 5338
5338 5357 5358 5339
5339 5358 5359 5340
5340 5359 5360 5341
5341 5360 5361 5342
5342 5361 5362 5343
5343 5362 5363 5344
5344 5363 5364 5345
5345 5364 200 199
338 339 5365 5346
5346 5365 5366 5347
5347 5366 5367 5348
5348 5367 5368 5349
5349 5368 5369 5350
5350 5369 5370 5351
5351 5370 5371 5352
5352 5371 5372 5353
5353 5372 5373 5354
5354 5373 5374 5355
5355 5374 5375 5356
5356 5375 5376 5357
5357 5376 5377 5358
5358 5377 5378 5359
5359 5378 5379 5360
5360 5379 5380 5361
5361 5380 5381 5362
5362 5381 5382 5363
5363 5382 5383 5364
5364 5383 201 200
339 340 5384 5365
5365 5384 5385 5366
5366 5385 5386 5367
5367 5386 5387 5368
5368 5387 5388 5369
5369 5388 5389 5370
5370 5389 5390 5371
5371 5390 5391 5372
5372 5391 5392 5373
5373 5392 5393 5374
5374 5393 5394 5375
5375 5394 5395 5376
5376 5395 5396 5377
5377 5396 5397 5378
5378 5397 5398 5379
5379 5398 5399 5380
5380 5399 5400 5381
5381 5400 5401 5382
5382 5401 5402 5383
5383 5402 202 201
340 341 5403 5384
5384 5403 5404 5385
5385 5404 5405 5386
5386 5405 5406 5387
5387 5406 5407 5388
5388 5407 5408 5389
5389 5408 5409 5390
5390 5409 5410 5391
5391 5410 5411 5392
5392 5411 5412 5393
5393 5412 5413 5394
5394 5413 5414 5395
5395 5414 5415 5396
5396 5415 5416 5397
5397 5416 5417 5398
5398 5417 5418 5399
5399 5418 5419 5400
5400 5419 5420 5401
5401 5420 5421 5402
5402 5421 203 202
341 342 5422 5403
5403 5422 5423 5404
5404 5423 5424 5405
5405 5424 5425 5406
5406 5425 5426 5407
5407 5426 5427 5408
5408 5427 5428 5409
5409 5428 5429 5410
5410 5429 5430 5411
5411 5430 5431 5412
5412 5431 5432 5413
5413 5432 5433 5414
5414 5433 5434 5415
5415 5434 5435 5416
5416 5435 5436 5417
5417 5436 5437 5418
5418 5437 5438 5419
5419 5438 5439 5420
5420 5439 5440 5421
5421 5440 204 203
342 343 5441 5422
5422 5441 5442 5423
5423 5442 5443 5424
5424 5443 5444 5425
5425 5444 5445 5426
5426 5445 5446 5427
5427 5446 5447 5428
5428 5447 5448 5429
5429 5448 5449 5430
5430 5449 5450 5431
5431 5450 5451 5432
5432 5451 5452 5433
5433 5452 5453 5434
5434 5453 5454 5435
5435 5454 5455 5436
5436 5455 5456 5437
5437 5456 5457 5438
5438 5457 5458 5439
5439 5458 5459 5440
5440 5459 205 204
343 344 5460 5441
5441 5460 5461 5442
5442 5461 5462 5443
5443 5462 5463 5444
5444 5463 5464 5445
5445 5464 5465 5446
5446 5465 5466 5447
5447 5466 5467 5448
5448 5467 5468 5449
5449 5468 5469 5450
5450 5469 5470 5451
5451 5470 5471 5452
5452 5471 5472 5453
5453 5472 5473 5454
5454 5473 5474 5455
5455 5474 5475 5456
5456 5475 5476 5457
5457 5476 5477 5458
5458 5477 5478 5459
5459 5478 206 205
344 345 5479 5460
5460 5479 5480 5461
5461 5480 5481 5462
5462 5481 5482 5463
5463 5482 5483 5464
5464 5483 5484 5465
5465 5484 5485 5466
5466 5485 5486 5467
5467 5486 5487 5468
5468 5487 5488 5469
5469 5488 5489 5470
5470 5489 5490 5471
5471 5490 5491 5472
5472 5491 5492 5473
5473 5492 5493 5474
5474 5493 5494 5475
5475 5494 5495 5476
5476 5495 5496 5477
5477 5496 5497 5478
5478 5497 207 206
345 346 5498 5479
5479 5498 5499 5480
5480 5499 5500 5481
5481 5500 5501 5482
5482 5501 5502 5483
5483 5502 5503 5484
5484 5503 5504 5485
5485 5504 5505 5486
5486 5505 5506 5487
5487 5506 5507 5488
5488 5507 5508 5489
5489 5508 5509 5490
5490 5509 5510 5491
5491 5510 5511 5492
5492 5511 5512 5493
5493 5512 5513 5494
5494 5513 5514 5495
5495 5514 5515 5496
5496 5515 5516 5497
5497 5516 208 207
346 347 5517 5498
5498 5517 5518 5499
5499 5518 5519 5500
5500 5519 5520 5501
5501 5520 5521 5502
5502 5521 5522 5503
5503 5522 5523 5504
5504 5523 5524 5505
5505 5524 5525 5506
5506 5525 5526 5507
5507 5526 5527 5508
5508 5527 5528 5509
5509 5528 5529 5510
5510 5529 5530 5511
5511 5530 5531 5512
5512 5531 5532 5513
5513 5532 5533 5514
5514 5533 5534 5515
5515 5534 5535 5516
5516 5535 209 208
347 348 5536 5517
5517 5536 5537 5518
5518 5537 5538 5519
5519 5538 5539 5520
5520 5539 5540 5521
5521 5540 5541 5522
5522 5541 5542 5523
5523 5542 5543 5524
5524 5543 5544 5525
5525 5544 5545 5526
5526 5545 5546 5527
5527 5546 5547 5528
5528 5547 5548 5529
5529 5548 5549 5530
5530 5549 5550 5531
5531 5550 5551 5532
5532 5551 5552 5533
5533 5552 5553 5534
5534 5553 5554 5535
5535 5554 210 209
348 349 5555 5536
5536 5555 5556 5537
5537 5556 5557 5538
5538 5557 5558 5539
5539 5558 5559 5540
5540 5559 5560 5541
5541 5560 5561 5542
5542 5561 5562 5543
5543 5562 5563 5544
5544 5563 5564 5545
5545 5564 5565 5546
5546 5565 5566 5547
5547 5566 5567 5548
5548 5567 5568 5549
5549 5568 5569 5550
5550 5569 5570 5551
5551 5570 5571 5552
5552 5571 5572 5553
5553 5572 5573 5554
5554 5573 211 210
349 350 5574 5555
5555 5574 5575 5556
5556 5575 5576 5557
5557 5576 5577 5558
5558 5577 5578 5559
5559 5578 5579 5560
5560 5579 5580 5561
5561 5580 5581 5562
5562 5581 5582 5563
5563 5582 5583 5564
5564 5583 5584 5565
5565 5584 5585 5566
5566 5585 5586 5567
5567 5586 5587 5568
5568 5587 5588 5569
5569 5588 5589 5570
5570 5589 5590 5571
5571 5590 5591 5572
5572 5591 5592 5573
5573 5592 212 211
350 351 5593 5574
5574 5593 5594 5575
5575 5594 5595 5576
5576 5595 5596 5577
5577 5596 5597 5578
5578 5597 5598 5579
5579 5598 5599 5580
5580 5599 5600 5581
5581 5600 5601 5582
5582 5601 5602 5583
5583 5602 5603 5584
5584 5603 5604 5585
5585 5604 5605 5586
5586 5605 5606 5587
5587 5606 5607 5588
5588 5607 5608 5589
5589 5608 5609 5590
5590 5609 5610 5591
5591 5610 5611 5592
5592 5611 213 212
351 352 5612 5593
5593 5612 5613 5594
5594 5613 5614 5595
5595 5614 5615 5596
5596 5615 5616 5597
5597 5616 5617 5598
5598 5617 5618 5599
5599 5618 5619 5600
5600 5619 5620 5601
5601 5620 5621 5602
5602 5621 5622 5603
5603 5622 5623 5604
5604 5623 5624 5605
5605 5624 5625 5606
5606 5625 5626 5607
5607 5626 5627 5608
5608 5627 5628 5609
5609 5628 5629 5610
5610 5629 5630 5611
5611 5630 214 213
352 353 5631 5612
5612 5631 5632 5613
5613 5632 5633 5614
5614 5633 5634 5615
5615 5634 5635 5616
5616 5635 5636 5617
5617 5636 5637 5618
5618 5637 5638 5619
5619 5638 5639 5620
5620 5639 5640 5621
5621 5640 5641 5622
5622 5641 5642 5623
5623 5642 5643 5624
5624 5643 5644 5625
5625 5644 5645 5626
5626 5645 5646 5627
5627 5646 5647 5628
5628 5647 5648 5629
5629 5648 5649 5630
5630 5649 215 214
353 354 5650 5631
5631 5650 5651 5632
5632 5651 5652 5633
5633 5652 5653 5634
5634 5653 5654 5635
5635 5654 5655 5636
5636 5655 5656 5637
5637 5656 5657 5638
5638 5657 5658 5639
5639 5658 5659 5640
5640 5659 5660 5641
5641 5660 5661 5642
5642 5661 5662 5643
5643 5662 5663 5644
5644 5663 5664 5645
5645 5664 5665 5646
5646 5665 5666 5647
5647 5666 5667 5648
5648 5667 5668 5649
5649 5668 216 215
354 355 5669 5650
5650 5669 5670 5651
5651 5670 5671 5652
5652 5671 5672 5653
5653 5672 5673 5654
5654 5673 5674 5655
5655 5674 5675 5656
5656 5675 5676 5657
5657 5676 5677 5658
5658 5677 5678 5659
5659 5678 5679 5660
5660 5679 5680 5661
5661 5680 5681 5662
5662 5681 5682 5663
5663 5682 5683 5664
5664 5683 5684 5665
5665 5684 5685 5666
5666 5685 5686 5667
5667 5686 5687 5668
5668 5687 217 216
355 356 5688 5669
5669 5688 5689 5670
5670 5689 5690 5671
5671 5690 5691 5672
5672 5691 5692 5673
5673 5692 5693 5674
5674 5693 5694 5675
5675 5694 5695 5676
5676 5695 5696 5677
5677 5696 5697 5678
5678 5697 5698 5679
5679 5698 5699 5680
5680 5699 5700 5681
5681 5700 5701 5682
5682 5701 5702 5683
5683 5702 5703 5684
5684 5703 5704 5685
5685 5704 5705 5686
5686 5705 5706 5687
5687 5706 218 217
356 357 5707 5688
5688 5707 5708 5689
5689 5708 5709 5690
5690 5709 5710 5691
5691 5710 5711 5692
5692 5711 5712 5693
5693 5712 5713 5694
5694 5713 5714 5695
5695 5714 5715 5696
5696 5715 5716 5697
5697 5716 5717 5698
5698 5717 5718 5699
5699 5718 5719 5700
5700 5719 5720 5701
5701 5720 5721 5702
5702 5721 5722 5703
5703 5722 5723 5704
5704 5723 5724 5705
5705 5724 5725 5706
5706 5725 219 218
357 358 5726 5707
5707 5726 5727 5708
5708 5727 5728 5709
5709 5728 5729 5710
5710 5729 5730 5711
5711 5730 5731 5712
5712 5731 5732 5713
5713 5732 5733 5714
5714 5733 5734 5715
5715 5734 5735 5716
5716 5735 5736 5717
5717 5736 5737 5718
5718 5737 5738 5719
5719 5738 5739 5720
5720 5739 5740 5721
5721 5740 5741 5722
5722 5741 5742 5723
5723 5742 5743 5724
5724 5743 5744 5725
5725 5744 220 219
358 359 5745 5726
5726 5745 5746 5727
5727 5746 5747 5728
5728 5747 5748 5729
5729 5748 5749 5730
5730 5749 5750 5731
5731 5750 5751 5732
5732 5751 5752 5733
5733 5752 5753 5734
5734 5753 5754 5735
5735 5754 5755 5736
5736 5755 5756 5737
5737 5756 5757 5738
5738 5757 5758 5739
5739 5758 5759 5740
5740 5759 5760 5741
5741 5760 5761 5742
5742 5761 5762 5743
5743 5762 5763 5744
5744 5763 221 220
359 360 5764 5745
5745 5764 5765 5746
5746 5765 5766 5747
5747 5766 5767 5748
5748 5767 5768 5749
5749 5768 5769 5750
5750 5769 5770 5751
5751 5770 5771 5752
5752 5771 5772 5753
5753 5772 5773 5754
5754 5773 5774 5755
5755 5774 5775 5756
5756 5775 5776 5757
5757 5776 5777 5758
5758 5777 5778 5759
5759 5778 5779 5760
5760 5779 5780 5761
5761 5780 5781 5762
5762 5781 5782 5763
5763 5782 222 221
360 361 5783 5764
5764 5783 5784 5765
5765 5784 5785 5766
5766 5785 5786 5767
5767 5786 5787 5768
5768 5787 5788 5769
5769 5788 5789 5770
5770 5789 5790 5771
5771 5790 5791 5772
5772 5791 5792 5773
5773 5792 5793 5774
5774 5793 5794 5775
5775 5794 5795 5776
5776 5795 5796 5777
5777 5796 5797 5778
5778 5797 5798 5779
5779 5798 5799 5780
5780 5799 5800 5781
5781 5800 5801 5782
5782 5801 223 222
361 10 419 5783
5783 419 420 5784
5784 420 421 5785
5785 421 422 5786
5786 422 423 5787
5787 423 424 5788
5788 424 425 5789
5789 425 426 5790
5790 426 427 5791
5791 427 428 5792
5792 428 429 5793
5793 429 430 5794
5794 430 431 5795
5795 431 432 5796
5796 432 433 5797
5797 433 434 5798
5798 434 435 5799
5799 435 436 5800
5800 436 437 5801
5801 437 8 223
</DataArray>
<DataArray type="Int64" Name="offsets" format="ascii">
4
8
12
16
20
24
28
32
36
40
44
48
52
56
60
64
68
72
76
80
84
88
92
96
100
104
108
112
116
120
124
128
132
136
140
144
148
152
156
160
164
168
172
176
180
184
188
192
196
200
204
208
212
216
220
224
228
232
236
240
244
248
252
256
260
264
268
272
276
280
284
288
292
296
300
304
308
312
316
320
324
328
332
336
340
344
348
352
356
360
364
368
372
376
380
384
388
392
396
400
404
408
412
416
420
424
428
432
436
440
444
448
452
456
460
464
468
472
476
480
484
488
492
496
500
504
508
512
516
520
524
528
532
536
540
544
548
552
556
560
564
568
572
576
580
584
588
592
596
600
604
608
612
616
620
624
628
632
636
640
644
648
652
656
660
664
668
672
676
680
684
688
692
696
700
704
708
712
716
720
724
728
732
736
740
744
748
752
756
760
764
768
772
776
780
784
788
792
796
800
804
808
812
816
820
824
828
832
836
840
844
848
852
856
860
864
868
872
876
880
884
888
892
896
900
904
908
912
916
920
924
928
932
936
940
944
948
952
956
960
964
968
972
976
980
984
988
992
996
1000
1004
1008
1012
1016
1020
1024
1028
1032
1036
1040
1044
1048
1052
1056
1060
1064
1068
1072
1076
1080
1084
1088
1092
1096
1100
1104
1108
1112
1116
1120
1124
1128
1132
1136
1140
1144
1148
1152
1156
1160
1164
1168
1172
1176
1180
1184
1188
1192
1196
1200
1204
1208
1212
1216
1220
1224
1228
1232
1236
1240
1244
1248
1252
1256
1260
1264
1268
1272
1276
1280
1284
1288
1292
1296
1300
1304
1308
1312
1316
1320
1324
1328
1332
1336
1340
1344
1348
1352
1356
1360
1364
1368
1372
1376
1380
1384
1388
1392
1396
1400
1404
1408
1412
1416
1420
1424
1428
1432
1436
1440
1444
1448
1452
1456
1460
1464
1468
1472
1476
1480
1484
1488
1492
1496
1500
1504
1508
1512
1516
1520
1524
1528
1532
1536
1540
1544
1548
1552
1556
1560
1564
1568
1572
1576
1580
1584
1588
1592
1596
1600
1604
1608
1612
1616
1620
1624
1628
1632
1636
1640
1644
1648
1652
1656
1660
1664
1668
1672
1676
1680
1684
1688
1692
1696
1700
1704
1708
1712
1716
1720
1724
1728
1732
1736
1740
1744
1748
1752
1756
1760
1764
1768
1772
1776
1780
1784
1788
1792
1796
1800
1804
1808
1812
1816
1820
1824
1828
1832
1836
1840
1844
1848
1852
1856
1860
1864
1868
1872
1876
1880
1884
1888
1892
1896
1900
1904
1908
1912
1916
1920
1924
1928
1932
1936
1940
1944
1948
1952
1956
1960
1964
1968
1972
1976
1980
1984
1988
1992
1996
2000
2004
2008
2012
2016
2020
2024
2028
2032
2036
2040
2044
2048
2052
2056
2060
2064
2068
2072
2076
2080
2084
2088
2092
2096
2100
2104
2108
2112
2116
2120
2124
2128
2132
2136
2140
2144
2148
2152
2156
2160
2164
2168
2172
2176
2180
2184
2188
2192
2196
2200
2204
2208
2212
2216
2220
2224
2228
2232
2236
2240
2244
2248
2252
2256
2260
2264
2268
2272
2276
2280
2284
2288
2292
2296
2300
2304
2308
2312
2316
2320
2324
2328
2332
2336
2340
2344
2348
2352
2356
2360
2364
2368
2372
2376
2380
2384
2388
2392
2396
2400
2404
2408
2412
2416
2420
2424
2428
2432
2436
2440
2444
2448
2452
2456
2460
2464
2468
2472
2476
2480
2484
2488
2492
2496
2500
2504
2508
2512
2516
2520
2524
2528
2532
2536
2540
2544
2548
2552
2556
2560
2564
2568
2572
2576
2580
2584
2588
2592
2596
2600
2604
2608
2612
2616
2620
2624
2628
2632
2636
2640
2644
2648
2652
2656
2660
2664
2668
2672
2676
2680
2684
2688
2692
2696
2700
2704
2708
2712
2716
2720
2724
2728
2732
2736
2740
2744
2748
2752
2756
2760
2764
2768
2772
2776
2780
2784
2788
2792
2796
2800
2804
2808
2812
2816
2820
2824
2828
2832
2836
2840
2844
2848
2852
2856
2860
2864
2868
2872
2876
2880
2884
2888
2892
2896
2900
2904
2908
2912
2916
2920
2924
2928
2932
2936
2940
2944
2948
2952
2956
2960
2964
2968
2972
2976
2980
2984
2988
2992
2996
3000
3004
3008
3012
3016
3020
3024
3028
3032
3036
3040
3044
3048
3052
3056
3060
3064
3068
3072
3076
3080
3084
3088
3092
3096
3100
3104
3108
3112
3116
3120
3124
3128
3132
3136
3140
3144
3148
3152
3156
3160
3164
3168
3172
3176
3180
3184
3188
3192
3196
3200
3204
3208
3212
3216
3220
3224
3228
3232
3236
3240
3244
3248
3252
3256
3260
3264
3268
3272
3276
3280
3284
3288
3292
3296
3300
3304
3308
3312
3316
3320
3324
3328
3332
3336
3340
3344
3348
3352
3356
3360
3364
3368
3372
3376
3380
3384
3388
3392
3396
3400
3404
3408
3412
3416
3420
3424
3428
3432
3436
3440
3444
3448
3452
3456
3460
3464
3468
3472
3476
3480
3484
3488
3492
3496
3500
3504
3508
3512
3516
3520
3524
3528
3532
3536
3540
3544
3548
3552
3556
3560
3564
3568
3572
3576
3580
3584
3588
3592
3596
3600
3604
3608
3612
3616
3620
3624
3628
3632
3636
3640
3644
3648
3652
3656
3660
3664
3668
3672
3676
3680
3684
3688
3692
3696
3700
3704
3708
3712
3716
3720
3724
3728
3732
3736
3740
3744
3748
3752
3756
3760
3764
3768
3772
3776
3780
3784
3788
3792
3796
3800
3804
3808
3812
3816
3820
3824
3828
3832
3836
3840
3844
3848
3852
3856
3860
3864
3868
3872
3876
3880
3884
3888
3892
3896
3900
3904
3908
3912
3916
3920
3924
3928
3932
3936
3940
3944
3948
3952
3956
3960
3964
3968
3972
3976
3980
3984
3988
3992
3996
4000
4004
4008
4012
4016
4020
4024
4028
4032
4036
4040
4044
4048
4052
4056
4060
4064
4068
4072
4076
4080
4084
4088
4092
4096
4100
4104
4108
4112
4116
4120
4124
4128
4132
4136
4140
4144
4148
4152
4156
4160
4164
4168
4172
4176
4180
4184
4188
4192
4196
4200
4204
4208
4212
4216
4220
4224
4228
4232
4236
4240
4244
4248
4252
4256
4260
4264
4268
4272
4276
4280
4284
4288
4292
4296
4300
4304
4308
4312
4316
4320
4324
4328
4332
4336
4340
4344
4348
4352
4356
4360
4364
4368
4372
4376
4380
4384
4388
4392
4396
4400
4404
4408
4412
4416
4420
4424
4428
4432
4436
4440
4444
4448
4452
4456
4460
4464
4468
4472
4476
4480
4484
4488
4492
4496
4500
4504
4508
4512
4516
4520
4524
4528
4532
4536
4540
4544
4548
4552
4556
4560
4564
4568
4572
4576
4580
4584
4588
4592
4596
4600
4604
4608
4612
4616
4620
4624
4628
4632
4636
4640
4644
4648
4652
4656
4660
4664
4668
4672
4676
4680
4684
4688
4692
4696
4700
4704
4708
4712
4716
4720
4724
4728
4732
4736
4740
4744
4748
4752
4756
4760
4764
4768
4772
4776
4780
4784
4788
4792
4796
4800
4804
4808
4812
4816
4820
4824
4828
4832
4836
4840
4844
4848
4852
4856
4860
4864
4868
4872
4876
4880
4884
4888
4892
4896
4900
4904
4908
4912
4916
4920
4924
4928
4932
4936
4940
4944
4948
4952
4956
4960
4964
4968
4972
4976
4980
4984
4988
4992
4996
5000
5004
5008
5012
5016
5020
5024
5028
5032
5036
5040
5044
5048
5052
5056
5060
5064
5068
5072
5076
5080
5084
5088
5092
5096
5100
5104
5108
5112
5116
5120
5124
5128
5132
5136
5140
5144
5148
5152
5156
5160
5164
5168
5172
5176
5180
5184
5188
5192
5196
5200
5204
5208
5212
5216
5220
5224
5228
5232
5236
5240
5244
5248
5252
5256
5260
5264
5268
5272
5276
5280
5284
5288
5292
5296
5300
5304
5308
5312
5316
5320
5324
5328
5332
5336
5340
5344
5348
5352
5356
5360
5364
5368
5372
5376
5380
5384
5388
5392
5396
5400
5404
5408
5412
5416
5420
5424
5428
5432
5436
5440
5444
5448
5452
5456
5460
5464
5468
5472
5476
5480
5484
5488
5492
5496
5500
5504
5508
5512
5516
5520
5524
5528
5532
5536
5540
5544
5548
5552
5556
5560
5564
5568
5572
5576
5580
5584
5588
5592
5596
5600
5604
5608
5612
5616
5620
5624
5628
5632
5636
5640
5644
5648
5652
5656
5660
5664
5668
5672
5676
5680
5684
5688
5692
5696
5700
5704
5708
5712
5716
5720
5724
5728
5732
5736
5740
5744
5748
5752
5756
5760
5764
5768
5772
5776
5780
5784
5788
5792
5796
5800
5804
5808
5812
5816
5820
5824
5828
5832
5836
5840
5844
5848
5852
5856
5860
5864
5868
5872
5876
5880
5884
5888
5892
5896
5900
5904
5908
5912
5916
5920
5924
5928
5932
5936
5940
5944
5948
5952
5956
5960
5964
5968
5972
5976
5980
5984
5988
5992
5996
6000
6004
6008
6012
6016
6020
6024
6028
6032
6036
6040
6044
6048
6052
6056
6060
6064
6068
6072
6076
6080
6084
6088
6092
6096
6100
6104
6108
6112
6116
6120
6124
6128
6132
6136
6140
6144
6148
6152
6156
6160
6164
6168
6172
6176
6180
6184
6188
6192
6196
6200
6204
6208
6212
6216
6220
6224
6228
6232
6236
6240
6244
6248
6252
6256
6260
6264
6268
6272
6276
6280
6284
6288
6292
6296
6300
6304
6308
6312
6316
6320
6324
6328
6332
6336
6340
6344
6348
6352
6356
6360
6364
6368
6372
6376
6380
6384
6388
6392
6396
6400
6404
6408
6412
6416
6420
6424
6428
6432
6436
6440
6444
6448
6452
6456
6460
6464
6468
6472
6476
6480
6484
6488
6492
6496
6500
6504
6508
6512
6516
6520
6524
6528
6532
6536
6540
6544
6548
6552
6556
6560
6564
6568
6572
6576
6580
6584
6588
6592
6596
6600
6604
6608
6612
6616
6620
6624
6628
6632
6636
6640
6644
6648
6652
6656
6660
6664
6668
6672
6676
6680
6684
6688
6692
6696
6700
6704
6708
6712
6716
6720
6724
6728
6732
6736
6740
6744
6748
6752
6756
6760
6764
6768
6772
6776
6780
6784
6788
6792
6796
6800
6804
6808
6812
6816
6820
6824
6828
6832
6836
6840
6844
6848
6852
6856
6860
6864
6868
6872
6876
6880
6884
6888
6892
6896
6900
6904
6908
6912
6916
6920
6924
6928
6932
6936
6940
6944
6948
6952
6956
6960
6964
6968
6972
6976
6980
6984
6988
6992
6996
7000
7004
7008
7012
7016
7020
7024
7028
7032
7036
7040
7044
7048
7052
7056
7060
7064
7068
7072
7076
7080
7084
7088
7092
7096
7100
7104
7108
7112
7116
7120
7124
7128
7132
7136
7140
7144
7148
7152
7156
7160
7164
7168
7172
7176
7180
7184
7188
7192
7196
7200
7204
7208
7212
7216
7220
7224
7228
7232
7236
7240
7244
7248
7252
7256
7260
7264
7268
7272
7276
7280
7284
7288
7292
7296
7300
7304
7308
7312
7316
7320
7324
7328
7332
7336
7340
7344
7348
7352
7356
7360
7364
7368
7372
7376
7380
7384
7388
7392
7396
7400
7404
7408
7412
7416
7420
7424
7428
7432
7436
7440
7444
7448
7452
7456
7460
7464
7468
7472
7476
7480
7484
7488
7492
7496
7500
7504
7508
7512
7516
7520
7524
7528
7532
7536
7540
7544
7548
7552
7556
7560
7564
7568
7572
7576
7580
7584
7588
7592
7596
7600
7604
7608
7612
7616
7620
7624
7628
7632
7636
7640
7644
7648
7652
7656
7660
7664
7668
7672
7676
7680
7684
7688
7692
7696
7700
7704
7708
7712
7716
7720
7724
7728
7732
7736
7740
7744
7748
7752
7756
7760
7764
7768
7772
7776
7780
7784
7788
7792
7796
7800
7804
7808
7812
7816
7820
7824
7828
7832
7836
7840
7844
7848
7852
7856
7860
7864
7868
7872
7876
7880
7884
7888
7892
7896
7900
7904
7908
7912
7916
7920
7924
7928
7932
7936
7940
7944
7948
7952
7956
7960
7964
7968
7972
7976
7980
7984
7988
7992
7996
8000
8004
8008
8012
8016
8020
8024
8028
8032
8036
8040
8044
8048
8052
8056
8060
8064
8068
8072
8076
8080
8084
8088
8092
8096
8100
8104
8108
8112
8116
8120
8124
8128
8132
8136
8140
8144
8148
8152
8156
8160
8164
8168
8172
8176
8180
8184
8188
8192
8196
8200
8204
8208
8212
8216
8220
8224
8228
8232
8236
8240
8244
8248
8252
8256
8260
8264
8268
8272
8276
8280
8284
8288
8292
8296
8300
8304
8308
8312
8316
8320
8324
8328
8332
8336
8340
8344
8348
8352
8356
8360
8364
8368
8372
8376
8380
8384
8388
8392
8396
8400
8404
8408
8412
8416
8420
8424
8428
8432
8436
8440
8444
8448
8452
8456
8460
8464
8468
8472
8476
8480
8484
8488
8492
8496
8500
8504
8508
8512
8516
8520
8524
8528
8532
8536
8540
8544
8548
8552
8556
8560
8564
8568
8572
8576
8580
8584
8588
8592
8596
8600
8604
8608
8612
8616
8620
8624
8628
8632
8636
8640
8644
8648
8652
8656
8660
8664
8668
8672
8676
8680
8684
8688
8692
8696
8700
8704
8708
8712
8716
8720
8724
8728
8732
8736
8740
8744
8748
8752
8756
8760
8764
8768
8772
8776
8780
8784
8788
8792
8796
8800
8804
8808
8812
8816
8820
8824
8828
8832
8836
8840
8844
8848
8852
8856
8860
8864
8868
8872
8876
8880
8884
8888
8892
8896
8900
8904
8908
8912
8916
8920
8924
8928
8932
8936
8940
8944
8948
8952
8956
8960
8964
8968
8972
8976
8980
8984
8988
8992
8996
9000
9004
9008
9012
9016
9020
9024
9028
9032
9036
9040
9044
9048
9052
9056
9060
9064
9068
9072
9076
9080
9084
9088
9092
9096
9100
9104
9108
9112
9116
9120
9124
9128
9132
9136
9140
9144
9148
9152
9156
9160
9164
9168
9172
9176
9180
9184
9188
9192
9196
9200
9204
9208
9212
9216
9220
9224
9228
9232
9236
9240
9244
9248
9252
9256
9260
9264
9268
9272
9276
9280
9284
9288
9292
9296
9300
9304
9308
9312
9316
9320
9324
9328
9332
9336
9340
9344
9348
9352
9356
9360
9364
9368
9372
9376
9380
9384
9388
9392
9396
9400
9404
9408
9412
9416
9420
9424
9428
9432
9436
9440
9444
9448
9452
9456
9460
9464
9468
9472
9476
9480
9484
9488
9492
9496
9500
9504
9508
9512
9516
9520
9524
9528
9532
9536
9540
9544
9548
9552
9556
9560
9564
9568
9572
9576
9580
9584
9588
9592
9596
9600
9604
9608
9612
9616
9620
9624
9628
9632
9636
9640
9644
9648
9652
9656
9660
9664
9668
9672
9676
9680
9684
9688
9692
9696
9700
9704
9708
9712
9716
9720
9724
9728
9732
9736
9740
9744
9748
9752
9756
9760
9764
9768
9772
9776
9780
9784
9788
9792
9796
9800
9804
9808
9812
9816
9820
9824
9828
9832
9836
9840
9844
9848
9852
9856
9860
9864
9868
9872
9876
9880
9884
9888
9892
9896
9900
9904
9908
9912
9916
9920
9924
9928
9932
9936
9940
9944
9948
9952
9956
9960
9964
9968
9972
9976
9980
9984
9988
9992
9996
10000
10004
10008
10012
10016
10020
10024
10028
10032
10036
10040
10044
10048
10052
10056
10060
10064
10068
10072
10076
10080
10084
10088
10092
10096
10100
10104
10108
10112
10116
10120
10124
10128
10132
10136
10140
10144
10148
10152
10156
10160
10164
10168
10172
10176
10180
10184
10188
10192
10196
10200
10204
10208
10212
10216
10220
10224
10228
10232
10236
10240
10244
10248
10252
10256
10260
10264
10268
10272
10276
10280
10284
10288
10292
10296
10300
10304
10308
10312
10316
10320
10324
10328
10332
10336
10340
10344
10348
10352
10356
10360
10364
10368
10372
10376
10380
10384
10388
10392
10396
10400
10404
10408
10412
10416
10420
10424
10428
10432
10436
10440
10444
10448
10452
10456
10460
10464
10468
10472
10476
10480
10484
10488
10492
10496
10500
10504
10508
10512
10516
10520
10524
10528
10532
10536
10540
10544
10548
10552
10556
10560
10564
10568
10572
10576
10580
10584
10588
10592
10596
10600
10604
10608
10612
10616
10620
10624
10628
10632
10636
10640
10644
10648
10652
10656
10660
10664
10668
10672
10676
10680
10684
10688
10692
10696
10700
10704
10708
10712
10716
10720
10724
10728
10732
10736
10740
10744
10748
10752
10756
10760
10764
10768
10772
10776
10780
10784
10788
10792
10796
10800
10804
10808
10812
10816
10820
10824
10828
10832
10836
10840
10844
10848
10852
10856
10860
10864
10868
10872
10876
10880
10884
10888
10892
10896
10900
10904
10908
10912
10916
10920
10924
10928
10932
10936
10940
10944
10948
10952
10956
10960
10964
10968
10972
10976
10980
10984
10988
10992
10996
11000
11004
11008
11012
11016
11020
11024
11028
11032
11036
11040
11044
11048
11052
11056
11060
11064
11068
11072
11076
11080
11084
11088
11092
11096
11100
11104
11108
11112
11116
11120
11124
11128
11132
11136
11140
11144
11148
11152
11156
11160
11164
11168
11172
11176
11180
11184
11188
11192
11196
11200
11204
11208
11212
11216
11220
11224
11228
11232
11236
11240
11244
11248
11252
11256
11260
11264
11268
11272
11276
11280
11284
11288
11292
11296
11300
11304
11308
11312
11316
11320
11324
11328
11332
11336
11340
11344
11348
11352
11356
11360
11364
11368
11372
11376
11380
11384
11388
11392
11396
11400
11404
11408
11412
11416
11420
11424
11428
11432
11436
11440
11444
11448
11452
11456
11460
11464
11468
11472
11476
11480
11484
11488
11492
11496
11500
11504
11508
11512
11516
11520
11524
11528
11532
11536
11540
11544
11548
11552
11556
11560
11564
11568
11572
11576
11580
11584
11588
11592
11596
11600
11604
11608
11612
11616
11620
11624
11628
11632
11636
11640
11644
11648
11652
11656
11660
11664
11668
11672
11676
11680
11684
11688
11692
11696
11700
11704
11708
11712
11716
11720
11724
11728
11732
11736
11740
11744
11748
11752
11756
11760
11764
11768
11772
11776
11780
11784
11788
11792
11796
11800
11804
11808
11812
11816
11820
11824
11828
11832
11836
11840
11844
11848
11852
11856
11860
11864
11868
11872
11876
11880
11884
11888
11892
11896
11900
11904
11908
11912
11916
11920
11924
11928
11932
11936
11940
11944
11948
11952
11956
11960
11964
11968
11972
11976
11980
11984
11988
11992
11996
12000
12004
12008
12012
12016
12020
12024
12028
12032
12036
12040
12044
12048
12052
12056
12060
12064
12068
12072
12076
12080
12084
12088
12092
12096
12100
12104
12108
12112
12116
12120
12124
12128
12132
12136
12140
12144
12148
12152
12156
12160
12164
12168
12172
12176
12180
12184
12188
12192
12196
12200
12204
12208
12212
12216
12220
12224
12228
12232
12236
12240
12244
12248
12252
12256
12260
12264
12268
12272
12276
12280
12284
12288
12292
12296
12300
12304
12308
12312
12316
12320
12324
12328
12332
12336
12340
12344
12348
12352
12356
12360
12364
12368
12372
12376
12380
12384
12388
12392
12396
12400
12404
12408
12412
12416
12420
12424
12428
12432
12436
12440
12444
12448
12452
12456
12460
12464
12468
12472
12476
12480
12484
12488
12492
12496
12500
12504
12508
12512
12516
12520
12524
12528
12532
12536
12540
12544
12548
12552
12556
12560
12564
12568
12572
12576
12580
12584
12588
12592
12596
12600
12604
12608
12612
12616
12620
12624
12628
12632
12636
12640
12644
12648
12652
12656
12660
12664
12668
12672
12676
12680
12684
12688
12692
12696
12700
12704
12708
12712
12716
12720
12724
12728
12732
12736
12740
12744
12748
12752
12756
12760
12764
12768
12772
12776
12780
12784
12788
12792
12796
12800
12804
12808
12812
12816
12820
12824
12828
12832
12836
12840
12844
12848
12852
12856
12860
12864
12868
12872
12876
12880
12884
12888
12892
12896
12900
12904
12908
12912
12916
12920
12924
12928
12932
12936
12940
12944
12948
12952
12956
12960
12964
12968
12972
12976
12980
12984
12988
12992
12996
13000
13004
13008
13012
13016
13020
13024
13028
13032
13036
13040
13044
13048
13052
13056
13060
13064
13068
13072
13076
13080
13084
13088
13092
13096
13100
13104
13108
13112
13116
13120
13124
13128
13132
13136
13140
13144
13148
13152
13156
13160
13164
13168
13172
13176
13180
13184
13188
13192
13196
13200
13204
13208
13212
13216
13220
13224
13228
13232
13236
13240
13244
13248
13252
13256
13260
13264
13268
13272
13276
13280
13284
13288
13292
13296
13300
13304
13308
13312
13316
13320
13324
13328
13332
13336
13340
13344
13348
13352
13356
13360
13364
13368
13372
13376
13380
13384
13388
13392
13396
13400
13404
13408
13412
13416
13420
13424
13428
13432
13436
13440
13444
13448
13452
13456
13460
13464
13468
13472
13476
13480
13484
13488
13492
13496
13500
13504
13508
13512
13516
13520
13524
13528
13532
13536
13540
13544
13548
13552
13556
13560
13564
13568
13572
13576
13580
13584
13588
13592
13596
13600
13604
13608
13612
13616
13620
13624
13628
13632
13636
13640
13644
13648
13652
13656
13660
13664
13668
13672
13676
13680
13684
13688
13692
13696
13700
13704
13708
13712
13716
13720
13724
13728
13732
13736
13740
13744
13748
13752
13756
13760
13764
13768
13772
13776
13780
13784
13788
13792
13796
13800
13804
13808
13812
13816
13820
13824
13828
13832
13836
13840
13844
13848
13852
13856
13860
13864
13868
13872
13876
13880
13884
13888
13892
13896
13900
13904
13908
13912
13916
13920
13924
13928
13932
13936
13940
13944
13948
13952
13956
13960
13964
13968
13972
13976
13980
13984
13988
13992
13996
14000
14004
14008
14012
14016
14020
14024
14028
14032
14036
14040
14044
14048
14052
14056
14060
14064
14068
14072
14076
14080
14084
14088
14092
14096
14100
14104
14108
14112
14116
14120
14124
14128
14132
14136
14140
14144
14148
14152
14156
14160
14164
14168
14172
14176
14180
14184
14188
14192
14196
14200
14204
14208
14212
14216
14220
14224
14228
14232
14236
14240
14244
14248
14252
14256
14260
14264
14268
14272
14276
14280
14284
14288
14292
14296
14300
14304
14308
14312
14316
14320
14324
14328
14332
14336
14340
14344
14348
14352
14356
14360
14364
14368
14372
14376
14380
14384
14388
14392
14396
14400
14404
14408
14412
14416
14420
14424
14428
14432
14436
14440
14444
14448
14452
14456
14460
14464
14468
14472
14476
14480
14484
14488
14492
14496
14500
14504
14508
14512
14516
14520
14524
14528
14532
14536
14540
14544
14548
14552
14556
14560
14564
14568
14572
14576
14580
14584
14588
14592
14596
14600
14604
14608
14612
14616
14620
14624
14628
14632
14636
14640
14644
14648
14652
14656
14660
14664
14668
14672
14676
14680
14684
14688
14692
14696
14700
14704
14708
14712
14716
14720
14724
14728
14732
14736
14740
14744
14748
14752
14756
14760
14764
14768
14772
14776
14780
14784
14788
14792
14796
14800
14804
14808
14812
14816
14820
14824
14828
14832
14836
14840
14844
14848
14852
14856
14860
14864
14868
14872
14876
14880
14884
14888
14892
14896
14900
14904
14908
14912
14916
14920
14924
14928
14932
14936
14940
14944
14948
14952
14956
14960
14964
14968
14972
14976
14980
14984
14988
14992
14996
15000
15004
15008
15012
15016
15020
15024
15028
15032
15036
15040
15044
15048
15052
15056
15060
15064
15068
15072
15076
15080
15084
15088
15092
15096
15100
15104
15108
15112
15116
15120
15124
15128
15132
15136
15140
15144
15148
15152
15156
15160
15164
15168
15172
15176
15180
15184
15188
15192
15196
15200
15204
15208
15212
15216
15220
15224
15228
15232
15236
15240
15244
15248
15252
15256
15260
15264
15268
15272
15276
15280
15284
15288
15292
15296
15300
15304
15308
15312
15316
15320
15324
15328
15332
15336
15340
15344
15348
15352
15356
15360
15364
15368
15372
15376
15380
15384
15388
15392
15396
15400
15404
15408
15412
15416
15420
15424
15428
15432
15436
15440
15444
15448
15452
15456
15460
15464
15468
15472
15476
15480
15484
15488
15492
15496
15500
15504
15508
15512
15516
15520
15524
15528
15532
15536
15540
15544
15548
15552
15556
15560
15564
15568
15572
15576
15580
15584
15588
15592
15596
15600
15604
15608
15612
15616
15620
15624
15628
15632
15636
15640
15644
15648
15652
15656
15660
15664
15668
15672
15676
15680
15684
15688
15692
15696
15700
15704
15708
15712
15716
15720
15724
15728
15732
15736
15740
15744
15748
15752
15756
15760
15764
15768
15772
15776
15780
15784
15788
15792
15796
15800
15804
15808
15812
15816
15820
15824
15828
15832
15836
15840
15844
15848
15852
15856
15860
15864
15868
15872
15876
15880
15884
15888
15892
15896
15900
15904
15908
15912
15916
15920
15924
15928
15932
15936
15940
15944
15948
15952
15956
15960
15964
15968
15972
15976
15980
15984
15988
15992
15996
16000
16004
16008
16012
16016
16020
16024
16028
16032
16036
16040
16044
16048
16052
16056
16060
16064
16068
16072
16076
16080
16084
16088
16092
16096
16100
16104
16108
16112
16116
16120
16124
16128
16132
16136
16140
16144
16148
16152
16156
16160
16164
16168
16172
16176
16180
16184
16188
16192
16196
16200
16204
16208
16212
16216
16220
16224
16228
16232
16236
16240
16244
16248
16252
16256
16260
16264
16268
16272
16276
16280
16284
16288
16292
16296
16300
16304
16308
16312
16316
16320
16324
16328
16332
16336
16340
16344
16348
16352
16356
16360
16364
16368
16372
16376
16380
16384
16388
16392
16396
16400
16404
16408
16412
16416
16420
16424
16428
16432
16436
16440
16444
16448
16452
16456
16460
16464
16468
16472
16476
16480
16484
16488
16492
16496
16500
16504
16508
16512
16516
16520
16524
16528
16532
16536
16540
16544
16548
16552
16556
16560
16564
16568
16572
16576
16580
16584
16588
16592
16596
16600
16604
16608
16612
16616
16620
16624
16628
16632
16636
16640
16644
16648
16652
16656
16660
16664
16668
16672
16676
16680
16684
16688
16692
16696
16700
16704
16708
16712
16716
16720
16724
16728
16732
16736
16740
16744
16748
16752
16756
16760
16764
16768
16772
16776
16780
16784
16788
16792
16796
16800
16804
16808
16812
16816
16820
16824
16828
16832
16836
16840
16844
16848
16852
16856
16860
16864
16868
16872
16876
16880
16884
16888
16892
16896
16900
16904
16908
16912
16916
16920
16924
16928
16932
16936
16940
16944
16948
16952
16956
16960
16964
16968
16972
16976
16980
16984
16988
16992
16996
17000
17004
17008
17012
17016
17020
17024
17028
17032
17036
17040
17044
17048
17052
17056
17060
17064
17068
17072
17076
17080
17084
17088
17092
17096
17100
17104
17108
17112
17116
17120
17124
17128
17132
17136
17140
17144
17148
17152
17156
17160
17164
17168
17172
17176
17180
17184
17188
17192
17196
17200
17204
17208
17212
17216
17220
17224
17228
17232
17236
17240
17244
17248
17252
17256
17260
17264
17268
17272
17276
17280
17284
17288
17292
17296
17300
17304
17308
17312
17316
17320
17324
17328
17332
17336
17340
17344
17348
17352
17356
17360
17364
17368
17372
17376
17380
17384
17388
17392
17396
17400
17404
17408
17412
17416
17420
17424
17428
17432
17436
17440
17444
17448
17452
17456
17460
17464
17468
17472
17476
17480
17484
17488
17492
17496
17500
17504
17508
17512
17516
17520
17524
17528
17532
17536
17540
17544
17548
17552
17556
17560
17564
17568
17572
17576
17580
17584
17588
17592
17596
17600
17604
17608
17612
17616
17620
17624
17628
17632
17636
17640
17644
17648
17652
17656
17660
17664
17668
17672
17676
17680
17684
17688
17692
17696
17700
17704
17708
17712
17716
17720
17724
17728
17732
17736
17740
17744
17748
17752
17756
17760
17764
17768
17772
17776
17780
17784
17788
17792
17796
17800
17804
17808
17812
17816
17820
17824
17828
17832
17836
17840
17844
17848
17852
17856
17860
17864
17868
17872
17876
17880
17884
17888
17892
17896
17900
17904
17908
17912
17916
17920
17924
17928
17932
17936
17940
17944
17948
17952
17956
17960
17964
17968
17972
17976
17980
17984
17988
17992
17996
18000
18004
18008
18012
18016
18020
18024
18028
18032
18036
18040
18044
18048
18052
18056
18060
18064
18068
18072
18076
18080
18084
18088
18092
18096
18100
18104
18108
18112
18116
18120
18124
18128
18132
18136
18140
18144
18148
18152
18156
18160
18164
18168
18172
18176
18180
18184
18188
18192
18196
18200
18204
18208
18212
18216
18220
18224
18228
18232
18236
18240
18244
18248
18252
18256
18260
18264
18268
18272
18276
18280
18284
18288
18292
18296
18300
18304
18308
18312
18316
18320
18324
18328
18332
18336
18340
18344
18348
18352
18356
18360
18364
18368
18372
18376
18380
18384
18388
18392
18396
18400
18404
18408
18412
18416
18420
18424
18428
18432
18436
18440
18444
18448
18452
18456
18460
18464
18468
18472
18476
18480
18484
18488
18492
18496
18500
18504
18508
18512
18516
18520
18524
18528
18532
18536
18540
18544
18548
18552
18556
18560
18564
18568
18572
18576
18580
18584
18588
18592
18596
18600
18604
18608
18612
18616
18620
18624
18628
18632
18636
18640
18644
18648
18652
18656
18660
18664
18668
18672
18676
18680
18684
18688
18692
18696
18700
18704
18708
18712
18716
18720
18724
18728
18732
18736
18740
18744
18748
18752
18756
18760
18764
18768
18772
18776
18780
18784
18788
18792
18796
18800
18804
18808
18812
18816
18820
18824
18828
18832
18836
18840
18844
18848
18852
18856
18860
18864
18868
18872
18876
18880
18884
18888
18892
18896
18900
18904
18908
18912
18916
18920
18924
18928
18932
18936
18940
18944
18948
18952
18956
18960
18964
18968
18972
18976
18980
18984
18988
18992
18996
19000
19004
19008
19012
19016
19020
19024
19028
19032
19036
19040
19044
19048
19052
19056
19060
19064
19068
19072
19076
19080
19084
19088
19092
19096
19100
19104
19108
19112
19116
19120
19124
19128
19132
19136
19140
19144
19148
19152
19156
19160
19164
19168
19172
19176
19180
19184
19188
19192
19196
19200
19204
19208
19212
19216
19220
19224
19228
19232
19236
19240
19244
19248
19252
19256
19260
19264
19268
19272
19276
19280
19284
19288
19292
19296
19300
19304
19308
19312
19316
19320
19324
19328
19332
19336
19340
19344
19348
19352
19356
19360
19364
19368
19372
19376
19380
19384
19388
19392
19396
19400
19404
19408
19412
19416
19420
19424
19428
19432
19436
19440
19444
19448
19452
19456
19460
19464
19468
19472
19476
19480
19484
19488
19492
19496
19500
19504
19508
19512
19516
19520
19524
19528
19532
19536
19540
19544
19548
19552
19556
19560
19564
19568
19572
19576
19580
19584
19588
19592
19596
19600
19604
19608
19612
19616
19620
19624
19628
19632
19636
19640
19644
19648
19652
19656
19660
19664
19668
19672
19676
19680
19684
19688
19692
19696
19700
19704
19708
19712
19716
19720
19724
19728
19732
19736
19740
19744
19748
19752
19756
19760
19764
19768
19772
19776
19780
19784
19788
19792
19796
19800
19804
19808
19812
19816
19820
19824
19828
19832
19836
19840
19844
19848
19852
19856
19860
19864
19868
19872
19876
19880
19884
19888
19892
19896
19900
19904
19908
19912
19916
19920
19924
19928
19932
19936
19940
19944
19948
19952
19956
19960
19964
19968
19972
19976
19980
19984
19988
19992
19996
20000
20004
20008
20012
20016
20020
20024
20028
20032
20036
20040
20044
20048
20052
20056
20060
20064
20068
20072
20076
20080
20084
20088
20092
20096
20100
20104
20108
20112
20116
20120
20124
20128
20132
20136
20140
20144
20148
20152
20156
20160
20164
20168
20172
20176
20180
20184
20188
20192
20196
20200
20204
20208
20212
20216
20220
20224
20228
20232
20236
20240
20244
20248
20252
20256
20260
20264
20268
20272
20276
20280
20284
20288
20292
20296
20300
20304
20308
20312
20316
20320
20324
20328
20332
20336
20340
20344
20348
20352
20356
20360
20364
20368
20372
20376
20380
20384
20388
20392
20396
20400
20404
20408
20412
20416
20420
20424
20428
20432
20436
20440
20444
20448
20452
20456
20460
20464
20468
20472
20476
20480
20484
20488
20492
20496
20500
20504
20508
20512
20516
20520
20524
20528
20532
20536
20540
20544
20548
20552
20556
20560
20564
20568
20572
20576
20580
20584
20588
20592
20596
20600
20604
20608
20612
20616
20620
20624
20628
20632
20636
20640
20644
20648
20652
20656
20660
20664
20668
20672
20676
20680
20684
20688
20692
20696
20700
20704
20708
20712
20716
20720
20724
20728
20732
20736
20740
20744
20748
20752
20756
20760
20764
20768
20772
20776
20780
20784
20788
20792
20796
20800
20804
20808
20812
20816
20820
20824
20828
20832
20836
20840
20844
20848
20852
20856
20860
20864
20868
20872
20876
20880
20884
20888
20892
20896
20900
20904
20908
20912
20916
20920
20924
20928
20932
20936
20940
20944
20948
20952
20956
20960
20964
20968
20972
20976
20980
20984
20988
20992
20996
21000
21004
21008
21012
21016
21020
21024
21028
21032
21036
21040
21044
21048
21052
21056
21060
21064
21068
21072
21076
21080
21084
21088
21092
21096
21100
21104
21108
21112
21116
21120
21124
21128
21132
21136
21140
21144
21148
21152
21156
21160
21164
21168
21172
21176
21180
21184
21188
21192
21196
21200
21204
21208
21212
21216
21220
21224
21228
21232
21236
21240
21244
21248
21252
21256
21260
21264
21268
21272
21276
21280
21284
21288
21292
21296
21300
21304
21308
21312
21316
21320
21324
21328
21332
21336
21340
21344
21348
21352
21356
21360
21364
21368
21372
21376
21380
21384
21388
21392
21396
21400
21404
21408
21412
21416
21420
21424
21428
21432
21436
21440
21444
21448
21452
21456
21460
21464
21468
21472
21476
21480
21484
21488
21492
21496
21500
21504
21508
21512
21516
21520
21524
21528
21532
21536
21540
21544
21548
21552
21556
21560
21564
21568
21572
21576
21580
21584
21588
21592
21596
21600
21604
21608
21612
21616
21620
21624
21628
21632
21636
21640
21644
21648
21652
21656
21660
21664
21668
21672
21676
21680
21684
21688
21692
21696
21700
21704
21708
21712
21716
21720
21724
21728
21732
21736
21740
21744
21748
21752
21756
21760
21764
21768
21772
21776
21780
21784
21788
21792
21796
21800
21804
21808
21812
21816
21820
21824
21828
21832
21836
21840
21844
21848
21852
21856
21860
21864
21868
21872
21876
21880
21884
21888
21892
21896
21900
21904
21908
21912
21916
21920
21924
21928
21932
21936
21940
21944
21948
21952
21956
21960
21964
21968
21972
21976
21980
21984
21988
21992
21996
22000
22004
22008
22012
22016
22020
22024
22028
22032
22036
22040
22044
22048
22052
22056
22060
22064
22068
22072
22076
22080
22084
22088
22092
22096
22100
22104
22108
22112
22116
22120
22124
22128
22132
22136
22140
22144
22148
22152
22156
22160
22164
22168
22172
22176
22180
22184
22188
22192
22196
22200
22204
22208
22212
22216
22220
22224
22228
22232
22236
22240
22244
22248
22252
22256
22260
22264
22268
22272
22276
22280
22284
22288
22292
22296
22300
22304
22308
22312
22316
22320
22324
22328
22332
22336
22340
22344
22348
22352
22356
22360
22364
22368
22372
22376
22380
22384
22388
22392
22396
22400
22404
22408
22412
22416
22420
22424
22428
22432
22436
22440
22444
22448
22452
22456
22460
22464
22468
22472
22476
22480
22484
22488
22492
22496
22500
22504
22508
22512
22516
22520
22524
22528
22532
22536
22540
22544
22548
22552
22556
22560
22564
22568
22572
22576
22580
22584
22588
22592
22596
22600
22604
22608
22612
22616
22620
22624
22628
22632
22636
22640
22644
22648
22652
22656
22660
22664
22668
22672
22676
22680
22684
22688
22692
22696
22700
22704
22708
22712
22716
22720
</DataArray>
<DataArray type="Int64" Name="types" format="ascii">
9
9
9
9
9
9
9
9
9
9
9
9
9
9
9
9
9
9
9
9
9
9
9
9
9
9
9
9
9
9
9
9
9
9
9
9
9
9
9
9
9
9
9
9
9
9
9
9
9
9
9
9
9
9
9
9
9
9
9
9
9
9
9
9
9
9
9
9
9
9
9
9
9
9
9
9
9
9
9
9
9
9
9
9
9
9
9
9
9
9
9
9
9
9
9
9
9
9
9
9
9
9
9
9
9
9
9
9
9
9
9
9
9
9
9
9
9
9
9
9
9
9
9
9
9
9
9
9
9
9
9
9
9
9
9
9
9
9
9
9
9
9
9
9
9
9
9
9
9
9
9
9
9
9
9
9
9
9
9
9
9
9
9
9
9
9
9
9
9
9
9
9
9
9
9
9
9
9
9
9
9
9
9
9
9
9
9
9
9
9
9
9
9
9
9
9
9
9
9
9
9
9
9
9
9
9
9
9
9
9
9
9
9
9
9
9
9
9
9
9
9
9
9
9
9
9
9
9
9
9
9
9
9
9
9
9
9
9
9
9
9
9
9
9
9
9
9
9
9
9
9
9
9
9
9
9
9
9
9
9
9
9
9
9
9
9
9
9
9
9
9
9
9
9
9
9
9
9
9
9
9
9
9
9
9
9
9
9
9
9
9
9
9
9
9
9
9
9
9
9
9
9
9
9
9
9
9
9
9
9
9
9
9
9
9
9
9
9
9
9
9
9
9
9
9
9
9
9
9
9
9
9
9
9
9
9
9
9
9
9
9
9
9
9
9
9
9
9
9
9
9
9
9
9
9
9
9
9
9
9
9
9
9
9
9
9
9
9
9
9
9
9
9
9
9
9
9
9
9
9
9
9
9
9
9
9
9
9
9
9
9
9
9
9
9
9
9
9
9
9
9
9
9
9
9
9
9
9
9
9
9
9
9
9
9
9
9
9
9
9
9
9
9
9
9
9
9
9
9
9
9
9
9
9
9
9
9
9
9
9
9
9
9
9
9
9
9
9
9
9
9
9
9
9
9
9
9
9
9
9
9
9
9
9
9
9
9
9
9
9
9
9
9
9
9
9
9
9
9
9
9
9
9
9
9
9
9
9
9
9
9
9
9
9
9
9
9
9
9
9
9
9
9
9
9
9
9
9
9
9
9
9
9
9
9
9
9
9
9
9
9
9
9
9
9
9
9
9
9
9
9
9
9
9
9
9
9
9
9
9
9
9
9
9
9
9
9
9
9
9
9
9
9
9
9
9
9
9
9
9
9
9
9
9
9
9
9
9
9
9
9
9
9
9
9
9
9
9
9
9
9
9
9
9
9
9
9
9
9
9
9
9
9
9
9
9
9
9
9
9
9
9
9
9
9
9
9
9
9
9
9
9
9
9
9
9
9
9
9
9
9
9
9
9
9
9
9
9
9
9
9
9
9
9
9
9
9
9
9
9
9
9
9
9
9
9
9
9
9
9
9
9
9
9
9
9
9
9
9
9
9
9
9
9
9
9
9
9
9
9
9
9
9
9
9
9
9
9
9
9
9
9
9
9
9
9
9
9
9
9
9
9
9
9
9
9
9
9
9
9
9
9
9
9
9
9
9
9
9
9
9
9
9
9
9
9
9
9
9
9
9
9
9
9
9
9
9
9
9
9
9
9
9
9
9
9
9
9
9
9
9
9
9
9
9
9
9
9
9
9
9
9
9
9
9
9
9
9
9
9
9
9
9
9
9
9
9
9
9
9
9
9
9
9
9
9
9
9
9
9
9
9
9
9
9
9
9
9
9
9
9
9
9
9
9
9
9
9
9
9
9
9
9
9
9
9
9
9
9
9
9
9
9
9
9
9
9
9
9
9
9
9
9
9
9
9
9
9
9
9
9
9
9
9
9
9
9
9
9
9
9
9
9
9
9
9
9
9
9
9
9
9
9
9
9
9
9
9
9
9
9
9
9
9
9
9
9
9
9
9
9
9
9
9
9
9
9
9
9
9
9
9
9
9
9
9
9
9
9
9
9
9
9
9
9
9
9
9
9
9
9
9
9
9
9
9
9
9
9
9
9
9
9
9
9
9
9
9
9
9
9
9
9
9
9
9
9
9
9
9
9
9
9
9
9
9
9
9
9
9
9
9
9
9
9
9
9
9
9
9
9
9
9
9
9
9
9
9
9
9
9
9
9
9
9
9
9
9
9
9
9
9
9
9
9
9
9
9
9
9
9
9
9
9
9
9
9
9
9
9
9
9
9
9
9
9
9
9
9
9
9
9
9
9
9
9
9
9
9
9
9
9
9
9
9
9
9
9
9
9
9
9
9
9
9
9
9
9
9
9
9
9
9
9
9
9
9
9
9
9
9
9
9
9
9
9
9
9
9
9
9
9
9
9
9
9
9
9
9
9
9
9
9
9
9
9
9
9
9
9
9
9
9
9
9
9
9
9
9
9
9
9
9
9
9
9
9
9
9
9
9
9
9
9
9
9
9
9
9
9
9
9
9
9
9
9
9
9
9
9
9
9
9
9
9
9
9
9
9
9
9
9
9
9
9
9
9
9
9
9
9
9
9
9
9
9
9
9
9
9
9
9
9
9
9
9
9
9
9
9
9
9
9
9
9
9
9
9
9
9
9
9
9
9
9
9
9
9
9
9
9
9
9
9
9
9
9
9
9
9
9
9
9
9
9
9
9
9
9
9
9
9
9
9
9
9
9
9
9
9
9
9
9
9
9
9
9
9
9
9
9
9
9
9
9
9
9
9
9
9
9
9
9
9
9
9
9
9
9
9
9
9
9
9
9
9
9
9
9
9
9
9
9
9
9
9
9
9
9
9
9
9
9
9
9
9
9
9
9
9
9
9
9
9
9
9
9
9
9
9
9
9
9
9
9
9
9
9
9
9
9
9
9
9
9
9
9
9
9
9
9
9
9
9
9
9
9
9
9
9
9
9
9
9
9
9
9
9
9
9
9
9
9
9
9
9
9
9
9
9
9
9
9
9
9
9
9
9
9
9
9
9
9
9
9
9
9
9
9
9
9
9
9
9
9
9
9
9
9
9
9
9
9
9
9
9
9
9
9
9
9
9
9
9
9
9
9
9
9
9
9
9
9
9
9
9
9
9
9
9
9
9
9
9
9
9
9
9
9
9
9
9
9
9
9
9
9
9
9
9
9
9
9
9
9
9
9
9
9
9
9
9
9
9
9
9
9
9
9
9
9
9
9
9
9
9
9
9
9
9
9
9
9
9
9
9
9
9
9
9
9
9
9
9
9
9
9
9
9
9
9
9
9
9
9
9
9
9
9
9
9
9
9
9
9
9
9
9
9
9
9
9
9
9
9
9
9
9
9
9
9
9
9
9
9
9
9
9
9
9
9
9
9
9
9
9
9
9
9
9
9
9
9
9
9
9
9
9
9
9
9
9
9
9
9
9
9
9
9
9
9
9
9
9
9
9
9
9
9
9
9
9
9
9
9
9
9
9
9
9
9
9
9
9
9
9
9
9
9
9
9
9
9
9
9
9
9
9
9
9
9
9
9
9
9
9
9
9
9
9
9
9
9
9
9
9
9
9
9
9
9
9
9
9
9
9
9
9
9
9
9
9
9
9
9
9
9
9
9
9
9
9
9
9
9
9
9
9
9
9
9
9
9
9
9
9
9
9
9
9
9
9
9
9
9
9
9
9
9
9
9
9
9
9
9
9
9
9
9
9
9
9
9
9
9
9
9
9
9
9
9
9
9
9
9
9
9
9
9
9
9
9
9
9
9
9
9
9
9
9
9
9
9
9
9
9
9
9
9
9
9
9
9
9
9
9
9
9
9
9
9
9
9
9
9
9
9
9
9
9
9
9
9
9
9
9
9
9
9
9
9
9
9
9
9
9
9
9
9
9
9
9
9
9
9
9
9
9
9
9
9
9
9
9
9
9
9
9
9
9
9
9
9
9
9
9
9
9
9
9
9
9
9
9
9
9
9
9
9
9
9
9
9
9
9
9
9
9
9
9
9
9
9
9
9
9
9
9
9
9
9
9
9
9
9
9
9
9
9
9
9
9
9
9
9
9
9
9
9
9
9
9
9
9
9
9
9
9
9
9
9
9
9
9
9
9
9
9
9
9
9
9
9
9
9
9
9
9
9
9
9
9
9
9
9
9
9
9
9
9
9
9
9
9
9
9
9
9
9
9
9
9
9
9
9
9
9
9
9
9
9
9
9
9
9
9
9
9
9
9
9
9
9
9
9
9
9
9
9
9
9
9
9
9
9
9
9
9
9
9
9
9
9
9
9
9
9
9
9
9
9
9
9
9
9
9
9
9
9
9
9
9
9
9
9
9
9
9
9
9
9
9
9
9
9
9
9
9
9
9
9
9
9
9
9
9
9
9
9
9
9
9
9
9
9
9
9
9
9
9
9
9
9
9
9
9
9
9
9
9
9
9
9
9
9
9
9
9
9
9
9
9
9
9
9
9
9
9
9
9
9
9
9
9
9
9
9
9
9
9
9
9
9
9
9
9
9
9
9
9
9
9
9
9
9
9
9
9
9
9
9
9
9
9
9
9
9
9
9
9
9
9
9
9
9
9
9
9
9
9
9
9
9
9
9
9
9
9
9
9
9
9
9
9
9
9
9
9
9
9
9
9
9
9
9
9
9
9
9
9
9
9
9
9
9
9
9
9
9
9
9
9
9
9
9
9
9
9
9
9
9
9
9
9
9
9
9
9
9
9
9
9
9
9
9
9
9
9
9
9
9
9
9
9
9
9
9
9
9
9
9
9
9
9
9
9
9
9
9
9
9
9
9
9
9
9
9
9
9
9
9
9
9
9
9
9
9
9
9
9
9
9
9
9
9
9
9
9
9
9
9
9
9
9
9
9
9
9
9
9
9
9
9
9
9
9
9
9
9
9
9
9
9
9
9
9
9
9
9
9
9
9
9
9
9
9
9
9
9
9
9
9
9
9
9
9
9
9
9
9
9
9
9
9
9
9
9
9
9
9
9
9
9
9
9
9
9
9
9
9
9
9
9
9
9
9
9
9
9
9
9
9
9
9
9
9
9
9
9
9
9
9
9
9
9
9
9
9
9
9
9
9
9
9
9
9
9
9
9
9
9
9
9
9
9
9
9
9
9
9
9
9
9
9
9
9
9
9
9
9
9
9
9
9
9
9
9
9
9
9
9
9
9
9
9
9
9
9
9
9
9
9
9
9
9
9
9
9
9
9
9
9
9
9
9
9
9
9
9
9
9
9
9
9
9
9
9
9
9
9
9
9
9
9
9
9
9
9
9
9
9
9
9
9
9
9
9
9
9
9
9
9
9
9
9
9
9
9
9
9
9
9
9
9
9
9
9
9
9
9
9
9
9
9
9
9
9
9
9
9
9
9
9
9
9
9
9
9
9
9
9
9
9
9
9
9
9
9
9
9
9
9
9
9
9
9
9
9
9
9
9
9
9
9
9
9
9
9
9
9
9
9
9
9
9
9
9
9
9
9
9
9
9
9
9
9
9
9
9
9
9
9
9
9
9
9
9
9
9
9
9
9
9
9
9
9
9
9
9
9
9
9
9
9
9
9
9
9
9
9
9
9
9
9
9
9
9
9
9
9
9
9
9
9
9
9
9
9
9
9
9
9
9
9
9
9
9
9
9
9
9
9
9
9
9
9
9
9
9
9
9
9
9
9
9
9
9
9
9
9
9
9
9
9
9
9
9
9
9
9
9
9
9
9
9
9
9
9
9
9
9
9
9
9
9
9
9
9
9
9
9
9
9
9
9
9
9
9
9
9
9
9
9
9
9
9
9
9
9
9
9
9
9
9
9
9
9
9
9
9
9
9
9
9
9
9
9
9
9
9
9
9
9
9
9
9
9
9
9
9
9
9
9
9
9
9
9
9
9
9
9
9
9
9
9
9
9
9
9
9
9
9
9
9
9
9
9
9
9
9
9
9
9
9
9
9
9
9
9
9
9
9
9
9
9
9
9
9
9
9
9
9
9
9
9
9
9
9
9
9
9
9
9
9
9
9
9
9
9
9
9
9
9
9
9
9
9
9
9
9
9
9
9
9
9
9
9
9
9
9
9
9
9
9
9
9
9
9
9
9
9
9
9
9
9
9
9
9
9
9
9
9
9
9
9
9
9
9
9
9
9
9
9
9
9
9
9
9
9
9
9
9
9
9
9
9
9
9
9
9
9
9
9
9
9
9
9
9
9
9
9
9
9
9
9
9
9
9
9
9
9
9
9
9
9
9
9
9
9
9
9
9
9
9
9
9
9
9
9
9
9
9
9
9
9
9
9
9
9
9
9
9
9
9
9
9
9
9
9
9
9
9
9
9
9
9
9
9
9
9
9
9
9
9
9
9
9
9
9
9
9
9
9
9
9
9
9
9
9
9
9
9
9
9
9
9
9
9
9
9
9
9
9
9
9
9
9
9
9
9
9
9
9
9
9
9
9
9
9
9
9
9
9
9
9
9
9
9
9
9
9
9
9
9
9
9
9
9
9
9
9
9
9
9
9
9
9
9
9
9
9
9
9
9
9
9
9
9
9
9
9
9
9
9
9
9
9
9
9
9
9
9
9
9
9
9
9
9
9
9
9
9
9
9
9
9
9
9
9
9
9
9
9
9
9
9
9
9
9
9
9
9
9
9
9
9
9
9
9
9
9
9
9
9
9
9
9
9
9
9
9
9
9
9
9
9
9
9
9
9
9
9
9
9
9
9
9
9
9
9
9
9
9
9
9
9
9
9
9
9
9
9
9
9
9
9
9
9
9
9
9
9
9
9
9
9
9
9
9
9
9
9
9
9
9
9
9
9
9
9
9
9
9
9
9
9
9
9
9
9
9
9
9
9
9
9
9
9
9
9
9
9
9
9
9
9
9
9
9
9
9
9
9
9
9
9
9
9
9
9
9
9
9
9
9
9
9
9
9
9
9
9
9
9
9
9
9
9
9
9
9
9
9
9
9
9
9
9
9
9
9
9
9
9
9
9
9
9
9
9
9
9
9
9
9
9
9
9
9
9
9
9
9
9
9
9
9
9
9
9
9
9
9
9
9
9
9
9
9
9
9
9
9
9
9
9
9
9
9
9
9
9
9
9
9
9
9
9
9
9
9
9
9
9
9
9
9
9
9
9
9
9
9
9
9
9
9
9
9
9
9
9
9
9
9
9
9
9
9
9
9
9
9
9
9
9
9
9
9
9
9
9
9
9
9
9
9
9
9
9
9
9
9
9
9
9
9
9
9
9
9
9
9
9
9
9
9
9
9
9
9
9
9
9
9
9
9
9
9
9
9
9
9
9
9
9
9
9
9
9
9
9
9
9
9
9
9
9
9
9
9
9
9
9
9
9
9
9
9
9
9
9
9
9
9
9
9
9
9
9
9
9
9
9
9
9
9
9
9
9
9
9
9
9
9
9
9
9
9
9
9
9
9
9
9
9
9
9
9
9
9
9
9
9
9
9
9
9
9
9
9
9
9
9
9
9
9
9
9
9
9
9
9
9
9
9
9
9
9
9
9
9
9
9
9
9
9
9
9
9
9
9
9
9
9
9
9
9
9
9
9
9
9
9
9
9
9
9
9
9
9
9
9
9
9
9
9
9
9
9
9
9
9
9
9
9
9
9
9
9
9
9
9
9
9
9
9
9
9
9
9
9
9
9
9
9
9
9
9
9
9
9
9
9
9
9
9
9
9
9
9
9
9
9
9
9
9
9
9
9
9
9
9
9
9
9
9
9
9
9
9
9
9
9
9
9
9
9
9
9
9
9
9
9
9
9
9
9
9
9
9
9
9
9
9
9
9
9
9
9
9
9
9
9
9
9
9
9
9
9
9
9
9
9
9
9
9
9
9
9
9
9
9
9
9
9
9
9
9
9
9
9
9
9
9
9
9
9
9
9
9
9
9
9
9
9
9
9
9
9
9
9
9
9
9
9
9
9
9
9
9
9
9
9
9
9
9
9
9
9
9
9
9
9
9
9
9
9
9
9
9
9
9
9
9
9
9
9
9
9
9
9
9
9
9
9
9
9
9
9
9
9
9
9
9
9
9
9
9
9
9
9
9
9
9
9
9
9
9
9
9
9
9
9
9
9
9
9
9
9
9
9
9
9
9
9
9
9
9
9
9
9
9
9
9
9
9
9
9
9
9
9
9
9
9
9
9
9
9
9
9
9
9
9
9
9
9
9
9
9
9
9
9
9
9
9
9
9
9
9
9
9
9
9
9
9
9
9
9
9
9
9
9
9
9
9
9
9
9
9
9
9
9
9
9
9
9
9
9
9
9
9
9
9
9
9
9
9
9
9
9
9
9
9
9
9
9
9
9
9
9
9
9
9
9
9
9
9
9
9
9
9
9
9
9
9
9
9
9
9
9
9
9
9
9
9
9
9
9
9
9
9
9
9
9
9
9
9
9
9
9
9
9
9
9
9
9
9
9
9
9
9
9
9
9
9
9
9
9
9
9
9
9
9
9
9
9
9
9
9
9
9
9
9
9
9
9
9
9
9
9
9
9
9
9
9
9
9
9
9
9
9
9
9
9
9
9
9
9
9
9
9
9
9
9
9
9
9
9
9
9
9
9
9
9
9
9
9
9
9
9
9
9
9
9
9
9
9
9
9
9
9
9
9
9
9
9
9
9
9
9
9
9
9
9
9
9
9
9
9
9
9
9
9
9
9
9
9
9
9
9
9
9
9
9
9
9
9
9
9
9
9
9
9
9
9
9
9
9
9
9
9
9
9
9
9
9
9
9
9
9
9
9
9
9
9
9
9
9
9
9
9
9
9
9
9
9
9
9
9
9
9
9
9
9
9
9
9
9
9
9
9
9
9
9
9
9
9
9
9
9
9
9
9
9
9
9
9
9
9
9
9
9
9
9
9
9
9
9
9
9
9
9
9
9
9
9
9
9
9
9
9
9
9
9
9
9
9
9
9
9
9
9
9
9
9
9
9
9
9
9
9
9
9
9
9
9
9
9
9
9
9
9
9
9
9
9
9
9
9
9
9
9
9
9
9
9
9
9
9
9
9
9
9
9
9
9
9
9
9
9
9
9
9
9
9
9
9
9
9
9
9
9
9
9
9
9
9
9
9
9
9
9
9
9
9
9
9
9
9
9
9
9
9
9
9
9
9
9
9
9
9
9
9
9
9
9
9
9
9
9
9
9
9
9
9
9
9
9
9
9
9
9
9
9
9
9
9
9
9
9
9
9
9
9
9
9
9
9
9
9
9
9
9
9
9
9
9
9
9
9
9
9
9
9
9
9
9
9
9
9
9
9
9
9
9
9
9
9
9
9
9
9
9
9
9
9
9
9
9
9
9
9
9
9
9
9
9
9
9
9
9
9
9
9
9
9
9
9
9
9
9
9
9
9
9
9
9
9
9
9
9
9
9
9
9
9
9
9
9
9
9
9
9
9
9
9
9
9
9
9
9
9
9
9
9
9
9
9
9
9
9
9
9
9
9
9
9
9
9
9
9
9
9
9
9
9
9
9
9
9
9
9
9
9
9
9
9
9
9
9
9
9
9
9
9
9
9
9
9
9
9
9
9
9
9
9
9
9
9
9
9
9
9
9
9
9
9
9
9
9
9
9
9
9
9
9
9
9
9
9
9
9
9
9
9
9
9
9
9
9
9
9
9
9
9
9
9
9
9
9
9
9
9
9
9
9
9
9
9
9
9
9
9
9
9
9
9
9
9
9
9
9
9
9
9
9
9
9
9
9
9
9
9
9
9
9
9
9
9
9
9
9
9
9
9
9
9
9
9
9
9
9
9
9
9
9
9
9
9
9
9
9
9
9
9
9
9
9
9
9
9
9
9
9
9
9
9
9
9
9
9
9
9
9
9
9
9
9
9
9
9
9
9
9
9
9
9
9
9
9
9
9
9
9
9
9
9
9
9
9
9
9
9
9
9
9
9
9
9
9
9
9
9
9
9
9
9
9
9
9
9
9
9
9
9
9
9
9
9
9
9
9
9
9
9
9
9
9
9
9
9
9
9
9
9
9
9
9
9
9
9
9
9
9
9
9
9
9
9
9
9
9
9
9
9
9
9
9
9
9
9
9
9
9
9
9
9
9
9
9
9
9
9
9
9
9
9
9
9
9
9
9
9
9
9
9
9
9
9
9
9
9
9
9
9
9
9
9
9
9
9
9
9
9
9
9
9
9
9
9
9
9
9
9
9
9
9
9
9
9
9
9
9
9
9
9
9
9
9
9
9
9
9
9
9
9
9
9
9
9
9
9
9
9
9
9
9
9
9
9
9
9
9
9
9
9
9
9
9
9
9
9
9
9
9
9
9
9
9
9
9
9
9
9
9
9
9
9
9
9
9
9
9
9
9
9
9
9
9
9
9
9
9
9
9
9
9
9
9
9
9
9
9
9
9
9
9
9
9
9
9
9
9
9
9
9
9
9
9
9
9
9
9
9
9
9
9
9
9
9
9
9
9
9
9
9
9
9
9
9
9
9
9
9
9
9
9
9
9
9
9
9
9
9
9
9
9
9
9
9
9
9
9
9
9
9
9
9
9
9
9
9
9
9
9
9
9
9
9
9
9
9
9
9
9
9
9
9
9
9
9
9
9
9
9
9
9
9
9
9
9
9
9
9
9
9
9
9
9
9
9
9
9
9
9
9
9
9
9
9
9
9
9
9
9
9
9
9
9
9
9
9
9
9
9
9
9
9
9
9
9
9
9
9
9
9
9
9
9
9
9
9
9
9
9
9
9
9
9
9
9
9
9
9
9
9
9
9
9
9
9
9
9
9
9
9
9
9
9
9
9
9
9
9
9
9
9
9
9
9
9
9
9
9
9
9
9
9
9
9
9
9
9
9
9
9
9
9
9
9
9
9
9
9
9
9
9
9
9
9
9
9
9
9
9
9
9
9
9
9
9
9
9
9
9
9
9
9
9
9
9
9
9
9
9
9
9
9
9
9
9
9
9
9
9
9
9
9
9
9
9
9
9
9
9
9
9
9
9
9
9
9
9
9
9
9
9
9
9
9
9
9
9
9
9
9
9
9
9
9
9
9
9
9
9
9
9
9
9
9
9
9
9
9
9
9
9
9
9
9
9
9
9
9
9
9
9
9
9
9
9
9
9
9
9
9
9
9
9
9
9
9
9
9
9
9
9
9
9
9
9
9
9
9
9
9
9
9
9
9
9
9
9
9
9
9
9
9
9
9
9
9
9
9
9
9
9
9
9
9
9
9
9
9
9
9
9
9
9
9
9
9
9
9
9
9
9
9
9
9
9
9
9
9
9
9
9
9
9
9
9
9
9
9
9
9
9
9
9
9
9
9
9
9
9
9
9
9
9
9
9
9
9
9
9
9
9
9
9
9
9
9
9
9
9
9
9
9
9
9
9
9
9
9
9
9
9
9
9
9
9
9
9
9
9
9
9
9
9
9
9
9
9
9
9
9
9
9
9
9
9
9
9
9
9
9
9
9
9
9
9
9
9
9
9
9
9
9
9
9
9
9
9
9
9
9
9
9
9
9
9
9
9
9
9
9
9
9
9
9
9
9
9
9
9
9
9
9
9
9
9
9
9
9
9
9
9
9
9
9
9
9
9
9
9
9
9
9
9
9
9
9
9
9
9
9
9
9
9
9
9
9
9
9
9
9
9
9
9
9
9
9
9
9
9
9
9
9
9
9
9
9
9
9
9
9
9
9
9
9
9
9
9
9
9
9
9
9
9
9
9
9
9
9
9
9
9
9
9
9
9
9
9
9
9
9
9
9
9
9
9
9
9
9
9
9
9
9
9
9
9
9
9
9
9
9
9
9
9
9
9
9
9
9
9
9
9
9
9
9
9
9
9
9
9
9
9
9
9
9
9
9
9
9
9
9
9
9
9
9
9
9
9
9
9
9
9
9
9
9
9
9
9
9
9
9
9
9
9
9
9
9
9
9
9
9
9
9
9
9
9
9
9
9
9
9
9
9
9
9
9
9
9
9
9
9
9
9
9
9
9
9
9
9
9
9
9
9
9
9
9
9
9
9
9
9
9
9
9
9
9
9
9
9
9
9
9
9
9
9
9
9
9
9
9
9
9
9
9
9
9
9
9
9
9
9
9
9
9
9
9
9
9
9
9
9
9
9
9
9
9
9
9
9
9
9
9
9
9
9
9
9
9
9
9
9
9
9
9
9
9
9
9
9
9
9
9
9
9
9
9
9
9
9
9
9
9
9
9
9
9
9
9
9
9
9
9
9
9
9
9
9
9
9
9
9
9
9
9
9
9
9
9
9
9
9
9
9
9
9
9
9
9
9
9
9
9
9
9
9
9
9
9
9
9
9
9
9
9
9
9
9
9
9
9
9
9
9
9
9
9
9
9
9
9
9
9
9
9
9
9
9
9
9
9
9
9
9
9
9
9
9
9
9
9
9
9
9
9
9
9
9
9
9
9
9
9
9
9
9
9
9
9
9
9
9
9
9
9
9
9
9
9
9
9
9
9
9
9
9
9
9
9
9
9
9
9
9
9
9
9
9
9
9
9
9
9
9
9
9
9
9
9
9
9
9
9
9
9
9
9
9
9
9
9
9
9
9
9
9
9
9
9
9
9
9
9
9
9
9
9
9
9
9
9
9
9
9
9
9
9
9
9
9
9
9
9
9
9
9
9
9
9
9
9
9
9
9
9
9
9
9
9
9
9
9
9
9
9
9
9
9
9
9
9
9
9
9
9
9
9
9
9
9
9
9
9
9
9
9
9
9
9
9
9
9
9
9
9
9
9
9
9
9
9
9
9
9
9
9
9
9
9
9
9
9
9
9
9
9
9
9
9
9
9
9
9
9
9
</DataArray>
</Cells>
<PointData Vectors="'U'">
<DataArray type="Float64" Name="U" NumberOfComponents="2" ComponentName0="U1" ComponentName1="U2" format="ascii">
 0.1184115444849E-37  0.3139242936194E-37
 0.1211834929574E-37 -0.8573762832653E-37
 0.8537440493262E-37 -0.2173307523222E-36
 0.1674034650637E-01 -0.1977139074516E-01
 0.2544651737962E-01 -0.9747849273078E-02
 0.3867375917808E-01 -0.2524353660385E-01
 0.4521085345052E-01 -0.5869332033764E-01
 0.1865572294199E+00 -0.4446337007723E+00
 0.7011095797558E+00 -0.3166121404369E+00
 0.8848292322376E-01 -0.6727929455657E+00
 0.6982476359056E+00 -0.3783689814630E+00
 0.3647523875321E-38  0.3881001575772E-37
 0.3888686184935E-38  0.3083429739019E-37
 0.3658710128230E-38  0.2486894213401E-37
 0.3472242131419E-38  0.1973738470601E-37
 0.3383618873994E-38  0.1508172020014E-37
 0.3382116217598E-38  0.1074920346098E-37
 0.3450104356917E-38  0.6659212132330E-38
 0.3572385502185E-38  0.2762932716301E-38
 0.3737051444349E-38 -0.9721128408571E-39
 0.3934899510304E-38 -0.4569073356888E-38
 0.4158761785270E-38 -0.8045339713152E-38
 0.4402978489588E-38 -0.1141453244764E-37
 0.4663017303943E-38 -0.1468768536323E-37
 0.4935202529732E-38 -0.1787398857734E-37
 0.5216522156881E-38 -0.2098127602836E-37
 0.5504488341452E-38 -0.2401635660315E-37
 0.5797035250254E-38 -0.2698524567032E-37
 0.6092443707876E-38 -0.2989332994340E-37
 0.6389288919711E-38 -0.3274548158183E-37
 0.6686452169120E-38 -0.3554613822577E-37
 0.6983354942352E-38 -0.3829999472562E-37
 0.7278179984514E-38 -0.4101011591896E-37
 0.7570820234852E-38 -0.4368038164744E-37
 0.7860784082289E-38 -0.4631419713792E-37
 0.8147703219525E-38 -0.4891477682667E-37
 0.8431323097003E-38 -0.5148517073110E-37
 0.8711493065375E-38 -0.5402828363837E-37
 0.8988157865869E-38 -0.5654689069776E-37
 0.9261350104243E-38 -0.5904365034275E-37
 0.9531183737254E-38 -0.6152111536326E-37
 0.9797848328800E-38 -0.6398174253535E-37
 0.1006160400283E-37 -0.6642790118710E-37
 0.1032277701857E-37 -0.6886188103685E-37
 0.1058175582591E-37 -0.7128589948367E-37
 0.1083898759158E-37 -0.7370210857333E-37
 0.1109497515285E-37 -0.7611260184967E-37
 0.1135027432489E-37 -0.7851942116660E-37
 0.1160549164029E-37 -0.8092456371575E-37
 0.1186128243063E-37 -0.8332998934309E-37
 0.1237744096823E-37 -0.8814938976457E-37
 0.1263935159646E-37 -0.9056717073476E-37
 0.1290492048663E-37 -0.9299286640545E-37
 0.1317503234953E-37 -0.9542838130596E-37
 0.1345061810892E-37 -0.9787564198471E-37
 0.1373265635338E-37 -0.1003366113317E-36
 0.1402217551557E-37 -0.1028133049057E-36
 0.1432025689349E-37 -0.1053078096042E-36
 0.1462803869807E-37 -0.1078223052558E-36
 0.1494672122405E-37 -0.1103590896210E-36
 0.1527757342367E-37 -0.1129206075884E-36
 0.1562194111580E-37 -0.1155094854826E-36
 0.1598125715290E-37 -0.1181285715949E-36
 0.1635705400261E-37 -0.1207809844829E-36
 0.1675097920566E-37 -0.1234701709516E-36
 0.1716481433688E-37 -0.1261999762060E-36
 0.1760049820907E-37 -0.1289747297426E-36
 0.1806015481441E-37 -0.1317993519740E-36
 0.1854612416856E-37 -0.1346794923290E-36
 0.1906085736687E-37 -0.1376217285265E-36
 0.1960714509957E-37 -0.1406330473315E-36
 0.2018903912244E-37 -0.1437232091299E-36
 0.2080991871877E-37 -0.1469026226146E-36
 0.2147416524887E-37 -0.1501841039386E-36
 0.2218689910448E-37 -0.1535832617698E-36
 0.2295416538011E-37 -0.1571193392558E-36
 0.2378318356601E-37 -0.1608163969192E-36
 0.2468268272616E-37 -0.1647050047972E-36
 0.2566335565693E-37 -0.1688247243141E-36
 0.2673847860809E-37 -0.1732278572556E-36
 0.2792475397312E-37 -0.1779853070698E-36
 0.2924342240116E-37 -0.1831961276443E-36
 0.3072157069775E-37 -0.1890038750972E-36
 0.3239301274482E-37 -0.1956264217064E-36
 0.3429582433053E-37 -0.2034149286628E-36
 0.3645377874921E-37 -0.2129841035324E-36
 0.3878215012581E-37 -0.2255484434255E-36
 0.4059248479581E-37 -0.2440120916138E-36
 0.3742456000294E-37 -0.2778827919936E-36
 0.1707979409451E-01 -0.1562557151427E-01
 0.1766643874864E-01 -0.1334776135255E-01
 0.1825981928732E-01 -0.1188659164369E-01
 0.1881079405570E-01 -0.1088051090647E-01
 0.1932184201572E-01 -0.1016074499245E-01
 0.1980246877585E-01 -0.9637011113835E-02
 0.2026089803142E-01 -0.9256404894677E-02
 0.2070294467612E-01 -0.8985453773587E-02
 0.2113252829346E-01 -0.8801564675598E-02
 0.2155229438183E-01 -0.8688651952650E-02
 0.2196407134784E-01 -0.8634761475585E-02
 0.2236916551785E-01 -0.8630702949319E-02
 0.2276854116913E-01 -0.8669219833583E-02
 0.2316293178082E-01 -0.8744461095308E-02
 0.2355290449249E-01 -0.8851631763195E-02
 0.2393889523174E-01 -0.8986754574088E-02
 0.2432121895836E-01 -0.9146504229931E-02
 0.2470004641534E-01 -0.9328091588359E-02
 0.2507532624730E-01 -0.9529164517599E-02
 0.2580930894542E-01 -0.9978126965341E-02
 0.2617065523344E-01 -0.1021998944874E-01
 0.2653040978331E-01 -0.1047279170980E-01
 0.2688857980526E-01 -0.1073559497154E-01
 0.2724519169892E-01 -0.1100748384328E-01
 0.2760027990087E-01 -0.1128763501551E-01
 0.2795387685484E-01 -0.1157532880328E-01
 0.2830600768809E-01 -0.1186994820757E-01
 0.2865668805645E-01 -0.1217097432568E-01
 0.2900592327647E-01 -0.1247798065202E-01
 0.2935370858632E-01 -0.1279062770069E-01
 0.2970003011286E-01 -0.1310865829145E-01
 0.3004486577201E-01 -0.1343189307928E-01
 0.3038818645262E-01 -0.1376022672519E-01
 0.3072995733255E-01 -0.1409362460654E-01
 0.3107013891610E-01 -0.1443211966998E-01
 0.3140868859560E-01 -0.1477581019054E-01
 0.3174556178015E-01 -0.1512485750314E-01
 0.3208071308243E-01 -0.1547948416699E-01
 0.3241409743761E-01 -0.1583997244001E-01
 0.3274567112811E-01 -0.1620666303856E-01
 0.3307539274967E-01 -0.1657995423234E-01
 0.3340322408114E-01 -0.1696030125399E-01
 0.3372913082365E-01 -0.1734821600787E-01
 0.3405308325038E-01 -0.1774426715556E-01
 0.3437505674939E-01 -0.1814908059965E-01
 0.3469503215700E-01 -0.1856334028132E-01
 0.3501299635303E-01 -0.1898778995944E-01
 0.3532894224695E-01 -0.1942323494125E-01
 0.3564286893875E-01 -0.1987054483832E-01
 0.3595478170447E-01 -0.2033065703023E-01
 0.3626469172744E-01 -0.2080458085224E-01
 0.3657261595386E-01 -0.2129340330051E-01
 0.3687857646660E-01 -0.2179829568423E-01
 0.3718259913950E-01 -0.2232052130826E-01
 0.3748471137437E-01 -0.2286144503139E-01
 0.3778493707214E-01 -0.2342254245570E-01
 0.3808328211186E-01 -0.2400541306459E-01
 0.3837971439212E-01 -0.2461173791247E-01
 0.3897173592988E-01 -0.2591541433505E-01
 0.3926860432053E-01 -0.2661838150638E-01
 0.3956435523428E-01 -0.2735532740240E-01
 0.3985903861345E-01 -0.2812938339799E-01
 0.4015280445341E-01 -0.2894413946847E-01
 0.4044589613625E-01 -0.2980376462495E-01
 0.4073866607431E-01 -0.3071316320956E-01
 0.4103161111982E-01 -0.3167818739858E-01
 0.4132543483636E-01 -0.3270593909529E-01
 0.4162114938349E-01 -0.3380521081845E-01
 0.4192024309724E-01 -0.3498716162013E-01
 0.4222495090917E-01 -0.3626637692093E-01
 0.4253869397081E-01 -0.3766263413451E-01
 0.4286676728230E-01 -0.3920398915500E-01
 0.4321730821406E-01 -0.4093249484005E-01
 0.4360224877768E-01 -0.4291545732900E-01
 0.4403636054747E-01 -0.4526917547088E-01
 0.4452732956732E-01 -0.4821358679733E-01
 0.4501897936353E-01 -0.5222457491610E-01
-0.8457881346495E-01 -0.1042399561448E+00
-0.1378065503871E+00 -0.1613603192696E+00
-0.1791160797427E+00 -0.1939009655380E+00
-0.2100179217638E+00 -0.2109304372629E+00
-0.2318287596678E+00 -0.2176984601794E+00
-0.2453550900721E+00 -0.2179019788858E+00
-0.2512167603918E+00 -0.2136640933507E+00
-0.2497745519323E+00 -0.2064553474110E+00
-0.2412750625937E+00 -0.1975136501881E+00
-0.2258585096104E+00 -0.1880208562797E+00
-0.2036953155305E+00 -0.1793173690887E+00
-0.1751681511311E+00 -0.1722236723016E+00
-0.1410135222678E+00 -0.1704561894263E+00
-0.1033025100875E+00 -0.1778097867128E+00
-0.6333141524695E-01 -0.1941776056876E+00
-0.2118093745647E-01 -0.2196106343072E+00
 0.2406042063718E-01 -0.2544105516025E+00
 0.7316895377451E-01 -0.3003912379427E+00
 0.1266434646758E+00 -0.3612947602752E+00
 0.2155004204951E+00 -0.4937838402342E+00
 0.2487702361893E+00 -0.5561501679717E+00
 0.2860893326296E+00 -0.6306465788624E+00
 0.3241092666754E+00 -0.7112206965185E+00
 0.3606010091262E+00 -0.7928882261033E+00
 0.3945394097475E+00 -0.8724024222613E+00
 0.4252897111598E+00 -0.9474177964246E+00
 0.4519048821171E+00 -0.1016226525382E+01
 0.4733350579875E+00 -0.1077422567158E+01
 0.4894207601160E+00 -0.1129726792330E+01
 0.5005451178871E+00 -0.1172051436713E+01
 0.5073385365592E+00 -0.1203540156321E+01
 0.5105311885998E+00 -0.1223572849848E+01
 0.5108870845501E+00 -0.1231756399299E+01
 0.5091770701210E+00 -0.1227915490181E+01
 0.5061688847126E+00 -0.1212088826940E+01
 0.5026240703142E+00 -0.1184529614561E+01
 0.4992978998117E+00 -0.1145713952013E+01
 0.4969404274251E+00 -0.1096357242039E+01
 0.4962981390452E+00 -0.1037442584266E+01
 0.4980684211735E+00 -0.9702788531969E+00
 0.5027094269139E+00 -0.8965988172814E+00
 0.5104614607907E+00 -0.8186339422618E+00
 0.5212732166820E+00 -0.7393693950343E+00
 0.5344822800404E+00 -0.6631895333291E+00
 0.5484780575154E+00 -0.5976242258784E+00
 0.5621628780381E+00 -0.5459658895528E+00
 0.5756813102130E+00 -0.5044416180659E+00
 0.5890541449776E+00 -0.4698373599386E+00
 0.6021852718260E+00 -0.4405781545448E+00
 0.6150196880579E+00 -0.4157043799068E+00
 0.6274773305901E+00 -0.3945593239052E+00
 0.6394065854299E+00 -0.3766398751389E+00
 0.6505669892738E+00 -0.3615194388915E+00
 0.6608809622227E+00 -0.3488986862797E+00
 0.6703992896658E+00 -0.3385555230971E+00
 0.6791691764245E+00 -0.3302944472509E+00
 0.6872196269814E+00 -0.3239508770440E+00
 0.6945514151507E+00 -0.3193992856746E+00
 0.7130978728058E+00 -0.3146287390158E+00
 0.7216970731703E+00 -0.3175762129319E+00
 0.7267935703357E+00 -0.3243879267018E+00
 0.7280902107928E+00 -0.3340046610577E+00
 0.7253658227708E+00 -0.3452605290305E+00
 0.7185158629260E+00 -0.3567661805900E+00
 0.7077113297417E+00 -0.3671987940579E+00
 0.6932140474092E+00 -0.3754922373938E+00
 0.6748641530071E+00 -0.3824527910534E+00
 0.6521390569745E+00 -0.3887720922749E+00
 0.6247126745004E+00 -0.3930314971105E+00
 0.5921979814769E+00 -0.3945590795581E+00
 0.5542473124713E+00 -0.3924371432084E+00
 0.5104843802270E+00 -0.3853708463709E+00
 0.4603494189841E+00 -0.3719120779433E+00
 0.4031865471303E+00 -0.3495730761020E+00
 0.3383988929241E+00 -0.3138542308160E+00
 0.2647688286208E+00 -0.2588065953996E+00
 0.1814266205922E+00 -0.1740825373462E+00
 0.1363629882959E-03  0.2346674530880E-03
 0.2891331627349E-03  0.4169081942356E-03
 0.4896758798092E-03  0.5837834291037E-03
 0.7378344835331E-03  0.7348709723858E-03
 0.1033278288873E-02  0.8705329072431E-03
 0.1374559835263E-02  0.9905407751902E-03
 0.1760238909626E-02  0.1094487151977E-02
 0.2188834495551E-02  0.1181867690758E-02
 0.2658908482983E-02  0.1252100362147E-02
 0.3169062220152E-02  0.1304531233188E-02
 0.3717936826078E-02  0.1338427634080E-02
 0.4304200036607E-02  0.1352964735475E-02
 0.4926547285786E-02  0.1347205885613E-02
 0.5583689811038E-02  0.1320074287032E-02
 0.6274298853561E-02  0.1270319537116E-02
 0.6997101543229E-02  0.1196455937087E-02
 0.7750769957058E-02  0.1096685064906E-02
 0.8533965538954E-02  0.9687447107223E-03
 0.9345339241479E-02  0.8095247270082E-03
 0.1018311318896E-01  0.6151745525702E-03
 0.1104410759788E-01  0.3861328760618E-03
 0.1192378137809E-01  0.1250849140223E-03
 0.1281683788275E-01 -0.1659958295380E-03
 0.1371764572861E-01 -0.4866308875442E-03
 0.1462037422830E-01 -0.8376485337993E-03
 0.1551892485997E-01 -0.1220796684826E-02
 0.1640676899704E-01 -0.1638446703064E-02
 0.1727676724893E-01 -0.2093424249112E-02
 0.1812089146988E-01 -0.2588873771227E-02
 0.1892993544526E-01 -0.3127713947064E-02
 0.1969389298480E-01 -0.3712843487017E-02
 0.2040275333662E-01 -0.4349543715876E-02
 0.2104550281702E-01 -0.5046068521794E-02
 0.2160893215605E-01 -0.5814224210452E-02
 0.2207623474953E-01 -0.6671417416599E-02
 0.2242502884601E-01 -0.7644541220755E-02
 0.2262068986804E-01 -0.8778818851692E-02
 0.2261334156763E-01 -0.1015523184883E-01
 0.2226508550056E-01 -0.1194336479534E-01
 0.2146287135721E-01 -0.1467861519026E-01
 0.3723973785540E-01 -0.5109571431817E-01
 0.3437167394134E-01 -0.4671459719756E-01
 0.3203644017085E-01 -0.4364104089831E-01
 0.3010579980882E-01 -0.4115568266413E-01
 0.2840494610265E-01 -0.3902525005795E-01
 0.2687306495230E-01 -0.3713440430876E-01
 0.2546852062965E-01 -0.3541609975649E-01
 0.2416574629613E-01 -0.3382864329151E-01
 0.2294673606265E-01 -0.3234406264185E-01
 0.2179859027217E-01 -0.3094307996631E-01
 0.2071174532563E-01 -0.2961266214661E-01
 0.1967848409638E-01 -0.2834520475375E-01
 0.1869220241269E-01 -0.2713351612782E-01
 0.1774759419893E-01 -0.2596997325813E-01
 0.1684081489187E-01 -0.2484822786903E-01
 0.1596920713941E-01 -0.2376377013022E-01
 0.1513101928140E-01 -0.2271401931819E-01
 0.1432507113158E-01 -0.2169836800964E-01
 0.1355023145858E-01 -0.2071799918354E-01
 0.1280457929150E-01 -0.1977482781000E-01
 0.1208443256271E-01 -0.1886879066599E-01
 0.1138430032266E-01 -0.1799353729134E-01
 0.1069945441763E-01 -0.1713616247549E-01
 0.1002878587223E-01 -0.1628685263046E-01
 0.9372751301708E-02 -0.1544053886451E-01
 0.8731751229806E-02 -0.1459404735691E-01
 0.8106072080431E-02 -0.1374503451549E-01
 0.7495845081110E-02 -0.1289159393836E-01
 0.6901110258946E-02 -0.1203220054038E-01
 0.6321677284908E-02 -0.1116545397119E-01
 0.5757107314183E-02 -0.1029002842180E-01
 0.5206635564973E-02 -0.9404571431364E-02
 0.4669047167622E-02 -0.8507562147368E-02
 0.4142520758898E-02 -0.7597145244934E-02
 0.3624348173885E-02 -0.6670869778529E-02
 0.3110576383218E-02 -0.5725231467360E-02
 0.2594892019489E-02 -0.4754886091906E-02
 0.2068151973505E-02 -0.3750791951985E-02
 0.1509907664592E-02 -0.2694904200548E-02
 0.8902360533378E-03 -0.1560589977763E-02
 0.1094999277199E+00 -0.6918035277922E+00
 0.1311951234385E+00 -0.7096784637097E+00
 0.1535446469552E+00 -0.7262035668057E+00
 0.1764637923728E+00 -0.7412119045463E+00
 0.1998550057718E+00 -0.7545538762715E+00
 0.2236129824253E+00 -0.7660994896262E+00
 0.2476279256435E+00 -0.7757390834998E+00
 0.2717878517299E+00 -0.7833844413521E+00
 0.2959799330818E+00 -0.7889684619655E+00
 0.3200916348361E+00 -0.7924452172894E+00
 0.3440115908129E+00 -0.7937912733251E+00
 0.3676306987275E+00 -0.7930061902978E+00
 0.3908431565603E+00 -0.7901124148402E+00
 0.4135474386904E+00 -0.7851548562056E+00
 0.4356472368771E+00 -0.7782002574589E+00
 0.4570524228781E+00 -0.7693363646698E+00
 0.4776799966059E+00 -0.7586708766978E+00
 0.4974550697177E+00 -0.7463301470885E+00
 0.5163118749638E+00 -0.7324576008286E+00
 0.5341947894152E+00 -0.7172118424700E+00
 0.5510593294864E+00 -0.7007643805142E+00
 0.5668730112007E+00 -0.6832967867115E+00
 0.5816160380563E+00 -0.6649976131253E+00
 0.5952817341727E+00 -0.6460590170082E+00
 0.6078766289389E+00 -0.6266730770044E+00
 0.6194200912176E+00 -0.6070278938889E+00
 0.6299434238502E+00 -0.5873036304981E+00
 0.6394883843903E+00 -0.5676688328641E+00
 0.6481052372405E+00 -0.5482774114349E+00
 0.6558504971004E+00 -0.5292665415297E+00
 0.6627845790196E+00 -0.5107554667468E+00
 0.6689695165722E+00 -0.4928451247517E+00
 0.6744668711635E+00 -0.4756184579143E+00
 0.6793358956902E+00 -0.4591415440905E+00
 0.6836321654628E+00 -0.4434660591402E+00
 0.6874068258106E+00 -0.4286319347173E+00
 0.6907063960544E+00 -0.4146699999995E+00
 0.6935739387593E+00 -0.4016072408871E+00
 0.6960541970519E+00 -0.3894783433700E+00
 0.6996326147348E-01 -0.6261101827060E+00
 0.5329412917732E-01 -0.5807393556616E+00
 0.3812185355647E-01 -0.5365497037898E+00
 0.2420868813648E-01 -0.4935605788862E+00
 0.1143663959658E-01 -0.4517742551295E+00
-0.2332165502425E-03 -0.4111768291759E+00
-0.1077722820952E-01 -0.3717458976288E+00
-0.2012489701697E-01 -0.3334600811668E+00
-0.2815908640096E-01 -0.2963324427138E+00
-0.3479006361691E-01 -0.2604217390813E+00
-0.3995792899910E-01 -0.2258193344068E+00
-0.4353795124345E-01 -0.1926598017801E+00
-0.4533173363398E-01 -0.1611259365697E+00
-0.4505724591933E-01 -0.1314428860211E+00
-0.4235199979608E-01 -0.1038759564039E+00
-0.3678495428285E-01 -0.7872998859558E-01
-0.2785985989695E-01 -0.5634893565322E-01
-0.1500276837866E-01 -0.3711472284884E-01
 0.2478753050499E-02 -0.2144314291623E-01
 0.6854707417954E+00 -0.3672072193055E+00
 0.6701156743176E+00 -0.3545373139702E+00
 0.6524792521969E+00 -0.3403489466810E+00
 0.6328379458409E+00 -0.3247622240845E+00
 0.6113837056406E+00 -0.3079237330856E+00
 0.5882367096297E+00 -0.2899772397800E+00
 0.5634398599170E+00 -0.2710601254343E+00
 0.5369732720721E+00 -0.2513075900912E+00
 0.5087567435089E+00 -0.2308744292850E+00
 0.4787205881623E+00 -0.2099500691458E+00
 0.4468040327642E+00 -0.1887503293663E+00
 0.4128919796282E+00 -0.1675134263646E+00
 0.3768138208898E+00 -0.1464980130640E+00
 0.3383365753497E+00 -0.1259703857871E+00
 0.2971704760323E+00 -0.1061928960432E+00
 0.2529827766956E+00 -0.8741191570455E-01
 0.2054137097531E+00 -0.6984111599204E-01
 0.1540937187018E+00 -0.5363278495418E-01
 0.9864631832956E-01 -0.3882545899764E-01
 0.8089604356617E-01 -0.6771672798996E+00
 0.7384457142947E-01 -0.6799974450079E+00
 0.6747035003770E-01 -0.6811909693047E+00
 0.6188771562146E-01 -0.6806782331881E+00
 0.5721065305937E-01 -0.6783867926114E+00
 0.5355928271551E-01 -0.6742493273331E+00
 0.5106252507201E-01 -0.6682075352193E+00
 0.4985888351317E-01 -0.6602165751749E+00
 0.5009632508458E-01 -0.6502498909733E+00
 0.5193145707657E-01 -0.6383048030146E+00
 0.5552790300227E-01 -0.6244090903864E+00
 0.6105350684009E-01 -0.6086288078305E+00
 0.6867567192824E-01 -0.5910776123178E+00
 0.7855364753751E-01 -0.5719279415722E+00
 0.9082574273577E-01 -0.5514244749920E+00
 0.1055877292349E+00 -0.5299005276978E+00
 0.1228558271332E+00 -0.5077979274912E+00
 0.1424967334077E+00 -0.4856928190678E+00
 0.1641012046145E+00 -0.4643205450945E+00
 0.7044763711732E+00 -0.3744527429647E+00
 0.7098196673937E+00 -0.3701771452388E+00
 0.7142371522607E+00 -0.3656671087504E+00
 0.7177545690727E+00 -0.3610159522064E+00
 0.7204153560753E+00 -0.3563043704807E+00
 0.7222720600846E+00 -0.3516064088590E+00
 0.7233826895726E+00 -0.3469912591501E+00
 0.7238094156236E+00 -0.3425237415128E+00
 0.7236179362512E+00 -0.3382641548578E+00
 0.7228769573659E+00 -0.3342678380599E+00
 0.7216575616913E+00 -0.3305846368391E+00
 0.7200324282973E+00 -0.3272584094610E+00
 0.7180749555418E+00 -0.3243266571278E+00
 0.7158583815332E+00 -0.3218203170120E+00
 0.7134550086646E+00 -0.3197637030449E+00
 0.7109356641570E+00 -0.3181745378338E+00
 0.7083695020155E+00 -0.3170639234472E+00
 0.7058249648079E+00 -0.3164363038368E+00
 0.7033711434678E+00 -0.3162879723832E+00
 0.1148340952908E-03  0.1822765575400E-03
 0.2747187434699E-03  0.3519577664491E-03
 0.4770278807201E-03  0.4994632500379E-03
 0.7282138416623E-03  0.6321146173116E-03
 0.1026769444648E-02  0.7496984669632E-03
 0.1371518101070E-02  0.8521496412660E-03
 0.1760959114827E-02  0.9390433289672E-03
 0.2193619266257E-02  0.1009856175135E-02
 0.2668051050987E-02  0.1063980735535E-02
 0.3182851047364E-02  0.1100738793123E-02
 0.3736655946731E-02  0.1119375731588E-02
 0.4328131003648E-02  0.1119047663487E-02
 0.4955971358934E-02  0.1098801627242E-02
 0.5618890723026E-02  0.1057547411483E-02
 0.6315566575134E-02  0.9940238364710E-03
 0.7044738285763E-02  0.9067360602606E-03
 0.7805099411873E-02  0.7938796953991E-03
 0.8595353446447E-02  0.6531878901584E-03
 0.9414204907378E-02  0.4816680461620E-03
 0.1025986530645E-01  0.2764336167525E-03
 0.1112901714118E-01  0.3927899926771E-04
 0.1201686547376E-01 -0.2264200883900E-03
 0.1291785731306E-01 -0.5186172465333E-03
 0.1382615984681E-01 -0.8369388474826E-03
 0.1473578269223E-01 -0.1182218169432E-02
 0.1564047272611E-01 -0.1555998194004E-02
 0.1653351719031E-01 -0.1960216391860E-02
 0.1740753087012E-01 -0.2397029463255E-02
 0.1825414099372E-01 -0.2868651990390E-02
 0.1906377130298E-01 -0.3377220469620E-02
 0.1982625105768E-01 -0.3925602205762E-02
 0.2053143663269E-01 -0.4518559793328E-02
 0.2116791244653E-01 -0.5162430259868E-02
 0.2172174956883E-01 -0.5865990407434E-02
 0.2217510154507E-01 -0.6641776937319E-02
 0.2250302437773E-01 -0.7508379677272E-02
 0.2266921423993E-01 -0.8495109948066E-02
 0.2260300926424E-01 -0.9648052387803E-02
 0.2220192036352E-01 -0.1106413530013E-01
 0.2088981336367E-01 -0.1279854701392E-01
 0.1011087976594E-03  0.1468253691558E-03
 0.2611261912668E-03  0.2912569743508E-03
 0.4665511650898E-03  0.4202154877603E-03
 0.7203102578274E-03  0.5339444926283E-03
 0.1021950641756E-02  0.6334516344193E-03
 0.1370049749152E-02  0.7183749669247E-03
 0.1763156652791E-02  0.7882987284173E-03
 0.2199779003581E-02  0.8426586120172E-03
 0.2678465178492E-02  0.8808213944641E-03
 0.3197805072257E-02  0.9020861892613E-03
 0.3756430857858E-02  0.9056813079997E-03
 0.4353004801206E-02  0.8907510745411E-03
 0.4986221224768E-02  0.8563362463585E-03
 0.5654795690223E-02  0.8013466318494E-03
 0.6357410653035E-02  0.7245300317844E-03
 0.7092815388392E-02  0.6244118241308E-03
 0.7859720118239E-02  0.4992306118156E-03
 0.8656850312923E-02  0.3468252264739E-03
 0.9482862938473E-02  0.1645667205099E-03
 0.1033581689796E-01 -0.4961513409436E-04
 0.1121224691731E-01 -0.2931377306714E-03
 0.1210723321377E-01 -0.5621873429734E-03
 0.1301507961737E-01 -0.8545818331597E-03
 0.1392979627445E-01 -0.1169906812422E-02
 0.1484522707827E-01 -0.1508888356159E-02
 0.1575493628154E-01 -0.1872820047904E-02
 0.1665199604452E-01 -0.2263223050839E-02
 0.1752875182262E-01 -0.2681667662347E-02
 0.1837653039615E-01 -0.3129675745418E-02
 0.1918553901225E-01 -0.3608788890773E-02
 0.1994541470946E-01 -0.4121366162110E-02
 0.2064562207003E-01 -0.4671240170079E-02
 0.2127412112811E-01 -0.5262957836797E-02
 0.2181606131390E-01 -0.5902337143780E-02
 0.2225192467746E-01 -0.6597161316425E-02
 0.2255440239685E-01 -0.7358217007946E-02
 0.2267987466692E-01 -0.8199834595275E-02
 0.2255537763629E-01 -0.9144657139738E-02
 0.2201237272978E-01 -0.1020350075122E-01
 0.2054713936671E-01 -0.1143759870138E-01
 0.9238514377917E-04  0.1183247097452E-03
 0.2502599062986E-03  0.2369440863186E-03
 0.4578732779825E-03  0.3453727142262E-03
 0.7142170582746E-03  0.4402472801821E-03
 0.1018758897872E-02  0.5215835557415E-03
 0.1370108706642E-02  0.5890435396756E-03
 0.1766769524891E-02  0.6420916508992E-03
 0.2207245871546E-02  0.6801288992596E-03
 0.2690074882466E-02  0.7024897059638E-03
 0.3213839600373E-02  0.7084533688417E-03
 0.3777166343094E-02  0.6972359464860E-03
 0.4378713389782E-02  0.6679775070856E-03
 0.5017172945211E-02  0.6197227284349E-03
 0.5691260571329E-02  0.5513953891666E-03
 0.6399660550918E-02  0.4617720291946E-03
 0.7141126268586E-02  0.3494276738341E-03
 0.7914371901542E-02  0.2126933364451E-03
 0.8718101985364E-02  0.4960770439571E-04
 0.9550857434827E-02 -0.1420285407223E-03
 0.1041050146368E-01 -0.3636240670612E-03
 0.1129342919185E-01 -0.6121106562584E-03
 0.1219465286710E-01 -0.8834106055962E-03
 0.1310839750316E-01 -0.1175197880579E-02
 0.1402855125636E-01 -0.1486938265728E-02
 0.1494879787411E-01 -0.1819184060566E-02
 0.1586250920243E-01 -0.2172957109718E-02
 0.1676253043371E-01 -0.2549390427569E-02
 0.1764094578077E-01 -0.2949559098258E-02
 0.1848883338944E-01 -0.3374436373338E-02
 0.1929621895566E-01 -0.3825010458565E-02
 0.2005249706751E-01 -0.4302969867467E-02
 0.2074663823041E-01 -0.4811095588571E-02
 0.2136587135835E-01 -0.5352269013614E-02
 0.2189426230226E-01 -0.5929680459066E-02
 0.2231067424548E-01 -0.6547097948038E-02
 0.2258476477986E-01 -0.7208796794926E-02
 0.2266919135913E-01 -0.7919729397267E-02
 0.2248118804540E-01 -0.8683128959811E-02
 0.2184495969387E-01 -0.9501069520655E-02
 0.2044505856687E-01 -0.1046934659765E-01
 0.8692344484406E-04  0.9355206236239E-04
 0.2422994775915E-03  0.1877280527184E-03
 0.4511645515249E-03  0.2749315088502E-03
 0.7098645211929E-03  0.3507049082439E-03
 0.1017166406677E-02  0.4139060201223E-03
 0.1371635875491E-02  0.4639663693517E-03
 0.1771735594627E-02  0.5002559723174E-03
 0.2215949526049E-02  0.5221147359367E-03
 0.2702802852628E-02  0.5288463874825E-03
 0.3230868821081E-02  0.5197119860271E-03
 0.3798766432776E-02  0.4939207785595E-03
 0.4405148261787E-02  0.4506161506211E-03
 0.5048702359783E-02  0.3888569446248E-03
 0.5728141298504E-02  0.3075946700603E-03
 0.6442146258345E-02  0.2056535947952E-03
 0.7189465922978E-02  0.8168591218764E-04
 0.7968798317478E-02 -0.6584149271463E-04
 0.8778786691878E-02 -0.2386392851957E-03
 0.9617819634416E-02 -0.4384834338479E-03
 0.1048355972066E-01 -0.6662495023559E-03
 0.1137227675234E-01 -0.9185650079857E-03
 0.1227894180172E-01 -0.1191201703379E-02
 0.1319773543676E-01 -0.1481703616240E-02
 0.1412244964672E-01 -0.1789380690882E-02
 0.1504661961195E-01 -0.2114578332894E-02
 0.1596342762351E-01 -0.2458043113781E-02
 0.1686549678747E-01 -0.2820556830383E-02
 0.1774467306457E-01 -0.3202778599113E-02
 0.1859182120646E-01 -0.3605222552226E-02
 0.1939678725905E-01 -0.4028359526603E-02
 0.2014869109985E-01 -0.4473189443397E-02
 0.2083598847520E-01 -0.4941483191538E-02
 0.2144516240696E-01 -0.5434675872167E-02
 0.2195926294532E-01 -0.5953855119233E-02
 0.2235567115032E-01 -0.6499735647157E-02
 0.2260208643075E-01 -0.7072481604176E-02
 0.2264891537674E-01 -0.7671419398637E-02
 0.2241254741562E-01 -0.8295350240251E-02
 0.2174992831829E-01 -0.8960042840476E-02
 0.2050103089732E-01 -0.9765223061401E-02
 0.8368951336877E-04  0.7111552930579E-04
 0.2369329082634E-03  0.1423896565339E-03
 0.4464774143058E-03  0.2085059845033E-03
 0.7072172683243E-03  0.2650699901515E-03
 0.1017119381927E-02  0.3101891660662E-03
 0.1374573349107E-02  0.3429541139182E-03
 0.1777988428376E-02  0.3626186471165E-03
 0.2225818179571E-02  0.3684589852572E-03
 0.2716570512316E-02  0.3597459448060E-03
 0.3248806329036E-02  0.3357260190119E-03
 0.3821135024656E-02  0.2956070628283E-03
 0.4432201287041E-02  0.2385434734903E-03
 0.5080686270835E-02  0.1636182507420E-03
 0.5765295593064E-02  0.6982370609179E-04
 0.6484701002724E-02 -0.4395083243827E-04
 0.7237635157986E-02 -0.1789521042135E-03
 0.8022758307172E-02 -0.3365471490730E-03
 0.8838622613043E-02 -0.5181780015934E-03
 0.9683449701219E-02 -0.7252309011675E-03
 0.1055471176731E-01 -0.9581505148331E-03
 0.1144856864087E-01 -0.1213376469595E-02
 0.1235996370017E-01 -0.1486605228344E-02
 0.1328305105726E-01 -0.1775272161036E-02
 0.1421154533712E-01 -0.2078521863314E-02
 0.1513884774542E-01 -0.2396483513330E-02
 0.1605796286824E-01 -0.2729639579697E-02
 0.1696130810264E-01 -0.3078461593137E-02
 0.1784051854954E-01 -0.3443259173069E-02
 0.1868627105666E-01 -0.3824157205997E-02
 0.1948823259093E-01 -0.4221163788604E-02
 0.2023524523897E-01 -0.4634652069333E-02
 0.2091528380576E-01 -0.5065520397786E-02
 0.2151417532758E-01 -0.5514063973302E-02
 0.2201414934932E-01 -0.5979860494651E-02
 0.2239164229673E-01 -0.6461735253353E-02
 0.2261363747555E-01 -0.6957785129578E-02
 0.2263129335960E-01 -0.7465975674827E-02
 0.2237023788653E-01 -0.7988820624904E-02
 0.2173066553275E-01 -0.8553648727716E-02
 0.2065329421126E-01 -0.9246425769610E-02
 0.8204350900322E-04  0.5029783771368E-04
 0.2337566490627E-03  0.1000469198682E-03
 0.4437289087942E-03  0.1455969249680E-03
 0.7062276007329E-03  0.1830611292682E-03
 0.1018555789283E-02  0.2102015895980E-03
 0.1378856746849E-02  0.2258082280746E-03
 0.1785459331595E-02  0.2290030153803E-03
 0.2236778305620E-02  0.2189993717406E-03
 0.2731298685151E-02  0.1950369601873E-03
 0.3267565783727E-02  0.1563517220355E-03
 0.3844176799469E-02  0.1021560811688E-03
 0.4459765876254E-02  0.3162303468350E-04
 0.5113003981040E-02 -0.5613072710300E-04
 0.5802585083422E-02 -0.1620601593953E-03
 0.6527164195391E-02 -0.2871958727701E-03
 0.7285445684467E-02 -0.4326651725226E-03
 0.8076032954876E-02 -0.5996523921934E-03
 0.8897368270503E-02 -0.7893332089071E-03
 0.9747504798463E-02 -0.1002746207153E-02
 0.1062374033689E-01 -0.1239986199909E-02
 0.1152213939753E-01 -0.1497383438454E-02
 0.1243762523214E-01 -0.1770610729824E-02
 0.1336433520644E-01 -0.2057017799095E-02
 0.1429592095214E-01 -0.2355590146733E-02
 0.1522566593378E-01 -0.2666247654812E-02
 0.1614641496148E-01 -0.2989230186087E-02
 0.1705040283013E-01 -0.3324741314882E-02
 0.1792908256784E-01 -0.3672800189007E-02
 0.1877296677404E-01 -0.4033208294600E-02
 0.1957155484501E-01 -0.4405584521736E-02
 0.2031343702602E-01 -0.4789782480786E-02
 0.2098618872222E-01 -0.5186020376990E-02
 0.2157514450006E-01 -0.5593796918565E-02
 0.2206204257723E-01 -0.6011794010292E-02
 0.2242307167248E-01 -0.6437994514341E-02
 0.2262592443533E-01 -0.6870163268711E-02
 0.2262574295822E-01 -0.7307759072464E-02
 0.2236279473280E-01 -0.7758714321401E-02
 0.2177614543720E-01 -0.8255201137024E-02
 0.2086451498773E-01 -0.8864662181231E-02
 0.8156972577430E-04  0.3068404281975E-04
 0.2323947144057E-03  0.6007964965080E-04
 0.4427604692195E-03  0.8572874590253E-04
 0.7068172220913E-03  0.1043720262222E-03
 0.1021405127451E-02  0.1137081421245E-03
 0.1384415876355E-02  0.1123265766500E-03
 0.1794076804971E-02  0.9922874562386E-04
 0.2248755129324E-02  0.7356963666206E-04
 0.2746907946165E-02  0.3456261331062E-04
 0.3287061491487E-02 -0.1856178337828E-04
 0.3867797931844E-02 -0.8658028867070E-04
 0.4487737906267E-02 -0.1702938538337E-03
 0.5145538520279E-02 -0.2705432551211E-03
 0.5839876968084E-02 -0.3882202435497E-03
 0.6569383847944E-02 -0.5242632839899E-03
 0.7332723599668E-02 -0.6796680291463E-03
 0.8128428065315E-02 -0.8554304327597E-03
 0.8954819863066E-02 -0.1052473392687E-02
 0.9809789793733E-02 -0.1271530439104E-02
 0.1069047893199E-01 -0.1512411400785E-02
 0.1159287004172E-01 -0.1771392372815E-02
 0.1251187141353E-01 -0.2044159347578E-02
 0.1344160966312E-01 -0.2327999142989E-02
 0.1437568546423E-01 -0.2621753567971E-02
 0.1530728182068E-01 -0.2925150701010E-02
 0.1622910550394E-01 -0.3238215960418E-02
 0.1713323560198E-01 -0.3560927783094E-02
 0.1801097314906E-01 -0.3893070559431E-02
 0.1885269333915E-01 -0.4234189433689E-02
 0.1964775384062E-01 -0.4583600789523E-02
 0.2038454533230E-01 -0.4940769582273E-02
 0.2105036144022E-01 -0.5305447455234E-02
 0.2163026226786E-01 -0.5676680773429E-02
 0.2210589536722E-01 -0.6052808305755E-02
 0.2245394282752E-01 -0.6431813205010E-02
 0.2264417482518E-01 -0.6812324847323E-02
 0.2263797161489E-01 -0.7196412948252E-02
 0.2239135602678E-01 -0.7596202570179E-02
 0.2187331363560E-01 -0.8043566336540E-02
 0.2111284306363E-01 -0.8588667546894E-02
 0.8198540218011E-04  0.1201329588598E-04
 0.2325271592407E-03  0.2204585209878E-04
 0.4433837143680E-03  0.2849042468975E-04
 0.7088810161513E-03  0.2869763870572E-04
 0.1025586445302E-02  0.2047171049441E-04
 0.1391175459434E-02  0.2306188643285E-05
 0.1803766689264E-02 -0.2688660586649E-04
 0.2261672929194E-02 -0.6799958567106E-04
 0.2763319051521E-02 -0.1218384665503E-03
 0.3307208912468E-02 -0.1891717330558E-03
 0.3891906728526E-02 -0.2707587141844E-03
 0.4516016523118E-02 -0.3673671131634E-03
 0.5178177685420E-02 -0.4797871765565E-03
 0.5877045392276E-02 -0.6088386738808E-03
 0.6611218425453E-02 -0.7553590255673E-03
 0.7379311361674E-02 -0.9202057143466E-03
 0.8179774449832E-02 -0.1104188506833E-02
 0.9010807712638E-02 -0.1307996777892E-02
 0.9870149876773E-02 -0.1532098977215E-02
 0.1075480298846E-01 -0.1776072620021E-02
 0.1166068065661E-01 -0.2036179934454E-02
 0.1258268071451E-01 -0.2308147483867E-02
 0.1351492381526E-01 -0.2589220962405E-02
 0.1445097081304E-01 -0.2878118983105E-02
 0.1538392229459E-01 -0.3174401734942E-02
 0.1630637099061E-01 -0.3477912320359E-02
 0.1721026940915E-01 -0.3788447042290E-02
 0.1808679850305E-01 -0.4105609887714E-02
 0.1892622831127E-01 -0.4428758301051E-02
 0.1971781450791E-01 -0.4756999345721E-02
 0.2044982127672E-01 -0.5089547581163E-02
 0.2110940271254E-01 -0.5425899118579E-02
 0.2168159088062E-01 -0.5764959222261E-02
 0.2214835790010E-01 -0.6105170645896E-02
 0.2248756605288E-01 -0.6445107030449E-02
 0.2267211132810E-01 -0.6784860966058E-02
 0.2267062741728E-01 -0.7129063881903E-02
 0.2245350323007E-01 -0.7492122639062E-02
 0.2201080728407E-01 -0.7902781804647E-02
 0.2138536192588E-01 -0.8397071900935E-02
 0.8309024083669E-04 -0.5889232114247E-05
 0.2338900242966E-03 -0.1437698357287E-04
 0.4454068062960E-03 -0.2646094711172E-04
 0.7122970381442E-03 -0.4424871558497E-04
 0.1031009127891E-02 -0.6974129691071E-04
 0.1399055698681E-02 -0.1044547967565E-03
 0.1814452718998E-02 -0.1495261679037E-03
 0.2275455494585E-02 -0.2058799779119E-03
 0.2780453478599E-02 -0.2743316115557E-03
 0.3327925282303E-02 -0.3556411994784E-03
 0.3916414365288E-02 -0.4505438618448E-03
 0.4544505033279E-02 -0.5597672131110E-03
 0.5210815130658E-02 -0.6840439347114E-03
 0.5913972785715E-02 -0.8241148424758E-03
 0.6652538371069E-02 -0.9807105249650E-03
 0.7425068915258E-02 -0.1154548513323E-02
 0.8229927344729E-02 -0.1346259788437E-02
 0.9065192983412E-02 -0.1556321790074E-02
 0.9928464977183E-02 -0.1784974183781E-02
 0.1081662343814E-01 -0.2031605605049E-02
 0.1172552468449E-01 -0.2292494799134E-02
 0.1265006080362E-01 -0.2563430085289E-02
 0.1358435138815E-01 -0.2841636652042E-02
 0.1452192859137E-01 -0.3125732972891E-02
 0.1545582922927E-01 -0.3415138785786E-02
 0.1637855728742E-01 -0.3709549034064E-02
 0.1728196925806E-01 -0.4008620672239E-02
 0.1815716007187E-01 -0.4311830586331E-02
 0.1899433259028E-01 -0.4618417096202E-02
 0.1978269159023E-01 -0.4927371312205E-02
 0.2051046204100E-01 -0.5237791152220E-02
 0.2116481291396E-01 -0.5549108440196E-02
 0.2173099759104E-01 -0.5860344277100E-02
 0.2219169678899E-01 -0.6170368499210E-02
 0.2252650447049E-01 -0.6478679847687E-02
 0.2271206192638E-01 -0.6786959229969E-02
 0.2272427949160E-01 -0.7101804770706E-02
 0.2254547118581E-01 -0.7438253702333E-02
 0.2217963562601E-01 -0.7820782697063E-02
 0.2167420159492E-01 -0.8274541865014E-02
 0.8473728844617E-04 -0.2314694461080E-04
 0.2362674284569E-03 -0.4943031000841E-04
 0.4486477237997E-03 -0.7940846104733E-04
 0.7169359359362E-03 -0.1147277228944E-03
 0.1037575603903E-02 -0.1571556621241E-03
 0.1407973182577E-02 -0.2081549765139E-03
 0.1826057186883E-02 -0.2688724230190E-03
 0.2290026657127E-02 -0.3402446064651E-03
 0.2798233945042E-02 -0.4230853748216E-03
 0.3349130174871E-02 -0.5181383724984E-03
 0.3941235521446E-02 -0.6261075950076E-03
 0.4573111638272E-02 -0.7476741669497E-03
 0.5243351221465E-02 -0.8835071946520E-03
 0.5950550817863E-02 -0.1034263359768E-02
 0.6693226974828E-02 -0.1200563424426E-02
 0.7469873892954E-02 -0.1382986831506E-02
 0.8278765088360E-02 -0.1581996364853E-02
 0.9117864431330E-02 -0.1797879532155E-02
 0.9984645030836E-02 -0.2030679691418E-02
 0.1087588139722E-01 -0.2279632950642E-02
 0.1178738394123E-01 -0.2541058169779E-02
 0.1271404433820E-01 -0.2810822413048E-02
 0.1364998678470E-01 -0.3086149754969E-02
 0.1458872630451E-01 -0.3365582539154E-02
 0.1552325507723E-01 -0.3648429024242E-02
 0.1644601435483E-01 -0.3934270750619E-02
 0.1734879614290E-01 -0.4222667285680E-02
 0.1822264544288E-01 -0.4513020041388E-02
 0.1905774075280E-01 -0.4804514415824E-02
 0.1984329492825E-01 -0.5096113886178E-02
 0.2056758829717E-01 -0.5386920567789E-02
 0.2121795919547E-01 -0.5676462602566E-02
 0.2178011344045E-01 -0.5964069892006E-02
 0.2223775972306E-01 -0.6249239316364E-02
 0.2257259806249E-01 -0.6532514523560E-02
 0.2276523194046E-01 -0.6816996692834E-02
 0.2279824675594E-01 -0.7110518774455E-02
 0.2266325817101E-01 -0.7427601738171E-02
 0.2237292179582E-01 -0.7788297263669E-02
 0.2197437991834E-01 -0.8209624395361E-02
 0.8681544516918E-04 -0.3985078706605E-04
 0.2394826553918E-03 -0.8329953213476E-04
 0.4529400123068E-03 -0.1305860597916E-03
 0.7226679806495E-03 -0.1829723611502E-03
 0.1045184647551E-02 -0.2419838214691E-03
 0.1417842193526E-02 -0.3089876455278E-03
 0.1838501711508E-02 -0.3851059702059E-03
 0.2305310875569E-02 -0.4712669889394E-03
 0.2816584928253E-02 -0.5682707300565E-03
 0.3370746024951E-02 -0.6768357522207E-03
 0.3966288937611E-02 -0.7976280482385E-03
 0.4601750043816E-02 -0.9312763657962E-03
 0.5275693688825E-02 -0.1078381265777E-02
 0.5986681026640E-02 -0.1239511790487E-02
 0.6733180739080E-02 -0.1415178230698E-02
 0.7513621233305E-02 -0.1605826438713E-02
 0.8326187466876E-02 -0.1811763334280E-02
 0.9168735361138E-02 -0.2033107855831E-02
 0.1003862593594E-01 -0.2269735933357E-02
 0.1093254369772E-01 -0.2520761972306E-02
 0.1184626425059E-01 -0.2782563741821E-02
 0.1277468498020E-01 -0.3051101088579E-02
 0.1371194137608E-01 -0.3323615114649E-02
 0.1465154356041E-01 -0.3598595957845E-02
 0.1558645859250E-01 -0.3875269534843E-02
 0.1650909134173E-01 -0.4153138244255E-02
 0.1741120143351E-01 -0.4431704660937E-02
 0.1828382156554E-01 -0.4710343646132E-02
 0.1911715195867E-01 -0.4988249261177E-02
 0.1990047662061E-01 -0.5264436695729E-02
 0.2062222653445E-01 -0.5538114846706E-02
 0.2127005363996E-01 -0.5809032966355E-02
 0.2183031360773E-01 -0.6076958328063E-02
 0.2228797915869E-01 -0.6342107444670E-02
 0.2262705147168E-01 -0.6606035455497E-02
 0.2283200256446E-01 -0.6872957644639E-02
 0.2289118028008E-01 -0.7151279816343E-02
 0.2280311936867E-01 -0.7454325909438E-02
 0.2258545083313E-01 -0.7798051060409E-02
 0.2228261469847E-01 -0.8193483284368E-02
 0.8923855855448E-04 -0.5607028933308E-04
 0.2433903066572E-03 -0.1161304959977E-03
 0.4581345237755E-03 -0.1801883957455E-03
 0.7293677298597E-03 -0.2491892588816E-03
 0.1053734469833E-02 -0.3244241392418E-03
 0.1428576236247E-02 -0.4071392349214E-03
 0.1851708111167E-02 -0.4984044633227E-03
 0.2321233871908E-02 -0.5991202688614E-03
 0.2835433206551E-02 -0.7100603318714E-03
 0.3392698643446E-02 -0.8319093858280E-03
 0.3991497937130E-02 -0.9652887369928E-03
 0.4630339993648E-02 -0.1110769444274E-02
 0.5307758147387E-02 -0.1268879563357E-02
 0.6022275219477E-02 -0.1440098482527E-02
 0.6772309425832E-02 -0.1624827249827E-02
 0.7556222506734E-02 -0.1823384409930E-02
 0.8372114014125E-02 -0.2035934105456E-02
 0.9217740916308E-02 -0.2262446878606E-02
 0.1009036614181E-01 -0.2502656854813E-02
 0.1098659914720E-01 -0.2755583154073E-02
 0.1190219168723E-01 -0.3017677731731E-02
 0.1283205379591E-01 -0.3285005078752E-02
 0.1377034001309E-01 -0.3554840196009E-02
 0.1471056847859E-01 -0.3825644170179E-02
 0.1564570091053E-01 -0.4096588929632E-02
 0.1656813219771E-01 -0.4367130636854E-02
 0.1746962186289E-01 -0.4636752932499E-02
 0.1834122868808E-01 -0.4904849263531E-02
 0.1917322212217E-01 -0.5170677486450E-02
 0.1995502085932E-01 -0.5433372281951E-02
 0.2067529689039E-01 -0.5692330998700E-02
 0.2132214193008E-01 -0.5947612333665E-02
 0.2188271599026E-01 -0.6199491349292E-02
 0.2234340414765E-01 -0.6448913400715E-02
 0.2269054874718E-01 -0.6698319395218E-02
 0.2291219130140E-01 -0.6952699481225E-02
 0.2300143477174E-01 -0.7220516792834E-02
 0.2296174652795E-01 -0.7513564680427E-02
 0.2281325575343E-01 -0.7844220858072E-02
 0.2259666133168E-01 -0.8219123216168E-02
 0.9193838604824E-04 -0.7186031435199E-04
 0.2478699372444E-03 -0.1480405477189E-03
 0.4640991440508E-03 -0.2283790141140E-03
 0.7369168267713E-03 -0.3135613371364E-03
 0.1063125230082E-02 -0.4046604682389E-03
 0.1440089536948E-02 -0.5027882340662E-03
 0.1865599286071E-02 -0.6089416412858E-03
 0.2337723234926E-02 -0.7239763429979E-03
 0.2854708332745E-02 -0.8486276419291E-03
 0.3414917627063E-02 -0.9835379048215E-03
 0.4016790798901E-02 -0.1129277413653E-02
 0.4658807601522E-02 -0.1286354846553E-02
 0.5339468342271E-02 -0.1455222743639E-02
 0.6057255521211E-02 -0.1636270096577E-02
 0.6810535695798E-02 -0.1829791361669E-02
 0.7597604881596E-02 -0.2035985171547E-02
 0.8416482140067E-02 -0.2254886073814E-02
 0.9264835440275E-02 -0.2486334939988E-02
 0.1013984348007E-01 -0.2729946811059E-02
 0.1103805507446E-01 -0.2984668341049E-02
 0.1195520902763E-01 -0.3247038278309E-02
 0.1288623572414E-01 -0.3513235929959E-02
 0.1382531750390E-01 -0.3780585773239E-02
 0.1476599406623E-01 -0.4047541771814E-02
 0.1570124168978E-01 -0.4313248769723E-02
 0.1662347147193E-01 -0.4577147566458E-02
 0.1752447483152E-01 -0.4838737889842E-02
 0.1839537487657E-01 -0.5097472190239E-02
 0.1922655733880E-01 -0.5352719518554E-02
 0.2000763640095E-01 -0.5603788909852E-02
 0.2072760604387E-01 -0.5850326447247E-02
 0.2137510082443E-01 -0.6092754780982E-02
 0.2193819331139E-01 -0.6331879216493E-02
 0.2240474793110E-01 -0.6569325495144E-02
 0.2276336903188E-01 -0.6808251156135E-02
 0.2300525449068E-01 -0.7054108321795E-02
 0.2312728924690E-01 -0.7315056705687E-02
 0.2313629892557E-01 -0.7601256437282E-02
 0.2305329216605E-01 -0.7922061387622E-02
 0.2291493138150E-01 -0.8280891681999E-02
 0.9485991466276E-04 -0.8726535918290E-04
 0.2528210734391E-03 -0.1791261124060E-03
 0.4707176267840E-03 -0.2752968995444E-03
 0.7452055216623E-03 -0.3762508828701E-03
 0.1073260954132E-02 -0.4828626512251E-03
 0.1452298442388E-02 -0.5961047477463E-03
 0.1880100145309E-02 -0.7168867416534E-03
 0.2354709090026E-02 -0.8460052957347E-03
 0.2874343177598E-02 -0.9841463590680E-03
 0.3437336837066E-02 -0.1131901893227E-02
 0.4042101193749E-02 -0.1289785301420E-02
 0.4687085734727E-02 -0.1458238835476E-02
 0.5370756427940E-02 -0.1637637376207E-02
 0.6091554437869E-02 -0.1828279822309E-02
 0.6847794784869E-02 -0.2030357713610E-02
 0.7637710232421E-02 -0.2243957765675E-02
 0.8459245591518E-02 -0.2468997781069E-02
 0.9309990375625E-02 -0.2705206144263E-02
 0.1018705267942E-01 -0.2952098949096E-02
 0.1108693462092E-01 -0.3208570195539E-02
 0.1200537293465E-01 -0.3471255928016E-02
 0.1293732672724E-01 -0.3736459056153E-02
 0.1387701574144E-01 -0.4001567791727E-02
 0.1481801527116E-01 -0.4265049367738E-02
 0.1575333601664E-01 -0.4526046529099E-02
 0.1667543099443E-01 -0.4784013033389E-02
 0.1757615476045E-01 -0.5038496111828E-02
 0.1844673191115E-01 -0.5289042240653E-02
 0.1927770936554E-01 -0.5535170633509E-02
 0.2005895229724E-01 -0.5776406346431E-02
 0.2077984523864E-01 -0.6012684258855E-02
 0.2142964319567E-01 -0.6244816355499E-02
 0.2199739466967E-01 -0.6474124350488E-02
 0.2247244191973E-01 -0.6702831261173E-02
 0.2284549016151E-01 -0.6934632675360E-02
 0.2311043498357E-01 -0.7175182966619E-02
 0.2326707024553E-01 -0.7432111534627E-02
 0.2332437232126E-01 -0.7713984365343E-02
 0.2330319932046E-01 -0.8027646715671E-02
 0.2323626732897E-01 -0.8374146651083E-02
 0.9795815859503E-04 -0.1023223896638E-03
 0.2581593538133E-03 -0.2094679708775E-03
 0.4778880871517E-03 -0.3210615728397E-03
 0.7541333185897E-03 -0.4374024937608E-03
 0.1084050862212E-02 -0.5591874359468E-03
 0.1465122568549E-02 -0.6872503662665E-03
 0.1895138424808E-02 -0.8224040077745E-03
 0.2372124681864E-02 -0.9653747811518E-03
 0.2894274370472E-02 -0.1116789705620E-02
 0.3459894747063E-02 -0.1277183044054E-02
 0.4067368453469E-02 -0.1447006062782E-02
 0.4715114186684E-02 -0.1626631197916E-02
 0.5401562988862E-02 -0.1816354299999E-02
 0.6125114624515E-02 -0.2016385310013E-02
 0.6884033883486E-02 -0.2226817216983E-02
 0.7676494011283E-02 -0.2447633033956E-02
 0.8500372786585E-02 -0.2678646068524E-02
 0.9353192146540E-02 -0.2919487855342E-02
 0.1023200292931E-01 -0.3169593372413E-02
 0.1113327409613E-01 -0.3427821205862E-02
 0.1205275118218E-01 -0.3690913480982E-02
 0.1298543094025E-01 -0.3955304303115E-02
 0.1392558080295E-01 -0.4218458534141E-02
 0.1486682602447E-01 -0.4478875326092E-02
 0.1580223136660E-01 -0.4735718068236E-02
 0.1672431672720E-01 -0.4988478870587E-02
 0.1762502980493E-01 -0.5236779878550E-02
 0.1849573190028E-01 -0.5480290837497E-02
 0.1932717245986E-01 -0.5718711497505E-02
 0.2010951598778E-01 -0.5951811964668E-02
 0.2083259199960E-01 -0.6179838023009E-02
 0.2148632802198E-01 -0.6403992936570E-02
 0.2206077174075E-01 -0.6626076001875E-02
 0.2254668860764E-01 -0.6848807965046E-02
 0.2293667423661E-01 -0.7076255111456E-02
 0.2322686402303E-01 -0.7314074196134E-02
 0.2341921365789E-01 -0.7569241615843E-02
 0.2352394520748E-01 -0.7848849455336E-02
 0.2356112732694E-01 -0.8157686021838E-02
 0.2355980217585E-01 -0.8495027184448E-02
 0.1011959139320E-03 -0.1170627666476E-03
 0.2638135532801E-03 -0.2391350069995E-03
 0.4855214585393E-03 -0.3657770484550E-03
 0.7636090869771E-03 -0.4971457437610E-03
 0.1095410240664E-02 -0.6337796239643E-03
 0.1478485721060E-02 -0.7763783422506E-03
 0.1910645417507E-02 -0.9256524149705E-03
 0.2389906920144E-02 -0.1082249549141E-02
 0.2914442713835E-02 -0.1246729821395E-02
 0.3482534760434E-02 -0.1419563412263E-02
 0.4092537797963E-02 -0.1601134871426E-02
 0.4742839792226E-02 -0.1791744079797E-02
 0.5431836989141E-02 -0.1991607162167E-02
 0.6157888582852E-02 -0.2200846875280E-02
 0.6919211480055E-02 -0.2419462443139E-02
 0.7713924162098E-02 -0.2647341336242E-02
 0.8539845299589E-02 -0.2884203857072E-02
 0.9394440291065E-02 -0.3129598823676E-02
 0.1027471575963E-01 -0.3382895857032E-02
 0.1117712068256E-01 -0.3642933125231E-02
 0.1209742023856E-01 -0.3906566168642E-02
 0.1303065817766E-01 -0.4170366811963E-02
 0.1397116041491E-01 -0.4431888123249E-02
 0.1491261668384E-01 -0.4689677948257E-02
 0.1584816503761E-01 -0.4942940613200E-02
 0.1677041620372E-01 -0.5191228807229E-02
 0.1767143935053E-01 -0.5434262772095E-02
 0.1854276501191E-01 -0.5671858886034E-02
 0.1937538186980E-01 -0.5903919496499E-02
 0.2015979377568E-01 -0.6130477310922E-02
 0.2088631500584E-01 -0.6352096054312E-02
 0.2154557379522E-01 -0.6570354615389E-02
 0.2212860668151E-01 -0.6787475853989E-02
 0.2262750978969E-01 -0.7006575301489E-02
 0.2303653513696E-01 -0.7231944493752E-02
 0.2335362881888E-01 -0.7469098447656E-02
 0.2358229009321E-01 -0.7724312657558E-02
 0.2373332148773E-01 -0.8003368201988E-02
 0.2382561496459E-01 -0.8309387021494E-02
 0.2388487068456E-01 -0.8640289841480E-02
 0.1045421481230E-03 -0.1315135879427E-03
 0.2697232820988E-03 -0.2681869118011E-03
 0.4935400454356E-03 -0.4095348993051E-03
 0.7735508514288E-03 -0.5555974931694E-03
 0.1107260958276E-02 -0.7067732735160E-03
 0.1492316590315E-02 -0.8636339466347E-03
 0.1926556587614E-02 -0.1026785546844E-02
 0.2407996860149E-02 -0.1196791067548E-02
 0.2934793546556E-02 -0.1374137217414E-02
 0.3505205473941E-02 -0.1559224710400E-02
 0.4117560498361E-02 -0.1752367526050E-02
 0.4770216466056E-02 -0.1953790880144E-02
 0.5461535636713E-02 -0.2163631056404E-02
 0.6189838279942E-02 -0.2381925871360E-02
 0.6953296659775E-02 -0.2608585777151E-02
 0.7749980055650E-02 -0.2843410614228E-02
 0.8577656447587E-02 -0.3086038321079E-02
 0.9433745765803E-02 -0.3335947693527E-02
 0.1031522314010E-01 -0.3592456877607E-02
 0.1121853038687E-01 -0.3854396626198E-02
 0.1213946311088E-01 -0.4118741969422E-02
 0.1307312171117E-01 -0.4382207987891E-02
 0.1401390170655E-01 -0.4642446145262E-02
 0.1495557180307E-01 -0.4898067806218E-02
 0.1589136197778E-01 -0.5148335959353E-02
 0.1681399647538E-01 -0.5392882812945E-02
 0.1771569220024E-01 -0.5631545604020E-02
 0.1858817818851E-01 -0.5864304975541E-02
 0.1942271372546E-01 -0.6091280241033E-02
 0.2021017318502E-01 -0.6312774315764E-02
 0.2094138115840E-01 -0.6529663925763E-02
 0.2160767367908E-01 -0.6743875736392E-02
 0.2220103939644E-01 -0.6957994766206E-02
 0.2271478821610E-01 -0.7175433486144E-02
 0.2314458988198E-01 -0.7400588945566E-02
 0.2348981553007E-01 -0.7638737597417E-02
 0.2375500897127E-01 -0.7895455014810E-02
 0.2395107578803E-01 -0.8175390422830E-02
 0.2409550422914E-01 -0.8480347688383E-02
 0.2421095523338E-01 -0.8807186791141E-02
 0.1079708202037E-03 -0.1456986414340E-03
 0.2758371981794E-03 -0.2966761651020E-03
 0.5018762266129E-03 -0.4524166352374E-03
 0.7838854025071E-03 -0.6128638442765E-03
 0.1119531720886E-02 -0.7782928615238E-03
 0.1506549248083E-02 -0.9491549237454E-03
 0.1942812065310E-02 -0.1125951583865E-02
 0.2426340110056E-02 -0.1309157229248E-02
 0.2955277051477E-02 -0.1499180290078E-02
 0.3527860887445E-02 -0.1696347653270E-02
 0.4142393980957E-02 -0.1900899616029E-02
 0.4797205175543E-02 -0.2112985216026E-02
 0.5490624180895E-02 -0.2332661270645E-02
 0.6220934713711E-02 -0.2559883229523E-02
 0.6986268385793E-02 -0.2794477810088E-02
 0.7784651463725E-02 -0.3036164756144E-02
 0.8613809980570E-02 -0.3284509393534E-02
 0.9471129409299E-02 -0.3538931826271E-02
 0.1035356577677E-01 -0.3798710895882E-02
 0.1125756621439E-01 -0.4062681148406E-02
 0.1217896743249E-01 -0.4327942060216E-02
 0.1311293630950E-01 -0.4591356576659E-02
 0.1405394925048E-01 -0.4850683384822E-02
 0.1499586822940E-01 -0.5104610216785E-02
 0.1593203300691E-01 -0.5352473843211E-02
 0.1685530255639E-01 -0.5594001633491E-02
 0.1775806542280E-01 -0.5829162528941E-02
 0.1863227476032E-01 -0.6058113683232E-02
 0.1946948612165E-01 -0.6281198902449E-02
 0.2026096675913E-01 -0.6498990681025E-02
 0.2099806403783E-01 -0.6712664842010E-02
 0.2167281117686E-01 -0.6924460428321E-02
 0.2227809275388E-01 -0.7137261618695E-02
 0.2280830230550E-01 -0.7354689934520E-02
 0.2326029654789E-01 -0.7581153774426E-02
 0.2363453546364E-01 -0.7821631169916E-02
 0.2393621138331E-01 -0.8081030242785E-02
 0.2417600158369E-01 -0.8363035661973E-02
 0.2436987876687E-01 -0.8668461640897E-02
 0.2453766472599E-01 -0.8993363464709E-02
 0.1114599989335E-03 -0.1596390851518E-03
 0.2821116115426E-03 -0.3246495133538E-03
 0.5104713198056E-03 -0.4944955559143E-03
 0.7945478195241E-03 -0.6690417725053E-03
 0.1132158139826E-02 -0.8484543554501E-03
 0.1521123477525E-02 -0.1033071987830E-02
 0.1959357027131E-02 -0.1223293370504E-02
 0.2444887162307E-02 -0.1419502131086E-02
 0.2975848505331E-02 -0.1622024894041E-02
 0.3550460560999E-02 -0.1831111355647E-02
 0.4167001877502E-02 -0.2046925745987E-02
 0.4823773858596E-02 -0.2269539966065E-02
 0.5519075659744E-02 -0.2498932148546E-02
 0.6251157445765E-02 -0.2734978162415E-02
 0.7018114782294E-02 -0.2977425948983E-02
 0.7817937584114E-02 -0.3225922223642E-02
 0.8648318874838E-02 -0.3479968551540E-02
 0.9506620552758E-02 -0.3738936388913E-02
 0.1038979158858E-01 -0.4002075872637E-02
 0.1129429654913E-01 -0.4268234917811E-02
 0.1221602377889E-01 -0.4534641394805E-02
 0.1315021653047E-01 -0.4798309842418E-02
 0.1409144338469E-01 -0.5057113656215E-02
 0.1503367352335E-01 -0.5309827819901E-02
 0.1597037342225E-01 -0.5555875426701E-02
 0.1689455634560E-01 -0.5795091431221E-02
 0.1779880381272E-01 -0.6027587212192E-02
 0.1867531484515E-01 -0.6253703783945E-02
 0.1951596116226E-01 -0.6474011108892E-02
 0.2031241687838E-01 -0.6689344126829E-02
 0.2105655307437E-01 -0.6901157622315E-02
 0.2174107541351E-01 -0.7111963816652E-02
 0.2235969503711E-01 -0.7324885434575E-02
 0.2290775423802E-01 -0.7543677411679E-02
 0.2338308179468E-01 -0.7772688428168E-02
 0.2378693934986E-01 -0.8016566310580E-02
 0.2412486010469E-01 -0.8279599952815E-02
 0.2440706179760E-01 -0.8564663733064E-02
 0.2464800467760E-01 -0.8871818684440E-02
 0.2486476369809E-01 -0.9196756471186E-02
 0.1149911924985E-03 -0.1733538944180E-03
 0.2885093951190E-03 -0.3521491281827E-03
 0.5192745927507E-03 -0.5358381804144E-03
 0.8054809655796E-03 -0.7242204823559E-03
 0.1145082670531E-02 -0.9173661708943E-03
 0.1535984968790E-02 -0.1115509323244E-02
 0.1976141972256E-02 -0.1318948533109E-02
 0.2463593650520E-02 -0.1527975911653E-02
 0.2996468471338E-02 -0.1742833970474E-02
 0.3572969721780E-02 -0.1963692784959E-02
 0.4191354027704E-02 -0.2190638823613E-02
 0.4849897296635E-02 -0.2423666396648E-02
 0.5546870611280E-02 -0.2662676065001E-02
 0.6280494117675E-02 -0.2907467022035E-02
 0.7048832433683E-02 -0.3157713223454E-02
 0.7849846123780E-02 -0.3412994906812E-02
 0.8681204227635E-02 -0.3672757840123E-02
 0.9540255768476E-02 -0.3936333666592E-02
 0.1042395435052E-01 -0.4202952970252E-02
 0.1132879372516E-01 -0.4471485116074E-02
 0.1225072419929E-01 -0.4739289396010E-02
 0.1318507525473E-01 -0.5003534834559E-02
 0.1412651880674E-01 -0.5262215711113E-02
 0.1506914469037E-01 -0.5514203227058E-02
 0.1600656197134E-01 -0.5759016839755E-02
 0.1693195599349E-01 -0.5996608449303E-02
 0.1783811989812E-01 -0.6227238933820E-02
 0.1871751640977E-01 -0.6451436203290E-02
 0.1956234773790E-01 -0.6669993202314E-02
 0.2036470122149E-01 -0.6883995312790E-02
 0.2111696289515E-01 -0.7095152261756E-02
 0.2181247545440E-01 -0.7306209309331E-02
 0.2244569934527E-01 -0.7520472007906E-02
 0.2301279228817E-01 -0.7741765855955E-02
 0.2351236009325E-01 -0.7974328573711E-02
 0.2394622533598E-01 -0.8222466123267E-02
 0.2432002371925E-01 -0.8489903602342E-02
 0.2464336791905E-01 -0.8778838363819E-02
 0.2492921382841E-01 -0.9088745418742E-02
 0.2519230955651E-01 -0.9415251592617E-02
 0.1185440480820E-03 -0.1868503840861E-03
 0.2949828581111E-03 -0.3791786853844E-03
 0.5282106886194E-03 -0.5764334013377E-03
 0.8165838630590E-03 -0.7783602700870E-03
 0.1158180773461E-02 -0.9849448496171E-03
 0.1550986297256E-02 -0.1196324719274E-02
 0.1992995887529E-02 -0.1412702442807E-02
 0.2482263452818E-02 -0.1634279728940E-02
 0.3016914001468E-02 -0.1861214654919E-02
 0.3595137150591E-02 -0.2093597183666E-02
 0.4215170084668E-02 -0.2331436205108E-02
 0.4875265958512E-02 -0.2574649821592E-02
 0.5573671203970E-02 -0.2823063923963E-02
 0.6308580493483E-02 -0.3076405627063E-02
 0.7078033587237E-02 -0.3334281214810E-02
 0.7879969551798E-02 -0.3596212251146E-02
 0.8712043064603E-02 -0.3861597614825E-02
 0.9571601245203E-02 -0.4129738576915E-02
 0.1045561396301E-01 -0.4399855577416E-02
 0.1136061553217E-01 -0.4670847345863E-02
 0.1228262789587E-01 -0.4940206929230E-02
 0.1321707563683E-01 -0.5205259726988E-02
 0.1415874360584E-01 -0.5464125733496E-02
 0.1510185329968E-01 -0.5715779434772E-02
 0.1604016865448E-01 -0.5959844018551E-02
 0.1696705986053E-01 -0.6196394052685E-02
 0.1787554355437E-01 -0.6425842245556E-02
 0.1875835505123E-01 -0.6648900608609E-02
 0.1960802978709E-01 -0.6866575239031E-02
 0.2041706016664E-01 -0.7080183200504E-02
 0.2117832111621E-01 -0.7291659618151E-02
 0.2188573818006E-01 -0.7503940514333E-02
 0.2253442756269E-01 -0.7720462392991E-02
 0.2312122170231E-01 -0.7945070057866E-02
 0.2364531824312E-01 -0.8181857352688E-02
 0.2410889298170E-01 -0.8434795906627E-02
 0.2451750381399E-01 -0.8707112528507E-02
 0.2488006980589E-01 -0.9000444070167E-02
 0.2520814279168E-01 -0.9313838119208E-02
 0.2551434779301E-01 -0.9642755309230E-02
 0.1221108051580E-03 -0.2001548354288E-03
 0.3015223293161E-03 -0.4058085441279E-03
 0.5372755125946E-03 -0.6164106788573E-03
 0.8278666978897E-03 -0.8316627611248E-03
 0.1171484917604E-02 -0.1051475546138E-02
 0.1566188614690E-02 -0.1275897352981E-02
 0.2010013317389E-02 -0.1505038565943E-02
 0.2501027898070E-02 -0.1739011597513E-02
 0.3037355723219E-02 -0.1977889646849E-02
 0.3617174750625E-02 -0.2221681672477E-02
 0.4238704878602E-02 -0.2470318442553E-02
 0.4900179032723E-02 -0.2723642173256E-02
 0.5599822218078E-02 -0.2981405581970E-02
 0.6335807923258E-02 -0.3243266529618E-02
 0.7106156743563E-02 -0.3508767772176E-02
 0.7908793497008E-02 -0.3777377474556E-02
 0.8741367287137E-02 -0.4048453685662E-02
 0.9601233311253E-02 -0.4321273705359E-02
 0.1048538835295E-01 -0.4595054143208E-02
 0.1139041791702E-01 -0.4868728267764E-02
 0.1231242503994E-01 -0.5139924097055E-02
 0.1324693855237E-01 -0.5406124559399E-02
 0.1418886638852E-01 -0.5665578831074E-02
 0.1513257337188E-01 -0.5917369784215E-02
 0.1607199129117E-01 -0.6161229509493E-02
 0.1700068870763E-01 -0.6397358913527E-02
 0.1791191849001E-01 -0.6626323246721E-02
 0.1879869848633E-01 -0.6849014911462E-02
 0.1965390152157E-01 -0.7066643462469E-02
 0.2047041915421E-01 -0.7280740578306E-02
 0.2124159319432E-01 -0.7493441094034E-02
 0.2196188572334E-01 -0.7707836415758E-02
 0.2262699002812E-01 -0.7927452739061E-02
 0.2323429805155E-01 -0.8156116046660E-02
 0.2378345241124E-01 -0.8397755247506E-02
 0.2427682406987E-01 -0.8656019446985E-02
 0.2471976108224E-01 -0.8933690880475E-02
 0.2512043788174E-01 -0.9231938078439E-02
 0.2548906329193E-01 -0.9549458229968E-02
 0.2583635963207E-01 -0.9881671020838E-02
 0.1256807656888E-03 -0.2132822892618E-03
 0.3081057097313E-03 -0.4320714711720E-03
 0.5464378089968E-03 -0.6558222886413E-03
 0.8392929740218E-03 -0.8841998343646E-03
 0.1184957334754E-02 -0.1117048566854E-02
 0.1581555925657E-02 -0.1354334300317E-02
 0.2027161938512E-02 -0.1596079313287E-02
 0.2519859322116E-02 -0.1842308439971E-02
 0.3057771077880E-02 -0.2093010263721E-02
 0.3639065306020E-02 -0.2348112478634E-02
 0.4261946803999E-02 -0.2607467677725E-02
 0.4924630971342E-02 -0.2870842837560E-02
 0.5625324863763E-02 -0.3137919141646E-02
 0.6362185330988E-02 -0.3408287957491E-02
 0.7133219679801E-02 -0.3681432358082E-02
 0.7936345775797E-02 -0.3956771841974E-02
 0.8769215807906E-02 -0.4233628915511E-02
 0.9629202740741E-02 -0.4511262346649E-02
 0.1051334052546E-01 -0.4788890119836E-02
 0.1141827606552E-01 -0.5065484091806E-02
 0.1234020262950E-01 -0.5338807804201E-02
 0.1327476217352E-01 -0.5606502214996E-02
 0.1421699544952E-01 -0.5866948077513E-02
 0.1516142153466E-01 -0.6119340203526E-02
 0.1610215185631E-01 -0.6363522823265E-02
 0.1703296511404E-01 -0.6599824643679E-02
 0.1794736073266E-01 -0.6828961811361E-02
 0.1883864588603E-01 -0.7052001093512E-02
 0.1970003107398E-01 -0.7270343872690E-02
 0.2052479675289E-01 -0.7485718368008E-02
 0.2130672549601E-01 -0.7700434075247E-02
 0.2204076723673E-01 -0.7917705649431E-02
 0.2272311570906E-01 -0.8141114284996E-02
 0.2335161672878E-01 -0.8374438376897E-02
 0.2392623073910E-01 -0.8621430677121E-02
 0.2444939487875E-01 -0.8885435372386E-02
 0.2492614991626E-01 -0.9168841949643E-02
 0.2536389707037E-01 -0.9472425603318E-02
 0.2577158004392E-01 -0.9794612196001E-02
 0.2615822642305E-01 -0.1013080633141E-01
 0.1292452049089E-03 -0.2262467340672E-03
 0.3147147758139E-03 -0.4579980059553E-03
 0.5556715609081E-03 -0.6947170460022E-03
 0.8508320706820E-03 -0.9360390009945E-03
 0.1198566218592E-02 -0.1181749413822E-02
 0.1597058016722E-02 -0.1431737826298E-02
 0.2044414995053E-02 -0.1685942549112E-02
 0.2538735502854E-02 -0.1944302987121E-02
 0.3078142946996E-02 -0.2206723930043E-02
 0.3660797145718E-02 -0.2473052077120E-02
 0.4284889968595E-02 -0.2743062212028E-02
 0.4948622116193E-02 -0.3016446989880E-02
 0.5650186359599E-02 -0.3292817800096E-02
 0.6387727636222E-02 -0.3571702182598E-02
 0.7159245949143E-02 -0.3852527062230E-02
 0.7962659488515E-02 -0.4134667477265E-02
 0.8795632012367E-02 -0.4417414950716E-02
 0.9655563625149E-02 -0.4700014264506E-02
 0.1053953528918E-01 -0.4981688959276E-02
 0.1144426507738E-01 -0.5261452495117E-02
 0.1236604527993E-01 -0.5537203887350E-02
 0.1330063953272E-01 -0.5806742022419E-02
 0.1424323066614E-01 -0.6068580629238E-02
 0.1518850215844E-01 -0.6322028584610E-02
 0.1613075566538E-01 -0.6567043739831E-02
 0.1706399010122E-01 -0.6804082118532E-02
 0.1798195952871E-01 -0.7034007139298E-02
 0.1887826443380E-01 -0.7258052118009E-02
 0.1974645000890E-01 -0.7477797379552E-02
 0.2058017198359E-01 -0.7695149380303E-02
 0.2137362486395E-01 -0.7912568604818E-02
 0.2212219711348E-01 -0.8133364473690E-02
 0.2282250992111E-01 -0.8361144725890E-02
 0.2347276757503E-01 -0.8599619420901E-02
 0.2407313928935E-01 -0.8852361458802E-02
 0.2462602436793E-01 -0.9122431557249E-02
 0.2513608469254E-01 -0.9411874589923E-02
 0.2560994028291E-01 -0.9721139044492E-02
 0.2605534895787E-01 -0.1004844436806E-01
 0.2647985186251E-01 -0.1038922629070E-01
 0.1327971620353E-03 -0.2390612804061E-03
 0.3213347959292E-03 -0.4836167579222E-03
 0.5649555390096E-03 -0.7331407643487E-03
 0.8624588620186E-03 -0.9872439145825E-03
 0.1212285474274E-02 -0.1245659242618E-02
 0.1612670329554E-02 -0.1508205714587E-02
 0.2061751251433E-02 -0.1774741760033E-02
 0.2557639642360E-02 -0.2045123786850E-02
 0.3098459621951E-02 -0.2319174043010E-02
 0.3682364069752E-02 -0.2596658934603E-02
 0.4307534054315E-02 -0.2877276151496E-02
 0.4972158478731E-02 -0.3160645166702E-02
 0.5674419621631E-02 -0.3446309379102E-02
 0.6412455349945E-02 -0.3733735050547E-02
 0.7184264390369E-02 -0.4022296180497E-02
 0.7987772458876E-02 -0.4311327048271E-02
 0.8820663151114E-02 -0.4600092070941E-02
 0.9680372744568E-02 -0.4887825762915E-02
 0.1056403863310E-01 -0.5173760458693E-02
 0.1146845937740E-01 -0.5456953289034E-02
 0.1239003470332E-01 -0.5735438150881E-02
 0.1332465811512E-01 -0.6007171210160E-02
 0.1426766326438E-01 -0.6270799654631E-02
 0.1521390737688E-01 -0.6525747250524E-02
 0.1615789175573E-01 -0.6772085383056E-02
 0.1709384401355E-01 -0.7010395226190E-02
 0.1801577890058E-01 -0.7241682227188E-02
 0.1891759177129E-01 -0.7467337114717E-02
 0.1979315687543E-01 -0.7689105582436E-02
 0.2063648913399E-01 -0.7909054388640E-02
 0.2144216465625E-01 -0.8129773195799E-02
 0.2220596183723E-01 -0.8354641487654E-02
 0.2292486104328E-01 -0.8587270818555E-02
 0.2359733991097E-01 -0.8831288871509E-02
 0.2422368376815E-01 -0.9090090727973E-02
 0.2480617082776E-01 -0.9366477126583E-02
 0.2534903331054E-01 -0.9662193207465E-02
 0.2585811568047E-01 -0.9977418760078E-02
 0.2634007309327E-01 -0.1031022479342E-01
 0.2680113857869E-01 -0.1065611124081E-01
 0.1363312669860E-03 -0.2517382804605E-03
 0.3279542031781E-03 -0.5089546505836E-03
 0.5742729093309E-03 -0.7711366108939E-03
 0.8741533616502E-03 -0.1037874773643E-02
 0.1226094457427E-02 -0.1308855222442E-02
 0.1628373796008E-02 -0.1583831517076E-02
 0.2079154892202E-02 -0.1862586158030E-02
 0.2576560290277E-02 -0.2144895152833E-02
 0.3118714713872E-02 -0.2430499775763E-02
 0.3703765217245E-02 -0.2719087183614E-02
 0.4329884123058E-02 -0.3010278972087E-02
 0.4995251470125E-02 -0.3303622746429E-02
 0.5698042910882E-02 -0.3598595752097E-02
 0.6436394140150E-02 -0.3894605392279E-02
 0.7208308620573E-02 -0.4190975657278E-02
 0.8011726670918E-02 -0.4487003291032E-02
 0.8844359743833E-02 -0.4781928848047E-02
 0.9703688963949E-02 -0.5074979531026E-02
 0.1058691714155E-01 -0.5365398839616E-02
 0.1149093217802E-01 -0.5652288777374E-02
 0.1241224925295E-01 -0.5933817048314E-02
 0.1334689952861E-01 -0.6208095957753E-02
 0.1429037567267E-01 -0.6473905805514E-02
 0.1523771720035E-01 -0.6730784901050E-02
 0.1618363335677E-01 -0.6978916693531E-02
 0.1712258746748E-01 -0.7219003910500E-02
 0.1804885922194E-01 -0.7452187495156E-02
 0.1895663836140E-01 -0.7680005541277E-02
 0.1984012050152E-01 -0.7904355308872E-02
 0.2069366204120E-01 -0.8127446726291E-02
 0.2151218987873E-01 -0.8351978965422E-02
 0.2229182549686E-01 -0.8581380586782E-02
 0.2302984551577E-01 -0.8819249343746E-02
 0.2372492576430E-01 -0.9069122026721E-02
 0.2437738957288E-01 -0.9334222136781E-02
 0.2498932811655E-01 -0.9617114857568E-02
 0.2556450926757E-01 -0.9919286813444E-02
 0.2610801753943E-01 -0.1024069978487E-01
 0.2662548651684E-01 -0.1057932347910E-01
 0.2712198499861E-01 -0.1093074157083E-01
 0.1398435973783E-03 -0.2642894223891E-03
 0.3345643222335E-03 -0.5340371286504E-03
 0.5836109012098E-03 -0.8087454167036E-03
 0.8859004134683E-03 -0.1087988688646E-02
 0.1239977739505E-02 -0.1371410894090E-02
 0.1644154686463E-02 -0.1658704846564E-02
 0.2096615432086E-02 -0.1949580875855E-02
 0.2595491282920E-02 -0.2243737253880E-02
 0.3138907090207E-02 -0.2540836067662E-02
 0.3725004975185E-02 -0.2840486529415E-02
 0.4351950479539E-02 -0.3142235363951E-02
 0.5017917706775E-02 -0.3445559756554E-02
 0.5721079576806E-02 -0.3749872645375E-02
 0.6459574515668E-02 -0.4054524856750E-02
 0.7231416669288E-02 -0.4358792992670E-02
 0.8034567870089E-02 -0.4661939038018E-02
 0.8866775168627E-02 -0.4963182342610E-02
 0.9725572834252E-02 -0.5261745053585E-02
 0.1060823763221E-01 -0.5556883415066E-02
 0.1151175518215E-01 -0.5847744719967E-02
 0.1243276372399E-01 -0.6132628981239E-02
 0.1336743944530E-01 -0.6409803070947E-02
 0.1431144165993E-01 -0.6678179311488E-02
 0.1525999992225E-01 -0.6937409169028E-02
 0.1620803865488E-01 -0.7187785484272E-02
 0.1715026258406E-01 -0.7430127747319E-02
 0.1808121904264E-01 -0.7665704869903E-02
 0.1899539003113E-01 -0.7896191695713E-02
 0.1988728334661E-01 -0.8123623378415E-02
 0.2075157825122E-01 -0.8350336986855E-02
 0.2158352196560E-01 -0.8579123802451E-02
 0.2237953472491E-01 -0.8813443997245E-02
 0.2313713215434E-01 -0.9056868381869E-02
 0.2385512253089E-01 -0.9312838807002E-02
 0.2453380183647E-01 -0.9584416443475E-02
 0.2517502250971E-01 -0.9873955375088E-02
 0.2578206575835E-01 -0.1018272116355E-01
 0.2635927796483E-01 -0.1051050087956E-01
 0.2691134564556E-01 -0.1085519915245E-01
 0.2744228988388E-01 -0.1121249484319E-01
 0.1433315570436E-03 -0.2767258036796E-03
 0.3411591335021E-03 -0.5588883201545E-03
 0.5929605116703E-03 -0.8460059190640E-03
 0.8976894013984E-03 -0.1137639966881E-02
 0.1253924867065E-02 -0.1433396442845E-02
 0.1660004429560E-02 -0.1732911587335E-02
 0.2114127581553E-02 -0.2035827082493E-02
 0.2614431628473E-02 -0.2341766120734E-02
 0.3159040752580E-02 -0.2650313523640E-02
 0.3746092826682E-02 -0.2961002052740E-02
 0.4373748474155E-02 -0.3273304954841E-02
 0.5040178758638E-02 -0.3586630540568E-02
 0.5743557748649E-02 -0.3900329277086E-02
 0.6482031465076E-02 -0.4213697556384E-02
 0.7253630576345E-02 -0.4525966933659E-02
 0.8056345137329E-02 -0.4836366997272E-02
 0.8887965233623E-02 -0.5144098013974E-02
 0.9746086185043E-02 -0.5448378693748E-02
 0.1062806679477E-01 -0.5748478884793E-02
 0.1153099829585E-01 -0.6043590877416E-02
 0.1245164917305E-01 -0.6332145129818E-02
 0.1338634756865E-01 -0.6612561134923E-02
 0.1433092650209E-01 -0.6883881493041E-02
 0.1528081254981E-01 -0.7145868527488E-02
 0.1623115156640E-01 -0.7398920766490E-02
 0.1717689419390E-01 -0.7643968692860E-02
 0.1811285682010E-01 -0.7882400921212E-02
 0.1903381031134E-01 -0.8116018143846E-02
 0.1993456448559E-01 -0.8346980132820E-02
 0.2081010258347E-01 -0.8577736355677E-02
 0.2165596269354E-01 -0.8811155082220E-02
 0.2246882250086E-01 -0.9050713877911E-02
 0.2324638514380E-01 -0.9299947317331E-02
 0.2398753432366E-01 -0.9562201824974E-02
 0.2469248438798E-01 -0.9840387549809E-02
 0.2536280896031E-01 -0.1013667132704E-01
 0.2600128952910E-01 -0.1045213123555E-01
 0.2661155919973E-01 -0.1078641583481E-01
 0.2719742391003E-01 -0.1113739201191E-01
 0.2776195309560E-01 -0.1150084027393E-01
 0.1467937726689E-03 -0.2890579916203E-03
 0.3477350716141E-03 -0.5835311719931E-03
 0.6023162483023E-03 -0.8829549678071E-03
 0.9095139895165E-03 -0.1186880361387E-02
 0.1267930137102E-02 -0.1494878947182E-02
 0.1675919435001E-02 -0.1806534101632E-02
 0.2131691107763E-02 -0.2121422117765E-02
 0.2633385385634E-02 -0.2439093694717E-02
 0.3179124710752E-02 -0.2759058376124E-02
 0.3767043201316E-02 -0.3080774093841E-02
 0.4395298316436E-02 -0.3403642132125E-02
 0.5062060918790E-02 -0.3727003539619E-02
 0.5765510060590E-02 -0.4050148125699E-02
 0.6503804143377E-02 -0.4372319854536E-02
 0.7274996052170E-02 -0.4692707316736E-02
 0.8077110540166E-02 -0.5010509688608E-02
 0.8907987839494E-02 -0.5324909788839E-02
 0.9765291821054E-02 -0.5635123931786E-02
 0.1064647094584E-01 -0.5940435779763E-02
 0.1154872946867E-01 -0.6240081694523E-02
 0.1246897287548E-01 -0.6532620407107E-02
 0.1340368774617E-01 -0.6816621771425E-02
 0.1434888729812E-01 -0.7091256352000E-02
 0.1530020138132E-01 -0.7356394238577E-02
 0.1625300264358E-01 -0.7612535069844E-02
 0.1720249114519E-01 -0.7860713764860E-02
 0.1814375269970E-01 -0.8102429854568E-02
 0.1907184273898E-01 -0.8339598914873E-02
 0.1998186243043E-01 -0.8574492646898E-02
 0.2086908037330E-01 -0.8809659557356E-02
 0.2172929760048E-01 -0.9048031989205E-02
 0.2255941131884E-01 -0.9293093614201E-02
 0.2335726635980E-01 -0.9548336739817E-02
 0.2412177278842E-01 -0.9817014669697E-02
 0.2485301853696E-01 -0.1010189915822E-01
 0.2555226770368E-01 -0.1040499260233E-01
 0.2622179568612E-01 -0.1072721534576E-01
 0.2686454798471E-01 -0.1106810733977E-01
 0.2748350849788E-01 -0.1142551824405E-01
 0.2808087561050E-01 -0.1179533331404E-01
 0.1502300045089E-03 -0.3012960732100E-03
 0.3542908506088E-03 -0.6079875616859E-03
 0.6116759019048E-03 -0.9196276963855E-03
 0.9213718846274E-03 -0.1235759279337E-02
 0.1281992381604E-02 -0.1555922589433E-02
 0.1691900912206E-02 -0.1879651406401E-02
 0.2149310681547E-02 -0.2206459607502E-02
 0.2652361523018E-02 -0.2535827866201E-02
 0.3199172836116E-02 -0.2867192443477E-02
 0.3787875306975E-02 -0.3199938137023E-02
 0.4416624874522E-02 -0.3533395866865E-02
 0.5083594965743E-02 -0.3866841075643E-02
 0.5786973378241E-02 -0.4199504697051E-02
 0.6524935570053E-02 -0.4530580145973E-02
 0.7295562160299E-02 -0.4859214894749E-02
 0.8096918817012E-02 -0.5184579351656E-02
 0.8926902685874E-02 -0.5505840085616E-02
 0.9783253272909E-02 -0.5822211539877E-02
 0.1066351584782E-01 -0.6132990819680E-02
 0.1156501460682E-01 -0.6437456870288E-02
 0.1248479836270E-01 -0.6734294269812E-02
 0.1341951816678E-01 -0.7022220717590E-02
 0.1436537337032E-01 -0.7300531943000E-02
 0.1531820265968E-01 -0.7569202035130E-02
 0.1627361003681E-01 -0.7828826437366E-02
 0.1722704763038E-01 -0.8080537329603E-02
 0.1817387025209E-01 -0.8325936030747E-02
 0.1910941302391E-01 -0.8567042140021E-02
 0.2002905769051E-01 -0.8806227305268E-02
 0.2092834030051E-01 -0.9046127118390E-02
 0.2180329883220E-01 -0.9289727156635E-02
 0.2265101566002E-01 -0.9540508510186E-02
 0.2346943696277E-01 -0.9801917918647E-02
 0.2425745730189E-01 -0.1007712002489E-01
 0.2501500151195E-01 -0.1036876157713E-01
 0.2574300091377E-01 -0.1067870204181E-01
 0.2644322308231E-01 -0.1100773018059E-01
 0.2711795098708E-01 -0.1135530192635E-01
 0.2776939766316E-01 -0.1171926505139E-01
 0.2839895881570E-01 -0.1209561017443E-01
 0.1536410688816E-03 -0.3134496979255E-03
 0.3608273123955E-03 -0.6322783935724E-03
 0.6210403469536E-03 -0.9560576709931E-03
 0.9332646230204E-03 -0.1284323967691E-02
 0.1296114767517E-02 -0.1616588849984E-02
 0.1707954694899E-02 -0.1952339345537E-02
 0.2166995723322E-02 -0.2291029589080E-02
 0.2671373774233E-02 -0.2632072538559E-02
 0.3219203711227E-02 -0.2974833127844E-02
 0.3808612961165E-02 -0.3318624746800E-02
 0.4437757480026E-02 -0.3662709599994E-02
 0.5104815939124E-02 -0.4006299205366E-02
 0.5807988548101E-02 -0.4348567369147E-02
 0.6545472360791E-02 -0.4688658719612E-02
 0.7315381044739E-02 -0.5025681247700E-02
 0.8115827117422E-02 -0.5358777936347E-02
 0.8944771044375E-02 -0.5687099916342E-02
 0.9800034624413E-02 -0.6009859826224E-02
 0.1067926661344E-01 -0.6326367328170E-02
 0.1157991758016E-01 -0.6635941970500E-02
 0.1249918555988E-01 -0.6937391552785E-02
 0.1343389166189E-01 -0.7229578905240E-02
 0.1438042676713E-01 -0.7511921716698E-02
 0.1533484331982E-01 -0.7784493738636E-02
 0.1629298053145E-01 -0.8047980313837E-02
 0.1725054455298E-01 -0.8303603231757E-02
 0.1820315819626E-01 -0.8553056272069E-02
 0.1914643112336E-01 -0.8798452422174E-02
 0.2007601514006E-01 -0.9042252066183E-02
 0.2098769691029E-01 -0.9287167301797E-02
 0.2187772757456E-01 -0.9536228012275E-02
 0.2274334398768E-01 -0.9792906288598E-02
 0.2358255853898E-01 -0.1006060226110E-01
 0.2439421486582E-01 -0.1034239800989E-01
 0.2517804487648E-01 -0.1064082902275E-01
 0.2593462972837E-01 -0.1095763193440E-01
 0.2666523051593E-01 -0.1129348685239E-01
 0.2737149128425E-01 -0.1164778591997E-01
 0.2805489868300E-01 -0.1201838641299E-01
 0.2871610396728E-01 -0.1240138298797E-01
 0.1570287704062E-03 -0.3255281152796E-03
 0.3673472948119E-03 -0.6564236836380E-03
 0.6304133662588E-03 -0.9922770236445E-03
 0.9451973793100E-03 -0.1332619682482E-02
 0.1310304612038E-02 -0.1676936690399E-02
 0.1724091073080E-02 -0.2024670761132E-02
 0.2184760250025E-02 -0.2375218648660E-02
 0.2690440490511E-02 -0.2727927717038E-02
 0.3239240476560E-02 -0.3082093450245E-02
 0.3829284422017E-02 -0.3436959552142E-02
 0.4458729737447E-02 -0.3791721185820E-02
 0.5125762926668E-02 -0.4145527639165E-02
 0.5828600166578E-02 -0.4497497307448E-02
 0.6565464487948E-02 -0.4846727695170E-02
 0.7334507695675E-02 -0.5192288768284E-02
 0.8133894790160E-02 -0.5533297166099E-02
 0.8961655588433E-02 -0.5868889056277E-02
 0.9815700405092E-02 -0.6198274938788E-02
 0.1069378768325E-01 -0.6520775696512E-02
 0.1159350030854E-01 -0.6835749074668E-02
 0.1251219100752E-01 -0.7142123320300E-02
 0.1344685609226E-01 -0.7438903535492E-02
 0.1439408284893E-01 -0.7725625832221E-02
 0.1535014180948E-01 -0.8002458815068E-02
 0.1631111063812E-01 -0.8270171335077E-02
 0.1727295091437E-01 -0.8530066783452E-02
 0.1823155209183E-01 -0.8783921984366E-02
 0.1918279321642E-01 -0.9033932982029E-02
 0.2012258619976E-01 -0.9282638477382E-02
 0.2104695285671E-01 -0.9532817797973E-02
 0.2195233613062E-01 -0.9787537928737E-02
 0.2283610035347E-01 -0.1005025749948E-01
 0.2369629389719E-01 -0.1032433084067E-01
 0.2453167980365E-01 -0.1061276479565E-01
 0.2534177299952E-01 -0.1091799742068E-01
 0.2612679165647E-01 -0.1124166122326E-01
 0.2688749362652E-01 -0.1158434778991E-01
 0.2762490564182E-01 -0.1194540218319E-01
 0.2833982633283E-01 -0.1232269954025E-01
 0.2903221197398E-01 -0.1271243570467E-01
 0.1603958421612E-03 -0.3375402079486E-03
 0.3738555154702E-03 -0.6804426336574E-03
 0.6398014949598E-03 -0.1028316568438E-02
 0.9571787923695E-03 -0.1380689837491E-02
 0.1324573208365E-02 -0.1737022715540E-02
 0.1740324627112E-02 -0.2096715646207E-02
 0.2202622716588E-02 -0.2459110043703E-02
 0.2709584482503E-02 -0.2823489586311E-02
 0.3259310663762E-02 -0.3189082076187E-02
 0.3849922205765E-02 -0.3555063220958E-02
 0.4479579322385E-02 -0.3920562823175E-02
 0.5146478844361E-02 -0.4284669642662E-02
 0.5848856348067E-02 -0.4646448355548E-02
 0.6584965047113E-02 -0.5004950925283E-02
 0.7352999728867E-02 -0.5359210600195E-02
 0.8151183192728E-02 -0.5708318538203E-02
 0.8977620252194E-02 -0.6051396132205E-02
 0.9830315518934E-02 -0.6387651066381E-02
 0.1070714284576E-01 -0.6716413720551E-02
 0.1160582289605E-01 -0.7037077269129E-02
 0.1252386813426E-01 -0.7348687533460E-02
 0.1345845478599E-01 -0.7650388935949E-02
 0.1440637091985E-01 -0.7941832214693E-02
 0.1536410894317E-01 -0.8223275634051E-02
 0.1632798769286E-01 -0.8495564774899E-02
 0.1729422517307E-01 -0.8760076362787E-02
 0.1825897594986E-01 -0.9018660840883E-02
 0.1921838352516E-01 -0.9273587325444E-02
 0.2016861077912E-01 -0.9527463188118E-02
 0.2110590081618E-01 -0.9783126913696E-02
 0.2202686959002E-01 -0.1004367691196E-01
 0.2292898555586E-01 -0.1031255555194E-01
 0.2381030744018E-01 -0.1059307367605E-01
 0.2466949313418E-01 -0.1088817112778E-01
 0.2550582138006E-01 -0.1120020227578E-01
 0.2631913805666E-01 -0.1153071291080E-01
 0.2710970203107E-01 -0.1188022387853E-01
 0.2787794201989E-01 -0.1224804706863E-01
 0.2862400136601E-01 -0.1263208151093E-01
 0.2934718303496E-01 -0.1302862021544E-01
 0.1637458929593E-03 -0.3494945225051E-03
 0.3803584703566E-03 -0.7043537000356E-03
 0.6492138838165E-03 -0.1064205910433E-02
 0.9692208104849E-03 -0.1428576145960E-02
 0.1338935666774E-02 -0.1796901332558E-02
 0.1756674071505E-02 -0.2168541301147E-02
 0.2220605861801E-02 -0.2542783837815E-02
 0.2728832862898E-02 -0.2918850609339E-02
 0.3279446028473E-02 -0.3295903370879E-02
 0.3870562904968E-02 -0.3673051471158E-02
 0.4500347783862E-02 -0.4049361028551E-02
 0.5167010225856E-02 -0.4423861983959E-02
 0.5868808508867E-02 -0.4795566973255E-02
 0.6604030046908E-02 -0.5163483944630E-02
 0.7370917196077E-02 -0.5526610620711E-02
 0.8167755539614E-02 -0.5884013363199E-02
 0.8992730135451E-02 -0.6234798741820E-02
 0.9843945225917E-02 -0.6578170660234E-02
 0.1071939531624E-01 -0.6913466944752E-02
 0.1161694382854E-01 -0.7240113131252E-02
 0.1253426759550E-01 -0.7557269689786E-02
 0.1346872704200E-01 -0.7864217368099E-02
 0.1441731492024E-01 -0.8160717537739E-02
 0.1537674880553E-01 -0.8447112624698E-02
 0.1634359098658E-01 -0.8724317858136E-02
 0.1731431660235E-01 -0.8993774847464E-02
 0.1828534379828E-01 -0.9257398273647E-02
 0.1925307603487E-01 -0.9517520699573E-02
 0.2021391905464E-01 -0.9776809248143E-02
 0.2116432517594E-01 -0.1003815457190E-01
 0.2210106723085E-01 -0.1030468215764E-01
 0.2302169802688E-01 -0.1057981670762E-01
 0.2392426531846E-01 -0.1086682909735E-01
 0.2480730184878E-01 -0.1116860108026E-01
 0.2566983505567E-01 -0.1148741691079E-01
 0.2651133190109E-01 -0.1182475193508E-01
 0.2733155689545E-01 -0.1218107211279E-01
 0.2813035752992E-01 -0.1255566787806E-01
 0.2890724933639E-01 -0.1294646642634E-01
 0.2966091655546E-01 -0.1334985306536E-01
 0.1670833608726E-03 -0.3613992987331E-03
 0.3868643455269E-03 -0.7281746594071E-03
 0.6586621799739E-03 -0.1099973550025E-02
 0.9813385543990E-03 -0.1476318758374E-02
 0.1353410770455E-02 -0.1856624908975E-02
 0.1773162108411E-02 -0.2240212494486E-02
 0.2238736558731E-02 -0.2626317046426E-02
 0.2748216889676E-02 -0.3014099643711E-02
 0.3299682381886E-02 -0.3402657477771E-02
 0.3891247005749E-02 -0.3791035109608E-02
 0.4521080348021E-02 -0.4178236640115E-02
 0.5187407017402E-02 -0.4563234913031E-02
 0.5888511162028E-02 -0.4944992206232E-02
 0.6622718216002E-02 -0.5322473948001E-02
 0.7388322419315E-02 -0.5694643447350E-02
 0.8183676780948E-02 -0.6060542821119E-02
 0.9007051445215E-02 -0.6419263580315E-02
 0.9856655165826E-02 -0.6770004650624E-02
 0.1073060786259E-01 -0.7112108986703E-02
 0.1162692022174E-01 -0.7445031177016E-02
 0.1254343766431E-01 -0.7768043406623E-02
 0.1347770868470E-01 -0.8080559756381E-02
 0.1442693416495E-01 -0.8382448103020E-02
 0.1538805968933E-01 -0.8674129301813E-02
 0.1635789291019E-01 -0.8956580916521E-02
 0.1733316663457E-01 -0.9231300865140E-02
 0.1831056119489E-01 -0.9500258760397E-02
 0.1928673611327E-01 -0.9765841333657E-02
 0.2025833309373E-01 -0.1003076719715E-01
 0.2122200351906E-01 -0.1029797313114E-01
 0.2217466368643E-01 -0.1057060848481E-01
 0.2311393448630E-01 -0.1085208003771E-01
 0.2403783540163E-01 -0.1114562318477E-01
 0.2494475810957E-01 -0.1145407099909E-01
 0.2583346707634E-01 -0.1177965100126E-01
 0.2670304575521E-01 -0.1212378341506E-01
 0.2755276882197E-01 -0.1248689364600E-01
 0.2838191671052E-01 -0.1286826072379E-01
 0.2918939966556E-01 -0.1326584299765E-01
 0.2997331124558E-01 -0.1367611265331E-01
 0.1704134723141E-03 -0.3732624980725E-03
 0.3933829403392E-03 -0.7519226715349E-03
 0.6681604230847E-03 -0.1135646982626E-02
 0.9935501959090E-03 -0.1523956394251E-02
 0.1368020843654E-02 -0.1916243924652E-02
 0.1789815288008E-02 -0.2311791618340E-02
 0.2257045666126E-02 -0.2709783778072E-02
 0.2767771805337E-02 -0.3109322053803E-02
 0.3320059414986E-02 -0.3509440391777E-02
 0.3912018696540E-02 -0.3909120062796E-02
 0.4541825714249E-02 -0.4307304808480E-02
 0.5207722367937E-02 -0.4702912120822E-02
 0.5908021711578E-02 -0.5094855626099E-02
 0.6641090814669E-02 -0.5482059727293E-02
 0.7405279835359E-02 -0.5863454389571E-02
 0.8199013497276E-02 -0.6238057946406E-02
 0.9020651459095E-02 -0.6604946476781E-02
 0.9868511409130E-02 -0.6963312551962E-02
 0.1074084296285E-01 -0.7312501726276E-02
 0.1163580810420E-01 -0.7651994147131E-02
 0.1255142465848E-01 -0.7981170814685E-02
 0.1348543265304E-01 -0.8299576196715E-02
 0.1443524411022E-01 -0.8607180466523E-02
 0.1539803505017E-01 -0.8904477004867E-02
 0.1637086009668E-01 -0.9192498223538E-02
 0.1735071017365E-01 -0.9472789691511E-02
 0.1833452666924E-01 -0.9747366734150E-02
 0.1931922201040E-01 -0.1001866128815E-01
 0.2030166830613E-01 -0.1028943576437E-01
 0.2127870788677E-01 -0.1056266783790E-01
 0.2224738985309E-01 -0.1084152844870E-01
 0.2320539032670E-01 -0.1112940712777E-01
 0.2415068700675E-01 -0.1142950903905E-01
 0.2508151826843E-01 -0.1174462836403E-01
 0.2599637688842E-01 -0.1207694910032E-01
 0.2689395975249E-01 -0.1242785092858E-01
 0.2777305577178E-01 -0.1279773188427E-01
 0.2863238980580E-01 -0.1318586843443E-01
 0.2947028462641E-01 -0.1359025219393E-01
 0.3028426504623E-01 -0.1400743653011E-01
 0.1737422066943E-03 -0.3850918330679E-03
 0.3999256029407E-03 -0.7756143452368E-03
 0.6777249589808E-03 -0.1171252804767E-02
 0.1005876856423E-02 -0.1571526485683E-02
 0.1382791639153E-02 -0.1975807143013E-02
 0.1806663885570E-02 -0.2383338872539E-02
 0.2275567893197E-02 -0.2793255415088E-02
 0.2787536686802E-02 -0.3204599873643E-02
 0.3340620532230E-02 -0.3616344094432E-02
 0.3932925686832E-02 -0.4027407480260E-02
 0.4562635863636E-02 -0.4436675070373E-02
 0.5228012435316E-02 -0.4843010790496E-02
 0.5927400267694E-02 -0.5245281370896E-02
 0.6659211472645E-02 -0.5642371715779E-02
 0.7421855871975E-02 -0.6033179513107E-02
 0.8213833831149E-02 -0.6416699729110E-02
 0.9033598530042E-02 -0.6791992548646E-02
 0.9879580553049E-02 -0.7158242685662E-02
 0.1075016301071E-01 -0.7514795610296E-02
 0.1164366275011E-01 -0.7861153404448E-02
 0.1255827341790E-01 -0.8196803056845E-02
 0.1349192963862E-01 -0.8521416562649E-02
 0.1444225716557E-01 -0.8835062153775E-02
 0.1540666449874E-01 -0.9138299717103E-02
 0.1638245458875E-01 -0.9432208902170E-02
 0.1736687691597E-01 -0.9718374218179E-02
 0.1835713315132E-01 -0.9998847566983E-02
 0.1935038632124E-01 -0.1027609739419E-01
 0.2034373483592E-01 -0.1055292269065E-01
 0.2133420596822E-01 -0.1083233745300E-01
 0.2231897373109E-01 -0.1111753269954E-01
 0.2329575996601E-01 -0.1141188211806E-01
 0.2426249066451E-01 -0.1171856648697E-01
 0.2521724202921E-01 -0.1204035118348E-01
 0.2615822899000E-01 -0.1237938977978E-01
 0.2708375996702E-01 -0.1273703546519E-01
 0.2799214147987E-01 -0.1311367129141E-01
 0.2888155158195E-01 -0.1350857920169E-01
 0.2974973887363E-01 -0.1391978567338E-01
 0.3059367559704E-01 -0.1434391953621E-01
 0.1770762660702E-03 -0.3968947974656E-03
 0.4065051762449E-03 -0.7992658048564E-03
 0.6873743676687E-03 -0.1206816820255E-02
 0.1018342520545E-02 -0.1619065320360E-02
 0.1397752238174E-02 -0.2035361781101E-02
 0.1823741785906E-02 -0.2454912446573E-02
 0.2294341665676E-02 -0.2876800790249E-02
 0.2807554290870E-02 -0.3300011962530E-02
 0.3361412676389E-02 -0.3723456676946E-02
 0.3954019014578E-02 -0.4145993819191E-02
 0.4583565855541E-02 -0.4566451394848E-02
 0.5248336181903E-02 -0.4983641610666E-02
 0.5946709453893E-02 -0.5396386134958E-02
 0.6677146022642E-02 -0.5803531967151E-02
 0.7438118823961E-02 -0.6203945622315E-02
 0.8228207422865E-02 -0.6596599115122E-02
 0.9045962099447E-02 -0.6980536233903E-02
 0.9889929829795E-02 -0.7354932257342E-02
 0.1075863053649E-01 -0.7719129785944E-02
 0.1165053902971E-01 -0.8072649132579E-02
 0.1256402779997E-01 -0.8415080558850E-02
 0.1349722874001E-01 -0.8746220852602E-02
 0.1444798351672E-01 -0.9066232084353E-02
 0.1541393479430E-01 -0.9375734562307E-02
 0.1639263499230E-01 -0.9675847480656E-02
 0.1738159263470E-01 -0.9968185543366E-02
 0.1837826933409E-01 -0.1025482815922E-01
 0.1938007734639E-01 -0.1053827179239E-01
 0.2038433881275E-01 -0.1082134515840E-01
 0.2138826211292E-01 -0.1110709451104E-01
 0.2238914106054E-01 -0.1139873001629E-01
 0.2338473698383E-01 -0.1169961147374E-01
 0.2437291767810E-01 -0.1201290157701E-01
 0.2535159143065E-01 -0.1234134723504E-01
 0.2631869144342E-01 -0.1268708465763E-01
 0.2727213666969E-01 -0.1305145428597E-01
 0.2820975375044E-01 -0.1343483610508E-01
 0.2912917998180E-01 -0.1383652513929E-01
 0.3002759873926E-01 -0.1425458413709E-01
 0.3090144038235E-01 -0.1468571188445E-01
 0.1804230500318E-03 -0.4086786983751E-03
 0.4131359553168E-03 -0.8228927613619E-03
 0.6971294076395E-03 -0.1242364154116E-02
 0.1030973968063E-02 -0.1666608196132E-02
 0.1412934967572E-02 -0.2094953695378E-02
 0.1841086381519E-02 -0.2526568721555E-02
 0.2313409000894E-02 -0.2960486387363E-02
 0.2827870904178E-02 -0.3395634187803E-02
 0.3382486154610E-02 -0.3830862492690E-02
 0.3975352853242E-02 -0.4264970959743E-02
 0.4604673624073E-02 -0.4696732260417E-02
 0.5268755171890E-02 -0.5124908818610E-02
 0.5966014218958E-02 -0.5548279186571E-02
 0.6694962342278E-02 -0.5965654158739E-02
 0.7454138741567E-02 -0.6375870261469E-02
 0.8242205362437E-02 -0.6777877018366E-02
 0.9057812729944E-02 -0.7170701326442E-02
 0.9899627237446E-02 -0.7553507426314E-02
 0.1076630845288E-01 -0.7925632213745E-02
 0.1165649178574E-01 -0.8286610499686E-02
 0.1256873120143E-01 -0.8636133249302E-02
 0.1350135814217E-01 -0.8974119469372E-02
 0.1445243197042E-01 -0.9300820911285E-02
 0.1541983085417E-01 -0.9616912199981E-02
 0.1640135763623E-01 -0.9923544332973E-02
 0.1739478045713E-01 -0.1022235343907E-01
 0.1839782101213E-01 -0.1051543740525E-01
 0.1940814040961E-01 -0.1080531236011E-01
 0.2042328354129E-01 -0.1109483013631E-01
 0.2144063826770E-01 -0.1138706553656E-01
 0.2245761587875E-01 -0.1168524735321E-01
 0.2347201419164E-01 -0.1199272383398E-01
 0.2448163964745E-01 -0.1231264622332E-01
 0.2548422984258E-01 -0.1264775351756E-01
 0.2647743445732E-01 -0.1300017768622E-01
 0.2745878270447E-01 -0.1337126007591E-01
 0.2842562290279E-01 -0.1376138936479E-01
 0.2937505493423E-01 -0.1416988117079E-01
 0.3030370166592E-01 -0.1459483603627E-01
 0.3120745698228E-01 -0.1503301762984E-01
 0.1837906359306E-03 -0.4204506911209E-03
 0.4198336563633E-03 -0.8465105892707E-03
 0.7070129767498E-03 -0.1277919375897E-02
 0.1043800724546E-02 -0.1714189588665E-02
 0.1428375334303E-02 -0.2154627584131E-02
 0.1858738484007E-02 -0.2598362491665E-02
 0.2332815390727E-02 -0.3044376563185E-02
 0.2848536195750E-02 -0.3491539629624E-02
 0.3403894462929E-02 -0.3938642331186E-02
 0.3996984314931E-02 -0.4384426340181E-02
 0.4626019770099E-02 -0.4827610749255E-02
 0.5289333365241E-02 -0.5266910256691E-02
 0.5985381647757E-02 -0.5701062393778E-02
 0.6712730197926E-02 -0.6128843596423E-02
 0.7469987324123E-02 -0.6549061709781E-02
 0.8255900149985E-02 -0.6960644317027E-02
 0.9069222149536E-02 -0.7362600983902E-02
 0.9908741684555E-02 -0.7754083334198E-02
 0.1077326031622E-01 -0.8134419724467E-02
 0.1166157622658E-01 -0.8503155749367E-02
 0.1257242709692E-01 -0.8860080688582E-02
 0.1350434581173E-01 -0.9205233389493E-02
 0.1445561081259E-01 -0.9538951231097E-02
 0.1542433677189E-01 -0.9861957073221E-02
 0.1640857773384E-01 -0.1017542595731E-01
 0.1740636213335E-01 -0.1048100664730E-01
 0.1841567239831E-01 -0.1078080648822E-01
 0.1943441913825E-01 -0.1107735297900E-01
 0.2046037063829E-01 -0.1137351458934E-01
 0.2149109484903E-01 -0.1167239116465E-01
 0.2252412100749E-01 -0.1197722984256E-01
 0.2355728363786E-01 -0.1229136987690E-01
 0.2458832794525E-01 -0.1261795792568E-01
 0.2561482094131E-01 -0.1295973583257E-01
 0.2663412897914E-01 -0.1331884460978E-01
 0.2764339190077E-01 -0.1369664029104E-01
 0.2863948026453E-01 -0.1409353214971E-01
 0.2961895720357E-01 -0.1450886414079E-01
 0.3057788565703E-01 -0.1494077652218E-01
 0.3151162330558E-01 -0.1538609341139E-01
 0.1871877647567E-03 -0.4322178175696E-03
 0.4266153980121E-03 -0.8701344111160E-03
 0.7170500906760E-03 -0.1313506634997E-02
 0.1056855031676E-02 -0.1761843335531E-02
 0.1444111978146E-02 -0.2214427210052E-02
 0.1876742249317E-02 -0.2670347208267E-02
 0.2352609692494E-02 -0.3128533793035E-02
 0.2869603071626E-02 -0.3587798808968E-02
 0.3425694108197E-02 -0.4046873613472E-02
 0.4018973248034E-02 -0.4504443110491E-02
 0.4647667346770E-02 -0.4959174656003E-02
 0.5310136905770E-02 -0.5409737438550E-02
 0.6004880768040E-02 -0.5854830254061E-02
 0.6730521087066E-02 -0.6293197216338E-02
 0.7485737814986E-02 -0.6723618964671E-02
 0.8269365660178E-02 -0.7145001827904E-02
 0.9080263302157E-02 -0.7556337701758E-02
 0.9917343143097E-02 -0.7956764086077E-02
 0.1077955059758E-01 -0.8345598013100E-02
 0.1166584832996E-01 -0.8722392211635E-02
 0.1257515958845E-01 -0.9087032099619E-02
 0.1350622020269E-01 -0.9439674215400E-02
 0.1445752867549E-01 -0.9780737657689E-02
 0.1542743684166E-01 -0.1011098750293E-01
 0.1641425054617E-01 -0.1043161508689E-01
 0.1741625930076E-01 -0.1074427300073E-01
 0.1843170742830E-01 -0.1105106900022E-01
 0.1945875672198E-01 -0.1135453364059E-01
 0.2049540113812E-01 -0.1165754555263E-01
 0.2153939157535E-01 -0.1196322616465E-01
 0.2258837849548E-01 -0.1227484075074E-01
 0.2364023656939E-01 -0.1259572219445E-01
 0.2469265315734E-01 -0.1292901955571E-01
 0.2574302766263E-01 -0.1327748848058E-01
 0.2678844528009E-01 -0.1364329257317E-01
 0.2782565748889E-01 -0.1402781667968E-01
 0.2885105666906E-01 -0.1443150300476E-01
 0.2986066723348E-01 -0.1485373212739E-01
 0.3084998870155E-01 -0.1529268661628E-01
 0.3181383776803E-01 -0.1574524744163E-01
 0.1906238331459E-03 -0.4439870488156E-03
 0.4334996959556E-03 -0.8937791915159E-03
 0.7272678805017E-03 -0.1349149811379E-02
 0.1070171839066E-02 -0.1809602841265E-02
 0.1460186644280E-02 -0.2274395648278E-02
 0.1895145118023E-02 -0.2742575252307E-02
 0.2372844028434E-02 -0.3213018945584E-02
 0.2891127531660E-02 -0.3684479943957E-02
 0.3447944427020E-02 -0.4155630613692E-02
 0.4041382028608E-02 -0.4625100309153E-02
 0.4669681637441E-02 -0.5091506615964E-02
 0.5331233901911E-02 -0.5553475630283E-02
 0.6024582351373E-02 -0.6009669933829E-02
 0.6748408076910E-02 -0.6458803590168E-02
 0.7501464895064E-02 -0.6899631721196E-02
 0.8282677107413E-02 -0.7331040268014E-02
 0.9091010400743E-02 -0.7752003264128E-02
 0.9925502805230E-02 -0.8161642696121E-02
 0.1078524495840E-01 -0.8559261583398E-02
 0.1166936525165E-01 -0.8944416249081E-02
 0.1257697396001E-01 -0.9317086317286E-02
 0.1350701096725E-01 -0.9677544128956E-02
 0.1445819540985E-01 -0.1002628678049E-01
 0.1542911658756E-01 -0.1036411565085E-01
 0.1641833254934E-01 -0.1069223065789E-01
 0.1742439475101E-01 -0.1101227939497E-01
 0.1844581106538E-01 -0.1132636091746E-01
 0.1948099716891E-01 -0.1163700042196E-01
 0.2052817659235E-01 -0.1194708010358E-01
 0.2158528829061E-01 -0.1225973940313E-01
 0.2265011005031E-01 -0.1257826142495E-01
 0.2372056338234E-01 -0.1290597521489E-01
 0.2479428451465E-01 -0.1324603924666E-01
 0.2586851115043E-01 -0.1360123410942E-01
 0.2694005153983E-01 -0.1397375991891E-01
 0.2800527051706E-01 -0.1436504501616E-01
 0.2906008095241E-01 -0.1477557759552E-01
 0.3009996398299E-01 -0.1520478399861E-01
 0.3111984817983E-01 -0.1565089264463E-01
 0.3211399943619E-01 -0.1611083879057E-01
 0.1941088921418E-03 -0.4557653331216E-03
 0.4405064723015E-03 -0.9174598427885E-03
 0.7376956112522E-03 -0.1384872684642E-02
 0.1083788819382E-02 -0.1857501307060E-02
 0.1476644177024E-02 -0.2334575563702E-02
 0.1913997771099E-02 -0.2815098238196E-02
 0.2393573693292E-02 -0.3297891588868E-02
 0.2913168527173E-02 -0.3781649235113E-02
 0.3470707399719E-02 -0.4264984705854E-02
 0.4064275342986E-02 -0.4746473060491E-02
 0.4692129923064E-02 -0.5224684248788E-02
 0.5352694196901E-02 -0.5698203941546E-02
 0.6044558704585E-02 -0.6165661311638E-02
 0.6766465635250E-02 -0.6625742927129E-02
 0.7517244570484E-02 -0.7077180339967E-02
 0.8295911006845E-02 -0.7518840195096E-02
 0.9101538977479E-02 -0.7949678662335E-02
 0.9933293238075E-02 -0.8368800988130E-02
 0.1079041052458E-01 -0.8775493632834E-02
 0.1167218573296E-01 -0.9169313127497E-02
 0.1257791723116E-01 -0.9550331645088E-02
 0.1350674966617E-01 -0.9918935734342E-02
 0.1445762295762E-01 -0.1027569699422E-01
 0.1542936379468E-01 -0.1062144733805E-01
 0.1642078260585E-01 -0.1095738762026E-01
 0.1743069370356E-01 -0.1128515159745E-01
 0.1845787061446E-01 -0.1160682041495E-01
 0.1950098657318E-01 -0.1192490531510E-01
 0.2055850018231E-01 -0.1224228521501E-01
 0.2162854580021E-01 -0.1256211372791E-01
 0.2270903748002E-01 -0.1288769121155E-01
 0.2379795357746E-01 -0.1322234515284E-01
 0.2489288932177E-01 -0.1356925036558E-01
 0.2599092969174E-01 -0.1393122369207E-01
 0.2708861240548E-01 -0.1431051614934E-01
 0.2818191822986E-01 -0.1470861502348E-01
 0.2926627839865E-01 -0.1512606856808E-01
 0.3033662370016E-01 -0.1556235918910E-01
 0.3138730019773E-01 -0.1601576591378E-01
 0.3241200808962E-01 -0.1648327694195E-01
 0.1976536535434E-03 -0.4675596501526E-03
 0.4476570813968E-03 -0.9411913443625E-03
 0.7483647237347E-03 -0.1420699124887E-02
 0.1097746409069E-02 -0.1905571989349E-02
 0.1493532536372E-02 -0.2395009521922E-02
 0.1933354101767E-02 -0.2887967352927E-02
 0.2414857069488E-02 -0.3383210330004E-02
 0.2935787817965E-02 -0.3879371180331E-02
 0.3494047457141E-02 -0.4375004634869E-02
 0.4087719958978E-02 -0.4868632790166E-02
 0.4715081236122E-02 -0.5358780313863E-02
 0.5374589125167E-02 -0.5843995421683E-02
 0.6064883448272E-02 -0.6322877019326E-02
 0.6784769449827E-02 -0.6794087065989E-02
 0.7533154050355E-02 -0.7256335796145E-02
 0.8309145126910E-02 -0.7708471918894E-02
 0.9111925926492E-02 -0.8149433972362E-02
 0.9940788531403E-02 -0.8578309441426E-02
 0.1079511615370E-01 -0.8994365867685E-02
 0.1167437050120E-01 -0.9397156799861E-02
 0.1257803870413E-01 -0.9786845607151E-02
 0.1350547047374E-01 -0.1016393177732E-01
 0.1445582622135E-01 -0.1052905818602E-01
 0.1542816954070E-01 -0.1088308170323E-01
 0.1642156314150E-01 -0.1122719657430E-01
 0.1743508509132E-01 -0.1156301387402E-01
 0.1846777705563E-01 -0.1189258749973E-01
 0.1951857440971E-01 -0.1221840588736E-01
 0.2058617786446E-01 -0.1254333746514E-01
 0.2166892674243E-01 -0.1287054574819E-01
 0.2276488316716E-01 -0.1320334732028E-01
 0.2387209573749E-01 -0.1354506996092E-01
 0.2498813238955E-01 -0.1389891154221E-01
 0.2610993763102E-01 -0.1426773660927E-01
 0.2723378750171E-01 -0.1465386202978E-01
 0.2835528236982E-01 -0.1505885046143E-01
 0.2946936908543E-01 -0.1548332559125E-01
 0.3057041858018E-01 -0.1592683767511E-01
 0.3165217879757E-01 -0.1638772260682E-01
 0.3270776415715E-01 -0.1686302160274E-01
 0.2012695048978E-03 -0.4793770727493E-03
 0.4549743544234E-03 -0.9649888788447E-03
 0.7593089027865E-03 -0.1456653309977E-02
 0.1112087877776E-02 -0.1953848493314E-02
 0.1510902839657E-02 -0.2455740340642E-02
 0.1953271204584E-02 -0.2961233737281E-02
 0.2436755549848E-02 -0.3469033194945E-02
 0.2959049827815E-02 -0.3977708925269E-02
 0.3518031278893E-02 -0.4485756817023E-02
 0.4111784483981E-02 -0.4991647463770E-02
 0.4738606099254E-02 -0.5493862882605E-02
 0.5396991252978E-02 -0.5990917166714E-02
 0.6085631280209E-02 -0.6481382487811E-02
 0.6803396233790E-02 -0.6963899465019E-02
 0.7549271611850E-02 -0.7437159618713E-02
 0.8322458430068E-02 -0.7899995393818E-02
 0.9122249535157E-02 -0.8351328203352E-02
 0.9948064433828E-02 -0.8790226995805E-02
 0.1079943269016E-01 -0.9215938263516E-02
 0.1167598265793E-01 -0.9628009620534E-02
 0.1257739049876E-01 -0.1002669461382E-01
 0.1350321087202E-01 -0.1041260476047E-01
 0.1445282392626E-01 -0.1078645130070E-01
 0.1542552922571E-01 -0.1114911072242E-01
 0.1642064132903E-01 -0.1150176325511E-01
 0.1743750286437E-01 -0.1184598845568E-01
 0.1847542640944E-01 -0.1218380348530E-01
 0.1953361487494E-01 -0.1251766479592E-01
 0.2061101957499E-01 -0.1285042262810E-01
 0.2170619652714E-01 -0.1318524553544E-01
 0.2281737061010E-01 -0.1352546466168E-01
 0.2394267756068E-01 -0.1387440931435E-01
 0.2507967550021E-01 -0.1423530679065E-01
 0.2622518428310E-01 -0.1461108087783E-01
 0.2737522990019E-01 -0.1500412987878E-01
 0.2852503740146E-01 -0.1541610943094E-01
 0.2966906612459E-01 -0.1584773563607E-01
 0.3080111530566E-01 -0.1629864020689E-01
 0.3191431505295E-01 -0.1676722396351E-01
 0.3300116854929E-01 -0.1725058283550E-01
 0.2049685344426E-03 -0.4912248376457E-03
 0.4624826655439E-03 -0.9888679878432E-03
 0.7705641755599E-03 -0.1492759973945E-02
 0.1126859429913E-02 -0.2002365107201E-02
 0.1528809430577E-02 -0.2516811487626E-02
 0.1973809382365E-02 -0.3034948914406E-02
 0.2459333466960E-02 -0.3555418052086E-02
 0.2983021496354E-02 -0.4076724651147E-02
 0.3542727580232E-02 -0.4597305670218E-02
 0.4136539106916E-02 -0.5115581847537E-02
 0.4762776245395E-02 -0.5629995525766E-02
 0.5419974100054E-02 -0.6139030434694E-02
 0.6106877720260E-02 -0.6641235994712E-02
 0.6822423513593E-02 -0.7135235186777E-02
 0.7565676448661E-02 -0.7619703816744E-02
 0.8335930997488E-02 -0.8093460089562E-02
 0.9132589499347E-02 -0.8555409113544E-02
 0.9955198472344E-02 -0.9004600811814E-02
 0.1080343320288E-01 -0.9440258767192E-02
 0.1167708804886E-01 -0.9861921985493E-02
 0.1257602806925E-01 -0.1026993353626E-01
 0.1350001232865E-01 -0.1066501644909E-01
 0.1444863947015E-01 -0.1104794777781E-01
 0.1542144359743E-01 -0.1141961858219E-01
 0.1641799027852E-01 -0.1178118785485E-01
 0.1743788731581E-01 -0.1213419483294E-01
 0.1848072114305E-01 -0.1248061029189E-01
 0.1954596828894E-01 -0.1282284913795E-01
 0.2063284051443E-01 -0.1316373512443E-01
 0.2174012436739E-01 -0.1350643622405E-01
 0.2286622505848E-01 -0.1385429563752E-01
 0.2400938597372E-01 -0.1421064461061E-01
 0.2516717691940E-01 -0.1457874571037E-01
 0.2633631284524E-01 -0.1496159351634E-01
 0.2751258453247E-01 -0.1536168404199E-01
 0.2869084862639E-01 -0.1578078489488E-01
 0.2986507375574E-01 -0.1621972349558E-01
 0.3102847342306E-01 -0.1667822880420E-01
 0.3217353600533E-01 -0.1715477675369E-01
 0.3329212235495E-01 -0.1764652152808E-01
 0.2087635676336E-03 -0.5031104268312E-03
 0.4702080230108E-03 -0.1012844751063E-02
 0.7821690441656E-03 -0.1529044691682E-02
 0.1142110342117E-02 -0.2051157183283E-02
 0.1547309977680E-02 -0.2578267530355E-02
 0.1995032170822E-02 -0.3109165268899E-02
 0.2482658027027E-02 -0.3642423079785E-02
 0.3007772123797E-02 -0.4176479996594E-02
 0.3568206883318E-02 -0.4709713967208E-02
 0.4162055319380E-02 -0.5240497781294E-02
 0.4787664314736E-02 -0.5767237503042E-02
 0.5443611837492E-02 -0.6288390754143E-02
 0.6128698832105E-02 -0.6802488695907E-02
 0.6841929394704E-02 -0.7308140857250E-02
 0.7582448498199E-02 -0.7804010769419E-02
 0.8349643933044E-02 -0.8288904813516E-02
 0.9143026917993E-02 -0.8761712964482E-02
 0.9962270050611E-02 -0.9221465953985E-02
 0.1080719320074E-01 -0.9667362904633E-02
 0.1167775561092E-01 -0.1009893185924E-01
 0.1257401069864E-01 -0.1051660514674E-01
 0.1349592095477E-01 -0.1092121722003E-01
 0.1444330175857E-01 -0.1131360880749E-01
 0.1541591977097E-01 -0.1169468084773E-01
 0.1641359023634E-01 -0.1206556411788E-01
 0.1743618643514E-01 -0.1242774880520E-01
 0.1848357162729E-01 -0.1278314949219E-01
 0.1955550257384E-01 -0.1313412954852E-01
 0.2065146253212E-01 -0.1348347723655E-01
 0.2177048442617E-01 -0.1383435341109E-01
 0.2291117426420E-01 -0.1419010978065E-01
 0.2407190733884E-01 -0.1455407888083E-01
 0.2525029095602E-01 -0.1492956366511E-01
 0.2644295928832E-01 -0.1531964095032E-01
 0.2764548650138E-01 -0.1572692145440E-01
 0.2885237011905E-01 -0.1615330532185E-01
 0.3005708520132E-01 -0.1659975245181E-01
 0.3125224345033E-01 -0.1706610742186E-01
 0.3242966333141E-01 -0.1755093395185E-01
 0.3358052629285E-01 -0.1805145011052E-01
 0.2126682172117E-03 -0.5150416616109E-03
 0.4781781896876E-03 -0.1036935994349E-02
 0.7941646587792E-03 -0.1565534210088E-02
 0.1157893142928E-02 -0.2100261580356E-02
 0.1566465607539E-02 -0.2640154656661E-02
 0.2017006384765E-02 -0.3183936599709E-02
 0.2506799251046E-02 -0.3730107305443E-02
 0.3033373211088E-02 -0.4277036546426E-02
 0.3594541275758E-02 -0.4823043251433E-02
 0.4188405619618E-02 -0.5366454511625E-02
 0.4813343532665E-02 -0.5905644012975E-02
 0.5467978966307E-02 -0.6439048094881E-02
 0.6151170925809E-02 -0.6965184722919E-02
 0.6861992308207E-02 -0.7482654694659E-02
 0.7599668249214E-02 -0.7990113189404E-02
 0.8363679246426E-02 -0.8486357609657E-02
 0.9153644264429E-02 -0.8970264353949E-02
 0.9969360520703E-02 -0.9440845153969E-02
 0.1081079081769E-01 -0.9897273468367E-02
 0.1167805768531E-01 -0.1033906437993E-01
 0.1257140195666E-01 -0.1076673963402E-01
 0.1349098812661E-01 -0.1118124548101E-01
 0.1443684600841E-01 -0.1158348465125E-01
 0.1540897222733E-01 -0.1197436368987E-01
 0.1640742978038E-01 -0.1235497849012E-01
 0.1743235728383E-01 -0.1272676158419E-01
 0.1848389764988E-01 -0.1309156141809E-01
 0.1956209482894E-01 -0.1345167937810E-01
 0.2066671564986E-01 -0.1380985843860E-01
 0.2179705714019E-01 -0.1416924472384E-01
 0.2295194943355E-01 -0.1453319363499E-01
 0.2412992786409E-01 -0.1490503702879E-01
 0.2532866770044E-01 -0.1528812238416E-01
 0.2654475137746E-01 -0.1568561993080E-01
 0.2777355946067E-01 -0.1610027279435E-01
 0.2900924267754E-01 -0.1653413598324E-01
 0.3024478051149E-01 -0.1698832564539E-01
 0.3147216498958E-01 -0.1746282336587E-01
 0.3268251207240E-01 -0.1795629621987E-01
 0.3386628031438E-01 -0.1846603415588E-01
 0.2166969493387E-03 -0.5270268117566E-03
 0.4864228377895E-03 -0.1061159529958E-02
 0.8065950364060E-03 -0.1602256827916E-02
 0.1174263837593E-02 -0.2149717165852E-02
 0.1586341071316E-02 -0.2702521256488E-02
 0.2039802179622E-02 -0.3259318725501E-02
 0.2531829912749E-02 -0.3818531180459E-02
 0.3059898281731E-02 -0.4378456335462E-02
 0.3621804140718E-02 -0.4937354246138E-02
 0.4215663182516E-02 -0.5493508997580E-02
 0.4839887351502E-02 -0.6045266396099E-02
 0.5493149959541E-02 -0.6591046973693E-02
 0.6174370224753E-02 -0.7129361196583E-02
 0.6882690723046E-02 -0.7658806434984E-02
 0.7617416516427E-02 -0.8178033961695E-02
 0.8378119704410E-02 -0.8685835509625E-02
 0.9164525326582E-02 -0.9181075875632E-02
 0.9976553223844E-02 -0.9662748372653E-02
 0.1081430696658E-01 -0.1012999997389E-01
 0.1167807029933E-01 -0.1058233120061E-01
 0.1256827012770E-01 -0.1102035381925E-01
 0.1348527108063E-01 -0.1144512675183E-01
 0.1442931453175E-01 -0.1185761358305E-01
 0.1540062380377E-01 -0.1225872268863E-01
 0.1639950702487E-01 -0.1264950880091E-01
 0.1742636740454E-01 -0.1303133838758E-01
 0.1848162999242E-01 -0.1340598372171E-01
 0.1956563300271E-01 -0.1377567329987E-01
 0.2067843971314E-01 -0.1414309414800E-01
 0.2181963069005E-01 -0.1451136882252E-01
 0.2298828632101E-01 -0.1488385010734E-01
 0.2418313411472E-01 -0.1526386559887E-01
 0.2540195277970E-01 -0.1565481016185E-01
 0.2664130758374E-01 -0.1605995811981E-01
 0.2789641373284E-01 -0.1648220336003E-01
 0.2916109135826E-01 -0.1692378000884E-01
 0.3042782386633E-01 -0.1738598722486E-01
 0.3168796421732E-01 -0.1786896850820E-01
 0.3293188870934E-01 -0.1837151321852E-01
 0.3414928256229E-01 -0.1889099385858E-01
 0.2208651688356E-03 -0.5390747229500E-03
 0.4949737446886E-03 -0.1085534437922E-02
 0.8195073344694E-03 -0.1639242840167E-02
 0.1191282187097E-02 -0.2199565400567E-02
 0.1607004952000E-02 -0.2765418594366E-02
 0.2063493133691E-02 -0.3335370178422E-02
 0.2557825477793E-02 -0.3907757234163E-02
 0.3087422690178E-02 -0.4480802419606E-02
 0.3650069864832E-02 -0.5052707320744E-02
 0.4243901503454E-02 -0.5621716267367E-02
 0.4867369065106E-02 -0.6186152386752E-02
 0.5519198877558E-02 -0.6744426609280E-02
 0.6198372506206E-02 -0.7295048292143E-02
 0.6904102831965E-02 -0.7836617311363E-02
 0.7635774188206E-02 -0.8367786038290E-02
 0.8393048653617E-02 -0.8887344340701E-02
 0.9175755115993E-02 -0.9394147835704E-02
 0.9983933496132E-02 -0.9887172417993E-02
 0.1081782545330E-01 -0.1036553816908E-01
 0.1167787340392E-01 -0.1082872987903E-01
 0.1256468859133E-01 -0.1127745041391E-01
 0.1347883346113E-01 -0.1171287277847E-01
 0.1442075747733E-01 -0.1213602085140E-01
 0.1539090665420E-01 -0.1254780164387E-01
 0.1638983081674E-01 -0.1294922293663E-01
 0.1741819625473E-01 -0.1334157701034E-01
 0.1847671207644E-01 -0.1372654990522E-01
 0.1956601768896E-01 -0.1410628588739E-01
 0.2068648622656E-01 -0.1448340446660E-01
 0.2183800271001E-01 -0.1486099443537E-01
 0.2301992659961E-01 -0.1524239792182E-01
 0.2423121380483E-01 -0.1563093274291E-01
 0.2546978735190E-01 -0.1603004236964E-01
 0.2673223614932E-01 -0.1644311510519E-01
 0.2801364446620E-01 -0.1687321447834E-01
 0.2930752293970E-01 -0.1732278005497E-01
 0.3060586073764E-01 -0.1779332416939E-01
 0.3189935122913E-01 -0.1828518123377E-01
 0.3317758915155E-01 -0.1879728572446E-01
 0.3442942835051E-01 -0.1932710641263E-01
 0.2251893273317E-03 -0.5511949662624E-03
 0.5038650375405E-03 -0.1110081395954E-02
 0.8329521882061E-03 -0.1676525057069E-02
 0.1209012047876E-02 -0.2249851015738E-02
 0.1628529913885E-02 -0.2828901578343E-02
 0.2088156347467E-02 -0.3412152984872E-02
 0.2584864036744E-02 -0.3997850796547E-02
 0.3116023407403E-02 -0.4584139495024E-02
 0.3679413514044E-02 -0.5169162986919E-02
 0.4273194006451E-02 -0.5751129790885E-02
 0.4895861387313E-02 -0.6328346371205E-02
 0.5546198947857E-02 -0.6899221076874E-02
 0.6223252707216E-02 -0.7462269298452E-02
 0.6926306203148E-02 -0.8016100021650E-02
 0.7654821939786E-02 -0.8559372313841E-02
 0.8408549807963E-02 -0.9090878506021E-02
 0.9187419739719E-02 -0.9609467931309E-02
 0.9991588634251E-02 -0.1011410051277E-01
 0.1082143304722E-01 -0.1060386947974E-01
 0.1167755106364E-01 -0.1107824318766E-01
 0.1256073615255E-01 -0.1153801717915E-01
 0.1347174581791E-01 -0.1198448052646E-01
 0.1441123352715E-01 -0.1241871749488E-01
 0.1537986317685E-01 -0.1284163120944E-01
 0.1637842192103E-01 -0.1325417730481E-01
 0.1740783666284E-01 -0.1365756615278E-01
 0.1846910167826E-01 -0.1405338757645E-01
 0.1956316404921E-01 -0.1444368989666E-01
 0.2069072037861E-01 -0.1483101262234E-01
 0.2185198224492E-01 -0.1521839911681E-01
 0.2304661951410E-01 -0.1560917085284E-01
 0.2427385686528E-01 -0.1600662805482E-01
 0.2553180831254E-01 -0.1641426195116E-01
 0.2681713423847E-01 -0.1683558352191E-01
 0.2812482970784E-01 -0.1727384513134E-01
 0.2944812312802E-01 -0.1773172027269E-01
 0.3077851466524E-01 -0.1821096846904E-01
 0.3210601695203E-01 -0.1871214879969E-01
 0.3341939632250E-01 -0.1923436823408E-01
 0.3470660882636E-01 -0.1977520897401E-01
 0.2296870591364E-03 -0.5633980145793E-03
 0.5131334966461E-03 -0.1134823068479E-02
 0.8469841234371E-03 -0.1714139412983E-02
 0.1227521780876E-02 -0.2300622799520E-02
 0.1650992997254E-02 -0.2893029640106E-02
 0.2113872557521E-02 -0.3489733542699E-02
 0.2613026225877E-02 -0.4088880792931E-02
 0.3145778776554E-02 -0.4688534563054E-02
 0.3709910470804E-02 -0.5286782418205E-02
 0.4303613611204E-02 -0.5881801859759E-02
 0.4925435989877E-02 -0.6471889642712E-02
 0.5574222105818E-02 -0.7055459452527E-02
 0.6249084492471E-02 -0.7631040660612E-02
 0.6949377394248E-02 -0.8197258672408E-02
 0.7674639908720E-02 -0.8752785469011E-02
 0.8424706997553E-02 -0.9296420721819E-02
 0.9199606232001E-02 -0.9827010873532E-02
 0.9999607818062E-02 -0.1034350179259E-01
 0.1082521950443E-01 -0.1084496036922E-01
 0.1167719159521E-01 -0.1133083831919E-01
 0.1255649731745E-01 -0.1180202595907E-01
 0.1346408604904E-01 -0.1225993102266E-01
 0.1440081054306E-01 -0.1270569897570E-01
 0.1536754690432E-01 -0.1314022730954E-01
 0.1636531419171E-01 -0.1356441503975E-01
 0.1739529630588E-01 -0.1397938344560E-01
 0.1845877271659E-01 -0.1438661635758E-01
 0.1955700387398E-01 -0.1478805416479E-01
 0.2069102328110E-01 -0.1518614300847E-01
 0.2186139199462E-01 -0.1558386761305E-01
 0.2306812387221E-01 -0.1598451661431E-01
 0.2431075685322E-01 -0.1639136215333E-01
 0.2558764877553E-01 -0.1680793979349E-01
 0.2689558721687E-01 -0.1723789019511E-01
 0.2822952839600E-01 -0.1768467373860E-01
 0.2958245346015E-01 -0.1815122853199E-01
 0.3094538356384E-01 -0.1863959962611E-01
 0.3230762952487E-01 -0.1915061007647E-01
 0.3365707724495E-01 -0.1968357203951E-01
 0.3498070921448E-01 -0.2023620221037E-01
 0.2343773506730E-03 -0.5756954517856E-03
 0.5228189298252E-03 -0.1159784568571E-02
 0.8616620590988E-03 -0.1752125686847E-02
 0.1246884740889E-02 -0.2351934519353E-02
 0.1674475962934E-02 -0.2957867753854E-02
 0.2140726264108E-02 -0.3568183621158E-02
 0.2642395132360E-02 -0.4180920636060E-02
 0.3176768235589E-02 -0.4794057668172E-02
 0.3741636031533E-02 -0.5405628025807E-02
 0.4335232260235E-02 -0.6013784016033E-02
 0.4956163002821E-02 -0.6616820705607E-02
 0.5603338499896E-02 -0.7213166011740E-02
 0.6275939787266E-02 -0.7801372084153E-02
 0.6973391530727E-02 -0.8380088791439E-02
 0.7695307332687E-02 -0.8948007888108E-02
 0.8441603876955E-02 -0.9503941833244E-02
 0.9212402341037E-02 -0.1004673809215E-01
 0.1000808198235E-01 -0.1057533088794E-01
 0.1082927753258E-01 -0.1108876178354E-01
 0.1167688763912E-01 -0.1158646617771E-01
 0.1255206249423E-01 -0.1206943179728E-01
 0.1345593976414E-01 -0.1253918827450E-01
 0.1438956613449E-01 -0.1299694387997E-01
 0.1535402332423E-01 -0.1344358960550E-01
 0.1635055569440E-01 -0.1387996423524E-01
 0.1738059917695E-01 -0.1430709347306E-01
 0.1844571708807E-01 -0.1472634576063E-01
 0.1954748777152E-01 -0.1513954144872E-01
 0.2068729443310E-01 -0.1554901915227E-01
 0.2186607088630E-01 -0.1595769017721E-01
 0.2308421045103E-01 -0.1636879576352E-01
 0.2434161281750E-01 -0.1678556639822E-01
 0.2563693897344E-01 -0.1721157540038E-01
 0.2696716821916E-01 -0.1765059778209E-01
 0.2832727842899E-01 -0.1810632062990E-01
 0.2971004804908E-01 -0.1858197948552E-01
 0.3110603570730E-01 -0.1907994809469E-01
 0.3250383033573E-01 -0.1960135931859E-01
 0.3389037988646E-01 -0.2014576947480E-01
 0.3525160695507E-01 -0.2071105519063E-01
 0.2392807512137E-03 -0.5881002227345E-03
 0.5329646331762E-03 -0.1184994008939E-02
 0.8770499160201E-03 -0.1790528355422E-02
 0.1267179856101E-02 -0.2403846000051E-02
 0.1699065686422E-02 -0.3023487604689E-02
 0.2168805863368E-02 -0.3647581480144E-02
 0.2673056169864E-02 -0.4274049196500E-02
 0.3209071991848E-02 -0.4900782675455E-02
 0.3774664950460E-02 -0.5525764044692E-02
 0.4368120394079E-02 -0.6147127472966E-02
 0.4988110466668E-02 -0.6763175561678E-02
 0.5633615951723E-02 -0.7372360404921E-02
 0.6303888266679E-02 -0.7973266611290E-02
 0.6998421840277E-02 -0.8564577305812E-02
 0.7716902142545E-02 -0.9145011532691E-02
 0.8459323587468E-02 -0.9713400573739E-02
 0.9225896267764E-02 -0.1026859736929E-01
 0.1001710363717E-01 -0.1080952741898E-01
 0.1083370269916E-01 -0.1133520849143E-01
 0.1167673616850E-01 -0.1184506054477E-01
 0.1254752812551E-01 -0.1234017190559E-01
 0.1344740057537E-01 -0.1282219801379E-01
 0.1437758815516E-01 -0.1329241240892E-01
 0.1533937063769E-01 -0.1375169971108E-01
 0.1633420978767E-01 -0.1420083587409E-01
 0.1736378704799E-01 -0.1464074543144E-01
 0.1842994655557E-01 -0.1507267262962E-01
 0.1953458749043E-01 -0.1549830576282E-01
 0.2067945442130E-01 -0.1591986112854E-01
 0.2186587699435E-01 -0.1634016030725E-01
 0.2309466484633E-01 -0.1676238005796E-01
 0.2436613164850E-01 -0.1718969215664E-01
 0.2567930758801E-01 -0.1762569727997E-01
 0.2703143796713E-01 -0.1807430633985E-01
 0.2841759468681E-01 -0.1853945065856E-01
 0.2983040992996E-01 -0.1902469793909E-01
 0.3126000503408E-01 -0.1953279911735E-01
 0.3269422929556E-01 -0.2006525040038E-01
 0.3411902932550E-01 -0.2062189877970E-01
 0.3551916921347E-01 -0.2120081108737E-01
 0.2444196347499E-03 -0.6006269343797E-03
 0.5436179578057E-03 -0.1210483164159E-02
 0.8932173528046E-03 -0.1829397610613E-02
 0.1288492310445E-02 -0.2456424390423E-02
 0.1724854602258E-02 -0.3089968932667E-02
 0.2198203775637E-02 -0.3728013123609E-02
 0.2705096912440E-02 -0.4368351855399E-02
 0.3242770637391E-02 -0.5008788084466E-02
 0.3809070921840E-02 -0.5647257124070E-02
 0.4402346369818E-02 -0.6281883522388E-02
 0.5021343734150E-02 -0.6910987975406E-02
 0.5665119369791E-02 -0.7533057808836E-02
 0.6332996799669E-02 -0.8146720670574E-02
 0.7024539141598E-02 -0.8750702487991E-02
 0.7739500508391E-02 -0.9343757774091E-02
 0.8477948370925E-02 -0.9924743270487E-02
 0.9240176354276E-02 -0.1049252240364E-01
 0.1002676663462E-01 -0.1104601540365E-01
 0.1083859328101E-01 -0.1158421831919E-01
 0.1167683843232E-01 -0.1210653712029E-01
 0.1254299674798E-01 -0.1261416448420E-01
 0.1343857031089E-01 -0.1310888626405E-01
 0.1436497512187E-01 -0.1359204465812E-01
 0.1532368044736E-01 -0.1406451915087E-01
 0.1631635615331E-01 -0.1452702144296E-01
 0.1734492091864E-01 -0.1498037040119E-01
 0.1841149468398E-01 -0.1542567811282E-01
 0.1951829838075E-01 -0.1586448915767E-01
 0.2066744787935E-01 -0.1629888233480E-01
 0.2186069085916E-01 -0.1673157179777E-01
 0.2309929085269E-01 -0.1716565013639E-01
 0.2438403103777E-01 -0.1760420948618E-01
 0.2571438366040E-01 -0.1805086293118E-01
 0.2708794498384E-01 -0.1850965474244E-01
 0.2849996710379E-01 -0.1898477593862E-01
 0.2994300701531E-01 -0.1948016257113E-01
 0.3140678568817E-01 -0.1999899701743E-01
 0.3287839924660E-01 -0.2054320155745E-01
 0.3434272322630E-01 -0.2111296965593E-01
 0.3578324970027E-01 -0.2170659386243E-01
 0.2498185253744E-03 -0.6132922209671E-03
 0.5548310070480E-03 -0.1236288272696E-02
 0.9102406542840E-03 -0.1868790581970E-02
 0.1310914343327E-02 -0.2509745663253E-02
 0.1751941198797E-02 -0.3157401091530E-02
 0.2229016560440E-02 -0.3809573716558E-02
 0.2738606875178E-02 -0.4463921662339E-02
 0.3277944696973E-02 -0.5118157902111E-02
 0.3844925997814E-02 -0.5770176951345E-02
 0.4437975824986E-02 -0.6418103969228E-02
 0.5055924826333E-02 -0.7060289773162E-02
 0.5697910122434E-02 -0.7695269125037E-02
 0.6363328852927E-02 -0.8321724187279E-02
 0.7051811290281E-02 -0.8938433973786E-02
 0.7763176338801E-02 -0.9544197304847E-02
 0.8497559132473E-02 -0.1013790363236E-01
 0.9255330716452E-02 -0.1071843245875E-01
 0.1003716587326E-01 -0.1128470275095E-01
 0.1084405004214E-01 -0.1183569147220E-01
 0.1167729981514E-01 -0.1237079265123E-01
 0.1253857695592E-01 -0.1289130762951E-01
 0.1342955912077E-01 -0.1339915799167E-01
 0.1435183651885E-01 -0.1389575897040E-01
 0.1530705833186E-01 -0.1438198737159E-01
 0.1629709172651E-01 -0.1485849056523E-01
 0.1732408239844E-01 -0.1532597858451E-01
 0.1839041877163E-01 -0.1578542452979E-01
 0.1949864195092E-01 -0.1623821831116E-01
 0.2065124668612E-01 -0.1668628599919E-01
 0.2185041922360E-01 -0.1713221547328E-01
 0.2309791444927E-01 -0.1757899289338E-01
 0.2439504318913E-01 -0.1802960562043E-01
 0.2574179928429E-01 -0.1848765885898E-01
 0.2713622644237E-01 -0.1895732245046E-01
 0.2857385902400E-01 -0.1944305930890E-01
 0.3004726782698E-01 -0.1994921072150E-01
 0.3154582586489E-01 -0.2047945074185E-01
 0.3305586960929E-01 -0.2103620137558E-01
 0.3456112696491E-01 -0.2162007035263E-01
 0.3604368521821E-01 -0.2222961692721E-01
 0.2555045030493E-03 -0.6261151920502E-03
 0.5666614957977E-03 -0.1262451015513E-02
 0.9282038028719E-03 -0.1908772811581E-02
 0.1334546179575E-02 -0.2563896390709E-02
 0.1780430555007E-02 -0.3225884843277E-02
 0.2261344996006E-02 -0.3892369158866E-02
 0.2773677215634E-02 -0.4560860565555E-02
 0.3314674085475E-02 -0.5228982521763E-02
 0.3882299923869E-02 -0.5894596842264E-02
 0.4475070973327E-02 -0.6555841514212E-02
 0.5091911732459E-02 -0.7211111085890E-02
 0.5732045360731E-02 -0.7859001121863E-02
 0.6394943845475E-02 -0.8498260635733E-02
 0.7080302573198E-02 -0.9127732715007E-02
 0.7788000725780E-02 -0.9746269970607E-02
 0.8518234947275E-02 -0.1035280243780E-01
 0.9271446819571E-02 -0.1094623188664E-01
 0.1004839694382E-01 -0.1152548060309E-01
 0.1085017594864E-01 -0.1208950967807E-01
 0.1167822962686E-01 -0.1263770385415E-01
 0.1253438328605E-01 -0.1317147800593E-01
 0.1342048549642E-01 -0.1369289548626E-01
 0.1433829301062E-01 -0.1420344997475E-01
 0.1528962433000E-01 -0.1470401938329E-01
 0.1627653154776E-01 -0.1519518818874E-01
 0.1730137504088E-01 -0.1567755599902E-01
 0.1836680179268E-01 -0.1615195156974E-01
 0.1947566853612E-01 -0.1661960030390E-01
 0.2063085342577E-01 -0.1708226071881E-01
 0.2183499922893E-01 -0.1754237482060E-01
 0.2309038846431E-01 -0.1800279768722E-01
 0.2439891938820E-01 -0.1846638233848E-01
 0.2576119321170E-01 -0.1893669966932E-01
 0.2717580974401E-01 -0.1941803071435E-01
 0.2863870585100E-01 -0.1991511762289E-01
 0.3014257681637E-01 -0.2043274349113E-01
 0.3167652048423E-01 -0.2097513992429E-01
 0.3322611853458E-01 -0.2154531519924E-01
 0.3477386812896E-01 -0.2214437513406E-01
 0.3630029141837E-01 -0.2277119356557E-01
 0.2615077104923E-03 -0.6391179857823E-03
 0.5791738110024E-03 -0.1289019718659E-02
 0.9471997708820E-03 -0.1949420050399E-02
 0.1359497107069E-02 -0.2618975871197E-02
 0.1810434914874E-02 -0.3295534456898E-02
 0.2295294109395E-02 -0.3976517876403E-02
 0.2810400345690E-02 -0.4659280777965E-02
 0.3353037475175E-02 -0.5341359689651E-02
 0.3921259403658E-02 -0.6020594408546E-02
 0.4513689852520E-02 -0.6695150234957E-02
 0.5129357677759E-02 -0.7363480729822E-02
 0.5767577315634E-02 -0.8024256762324E-02
 0.6427896475014E-02 -0.8676307326253E-02
 0.7110073066424E-02 -0.9318551211961E-02
 0.7814041342697E-02 -0.9949904922152E-02
 0.8540052509546E-02 -0.1056934757936E-01
 0.9288610985415E-02 -0.1117581004357E-01
 0.1006055569326E-01 -0.1176822310761E-01
 0.1085707578436E-01 -0.1234553580221E-01
 0.1167974077055E-01 -0.1290712685718E-01
 0.1253053595432E-01 -0.1345453008752E-01
 0.1341147611478E-01 -0.1398995736238E-01
 0.1432447645494E-01 -0.1451498729493E-01
 0.1527151320580E-01 -0.1503050410908E-01
 0.1625480938780E-01 -0.1553703250395E-01
 0.1727692546332E-01 -0.1603506189826E-01
 0.1834075417313E-01 -0.1652527318164E-01
 0.1944945990135E-01 -0.1700871902005E-01
 0.2060630495512E-01 -0.1748697653802E-01
 0.2181440296954E-01 -0.1796232208736E-01
 0.2307659790939E-01 -0.1843745300366E-01
 0.2439543555573E-01 -0.1891505390668E-01
 0.2577221563908E-01 -0.1939862804649E-01
 0.2720621526681E-01 -0.1989254513527E-01
 0.2869391441816E-01 -0.2040182711972E-01
 0.3022826998962E-01 -0.2093173325714E-01
 0.3179820286420E-01 -0.2148712484776E-01
 0.3338856412602E-01 -0.2207169381083E-01
 0.3498053096234E-01 -0.2268715572033E-01
 0.3655286175618E-01 -0.2333275085829E-01
 0.2678619922961E-03 -0.6523264702718E-03
 0.5924403255617E-03 -0.1316050841561E-02
 0.9673320796158E-03 -0.1990820451177E-02
 0.1385886709127E-02 -0.2675098657234E-02
 0.1842074268154E-02 -0.3366480102434E-02
 0.2330973104899E-02 -0.4062152753577E-02
 0.2848869396985E-02 -0.4759306138810E-02
 0.3393111520443E-02 -0.5455395361833E-02
 0.3961867246880E-02 -0.6148252053395E-02
 0.4553885482115E-02 -0.6836085861256E-02
 0.5168310320279E-02 -0.7517426360899E-02
 0.5804552532513E-02 -0.8191035286027E-02
 0.6462235982064E-02 -0.8855835418954E-02
 0.7141177927652E-02 -0.9510833433308E-02
 0.7841361774434E-02 -0.1015502040109E-01
 0.8563085515776E-02 -0.1078743367517E-01
 0.9306907840113E-02 -0.1140704069690E-01
 0.1007373773810E-01 -0.1201278659994E-01
 0.1086485572254E-01 -0.1260361279146E-01
 0.1168194936951E-01 -0.1317889588723E-01
 0.1252716055201E-01 -0.1374029455979E-01
 0.1340266564084E-01 -0.1429017663079E-01
 0.1431052987282E-01 -0.1483021322602E-01
 0.1525287467122E-01 -0.1536130158332E-01
 0.1623207833568E-01 -0.1588391156385E-01
 0.1725088444827E-01 -0.1639842471014E-01
 0.1831241559346E-01 -0.1690537275229E-01
 0.1942013196315E-01 -0.1740562955793E-01
 0.2057767625057E-01 -0.1790057872015E-01
 0.2178864257012E-01 -0.1839231175230E-01
 0.2305646614858E-01 -0.1888334022637E-01
 0.2438439894440E-01 -0.1937614200923E-01
 0.2577453432969E-01 -0.1987411182332E-01
 0.2722696025540E-01 -0.2038167574128E-01
 0.2873886308693E-01 -0.2090412675562E-01
 0.3030362943733E-01 -0.2144723040967E-01
 0.3191013646910E-01 -0.2201655377684E-01
 0.3354254726769E-01 -0.2261658867672E-01
 0.3518065677721E-01 -0.2324977444327E-01
 0.3680115896916E-01 -0.2391587396059E-01
 0.2746057018962E-03 -0.6657711670973E-03
 0.6065430270631E-03 -0.1343610803772E-02
 0.9887166879011E-03 -0.2033077294467E-02
 0.1413846262379E-02 -0.2732397596967E-02
 0.1875476918090E-02 -0.3438870638804E-02
 0.2368495162160E-02 -0.4149423288622E-02
 0.2889177525690E-02 -0.4861073562551E-02
 0.3434969947146E-02 -0.5571204579278E-02
 0.4004181426371E-02 -0.6277657477308E-02
 0.4595704969833E-02 -0.6978706092898E-02
 0.5208810919871E-02 -0.7672974723636E-02
 0.5843011085325E-02 -0.8359332442942E-02
 0.6498005388125E-02 -0.9036810143492E-02
 0.7173666649310E-02 -0.9704514987393E-02
 0.7870020792998E-02 -0.1036152381195E-01
 0.8587403980590E-02 -0.1100694199269E-01
 0.9326419685076E-02 -0.1163978176528E-01
 0.1008803789150E-01 -0.1225900914185E-01
 0.1087362279762E-01 -0.1286356300298E-01
 0.1168497427390E-01 -0.1345282237918E-01
 0.1252438759552E-01 -0.1402857718787E-01
 0.1339419635432E-01 -0.1459335928431E-01
 0.1429660721249E-01 -0.1514894097213E-01
 0.1523387337348E-01 -0.1569624074694E-01
 0.1620851112743E-01 -0.1623568051429E-01
 0.1722342777665E-01 -0.1676753856187E-01
 0.1828195654767E-01 -0.1729219879562E-01
 0.1938783735387E-01 -0.1781035301491E-01
 0.2054508427957E-01 -0.1832318169862E-01
 0.2175777559883E-01 -0.1883257394768E-01
 0.2302996184647E-01 -0.1934082717165E-01
 0.2436565614328E-01 -0.1985017039701E-01
 0.2576784247617E-01 -0.2036384100977E-01
 0.2723756468568E-01 -0.2088627757337E-01
 0.2877290306359E-01 -0.2142302312688E-01
 0.3036787950051E-01 -0.2198037193354E-01
 0.3201150133192E-01 -0.2256467647416E-01
 0.3368732987904E-01 -0.2318135917935E-01
 0.3537368119873E-01 -0.2383373413282E-01
 0.3704507410778E-01 -0.2452219722282E-01
 0.2817767789979E-03 -0.6794739514600E-03
 0.6215698361311E-03 -0.1371766040665E-02
 0.1011484514158E-02 -0.2076317212807E-02
 0.1443531893667E-02 -0.2791065880391E-02
 0.1910806216765E-02 -0.3512964832298E-02
 0.2408019120750E-02 -0.4238650990740E-02
 0.2931474253868E-02 -0.4964967053326E-02
 0.3478752785793E-02 -0.5689237879522E-02
 0.4048334278728E-02 -0.6409335671270E-02
 0.4639274910184E-02 -0.7123620974255E-02
 0.5250981547255E-02 -0.7830833109359E-02
 0.5883070711176E-02 -0.8529965933509E-02
 0.6535317205357E-02 -0.9220173579122E-02
 0.7207644501593E-02 -0.9900677272779E-02
 0.7900113153529E-02 -0.1057065208242E-01
 0.8613087438163E-02 -0.1122928275101E-01
 0.9347204635947E-02 -0.1187563615281E-01
 0.1010348542553E-01 -0.1250870721277E-01
 0.1088336945424E-01 -0.1312743861629E-01
 0.1168876353457E-01 -0.1373121754088E-01
 0.1252211475130E-01 -0.1432197374789E-01
 0.1338591149445E-01 -0.1490241390681E-01
 0.1428249479707E-01 -0.1547442269257E-01
 0.1521423711580E-01 -0.1603895022763E-01
 0.1618377573384E-01 -0.1659637902651E-01
 0.1719416221081E-01 -0.1714689001548E-01
 0.1824892105457E-01 -0.1769072149217E-01
 0.1935205579588E-01 -0.1822838032979E-01
 0.2050794335719E-01 -0.1876083395827E-01
 0.2172115140761E-01 -0.1928974980417E-01
 0.2299637384073E-01 -0.1981717830644E-01
 0.2433844903562E-01 -0.2034504854903E-01
 0.2575136710206E-01 -0.2087637832326E-01
 0.2723730555426E-01 -0.2141555850636E-01
 0.2879547651642E-01 -0.2196834670534E-01
 0.3042080755233E-01 -0.2254158374603E-01
 0.3210267998703E-01 -0.2314250200890E-01
 0.3382417467161E-01 -0.2377762104126E-01
 0.3556207519045E-01 -0.2445134411128E-01
 0.3728828761809E-01 -0.2516476786807E-01
 0.2894306543925E-03 -0.6934895676857E-03
 0.6376335775822E-03 -0.1400618886847E-02
 0.1035783305179E-02 -0.2120674778871E-02
 0.1475092905664E-02 -0.2851241387384E-02
 0.1948184990858E-02 -0.3588866716135E-02
 0.2449626360826E-02 -0.4329869196456E-02
 0.2975796890884E-02 -0.5070918471763E-02
 0.3524458656829E-02 -0.5809302262867E-02
 0.4094294968786E-02 -0.6542951238413E-02
 0.4684545500856E-02 -0.7270338656443E-02
 0.5294764009945E-02 -0.7990340654193E-02
 0.5924675186079E-02 -0.8702093548456E-02
 0.6574127371010E-02 -0.9404889480288E-02
 0.7243089695438E-02 -0.1009807685999E-01
 0.7931649311639E-02 -0.1078094122446E-01
 0.8640188172385E-02 -0.1145275812073E-01
 0.9369365668545E-02 -0.1211265929703E-01
 0.1012024193936E-01 -0.1275967716678E-01
 0.1089432296182E-01 -0.1339276517451E-01
 0.1169361641769E-01 -0.1401132483219E-01
 0.1252071884299E-01 -0.1461743328138E-01
 0.1337826995944E-01 -0.1521398159836E-01
 0.1426873637714E-01 -0.1580297804054E-01
 0.1519459447402E-01 -0.1638541623771E-01
 0.1615858142402E-01 -0.1696165086256E-01
 0.1716386792687E-01 -0.1753177586512E-01
 0.1821414277317E-01 -0.1809589225219E-01
 0.1931364670374E-01 -0.1865432680083E-01
 0.2046709713243E-01 -0.1920783283256E-01
 0.2167953844587E-01 -0.1975784585423E-01
 0.2295631394403E-01 -0.2030614426311E-01
 0.2430312683758E-01 -0.2085431021035E-01
 0.2572506663015E-01 -0.2140507592000E-01
 0.2722561054086E-01 -0.2196271028688E-01
 0.2880534943182E-01 -0.2253312641200E-01
 0.3046042583437E-01 -0.2312370362475E-01
 0.3218090369524E-01 -0.2374263147289E-01
 0.3394959087842E-01 -0.2439770484465E-01
 0.3574170357995E-01 -0.2509462839268E-01
 0.3752626403072E-01 -0.2583551665034E-01
 0.2976264489054E-03 -0.7078698489461E-03
 0.6548599508168E-03 -0.1430282838008E-02
 0.1061782289673E-02 -0.2166322772791E-02
 0.1508706381957E-02 -0.2913137710851E-02
 0.1987769714436E-02 -0.3666803376676E-02
 0.2493439272129E-02 -0.4423293021750E-02
 0.3022232819629E-02 -0.5179113509433E-02
 0.3572145801998E-02 -0.5931545030590E-02
 0.4142100616837E-02 -0.6678610099516E-02
 0.4731540486276E-02 -0.7418923781443E-02
 0.5340175359815E-02 -0.8151521853357E-02
 0.5967840524889E-02 -0.8875700712238E-02
 0.6614455776248E-02 -0.9590904884706E-02
 0.7280030387038E-02 -0.1029662285503E-01
 0.7964669545986E-02 -0.1099226308437E-01
 0.8668761670915E-02 -0.1167720407698E-01
 0.9392975485095E-02 -0.1235065375090E-01
 0.1013839820457E-01 -0.1301169169937E-01
 0.1090659226645E-01 -0.1365929004077E-01
 0.1169966016368E-01 -0.1429287154706E-01
 0.1252034629892E-01 -0.1491466858483E-01
 0.1337143919934E-01 -0.1552776662200E-01
 0.1425552265596E-01 -0.1613430961052E-01
 0.1517516113033E-01 -0.1673534804417E-01
 0.1613316913425E-01 -0.1733122238848E-01
 0.1713280902505E-01 -0.1792195285968E-01
 0.1817790345498E-01 -0.1850751537378E-01
 0.1927289905437E-01 -0.1908806653461E-01
 0.2042282430521E-01 -0.1966415069234E-01
 0.2163317777139E-01 -0.2023696781929E-01
 0.2290994542794E-01 -0.2080800478283E-01
 0.2425972059383E-01 -0.2137845168060E-01
 0.2568877437607E-01 -0.2195068369418E-01
 0.2720205036847E-01 -0.2252875772068E-01
 0.2880178913729E-01 -0.2311865823535E-01
 0.3048571432376E-01 -0.2372826822970E-01
 0.3224497113854E-01 -0.2436680109898E-01
 0.3406239247108E-01 -0.2504351819381E-01
 0.3591166477715E-01 -0.2576572628164E-01
 0.3775861002183E-01 -0.2653680992386E-01
 0.3064340329333E-03 -0.7226780718359E-03
 0.6733965550828E-03 -0.1460895879904E-02
 0.1089675465775E-02 -0.2213468981807E-02
 0.1544568242224E-02 -0.2977006964737E-02
 0.2029725957050E-02 -0.3747036723626E-02
 0.2539580557048E-02 -0.4519164571038E-02
 0.3070863890882E-02 -0.5289756315738E-02
 0.3621863856831E-02 -0.6056124743416E-02
 0.4191778482207E-02 -0.6816424121838E-02
 0.4780273425745E-02 -0.7569443231120E-02
 0.5387222505695E-02 -0.8314400785759E-02
 0.6012572748401E-02 -0.9050770269751E-02
 0.6656312535289E-02 -0.9778162115924E-02
 0.7318485342094E-02 -0.1049621720789E-01
 0.7999205457415E-02 -0.1120447942955E-01
 0.8698855893465E-02 -0.1190244312448E-01
 0.9418100823447E-02 -0.1258940491066E-01
 0.1015804084796E-01 -0.1326450260814E-01
 0.1092028408417E-01 -0.1392673607456E-01
 0.1170702179376E-01 -0.1457555707682E-01
 0.1252114563636E-01 -0.1521336127423E-01
 0.1336559165485E-01 -0.1584343873560E-01
 0.1424305307963E-01 -0.1646808192359E-01
 0.1515616629085E-01 -0.1708841282209E-01
 0.1610779929036E-01 -0.1770477323371E-01
 0.1710127644672E-01 -0.1831712568551E-01
 0.1814052069063E-01 -0.1892533728699E-01
 0.1923014853158E-01 -0.1952941012270E-01
 0.2037546295234E-01 -0.2012969218939E-01
 0.2158238347773E-01 -0.2072715307077E-01
 0.2285751702897E-01 -0.2132297728715E-01
 0.2420835363835E-01 -0.2191792341149E-01
 0.2564241033529E-01 -0.2251393597877E-01
 0.2716625628499E-01 -0.2311475507982E-01
 0.2878407096180E-01 -0.2372632325035E-01
 0.3049558618175E-01 -0.2435695637992E-01
 0.3229353457303E-01 -0.2501693392515E-01
 0.3416120449253E-01 -0.2571719499728E-01
 0.3607087898607E-01 -0.2646699994156E-01
 0.3798482297489E-01 -0.2727134353958E-01
 0.3159370136840E-03 -0.7379922144801E-03
 0.6934183573546E-03 -0.1492627370028E-02
 0.1119686326890E-02 -0.2262364964855E-02
 0.1582895032145E-02 -0.3043147729255E-02
 0.2074227470724E-02 -0.3829868791645E-02
 0.2588170985890E-02 -0.4617755462530E-02
 0.3121764028308E-02 -0.5403070120774E-02
 0.3673651866493E-02 -0.6183210937278E-02
 0.4243344486575E-02 -0.6956510621413E-02
 0.4830746610283E-02 -0.7721965783008E-02
 0.5435901355754E-02 -0.8479001071971E-02
 0.6058867093028E-02 -0.9227282768521E-02
 0.6699697137000E-02 -0.9966599329544E-02
 0.7358462953553E-02 -0.1069675539596E-01
 0.8035278844093E-02 -0.1141744259073E-01
 0.8730510064758E-02 -0.1212828470667E-01
 0.9444801262580E-02 -0.1282868104367E-01
 0.1017925123522E-01 -0.1351784038104E-01
 0.1093550185798E-01 -0.1419480081556E-01
 0.1171582708718E-01 -0.1485905178104E-01
 0.1252326641235E-01 -0.1551316043992E-01
 0.1336090367028E-01 -0.1616063168446E-01
 0.1423153472418E-01 -0.1680391973111E-01
 0.1513785156990E-01 -0.1744423362827E-01
 0.1608275073728E-01 -0.1808193365633E-01
 0.1706958707039E-01 -0.1871694329777E-01
 0.1810234744253E-01 -0.1934904127934E-01
 0.1918577801686E-01 -0.1997809706069E-01
 0.2032541285794E-01 -0.2060428361161E-01
 0.2152754817213E-01 -0.2122835629328E-01
 0.2279937321528E-01 -0.2185119872464E-01
 0.2414925816476E-01 -0.2247310907301E-01
 0.2558600438495E-01 -0.2309553081159E-01
 0.2711794720887E-01 -0.2372177080740E-01
 0.2875150222798E-01 -0.2435758455208E-01
 0.3048889656897E-01 -0.2501160245277E-01
 0.3232508543727E-01 -0.2569517294268E-01
 0.3424441920195E-01 -0.2642112861874E-01
 0.3621804370314E-01 -0.2720110774356E-01
 0.3820427209818E-01 -0.2804215006758E-01
 0.3262367781800E-03 -0.7539094783564E-03
 0.7151348163729E-03 -0.1525687278537E-02
 0.1152073417653E-02 -0.2313317395121E-02
 0.1623925353521E-02 -0.3111914631122E-02
 0.2121454336829E-02 -0.3915647453470E-02
 0.2639326291422E-02 -0.4719368974355E-02
 0.3174996308025E-02 -0.5519297238246E-02
 0.3727536076002E-02 -0.6312983294589E-02
 0.4296801694289E-02 -0.7098991489608E-02
 0.4882950024924E-02 -0.7876561550633E-02
 0.5486196036776E-02 -0.8645345747919E-02
 0.6106707293687E-02 -0.9405216765942E-02
 0.6744597638643E-02 -0.1015615117912E-01
 0.7399960246552E-02 -0.1089812730256E-01
 0.8072900495531E-02 -0.1163099633908E-01
 0.8763753327187E-02 -0.1235452583469E-01
 0.9473127862028E-02 -0.1306823346506E-01
 0.1020210420070E-01 -0.1377141383233E-01
 0.1095234459044E-01 -0.1446315562474E-01
 0.1172619945674E-01 -0.1514299577264E-01
 0.1252685807916E-01 -0.1581368123544E-01
 0.1335755429951E-01 -0.1647894170721E-01
 0.1422118104038E-01 -0.1714140644799E-01
 0.1512046966103E-01 -0.1780238762528E-01
 0.1605831934009E-01 -0.1846228225077E-01
 0.1703808231542E-01 -0.1912099562676E-01
 0.1806377087803E-01 -0.1977824253035E-01
 0.1914021715556E-01 -0.2043378824830E-01
 0.2027313675109E-01 -0.2108766182493E-01
 0.2146914740674E-01 -0.2174043382704E-01
 0.2273596394607E-01 -0.2239270463950E-01
 0.2408279272494E-01 -0.2304429983817E-01
 0.2551972305237E-01 -0.2369610227268E-01
 0.2705696411946E-01 -0.2435086420257E-01
 0.2870345629672E-01 -0.2501397735890E-01
 0.3046446157759E-01 -0.2569420901002E-01
 0.3233794090275E-01 -0.2640391661280E-01
 0.3431014717747E-01 -0.2715802878810E-01
 0.3635156974294E-01 -0.2797106698880E-01
 0.3841617875809E-01 -0.2885270138966E-01
 0.3374580614379E-03 -0.7705526278517E-03
 0.7387992263026E-03 -0.1560338830807E-02
 0.1187136741982E-02 -0.2366702821570E-02
 0.1667920509019E-02 -0.3183729800380E-02
 0.2171589752191E-02 -0.4004772300614E-02
 0.2693152994926E-02 -0.4824341451830E-02
 0.3230609479098E-02 -0.5638698187631E-02
 0.3783527534205E-02 -0.6445630134373E-02
 0.4352138801629E-02 -0.7243991884603E-02
 0.4936860402116E-02 -0.8033301185582E-02
 0.5538078228988E-02 -0.8813457048152E-02
 0.6156064974379E-02 -0.9584549166655E-02
 0.6790989932223E-02 -0.1034674962121E-01
 0.7442961891756E-02 -0.1110021833058E-01
 0.8112068908485E-02 -0.1184497705796E-01
 0.8798603233188E-02 -0.1258095200333E-01
 0.9503121599245E-02 -0.1330779691475E-01
 0.1022666658768E-01 -0.1402490980111E-01
 0.1097090553064E-01 -0.1473144475687E-01
 0.1173825872010E-01 -0.1542699756449E-01
 0.1253206875939E-01 -0.1611450334759E-01
 0.1335572403422E-01 -0.1679792602813E-01
 0.1421221049111E-01 -0.1748008273190E-01
 0.1510428282409E-01 -0.1816240462059E-01
 0.1603481626751E-01 -0.1884534410851E-01
 0.1700712623254E-01 -0.1952881081431E-01
 0.1802521042803E-01 -0.2021248366113E-01
 0.1909394083248E-01 -0.2089605883498E-01
 0.2021916013974E-01 -0.2157946311278E-01
 0.2140774255088E-01 -0.2226312698210E-01
 0.2266785319693E-01 -0.2294740555405E-01
 0.2400945984593E-01 -0.2363166341092E-01
 0.2544389946441E-01 -0.2431618437097E-01
 0.2698331252665E-01 -0.2500305105279E-01
 0.2863941999245E-01 -0.2569708875119E-01
 0.3042109151439E-01 -0.2640695437558E-01
 0.3233023747441E-01 -0.2714586159256E-01
 0.3435615870151E-01 -0.2793099237924E-01
 0.3646949912276E-01 -0.2878034595614E-01
 0.3861957552607E-01 -0.2970702334306E-01
 0.3497567677921E-03 -0.7880790574170E-03
 0.7647210545753E-03 -0.1596916089093E-02
 0.1225224898186E-02 -0.2422986985342E-02
 0.1715163676455E-02 -0.3259096354585E-02
 0.2224814901142E-02 -0.4097700219754E-02
 0.2749742959368E-02 -0.4933042460936E-02
 0.3288633937701E-02 -0.5761549625265E-02
 0.3841619586924E-02 -0.6581346085542E-02
 0.4409328705433E-02 -0.7391638439044E-02
 0.4992440420337E-02 -0.8192254825976E-02
 0.5591506659771E-02 -0.8983356095208E-02
 0.6206899185745E-02 -0.9765255594138E-02
 0.6838837121045E-02 -0.1053832487720E-01
 0.7487439257364E-02 -0.1130291079300E-01
 0.8152768934590E-02 -0.1205921528135E-01
 0.8835064055936E-02 -0.1280733848299E-01
 0.9534811557715E-02 -0.1354709020844E-01
 0.1025299554811E-01 -0.1427799293789E-01
 0.1099127068163E-01 -0.1499928432970E-01
 0.1175211975937E-01 -0.1571063250055E-01
 0.1253904396050E-01 -0.1641516926645E-01
 0.1335559349602E-01 -0.1711710128885E-01
 0.1420484513306E-01 -0.1781944521894E-01
 0.1508956123431E-01 -0.1852376599124E-01
 0.1601256598468E-01 -0.1923058955426E-01
 0.1697710307657E-01 -0.1993985315200E-01
 0.1798711501521E-01 -0.2065123103119E-01
 0.1904746640778E-01 -0.2136439172583E-01
 0.2016406942764E-01 -0.2207921232414E-01
 0.2134398153160E-01 -0.2279604479255E-01
 0.2259572533297E-01 -0.2351506101692E-01
 0.2392992255866E-01 -0.2423520760749E-01
 0.2535906544572E-01 -0.2495616496038E-01
 0.2689721343784E-01 -0.2567925463121E-01
 0.2855905782298E-01 -0.2640852125413E-01
 0.3035764576507E-01 -0.2715219043891E-01
 0.3229993842411E-01 -0.2792405006567E-01
 0.3437981665077E-01 -0.2874359597782E-01
 0.3656939303299E-01 -0.2963298409686E-01
 0.3881323954006E-01 -0.3060984467303E-01
 0.3633311997743E-03 -0.8066940709898E-03
 0.7932823211789E-03 -0.1635848823388E-02
 0.1266742514704E-02 -0.2482750176983E-02
 0.1765956532347E-02 -0.3338613825478E-02
 0.2281301221961E-02 -0.4194949827028E-02
 0.2809166514383E-02 -0.5045872985573E-02
 0.3349077244962E-02 -0.5888140743209E-02
 0.3901785379372E-02 -0.6720328826837E-02
 0.4468327240077E-02 -0.7542056953977E-02
 0.5049638109016E-02 -0.8353490786546E-02
 0.5646426802771E-02 -0.9155062495066E-02
 0.6259156132673E-02 -0.9947310798249E-02
 0.6888089051812E-02 -0.1073080656455E-01
 0.7533349542284E-02 -0.1150608562209E-01
 0.8194970381108E-02 -0.1227353768370E-01
 0.8873124898363E-02 -0.1303345210531E-01
 0.9568212804962E-02 -0.1378581726993E-01
 0.1028113652842E-01 -0.1453030562314E-01
 0.1101351707515E-01 -0.1526626114597E-01
 0.1176789105294E-01 -0.1599344086190E-01
 0.1254792525304E-01 -0.1671518223444E-01
 0.1335734215064E-01 -0.1743594184434E-01
 0.1419930921662E-01 -0.1815894541729E-01
 0.1507658126036E-01 -0.1888590407244E-01
 0.1599190399943E-01 -0.1961743359497E-01
 0.1694841437572E-01 -0.2035352190693E-01
 0.1794995942176E-01 -0.2109387203333E-01
 0.1900134959634E-01 -0.2183817210547E-01
 0.2010850802395E-01 -0.2258631284093E-01
 0.2127859684209E-01 -0.2333864688024E-01
 0.2252038824598E-01 -0.2409525201797E-01
 0.2384501816761E-01 -0.2485473876724E-01
 0.2526598386565E-01 -0.2561622851377E-01
 0.2679916216461E-01 -0.2638023787229E-01
 0.2846229644849E-01 -0.2714983244275E-01
 0.3027311879336E-01 -0.2793242148147E-01
 0.3224486716598E-01 -0.2874191796606E-01
 0.3437800383215E-01 -0.2960001503088E-01
 0.3664817582722E-01 -0.3053375387989E-01
 0.3899558824540E-01 -0.3156679978583E-01
 0.3784385759084E-03 -0.8266708636242E-03
 0.8249593948958E-03 -0.1677698335553E-02
 0.1312156960420E-02 -0.2546720501012E-02
 0.1820611663607E-02 -0.3422994910970E-02
 0.2341199268855E-02 -0.4297103357726E-02
 0.2871464123960E-02 -0.5163260757673E-02
 0.3411919385936E-02 -0.6018767789202E-02
 0.3963975529680E-02 -0.6862774794932E-02
 0.4529072179916E-02 -0.7695369542527E-02
 0.5108386517287E-02 -0.8517073956956E-02
 0.5702770821812E-02 -0.9328593791397E-02
 0.6312769129260E-02 -0.1013068903513E-01
 0.6938682047883E-02 -0.1092412492808E-01
 0.7580635042202E-02 -0.1170962434716E-01
 0.8238626599411E-02 -0.1248776951832E-01
 0.8912757583714E-02 -0.1325905358393E-01
 0.9603323882241E-02 -0.1402366857330E-01
 0.1031112083704E-01 -0.1478146794790E-01
 0.1103771073424E-01 -0.1553193114911E-01
 0.1178567305639E-01 -0.1627492530242E-01
 0.1255884895589E-01 -0.1701400348246E-01
 0.1336114714506E-01 -0.1775387756673E-01
 0.1419582793340E-01 -0.1849798847911E-01
 0.1506562379602E-01 -0.1924820179399E-01
 0.1597317446485E-01 -0.2000523589125E-01
 0.1692147557920E-01 -0.2076915084493E-01
 0.1791423985668E-01 -0.2153971321012E-01
 0.1895617899263E-01 -0.2231668287736E-01
 0.2005317029342E-01 -0.2310003742099E-01
 0.2121240033676E-01 -0.2389022670856E-01
 0.2244277217347E-01 -0.2468735222471E-01
 0.2375576726085E-01 -0.2548981522968E-01
 0.2516567833633E-01 -0.2629628654824E-01
 0.2668999266979E-01 -0.2710651162055E-01
 0.2834943192607E-01 -0.2792243905214E-01
 0.3016676974264E-01 -0.2875024798581E-01
 0.3216278653397E-01 -0.2960333310867E-01
 0.3434705428602E-01 -0.3050517460283E-01
 0.3670191666293E-01 -0.3148838418122E-01
 0.3916451338042E-01 -0.3258471333959E-01
 0.3954199863075E-03 -0.8483815089897E-03
 0.8603518971247E-03 -0.1723210032992E-02
 0.1362002151131E-02 -0.2615817183038E-02
 0.1879438317452E-02 -0.3513081861196E-02
 0.2404623419104E-02 -0.4404803850658E-02
 0.2936636862385E-02 -0.5285651743630E-02
 0.3477108151614E-02 -0.6153726561222E-02
 0.4028116221815E-02 -0.7008873980644E-02
 0.4591482660456E-02 -0.7851691413947E-02
 0.5168603752548E-02 -0.8683064134787E-02
 0.5760457844292E-02 -0.9503965033875E-02
 0.6367658863311E-02 -0.1031536470731E-01
 0.6990538938058E-02 -0.1111821250842E-01
 0.7629222657247E-02 -0.1191341176588E-01
 0.8283673155829E-02 -0.1270173807336E-01
 0.8953914350774E-02 -0.1348390110986E-01
 0.9640123822230E-02 -0.1426032384499E-01
 0.1034296263878E-01 -0.1503107859426E-01
 0.1106390417021E-01 -0.1579581825587E-01
 0.1180555633093E-01 -0.1655454829937E-01
 0.1257194479594E-01 -0.1731104951746E-01
 0.1336718228601E-01 -0.1807029214655E-01
 0.1419462632958E-01 -0.1883593314021E-01
 0.1505697260835E-01 -0.1960999414922E-01
 0.1595672751929E-01 -0.2039330308754E-01
 0.1689671209119E-01 -0.2118601051453E-01
 0.1788046847120E-01 -0.2198798151976E-01
 0.1891256890168E-01 -0.2279910372054E-01
 0.1999879281171E-01 -0.2361952315782E-01
 0.2114627386774E-01 -0.2444989918241E-01
 0.2236392247177E-01 -0.2529050281445E-01
 0.2366337486767E-01 -0.2613970127735E-01
 0.2505945525827E-01 -0.2699590058540E-01
 0.2657094147286E-01 -0.2785821994041E-01
 0.2822125829106E-01 -0.2872747721622E-01
 0.3003830910119E-01 -0.2960825652056E-01
 0.3205155507626E-01 -0.3051260732610E-01
 0.3428271200102E-01 -0.3146494177796E-01
 0.3672552574821E-01 -0.3250388434347E-01
 0.3931710851196E-01 -0.3367202060097E-01
 0.4147392448414E-03 -0.8723467519629E-03
 0.9002204917060E-03 -0.1773392134126E-02
 0.1416875083560E-02 -0.2691205825427E-02
 0.1942718012137E-02 -0.3609858661887E-02
 0.2471631972977E-02 -0.4518744357618E-02
 0.3004636339526E-02 -0.5413496707882E-02
 0.3544555092499E-02 -0.6293302677193E-02
 0.4094107892158E-02 -0.7158803664562E-02
 0.4655459067504E-02 -0.8011127063240E-02
 0.5230193380005E-02 -0.8851513956754E-02
 0.5819394531025E-02 -0.9681188008896E-02
 0.6423733939451E-02 -0.1050131269130E-01
 0.7043569376590E-02 -0.1131300555440E-01
 0.7679023681334E-02 -0.1211733852377E-01
 0.8330026648830E-02 -0.1291527633690E-01
 0.8996525363175E-02 -0.1370775443989E-01
 0.9678568579686E-02 -0.1449545518908E-01
 0.1037665517680E-01 -0.1527871550344E-01
 0.1109213325345E-01 -0.1605741198600E-01
 0.1182761940220E-01 -0.1683172757251E-01
 0.1258733471774E-01 -0.1760568712227E-01
 0.1337561750996E-01 -0.1838451944193E-01
 0.1419592883376E-01 -0.1917209032292E-01
 0.1505091317419E-01 -0.1997056885700E-01
 0.1594291683640E-01 -0.2078089059295E-01
 0.1687455520190E-01 -0.2160331000497E-01
 0.1784916743092E-01 -0.2243782505700E-01
 0.1887115119687E-01 -0.2328450974240E-01
 0.1994614367248E-01 -0.2414376637803E-01
 0.2108115631679E-01 -0.2501658847523E-01
 0.2228498626969E-01 -0.2590358704222E-01
 0.2356922225019E-01 -0.2680331797008E-01
 0.2494891394477E-01 -0.2771419361403E-01
 0.2644370344271E-01 -0.2863499423714E-01
 0.2807921182761E-01 -0.2956559670020E-01
 0.2988815644120E-01 -0.3050881074926E-01
 0.3190940966555E-01 -0.3147442975861E-01
 0.3418017001358E-01 -0.3248634357971E-01
 0.3671233973704E-01 -0.3358900897415E-01
 0.3944920091089E-01 -0.3483939282796E-01
 0.4370453722326E-03 -0.8993192923822E-03
 0.9455344850427E-03 -0.1829635782995E-02
 0.1477416698438E-02 -0.2774365650952E-02
 0.2010665630106E-02 -0.3714451319116E-02
 0.2542203286931E-02 -0.4639645065713E-02
 0.3075355438740E-02 -0.5547232507630E-02
 0.3614132697599E-02 -0.6437760043943E-02
 0.4161824806866E-02 -0.7312721467584E-02
 0.4720883576936E-02 -0.8173766259817E-02
 0.5293045306649E-02 -0.9022466848919E-02
 0.5879476041580E-02 -0.9860270588753E-02
 0.6480891797835E-02 -0.1068850885862E-01
 0.7097670573229E-02 -0.1150844574403E-01
 0.7729934044183E-02 -0.1232130426478E-01
 0.8377583886191E-02 -0.1312822775451E-01
 0.9040496174268E-02 -0.1393038073533E-01
 0.9718586790107E-02 -0.1472873224156E-01
 0.1041216591085E-01 -0.1552393798912E-01
 0.1112241308654E-01 -0.1631616528876E-01
 0.1185192608649E-01 -0.1710583062619E-01
 0.1260513176707E-01 -0.1789722731724E-01
 0.1338661890641E-01 -0.1869583957953E-01
 0.1419995945470E-01 -0.1950572269548E-01
 0.1504773192508E-01 -0.2032916903077E-01
 0.1593209712724E-01 -0.2116720701641E-01
 0.1685543752563E-01 -0.2202020168128E-01
 0.1782086211450E-01 -0.2288831704754E-01
 0.1883256577731E-01 -0.2377187403794E-01
 0.1989600933347E-01 -0.2467162260268E-01
 0.2101802618464E-01 -0.2558902243468E-01
 0.2220719134451E-01 -0.2652521257863E-01
 0.2347484586698E-01 -0.2747920099866E-01
 0.2483593758222E-01 -0.2844976241883E-01
 0.2631046522391E-01 -0.2943578825300E-01
 0.2792551186531E-01 -0.3043668734666E-01
 0.2971777093210E-01 -0.3145370300537E-01
 0.3173544150580E-01 -0.3249364708017E-01
 0.3403429929291E-01 -0.3357778260730E-01
 0.3665358820100E-01 -0.3475495047147E-01
 0.3955452306548E-01 -0.3610072472846E-01
 0.4632767328484E-03 -0.9304299235865E-03
 0.9975264657850E-03 -0.1893901682012E-02
 0.1544261416080E-02 -0.2867162403956E-02
 0.2083371647397E-02 -0.3828101830380E-02
 0.2616210798239E-02 -0.4768214194473E-02
 0.3148621810554E-02 -0.5687258889594E-02
 0.3685673310278E-02 -0.6587327972524E-02
 0.4231115721619E-02 -0.7470757825053E-02
 0.4787621421542E-02 -0.8339679863518E-02
 0.5357037154612E-02 -0.9195954899239E-02
 0.5940587380097E-02 -0.1004121600593E-01
 0.6539019993407E-02 -0.1087693050711E-01
 0.7152728446001E-02 -0.1170448182560E-01
 0.7781835103381E-02 -0.1252522085990E-01
 0.8426221643417E-02 -0.1334045160785E-01
 0.9085705368521E-02 -0.1415156197117E-01
 0.9760074803636E-02 -0.1495982952952E-01
 0.1044943016845E-01 -0.1576629036140E-01
 0.1115473237998E-01 -0.1657149189270E-01
 0.1187852201402E-01 -0.1737616691659E-01
 0.1262543917853E-01 -0.1818491649300E-01
 0.1340034974250E-01 -0.1900347327057E-01
 0.1420694317420E-01 -0.1983604402333E-01
 0.1504771632072E-01 -0.2068499685728E-01
 0.1592462187036E-01 -0.2155142017186E-01
 0.1683978815973E-01 -0.2243578753060E-01
 0.1779607375894E-01 -0.2333846138629E-01
 0.1879745018672E-01 -0.2426007220370E-01
 0.1984917975981E-01 -0.2520180978560E-01
 0.2095788046839E-01 -0.2616573243849E-01
 0.2213181744144E-01 -0.2715370174024E-01
 0.2338190212745E-01 -0.2816546766206E-01
 0.2472265981177E-01 -0.2920059578719E-01
 0.2617390116474E-01 -0.3025870270051E-01
 0.2776326517042E-01 -0.3133953787065E-01
 0.2953002976702E-01 -0.3244360754404E-01
 0.3153034498014E-01 -0.3357473565122E-01
 0.3384028287778E-01 -0.3474912293226E-01
 0.3653780371853E-01 -0.3601635604506E-01
 0.3962320440856E-01 -0.3747475193476E-01
 0.4948413782505E-03 -0.9674592470669E-03
 0.1057739215133E-02 -0.1969013606537E-02
 0.1617927427875E-02 -0.2971902042873E-02
 0.2160724921871E-02 -0.3952091689912E-02
 0.2693403822302E-02 -0.4905092180371E-02
 0.3224196124248E-02 -0.5833913507630E-02
 0.3758970072448E-02 -0.6742187382730E-02
 0.4301805884022E-02 -0.7633008275442E-02
 0.4855522973858E-02 -0.8508915763543E-02
 0.5422036154242E-02 -0.9371996815459E-02
 0.6002605142262E-02 -0.1022402218149E-01
 0.6597997851028E-02 -0.1106655679381E-01
 0.7208619228001E-02 -0.1190107122178E-01
 0.7834595103725E-02 -0.1272901566226E-01
 0.8475797328736E-02 -0.1355182896443E-01
 0.9132002827184E-02 -0.1437110433979E-01
 0.9802891093298E-02 -0.1518843730213E-01
 0.1048834276097E-01 -0.1600530855163E-01
 0.1118904547452E-01 -0.1682276369726E-01
 0.1190742979266E-01 -0.1764197693116E-01
 0.1264834974433E-01 -0.1846792374516E-01
 0.1341697301594E-01 -0.1930657407485E-01
 0.1421710907640E-01 -0.2016221887009E-01
 0.1505115604583E-01 -0.2103721930094E-01
 0.1592084128587E-01 -0.2193266579979E-01
 0.1682802740024E-01 -0.2284912817441E-01
 0.1777531144481E-01 -0.2378720052929E-01
 0.1876642861457E-01 -0.2474788950900E-01
 0.1980643242216E-01 -0.2573291601291E-01
 0.2090171045004E-01 -0.2674506110655E-01
 0.2206016034559E-01 -0.2778709389394E-01
 0.2329211679801E-01 -0.2885980040390E-01
 0.2461140213308E-01 -0.2996401067797E-01
 0.2603711716699E-01 -0.3110082068233E-01
 0.2759648544419E-01 -0.3227145975184E-01
 0.2932956944105E-01 -0.3347730754543E-01
 0.3129748535400E-01 -0.3472072329775E-01
 0.3359504993471E-01 -0.3601131302873E-01
 0.3635047080385E-01 -0.3739275364449E-01
 0.3963899289389E-01 -0.3898783156868E-01
 0.5339422422115E-03 -0.1013381098284E-02
 0.1128014239252E-02 -0.2059117366624E-02
 0.1698602262872E-02 -0.3091289897505E-02
 0.2242329854679E-02 -0.4087583572846E-02
 0.2773405703990E-02 -0.5050790647705E-02
 0.3301775198288E-02 -0.5987448103647E-02
 0.3833780139182E-02 -0.6902456022728E-02
 0.4373700690115E-02 -0.7799526377103E-02
 0.4924426625375E-02 -0.8681495161784E-02
 0.5487901574611E-02 -0.9550596127919E-02
 0.6065399657771E-02 -0.1040868121409E-01
 0.6657698488395E-02 -0.1125736921762E-01
 0.7265211522281E-02 -0.1209818159499E-01
 0.7888071353069E-02 -0.1293263462681E-01
 0.8526150903427E-02 -0.1376226880157E-01
 0.9179209374273E-02 -0.1458884967166E-01
 0.9846850484942E-02 -0.1541427734721E-01
 0.1052874688830E-01 -0.1624053208043E-01
 0.1122526059624E-01 -0.1706930899732E-01
 0.1193864185308E-01 -0.1790241667311E-01
 0.1267394564516E-01 -0.1874532246706E-01
 0.1343665643570E-01 -0.1960421791325E-01
 0.1423069603972E-01 -0.2048336316555E-01
 0.1505834575179E-01 -0.2138497684652E-01
 0.1592110060348E-01 -0.2231006008744E-01
 0.1682056078847E-01 -0.2325925548815E-01
 0.1775906321795E-01 -0.2423342620944E-01
 0.1874010059842E-01 -0.2523403071377E-01
 0.1976851617502E-01 -0.2626341199696E-01
 0.2085047569874E-01 -0.2732517981366E-01
 0.2199348989696E-01 -0.2842316400869E-01
 0.2320721977926E-01 -0.2955945414698E-01
 0.2450457892326E-01 -0.3073662083390E-01
 0.2590353364886E-01 -0.3195807732721E-01
 0.2742998328829E-01 -0.3322793918861E-01
 0.2912291209906E-01 -0.3455076866898E-01
 0.3104416095063E-01 -0.3593125355628E-01
 0.3330014381854E-01 -0.3737472092721E-01
 0.3607487907620E-01 -0.3891021545408E-01
 0.3957419045809E-01 -0.4067895112350E-01
 0.5841874195151E-03 -0.1073559668538E-02
 0.1210264816774E-02 -0.2170351084550E-02
 0.1785768156423E-02 -0.3228089936778E-02
 0.2327471430467E-02 -0.4235378425716E-02
 0.2855737926360E-02 -0.5205658808570E-02
 0.3380995947819E-02 -0.6148000418346E-02
 0.3909831783605E-02 -0.7068174369940E-02
 0.4446590768488E-02 -0.7970317983171E-02
 0.4994162333840E-02 -0.8857408910397E-02
 0.5554487647133E-02 -0.9731739582549E-02
 0.6128837415575E-02 -0.1059517867777E-01
 0.6717991124906E-02 -0.1144935173178E-01
 0.7322368712685E-02 -0.1229579181221E-01
 0.7942113004562E-02 -0.1313604453075E-01
 0.8577108240248E-02 -0.1397171286954E-01
 0.9227118908759E-02 -0.1480468725218E-01
 0.9891719403807E-02 -0.1563712455201E-01
 0.1057041962082E-01 -0.1647152449498E-01
 0.1126322188586E-01 -0.1731041209196E-01
 0.1197210924768E-01 -0.1815653345461E-01
 0.1270229919312E-01 -0.1901606131517E-01
 0.1345958141879E-01 -0.1989538711338E-01
 0.1424796227263E-01 -0.2079854445620E-01
 0.1506958999495E-01 -0.2172739423041E-01
 0.1592573887849E-01 -0.2268271453184E-01
 0.1681777241095E-01 -0.2366518690227E-01
 0.1774778615189E-01 -0.2467598998541E-01
 0.1871903010093E-01 -0.2571712779160E-01
 0.1973613704200E-01 -0.2679166321490E-01
 0.2080507927962E-01 -0.2790411224725E-01
 0.2193300436951E-01 -0.2905945620441E-01
 0.2312886923256E-01 -0.3026128590922E-01
 0.2440457258749E-01 -0.3151434681046E-01
 0.2577669979702E-01 -0.3282518427366E-01
 0.2726912858299E-01 -0.3420236030202E-01
 0.2891815140842E-01 -0.3565632262838E-01
 0.3078242990355E-01 -0.3719970772883E-01
 0.3296672841394E-01 -0.3884433150744E-01
 0.3569693240808E-01 -0.4060187545375E-01
 0.3938101770231E-01 -0.4260903111088E-01
 0.6517697599744E-03 -0.1158770946439E-02
 0.1305552270186E-02 -0.2311487304646E-02
 0.1877696710061E-02 -0.3384001991832E-02
 0.2415258231105E-02 -0.4395782756497E-02
 0.2939838591960E-02 -0.5369885057820E-02
 0.3461441722847E-02 -0.6315544764031E-02
 0.3986838389057E-02 -0.7239304289824E-02
 0.4520256636279E-02 -0.8145333499098E-02
 0.5064556557584E-02 -0.9036615716964E-02
 0.5621646727276E-02 -0.9915395752737E-02
 0.6192783860434E-02 -0.1078349324894E-01
 0.6778743649467E-02 -0.1164249089183E-01
 0.7379951741369E-02 -0.1249389272560E-01
 0.7996564352210E-02 -0.1333923480547E-01
 0.8628485768242E-02 -0.1418013920566E-01
 0.9275504418112E-02 -0.1501856423551E-01
 0.9937215051938E-02 -0.1585683582309E-01
 0.1061305379976E-01 -0.1669791100706E-01
 0.1130268068870E-01 -0.1754531942540E-01
 0.1200772306302E-01 -0.1840322874043E-01
 0.1273347544201E-01 -0.1927892012762E-01
 0.1348595855212E-01 -0.2017894959348E-01
 0.1426920008612E-01 -0.2110678504142E-01
 0.1508521063558E-01 -0.2206359677450E-01
 0.1593508811326E-01 -0.2304975660541E-01
 0.1682001674730E-01 -0.2406594522630E-01
 0.1774189384719E-01 -0.2511371741532E-01
 0.1870373413688E-01 -0.2619574695773E-01
 0.1970994789208E-01 -0.2731594229279E-01
 0.2076634647348E-01 -0.2847976975367E-01
 0.2187978465123E-01 -0.2969334003919E-01
 0.2305856242788E-01 -0.3096182164089E-01
 0.2431359805305E-01 -0.3229246766063E-01
 0.2566001596468E-01 -0.3369569062386E-01
 0.2711950343234E-01 -0.3518579202104E-01
 0.2872426085592E-01 -0.3678227629561E-01
 0.3052791469704E-01 -0.3851061626785E-01
 0.3262192327834E-01 -0.4040883224775E-01
 0.3522132285063E-01 -0.4250082107134E-01
 0.3897960915970E-01 -0.4487860114781E-01
 0.7476828460293E-03 -0.1294548354077E-02
 0.1410967776303E-02 -0.2491979201821E-02
 0.1971501489501E-02 -0.3557389758773E-02
 0.2505017355849E-02 -0.4569352072600E-02
 0.3024948175772E-02 -0.5543185530792E-02
 0.3542714021169E-02 -0.6489949649329E-02
 0.4064495251794E-02 -0.7415703519096E-02
 0.4594480408384E-02 -0.8324469388920E-02
 0.5135436181475E-02 -0.9219039774887E-02
 0.5689233283131E-02 -0.1010151488357E-01
 0.6257106340026E-02 -0.1097359673560E-01
 0.6839825454187E-02 -0.1183677632743E-01
 0.7437822134274E-02 -0.1269248800080E-01
 0.8051268655964E-02 -0.1354221900266E-01
 0.8680095573618E-02 -0.1438756506265E-01
 0.9324128237763E-02 -0.1523049042734E-01
 0.9983014717042E-02 -0.1607338213641E-01
 0.1065623883301E-01 -0.1691944921620E-01
 0.1134324709358E-01 -0.1777326347753E-01
 0.1204528195528E-01 -0.1864119587601E-01
 0.1276753966541E-01 -0.1953244180960E-01
 0.1351605380048E-01 -0.2045363397812E-01
 0.1429475779433E-01 -0.2140707114394E-01
 0.1510555702465E-01 -0.2239273548264E-01
 0.1594947247385E-01 -0.2341035849962E-01
 0.1682760900982E-01 -0.2446058629951E-01
 0.1774173942247E-01 -0.2554543011170E-01
 0.1869466863067E-01 -0.2666839418720E-01
 0.1969054558565E-01 -0.2783443534638E-01
 0.2073501413770E-01 -0.2905000225349E-01
 0.2183474601093E-01 -0.3032210216741E-01
 0.2299755042994E-01 -0.3165735523433E-01
 0.2423352040887E-01 -0.3306575748882E-01
 0.2555653848319E-01 -0.3456207934252E-01
 0.2698603310826E-01 -0.3616736470092E-01
 0.2855102521201E-01 -0.3791187394406E-01
 0.3029537073663E-01 -0.3984127832531E-01
 0.3230753406008E-01 -0.4202476349469E-01
 0.3471419243681E-01 -0.4460068149305E-01
 0.3826204868362E-01 -0.4765315040080E-01
 0.5008727048202E-02 -0.2146263761172E-01
-0.1051679643246E-01 -0.3711793687174E-01
-0.2162542572129E-01 -0.5649102635797E-01
-0.2899160813661E-01 -0.7914714090053E-01
-0.3316801995378E-01 -0.1046857322105E+00
-0.3462847897703E-01 -0.1327495242229E+00
-0.3378156990468E-01 -0.1630266340208E+00
-0.3096883296508E-01 -0.1952491243004E+00
-0.2645518649211E-01 -0.2291914440412E+00
-0.2042563353210E-01 -0.2646724830343E+00
-0.1299284259498E-01 -0.3015605470987E+00
-0.4215428733689E-02 -0.3397618279286E+00
 0.5826145865988E-02 -0.3792244888612E+00
 0.1703522299871E-01 -0.4199424771693E+00
 0.2935225243104E-01 -0.4619352172976E+00
 0.4275941523292E-01 -0.5052327276856E+00
 0.5730017965750E-01 -0.5498635952832E+00
 0.7309500692929E-01 -0.5958530542057E+00
 0.9039941467657E-01 -0.6432109363280E+00
 0.7619758315550E-02 -0.2149395461472E-01
-0.5898242720497E-02 -0.3714251535701E-01
-0.1521799942388E-01 -0.5665953308720E-01
-0.2099217945277E-01 -0.7958380840821E-01
-0.2375001919312E-01 -0.1054982013882E+00
-0.2394045439486E-01 -0.1340342618350E+00
-0.2194771890936E-01 -0.1648737722739E+00
-0.1809139970779E-01 -0.1977461695916E+00
-0.1261853718468E-01 -0.2324261405133E+00
-0.5699742090075E-02 -0.2687345362629E+00
 0.2563015028179E-02 -0.3065403305707E+00
 0.1211503486227E-01 -0.3457535266601E+00
 0.2288765344524E-01 -0.3863270349039E+00
 0.3480133803282E-01 -0.4282570155644E+00
 0.4780708531373E-01 -0.4715659469299E+00
 0.6189503905556E-01 -0.5162892858098E+00
 0.7711350217994E-01 -0.5624655929042E+00
 0.9358881091622E-01 -0.6101265221560E+00
 0.1115433795084E+00 -0.6592402037594E+00
 0.1030669152142E-01 -0.2154516673793E-01
-0.1151872439014E-02 -0.3718910346771E-01
-0.8645812937321E-02 -0.5684786303443E-01
-0.1279886945459E-01 -0.8002949868953E-01
-0.1411342806251E-01 -0.1062995553996E+00
-0.1301136765225E-01 -0.1352794038422E+00
-0.9851054840167E-02 -0.1666451899469E+00
-0.4929115272935E-02 -0.2001241323006E+00
 0.1526174264103E-02 -0.2354913593844E+00
 0.9358873720252E-02 -0.2725693794215E+00
 0.1847792241016E-01 -0.3112290637434E+00
 0.2883470484119E-01 -0.3513841113867E+00
 0.4037246102705E-01 -0.3929911789408E+00
 0.5302724716206E-01 -0.4360480792243E+00
 0.6676052692524E-01 -0.4805791612221E+00
 0.8157016028048E-01 -0.5266229046384E+00
 0.9750857074757E-01 -0.5742194319319E+00
 0.1146945774600E+00 -0.6233881374689E+00
 0.1333149647542E+00 -0.6740877511694E+00
 0.1306457360465E-01 -0.2161710929610E-01
 0.3714487788420E-02 -0.3725761192531E-01
-0.1919462588424E-02 -0.5705123353339E-01
-0.4425649684692E-02 -0.8047518180043E-01
-0.4275426419182E-02 -0.1070770804376E+00
-0.1861334433871E-02 -0.1364684134854E+00
 0.2485515898735E-02 -0.1683202007265E+00
 0.8492411944007E-02 -0.2023577808874E+00
 0.1595056434795E-01 -0.2383567711021E+00
 0.2471917674539E-01 -0.2761414849934E+00
 0.3471850906408E-01 -0.3155848935561E+00
 0.4590746252184E-01 -0.3566038782790E+00
 0.5824103603186E-01 -0.3991577606052E+00
 0.7166949850329E-01 -0.4432449713602E+00
 0.8616423004899E-01 -0.4888899267645E+00
 0.1017296475997E+00 -0.5361303313125E+00
 0.1184179329293E+00 -0.5850011793398E+00
 0.1363353910146E+00 -0.6355125235502E+00
 0.1556369493815E+00 -0.6876186465029E+00
 0.1588807893889E-01 -0.2170995274422E-01
 0.8691544532124E-02 -0.3734698601681E-01
 0.4948453482396E-02 -0.5726561266801E-01
 0.4111722609598E-02 -0.8091306060204E-01
 0.5745107751350E-02 -0.1078192928798E+00
 0.9487783124891E-02 -0.1375861017513E+00
 0.1503724952704E-01 -0.1698796889537E+00
 0.2214557751753E-01 -0.2044237196682E+00
 0.3062414542571E-01 -0.2409943386545E+00
 0.4034778481198E-01 -0.2794175801494E+00
 0.5124846338776E-01 -0.3195683461526E+00
 0.6329354598968E-01 -0.3613658531341E+00
 0.7644942064316E-01 -0.4047708169064E+00
 0.9067919324350E-01 -0.4497809096235E+00
 0.1059631492010E+00 -0.4964184426807E+00
 0.1223101635372E+00 -0.5447170682544E+00
 0.1397691389927E+00 -0.5947049164464E+00
 0.1584317181111E+00 -0.6463835029972E+00
 0.1784233970438E+00 -0.6997025699142E+00
 0.1877128351509E-01 -0.2182365265602E-01
 0.1376879552621E-01 -0.3745607727753E-01
 0.1194375442919E-01 -0.5748737108468E-01
 0.1279582417428E-01 -0.8133631888012E-01
 0.1592767267014E-01 -0.1085159524374E+00
 0.2101248668951E-01 -0.1386187324300E+00
 0.2777769366034E-01 -0.1713062611589E+00
 0.3600096098214E-01 -0.2063006262525E+00
 0.4551444569075E-01 -0.2433784030538E+00
 0.5620903348272E-01 -0.2823670655084E+00
 0.6802869314380E-01 -0.3231429660592E+00
 0.8094980181263E-01 -0.3656266096056E+00
 0.9494957688947E-01 -0.4097786851181E+00
 0.1100025437682E+00 -0.4555945491212E+00
 0.1260965327913E+00 -0.5030923713852E+00
 0.1432429250538E+00 -0.5522997661695E+00
 0.1614851980638E+00 -0.6032368992495E+00
 0.1808990005000E+00 -0.6558966535785E+00
 0.2015814973842E+00 -0.7102224317391E+00
 0.2170764826018E-01 -0.2195817110730E-01
 0.1893467775669E-01 -0.3758382843834E-01
 0.1905091553243E-01 -0.5771332064104E-01
 0.2160776780258E-01 -0.8173899450321E-01
 0.2625027700871E-01 -0.1091580371465E+00
 0.3268776912885E-01 -0.1395540946641E+00
 0.4067882733645E-01 -0.1725843817318E+00
 0.5002745875364E-01 -0.2079694009682E+00
 0.6058712087131E-01 -0.2454859190460E+00
 0.7226508378864E-01 -0.2849623790804E+00
 0.8501748288774E-01 -0.3262758760545E+00
 0.9882992884431E-01 -0.3693470231690E+00
 0.1136897552166E+00 -0.4141350009708E+00
 0.1295814683413E+00 -0.4606312943159E+00
 0.1464990342670E+00 -0.5088482602733E+00
 0.1644546480659E+00 -0.5588059895308E+00
 0.1834847268812E+00 -0.6105157533062E+00
 0.2036478538511E+00 -0.6639611369459E+00
 0.2250129472233E+00 -0.7190772783353E+00
 0.2469004899109E-01 -0.2211352435115E-01
 0.2417668694346E-01 -0.3772935727384E-01
 0.2625325548665E-01 -0.5794073178799E-01
 0.3052740448914E-01 -0.8211595830691E-01
 0.3668963528450E-01 -0.1097377407623E+00
 0.4448731528419E-01 -0.1403815699889E+00
 0.5371128290154E-01 -0.1737004962440E+00
 0.6419252959590E-01 -0.2094133505224E+00
 0.7580622691281E-01 -0.2472967216265E+00
 0.8847624323835E-01 -0.2871793938525E+00
 0.1021709062062E+00 -0.3289383322751E+00
 0.1168850172874E+00 -0.3724930099316E+00
 0.1326152039969E+00 -0.4177996347574E+00
 0.1493545601845E+00 -0.4648443695177E+00
 0.1671018381696E+00 -0.5136323283317E+00
 0.1858685949023E+00 -0.5641748405050E+00
 0.2056828682133E+00 -0.6164733584081E+00
 0.2265852234727E+00 -0.6705013405400E+00
 0.2486158693832E+00 -0.7261841851527E+00
 0.2771083456534E-01 -0.2228979092094E-01
 0.2948149494914E-01 -0.3789197842710E-01
 0.3353309718818E-01 -0.5816734376914E-01
 0.3953350035850E-01 -0.8246290866603E-01
 0.4722134230389E-01 -0.1102484824176E+00
 0.5638367276165E-01 -0.1410921799550E+00
 0.6684451979072E-01 -0.1746431288474E+00
 0.7846237905046E-01 -0.2106183417176E+00
 0.9113442569869E-01 -0.2487937560471E+00
 0.1048012139093E+00 -0.2889977488090E+00
 0.1194431514274E+00 -0.3311061757461E+00
 0.1350639815604E+00 -0.3750361058570E+00
 0.1516687424750E+00 -0.4207393783920E+00
 0.1692578006971E+00 -0.4681954971156E+00
 0.1878334455195E+00 -0.5174010681826E+00
 0.2074053486644E+00 -0.5683575486892E+00
 0.2279920850977E+00 -0.6210556664460E+00
 0.2496153874624E+00 -0.6754579411173E+00
 0.2722861320182E+00 -0.7314790317308E+00
 0.3076189653701E-01 -0.2248710355413E-01
 0.3483507368892E-01 -0.3807120453422E-01
 0.4087193302478E-01 -0.5839136708668E-01
 0.4860392882214E-01 -0.8277637567122E-01
 0.5782008106242E-01 -0.1106849249288E+00
 0.6834847359381E-01 -0.1416786353053E+00
 0.8004706574479E-01 -0.1754029745221E+00
 0.9280223079735E-01 -0.2115729484680E+00
 0.1065333015565E+00 -0.2499632940229E+00
 0.1211974761936E+00 -0.2904011506953E+00
 0.1367870028465E+00 -0.3327602281713E+00
 0.1533141624489E+00 -0.3769539520964E+00
 0.1707914950520E+00 -0.4229284859501E+00
 0.1892254176013E+00 -0.4706554464070E+00
 0.2086206200027E+00 -0.5201217863315E+00
 0.2289838240545E+00 -0.5713180682851E+00
 0.2503232679866E+00 -0.6242234303702E+00
 0.2726412167264E+00 -0.6787887108916E+00
 0.2959186637637E+00 -0.7349171267218E+00
 0.3383474667535E-01 -0.2270563556504E-01
 0.4022282215050E-01 -0.3826673685555E-01
 0.4825058562897E-01 -0.5861147888962E-01
 0.5771585291901E-01 -0.8305372216764E-01
 0.6845981782660E-01 -0.1110429885148E+00
 0.8035263966319E-01 -0.1421353727380E+00
 0.9328673710191E-01 -0.1759729693889E+00
 0.1071765721681E+00 -0.2122685654415E+00
 0.1219636471085E+00 -0.2507951007457E+00
 0.1376216351907E+00 -0.2913776024300E+00
 0.1541542718864E+00 -0.3338865816669E+00
 0.1715818577557E+00 -0.3782306336501E+00
 0.1899235252167E+00 -0.4243490383625E+00
 0.2091906156071E+00 -0.4722044014463E+00
 0.2293891996079E+00 -0.5217729777688E+00
 0.2505221545523E+00 -0.5730334905805E+00
 0.2725867110394E+00 -0.6259526776348E+00
 0.2955652452264E+00 -0.6804690323289E+00
 0.3194085292280E+00 -0.7364738645949E+00
 0.3692060121300E-01 -0.2294558653908E-01
 0.4562970325324E-01 -0.3847845252170E-01
 0.5564938115595E-01 -0.5882681503105E-01
 0.6684592507617E-01 -0.8329314244792E-01
 0.7911402226324E-01 -0.1113198605922E+00
 0.9236662239165E-01 -0.1424585828883E+00
 0.1065309032248E+00 -0.1763483446965E+00
 0.1215494539876E+00 -0.2126994953848E+00
 0.1373858135121E+00 -0.2512825615233E+00
 0.1540298397944E+00 -0.2919195715886E+00
 0.1714963045093E+00 -0.3344768040075E+00
 0.1898129287314E+00 -0.3788569092679E+00
 0.2090045436634E+00 -0.4249911826020E+00
 0.2290863844428E+00 -0.4728321991343E+00
 0.2500649991981E+00 -0.5223445665957E+00
 0.2719386886552E+00 -0.5734943015469E+00
 0.2946932064782E+00 -0.6262349938626E+00
 0.3182908605739E+00 -0.6804922164772E+00
 0.3426521948066E+00 -0.7361451243769E+00
 0.4001046434602E-01 -0.2320716842876E-01
 0.5104037759001E-01 -0.3870639005992E-01
 0.6304831643917E-01 -0.5903695848131E-01
 0.7597047852672E-01 -0.8349365527083E-01
 0.8975587850037E-01 -0.1115139962261E+00
 0.1043606337088E+00 -0.1426462226266E+00
 0.1197467428990E+00 -0.1765266559183E+00
 0.1358847827653E+00 -0.2128629991436E+00
 0.1527600524087E+00 -0.2514227547664E+00
 0.1703781905722E+00 -0.2920240844824E+00
 0.1887644708648E+00 -0.3345280460584E+00
 0.2079533801839E+00 -0.3788303206111E+00
 0.2279745822489E+00 -0.4248532311082E+00
 0.2488462681755E+00 -0.4725384117574E+00
 0.2705746745327E+00 -0.5218379724477E+00
 0.2931529489577E+00 -0.5727044380432E+00
 0.3165550992022E+00 -0.6250775735373E+00
 0.3407234511299E+00 -0.6788695434863E+00
 0.3655487145533E+00 -0.7339472463363E+00
 0.4309521378635E-01 -0.2349059321208E-01
 0.5643933985540E-01 -0.3895073466730E-01
 0.7042722865784E-01 -0.5924192491662E-01
 0.8506572112009E-01 -0.8365509097399E-01
 0.1003584991043E+00 -0.1116251083181E+00
 0.1163048809547E+00 -0.1426980106591E+00
 0.1329015056231E+00 -0.1765077861237E+00
 0.1501466180142E+00 -0.2127593079614E+00
 0.1680468618344E+00 -0.2512164719274E+00
 0.1866231482661E+00 -0.2916927487605E+00
 0.2059106495875E+00 -0.3340430576406E+00
 0.2259499283960E+00 -0.3781551899225E+00
 0.2467746499352E+00 -0.4239416308406E+00
 0.2684051127783E+00 -0.4713322802593E+00
 0.2908465632840E+00 -0.5202660056332E+00
 0.3140865674181E+00 -0.5706811456158E+00
 0.3380873141224E+00 -0.6225030387670E+00
 0.3627715072159E+00 -0.6756300227109E+00
 0.3880008356747E+00 -0.7299166978878E+00
 0.4616568673983E-01 -0.2379606249384E-01
 0.6181105576431E-01 -0.3921180381732E-01
 0.7776596520862E-01 -0.5944214572561E-01
 0.9410792908010E-01 -0.8377807224966E-01
 0.1108951391326E+00 -0.1116541465143E+00
 0.1281698022331E+00 -0.1426154051184E+00
 0.1459627734940E+00 -0.1762939223271E+00
 0.1642994694631E+00 -0.2123915971177E+00
 0.1832073299209E+00 -0.2506681843935E+00
 0.2027219361295E+00 -0.2909317061750E+00
 0.2228877001106E+00 -0.3330301153788E+00
 0.2437505508591E+00 -0.3768425108897E+00
 0.2653473652415E+00 -0.4222708061143E+00
 0.2876997862753E+00 -0.4692325003178E+00
 0.3108114962280E+00 -0.5176525909110E+00
 0.3346641886746E+00 -0.5674546364362E+00
 0.3592083456209E+00 -0.6185490251865E+00
 0.3843476709312E+00 -0.6708198950888E+00
 0.4099160420390E+00 -0.7241094906454E+00
 0.4921276246645E-01 -0.2412375888091E-01
 0.6714009381117E-01 -0.3949003329241E-01
 0.8504454734989E-01 -0.5963844849699E-01
 0.1030736340815E+00 -0.8386398842842E-01
 0.1213394036875E+00 -0.1116032644760E+00
 0.1399262958262E+00 -0.1424015627672E+00
 0.1588987176006E+00 -0.1758895046704E+00
 0.1783085885461E+00 -0.2117659213201E+00
 0.1982034714941E+00 -0.2497859586947E+00
 0.2186329323609E+00 -0.2897515181234E+00
 0.2396499209754E+00 -0.3315028662405E+00
 0.2613050177564E+00 -0.3749097367564E+00
 0.2836375669155E+00 -0.4198628784736E+00
 0.3066698745726E+00 -0.4662668626626E+00
 0.3304035827807E+00 -0.5140323191441E+00
 0.3548143467056E+00 -0.5630675450415E+00
 0.3798412184933E+00 -0.6132675361413E+00
 0.4053697567505E+00 -0.6645018864450E+00
 0.4312075811683E+00 -0.7166003577130E+00
 0.5222744722831E-01 -0.2447383975266E-01
 0.7241126068340E-01 -0.3978596408470E-01
 0.9224333794979E-01 -0.5983203514342E-01
 0.1119398140821E+00 -0.8391496304890E-01
 0.1316654582084E+00 -0.1114757749692E+00
 0.1515459505733E+00 -0.1420612791548E+00
 0.1716783525633E+00 -0.1753011479881E+00
 0.1921402538166E+00 -0.2108911120075E+00
 0.2129985527079E+00 -0.2485813212171E+00
 0.2343160429213E+00 -0.2881669865112E+00
 0.2561534793393E+00 -0.3294800906880E+00
 0.2785653848295E+00 -0.3723804707068E+00
 0.3015928762074E+00 -0.4167472693526E+00
 0.3252583194531E+00 -0.4624717538767E+00
 0.3495609300012E+00 -0.5094498338274E+00
 0.3744702673026E+00 -0.5575741910935E+00
 0.3999143694052E+00 -0.6067240781723E+00
 0.4257616944214E+00 -0.6567542263765E+00
 0.4517954325113E+00 -0.7074816961600E+00
 0.5520095302720E-01 -0.2484643280950E-01
 0.7760972684323E-01 -0.4010022986076E-01
 0.9934319683216E-01 -0.6002445771409E-01
 0.1206840697562E+00 -0.8393381513468E-01
 0.1418482226561E+00 -0.1112760936435E+00
 0.1630012583857E+00 -0.1416009112254E+00
 0.1842717709972E+00 -0.1745375381386E+00
 0.2057620332128E+00 -0.2097786401295E+00
 0.2275573883026E+00 -0.2470690774481E+00
 0.2497330414768E+00 -0.2861969165842E+00
 0.2723568009796E+00 -0.3269853936418E+00
 0.2954864396256E+00 -0.3692840680161E+00
 0.3191642054056E+00 -0.4129601959597E+00
 0.3434119960500E+00 -0.4578915287316E+00
 0.3682262953398E+00 -0.5039590639601E+00
 0.3935706008842E+00 -0.5510396606486E+00
 0.4193624604132E+00 -0.5989965874807E+00
 0.4454544162197E+00 -0.6476694350900E+00
 0.4716072515405E+00 -0.6968622624822E+00
 0.5812477356310E-01 -0.2524163365414E-01
 0.8272114786403E-01 -0.4043354529469E-01
 0.1063256308282E+00 -0.6021759227678E-01
 0.1292847944976E+00 -0.8392401468626E-01
 0.1518635577868E+00 -0.1110096722316E+00
 0.1742658167575E+00 -0.1410282835091E+00
 0.1966503649628E+00 -0.1736093048829E+00
 0.2191430290870E+00 -0.2084424471286E+00
 0.2418466159869E+00 -0.2452670897085E+00
 0.2648478793300E+00 -0.2838638271260E+00
 0.2882209217786E+00 -0.3240468301907E+00
 0.3120260998116E+00 -0.3656551584516E+00
 0.3363062085104E+00 -0.4085440704147E+00
 0.3610822224380E+00 -0.4525777656034E+00
 0.3863476623615E+00 -0.4976223161613E+00
 0.4120600719159E+00 -0.5435387191645E+00
 0.4381271091727E+00 -0.5901741578348E+00
 0.4643866732408E+00 -0.6373528807576E+00
 0.4905792759930E+00 -0.6848656088219E+00
 0.6099075568156E-01 -0.2565950529233E-01
 0.8773177876870E-01 -0.4078669531437E-01
 0.1131729350839E+00 -0.6041361121462E-01
 0.1377213340065E+00 -0.8388963311404E-01
 0.1616884390229E+00 -0.1106829223914E+00
 0.1853145162638E+00 -0.1403525797890E+00
 0.2087870288670E+00 -0.1725288741092E+00
 0.2322540999509E+00 -0.2068987480939E+00
 0.2558349414000E+00 -0.2431960187849E+00
 0.2796269583027E+00 -0.2811936151192E+00
 0.3037097930915E+00 -0.3206964750131E+00
 0.3281457551598E+00 -0.3615330999156E+00
 0.3529776645139E+00 -0.4035468153012E+00
 0.3782251903412E+00 -0.4465884203563E+00
 0.4038787267225E+00 -0.4905092432903E+00
 0.4298900303443E+00 -0.5351545740378E+00
 0.4561575194378E+00 -0.5803555844360E+00
 0.4825057636753E+00 -0.6259211119804E+00
 0.5086571775160E+00 -0.6716282501720E+00
 0.6379116546773E-01 -0.2610007946301E-01
 0.9262858006934E-01 -0.4116052537476E-01
 0.1198683240353E+00 -0.6061495440495E-01
 0.1459741336223E+00 -0.8383528955240E-01
 0.1713011158018E+00 -0.1103031317303E+00
 0.1961237105836E+00 -0.1395842225538E+00
 0.2206563409601E+00 -0.1713103027045E+00
 0.2450680556592E+00 -0.2051658116430E+00
 0.2694933499396E+00 -0.2408790355506E+00
 0.2940393623759E+00 -0.2782151827762E+00
 0.3187905362092E+00 -0.3169699455128E+00
 0.3438105475647E+00 -0.3569613757294E+00
 0.3691417864147E+00 -0.3980211107344E+00
 0.3948023084044E+00 -0.4399868966685E+00
 0.4207792815518E+00 -0.4826957101814E+00
 0.4470188911240E+00 -0.5259775086487E+00
 0.4734109933433E+00 -0.5696477443430E+00
 0.4997681483693E+00 -0.6134999752329E+00
 0.5257968302310E+00 -0.6572975450015E+00
 0.6651874873392E-01 -0.2656335977354E-01
 0.9739931520951E-01 -0.4155593295121E-01
 0.1263960517975E+00 -0.6082429986323E-01
 0.1540248731833E+00 -0.8376609414673E-01
 0.1806812561484E+00 -0.1098783737360E+00
 0.2066713686866E+00 -0.1387347427522E+00
 0.2322347229082E+00 -0.1699690995852E+00
 0.2575598253195E+00 -0.2032637212845E+00
 0.2827952845153E+00 -0.2383415088550E+00
 0.3080570468657E+00 -0.2749600350576E+00
 0.3334336443037E+00 -0.3129058889753E+00
 0.3589895868350E+00 -0.3519869484566E+00
 0.3847664526791E+00 -0.3920235888815E+00
 0.4107804531227E+00 -0.4328410521458E+00
 0.4370154948327E+00 -0.4742625792388E+00
 0.4634124504144E+00 -0.5161034132699E+00
 0.4898533078665E+00 -0.5581638387337E+00
 0.5161399229940E+00 -0.6002225378999E+00
 0.5419649414020E+00 -0.6420292627838E+00
 0.6916678509597E-01 -0.2704932653575E-01
 0.1020326381685E+00 -0.4197386040809E-01
 0.1327415204508E+00 -0.6104453447550E-01
 0.1618565876778E+00 -0.8368758954706E-01
 0.1898100745289E+00 -0.1094174135896E+00
 0.2169372070268E+00 -0.1378166427249E+00
 0.2435005750710E+00 -0.1685220368641E+00
 0.2697065953585E+00 -0.2012141235900E+00
 0.2957167864766E+00 -0.2356106766551E+00
 0.3216549821963E+00 -0.2714618566455E+00
 0.3476131286638E+00 -0.3085454451166E+00
 0.3736560986270E+00 -0.3466595845450E+00
 0.3998243567201E+00 -0.3856139937194E+00
 0.4261321216150E+00 -0.4252221621578E+00
 0.4525600704578E+00 -0.4652944424561E+00
 0.4790440658030E+00 -0.5056322438444E+00
 0.5054589349054E+00 -0.5460215315355E+00
 0.5315971149444E+00 -0.5862268554014E+00
 0.5571394798395E+00 -0.6259849257457E+00
 0.7172913499025E-01 -0.2755794318054E-01
 0.1065181702450E+00 -0.4241528940142E-01
 0.1388913750427E+00 -0.6127872549050E-01
 0.1694537723612E+00 -0.8360569194718E-01
 0.1986704415232E+00 -0.1089296120010E+00
 0.2269028001569E+00 -0.1368432554058E+00
 0.2544343857996E+00 -0.1669869553886E+00
 0.2814879160014E+00 -0.1990399687958E+00
 0.3082365979507E+00 -0.2327153076993E+00
 0.3348112505098E+00 -0.2677560777336E+00
 0.3613066074510E+00 -0.3039316958802E+00
 0.3877875026153E+00 -0.3410311646927E+00
 0.4142930720924E+00 -0.3788543247116E+00
 0.4408354829791E+00 -0.4172038647885E+00
 0.4673922876008E+00 -0.4558783290625E+00
 0.4938946908068E+00 -0.4946664446106E+00
 0.5202110878762E+00 -0.5333410275648E+00
 0.5461257748481E+00 -0.5716536332066E+00
 0.5713098761700E+00 -0.6093289872049E+00
 0.7420027970019E-01 -0.2808916421652E-01
 0.1108465662570E+00 -0.4288123705445E-01
 0.1448335857454E+00 -0.6153009350885E-01
 0.1768024729583E+00 -0.8352663304429E-01
 0.2072469760846E+00 -0.1084248291904E+00
 0.2365516706602E+00 -0.1358286027897E+00
 0.2650188157930E+00 -0.1653825686893E+00
 0.2928857773738E+00 -0.1967652491435E+00
 0.3203362270157E+00 -0.2296853606284E+00
 0.3475070967905E+00 -0.2638794374178E+00
 0.3744953389192E+00 -0.2991091136230E+00
 0.4013654230469E+00 -0.3351549939958E+00
 0.4281550355784E+00 -0.3718079821602E+00
 0.4548743300512E+00 -0.4088611095263E+00
 0.4814979188671E+00 -0.4461024180247E+00
 0.5079527607157E+00 -0.4833093728344E+00
 0.5341015842744E+00 -0.5202431396340E+00
 0.5597218416604E+00 -0.5566438440396E+00
 0.5844769474736E+00 -0.5922258797077E+00
 0.7657535407598E-01 -0.2864294462973E-01
 0.1150095697382E+00 -0.4337275409060E-01
 0.1505575167240E+00 -0.6180198769218E-01
 0.1838903605069E+00 -0.8345690433426E-01
 0.2155261199517E+00 -0.1079133312339E+00
 0.2458693580108E+00 -0.1347872568023E+00
 0.2752387572268E+00 -0.1637282695412E+00
 0.3038846551357E+00 -0.1944147404473E+00
 0.3319999759045E+00 -0.2265516475665E+00
 0.3597269350778E+00 -0.2598695537016E+00
 0.3871642001328E+00 -0.2941230190851E+00
 0.4143756332118E+00 -0.3290851261925E+00
 0.4413974502109E+00 -0.3645389322354E+00
 0.4682379340269E+00 -0.4002691326783E+00
 0.4948690295822E+00 -0.4360547856133E+00
 0.5212139303723E+00 -0.4716637666176E+00
 0.5471305194563E+00 -0.5068474012679E+00
 0.5723907615284E+00 -0.5413363714135E+00
 0.5966524939986E+00 -0.5748370160507E+00
 0.7885017118369E-01 -0.2921925047506E-01
 0.1190000559868E+00 -0.4389092496393E-01
 0.1560539803463E+00 -0.6209786382143E-01
 0.1907067893366E+00 -0.8340320514674E-01
 0.2234961926501E+00 -0.1074057010600E+00
 0.2548434648408E+00 -0.1337342058261E+00
 0.2850813663223E+00 -0.1620439434903E+00
 0.3144715246624E+00 -0.1920137525325E+00
 0.3432149317749E+00 -0.2233455094168E+00
 0.3714583099770E+00 -0.2557645092597E+00
 0.3993016122183E+00 -0.2890190606115E+00
 0.4268079358179E+00 -0.3228757162420E+00
 0.4540121113615E+00 -0.3571109093295E+00
 0.4809208065071E+00 -0.3915024817505E+00
 0.5075036643321E+00 -0.4258222171801E+00
 0.5336806709642E+00 -0.4598302961280E+00
 0.5593057565373E+00 -0.4932702831675E+00
 0.5841468537028E+00 -0.5258657666444E+00
 0.6078585311504E+00 -0.5573178698330E+00
 0.8102124215381E-01 -0.2981807127578E-01
 0.1228120684385E+00 -0.4443687076793E-01
 0.1613152838330E+00 -0.6242126628388E-01
 0.1972428463758E+00 -0.8337239584942E-01
 0.2311474359255E+00 -0.1069127559037E+00
 0.2634636897920E+00 -0.1326847291149E+00
 0.2945360786663E+00 -0.1603497921017E+00
 0.3246358531309E+00 -0.1895878920538E+00
 0.3539709294096E+00 -0.2200985074816E+00
 0.3826918228278E+00 -0.2516024591634E+00
 0.4108994215142E+00 -0.2838427229413E+00
 0.4386559886722E+00 -0.3165804121657E+00
 0.4659951655675E+00 -0.3495866698467E+00
 0.4929223795225E+00 -0.3826341071953E+00
 0.5194054330506E+00 -0.4154891082051E+00
 0.5453617405393E+00 -0.4479062345709E+00
 0.5706422488959E+00 -0.4796235702228E+00
 0.5950124375766E+00 -0.5103602163423E+00
 0.6181261541669E+00 -0.5398153146948E+00
 0.8308578530992E-01 -0.3043943283892E-01
 0.1264408391724E+00 -0.4501175390481E-01
 0.1663352571102E+00 -0.6277581391600E-01
 0.2034913794871E+00 -0.8337145741196E-01
 0.2384720350752E+00 -0.1064454737392E+00
 0.2717218349478E+00 -0.1316542828616E+00
 0.3035945965509E+00 -0.1586661708293E+00
 0.3343695607461E+00 -0.1871628436568E+00
 0.3642604796743E+00 -0.2168421384787E+00
 0.3934210194500E+00 -0.2474212688806E+00
 0.4219527370069E+00 -0.2786388752452E+00
 0.4499170797647E+00 -0.3102517970851E+00
 0.4773468103390E+00 -0.3420273092327E+00
 0.5042466169424E+00 -0.3737345340149E+00
 0.5305830168584E+00 -0.4051364687503E+00
 0.5562715573352E+00 -0.4359842681602E+00
 0.5811612356898E+00 -0.4660129317566E+00
 0.6050167756893E+00 -0.4949397861740E+00
 0.6274941102060E+00 -0.5224653757126E+00
 0.8504173017781E-01 -0.3108341137642E-01
 0.1298828024539E+00 -0.4561678544566E-01
 0.1711092727674E+00 -0.6316519084776E-01
 0.2094470165055E+00 -0.8340745882421E-01
 0.2454641286221E+00 -0.1060149305942E+00
 0.2796117983325E+00 -0.1306584002857E+00
 0.3122508574033E+00 -0.1570134444770E+00
 0.3436669585425E+00 -0.1847641733865E+00
 0.3740786694625E+00 -0.2136075783623E+00
 0.4036422434770E+00 -0.2432581903462E+00
 0.4324597262927E+00 -0.2734513696680E+00
 0.4605918520542E+00 -0.3039408970467E+00
 0.4880709334449E+00 -0.3344916624343E+00
 0.5149015552110E+00 -0.3648711381107E+00
 0.5410495936744E+00 -0.3948410622666E+00
 0.5664294820663E+00 -0.4241514864429E+00
 0.5908893284351E+00 -0.4525367457349E+00
 0.6141948727559E+00 -0.4797150371327E+00
 0.6360071614418E+00 -0.5053915518695E+00
 0.8688771417717E-01 -0.3175014827537E-01
 0.1331355985444E+00 -0.4625323460238E-01
 0.1756342553382E+00 -0.6359314249008E-01
 0.2151061725003E+00 -0.8348753350359E-01
 0.2521198043937E+00 -0.1056322507713E+00
 0.2871295504366E+00 -0.1297126083614E+00
 0.3205009836393E+00 -0.1554118631824E+00
 0.3525246650263E+00 -0.1824171573844E+00
 0.3834230379219E+00 -0.2104254580807E+00
 0.4133544631518E+00 -0.2391495796110E+00
 0.4424213813367E+00 -0.2683226949515E+00
 0.4706839923543E+00 -0.2976967606824E+00
 0.4981747088987E+00 -0.3270357944750E+00
 0.5248987944393E+00 -0.3561075322951E+00
 0.5508222117564E+00 -0.3846746798636E+00
 0.5758590499730E+00 -0.4124885521843E+00
 0.5998575494338E+00 -0.4392851801822E+00
 0.6225862227312E+00 -0.4647860285114E+00
 0.6437143804367E+00 -0.4887037297830E+00
 0.8862307177959E-01 -0.3243986487435E-01
 0.1361980682213E+00 -0.4692243958902E-01
 0.1799086810393E+00 -0.6406347666481E-01
 0.2204670467441E+00 -0.8361886577632E-01
 0.2584370835844E+00 -0.1053085719063E+00
 0.2942730964681E+00 -0.1288323635372E+00
 0.3283432160345E+00 -0.1538814613877E+00
 0.3609415045471E+00 -0.1801466383055E+00
 0.3922934331819E+00 -0.2073256735541E+00
 0.4225590777825E+00 -0.2351306585051E+00
 0.4518412627078E+00 -0.2632936888567E+00
 0.4801998949336E+00 -0.2915661174243E+00
 0.5076681608403E+00 -0.3197125906882E+00
 0.5342529515083E+00 -0.3475030707890E+00
 0.5599211268854E+00 -0.3747035520981E+00
 0.5845871809831E+00 -0.4010690444134E+00
 0.6081003720537E+00 -0.4263395257930E+00
 0.6302335837252E+00 -0.4502417043842E+00
 0.6506674958949E+00 -0.4724976718852E+00
 0.9024781821284E-01 -0.3315287710015E-01
 0.1390702430312E+00 -0.4762581934156E-01
 0.1839325756171E+00 -0.6458007020931E-01
 0.2255296187142E+00 -0.8380868887048E-01
 0.2644159030160E+00 -0.1050550267093E+00
 0.3010424352490E+00 -0.1280330077337E+00
 0.3357778423994E+00 -0.1524419801423E+00
 0.3689184002528E+00 -0.1779769086942E+00
 0.4006918637572E+00 -0.2043372276941E+00
 0.4312597201255E+00 -0.2312353161575E+00
 0.4607252416642E+00 -0.2584033045114E+00
 0.4891483219757E+00 -0.2855931116335E+00
 0.5165637171858E+00 -0.3125714493877E+00
 0.5429810937469E+00 -0.3391124753924E+00
 0.5683691204971E+00 -0.3649878900464E+00
 0.5926433953278E+00 -0.3899589425122E+00
 0.6156548182173E+00 -0.4137717300672E+00
 0.6371818644346E+00 -0.4361596280005E+00
 0.6569193914769E+00 -0.4568550193469E+00
 0.9176262379546E-01 -0.3388960703070E-01
 0.1417533262209E+00 -0.4836488246553E-01
 0.1877075034412E+00 -0.6514687980498E-01
 0.2302956325266E+00 -0.8406429701623E-01
 0.2700580800173E+00 -0.1048827464568E+00
 0.3074394943130E+00 -0.1273297514546E+00
 0.3428070969335E+00 -0.1511128215832E+00
 0.3764582332900E+00 -0.1759316335393E+00
 0.4086223129199E+00 -0.2014881204064E+00
 0.4394620206236E+00 -0.2274959695577E+00
 0.4690812068270E+00 -0.2536884525528E+00
 0.4975400301815E+00 -0.2798191445097E+00
 0.5248757223696E+00 -0.3056581266965E+00
 0.5511021138511E+00 -0.3309856563938E+00
 0.5761907477896E+00 -0.3555816261295E+00
 0.6000589867756E+00 -0.3792162937104E+00
 0.6225595980505E+00 -0.4016441348643E+00
 0.6434771722138E+00 -0.4226060772550E+00
 0.6625228051380E+00 -0.4418439657158E+00
 0.9316877650607E-01 -0.3465058708597E-01
 0.1442496684164E+00 -0.4914122654561E-01
 0.1912365593146E+00 -0.6576795527426E-01
 0.2347685867373E+00 -0.8439307300808E-01
 0.2753672818669E+00 -0.1048028872726E+00
 0.3134680699878E+00 -0.1267376791800E+00
 0.3494350681313E+00 -0.1499130253256E+00
 0.3835657157214E+00 -0.1740337960675E+00
 0.4160905724499E+00 -0.1988052641166E+00
 0.4471733987484E+00 -0.2239434493612E+00
 0.4769188112420E+00 -0.2491838685554E+00
 0.5053874573635E+00 -0.2742827504307E+00
 0.5326200174207E+00 -0.2990146660784E+00
 0.5586361536714E+00 -0.3231676689568E+00
 0.5834115948612E+00 -0.3465323008811E+00
 0.6068662134067E+00 -0.3688909033836E+00
 0.6288543857085E+00 -0.3900091369619E+00
 0.6491662002852E+00 -0.4096361193216E+00
 0.6675295582893E+00 -0.4275203276864E+00
 0.9446813011758E-01 -0.3543644357551E-01
 0.1465627422861E+00 -0.4995651652587E-01
 0.1945243690709E+00 -0.6644745126547E-01
 0.2389537264331E+00 -0.8480254451093E-01
 0.2803489824323E+00 -0.1048266896932E+00
 0.3191337435327E+00 -0.1262717882818E+00
 0.3556675762430E+00 -0.1488612786706E+00
 0.3902472279197E+00 -0.1723056890426E+00
 0.4231040336856E+00 -0.1963144589892E+00
 0.4544028050507E+00 -0.2206069572559E+00
 0.4842491728356E+00 -0.2449220580016E+00
 0.5127043760957E+00 -0.2690195621501E+00
 0.5398135221324E+00 -0.2926794550744E+00
 0.5656040056191E+00 -0.3156989944767E+00
 0.5900574221265E+00 -0.3378813355946E+00
 0.6130972834430E+00 -0.3590243423151E+00
 0.6345790187652E+00 -0.3789087428184E+00
 0.6542959042417E+00 -0.3972936011050E+00
 0.6719903849752E+00 -0.4139288151683E+00
 0.9566301610211E-01 -0.3624784088582E-01
 0.1486971209002E+00 -0.5081238652971E-01
 0.1975771203931E+00 -0.6718965174902E-01
 0.2428580555879E+00 -0.8530047498820E-01
 0.2850104261439E+00 -0.1049655865898E+00
 0.3244438045969E+00 -0.1259470409853E+00
 0.3615120739008E+00 -0.1479759385419E+00
 0.3965106918328E+00 -0.1707689202621E+00
 0.4296715234353E+00 -0.1940403898127E+00
 0.4611605133107E+00 -0.2175140435318E+00
 0.4910846355210E+00 -0.2409332429836E+00
 0.5195056406361E+00 -0.2640622360899E+00
 0.5464739582363E+00 -0.2866872136485E+00
 0.5720267959359E+00 -0.3086157803201E+00
 0.5961533923550E+00 -0.3296649694368E+00
 0.6187831372896E+00 -0.3496501202141E+00
 0.6397724587644E+00 -0.3683738307740E+00
 0.6589135799140E+00 -0.3856096459224E+00
 0.6759558506504E+00 -0.4011038658889E+00
 0.9675609977599E-01 -0.3708517351101E-01
 0.1506584981327E+00 -0.5171027515200E-01
 0.2004026713475E+00 -0.6799894007392E-01
 0.2464903802605E+00 -0.8589513023873E-01
 0.2893605546337E+00 -0.1052313355108E+00
 0.3294071474768E+00 -0.1257784443601E+00
 0.3669775172758E+00 -0.1472750749923E+00
 0.4023654132922E+00 -0.1694444667135E+00
 0.4358030969500E+00 -0.1920066978271E+00
 0.4674578501123E+00 -0.2146906908099E+00
 0.4974384486084E+00 -0.2372454268082E+00
 0.5258068460561E+00 -0.2594404648292E+00
 0.5526195513023E+00 -0.2810689976134E+00
 0.5779257109537E+00 -0.3019500733028E+00
 0.6017239136839E+00 -0.3219152391397E+00
 0.6239515250391E+00 -0.3407973178113E+00
 0.6444704271951E+00 -0.3584220029778E+00
 0.6630668108030E+00 -0.3745997956837E+00
 0.6794788767380E+00 -0.3890677440661E+00
 0.9774994857990E-01 -0.3794829034508E-01
 0.1524538672136E+00 -0.5265011186363E-01
 0.2030109275746E+00 -0.6888054220399E-01
 0.2498612276209E+00 -0.8659554600087E-01
 0.2934099088930E+00 -0.1056361738821E+00
 0.3340341489332E+00 -0.1257811232644E+00
 0.3720742340122E+00 -0.1467765304946E+00
 0.4078219529615E+00 -0.1683526960530E+00
 0.4415098766636E+00 -0.1902361130997E+00
 0.4733069477170E+00 -0.2121614612965E+00
 0.5033244695838E+00 -0.2338845018945E+00
 0.5316239976754E+00 -0.2551810340621E+00
 0.5582687425067E+00 -0.2758520480182E+00
 0.5833219956071E+00 -0.2957296573909E+00
 0.6067927061399E+00 -0.3146603114826E+00
 0.6286282953921E+00 -0.3324930225979E+00
 0.6486981270317E+00 -0.3490716945784E+00
 0.6667997672716E+00 -0.3642410802221E+00
 0.6826236793628E+00 -0.3778265934024E+00
-0.8122061350272E-01 -0.7851176664065E-01
-0.1384882894602E+00 -0.1393631247179E+00
-0.1796931078325E+00 -0.1782653191084E+00
-0.2105305048764E+00 -0.2004237494038E+00
-0.2323694641804E+00 -0.2114957559273E+00
-0.2461398705699E+00 -0.2153971813642E+00
-0.2524820515404E+00 -0.2145012665283E+00
-0.2517569969690E+00 -0.2104075911886E+00
-0.2441945666639E+00 -0.2043763586095E+00
-0.2299239429143E+00 -0.1975614626407E+00
-0.2090489134726E+00 -0.1912698110234E+00
-0.1818689933425E+00 -0.1860753019278E+00
-0.1490702501429E+00 -0.1854115885967E+00
-0.1125851688464E+00 -0.1932953198305E+00
-0.7379379344084E-01 -0.2100843777797E+00
-0.3298382999787E-01 -0.2360392730753E+00
 0.1057584597574E-01 -0.2715512197703E+00
 0.5751076267686E-01 -0.3184604773929E+00
 0.1081750892032E+00 -0.3805266688586E+00
-0.7437785955613E-01 -0.6453712248499E-01
-0.1357069596262E+00 -0.1192846483163E+00
-0.1784801251274E+00 -0.1616619384539E+00
-0.2096786496572E+00 -0.1885532484953E+00
-0.2317758205249E+00 -0.2039720616777E+00
-0.2458800009251E+00 -0.2117427642985E+00
-0.2527305435039E+00 -0.2143590106494E+00
-0.2527274657450E+00 -0.2135228679468E+00
-0.2461103769880E+00 -0.2105360311941E+00
-0.2330013497341E+00 -0.2065346330181E+00
-0.2134846628017E+00 -0.2027342867709E+00
-0.1878166896755E+00 -0.1996406913045E+00
-0.1565627379494E+00 -0.2004856844302E+00
-0.1214873298562E+00 -0.2093569684081E+00
-0.8402500031848E-01 -0.2269461832836E+00
-0.4464533133471E-01 -0.2537196897432E+00
-0.2793282080963E-02 -0.2901714471622E+00
 0.4204378445414E-01 -0.3381697206890E+00
 0.9019668831628E-01 -0.4012902383439E+00
-0.6769707784722E-01 -0.5511096958149E-01
-0.1302876149254E+00 -0.1037497554964E+00
-0.1750486291919E+00 -0.1457105773012E+00
-0.2071959947905E+00 -0.1759536931304E+00
-0.2298180340867E+00 -0.1953929674291E+00
-0.2443971484227E+00 -0.2070345056916E+00
-0.2518178181316E+00 -0.2132610339909E+00
-0.2525600483014E+00 -0.2158030276684E+00
-0.2469014724573E+00 -0.2159872093502E+00
-0.2349800561286E+00 -0.2149281769049E+00
-0.2168751496192E+00 -0.2137804358478E+00
-0.1928256438028E+00 -0.2130170328642E+00
-0.1632525862754E+00 -0.2157158826736E+00
-0.1297321580160E+00 -0.2259688309675E+00
-0.9372261643584E-01 -0.2447060207532E+00
-0.5583164780543E-01 -0.2725633484742E+00
-0.1565764909076E-01 -0.3101317592926E+00
 0.2724070859785E-01 -0.3592497014476E+00
 0.7317672949650E-01 -0.4233233353124E+00
-0.6153275536449E-01 -0.4831373829699E-01
-0.1236810732081E+00 -0.9158968093493E-01
-0.1696591270985E+00 -0.1317114275272E+00
-0.2029392047348E+00 -0.1635140496747E+00
-0.2263271725038E+00 -0.1862060459921E+00
-0.2415296425312E+00 -0.2014786752042E+00
-0.2496012565334E+00 -0.2112938859723E+00
-0.2511249341836E+00 -0.2172781485774E+00
-0.2464436734316E+00 -0.2207337517898E+00
-0.2357296614719E+00 -0.2227472206989E+00
-0.2190699087688E+00 -0.2244244119814E+00
-0.1967063691043E+00 -0.2262271952237E+00
-0.1689065118433E+00 -0.2310942911102E+00
-0.1370427988908E+00 -0.2430712437190E+00
-0.1025696086912E+00 -0.2632551770893E+00
-0.6618538713491E-01 -0.2924088750738E+00
-0.2761155706758E-01 -0.3311895100577E+00
 0.1354914164577E-01 -0.3813740220114E+00
 0.5768605598773E-01 -0.4460729945061E+00
-0.5591134104244E-01 -0.4319735969693E-01
-0.1165594941115E+00 -0.8195679915260E-01
-0.1628954723728E+00 -0.1197531320139E+00
-0.1970431920717E+00 -0.1519525046890E+00
-0.2212453039644E+00 -0.1769441244050E+00
-0.2371682749814E+00 -0.1953804834981E+00
-0.2459595520904E+00 -0.2086119220638E+00
-0.2483006489579E+00 -0.2180164486328E+00
-0.2446124602118E+00 -0.2247983130631E+00
-0.2351146569638E+00 -0.2299918792060E+00
-0.2199121582039E+00 -0.2346543245920E+00
-0.1992666384464E+00 -0.2392438827673E+00
-0.1732917245939E+00 -0.2465613742027E+00
-0.1431433041325E+00 -0.2605537091040E+00
-0.1102466281824E+00 -0.2824242805175E+00
-0.7534797456301E-01 -0.3130168818681E+00
-0.3826288817168E-01 -0.3530226469539E+00
 0.1394634929218E-02 -0.4040977863513E+00
 0.4411729779463E-01 -0.4689727047792E+00
-0.5076363639124E-01 -0.3923242771628E-01
-0.1092668366907E+00 -0.7422872178153E-01
-0.1552108344560E+00 -0.1096484048864E+00
-0.1897883320018E+00 -0.1415564793528E+00
-0.2146513844678E+00 -0.1680499387930E+00
-0.2312811558760E+00 -0.1890773453752E+00
-0.2408137457336E+00 -0.2054207148664E+00
-0.2439872930836E+00 -0.2181242550019E+00
-0.2412940212630E+00 -0.2282223162365E+00
-0.2330046797115E+00 -0.2366612618585E+00
-0.2192486105687E+00 -0.2444368132064E+00
-0.2003190048402E+00 -0.2520015838705E+00
-0.1761812709200E+00 -0.2620087358071E+00
-0.1477658974059E+00 -0.2782508384007E+00
-0.1164465794466E+00 -0.3019809841886E+00
-0.8298233106092E-01 -0.3340797484880E+00
-0.4725889450528E-01 -0.3752357239856E+00
-0.8889416169262E-02 -0.4269375540538E+00
 0.3270709596228E-01 -0.4915004423644E+00
-0.4600518796809E-01 -0.3609009729740E-01
-0.1019739106085E+00 -0.6795736440557E-01
-0.1469254287076E+00 -0.1011380136711E+00
-0.1814550542863E+00 -0.1323858098639E+00
-0.2067044793771E+00 -0.1597858606513E+00
-0.2239147443494E+00 -0.1828591802550E+00
-0.2341385479449E+00 -0.2019377913041E+00
-0.2381190725424E+00 -0.2177319659813E+00
-0.2363961013056E+00 -0.2310631667011E+00
-0.2292844463844E+00 -0.2427554387256E+00
-0.2169386588865E+00 -0.2537231441315E+00
-0.1996893241518E+00 -0.2644037409891E+00
-0.1773632746786E+00 -0.2772847735510E+00
-0.1506623723525E+00 -0.2959461842927E+00
-0.1208905596945E+00 -0.3216379142325E+00
-0.8879410997167E-01 -0.3552360012778E+00
-0.5431564402119E-01 -0.3973969318582E+00
-0.1707261795714E-01 -0.4494164617680E+00
 0.2356803210274E-01 -0.5132011020717E+00
-0.4155696433408E-01 -0.3355362607910E-01
-0.9476098506014E-01 -0.6281352789846E-01
-0.1382549890356E+00 -0.9396790515355E-01
-0.1722825673522E+00 -0.1243837433987E+00
-0.1975863460013E+00 -0.1522739764389E+00
-0.2151678956497E+00 -0.1769273457503E+00
-0.2259601205524E+00 -0.1983528932027E+00
-0.2306703451514E+00 -0.2169715034042E+00
-0.2298565325268E+00 -0.2333853568539E+00
-0.2238625441816E+00 -0.2482748335280E+00
-0.2128631352511E+00 -0.2624533593312E+00
-0.1972257514173E+00 -0.2763297029609E+00
-0.1766512285769E+00 -0.2922026568093E+00
-0.1516164862347E+00 -0.3133822083170E+00
-0.1233429044892E+00 -0.3410671067305E+00
-0.9254880722295E-01 -0.3760943096985E+00
-0.5922936604582E-01 -0.4190695470154E+00
-0.2302117931055E-01 -0.4710915469574E+00
 0.1672012149195E-01 -0.5336917435808E+00
-0.3735140561754E-01 -0.3147379802846E-01
-0.8765957000373E-01 -0.5855106100867E-01
-0.1293415994360E+00 -0.8791132496624E-01
-0.1624611183565E+00 -0.1174410442057E+00
-0.1874719334187E+00 -0.1455414995768E+00
-0.2051647709241E+00 -0.1713984194116E+00
-0.2163433878127E+00 -0.1948058624869E+00
-0.2216542634502E+00 -0.2159554832890E+00
-0.2216473901635E+00 -0.2352485532051E+00
-0.2166779327077E+00 -0.2532167289567E+00
-0.2069318385043E+00 -0.2705589081232E+00
-0.1928071122561E+00 -0.2876416578504E+00
-0.1738937108431E+00 -0.3065506062837E+00
-0.1504550347582E+00 -0.3302741109717E+00
-0.1236227467381E+00 -0.3599189099116E+00
-0.9408056676607E-01 -0.3962571121282E+00
-0.6187684504936E-01 -0.4398358556028E+00
-0.2668445540374E-01 -0.4915686520172E+00
 0.1211618179957E-01 -0.5526603246057E+00
-0.3333315144366E-01 -0.2974461889200E-01
-0.8067523221339E-01 -0.5498293776142E-01
-0.1202770015713E+00 -0.8277344475583E-01
-0.1521371117922E+00 -0.1114293404408E+00
-0.1765169749160E+00 -0.1395571890288E+00
-0.1940365390796E+00 -0.1663211429515E+00
-0.2053780133237E+00 -0.1913832829714E+00
-0.2111164648910E+00 -0.2147649767098E+00
-0.2117748514285E+00 -0.2366972657549E+00
-0.2077034151154E+00 -0.2575707234609E+00
-0.1990890026516E+00 -0.2779641238322E+00
-0.1863496500895E+00 -0.2981913939954E+00
-0.1689822581252E+00 -0.3201032870543E+00
-0.1470560679094E+00 -0.3463254168142E+00
-0.1216106991139E+00 -0.3778410617408E+00
-0.9329420749001E-01 -0.4153408249827E+00
-0.6220946595624E-01 -0.4593137391990E+00
-0.2808002466922E-01 -0.5105098156925E+00
 0.9661702060682E-02 -0.5698613173983E+00
-0.2945804167982E-01 -0.2828902720421E-01
-0.7380042615672E-01 -0.5196524270437E-01
-0.1111192550831E+00 -0.7838972022082E-01
-0.1414214705916E+00 -0.1062183229852E+00
-0.1648549508739E+00 -0.1342563992178E+00
-0.1819110808679E+00 -0.1616951392829E+00
-0.1931673250332E+00 -0.1881246026700E+00
-0.1991275026027E+00 -0.2134463170203E+00
-0.2002761569362E+00 -0.2377549932190E+00
-0.1969462384887E+00 -0.2613153231461E+00
-0.1893162690281E+00 -0.2845874705424E+00
-0.1778114597691E+00 -0.3078267341745E+00
-0.1618565835227E+00 -0.3326332270596E+00
-0.1413535791148E+00 -0.3612432083315E+00
-0.1172509646057E+00 -0.3944957992730E+00
-0.9016243840098E-01 -0.4329917108513E+00
-0.6024421388152E-01 -0.4771674905218E+00
-0.2727944669086E-01 -0.5276359057770E+00
 0.9230125445950E-02 -0.5851099029423E+00
-0.2569162589528E-01 -0.2705003343872E-01
-0.6702189884527E-01 -0.4938617956705E-01
-0.1019043865156E+00 -0.7462242088597E-01
-0.1303979332460E+00 -0.1016843009401E+00
-0.1525984444180E+00 -0.1295575243702E+00
-0.1689082539562E+00 -0.1574869621536E+00
-0.1798208731843E+00 -0.1850318806526E+00
-0.1857760881632E+00 -0.2120138579607E+00
-0.1872153374989E+00 -0.2384231504423E+00
-0.1844465404285E+00 -0.2644169350350E+00
-0.1776332347899E+00 -0.2903434084767E+00
-0.1671943389404E+00 -0.3163976618469E+00
-0.1525068252609E+00 -0.3439214014737E+00
-0.1333386773840E+00 -0.3747517314886E+00
-0.1105496720668E+00 -0.4095740512209E+00
-0.8472000333467E-01 -0.4488976203916E+00
-0.5605356341875E-01 -0.4931142664169E+00
-0.2439560648129E-01 -0.5427262097128E+00
 0.1067447022687E-01 -0.5982755323959E+00
-0.2200767149696E-01 -0.2598497133606E-01
-0.6032503880336E-01 -0.4715834744112E-01
-0.9265455446588E-01 -0.7135692044439E-01
-0.1191302629895E+00 -0.9771421183789E-01
-0.1398423240164E+00 -0.1253725393670E+00
-0.1551385570097E+00 -0.1536426586435E+00
-0.1654500603133E+00 -0.1820799488765E+00
-0.1711638881437E+00 -0.2104558466893E+00
-0.1726788482676E+00 -0.2386835641875E+00
-0.1702745247719E+00 -0.2668313472791E+00
-0.1640960373712E+00 -0.2951452272938E+00
-0.1545432296640E+00 -0.3237621268882E+00
-0.1409729568963E+00 -0.3537664535333E+00
-0.1230576314874E+00 -0.3866036901784E+00
-0.1015703248955E+00 -0.4228064592506E+00
-0.7705604022655E-01 -0.4627961250125E+00
-0.4975540762927E-01 -0.5069272949570E+00
-0.1957200541622E-01 -0.5556160352879E+00
 0.1383597964173E-01 -0.6092752554543E+00
-0.1838680411893E-01 -0.2506161058742E-01
-0.5369639134667E-01 -0.4521314777447E-01
-0.8338373587309E-01 -0.6849825915322E-01
-0.1076681003535E+00 -0.9420720110134E-01
-0.1266673559616E+00 -0.1216136541518E+00
-0.1407035771333E+00 -0.1500971751872E+00
-0.1501658590072E+00 -0.1792256074873E+00
-0.1554017545738E+00 -0.2087414587534E+00
-0.1567715481753E+00 -0.2385031395328E+00
-0.1545269371348E+00 -0.2685071403520E+00
-0.1487944389439E+00 -0.2989087944572E+00
-0.1399435681905E+00 -0.3297915171377E+00
-0.1273416544001E+00 -0.3619923775207E+00
-0.1106072244790E+00 -0.3965890830126E+00
-0.9042703286188E-01 -0.4339714600919E+00
-0.6730543078776E-01 -0.4744797847501E+00
-0.4150361465806E-01 -0.5184368809760E+00
-0.1297410554971E-01 -0.5661931681467E+00
 0.1855027602928E-01 -0.6180671028947E+00
-0.1481536051057E-01 -0.2425543907631E-01
-0.4712511543548E-01 -0.4349662310037E-01
-0.7410174273033E-01 -0.6596811677348E-01
-0.9605164221620E-01 -0.9107491077512E-01
-0.1131437167699E+00 -0.1181974557893E+00
-0.1256973496987E+00 -0.1467812487009E+00
-0.1340779217350E+00 -0.1764153921843E+00
-0.1386071680375E+00 -0.2068278243567E+00
-0.1396132619165E+00 -0.2378394773019E+00
-0.1373233436150E+00 -0.2693901814037E+00
-0.1318479988426E+00 -0.3015567532599E+00
-0.1235171242661E+00 -0.3343754993914E+00
-0.1117411829179E+00 -0.3684543653472E+00
-0.9612799146127E-01 -0.4045413833454E+00
-0.7727605409348E-01 -0.4429005211013E+00
-0.5563957159020E-01 -0.4837991162437E+00
-0.3147945886782E-01 -0.5275300200057E+00
-0.4782781976839E-02 -0.5743938908946E+00
 0.2465122829969E-01 -0.6246437026574E+00
-0.1128444374426E-01 -0.2354768455375E-01
-0.4060377441636E-01 -0.4196624054012E-01
-0.6481702332375E-01 -0.6370213708126E-01
-0.8431526820934E-01 -0.8824104103393E-01
-0.9933408081232E-01 -0.1150473906771E+00
-0.1102080040538E+00 -0.1436263702687E+00
-0.1172944451530E+00 -0.1735918795083E+00
-0.1209024891842E+00 -0.2046664493897E+00
-0.1213358441803E+00 -0.2366466294706E+00
-0.1188024150354E+00 -0.2694285090964E+00
-0.1134017371545E+00 -0.3030227491645E+00
-0.1054168647618E+00 -0.3374260014585E+00
-0.9433493700140E-01 -0.3730426338071E+00
-0.7979585686356E-01 -0.4103408108222E+00
-0.6230591237613E-01 -0.4494805728610E+00
-0.4225640297845E-01 -0.4906636472267E+00
-0.1988367536023E-01 -0.5341496956693E+00
 0.4810265975070E-02 -0.5801994972833E+00
 0.3197248493813E-01 -0.6290265414868E+00
-0.7789187887940E-02 -0.2292381308612E-01
-0.3412872769992E-01 -0.4058826336414E-01
-0.5553857353226E-01 -0.6164751637407E-01
-0.7249027226464E-01 -0.8564046948830E-01
-0.8529616696172E-01 -0.1120951428298E+00
-0.9431936591258E-01 -0.1405682987060E+00
-0.9992238797695E-01 -0.1706986592094E+00
-0.1024137160283E+00 -0.2022087581755E+00
-0.1020806430508E+00 -0.2348804642747E+00
-0.9911834273799E-01 -0.2685770851834E+00
-0.9362164286908E-01 -0.3032553418209E+00
-0.8582144608763E-01 -0.3388801912831E+00
-0.7531447426425E-01 -0.3756841022471E+00
-0.6181320082349E-01 -0.4139142596575E+00
-0.4572622460037E-01 -0.4536524520295E+00
-0.2736913353203E-01 -0.4950410538751E+00
-0.6927850087926E-02 -0.5382942516699E+00
 0.1560562413460E-01 -0.5836353708214E+00
 0.4034633051011E-01 -0.6312613741678E+00
-0.4328258914860E-02 -0.2237220513723E-01
-0.2770026976259E-01 -0.3933548680043E-01
-0.4627715953302E-01 -0.5976065377498E-01
-0.6060676892715E-01 -0.8321813579070E-01
-0.7108469785333E-01 -0.1092812487256E+00
-0.7811230645436E-01 -0.1375495030383E+00
-0.8206778306484E-01 -0.1676841689637E+00
-0.8326951243236E-01 -0.1994106385616E+00
-0.8199622923020E-01 -0.2325033506042E+00
-0.7843740865427E-01 -0.2668020678662E+00
-0.7269022865392E-01 -0.3022214764434E+00
-0.6492982624773E-01 -0.3387026588094E+00
-0.5489305772528E-01 -0.3763423564933E+00
-0.4240084832082E-01 -0.4152320146962E+00
-0.2775762539154E-01 -0.4554039434056E+00
-0.1119182433159E-01 -0.4969489117149E+00
 0.7177344687385E-02 -0.5400190943183E+00
 0.2740019371376E-01 -0.5847736016395E+00
 0.4959902046218E-01 -0.6314187868313E+00
-0.9036840023806E-03 -0.2188318995111E-01
-0.2132264203441E-01 -0.3818445247680E-01
-0.3704575483166E-01 -0.5800513410771E-01
-0.4869489869469E-01 -0.8092766243857E-01
-0.5675268159652E-01 -0.1065552699431E+00
-0.6166573478174E-01 -0.1345208517445E+00
-0.6383597320159E-01 -0.1645045939778E+00
-0.6360040627644E-01 -0.1962360510649E+00
-0.6123627907970E-01 -0.2294877953432E+00
-0.5693458677541E-01 -0.2640844837314E+00
-0.5080216382044E-01 -0.2999095099087E+00
-0.4295613305706E-01 -0.3368873070450E+00
-0.3330025605317E-01 -0.3750174277365E+00
-0.2179288426628E-01 -0.4143034698552E+00
-0.8625926093369E-02 -0.4547592642435E+00
 0.6068629146788E-02 -0.4964349658403E+00
 0.2224828299694E-01 -0.5394137435486E+00
 0.3999935827196E-01 -0.5837626628131E+00
 0.5954053665066E-01 -0.6296004653578E+00
 0.1012754125981E+00 -0.4029706294756E-01
 0.1590592599075E+00 -0.5584903113770E-01
 0.2127118395844E+00 -0.7274185176368E-01
 0.2625912387280E+00 -0.9091538447735E-01
 0.3089722310898E+00 -0.1101763130350E+00
 0.3521240095428E+00 -0.1302697616292E+00
 0.3923200560411E+00 -0.1509200428112E+00
 0.4298082194937E+00 -0.1718477651178E+00
 0.4647957929172E+00 -0.1927793301994E+00
 0.4974368035635E+00 -0.2134594707491E+00
 0.5278314464009E+00 -0.2336639486105E+00
 0.5560681136478E+00 -0.2532028508933E+00
 0.5821181414910E+00 -0.2719381817572E+00
 0.6059528721831E+00 -0.2897706902984E+00
 0.6276667947063E+00 -0.3066278482376E+00
 0.6473277086265E+00 -0.3224493941789E+00
 0.6649433486685E+00 -0.3371752450987E+00
 0.6804214539943E+00 -0.3507337648394E+00
 0.6935742845507E+00 -0.3631201909117E+00
 0.1039017013689E+00 -0.4185498282505E-01
 0.1640337420782E+00 -0.5822493011972E-01
 0.2200084407653E+00 -0.7589918743713E-01
 0.2721501883012E+00 -0.9478161726579E-01
 0.3206355805466E+00 -0.1146196348794E+00
 0.3656469319528E+00 -0.1351037562587E+00
 0.4074051983062E+00 -0.1559213162113E+00
 0.4461254217152E+00 -0.1767723549340E+00
 0.4819990351884E+00 -0.1973774866391E+00
 0.5151735126711E+00 -0.2174887010694E+00
 0.5457462775830E+00 -0.2369021205243E+00
 0.5738408143915E+00 -0.2554603092964E+00
 0.5993532756660E+00 -0.2730663194264E+00
 0.6221716046241E+00 -0.2896867093305E+00
 0.6424626965630E+00 -0.3053379048807E+00
 0.6603960590269E+00 -0.3200558744027E+00
 0.6760997988678E+00 -0.3338723363361E+00
 0.6895754246416E+00 -0.3468085964267E+00
 0.7007893372688E+00 -0.3589385866894E+00
 0.1065332224138E+00 -0.4350597809732E-01
 0.1690338451508E+00 -0.6078817749708E-01
 0.2273268353804E+00 -0.7936442412468E-01
 0.2816820372128E+00 -0.9908343575377E-01
 0.3321753222593E+00 -0.1196121224175E+00
 0.3789087925690E+00 -0.1405725961524E+00
 0.4220610209215E+00 -0.1616078116259E+00
 0.4618261113544E+00 -0.1823946570061E+00
 0.4983912466430E+00 -0.2026513545216E+00
 0.5319088503033E+00 -0.2221425140184E+00
 0.5624849969079E+00 -0.2406894363684E+00
 0.5902815266081E+00 -0.2581781954450E+00
 0.6151425524652E+00 -0.2745453064081E+00
 0.6368991436886E+00 -0.2898293542030E+00
 0.6557876783073E+00 -0.3041617918907E+00
 0.6720720992720E+00 -0.3176893654628E+00
 0.6859881952136E+00 -0.3305382306946E+00
 0.6976332618568E+00 -0.3428000580092E+00
 0.7070384070252E+00 -0.3545388844160E+00
 0.1091805194016E+00 -0.4526352672578E-01
 0.1740820377256E+00 -0.6357269908201E-01
 0.2346941945419E+00 -0.8319769255367E-01
 0.2912097142688E+00 -0.1039040438377E+00
 0.3436034490088E+00 -0.1252526415947E+00
 0.3919080731424E+00 -0.1467825972913E+00
 0.4362736110164E+00 -0.1680863075971E+00
 0.4768879552126E+00 -0.1888169805355E+00
 0.5139472734190E+00 -0.2086964942649E+00
 0.5476206572314E+00 -0.2275093942970E+00
 0.5780331973035E+00 -0.2451090135372E+00
 0.6053866166417E+00 -0.2614388193909E+00
 0.6294949234555E+00 -0.2764607455243E+00
 0.6501570568508E+00 -0.2902888650779E+00
 0.6676745531602E+00 -0.3031916536740E+00
 0.6823954588794E+00 -0.3154356742077E+00
 0.6946477322329E+00 -0.3272353322090E+00
 0.7045931210416E+00 -0.3387294829610E+00
 0.7122944742893E+00 -0.3500008630341E+00
 0.1118576195475E+00 -0.4714478994025E-01
 0.1792055538521E+00 -0.6662126429825E-01
 0.2421405539280E+00 -0.8747082201663E-01
 0.3007547073235E+00 -0.1093390402684E+00
 0.3549264551311E+00 -0.1316499721002E+00
 0.4046351991903E+00 -0.1538448875267E+00
 0.4500204321820E+00 -0.1754617464866E+00
 0.4912813145519E+00 -0.1961329109058E+00
 0.5286372607473E+00 -0.2155937132169E+00
 0.5622853911919E+00 -0.2336591494327E+00
 0.5923788518501E+00 -0.2502237918145E+00
 0.6191590726511E+00 -0.2653042629951E+00
 0.6424299412500E+00 -0.2788791439072E+00
 0.6619794301506E+00 -0.2911380193192E+00
 0.6781668728517E+00 -0.3025039124020E+00
 0.6914115778242E+00 -0.3133682711759E+00
 0.7021113252139E+00 -0.3240288129813E+00
 0.7104716887040E+00 -0.3346726669163E+00
 0.7165745070511E+00 -0.3454173923743E+00
 0.1145828659504E+00 -0.4917175998733E-01
 0.1844364041271E+00 -0.6998722749004E-01
 0.2496971572603E+00 -0.9227009489484E-01
 0.3103343000036E+00 -0.1154982244627E+00
 0.3661419372569E+00 -0.1389228652801E+00
 0.4170691645299E+00 -0.1618735309668E+00
 0.4632674827207E+00 -0.1838338367126E+00
 0.5049672120682E+00 -0.2044231198008E+00
 0.5424255513079E+00 -0.2234050181079E+00
 0.5758779088535E+00 -0.2406393231006E+00
 0.6055125666209E+00 -0.2560734532518E+00
 0.6316085277279E+00 -0.2698138566539E+00
 0.6539768697167E+00 -0.2818462766077E+00
 0.6724111416288E+00 -0.2924326502247E+00
 0.6873183857667E+00 -0.3021634916834E+00
 0.6991742139000E+00 -0.3115580499459E+00
 0.7084265139321E+00 -0.3209968393255E+00
 0.7153103554897E+00 -0.3307171853578E+00
 0.7199229992997E+00 -0.3408812287380E+00
 0.1173798673140E+00 -0.5137266390269E-01
 0.1898112151386E+00 -0.7373725195715E-01
 0.2573943548508E+00 -0.9769906659144E-01
 0.3199579812985E+00 -0.1225072290738E+00
 0.3772345728457E+00 -0.1471994743333E+00
 0.4291739388131E+00 -0.1709827049732E+00
 0.4759667121696E+00 -0.1932926116790E+00
 0.5178959723917E+00 -0.2137503423702E+00
 0.5552704291143E+00 -0.2321689417226E+00
 0.5883719280096E+00 -0.2484714872239E+00
 0.6174282550361E+00 -0.2626718821730E+00
 0.6427516014426E+00 -0.2749827787101E+00
 0.6641744537768E+00 -0.2853870212787E+00
 0.6815078094552E+00 -0.2942126430074E+00
 0.6951942566227E+00 -0.3022254784588E+00
 0.7057508676378E+00 -0.3100732971017E+00
 0.7136585339100E+00 -0.3182187189861E+00
 0.7191716541899E+00 -0.3269504191078E+00
 0.7224021425374E+00 -0.3364784927328E+00
 0.1202786531496E+00 -0.5378394675220E-01
 0.1953707466781E+00 -0.7795477335142E-01
 0.2652586673083E+00 -0.1038818771992E+00
 0.3296229509323E+00 -0.1305088804119E+00
 0.3881714905530E+00 -0.1566158400950E+00
 0.4408948233279E+00 -0.1812824989404E+00
 0.4880539543508E+00 -0.2039126170002E+00
 0.5300067629439E+00 -0.2241533621917E+00
 0.5671248654640E+00 -0.2418955083683E+00
 0.5997413559353E+00 -0.2571478252486E+00
 0.6281244263125E+00 -0.2700054370461E+00
 0.6526126984426E+00 -0.2808016945982E+00
 0.6730711624967E+00 -0.2895058073120E+00
 0.6893359065593E+00 -0.2965022965759E+00
 0.7018718018350E+00 -0.3027341900992E+00
 0.7112229611684E+00 -0.3089751727236E+00
 0.7178884077346E+00 -0.3157682112431E+00
 0.7221338812975E+00 -0.3234528897002E+00
 0.7240856489626E+00 -0.3322872096200E+00
 0.1233170837539E+00 -0.5645298492475E-01
 0.2011588533251E+00 -0.8274450813499E-01
 0.2733086739008E+00 -0.1109671279361E+00
 0.3393084881839E+00 -0.1396641241470E+00
 0.3988970725979E+00 -0.1673129370498E+00
 0.4521550141500E+00 -0.1928727920489E+00
 0.4994477535757E+00 -0.2157453831335E+00
 0.5412283899955E+00 -0.2356400392736E+00
 0.5779385187213E+00 -0.2525611781099E+00
 0.6099626072310E+00 -0.2666284669529E+00
 0.6376061056116E+00 -0.2780323707547E+00
 0.6612251254194E+00 -0.2872375141226E+00
 0.6807254172602E+00 -0.2941877008682E+00
 0.6959723600258E+00 -0.2993106141077E+00
 0.7074393946902E+00 -0.3037217239705E+00
 0.7156837022991E+00 -0.3083145598919E+00
 0.7212092257646E+00 -0.3137094317305E+00
 0.7242862633326E+00 -0.3202953938883E+00
 0.7250547812862E+00 -0.3283767103741E+00
 0.1265425495740E+00 -0.5944187877687E-01
 0.2072205378858E+00 -0.8823840920058E-01
 0.2815492310147E+00 -0.1191324240318E+00
 0.3489689151843E+00 -0.1501520804054E+00
 0.4093272990027E+00 -0.1794314946436E+00
 0.4628528130739E+00 -0.2058344773318E+00
 0.5100496456445E+00 -0.2288098927287E+00
 0.5514818128879E+00 -0.2481796246082E+00
 0.5876612288043E+00 -0.2641043578734E+00
 0.6190179300550E+00 -0.2768401901653E+00
 0.6458872507903E+00 -0.2866838095506E+00
 0.6686322822507E+00 -0.2942354765017E+00
 0.6872055578892E+00 -0.2994003790776E+00
 0.7015034433535E+00 -0.3026321614765E+00
 0.7119943618581E+00 -0.3052074110406E+00
 0.7192349790540E+00 -0.3081303910763E+00
 0.7237222468730E+00 -0.3120949254574E+00
 0.7257249602904E+00 -0.3175377607236E+00
 0.7253956301746E+00 -0.3248073772238E+00
 0.1300139864950E+00 -0.6283291079685E-01
 0.2135985351123E+00 -0.9460373876488E-01
 0.2899633321345E+00 -0.1285896595256E+00
 0.3585248995616E+00 -0.1621684533168E+00
 0.4193439967995E+00 -0.1931033939236E+00
 0.4728602822331E+00 -0.2202171692935E+00
 0.5197467343435E+00 -0.2430810067485E+00
 0.5606849297787E+00 -0.2616950845310E+00
 0.5962481647072E+00 -0.2764224914260E+00
 0.6268995962005E+00 -0.2876773141879E+00
 0.6529933886980E+00 -0.2958667132253E+00
 0.6748886745366E+00 -0.3017226824817E+00
 0.6925894295341E+00 -0.3050970522786E+00
 0.7060232051126E+00 -0.3064487285023E+00
 0.7156404590493E+00 -0.3071982517328E+00
 0.7219841257453E+00 -0.3084492844165E+00
 0.7255333362501E+00 -0.3109650652534E+00
 0.7265498294362E+00 -0.3152284926989E+00
 0.7251970470830E+00 -0.3216304858464E+00
 0.1338041466504E+00 -0.6673661077980E-01
 0.2203274003019E+00 -0.1020542123615E+00
 0.2985005124566E+00 -0.1395908346533E+00
 0.3678528553897E+00 -0.1759206666913E+00
 0.4287897502009E+00 -0.2084376281924E+00
 0.4820245994936E+00 -0.2360223284840E+00
 0.5284176135693E+00 -0.2584762582802E+00
 0.5687600617405E+00 -0.2760567927735E+00
 0.6036664518116E+00 -0.2893721118707E+00
 0.6336144696152E+00 -0.2990055719764E+00
 0.6589639726504E+00 -0.3054689463725E+00
 0.6800604180948E+00 -0.3096128228530E+00
 0.6969635169867E+00 -0.3112200409555E+00
 0.7096316209639E+00 -0.3107315780669E+00
 0.7184853160964E+00 -0.3096901374254E+00
 0.7240409312829E+00 -0.3092861160471E+00
 0.7267498940098E+00 -0.3103483131911E+00
 0.7268617669425E+00 -0.3134049111365E+00
 0.7245489170392E+00 -0.3188881451626E+00
 0.1380019392016E+00 -0.7130416895724E-01
 0.2274233676211E+00 -0.1108658273552E+00
 0.3070603038932E+00 -0.1524337576608E+00
 0.3767726777982E+00 -0.1916168319219E+00
 0.4374652746947E+00 -0.2254979991648E+00
 0.4901742557898E+00 -0.2531812465096E+00
 0.5359429398329E+00 -0.2748428174387E+00
 0.5756442608772E+00 -0.2910802074580E+00
 0.6099026342791E+00 -0.3027736988679E+00
 0.6391881387399E+00 -0.3106695422314E+00
 0.6638538568300E+00 -0.3153661533536E+00
 0.6842249606550E+00 -0.3178114923241E+00
 0.7004216260816E+00 -0.3177044868569E+00
 0.7124326670823E+00 -0.3154439569297E+00
 0.7206381200157E+00 -0.3126695997171E+00
 0.7255150821082E+00 -0.3106452455847E+00
 0.7274782854251E+00 -0.3102620383380E+00
 0.7267604794754E+00 -0.3120936148429E+00
 0.7235406280422E+00 -0.3166133462210E+00
 0.1427142147342E+00 -0.7674738585550E-01
 0.2348667206875E+00 -0.1213998422917E+00
 0.3154685805616E+00 -0.1674654977005E+00
 0.3850351516410E+00 -0.2094428741245E+00
 0.4451327722723E+00 -0.2442686523712E+00
 0.4971331318674E+00 -0.2715287709658E+00
 0.5422215317778E+00 -0.2919488286057E+00
 0.5813015066580E+00 -0.3065312935978E+00
 0.6149694305979E+00 -0.3164228491673E+00
 0.6436673809181E+00 -0.3225031993584E+00
 0.6677332367674E+00 -0.3254293321184E+00
 0.6874698292396E+00 -0.3262210747351E+00
 0.7030631836405E+00 -0.3244815653988E+00
 0.7145325170683E+00 -0.3205435578559E+00
 0.7222077386298E+00 -0.3161159168744E+00
 0.7265141283360E+00 -0.3125222365867E+00
 0.7278217147475E+00 -0.3107137250619E+00
 0.7263425527504E+00 -0.3113111391130E+00
 0.7222596742003E+00 -0.3148301114934E+00
 0.1480653427083E+00 -0.8337247410091E-01
 0.2425703768763E+00 -0.1341369722163E+00
 0.3234443873622E+00 -0.1850776247914E+00
 0.3923134210925E+00 -0.2295174596802E+00
 0.4515320646295E+00 -0.2646033983519E+00
 0.5027459063060E+00 -0.2907785586018E+00
 0.5471911709846E+00 -0.3094870600846E+00
 0.5857339694336E+00 -0.3221439932942E+00
 0.6189093980938E+00 -0.3301073707027E+00
 0.6471197752458E+00 -0.3343416423016E+00
 0.6706857023768E+00 -0.3355313823660E+00
 0.6898904886155E+00 -0.3347441125159E+00
 0.7049914024662E+00 -0.3314806876426E+00
 0.7160381535652E+00 -0.3259847649546E+00
 0.7233015136601E+00 -0.3200035544317E+00
 0.7271420419632E+00 -0.3149060442135E+00
 0.7278784533059E+00 -0.3117024925660E+00
 0.7256996686242E+00 -0.3110647071034E+00
 0.7207903446004E+00 -0.3135536761737E+00
 0.1541897571290E+00 -0.9164175286669E-01
 0.2503223094650E+00 -0.1497285031939E+00
 0.3305557940701E+00 -0.2056780657986E+00
 0.3982114502010E+00 -0.2518046070669E+00
 0.4564201931200E+00 -0.2861614648721E+00
 0.5069161516941E+00 -0.3105151332022E+00
 0.5508484434270E+00 -0.3271036343624E+00
 0.5889872468698E+00 -0.3376494696889E+00
 0.6217933718449E+00 -0.3436264458089E+00
 0.6496299427704E+00 -0.3460308136855E+00
 0.6728045887782E+00 -0.3455508659891E+00
 0.6915876878423E+00 -0.3432843390272E+00
 0.7063117062588E+00 -0.3386303730227E+00
 0.7170567798625E+00 -0.3317206841471E+00
 0.7240250075107E+00 -0.3243050650729E+00
 0.7274984686893E+00 -0.3177818127540E+00
 0.7277402889872E+00 -0.3132209294931E+00
 0.7249167661626E+00 -0.3113529701165E+00
 0.7192123930676E+00 -0.3127905548896E+00
 0.1612049104204E+00 -0.1022954505852E+00
 0.2576719770262E+00 -0.1690750098751E+00
 0.3361775491157E+00 -0.2295890391044E+00
 0.4023176256309E+00 -0.2759610219539E+00
 0.4596496482682E+00 -0.3083483444637E+00
 0.5096442940978E+00 -0.3302453894916E+00
 0.5532552812048E+00 -0.3444512121651E+00
 0.5911459460730E+00 -0.3528081040904E+00
 0.6237132882900E+00 -0.3568054107856E+00
 0.6512930861157E+00 -0.3574323902330E+00
 0.6741882727507E+00 -0.3553719587477E+00
 0.6926648418312E+00 -0.3517448150964E+00
 0.7071309072476E+00 -0.3458576168267E+00
 0.7176964930378E+00 -0.3377049804859E+00
 0.7244831318491E+00 -0.3289947614530E+00
 0.7276788214734E+00 -0.3211345263336E+00
 0.7274911269130E+00 -0.3152574625395E+00
 0.7240697433961E+00 -0.3121665731095E+00
 0.7175995193769E+00 -0.3125382873801E+00
 0.1691043165982E+00 -0.1166491108280E+00
 0.2637167631454E+00 -0.1934019773685E+00
 0.3394885093020E+00 -0.2567729844937E+00
 0.4043985137211E+00 -0.3010563666458E+00
 0.4612488603875E+00 -0.3304274270204E+00
 0.5110307167039E+00 -0.3495043105170E+00
 0.5545272489485E+00 -0.3612432802236E+00
 0.5923204149109E+00 -0.3674303259264E+00
 0.6247717841852E+00 -0.3695019062250E+00
 0.6522071026812E+00 -0.3684238969888E+00
 0.6749349944738E+00 -0.3648803370068E+00
 0.6932259602011E+00 -0.3600227109271E+00
 0.7075577119530E+00 -0.3530854560844E+00
 0.7180688769077E+00 -0.3438940545482E+00
 0.7247829438338E+00 -0.3340531496742E+00
 0.7277758356651E+00 -0.3249542708316E+00
 0.7272055442882E+00 -0.3177994798317E+00
 0.7232224477394E+00 -0.3134888114886E+00
 0.7160167215823E+00 -0.3127840989608E+00
 0.1774451437119E+00 -0.1373445082145E+00
 0.2664911498677E+00 -0.2243962406056E+00
 0.3400656964528E+00 -0.2855828983242E+00
 0.4045856256693E+00 -0.3258929828185E+00
 0.4613951815816E+00 -0.3517530802447E+00
 0.5112459041070E+00 -0.3679477485067E+00
 0.5548082428278E+00 -0.3772789309779E+00
 0.5926317915752E+00 -0.3813789181159E+00
 0.6250715125402E+00 -0.3816065708524E+00
 0.6524640987821E+00 -0.3788958136423E+00
 0.6751367625837E+00 -0.3739560695628E+00
 0.6933741351812E+00 -0.3679970938716E+00
 0.7077062273323E+00 -0.3602287087833E+00
 0.7182950072639E+00 -0.3502518510601E+00
 0.7250375608793E+00 -0.3394727811635E+00
 0.7278815879230E+00 -0.3292402888821E+00
 0.7269514285548E+00 -0.3208415453771E+00
 0.7224194056148E+00 -0.3152951141396E+00
 0.7145164822328E+00 -0.3135022505742E+00
 0.1024249781480E+00 -0.6983382957496E+00
 0.9575457574472E-01 -0.7036345700929E+00
 0.8970467394593E-01 -0.7074490030390E+00
 0.8436224079829E-01 -0.7096535488047E+00
 0.7983740690183E-01 -0.7101478549004E+00
 0.7625096911569E-01 -0.7088426891104E+00
 0.7373679283111E-01 -0.7056561038957E+00
 0.7244146398094E-01 -0.7005140738195E+00
 0.7252425408252E-01 -0.6933529679383E+00
 0.7415671708382E-01 -0.6841231621258E+00
 0.7752186702649E-01 -0.6727937000449E+00
 0.8281266930928E-01 -0.6593582270420E+00
 0.9022945617810E-01 -0.6438426672093E+00
 0.9997562359807E-01 -0.6263154299668E+00
 0.1122504931403E+00 -0.6069014594495E+00
 0.1272374069686E+00 -0.5858023733030E+00
 0.1450827021444E+00 -0.5633271122117E+00
 0.1658587966101E+00 -0.5399414644081E+00
 0.1894746153132E+00 -0.5163630738245E+00
 0.1248149467657E+00 -0.7185616715227E+00
 0.1187229437807E+00 -0.7262851181739E+00
 0.1131259025673E+00 -0.7327108249405E+00
 0.1081552484667E+00 -0.7376825076927E+00
 0.1039227966755E+00 -0.7410751156056E+00
 0.1005507154433E+00 -0.7427776903172E+00
 0.9817436209433E-01 -0.7426875575734E+00
 0.9694418541886E-01 -0.7407079437027E+00
 0.9702623335956E-01 -0.7367481219780E+00
 0.9860247987427E-01 -0.7307250411439E+00
 0.1018710256246E+00 -0.7225661246728E+00
 0.1070462391004E+00 -0.7122132623250E+00
 0.1143588548064E+00 -0.6996283156390E+00
 0.1240560803351E+00 -0.6848007874699E+00
 0.1364018806386E+00 -0.6677587829363E+00
 0.1516777716662E+00 -0.6485852520259E+00
 0.1701855917816E+00 -0.6274430000330E+00
 0.1922538470532E+00 -0.6046159335192E+00
 0.2182678896671E+00 -0.5805814877424E+00
 0.1479305986948E+00 -0.7374357555796E+00
 0.1425586025584E+00 -0.7476239696444E+00
 0.1375816523920E+00 -0.7566585887319E+00
 0.1331389595041E+00 -0.7644088171716E+00
 0.1293557227055E+00 -0.7707435245748E+00
 0.1263590786429E+00 -0.7755407985123E+00
 0.1242881500147E+00 -0.7786847416376E+00
 0.1232976937590E+00 -0.7800636670754E+00
 0.1235603842648E+00 -0.7795693965363E+00
 0.1252684658336E+00 -0.7770977811836E+00
 0.1286354809581E+00 -0.7725502418984E+00
 0.1338984526126E+00 -0.7658363061393E+00
 0.1413209594190E+00 -0.7568772735680E+00
 0.1511977487017E+00 -0.7456113246035E+00
 0.1638619755272E+00 -0.7320006005982E+00
 0.1796971652202E+00 -0.7160410226450E+00
 0.1991577618941E+00 -0.6977758939352E+00
 0.2228086358396E+00 -0.6773138852710E+00
 0.2514044418139E+00 -0.6548482007759E+00
 0.1717021327689E+00 -0.7547349558106E+00
 0.1671490989316E+00 -0.7673518844908E+00
 0.1629250426034E+00 -0.7789683893974E+00
 0.1591580129607E+00 -0.7894692555290E+00
 0.1559758075417E+00 -0.7987317631048E+00
 0.1535105379662E+00 -0.8066326372609E+00
 0.1519054301381E+00 -0.8130505597402E+00
 0.1513199472963E+00 -0.8178656803845E+00
 0.1519332581294E+00 -0.8209592264917E+00
 0.1539472757119E+00 -0.8222135747227E+00
 0.1575898674503E+00 -0.8215129410625E+00
 0.1631188376641E+00 -0.8187446690584E+00
 0.1708273256899E+00 -0.8138010913829E+00
 0.1810515048547E+00 -0.8065819252389E+00
 0.1941819499456E+00 -0.7969970813717E+00
 0.2106808422751E+00 -0.7849695058975E+00
 0.2311088916667E+00 -0.7704368825271E+00
 0.2561676761096E+00 -0.7533488264016E+00
 0.2867677005065E+00 -0.7336496236403E+00
 0.1960287242028E+00 -0.7702685112834E+00
 0.1923836538322E+00 -0.7852303220490E+00
 0.1890193374902E+00 -0.7993518696207E+00
 0.1860510127197E+00 -0.8125299103857E+00
 0.1836021960804E+00 -0.8246506572534E+00
 0.1818053449246E+00 -0.8355951230196E+00
 0.1808057590372E+00 -0.8452416965365E+00
 0.1807659473708E+00 -0.8534669997250E+00
 0.1818696558003E+00 -0.8601458451504E+00
 0.1843257046412E+00 -0.8651511204478E+00
 0.1883721547819E+00 -0.8683537857318E+00
 0.1942813125098E+00 -0.8696229849136E+00
 0.2023661796580E+00 -0.8688261201287E+00
 0.2129891140540E+00 -0.8658285926150E+00
 0.2265737165935E+00 -0.8604926740014E+00
 0.2436213284471E+00 -0.8526745226230E+00
 0.2647336533896E+00 -0.8422175176452E+00
 0.2906426739588E+00 -0.8289385996419E+00
 0.3222425161686E+00 -0.8126029045799E+00
 0.2207981243724E+00 -0.7838767620000E+00
 0.2181393956307E+00 -0.8010597998397E+00
 0.2157231726482E+00 -0.8175661818848E+00
 0.2136528411794E+00 -0.8333010702084E+00
 0.2120446052313E+00 -0.8481589207138E+00
 0.2110272223695E+00 -0.8620262533375E+00
 0.2107444159724E+00 -0.8747836848837E+00
 0.2113583935701E+00 -0.8863067842871E+00
 0.2130536972867E+00 -0.8964661661332E+00
 0.2160412524465E+00 -0.9051271398756E+00
 0.2205627961795E+00 -0.9121491053882E+00
 0.2268960197538E+00 -0.9173846501761E+00
 0.2353608130165E+00 -0.9206781365821E+00
 0.2463270482931E+00 -0.9218633802435E+00
 0.2602243611380E+00 -0.9207597779314E+00
 0.2775542618974E+00 -0.9171659036260E+00
 0.2989045003905E+00 -0.9108491751339E+00
 0.3249640300652E+00 -0.9015300258086E+00
 0.3565350636042E+00 -0.8888603658364E+00
 0.2458899652426E+00 -0.7954261308347E+00
 0.2442844108257E+00 -0.8146753116668E+00
 0.2428878335337E+00 -0.8334089349477E+00
 0.2417929398987E+00 -0.8515388215405E+00
 0.2411069067880E+00 -0.8689662243764E+00
 0.2409514957214E+00 -0.8855829399415E+00
 0.2414648823826E+00 -0.9012723337878E+00
 0.2428045528043E+00 -0.9159098006732E+00
 0.2451507537009E+00 -0.9293626049056E+00
 0.2487102825935E+00 -0.9414892190264E+00
 0.2537206224534E+00 -0.9521382042693E+00
 0.2604545293568E+00 -0.9611465632950E+00
 0.2692252091819E+00 -0.9683373513511E+00
 0.2803921771084E+00 -0.9735161871031E+00
 0.2943677634478E+00 -0.9764661485066E+00
 0.3116239648427E+00 -0.9769403932917E+00
 0.3326988106049E+00 -0.9746517958133E+00
 0.3582009576361E+00 -0.9692591322735E+00
 0.3888114252265E+00 -0.9603499736791E+00
 0.2711783946000E+00 -0.8047938413739E+00
 0.2706779921553E+00 -0.8259139654596E+00
 0.2703542451677E+00 -0.8466722895414E+00
 0.2702891678907E+00 -0.8669864709713E+00
 0.2705791857612E+00 -0.8867635372792E+00
 0.2713358012464E+00 -0.9058999080053E+00
 0.2726872668797E+00 -0.9242815561431E+00
 0.2747810536903E+00 -0.9417838853493E+00
 0.2777868280368E+00 -0.9582711748232E+00
 0.2818997385692E+00 -0.9735955584941E+00
 0.2873439120492E+00 -0.9875955170751E+00
 0.2943761041742E+00 -0.1000093801039E+01
 0.3032894348454E+00 -0.1010894625471E+01
 0.3144170544415E+00 -0.1019779900252E+01
 0.3281354289618E+00 -0.1026504204266E+01
 0.3448666791013E+00 -0.1030788209330E+01
 0.3650791363195E+00 -0.1032310347631E+01
 0.3892850594780E+00 -0.1030696670116E+01
 0.4180350560495E+00 -0.1025508546954E+01
 0.2965330998832E+00 -0.8118640761113E+00
 0.2971715170085E+00 -0.8346068713938E+00
 0.2979529428558E+00 -0.8571301492415E+00
 0.2989475092823E+00 -0.8793573054883E+00
 0.3002385609209E+00 -0.9012007562068E+00
 0.3019236959702E+00 -0.9225613029659E+00
 0.3041163604502E+00 -0.9433276172668E+00
 0.3069479658325E+00 -0.9633755730054E+00
 0.3105703707901E+00 -0.9825672757764E+00
 0.3151585586643E+00 -0.1000749722367E+01
 0.3209133603795E+00 -0.1017753047118E+01
 0.3280640710700E+00 -0.1033388299674E+01
 0.3368707692605E+00 -0.1047444671775E+01
 0.3476260637826E+00 -0.1059686073857E+01
 0.3606558650994E+00 -0.1069846974793E+01
 0.3763186221806E+00 -0.1077627479805E+01
 0.3950022942138E+00 -0.1082687735992E+01
 0.4171182100532E+00 -0.1084641872720E+01
 0.4430900975791E+00 -0.1083051806054E+01
 0.3218235776808E+00 -0.8165552082233E+00
 0.3236160013387E+00 -0.8406326589455E+00
 0.3255152273336E+00 -0.8646171138514E+00
 0.3275777297314E+00 -0.8884378653703E+00
 0.3298711959578E+00 -0.9120127629108E+00
 0.3324756710806E+00 -0.9352471707345E+00
 0.3354850063234E+00 -0.9580329656161E+00
 0.3390086262077E+00 -0.9802474259830E+00
 0.3431735166977E+00 -0.1001751911090E+01
 0.3481262923927E+00 -0.1022390277441E+01
 0.3540351796114E+00 -0.1041987008845E+01
 0.3610917261509E+00 -0.1060345047692E+01
 0.3695120049170E+00 -0.1077243322416E+01
 0.3795370156329E+00 -0.1092433983719E+01
 0.3914319137044E+00 -0.1105639404386E+01
 0.4054836170849E+00 -0.1116549074352E+01
 0.4219962776837E+00 -0.1124816639217E+01
 0.4412839542135E+00 -0.1130057506230E+01
 0.4636596956644E+00 -0.1131847880485E+01
 0.3469212592719E+00 -0.8188211693009E+00
 0.3498651894469E+00 -0.8439191447879E+00
 0.3528767046497E+00 -0.8690310406665E+00
 0.3559968103570E+00 -0.8940921942047E+00
 0.3592751285762E+00 -0.9190261314437E+00
 0.3627709093207E+00 -0.9437432578393E+00
 0.3665542267398E+00 -0.9681395165730E+00
 0.3707073670012E+00 -0.9920949496466E+00
 0.3753263391863E+00 -0.1015472112588E+01
 0.3805223932767E+00 -0.1038114325073E+01
 0.3864233960314E+00 -0.1059843768278E+01
 0.3931748831402E+00 -0.1080459463452E+01
 0.4009405695780E+00 -0.1099735189650E+01
 0.4099020625216E+00 -0.1117417429190E+01
 0.4202574910568E+00 -0.1133223474057E+01
 0.4322187577307E+00 -0.1146839891249E+01
 0.4460071312088E+00 -0.1157921637753E+01
 0.4618469848655E+00 -0.1166092267784E+01
 0.4799577841414E+00 -0.1170945866674E+01
 0.3717009475139E+00 -0.8186489861524E+00
 0.3757773869970E+00 -0.8444379921242E+00
 0.3798791607881E+00 -0.8703251152888E+00
 0.3840303440844E+00 -0.8962517581920E+00
 0.3882605784820E+00 -0.9221474020613E+00
 0.3926057905911E+00 -0.9479281162372E+00
 0.3971090394745E+00 -0.9734949899853E+00
 0.4018214909897E+00 -0.9987324666488E+00
 0.4068034710748E+00 -0.1023506571597E+01
 0.4121255135325E+00 -0.1047663050176E+01
 0.4178692873896E+00 -0.1071025460537E+01
 0.4241282603299E+00 -0.1093393295099E+01
 0.4310079279097E+00 -0.1114540233584E+01
 0.4386254185834E+00 -0.1134212661168E+01
 0.4471082826794E+00 -0.1152128618345E+01
 0.4565923026815E+00 -0.1167977385303E+01
 0.4672182459408E+00 -0.1181419945872E+01
 0.4791276563440E+00 -0.1192090614121E+01
 0.4924580834616E+00 -0.1199600100066E+01
 0.3960418537972E+00 -0.8160564314949E+00
 0.4012165487856E+00 -0.8422001899758E+00
 0.4063715243019E+00 -0.8685012015818E+00
 0.4115130223364E+00 -0.8949067820824E+00
 0.4166494936975E+00 -0.9213525638150E+00
 0.4217919255276E+00 -0.9477608995359E+00
 0.4269542680004E+00 -0.9740391601130E+00
 0.4321539612039E+00 -0.1000077927253E+01
 0.4374125391990E+00 -0.1025749096283E+01
 0.4427562661998E+00 -0.1050903927983E+01
 0.4482167393043E+00 -0.1075371117793E+01
 0.4538313718738E+00 -0.1098954982185E+01
 0.4596436524324E+00 -0.1121433893073E+01
 0.4657030606825E+00 -0.1142559118499E+01
 0.4720645245282E+00 -0.1162054247156E+01
 0.4787873352281E+00 -0.1179615380343E+01
 0.4859335206868E+00 -0.1194912260517E+01
 0.4935658216575E+00 -0.1207590459196E+01
 0.5017456034981E+00 -0.1217274651292E+01
 0.4198284250621E+00 -0.8110901440746E+00
 0.4260529291852E+00 -0.8372527446352E+00
 0.4322102193285E+00 -0.8636050940835E+00
 0.4382884485123E+00 -0.8901000599722E+00
 0.4442744772590E+00 -0.9166794452017E+00
 0.4501537534768E+00 -0.9432723653143E+00
 0.4559102674079E+00 -0.9697934985548E+00
 0.4615265954966E+00 -0.9961412150216E+00
 0.4669840401452E+00 -0.1022195607200E+01
 0.4722628657076E+00 -0.1047816467989E+01
 0.4773426241004E+00 -0.1072841292058E+01
 0.4822025542264E+00 -0.1097083409782E+01
 0.4868220265825E+00 -0.1120330396851E+01
 0.4911809886923E+00 -0.1142342931237E+01
 0.4952603534690E+00 -0.1162854284108E+01
 0.4990422723916E+00 -0.1181570620910E+01
 0.5025102636252E+00 -0.1198172241763E+01
 0.5056492313413E+00 -0.1212315799436E+01
 0.5084455030015E+00 -0.1223637405587E+01
 0.4429510625666E+00 -0.8038241422393E+00
 0.4501635136615E+00 -0.8296763509939E+00
 0.4572592013836E+00 -0.8557233450786E+00
 0.4642085918127E+00 -0.8819229362282E+00
 0.4709773904096E+00 -0.9082228583508E+00
 0.4775259480176E+00 -0.9345592036394E+00
 0.4838087104905E+00 -0.9608547139313E+00
 0.4897737414946E+00 -0.9870169272638E+00
 0.4953623553598E+00 -0.1012936194561E+01
 0.5005089057450E+00 -0.1038483602943E+01
 0.5051407851203E+00 -0.1063508870290E+01
 0.5091786962905E+00 -0.1087838309976E+01
 0.5125372550898E+00 -0.1111273003361E+01
 0.5151259666117E+00 -0.1133587355638E+01
 0.5168505811339E+00 -0.1154528237965E+01
 0.5176147819488E+00 -0.1173814919436E+01
 0.5173220984208E+00 -0.1191139947731E+01
 0.5158778981272E+00 -0.1206171034841E+01
 0.5131913196859E+00 -0.1218553853266E+01
 0.4653071046349E+00 -0.7943584745784E+00
 0.4734329599367E+00 -0.8195835476257E+00
 0.4813907604989E+00 -0.8449809530233E+00
 0.4891342993690E+00 -0.8705125653576E+00
 0.4966093535640E+00 -0.8961314841685E+00
 0.5037526177452E+00 -0.9217806180553E+00
 0.5104906343999E+00 -0.9473911121656E+00
 0.5167387611788E+00 -0.9728806045817E+00
 0.5224002345731E+00 -0.9981513075057E+00
 0.5273654122919E+00 -0.1023087924732E+01
 0.5315113037459E+00 -0.1047555439349E+01
 0.5347015253291E+00 -0.1071396836986E+01
 0.5367868369126E+00 -0.1094430872083E+01
 0.5376064144172E+00 -0.1116450037358E+01
 0.5369899717063E+00 -0.1137218953738E+01
 0.5347607460214E+00 -0.1156473442905E+01
 0.5307392035472E+00 -0.1173920548538E+01
 0.5247471373576E+00 -0.1189239702031E+01
 0.5166116944722E+00 -0.1202085062803E+01
 0.4868017655055E+00 -0.7828178196323E+00
 0.4957544824605E+00 -0.8071170038676E+00
 0.5044862763098E+00 -0.8315393931390E+00
 0.5129358025359E+00 -0.8560497650129E+00
 0.5210308287294E+00 -0.8806056531542E+00
 0.5286867282142E+00 -0.9051561666465E+00
 0.5358049040145E+00 -0.9296406522662E+00
 0.5422711844696E+00 -0.9539871671078E+00
 0.5479542568656E+00 -0.9781107314933E+00
 0.5527042390975E+00 -0.1001911337471E+01
 0.5563515326701E+00 -0.1025271699160E+01
 0.5587061521579E+00 -0.1048054751876E+01
 0.5595577808571E+00 -0.1070100943748E+01
 0.5586768450108E+00 -0.1091225424663E+01
 0.5558168983956E+00 -0.1111215329628E+01
 0.5507185185215E+00 -0.1129827470477E+01
 0.5431146918677E+00 -0.1146786860410E+01
 0.5327373075861E+00 -0.1161786537328E+01
 0.5193239687016E+00 -0.1174489045541E+01
 0.5073491401813E+00 -0.7693499514538E+00
 0.5170308602015E+00 -0.7924478052768E+00
 0.5264371878370E+00 -0.8155948109318E+00
 0.5354935719715E+00 -0.8387572432777E+00
 0.5441122352230E+00 -0.8618957750544E+00
 0.5521902947340E+00 -0.8849646070094E+00
 0.5596077317384E+00 -0.9079104590682E+00
 0.5662252377400E+00 -0.9306713735852E+00
 0.5718819904907E+00 -0.9531752741827E+00
 0.5763934498597E+00 -0.9753382159577E+00
 0.5795493156795E+00 -0.9970622564127E+00
 0.5811118612071E+00 -0.1018232875905E+01
 0.5808149496948E+00 -0.1038715890752E+01
 0.5783641532709E+00 -0.1058353847583E+01
 0.5734385006713E+00 -0.1076961988995E+01
 0.5656944112737E+00 -0.1094324069258E+01
 0.5547722079066E+00 -0.1110188565012E+01
 0.5403051343152E+00 -0.1124266099208E+01
 0.5219300308644E+00 -0.1136229029522E+01
 0.5268733779410E+00 -0.7541239005046E+00
 0.5371757928845E+00 -0.7757734221604E+00
 0.5471465360598E+00 -0.7973759023663E+00
 0.5567000249531E+00 -0.8188975476372E+00
 0.5657357591049E+00 -0.8403005764100E+00
 0.5741361738161E+00 -0.8615427104104E+00
 0.5817642558577E+00 -0.8825765703660E+00
 0.5884609213219E+00 -0.9033489160329E+00
 0.5940421755956E+00 -0.9237996553026E+00
 0.5982961045172E+00 -0.9438605263743E+00
 0.6009797920969E+00 -0.9634533304295E+00
 0.6018163337571E+00 -0.9824875618892E+00
 0.6004922292935E+00 -0.1000857255717E+01
 0.5966556153122E+00 -0.1018436862608E+01
 0.5899160452195E+00 -0.1035076009604E+01
 0.5798468325772E+00 -0.1050593174784E+01
 0.5659911485239E+00 -0.1064768721961E+01
 0.5478727632241E+00 -0.1077338362703E+01
 0.5250113302310E+00 -0.1087988746741E+01
 0.5453098758475E+00 -0.7373277858627E+00
 0.5561153222674E+00 -0.7573153212196E+00
 0.5665306787322E+00 -0.7771414129972E+00
 0.5764615868819E+00 -0.7967706290245E+00
 0.5857977859968E+00 -0.8161649878901E+00
 0.5944108447228E+00 -0.8352838272706E+00
 0.6021515737501E+00 -0.8540836431001E+00
 0.6088470876443E+00 -0.8725178390334E+00
 0.6142974885940E+00 -0.8905363074449E+00
 0.6182721549035E+00 -0.9080847340147E+00
 0.6205056391452E+00 -0.9251034749863E+00
 0.6206932273193E+00 -0.9415257962786E+00
 0.6184863029781E+00 -0.9572751846741E+00
 0.6134878377323E+00 -0.9722613464325E+00
 0.6052486610216E+00 -0.9863744184155E+00
 0.5932657354453E+00 -0.9994769019376E+00
 0.5769846062098E+00 -0.1011393081155E+01
 0.5558088536342E+00 -0.1021896721006E+01
 0.5291186163790E+00 -0.1030699333766E+01
 0.5626071398625E+00 -0.7191672178988E+00
 0.5737906415941E+00 -0.7373180300488E+00
 0.5845231263477E+00 -0.7551799189816E+00
 0.5947036101131E+00 -0.7727144539664E+00
 0.6042149314943E+00 -0.7898817900232E+00
 0.6129215267172E+00 -0.8066408855593E+00
 0.6206668295240E+00 -0.8229497696246E+00
 0.6272702345243E+00 -0.8387658108021E+00
 0.6325235492651E+00 -0.8540459250868E+00
 0.6361868429644E+00 -0.8687466314420E+00
 0.6379835827229E+00 -0.8828238161109E+00
 0.6375949379607E+00 -0.8962319917431E+00
 0.6346531470878E+00 -0.9089227215454E+00
 0.6287339152595E+00 -0.9208417024113E+00
 0.6193480331161E+00 -0.9319237400195E+00
 0.6059329809121E+00 -0.9420844929671E+00
 0.5878465773594E+00 -0.9512074916697E+00
 0.5643678974105E+00 -0.9591250837664E+00
 0.5347128624095E+00 -0.9655951116947E+00
 0.5787299035475E+00 -0.6998644797922E+00
 0.5901635058468E+00 -0.7160501597453E+00
 0.6010821886584E+00 -0.7318124977840E+00
 0.6113801762201E+00 -0.7471091701366E+00
 0.6209358709295E+00 -0.7618972004109E+00
 0.6296098341096E+00 -0.7761334552901E+00
 0.6372423719936E+00 -0.7897752622938E+00
 0.6436506513981E+00 -0.8027811248247E+00
 0.6486252375758E+00 -0.8151115051697E+00
 0.6519259033465E+00 -0.8267296288159E+00
 0.6532764996746E+00 -0.8376022287572E+00
 0.6523585992970E+00 -0.8477000858987E+00
 0.6488035239071E+00 -0.8569981114955E+00
 0.6421822461256E+00 -0.8654745228089E+00
 0.6319925542999E+00 -0.8731083145391E+00
 0.6176429002271E+00 -0.8798735924808E+00
 0.5984330042760E+00 -0.8857281952155E+00
 0.5735338095586E+00 -0.8905920094697E+00
 0.5419817635309E+00 -0.8943088931578E+00
 0.5936584231414E+00 -0.6796504957033E+00
 0.6052143148161E+00 -0.6937912458022E+00
 0.6161881782927E+00 -0.7073742564490E+00
 0.6264708717062E+00 -0.7203531907739E+00
 0.6359382880556E+00 -0.7326814805469E+00
 0.6444496679438E+00 -0.7443130028854E+00
 0.6518455424527E+00 -0.7552029238761E+00
 0.6579452348427E+00 -0.7653087111019E+00
 0.6625438088277E+00 -0.7745913248823E+00
 0.6654082929362E+00 -0.7830166001830E+00
 0.6662729250628E+00 -0.7905568248897E+00
 0.6648330332025E+00 -0.7971924989000E+00
 0.6607369718134E+00 -0.8029142076973E+00
 0.6535752251372E+00 -0.8077244319863E+00
 0.6428652957761E+00 -0.8116388692639E+00
 0.6280302072110E+00 -0.8146862962466E+00
 0.6083672207490E+00 -0.8169047018750E+00
 0.5830019812655E+00 -0.8183283059163E+00
 0.5508245046092E+00 -0.8189504679560E+00
 0.6073886897340E+00 -0.6587594624482E+00
 0.6189422849154E+00 -0.6708241105225E+00
 0.6298438400613E+00 -0.6822041287584E+00
 0.6399819111876E+00 -0.6928501005752E+00
 0.6492312940051E+00 -0.7027126232543E+00
 0.6574517402686E+00 -0.7117430781817E+00
 0.6644863653350E+00 -0.7198945760179E+00
 0.6701596980293E+00 -0.7271230968637E+00
 0.6742752868665E+00 -0.7333888641699E+00
 0.6766127222489E+00 -0.7386580126457E+00
 0.6769238512454E+00 -0.7429046362380E+00
 0.6749278307511E+00 -0.7461133341390E+00
 0.6703044507022E+00 -0.7482824120386E+00
 0.6626847922727E+00 -0.7494279404889E+00
 0.6516376240600E+00 -0.7495889088499E+00
 0.6366486695881E+00 -0.7488336858675E+00
 0.6170872223069E+00 -0.7472677184585E+00
 0.5921486772529E+00 -0.7450409987854E+00
 0.5607443480633E+00 -0.7423483946667E+00
 0.6199327694166E+00 -0.6374241668209E+00
 0.6313661872599E+00 -0.6474287719982E+00
 0.6420757162637E+00 -0.6566368688147E+00
 0.6519484859829E+00 -0.6649981097592E+00
 0.6608592900131E+00 -0.6724625147817E+00
 0.6686697225702E+00 -0.6789813138962E+00
 0.6752270833996E+00 -0.6845079499448E+00
 0.6803630353916E+00 -0.6889992663758E+00
 0.6838919777413E+00 -0.6924169288667E+00
 0.6856090639521E+00 -0.6947291627516E+00
 0.6852877421057E+00 -0.6959129348483E+00
 0.6826766131482E+00 -0.6959567780085E+00
 0.6774952685421E+00 -0.6948645675095E+00
 0.6694285342884E+00 -0.6926607436776E+00
 0.6581181116650E+00 -0.6893978000290E+00
 0.6431497195034E+00 -0.6851674567387E+00
 0.6240319034009E+00 -0.6801181290163E+00
 0.6001573646193E+00 -0.6744838537668E+00
 0.5707238947257E+00 -0.6686363228021E+00
 0.6313185303004E+00 -0.6158708038560E+00
 0.6425242410057E+00 -0.6238754363110E+00
 0.6529343470147E+00 -0.6309934920496E+00
 0.6624355137245E+00 -0.6371769769034E+00
 0.6709036676986E+00 -0.6423790573160E+00
 0.6782035453203E+00 -0.6465550717290E+00
 0.6841880843818E+00 -0.6496637133464E+00
 0.6886976787112E+00 -0.6516684146691E+00
 0.6915593171822E+00 -0.6525389950060E+00
 0.6925856242456E+00 -0.6522536762756E+00
 0.6915738130660E+00 -0.6508016344402E+00
 0.6883045588378E+00 -0.6481863472351E+00
 0.6825408047535E+00 -0.6444301498059E+00
 0.6740265370101E+00 -0.6395806690442E+00
 0.6624856329728E+00 -0.6337202772162E+00
 0.6476210670043E+00 -0.6269806146841E+00
 0.6291152254797E+00 -0.6195661238924E+00
 0.6066337760607E+00 -0.6117951254732E+00
 0.5798395232356E+00 -0.6041788985865E+00
 0.6415885215433E+00 -0.5943136635866E+00
 0.6524727292881E+00 -0.6004171635320E+00
 0.6624925792988E+00 -0.6055709603464E+00
 0.6715356076859E+00 -0.6097332989614E+00
 0.6794804432316E+00 -0.6128649534648E+00
 0.6861967875821E+00 -0.6149305483725E+00
 0.6915453055464E+00 -0.6159001036841E+00
 0.6953774848159E+00 -0.6157508396597E+00
 0.6975355521231E+00 -0.6144693197498E+00
 0.6978525578315E+00 -0.6120540655852E+00
 0.6961527790347E+00 -0.6085188479770E+00
 0.6922526631731E+00 -0.6038969537783E+00
 0.6859626724687E+00 -0.5982468715998E+00
 0.6770906563267E+00 -0.5916600665599E+00
 0.6654479068030E+00 -0.5842718919264E+00
 0.6508601584868E+00 -0.5762773374102E+00
 0.6331882985376E+00 -0.5679545109121E+00
 0.6123699867822E+00 -0.5597008755945E+00
 0.5885129403075E+00 -0.5520923059672E+00
 0.6507979925822E+00 -0.5729502284517E+00
 0.6612832983253E+00 -0.5772831995243E+00
 0.6708418106804E+00 -0.5806330092186E+00
 0.6793637649367E+00 -0.5829677906584E+00
 0.6867326594641E+00 -0.5842599491663E+00
 0.6928257319912E+00 -0.5844878480049E+00
 0.6975143966725E+00 -0.5836377617900E+00
 0.7006647505232E+00 -0.5817061122794E+00
 0.7021383099114E+00 -0.5787020559279E+00
 0.7017931812222E+00 -0.5746505489030E+00
 0.6994859330669E+00 -0.5695960693227E+00
 0.6950745504114E+00 -0.5636072327205E+00
 0.6884230542275E+00 -0.5567826011318E+00
 0.6794087321165E+00 -0.5492580597408E+00
 0.6679335792559E+00 -0.5412162014252E+00
 0.6539427542483E+00 -0.5328981479230E+00
 0.6374552146060E+00 -0.5246178710927E+00
 0.6186160341887E+00 -0.5167773813773E+00
 0.5977900265446E+00 -0.5098731930426E+00
 0.6590122411992E+00 -0.5519573613686E+00
 0.6690392558692E+00 -0.5546742177272E+00
 0.6780866864931E+00 -0.5564043601504E+00
 0.6860496398001E+00 -0.5571285242730E+00
 0.6928190401403E+00 -0.5568334481270E+00
 0.6982826689798E+00 -0.5555138780386E+00
 0.7023261604414E+00 -0.5531748270135E+00
 0.7048341268621E+00 -0.5498340412058E+00
 0.7056916491401E+00 -0.5455247041150E+00
 0.7047864015436E+00 -0.5402984586754E+00
 0.7020117313121E+00 -0.5342288477987E+00
 0.6972711089760E+00 -0.5274152656805E+00
 0.6904845304831E+00 -0.5199874683699E+00
 0.6815977158856E+00 -0.5121105841614E+00
 0.6705953409226E+00 -0.5039903168877E+00
 0.6575200731129E+00 -0.4958774664570E+00
 0.6424996011767E+00 -0.4880695402682E+00
 0.6257833887393E+00 -0.4809040085137E+00
 0.6077798606736E+00 -0.4747290967256E+00
 0.6663036110414E+00 -0.5314891132353E+00
 0.6758314726594E+00 -0.5327602100542E+00
 0.6843393638699E+00 -0.5330690628854E+00
 0.6917294333085E+00 -0.5324103903096E+00
 0.6979025586996E+00 -0.5307862412191E+00
 0.7027599626528E+00 -0.5282082514344E+00
 0.7062046682961E+00 -0.5247000443559E+00
 0.7081430694873E+00 -0.5202996481047E+00
 0.7084869231595E+00 -0.5150619176983E+00
 0.7071560565521E+00 -0.5090609964864E+00
 0.7040820783962E+00 -0.5023928352021E+00
 0.6992134094083E+00 -0.4951777193564E+00
 0.6925220002989E+00 -0.4875626307051E+00
 0.6840121583178E+00 -0.4797230543053E+00
 0.6737318856643E+00 -0.4718634692290E+00
 0.6617868317339E+00 -0.4642150945700E+00
 0.6483558948058E+00 -0.4570283276546E+00
 0.6337038287983E+00 -0.4505554860639E+00
 0.6181791700179E+00 -0.4450200961806E+00
 0.6727487555161E+00 -0.5116757374470E+00
 0.6817549171582E+00 -0.5116800676127E+00
 0.6897148279269E+00 -0.5107711781241E+00
 0.6965394304610E+00 -0.5089576801098E+00
 0.7021416376552E+00 -0.5062561784588E+00
 0.7064384236158E+00 -0.5026937765169E+00
 0.7093524879720E+00 -0.4983104744486E+00
 0.7108139456639E+00 -0.4931612762018E+00
 0.7107624266021E+00 -0.4873179961506E+00
 0.7091498595501E+00 -0.4808707962986E+00
 0.7059441279689E+00 -0.4739294337839E+00
 0.7011337256816E+00 -0.4666240912091E+00
 0.6947334753136E+00 -0.4591055088519E+00
 0.6867912434716E+00 -0.4515439266762E+00
 0.6773952864898E+00 -0.4441260526945E+00
 0.6666812106255E+00 -0.4370489069438E+00
 0.6548361832469E+00 -0.4305090505896E+00
 0.6420960737762E+00 -0.4246861947493E+00
 0.6287309293736E+00 -0.4197227155933E+00
 0.6784265909581E+00 -0.4926237400945E+00
 0.6869064388048E+00 -0.4915424863516E+00
 0.6943279837114E+00 -0.4896170566520E+00
 0.7006119431468E+00 -0.4868684128483E+00
 0.7056846509155E+00 -0.4833254934366E+00
 0.7094803145751E+00 -0.4790280646883E+00
 0.7119424670512E+00 -0.4740290073163E+00
 0.7130253464890E+00 -0.4683958951494E+00
 0.7126956710319E+00 -0.4622119572535E+00
 0.7109350227675E+00 -0.4555765237509E+00
 0.7077428833211E+00 -0.4486049581372E+00
 0.7031402432072E+00 -0.4414279479828E+00
 0.6971735812422E+00 -0.4341898899188E+00
 0.6899188161904E+00 -0.4270459725875E+00
 0.6814845064120E+00 -0.4201574560139E+00
 0.6720130591864E+00 -0.4136846418287E+00
 0.6616781138185E+00 -0.4077773568432E+00
 0.6506761780846E+00 -0.4025637273411E+00
 0.6392118104010E+00 -0.3981393907250E+00
 0.6834172719531E+00 -0.4744168290246E+00
 0.6913841343912E+00 -0.4724279976672E+00
 0.6982927567199E+00 -0.4696787533162E+00
 0.7040737345200E+00 -0.4661995457854E+00
 0.7086675457482E+00 -0.4620284205423E+00
 0.7120263526077E+00 -0.4572143686008E+00
 0.7141146409865E+00 -0.4518193538588E+00
 0.7149098383874E+00 -0.4459191376188E+00
 0.7144034187218E+00 -0.4396032425502E+00
 0.7126025811965E+00 -0.4329742988736E+00
 0.7095323713905E+00 -0.4261468395509E+00
 0.7052379922518E+00 -0.4192454635143E+00
 0.6997869468459E+00 -0.4124021906634E+00
 0.6932705142028E+00 -0.4057527996602E+00
 0.6858038760442E+00 -0.3994319941388E+00
 0.6775240487399E+00 -0.3935674536854E+00
 0.6685848252029E+00 -0.3882732706125E+00
 0.6591484324727E+00 -0.3836439034508E+00
 0.6493744978944E+00 -0.3797502848639E+00
 0.6878008452774E+00 -0.4571181322765E+00
 0.6952856732238E+00 -0.4543925574758E+00
 0.7017197403220E+00 -0.4509992071940E+00
 0.7070430570404E+00 -0.4469740542239E+00
 0.7112107543295E+00 -0.4423606655919E+00
 0.7141932912594E+00 -0.4372140581852E+00
 0.7159755431963E+00 -0.4316021019594E+00
 0.7165563115697E+00 -0.4256052695123E+00
 0.7159486215690E+00 -0.4193154838282E+00
 0.7141806434296E+00 -0.4128344662800E+00
 0.7112969009309E+00 -0.4062716983536E+00
 0.7073593953280E+00 -0.3997419513073E+00
 0.7024482539680E+00 -0.3933622974985E+00
 0.6966614822597E+00 -0.3872485614524E+00
 0.6901133887225E+00 -0.3815113005332E+00
 0.6829313466712E+00 -0.3762516311886E+00
 0.6752508506898E+00 -0.3715575141495E+00
 0.6672093474787E+00 -0.3675013887325E+00
 0.6589398751789E+00 -0.3641401963298E+00
 0.6916457990666E+00 -0.4407737151766E+00
 0.6986890805637E+00 -0.4374735742951E+00
 0.7046920467093E+00 -0.4336021020691E+00
 0.7096042849981E+00 -0.4291959967182E+00
 0.7133968132812E+00 -0.4243011452738E+00
 0.7160588736782E+00 -0.4189763502093E+00
 0.7175948007286E+00 -0.4132933075586E+00
 0.7180223908067E+00 -0.4073348395077E+00
 0.7173725708522E+00 -0.4011925787955E+00
 0.7156897528422E+00 -0.3949645499193E+00
 0.7130323365438E+00 -0.3887526813594E+00
 0.7094729523981E+00 -0.3826601844205E+00
 0.7050981191642E+00 -0.3767887542618E+00
 0.7000070624180E+00 -0.3712356419050E+00
 0.6943095408727E+00 -0.3660907814935E+00
 0.6881227020618E+00 -0.3614343075576E+00
 0.6815672743787E+00 -0.3573349069657E+00
 0.6747637758616E+00 -0.3538494694835E+00
 0.6678299065591E+00 -0.3510244377946E+00
 0.6950102224768E+00 -0.4254176665890E+00
 0.7016547864687E+00 -0.4216964878412E+00
 0.7072684714403E+00 -0.4174986132336E+00
 0.7118131244840E+00 -0.4128567892373E+00
 0.7152783014795E+00 -0.4078176265378E+00
 0.7176725421300E+00 -0.4024432132136E+00
 0.7190180183509E+00 -0.3968082904523E+00
 0.7193484356699E+00 -0.3909965806789E+00
 0.7187085886037E+00 -0.3850975563206E+00
 0.7171544717426E+00 -0.3792036581440E+00
 0.7147533594233E+00 -0.3734078017763E+00
 0.7115835065561E+00 -0.3678010199606E+00
 0.7077332829946E+00 -0.3624701923810E+00
 0.7032996697815E+00 -0.3574959323268E+00
 0.6983861680586E+00 -0.3529508071773E+00
 0.6931003206879E+00 -0.3488981395775E+00
 0.6875511664531E+00 -0.3453916258424E+00
 0.6818470932318E+00 -0.3424758329674E+00
 0.6760947702354E+00 -0.3401873124119E+00
 0.6979471171932E+00 -0.4110770307304E+00
 0.7042334044036E+00 -0.4070785247170E+00
 0.7094936237176E+00 -0.4026879149654E+00
 0.7137094213082E+00 -0.3979319711738E+00
 0.7168925198790E+00 -0.3928602480833E+00
 0.7190698376576E+00 -0.3875400063827E+00
 0.7202782693152E+00 -0.3820491073928E+00
 0.7205634969422E+00 -0.3764710692129E+00
 0.7199799284456E+00 -0.3708916001633E+00
 0.7185908244948E+00 -0.3653960612783E+00
 0.7164681455577E+00 -0.3600674077732E+00
 0.7136919546856E+00 -0.3549843863952E+00
 0.7103493480674E+00 -0.3502199324617E+00
 0.7065329880108E+00 -0.3458398304003E+00
 0.7023394054879E+00 -0.3419017719798E+00
 0.6978673055477E+00 -0.3384549624500E+00
 0.6932161587965E+00 -0.3355403837598E+00
 0.6884850293184E+00 -0.3331916889504E+00
 0.6837712435548E+00 -0.3314360969187E+00
 0.7005020333895E+00 -0.3977777409323E+00
 0.7064593295840E+00 -0.3936309362256E+00
 0.7113929057763E+00 -0.3891540236058E+00
 0.7153173395464E+00 -0.3843760296062E+00
 0.7182658101127E+00 -0.3793578171429E+00
 0.7202788384663E+00 -0.3741741473254E+00
 0.7214032841077E+00 -0.3689053530585E+00
 0.7216924497067E+00 -0.3636328152126E+00
 0.7212064597075E+00 -0.3584364252877E+00
 0.7200123075936E+00 -0.3533928967169E+00
 0.7181834799551E+00 -0.3485744357601E+00
 0.7157991658598E+00 -0.3440475890610E+00
 0.7129431441542E+00 -0.3398722561204E+00
 0.7097024977846E+00 -0.3361009353494E+00
 0.7061663507327E+00 -0.3327782958023E+00
 0.7024248658010E+00 -0.3299411568985E+00
 0.6985686697402E+00 -0.3276189220878E+00
 0.6946890428511E+00 -0.3258346018212E+00
 0.6908772018958E+00 -0.3246068013311E+00
 0.7026988294885E+00 -0.3855568169199E+00
 0.7083335267504E+00 -0.3813522976259E+00
 0.7129707105751E+00 -0.3768499948870E+00
 0.7166537724694E+00 -0.3721110850084E+00
 0.7194247747433E+00 -0.3672128337674E+00
 0.7213308912141E+00 -0.3622355526439E+00
 0.7224244086690E+00 -0.3572579723860E+00
 0.7227631353892E+00 -0.3523555486836E+00
 0.7224103623896E+00 -0.3475995777970E+00
 0.7214345402711E+00 -0.3430565014330E+00
 0.7199086357160E+00 -0.3387872221284E+00
 0.7179092286376E+00 -0.3348464381510E+00
 0.7155154514076E+00 -0.3312820678735E+00
 0.7128079102858E+00 -0.3281348388198E+00
 0.7098677581065E+00 -0.3254380914882E+00
 0.7067760970543E+00 -0.3232178062901E+00
 0.7036140035248E+00 -0.3214928705321E+00
 0.7004632774994E+00 -0.3202756029530E+00
 0.6974111652971E+00 -0.3195738293542E+00
</DataArray>
</PointData>
   <DataArray type="Float64" Name="Load" NumberOfComponents="1"    ComponentName0="Load" format="ascii">
 0.1334130746561E+01
 0.1216448573625E+01
 0.1071069246911E+01
 0.9695296899648E+00
 0.8647201400589E+00
 0.7596763916517E+00
 0.6516159462506E+00
 0.5400836902555E+00
 0.4244793787260E+00
 0.3043274542936E+00
 0.1790954573397E+00
 0.4816568316778E-01
 0.8921720179894E-01
 0.2339957604225E+00
 0.3873644977109E+00
 0.5508942068275E+00
 0.7267253822016E+00
 0.9180199508752E+00
 0.1129998422961E+01
 0.1370687181571E+01
 0.1643041028314E+01
 0.1938552939203E+01
 0.2244612724225E+01
 0.2551576409099E+01
 0.2854034216209E+01
 0.3149356567295E+01
 0.3435878617080E+01
 0.3711543331759E+01
 0.3972728583545E+01
 0.4213035554228E+01
 0.4426758783534E+01
 0.4617387715089E+01
 0.4793629930445E+01
 0.4962042939462E+01
 0.5129994384752E+01
 0.5304809246947E+01
 0.5507536627788E+01
 0.5710855271627E+01
 0.6130128303585E+01
 0.5466667998603E+01
 0.1093163126060E+02
 0.1035535632404E+01
 0.1059785019334E+01
 0.9421577846424E+00
 0.8378327863818E+00
 0.7388878080215E+00
 0.6375957280972E+00
 0.5335651152063E+00
 0.4257811136740E+00
 0.3137809771344E+00
 0.1970893764508E+00
 0.7521264178827E-01
 0.5244262775776E-01
 0.1865821894207E+00
 0.3281172749423E+00
 0.4781934605860E+00
 0.6383070732567E+00
 0.8104763133447E+00
 0.9975292659155E+00
 0.1202966361342E+01
 0.1429478380030E+01
 0.1676228243101E+01
 0.1937811902154E+01
 0.2206696650250E+01
 0.2476136954164E+01
 0.2741275811757E+01
 0.2998739175636E+01
 0.3245726949246E+01
 0.3479112864743E+01
 0.3694963894652E+01
 0.3889304230861E+01
 0.4059496641361E+01
 0.4204563947495E+01
 0.4324472452768E+01
 0.4418382487769E+01
 0.4481629426923E+01
 0.4505034351855E+01
 0.4456778170186E+01
 0.4311513418125E+01
 0.3788878078002E+01
 0.2935219966648E+01
 0.9458740777077E+01
 0.8218729349503E+00
 0.8700288292457E+00
 0.8031124502615E+00
 0.7070826766222E+00
 0.6133936369773E+00
 0.5170567492720E+00
 0.4172645051606E+00
 0.3135040445804E+00
 0.2053247936768E+00
 0.9234152181566E-01
 0.2596177826565E-01
 0.1499514957237E+00
 0.2804216886334E+00
 0.4181719064062E+00
 0.5642502110435E+00
 0.7199976154035E+00
 0.8871419775305E+00
 0.1067731691172E+01
 0.1263327424896E+01
 0.1473796074139E+01
 0.1696887555889E+01
 0.1928751042549E+01
 0.2164735688450E+01
 0.2400146725345E+01
 0.2630808271769E+01
 0.2853108968008E+01
 0.3063658542824E+01
 0.3258884595713E+01
 0.3435153209059E+01
 0.3589565275543E+01
 0.3719711880756E+01
 0.3822105360303E+01
 0.3891996916707E+01
 0.3922801339495E+01
 0.3903614835493E+01
 0.3813600440082E+01
 0.3620806131919E+01
 0.3261849363825E+01
 0.2642940718578E+01
 0.2848501988504E+01
 0.8809355316980E+01
 0.6485924768798E+00
 0.6913846236413E+00
 0.6553234074125E+00
 0.5760758092442E+00
 0.4889304956454E+00
 0.3980125117711E+00
 0.3028412408599E+00
 0.2033161655156E+00
 0.9918609565358E-01
 0.1032476804314E-01
 0.1242943626013E+00
 0.2443544554807E+00
 0.3707411382282E+00
 0.5041788773013E+00
 0.6455733388537E+00
 0.7960369882198E+00
 0.9568587477886E+00
 0.1129152596536E+01
 0.1312981169011E+01
 0.1506757794609E+01
 0.1707759981009E+01
 0.1913048852561E+01
 0.2119631803504E+01
 0.2324210892789E+01
 0.2523279719241E+01
 0.2713299964493E+01
 0.2890706770202E+01
 0.3051903268226E+01
 0.3193604020523E+01
 0.3313225241686E+01
 0.3407967550226E+01
 0.3472971477110E+01
 0.3501147043255E+01
 0.3483309791596E+01
 0.3406279157022E+01
 0.3251160593223E+01
 0.2994925407566E+01
 0.2617343077702E+01
 0.2298455754408E+01
 0.3494091750452E+01
 0.8206751039248E+01
 0.4986082855834E+00
 0.5287113424807E+00
 0.5079901712770E+00
 0.4446673321480E+00
 0.3658522359019E+00
 0.2806658568316E+00
 0.1903979552694E+00
 0.9533809514810E-01
 0.6422928310695E-02
 0.1097240867297E+00
 0.2198697410474E+00
 0.3356674574595E+00
 0.4575775970282E+00
 0.5862019976215E+00
 0.7222669724421E+00
 0.8665979470296E+00
 0.1019969856938E+01
 0.1182636414701E+01
 0.1353642134530E+01
 0.1530694760818E+01
 0.1711003068368E+01
 0.1892219903717E+01
 0.2072339326661E+01
 0.2249010850109E+01
 0.2419333011159E+01
 0.2580027439946E+01
 0.2727642915010E+01
 0.2858784862750E+01
 0.2970463204604E+01
 0.3060154460429E+01
 0.3124742250728E+01
 0.3158871267341E+01
 0.3154926472951E+01
 0.3103693384993E+01
 0.2994294556300E+01
 0.2816206882471E+01
 0.2568020863337E+01
 0.2306943824273E+01
 0.2408151716609E+01
 0.4069245741045E+01
 0.7699535428190E+01
 0.3637963759440E+00
 0.3803682235339E+00
 0.3657178032044E+00
 0.3145865492093E+00
 0.2444239756168E+00
 0.1652901376178E+00
 0.8015229452217E-01
 0.1217979548167E-01
 0.1063619894578E+00
 0.2069021378977E+00
 0.3126835638844E+00
 0.4239300051051E+00
 0.5409990703204E+00
 0.6643477381083E+00
 0.7944960076241E+00
 0.9319493294404E+00
 0.1076971929561E+01
 0.1229122770167E+01
 0.1386809214980E+01
 0.1547447114007E+01
 0.1708354303208E+01
 0.1867599917962E+01
 0.2023792435737E+01
 0.2175238949646E+01
 0.2319571616678E+01
 0.2453879124679E+01
 0.2575003062596E+01
 0.2679868745219E+01
 0.2765767899412E+01
 0.2830252638769E+01
 0.2870183851000E+01
 0.2880459778764E+01
 0.2854279002328E+01
 0.2784486019803E+01
 0.2665472052484E+01
 0.2498758605236E+01
 0.2312105859653E+01
 0.2233499572729E+01
 0.2702131632960E+01
 0.4461625960287E+01
 0.7290653445660E+01
 0.2397443423373E+00
 0.2439313108865E+00
 0.2301957238140E+00
 0.1874441371530E+00
 0.1251945573733E+00
 0.5238148995473E-01
 0.2926270882675E-01
 0.1144430157955E+00
 0.2054440785680E+00
 0.3015594935634E+00
 0.4027678407930E+00
 0.5092042283381E+00
 0.6211029412088E+00
 0.7387617357646E+00
 0.8624796214308E+00
 0.9924382975132E+00
 0.1128445975371E+01
 0.1269546366114E+01
 0.1413784214188E+01
 0.1558514893423E+01
 0.1701243038604E+01
 0.1840353846735E+01
 0.1974862928645E+01
 0.2103554732576E+01
 0.2224534458715E+01
 0.2335313059910E+01
 0.2433127201708E+01
 0.2515290845301E+01
 0.2579415183530E+01
 0.2623261678066E+01
 0.2644009548619E+01
 0.2637413015365E+01
 0.2598448000579E+01
 0.2523403679020E+01
 0.2413521489252E+01
 0.2284167725114E+01
 0.2191819627435E+01
 0.2308873580955E+01
 0.3022704712015E+01
 0.4710060588014E+01
 0.6964068516338E+01
 0.1238466216320E+00
 0.1173398169677E+00
 0.1017240678889E+00
 0.6432787023438E-01
 0.1100786080526E-01
 0.5963161776268E-01
 0.1345047599560E+00
 0.2156420934139E+00
 0.3021603071433E+00
 0.3937086318600E+00
 0.4901726713504E+00
 0.5915735062934E+00
 0.6980133412145E+00
 0.8096239614965E+00
 0.9264818806821E+00
 0.1048465483596E+01
 0.1175006108378E+01
 0.1304792951314E+01
 0.1435698073144E+01
 0.1565146875675E+01
 0.1690863417454E+01
 0.1811491118042E+01
 0.1926338164921E+01
 0.2034557338258E+01
 0.2134680116967E+01
 0.2224662632526E+01
 0.2302191075888E+01
 0.2365016328513E+01
 0.2411136973058E+01
 0.2438692419969E+01
 0.2445488089099E+01
 0.2428581734417E+01
 0.2385350479494E+01
 0.2316278222683E+01
 0.2230099734933E+01
 0.2155833760750E+01
 0.2172237354270E+01
 0.2461550080739E+01
 0.3309524887341E+01
 0.4862708708057E+01
 0.6701658832205E+01
 0.1548813668585E-01
 0.8614587836779E-02
 0.2009626706090E-01
 0.5472961964624E-01
 0.1054609319730E+00
 0.1676421031903E+00
 0.2379315605134E+00
 0.3145181569192E+00
 0.3964900580282E+00
 0.4833820660862E+00
 0.5749647611804E+00
 0.6711407505663E+00
 0.7718779829522E+00
 0.8771430562155E+00
 0.9868004110171E+00
 0.1100461646762E+01
 0.1217266422701E+01
 0.1335681591818E+01
 0.1453535432411E+01
 0.1568397290725E+01
 0.1678223046225E+01
 0.1781881419088E+01
 0.1878911352815E+01
 0.1968769557519E+01
 0.2050378778036E+01
 0.2122144386889E+01
 0.2182228697834E+01
 0.2228857300103E+01
 0.2260492622031E+01
 0.2275811081769E+01
 0.2273486927729E+01
 0.2252180475832E+01
 0.2212009688123E+01
 0.2157942329641E+01
 0.2106106910534E+01
 0.2097151639508E+01
 0.2221672421985E+01
 0.2643636083346E+01
 0.3548505841672E+01
 0.4954790774372E+01
 0.6488608478882E+01
 0.9043978946431E-01
 0.1139796113673E+00
 0.1355732436667E+00
 0.1687382959343E+00
 0.2154931715135E+00
 0.2731419711139E+00
 0.3389071884439E+00
 0.4110106253090E+00
 0.4884425867186E+00
 0.5706275629549E+00
 0.6572264233921E+00
 0.7480264350917E+00
 0.8428646513362E+00
 0.9415501355737E+00
 0.1043754981612E+01
 0.1148868981811E+01
 0.1255821012473E+01
 0.1362959464411E+01
 0.1468155470431E+01
 0.1569164144923E+01
 0.1664176729392E+01
 0.1752269143458E+01
 0.1833179219299E+01
 0.1906630311179E+01
 0.1971910070618E+01
 0.2027866819958E+01
 0.2073149518297E+01
 0.2106487914426E+01
 0.2126878182470E+01
 0.2133662986273E+01
 0.2126556512695E+01
 0.2105993250472E+01
 0.2074959725134E+01
 0.2042858474929E+01
 0.2032442256339E+01
 0.2092406794202E+01
 0.2313910551398E+01
 0.2828323406969E+01
 0.3742411016518E+01
 0.5009297290812E+01
 0.6313855617595E+01
 0.1902255166802E+00
 0.2201261218648E+00
 0.2454873419812E+00
 0.2782787880453E+00
 0.3220861830339E+00
 0.3757952072449E+00
 0.4373387432027E+00
 0.5051026514205E+00
 0.5780447988845E+00
 0.6555072343938E+00
 0.7370544055640E+00
 0.8223663645438E+00
 0.9111574176864E+00
 0.1003092456106E+01
 0.1097677208089E+01
 0.1194127293701E+01
 0.1291232577479E+01
 0.1387302521970E+01
 0.1480309012048E+01
 0.1568216328851E+01
 0.1649450862987E+01
 0.1723286302734E+01
 0.1789644191471E+01
 0.1848493156364E+01
 0.1899465273096E+01
 0.1941840077682E+01
 0.1974753984203E+01
 0.1997461830731E+01
 0.2009548971355E+01
 0.2011118123515E+01
 0.2003030270117E+01
 0.1987566442695E+01
 0.1970552751123E+01
 0.1965489825027E+01
 0.2000353489134E+01
 0.2127401800476E+01
 0.2429456438685E+01
 0.3002737229681E+01
 0.3898732666191E+01
 0.5040751369043E+01
 0.6169333400437E+01
 0.2862928091233E+00
 0.3214872946844E+00
 0.3503609886315E+00
 0.3834608270411E+00
 0.4251556299320E+00
 0.4755211231526E+00
 0.5331916515820E+00
 0.5968021114418E+00
 0.6653399204214E+00
 0.7380969826949E+00
 0.8145585825154E+00
 0.8943093320602E+00
 0.9769528444675E+00
 0.1062027479807E+01
 0.1148902027859E+01
 0.1236664392934E+01
 0.1324026531434E+01
 0.1409318882638E+01
 0.1490652555766E+01
 0.1566213640838E+01
 0.1634661875630E+01
 0.1695464100364E+01
 0.1748719269822E+01
 0.1794628812575E+01
 0.1833152475971E+01
 0.1863986453272E+01
 0.1886749081378E+01
 0.1901232596971E+01
 0.1907650220709E+01
 0.1906925582251E+01
 0.1901121453782E+01
 0.1894361610229E+01
 0.1895151057091E+01
 0.1920474435783E+01
 0.2001630615637E+01
 0.2190039481754E+01
 0.2555119938918E+01
 0.3161857174555E+01
 0.4025284336020E+01
 0.5058282436564E+01
 0.6049123679581E+01
 0.3790564009112E+00
 0.4186330018977E+00
 0.4507183016930E+00
 0.4845328706640E+00
 0.5247565520472E+00
 0.5723160827695E+00
 0.6264701992682E+00
 0.6861394078079E+00
 0.7503871316638E+00
 0.8184857979849E+00
 0.8898605043461E+00
 0.9640147205745E+00
 0.1040456329028E+01
 0.1118617607635E+01
 0.1197761009137E+01
 0.1276889753640E+01
 0.1354688525920E+01
 0.1429553348670E+01
 0.1499759870114E+01
 0.1563722187840E+01
 0.1620330806749E+01
 0.1669243479850E+01
 0.1710734552108E+01
 0.1745230384418E+01
 0.1773003846074E+01
 0.1794151770381E+01
 0.1808764514177E+01
 0.1817176136661E+01
 0.1820250920821E+01
 0.1819767053875E+01
 0.1819003189956E+01
 0.1823857072335E+01
 0.1845222907595E+01
 0.1902701886031E+01
 0.2028799275025E+01
 0.2270638718559E+01
 0.2682640959822E+01
 0.3304691597662E+01
 0.4128830181821E+01
 0.5067665602464E+01
 0.5948797690245E+01
 0.4688870989272E+00
 0.5120716526496E+00
 0.5470309439482E+00
 0.5817794680189E+00
 0.6210121526487E+00
 0.6662303296603E+00
 0.7172126574550E+00
 0.7731666500387E+00
 0.8332610944828E+00
 0.8967748901386E+00
 0.9630918967686E+00
 0.1031650196241E+01
 0.1101878790264E+01
 0.1173125781850E+01
 0.1244577389484E+01
 0.1315190637513E+01
 0.1383664112091E+01
 0.1448492306487E+01
 0.1508131732489E+01
 0.1561226679338E+01
 0.1606895281224E+01
 0.1644984824235E+01
 0.1675944638392E+01
 0.1700420199448E+01
 0.1718984158151E+01
 0.1732117276545E+01
 0.1740369080135E+01
 0.1744613448073E+01
 0.1746376227083E+01
 0.1748302091978E+01
 0.1754864653669E+01
 0.1773602412780E+01
 0.1817380735200E+01
 0.1907373486100E+01
 0.2075306815232E+01
 0.2361875353144E+01
 0.2807199431174E+01
 0.3432141361677E+01
 0.4214840623133E+01
 0.5072597354519E+01
 0.5864952333912E+01
 0.5560948129071E+00
 0.6022307055273E+00
 0.6397183079751E+00
 0.6754945934360E+00
 0.7140871484577E+00
 0.7573551063840E+00
 0.8054871561449E+00
 0.8579564047102E+00
 0.9140511506062E+00
 0.9730766507229E+00
 0.1034393141900E+01
 0.1097389551029E+01
 0.1161433773324E+01
 0.1225811964502E+01
 0.1289662576538E+01
 0.1351929998683E+01
 0.1411359707183E+01
 0.1466568638030E+01
 0.1516204258468E+01
 0.1559140592283E+01
 0.1594719704233E+01
 0.1622976985695E+01
 0.1644536485593E+01
 0.1660257596391E+01
 0.1671000057801E+01
 0.1677611696484E+01
 0.1681086611569E+01
 0.1682831787237E+01
 0.1685035175183E+01
 0.1691201398416E+01
 0.1706943656859E+01
 0.1741240605237E+01
 0.1808400333282E+01
 0.1930075235944E+01
 0.2135634549495E+01
 0.2458456412876E+01
 0.2926206344880E+01
 0.3545871055046E+01
 0.4287625183685E+01
 0.5075490317945E+01
 0.5794896361845E+01
 0.6409413211674E+00
 0.6894712987324E+00
 0.7291523712964E+00
 0.7659682436939E+00
 0.8041710269415E+00
 0.8458123134257E+00
 0.8913871575370E+00
 0.9405997933929E+00
 0.9928601191313E+00
 0.1047513408780E+01
 0.1103911708411E+01
 0.1161410670228E+01
 0.1219334935288E+01
 0.1276930363790E+01
 0.1333313769304E+01
 0.1387445594456E+01
 0.1438144292983E+01
 0.1484166435150E+01
 0.1524356128971E+01
 0.1557814822004E+01
 0.1584104194173E+01
 0.1603445769218E+01
 0.1616637441375E+01
 0.1624747220016E+01
 0.1628909652694E+01
 0.1630323073888E+01
 0.1630410832179E+01
 0.1631103040271E+01
 0.1635242004233E+01
 0.1647167837072E+01
 0.1673541332172E+01
 0.1724515427168E+01
 0.1815244345188E+01
 0.1966851127530E+01
 0.2205303796500E+01
 0.2556694933499E+01
 0.3038441846376E+01
 0.3647726971078E+01
 0.4350553372538E+01
 0.5077987459704E+01
 0.5736443197424E+01
 0.7236515022086E+00
 0.7741023788778E+00
 0.8156637314883E+00
 0.8534795145112E+00
 0.8914666820174E+00
 0.9317459686075E+00
 0.9750268296771E+00
 0.1021204161337E+01
 0.1069802817364E+01
 0.1120216083167E+01
 0.1171800629729E+01
 0.1223893718415E+01
 0.1275793974580E+01
 0.1326727377472E+01
 0.1375812509555E+01
 0.1422049979057E+01
 0.1464351565932E+01
 0.1501625484681E+01
 0.1532914980551E+01
 0.1557545228276E+01
 0.1575292555019E+01
 0.1586561876809E+01
 0.1592323153677E+01
 0.1593847331452E+01
 0.1592531873606E+01
 0.1589909761498E+01
 0.1587818266049E+01
 0.1588698206483E+01
 0.1596030486353E+01
 0.1614947066134E+01
 0.1653026501806E+01
 0.1721277491715E+01
 0.1835094279077E+01
 0.2014253200296E+01
 0.2280792223609E+01
 0.2654103503765E+01
 0.3143483855856E+01
 0.3739434484097E+01
 0.4406244483184E+01
 0.5081324870466E+01
 0.5687784701091E+01
 0.8044216884690E+00
 0.8563918520503E+00
 0.8995475448281E+00
 0.9382933312453E+00
 0.9761826823177E+00
 0.1015315296282E+01
 0.1056536629850E+01
 0.1099890525152E+01
 0.1145004387250E+01
 0.1191322763640E+01
 0.1238217043697E+01
 0.1285019539448E+01
 0.1331018960349E+01
 0.1375440129638E+01
 0.1417423933916E+01
 0.1456031091955E+01
 0.1490282319164E+01
 0.1519245492509E+01
 0.1542163125639E+01
 0.1558579335681E+01
 0.1568479484325E+01
 0.1572448330511E+01
 0.1571625182634E+01
 0.1567477840607E+01
 0.1561655267094E+01
 0.1556010190758E+01
 0.1552778810595E+01
 0.1554897838111E+01
 0.1566462206915E+01
 0.1593331423450E+01
 0.1643837012509E+01
 0.1729495275093E+01
 0.1865383775029E+01
 0.2069355237414E+01
 0.2359399930323E+01
 0.2749056138542E+01
 0.3241358206939E+01
 0.3822437060802E+01
 0.4456651302482E+01
 0.5086611235605E+01
 0.5647441364544E+01
 0.8834257362900E+00
 0.9365751609711E+00
 0.9810688686419E+00
 0.1020659260368E+01
 0.1058528101002E+01
 0.1096689270380E+01
 0.1136059306153E+01
 0.1176790990150E+01
 0.1218598528247E+01
 0.1260977270109E+01
 0.1303320818024E+01
 0.1344968271218E+01
 0.1385213022105E+01
 0.1423295496337E+01
 0.1458396552897E+01
 0.1489653244195E+01
 0.1516206924529E+01
 0.1537290045186E+01
 0.1552342723580E+01
 0.1561122356015E+01
 0.1563817131979E+01
 0.1561187364011E+01
 0.1554538168181E+01
 0.1545527821202E+01
 0.1536045945622E+01
 0.1528251165669E+01
 0.1524763859730E+01
 0.1528998838351E+01
 0.1545630478312E+01
 0.1581160790732E+01
 0.1644482675614E+01
 0.1747270837063E+01
 0.1903823507476E+01
 0.2129731440020E+01
 0.2439101365483E+01
 0.2840529209085E+01
 0.3332328817272E+01
 0.3897897940952E+01
 0.4502901682913E+01
 0.5095047450434E+01
 0.5614297057781E+01
 0.9608193146577E+00
 0.1014862186676E+01
 0.1060467072132E+01
 0.1100811545391E+01
 0.1138709133764E+01
 0.1176042396775E+01
 0.1213746414590E+01
 0.1252046275274E+01
 0.1290725725689E+01
 0.1329327735645E+01
 0.1367273279863E+01
 0.1403918167177E+01
 0.1438573354119E+01
 0.1470509524838E+01
 0.1498962418545E+01
 0.1523158361460E+01
 0.1542367829255E+01
 0.1555990315283E+01
 0.1563660485131E+01
 0.1565342640703E+01
 0.1561421077342E+01
 0.1552826765899E+01
 0.1541026445713E+01
 0.1527862343007E+01
 0.1515454529079E+01
 0.1506254601327E+01
 0.1503252165231E+01
 0.1510318438562E+01
 0.1532661805814E+01
 0.1577323311021E+01
 0.1653551357162E+01
 0.1772856380437E+01
 0.1948411712422E+01
 0.2193410649850E+01
 0.2518404410731E+01
 0.2927917762886E+01
 0.3416760672866E+01
 0.3966810431271E+01
 0.4545364619378E+01
 0.5107031432596E+01
 0.5588235399185E+01
 0.1036734324353E+01
 0.1091411337545E+01
 0.1137910719279E+01
 0.1178902360510E+01
 0.1216841070026E+01
 0.1253448124154E+01
 0.1289635869142E+01
 0.1325669835744E+01
 0.1361386328471E+01
 0.1396371349384E+01
 0.1430076815563E+01
 0.1461883739908E+01
 0.1491132030635E+01
 0.1517135382735E+01
 0.1539196811693E+01
 0.1556641867576E+01
 0.1568875603318E+01
 0.1575464446117E+01
 0.1576232566653E+01
 0.1571343114686E+01
 0.1561368215911E+01
 0.1547402848984E+01
 0.1531069265086E+01
 0.1514385386565E+01
 0.1499690034032E+01
 0.1489712883070E+01
 0.1487793704093E+01
 0.1498229755768E+01
 0.1526703028043E+01
 0.1580672707433E+01
 0.1669535488710E+01
 0.1804366086515E+01
 0.1996997682508E+01
 0.2258261654270E+01
 0.2595583135254E+01
 0.3010214050418E+01
 0.3494441914255E+01
 0.4029385421290E+01
 0.4584424228984E+01
 0.5118865835768E+01
 0.5581545113460E+01
 0.1111310113150E+01
 0.1166397464889E+01
 0.1213604454412E+01
 0.1255142770727E+01
 0.1293124020526E+01
 0.1329088390982E+01
 0.1363893384678E+01
 0.1397817497061E+01
 0.1430733286521E+01
 0.1462264062170E+01
 0.1491894586768E+01
 0.1519037818993E+01
 0.1543072129722E+01
 0.1563364814337E+01
 0.1579296086290E+01
 0.1590298095809E+01
 0.1595913674676E+01
 0.1595874526862E+01
 0.1590188478578E+01
 0.1579209102028E+01
 0.1563687795658E+01
 0.1544876674518E+01
 0.1524547285687E+01
 0.1504885274727E+01
 0.1488437215947E+01
 0.1478196441615E+01
 0.1477832622017E+01
 0.1492034079526E+01
 0.1526888041603E+01
 0.1590146302922E+01
 0.1691163854956E+01
 0.1840371219686E+01
 0.2048154087513E+01
 0.2323116474479E+01
 0.2669994897218E+01
 0.3087446652270E+01
 0.3565968012490E+01
 0.4086484838572E+01
 0.4620342028017E+01
 0.5131117031273E+01
 0.5579289553215E+01
 0.1184668714087E+01
 0.1240003821825E+01
 0.1287778446373E+01
 0.1329793233428E+01
 0.1367832913272E+01
 0.1403244071740E+01
 0.1436804155692E+01
 0.1468780909649E+01
 0.1499067584432E+01
 0.1527318065890E+01
 0.1553050144172E+01
 0.1575713503544E+01
 0.1594732383146E+01
 0.1609536011422E+01
 0.1619589395471E+01
 0.1624436535181E+01
 0.1623759696366E+01
 0.1617453519512E+01
 0.1605703815335E+01
 0.1589046938752E+01
 0.1568406100878E+01
 0.1545184835138E+01
 0.1521299006702E+01
 0.1499095727729E+01
 0.1481320660168E+01
 0.1471218782295E+01
 0.1472770761337E+01
 0.1491020354241E+01
 0.1532390415286E+01
 0.1604805560105E+01
 0.1717416611494E+01
 0.1879861448096E+01
 0.2101046492185E+01
 0.2387523073827E+01
 0.2741733380263E+01
 0.3160277906692E+01
 0.3632408314272E+01
 0.4139190025870E+01
 0.4653900201703E+01
 0.5144043878724E+01
 0.5576819718286E+01
 0.1256922271143E+01
 0.1312373996549E+01
 0.1360601788603E+01
 0.1403034573096E+01
 0.1441147162365E+01
 0.1476085768673E+01
 0.1508528690083E+01
 0.1538713155536E+01
 0.1566539030700E+01
 0.1591683879089E+01
 0.1613697702091E+01
 0.1632070318745E+01
 0.1646277648507E+01
 0.1655817403649E+01
 0.1660245088888E+01
 0.1659219993389E+01
 0.1652563997359E+01
 0.1640331369224E+01
 0.1622879738810E+01
 0.1600920400475E+01
 0.1575540878175E+01
 0.1548290359572E+01
 0.1521223984040E+01
 0.1496844120571E+01
 0.1478086872123E+01
 0.1468436182954E+01
 0.1472162485547E+01
 0.1494625140065E+01
 0.1542509913431E+01
 0.1623801359497E+01
 0.1747313396320E+01
 0.1921799194965E+01
 0.2154716065877E+01
 0.2450765836100E+01
 0.2810456922632E+01
 0.3228778456181E+01
 0.3694148536333E+01
 0.4188009899172E+01
 0.4685501895568E+01
 0.5157679198434E+01
 0.5576527620201E+01
 0.1328175610013E+01
 0.1383641531515E+01
 0.1432231832159E+01
 0.1475037124976E+01
 0.1513238887613E+01
 0.1547780229636E+01
 0.1579226137375E+01
 0.1607767094256E+01
 0.1633297119313E+01
 0.1655510694269E+01
 0.1673988493006E+01
 0.1688262702602E+01
 0.1697865294345E+01
 0.1702367400731E+01
 0.1701419051813E+01
 0.1694796708184E+01
 0.1682460810546E+01
 0.1664621156321E+01
 0.1641800641424E+01
 0.1614877531891E+01
 0.1585096184896E+01
 0.1554145695405E+01
 0.1524215390394E+01
 0.1497956639572E+01
 0.1478487105649E+01
 0.1469516028878E+01
 0.1475580064307E+01
 0.1502311377495E+01
 0.1556586327513E+01
 0.1646348739346E+01
 0.1779975220384E+01
 0.1965290960563E+01
 0.2208377008430E+01
 0.2512296778665E+01
 0.2875945362257E+01
 0.3293063608790E+01
 0.3751549489926E+01
 0.4233378877198E+01
 0.4715483529859E+01
 0.5172026872521E+01
 0.5578483349405E+01
 0.1398527330071E+01
 0.1453931188853E+01
 0.1502815716007E+01
 0.1545961684491E+01
 0.1584273016095E+01
 0.1618489757715E+01
 0.1649053326300E+01
 0.1676094321211E+01
 0.1699490082985E+01
 0.1718945606924E+01
 0.1734070213861E+01
 0.1744439712062E+01
 0.1749645224929E+01
 0.1749334804913E+01
 0.1743255564611E+01
 0.1731301682085E+01
 0.1713570069588E+01
 0.1690421306885E+01
 0.1662536702113E+01
 0.1630953460702E+01
 0.1597065359308E+01
 0.1562695701487E+01
 0.1530162860581E+01
 0.1502260792874E+01
 0.1482279385963E+01
 0.1474138344038E+01
 0.1482615015906E+01
 0.1513570186763E+01
 0.1574002193626E+01
 0.1671729328603E+01
 0.1814622277138E+01
 0.2009574461554E+01
 0.2261390209054E+01
 0.2571700576793E+01
 0.2938066068397E+01
 0.3353273274086E+01
 0.3804935456906E+01
 0.4275659739005E+01
 0.4744064128207E+01
 0.5186940490893E+01
 0.5582458520254E+01
 0.1468070625051E+01
 0.1523360090794E+01
 0.1572491602963E+01
 0.1615960381317E+01
 0.1654407504166E+01
 0.1688371848215E+01
 0.1718164049510E+01
 0.1743844337942E+01
 0.1765264113686E+01
 0.1782132978888E+01
 0.1794086587419E+01
 0.1800744830584E+01
 0.1801759988160E+01
 0.1796859275036E+01
 0.1785888166046E+01
 0.1768857960350E+01
 0.1745999083370E+01
 0.1717817617909E+01
 0.1685146197986E+01
 0.1649172915917E+01
 0.1611433647186E+01
 0.1573880259052E+01
 0.1538954939788E+01
 0.1509587549905E+01
 0.1489230256920E+01
 0.1481997225762E+01
 0.1492879559308E+01
 0.1527922794347E+01
 0.1594185110365E+01
 0.1699292237319E+01
 0.1850569401781E+01
 0.2054004565820E+01
 0.2313239325574E+01
 0.2628665755146E+01
 0.2996748701469E+01
 0.3409556363798E+01
 0.3854590979520E+01
 0.4315140232980E+01
 0.4771361977616E+01
 0.5202248931513E+01
 0.5588157733365E+01
 0.1536893934173E+01
 0.1592038675032E+01
 0.1641389723941E+01
 0.1685177467175E+01
 0.1723793632754E+01
 0.1757578996651E+01
 0.1786708547947E+01
 0.1811163904109E+01
 0.1830762731626E+01
 0.1845213920816E+01
 0.1854177021556E+01
 0.1857315855898E+01
 0.1854344941847E+01
 0.1845071817114E+01
 0.1829440499371E+01
 0.1807577839150E+01
 0.1779844085221E+01
 0.1746885103920E+01
 0.1709677588744E+01
 0.1669552475672E+01
 0.1628180521435E+01
 0.1587636552672E+01
 0.1550481204106E+01
 0.1519773198218E+01
 0.1499116348188E+01
 0.1492802247110E+01
 0.1506008137603E+01
 0.1544922385788E+01
 0.1616609382787E+01
 0.1728453423672E+01
 0.1887219850030E+01
 0.2098039103874E+01
 0.2363509675277E+01
 0.2682961456421E+01
 0.3051966088376E+01
 0.3462060567498E+01
 0.3900760037438E+01
 0.4352040906782E+01
 0.4797437188093E+01
 0.5217788647697E+01
 0.5595279709351E+01
 0.1605081475109E+01
 0.1660071486040E+01
 0.1709633261448E+01
 0.1753750017448E+01
 0.1792576329611E+01
 0.1826258616681E+01
 0.1854833134380E+01
 0.1878196518609E+01
 0.1896126256315E+01
 0.1908325848824E+01
 0.1914476319249E+01
 0.1914284817266E+01
 0.1907528425538E+01
 0.1894095249681E+01
 0.1874027094615E+01
 0.1847563966189E+01
 0.1815191630063E+01
 0.1777689649967E+01
 0.1736171370625E+01
 0.1692102553698E+01
 0.1647281718115E+01
 0.1603901060607E+01
 0.1564634109417E+01
 0.1532660985085E+01
 0.1511725822756E+01
 0.1506279841553E+01
 0.1521658931614E+01
 0.1564155702191E+01
 0.1640796850431E+01
 0.1758693724361E+01
 0.1924058041170E+01
 0.2141225239645E+01
 0.2411869996332E+01
 0.2734418790540E+01
 0.3103719946862E+01
 0.3510925856905E+01
 0.3943648201650E+01
 0.4386530049884E+01
 0.4822318199693E+01
 0.5233410116354E+01
 0.5603539284693E+01
 0.1672713688956E+01
 0.1727557839028E+01
 0.1777339108747E+01
 0.1821808567906E+01
 0.1860894515137E+01
 0.1894553053976E+01
 0.1922679945888E+01
 0.1945082029066E+01
 0.1961491387754E+01
 0.1971602128266E+01
 0.1975114453461E+01
 0.1971777935546E+01
 0.1961431950109E+01
 0.1944044656211E+01
 0.1919754101308E+01
 0.1888910351394E+01
 0.1852119861030E+01
 0.1810289496147E+01
 0.1764661728498E+01
 0.1716829156848E+01
 0.1668711026361E+01
 0.1622611298209E+01
 0.1581310617222E+01
 0.1548102590240E+01
 0.1526859731209E+01
 0.1522174648107E+01
 0.1539515273158E+01
 0.1585244262190E+01
 0.1666316909131E+01
 0.1789555880606E+01
 0.1960641885750E+01
 0.2183186911662E+01
 0.2458057015323E+01
 0.2782916065719E+01
 0.3152030442404E+01
 0.3556280841275E+01
 0.3983427236667E+01
 0.4418737337086E+01
 0.4846016154349E+01
 0.5248978897386E+01
 0.5612676715059E+01
 0.1739867619447E+01
 0.1794592384107E+01
 0.1844618528275E+01
 0.1889477694471E+01
 0.1928881458891E+01
 0.1962599669723E+01
 0.1990386796515E+01
 0.2011956344331E+01
 0.2026990876659E+01
 0.2035171785997E+01
 0.2036216388633E+01
 0.2029915607305E+01
 0.2016170386382E+01
 0.1995027807564E+01
 0.1966719958335E+01
 0.1931703279850E+01
 0.1890699644179E+01
 0.1844736559184E+01
 0.1795177998759E+01
 0.1743735434127E+01
 0.1692441860983E+01
 0.1643707350941E+01
 0.1600413638055E+01
 0.1565959465040E+01
 0.1544333285627E+01
 0.1540250787572E+01
 0.1559286886420E+01
 0.1607845155278E+01
 0.1692785819918E+01
 0.1820640894075E+01
 0.1996595149073E+01
 0.2223613575508E+01
 0.2501862562129E+01
 0.2828367187830E+01
 0.3196928656074E+01
 0.3598241202706E+01
 0.4020240344385E+01
 0.4448764209119E+01
 0.4868532939261E+01
 0.5264375963887E+01
 0.5622462116357E+01
 0.1806617242841E+01
 0.1861265595785E+01
 0.1911577734022E+01
 0.1956876550609E+01
 0.1996665147479E+01
 0.2030530984829E+01
 0.2058087119098E+01
 0.2078951242036E+01
 0.2092753280061E+01
 0.2099159290741E+01
 0.2097901950219E+01
 0.2088812415247E+01
 0.2071852156036E+01
 0.2047145559627E+01
 0.2015016009203E+01
 0.1976022139338E+01
 0.1930995588184E+01
 0.1881077612567E+01
 0.1827745969301E+01
 0.1772823048434E+01
 0.1718448653859E+01
 0.1667133236578E+01
 0.1621853331104E+01
 0.1586104066729E+01
 0.1563977059201E+01
 0.1560293045235E+01
 0.1580710919222E+01
 0.1631651420507E+01
 0.1719865466219E+01
 0.1851604042144E+01
 0.2031600194842E+01
 0.2262250354155E+01
 0.2543122959725E+01
 0.2870712642372E+01
 0.3238451277600E+01
 0.3636909447153E+01
 0.4054207036808E+01
 0.4476691409458E+01
 0.4889866113165E+01
 0.5279498218404E+01
 0.5632697399397E+01
 0.1873033760525E+01
 0.1927664204018E+01
 0.1978318411853E+01
 0.2024119366147E+01
 0.2064368653946E+01
 0.2098474863842E+01
 0.2125909969733E+01
 0.2146194243530E+01
 0.2158902775379E+01
 0.2163684375559E+01
 0.2160285716625E+01
 0.2148577139724E+01
 0.2128579400586E+01
 0.2100492204148E+01
 0.2064727044266E+01
 0.2021940148667E+01
 0.1973066940530E+01
 0.1919355322407E+01
 0.1862389019527E+01
 0.1804093379812E+01
 0.1746708077958E+01
 0.1692838113107E+01
 0.1645548274048E+01
 0.1608420991119E+01
 0.1585638095296E+01
 0.1582107924036E+01
 0.1603552733110E+01
 0.1656392041930E+01
 0.1747261708851E+01
 0.1882150792161E+01
 0.2065391290125E+01
 0.2298889544228E+01
 0.2581710340848E+01
 0.2909912499153E+01
 0.3276636890223E+01
 0.3672375317945E+01
 0.4085427239103E+01
 0.4502584415187E+01
 0.4910012220379E+01
 0.5294259084054E+01
 0.5643216971822E+01
 0.1939185865043E+01
 0.1993871581942E+01
 0.2044938192852E+01
 0.2091315915901E+01
 0.2132110507229E+01
 0.2166554728543E+01
 0.2193980080069E+01
 0.2213808540202E+01
 0.2225559017686E+01
 0.2228861888230E+01
 0.2223476920400E+01
 0.2209312759087E+01
 0.2186448117502E+01
 0.2155155763840E+01
 0.2115931763870E+01
 0.2069524984249E+01
 0.2016968361437E+01
 0.1959609144137E+01
 0.1899129109384E+01
 0.1837548572726E+01
 0.1777200119087E+01
 0.1720777347515E+01
 0.1671426514034E+01
 0.1632808004410E+01
 0.1609180912938E+01
 0.1605524548552E+01
 0.1627606454283E+01
 0.1681831630343E+01
 0.1774722500980E+01
 0.1912032818423E+01
 0.2097748591165E+01
 0.2333363400229E+01
 0.2617525598334E+01
 0.2945941008145E+01
 0.3311523379323E+01
 0.3704716480101E+01
 0.4113984588369E+01
 0.4526497389230E+01
 0.4928969161763E+01
 0.5308589031768E+01
 0.5653887706153E+01
 0.2005139988057E+01
 0.2059968104497E+01
 0.2111531095511E+01
 0.2158571970450E+01
 0.2200005067397E+01
 0.2234889800848E+01
 0.2262417953620E+01
 0.2281912966720E+01
 0.2292837036774E+01
 0.2294801667909E+01
 0.2287579358754E+01
 0.2271116440677E+01
 0.2245548267138E+01
 0.2211218237707E+01
 0.2168703170939E+01
 0.2118839316239E+01
 0.2062750589628E+01
 0.2001876096779E+01
 0.1937987636485E+01
 0.1873192448240E+01
 0.1809909016817E+01
 0.1750913465277E+01
 0.1699426514450E+01
 0.1659176980320E+01
 0.1634488406903E+01
 0.1630395421329E+01
 0.1652695317155E+01
 0.1707769885281E+01
 0.1802035921674E+01
 0.1941044286576E+01
 0.2128492882642E+01
 0.2365538108291E+01
 0.2650492725781E+01
 0.2978782454786E+01
 0.3343146134140E+01
 0.3733999268080E+01
 0.4139949026804E+01
 0.4548476088408E+01
 0.4946737935424E+01
 0.5322435945960E+01
 0.5664608451195E+01
 0.2070960537033E+01
 0.2126031486821E+01
 0.2178187945364E+01
 0.2225989733013E+01
 0.2268162903237E+01
 0.2303595363992E+01
 0.2331339989378E+01
 0.2350622001227E+01
 0.2360847152698E+01
 0.2361608426489E+01
 0.2352691292227E+01
 0.2334079502127E+01
 0.2305963831507E+01
 0.2268755779521E+01
 0.2223108878406E+01
 0.2169941242475E+01
 0.2110460991171E+01
 0.2046191408942E+01
 0.1978986158149E+01
 0.1911031279979E+01
 0.1844824074310E+01
 0.1783216978968E+01
 0.1729497992018E+01
 0.1687454731389E+01
 0.1661462628445E+01
 0.1656597026737E+01
 0.1678671826422E+01
 0.1734040911689E+01
 0.1829028238373E+01
 0.1969018494826E+01
 0.2157481066278E+01
 0.2395308813555E+01
 0.2680554299170E+01
 0.3008427971587E+01
 0.3371536766849E+01
 0.3760279352429E+01
 0.4163378772078E+01
 0.4568559977768E+01
 0.4963323875290E+01
 0.5335765275073E+01
 0.5675309235704E+01
 0.2136710127800E+01
 0.2192137113958E+01
 0.2244996785904E+01
 0.2293668275067E+01
 0.2336691180988E+01
 0.2372783046456E+01
 0.2400858634058E+01
 0.2420045792554E+01
 0.2429694910248E+01
 0.2429381636513E+01
 0.2418905335281E+01
 0.2398287348892E+01
 0.2367772833141E+01
 0.2327838820141E+01
 0.2279211344666E+01
 0.2222884635763E+01
 0.2160144009015E+01
 0.2092589055885E+01
 0.2022146998904E+01
 0.1951074454899E+01
 0.1881940357429E+01
 0.1817667114293E+01
 0.1761602659003E+01
 0.1717583746170E+01
 0.1690025460180E+01
 0.1684030309803E+01
 0.1705417795737E+01
 0.1760512488149E+01
 0.1855562114775E+01
 0.1995824959574E+01
 0.2184602406881E+01
 0.2422595610616E+01
 0.2707667931974E+01
 0.3034873111815E+01
 0.3396722194317E+01
 0.3783602283354E+01
 0.4184321774722E+01
 0.4586783735048E+01
 0.4978737480395E+01
 0.5348559957398E+01
 0.5685950332492E+01
 0.2202449817890E+01
 0.2258358369613E+01
 0.2312043289352E+01
 0.2361703977223E+01
 0.2405694066195E+01
 0.2442561125266E+01
 0.2471082555049E+01
 0.2490290203634E+01
 0.2499481020325E+01
 0.2498215413726E+01
 0.2486308327833E+01
 0.2463819378515E+01
 0.2431047306317E+01
 0.2388532127962E+01
 0.2337068033436E+01
 0.2277719402945E+01
 0.2211841513527E+01
 0.2141102189456E+01
 0.2067493746261E+01
 0.1993335021941E+01
 0.1921259285486E+01
 0.1854252434066E+01
 0.1795714868696E+01
 0.1749522829354E+01
 0.1720119186307E+01
 0.1712621045275E+01
 0.1732844303060E+01
 0.1787085351758E+01
 0.1881535032660E+01
 0.2021366978258E+01
 0.2209775499226E+01
 0.2447340384140E+01
 0.2731803537293E+01
 0.3058116008004E+01
 0.3418723947624E+01
 0.3804003868020E+01
 0.4202816721915E+01
 0.4603178243496E+01
 0.4992994872717E+01
 0.5360820140214E+01
 0.5696521153532E+01
 0.2268239346296E+01
 0.2324766970444E+01
 0.2379411173900E+01
 0.2430190979366E+01
 0.2475273137700E+01
 0.2513034841608E+01
 0.2542116821515E+01
 0.2561456854541E+01
 0.2570301289331E+01
 0.2568198374553E+01
 0.2554981168251E+01
 0.2530748833039E+01
 0.2495853203441E+01
 0.2450894791933E+01
 0.2396731484207E+01
 0.2334491643678E+01
 0.2265593043546E+01
 0.2191763451699E+01
 0.2115051626406E+01
 0.2037830120518E+01
 0.1962789105240E+01
 0.1892971350859E+01
 0.1831822154249E+01
 0.1783247636386E+01
 0.1751706956336E+01
 0.1742320109507E+01
 0.1760891595692E+01
 0.1813692548739E+01
 0.1906877972468E+01
 0.2045579680536E+01
 0.2232945912032E+01
 0.2469504400748E+01
 0.2752941263339E+01
 0.3078155980967E+01
 0.3437557613780E+01
 0.3821510355538E+01
 0.4218893629480E+01
 0.4617771133602E+01
 0.5006117915100E+01
 0.5372562688513E+01
 0.5707039070395E+01
 0.2334137384927E+01
 0.2391433315083E+01
 0.2447182638985E+01
 0.2499221651668E+01
 0.2545527823007E+01
 0.2584306734509E+01
 0.2614063096116E+01
 0.2633643165633E+01
 0.2642246536700E+01
 0.2639413469559E+01
 0.2624998610691E+01
 0.2599142604669E+01
 0.2562250243935E+01
 0.2514980136553E+01
 0.2458249304524E+01
 0.2393243721553E+01
 0.2321435951440E+01
 0.2244605185935E+01
 0.2164847773305E+01
 0.2084581301392E+01
 0.2006545259270E+01
 0.1933832538030E+01
 0.1869925670032E+01
 0.1818751113918E+01
 0.1784773160716E+01
 0.1773103686465E+01
 0.1789528991904E+01
 0.1840298907207E+01
 0.1931554401723E+01
 0.2068428589276E+01
 0.2254084490807E+01
 0.2489066597053E+01
 0.2771070026667E+01
 0.3094992528142E+01
 0.3453232369745E+01
 0.3836138438318E+01
 0.4232574071924E+01
 0.4630586931994E+01
 0.5018134023301E+01
 0.5383820516602E+01
 0.5717548179527E+01
 0.2400201807049E+01
 0.2458426855185E+01
 0.2515438827034E+01
 0.2568887093607E+01
 0.2616555858463E+01
 0.2656476990962E+01
 0.2687019830904E+01
 0.2706942390890E+01
 0.2715402488910E+01
 0.2711937781149E+01
 0.2696429015977E+01
 0.2669060985414E+01
 0.2630291698095E+01
 0.2580835563029E+01
 0.2521664079763E+01
 0.2454014244425E+01
 0.2379405449876E+01
 0.2299659543381E+01
 0.2216911389157E+01
 0.2133614737300E+01
 0.2052550645257E+01
 0.1976855235033E+01
 0.1910040532080E+01
 0.1856043845904E+01
 0.1819323725227E+01
 0.1804973425225E+01
 0.1818754806811E+01
 0.1866900662790E+01
 0.1955559591880E+01
 0.2089908688764E+01
 0.2273186288100E+01
 0.2506022507705E+01
 0.2786186574850E+01
 0.3108624628552E+01
 0.3465750569685E+01
 0.3847895064456E+01
 0.4243871072421E+01
 0.4641646845023E+01
 0.5029075691232E+01
 0.5394641757895E+01
 0.5728118035742E+01
 0.2466489978329E+01
 0.2525816496815E+01
 0.2584260321651E+01
 0.2639277670200E+01
 0.2688453780093E+01
 0.2729643813519E+01
 0.2761082463802E+01
 0.2781443634657E+01
 0.2789849641942E+01
 0.2785842277792E+01
 0.2769334049766E+01
 0.2740557356353E+01
 0.2700024103509E+01
 0.2648502315922E+01
 0.2587013201131E+01
 0.2516837955693E+01
 0.2439534562606E+01
 0.2356958487638E+01
 0.2271273798019E+01
 0.2184961324232E+01
 0.2100835766054E+01
 0.2022069446404E+01
 0.1952196057918E+01
 0.1895154309042E+01
 0.1855386334280E+01
 0.1837956567313E+01
 0.1848596327058E+01
 0.1893525261123E+01
 0.1978920277960E+01
 0.2110043998307E+01
 0.2290270102095E+01
 0.2520383801270E+01
 0.2798295041230E+01
 0.3119050332239E+01
 0.3475107368758E+01
 0.3856777064634E+01
 0.4252788671099E+01
 0.4650968197980E+01
 0.5038979745773E+01
 0.5405088789861E+01
 0.5738842379163E+01
 0.2533059076555E+01
 0.2593671041132E+01
 0.2653727692970E+01
 0.2710483595293E+01
 0.2761317451191E+01
 0.2803903806210E+01
 0.2836343611505E+01
 0.2857231844301E+01
 0.2865663083449E+01
 0.2861191516651E+01
 0.2843768321515E+01
 0.2813677812115E+01
 0.2771486911605E+01
 0.2718015174490E+01
 0.2654328612381E+01
 0.2581745537837E+01
 0.2501853980863E+01
 0.2416533698460E+01
 0.2327968393338E+01
 0.2238656673040E+01
 0.2151438769156E+01
 0.2069516032591E+01
 0.1996435904984E+01
 0.1936129040066E+01
 0.1893010591079E+01
 0.1872106057671E+01
 0.1879109850868E+01
 0.1920231350590E+01
 0.2001694665793E+01
 0.2128887646323E+01
 0.2305378611534E+01
 0.2532178408486E+01
 0.2807406976262E+01
 0.3126266622421E+01
 0.3481290379152E+01
 0.3862770598207E+01
 0.4259321182076E+01
 0.4658563540667E+01
 0.5047886340765E+01
 0.5415237128676E+01
 0.5749837876783E+01
 0.2599966446762E+01
 0.2662059674058E+01
 0.2723922101613E+01
 0.2782595572005E+01
 0.2835242632260E+01
 0.2879352378158E+01
 0.2912893252488E+01
 0.2934387768768E+01
 0.2942912263387E+01
 0.2938043284083E+01
 0.2919778955562E+01
 0.2888460713975E+01
 0.2844712059601E+01
 0.2789402065472E+01
 0.2723636472940E+01
 0.2648763326456E+01
 0.2566391823749E+01
 0.2478416372797E+01
 0.2387030476495E+01
 0.2294740987296E+01
 0.2204405370377E+01
 0.2119246686962E+01
 0.2042818102963E+01
 0.1979032713143E+01
 0.1932268117365E+01
 0.1907500645907E+01
 0.1910380800487E+01
 0.1947108967703E+01
 0.2023972782665E+01
 0.2146522437498E+01
 0.2318579102209E+01
 0.2541451243962E+01
 0.2813541861365E+01
 0.3130269558348E+01
 0.3484279366356E+01
 0.3865850425112E+01
 0.4263452143511E+01
 0.4664439421194E+01
 0.5055837692945E+01
 0.5425174203328E+01
 0.5761242900460E+01
 0.2667269999558E+01
 0.2731052516358E+01
 0.2794925974846E+01
 0.2855705502476E+01
 0.2910325600294E+01
 0.2956084165006E+01
 0.2990818894141E+01
 0.3012987873519E+01
 0.3021660702916E+01
 0.3016448165246E+01
 0.2997405088000E+01
 0.2964936167771E+01
 0.2919723466151E+01
 0.2862683597064E+01
 0.2794956738136E+01
 0.2717912935902E+01
 0.2633173303663E+01
 0.2542636923623E+01
 0.2448496985894E+01
 0.2353258825585E+01
 0.2259788658553E+01
 0.2171323795111E+01
 0.2091414976716E+01
 0.2023948126284E+01
 0.1973252594894E+01
 0.1944244982133E+01
 0.1942523909642E+01
 0.1974279911999E+01
 0.2045877163077E+01
 0.2163061907086E+01
 0.2329964790691E+01
 0.2548265541722E+01
 0.2816728135299E+01
 0.3131054729321E+01
 0.3484046008485E+01
 0.3865979015123E+01
 0.4265152961935E+01
 0.4668594823814E+01
 0.5062876557575E+01
 0.5434998016781E+01
 0.5773216364928E+01
 0.2735028661702E+01
 0.2800721247550E+01
 0.2866823770762E+01
 0.2929907280748E+01
 0.2986663824904E+01
 0.3034193467577E+01
 0.3070205716698E+01
 0.3093104201010E+01
 0.3101965630609E+01
 0.3096449034085E+01
 0.3076677283716E+01
 0.3043125423960E+01
 0.2996536450197E+01
 0.2937872514985E+01
 0.2868302658155E+01
 0.2789210798448E+01
 0.2702220298561E+01
 0.2609224577793E+01
 0.2512406116721E+01
 0.2414258746853E+01
 0.2317648778333E+01
 0.2225820172373E+01
 0.2142312955635E+01
 0.2070976093873E+01
 0.2016079747726E+01
 0.1982469707052E+01
 0.1975683482467E+01
 0.2001898300193E+01
 0.2067563855112E+01
 0.2178651854691E+01
 0.2339656757580E+01
 0.2552704841007E+01
 0.2817004784874E+01
 0.3128618071072E+01
 0.3480553754953E+01
 0.3863105509197E+01
 0.4264381247058E+01
 0.4671019258338E+01
 0.5069044433897E+01
 0.5444815697323E+01
 0.5785936647084E+01
 0.2803302889533E+01
 0.2871139818800E+01
 0.2939702847879E+01
 0.3005297682829E+01
 0.3064356706837E+01
 0.3113774703037E+01
 0.3151136681094E+01
 0.3174804159902E+01
 0.3183877529308E+01
 0.3178080449673E+01
 0.3157616863004E+01
 0.3123040192098E+01
 0.3075157067187E+01
 0.3014973075711E+01
 0.2943680191018E+01
 0.2862667612080E+01
 0.2773550825688E+01
 0.2678206866691E+01
 0.2578796823901E+01
 0.2477792829654E+01
 0.2378052480049E+01
 0.2282818667013E+01
 0.2195612256249E+01
 0.2120235232632E+01
 0.2060887253735E+01
 0.2022331524648E+01
 0.2010033708663E+01
 0.2030151277627E+01
 0.2089223722487E+01
 0.2193472343965E+01
 0.2347806505901E+01
 0.2554875673758E+01
 0.2814423575418E+01
 0.3122957120330E+01
 0.3473757838136E+01
 0.3857164553578E+01
 0.4261078829271E+01
 0.4671690479990E+01
 0.5074379481540E+01
 0.5454741934142E+01
 0.5799600605864E+01
 0.2872155258588E+01
 0.2942385275487E+01
 0.3013654464894E+01
 0.3081977375770E+01
 0.3143506391770E+01
 0.3194922870963E+01
 0.3233692595871E+01
 0.3258150236331E+01
 0.3267439589931E+01
 0.3261367960827E+01
 0.3240235145582E+01
 0.3204681882438E+01
 0.3155581378645E+01
 0.3093980354779E+01
 0.3021087348595E+01
 0.2938287716545E+01
 0.2847178436702E+01
 0.2749609029524E+01
 0.2647708227305E+01
 0.2543916082873E+01
 0.2441072552165E+01
 0.2342411642318E+01
 0.2251426449246E+01
 0.2171861650722E+01
 0.2107834593776E+01
 0.2064013263223E+01
 0.2045779034278E+01
 0.2059259876384E+01
 0.2111084024857E+01
 0.2207740160519E+01
 0.2354599170050E+01
 0.2554911023763E+01
 0.2809052022668E+01
 0.3114072810063E+01
 0.3463605510219E+01
 0.3848075033196E+01
 0.4255169448257E+01
 0.4670571812958E+01
 0.5078914128182E+01
 0.5464897293153E+01
 0.5814422734489E+01
 0.2941651144378E+01
 0.3014538710508E+01
 0.3088774933293E+01
 0.3160052061179E+01
 0.3224218660014E+01
 0.3277734018959E+01
 0.3317952116573E+01
 0.3343199596588E+01
 0.3352687043368E+01
 0.3346327294680E+01
 0.3324532592309E+01
 0.3288040757967E+01
 0.3237794639557E+01
 0.3174879474342E+01
 0.3100513458734E+01
 0.3016068379538E+01
 0.2923111514927E+01
 0.2823453308751E+01
 0.2719178897228E+01
 0.2612685723880E+01
 0.2506787109760E+01
 0.2404700308319E+01
 0.2309881879220E+01
 0.2226008506502E+01
 0.2157102803981E+01
 0.2107723888955E+01
 0.2083154548571E+01
 0.2089479973568E+01
 0.2133410226121E+01
 0.2221711692776E+01
 0.2360257385177E+01
 0.2552974631168E+01
 0.2800977230271E+01
 0.3101971938938E+01
 0.3450036602225E+01
 0.3835738738820E+01
 0.4246556091560E+01
 0.4667609032929E+01
 0.5082672325667E+01
 0.5475406389758E+01
 0.5830634415324E+01
 0.3011859513933E+01
 0.3087686376391E+01
 0.3165166953845E+01
 0.3239633775397E+01
 0.3306603896673E+01
 0.3362305694221E+01
 0.3403991652836E+01
 0.3430003554451E+01
 0.3439646348558E+01
 0.3432963414890E+01
 0.3410497837104E+01
 0.3373094993804E+01
 0.3321770402285E+01
 0.3257644748601E+01
 0.3181938341263E+01
 0.3095998989797E+01
 0.3001352470792E+01
 0.2899758133092E+01
 0.2793246014538E+01
 0.2684160316865E+01
 0.2575278729300E+01
 0.2469793890306E+01
 0.2371116920918E+01
 0.2282845417641E+01
 0.2208894109418E+01
 0.2153698447966E+01
 0.2122426358899E+01
 0.2121103313966E+01
 0.2156507988415E+01
 0.2235686205745E+01
 0.2365045836834E+01
 0.2549266241793E+01
 0.2790310762547E+01
 0.3086670504505E+01
 0.3432984551705E+01
 0.3820039031712E+01
 0.4235117971480E+01
 0.4662726767448E+01
 0.5085666425652E+01
 0.5486395885155E+01
 0.5848483329650E+01
 0.3082853852107E+01
 0.3161920993097E+01
 0.3242941178291E+01
 0.3320842377153E+01
 0.3390778152047E+01
 0.3448737370714E+01
 0.3491885162756E+01
 0.3518606884541E+01
 0.3528334227803E+01
 0.3521269452539E+01
 0.3498106622325E+01
 0.3459809663795E+01
 0.3407469559976E+01
 0.3342238770825E+01
 0.3265331421237E+01
 0.3178060180132E+01
 0.3081896858474E+01
 0.2978537211214E+01
 0.2869944428224E+01
 0.2758398792523E+01
 0.2646633447919E+01
 0.2537808647975E+01
 0.2435281080202E+01
 0.2342557722351E+01
 0.2263431434362E+01
 0.2202197925792E+01
 0.2163891934712E+01
 0.2154458565681E+01
 0.2180725305619E+01
 0.2250009463498E+01
 0.2369276493157E+01
 0.2544027895612E+01
 0.2777194739553E+01
 0.3068198122363E+01
 0.3412378073114E+01
 0.3800839571999E+01
 0.4220707104499E+01
 0.4655824347661E+01
 0.5087893634387E+01
 0.5497992282484E+01
 0.5868232953759E+01
 0.3154713252390E+01
 0.3237343293518E+01
 0.3322218039645E+01
 0.3403807247631E+01
 0.3476864286002E+01
 0.3537130817465E+01
 0.3581703786006E+01
 0.3609046934376E+01
 0.3618756512384E+01
 0.3611225484980E+01
 0.3587320621996E+01
 0.3548135643122E+01
 0.3494839318483E+01
 0.3428611428640E+01
 0.3350650762938E+01
 0.3262222861228E+01
 0.3164732392942E+01
 0.3059798514466E+01
 0.2949305587860E+01
 0.2835459325069E+01
 0.2720939600440E+01
 0.2608866714205E+01
 0.2502533903193E+01
 0.2405345549886E+01
 0.2320957740373E+01
 0.2253508971078E+01
 0.2207880364010E+01
 0.2189912345428E+01
 0.2206454701824E+01
 0.2265077627817E+01
 0.2373314499918E+01
 0.2537551352744E+01
 0.2761809387100E+01
 0.3046603833210E+01
 0.3388143727552E+01
 0.3777983225637E+01
 0.4203144458240E+01
 0.4646771028710E+01
 0.5089332020341E+01
 0.5510319473448E+01
 0.5890162054547E+01
 0.3227523710638E+01
 0.3314063863779E+01
 0.3403129911382E+01
 0.3488669240536E+01
 0.3564993196465E+01
 0.3627590377164E+01
 0.3673515273944E+01
 0.3701352501679E+01
 0.3710906783354E+01
 0.3702797166318E+01
 0.3678086170341E+01
 0.3638008451661E+01
 0.3583812123552E+01
 0.3516698873128E+01
 0.3437842048036E+01
 0.3348447188127E+01
 0.3249837889225E+01
 0.3143543171382E+01
 0.3031356374646E+01
 0.2915398089997E+01
 0.2798286515308E+01
 0.2683094770118E+01
 0.2573043703065E+01
 0.2471422700203E+01
 0.2381735181317E+01
 0.2307943462816E+01
 0.2254752493080E+01
 0.2227870172454E+01
 0.2234135432852E+01
 0.2281341355189E+01
 0.2377584697721E+01
 0.2530186742686E+01
 0.2744382298969E+01
 0.3021963664787E+01
 0.3360209723930E+01
 0.3751291301201E+01
 0.4182215600659E+01
 0.4635400452943E+01
 0.5089936079544E+01
 0.5523496032285E+01
 0.5914563994291E+01
 0.3301379670038E+01
 0.3392205348201E+01
 0.3485823665080E+01
 0.3575582917343E+01
 0.3655305115714E+01
 0.3720223099147E+01
 0.3767383149051E+01
 0.3795542421745E+01
 0.3804764775449E+01
 0.3795934199173E+01
 0.3770332899440E+01
 0.3729347047812E+01
 0.3674304552525E+01
 0.3606422447033E+01
 0.3526837498329E+01
 0.3436681456206E+01
 0.3337182119252E+01
 0.3229764269677E+01
 0.3116117827638E+01
 0.2998267899254E+01
 0.2878763064303E+01
 0.2760622546726E+01
 0.2646986087072E+01
 0.2541015304422E+01
 0.2446044034235E+01
 0.2365837868453E+01
 0.2304900888863E+01
 0.2268777282029E+01
 0.2264255602338E+01
 0.2299309979647E+01
 0.2382578674870E+01
 0.2522352492167E+01
 0.2725199694279E+01
 0.2994390409853E+01
 0.3328511411883E+01
 0.3720563352417E+01
 0.4157665754571E+01
 0.4621504136044E+01
 0.5089631915714E+01
 0.5537632307701E+01
 0.5941745402508E+01
 0.3376385879880E+01
 0.3471905106575E+01
 0.3570463709080E+01
 0.3664719100051E+01
 0.3747950937121E+01
 0.3815138639950E+01
 0.3863365496096E+01
 0.3891623786418E+01
 0.3900294495367E+01
 0.3890568624112E+01
 0.3863972276810E+01
 0.3822052567512E+01
 0.3766216161715E+01
 0.3697687555663E+01
 0.3617554718386E+01
 0.3526860895397E+01
 0.3426722551511E+01
 0.3318445530371E+01
 0.3203603730565E+01
 0.3084116679525E+01
 0.2962456030206E+01
 0.2841581113163E+01
 0.2724542236017E+01
 0.2614360206468E+01
 0.2514181331740E+01
 0.2427552305115E+01
 0.2358749528747E+01
 0.2313119200077E+01
 0.2297354080794E+01
 0.2319555641052E+01
 0.2388862226134E+01
 0.2514546554332E+01
 0.2704619988537E+01
 0.2964046213998E+01
 0.3292999132422E+01
 0.3685577963369E+01
 0.4129194152153E+01
 0.4604823589299E+01
 0.5088312172063E+01
 0.5552827656304E+01
 0.5972022994778E+01
 0.3452659651137E+01
 0.3553318442214E+01
 0.3657235619712E+01
 0.3756267787096E+01
 0.3843093530891E+01
 0.3912448836359E+01
 0.3961513289661E+01
 0.3989589734954E+01
 0.3997442039026E+01
 0.3986612946267E+01
 0.3958896082261E+01
 0.3916007054551E+01
 0.3859428333664E+01
 0.3790382518286E+01
 0.3709895488520E+01
 0.3618906387850E+01
 0.3518403997424E+01
 0.3409559880212E+01
 0.3293819089465E+01
 0.3172985827324E+01
 0.3049448327073E+01
 0.2926100983142E+01
 0.2805896959261E+01
 0.2691703073571E+01
 0.2586459181838E+01
 0.2493469265693E+01
 0.2416753160143E+01
 0.2361422008471E+01
 0.2334022134685E+01
 0.2342717213477E+01
 0.2397083035383E+01
 0.2507358878444E+01
 0.2683089967852E+01
 0.2931158640391E+01
 0.3253649277007E+01
 0.3646095171588E+01
 0.4096447562798E+01
 0.4585040254074E+01
 0.5085830932921E+01
 0.5569168870106E+01
 0.6005715809501E+01
 0.3530333618406E+01
 0.3636622549357E+01
 0.3746350495809E+01
 0.3850441467159E+01
 0.3940908964179E+01
 0.4012266801487E+01
 0.4061868116552E+01
 0.4089416725229E+01
 0.4096133071079E+01
 0.4083958101010E+01
 0.4054974844284E+01
 0.4011072205362E+01
 0.3953803140697E+01
 0.3884377404833E+01
 0.3803744500462E+01
 0.3712723091637E+01
 0.3612157142323E+01
 0.3503067900971E+01
 0.3386758483532E+01
 0.3264908427294E+01
 0.3139817061443E+01
 0.3014310025928E+01
 0.2891236503509E+01
 0.2773296197595E+01
 0.2663202712199E+01
 0.2563991917508E+01
 0.2479396213520E+01
 0.2414252173321E+01
 0.2374904625533E+01
 0.2369503842927E+01
 0.2407978324681E+01
 0.2501484950007E+01
 0.2661163812117E+01
 0.2896041019906E+01
 0.3210479604018E+01
 0.3601861731133E+01
 0.4059013066470E+01
 0.4561761546438E+01
 0.5081998509549E+01
 0.5586733236489E+01
 0.6043124667466E+01
 0.3609559160290E+01
 0.3722021375961E+01
 0.3838050211801E+01
 0.3947478877598E+01
 0.4041587517072E+01
 0.4114705371296E+01
 0.4164459152739E+01
 0.4191061223106E+01
 0.4196269979853E+01
 0.4182471320826E+01
 0.4152056320894E+01
 0.4107088218131E+01
 0.4049182309656E+01
 0.3979522932950E+01
 0.3898968100051E+01
 0.3808199027322E+01
 0.3707897016959E+01
 0.3598916217822E+01
 0.3482404362290E+01
 0.3359907418354E+01
 0.3233631528238E+01
 0.3106331279818E+01
 0.2980746209467E+01
 0.2859396065700E+01
 0.2744747687902E+01
 0.2639541981903E+01
 0.2547191236227E+01
 0.2472215875827E+01
 0.2420700696118E+01
 0.2400697945699E+01
 0.2422382185444E+01
 0.2497740119038E+01
 0.2639525058261E+01
 0.2859118028496E+01
 0.3163570033291E+01
 0.3552620510805E+01
 0.4016412339100E+01
 0.4534497689496E+01
 0.5076576171123E+01
 0.5605605766006E+01
 0.6084471457742E+01
 0.3690510695113E+01
 0.3809751615198E+01
 0.3932613776604E+01
 0.4047649206563E+01
 0.4145334268935E+01
 0.4219874608873E+01
 0.4269299151007E+01
 0.4294455667530E+01
 0.4297728649921E+01
 0.4281993891124E+01
 0.4249964025206E+01
 0.4203872739567E+01
 0.4145386264006E+01
 0.4075649379141E+01
 0.3995412966620E+01
 0.3905203536101E+01
 0.3805521305121E+01
 0.3697035719245E+01
 0.3580725185927E+01
 0.3457993611412E+01
 0.3330951051407E+01
 0.3202280580770E+01
 0.3074607924145E+01
 0.2950260591574E+01
 0.2831437662457E+01
 0.2720557010165E+01
 0.2620676617569E+01
 0.2535957592489E+01
 0.2472163694416E+01
 0.2437157392588E+01
 0.2441232199487E+01
 0.2497074217385E+01
 0.2619011551939E+01
 0.2820957152321E+01
 0.3113091803243E+01
 0.3498123005205E+01
 0.3968104646707E+01
 0.4502628047827E+01
 0.5069238012534E+01
 0.5625994390703E+01
 0.6129639046247E+01
 0.3773391229622E+01
 0.3900089926827E+01
 0.4030365222265E+01
 0.4151256653523E+01
 0.4252368968419E+01
 0.4327878009107E+01
 0.4376379184114E+01
 0.4399503604273E+01
 0.4400354853431E+01
 0.4382338848031E+01
 0.4348495860522E+01
 0.4301219965894E+01
 0.4242213282798E+01
 0.4172565521209E+01
 0.4092904721406E+01
 0.4003585579715E+01
 0.3904908444631E+01
 0.3797339565425E+01
 0.3681673377578E+01
 0.3559163541047E+01
 0.3431822667250E+01
 0.3302264014760E+01
 0.3172997178688E+01
 0.3046146003449E+01
 0.2923620624095E+01
 0.2807486962402E+01
 0.2700413445056E+01
 0.2606157715300E+01
 0.2530100115271E+01
 0.2479816643502E+01
 0.2465574956179E+01
 0.2500585895096E+01
 0.2600642898100E+01
 0.2782307719514E+01
 0.3059344578206E+01
 0.3438157590060E+01
 0.3913466255044E+01
 0.4465457237774E+01
 0.5059296789667E+01
 0.5648695018091E+01
 0.6177314933348E+01
 0.3858445718362E+01
 0.3993396751632E+01
 0.4131744377529E+01
 0.4258736741720E+01
 0.4363046580028E+01
 0.4438956834966E+01
 0.4485836770230E+01
 0.4506271011483E+01
 0.4504177775871E+01
 0.4483525899532E+01
 0.4447680341434E+01
 0.4399178956060E+01
 0.4339741504494E+01
 0.4270386521219E+01
 0.4191604175794E+01
 0.4103560778714E+01
 0.4006337407464E+01
 0.3900176798211E+01
 0.3785672759389E+01
 0.3663919685794E+01
 0.3536832222363E+01
 0.3406957241806E+01
 0.3276687036701E+01
 0.3147929760385E+01
 0.3022282978010E+01
 0.2901428012508E+01
 0.2787604060951E+01
 0.2684116389206E+01
 0.2595894293703E+01
 0.2530122774532E+01
 0.2496880645759E+01
 0.2509684993758E+01
 0.2585608235022E+01
 0.2743904479974E+01
 0.3002391166075E+01
 0.3372053407694E+01
 0.3851316016485E+01
 0.4421674236848E+01
 0.5046268734686E+01
 0.5672420409263E+01
 0.6237410098749E+01
 0.3945952301579E+01
 0.4090060754136E+01
 0.4237194931385E+01
 0.4370479615882E+01
 0.4477613260496E+01
 0.4553185388795E+01
 0.4597599744391E+01
 0.4614586478893E+01
 0.4608970799686E+01
 0.4585303926480E+01
 0.4547259528413E+01
 0.4497494040872E+01
 0.4437722759583E+01
 0.4368876602106E+01
 0.4291294378246E+01
 0.4204939118683E+01
 0.4109653656203E+01
 0.4005435767786E+01
 0.3892660400161E+01
 0.3772253281623E+01
 0.3646032137027E+01
 0.3516483791680E+01
 0.3385884676051E+01
 0.3255916553723E+01
 0.3127840985645E+01
 0.3002921824968E+01
 0.2882929286970E+01
 0.2770667535952E+01
 0.2670547304607E+01
 0.2589256106423E+01
 0.2536508682111E+01
 0.2525866761717E+01
 0.2575397286188E+01
 0.2706956987034E+01
 0.2942820818085E+01
 0.3299564173154E+01
 0.3780639117067E+01
 0.4369993619074E+01
 0.5028913150114E+01
 0.5698008616280E+01
 0.6307720302815E+01
 0.4036243057146E+01
 0.4190522089484E+01
 0.4347189778877E+01
 0.4486845208845E+01
 0.4596209720681E+01
 0.4670467232375E+01
 0.4711381321292E+01
 0.4724038470116E+01
 0.4714251522686E+01
 0.4687152772996E+01
 0.4646691143498E+01
 0.4595605822487E+01
 0.4535581115817E+01
 0.4467443927776E+01
 0.4391370822440E+01
 0.4307109816922E+01
 0.4214248429083E+01
 0.4112517950028E+01
 0.4002055238993E+01
 0.3883608140949E+01
 0.3758900903014E+01
 0.3630370563370E+01
 0.3500183277821E+01
 0.3369787343519E+01
 0.3240088435705E+01
 0.3111904485917E+01
 0.2986502747720E+01
 0.2866144484435E+01
 0.2754661777392E+01
 0.2658144560751E+01
 0.2585766499701E+01
 0.2550838790563E+01
 0.2572031596934E+01
 0.2673518838150E+01
 0.2882255545805E+01
 0.3221436570166E+01
 0.3701179590670E+01
 0.4309432423529E+01
 0.5006316804863E+01
 0.5725324582937E+01
 0.6385362895836E+01
 0.4129724146347E+01
 0.4295349644403E+01
 0.4462352571009E+01
 0.4608327325719E+01
 0.4719081001570E+01
 0.4790796894722E+01
 0.4826996746393E+01
 0.4834345219646E+01
 0.4819701034009E+01
 0.4788748708868E+01
 0.4745659067440E+01
 0.4693207673930E+01
 0.4633017955661E+01
 0.4565797786420E+01
 0.4491554578582E+01
 0.4409813920421E+01
 0.4319893307464E+01
 0.4221235262933E+01
 0.4113716684497E+01
 0.3997896676153E+01
 0.3875410604836E+01
 0.3748659141606E+01
 0.3619706872608E+01
 0.3489763480344E+01
 0.3359360287958E+01
 0.3228843124856E+01
 0.3098946166628E+01
 0.2971351184956E+01
 0.2849257343243E+01
 0.2738062530712E+01
 0.2646224270920E+01
 0.2586488944342E+01
 0.2577651822795E+01
 0.2645715496599E+01
 0.2822289916078E+01
 0.3138185203988E+01
 0.3612182148298E+01
 0.4238411059380E+01
 0.4977095678635E+01
 0.5753694455308E+01
 0.6471609331046E+01
 0.4226892597909E+01
 0.4405239247523E+01
 0.4583425358005E+01
 0.4735474016461E+01
 0.4846451129263E+01
 0.4914101570205E+01
 0.4944183075620E+01
 0.4945157346252E+01
 0.4924949646079E+01
 0.4889731848280E+01
 0.4843820625171E+01
 0.4789970928444E+01
 0.4729712917416E+01
 0.4663623024207E+01
 0.4591538174073E+01
 0.4512760280077E+01
 0.4426326004091E+01
 0.4331366507965E+01
 0.4227473420499E+01
 0.4115003411318E+01
 0.3995508016573E+01
 0.3871367998275E+01
 0.3744558156213E+01
 0.3616046257715E+01
 0.3485972528624E+01
 0.3354187959932E+01
 0.3220869604343E+01
 0.3087091418504E+01
 0.2955374633304E+01
 0.2830339834076E+01
 0.2719560885891E+01
 0.2634898939315E+01
 0.2594729432188E+01
 0.2626180849037E+01
 0.2765136652851E+01
 0.3050821834966E+01
 0.3513024787710E+01
 0.4155080028163E+01
 0.4939328343276E+01
 0.5782406331973E+01
 0.6567743869919E+01
 0.4328364010838E+01
 0.4521051053731E+01
 0.4711293316497E+01
 0.4868883605157E+01
 0.4978498261821E+01
 0.5040213488617E+01
 0.5062579906821E+01
 0.5056048404761E+01
 0.5029574241775E+01
 0.4989707052829E+01
 0.4940808921498E+01
 0.4885547426922E+01
 0.4825325854152E+01
 0.4760580754750E+01
 0.4690984546535E+01
 0.4615622639970E+01
 0.4533246089348E+01
 0.4442652681048E+01
 0.4343119194197E+01
 0.4234781701206E+01
 0.4119112253738E+01
 0.3998490726636E+01
 0.3874816628338E+01
 0.3748813983394E+01
 0.3620217093842E+01
 0.3488364149455E+01
 0.3352859727111E+01
 0.3214153690965E+01
 0.3074058098427E+01
 0.2936344851956E+01
 0.2807549907939E+01
 0.2698335621288E+01
 0.2626074361416E+01
 0.2618120546078E+01
 0.2713793838702E+01
 0.2961092977335E+01
 0.3403387845720E+01
 0.4057293512155E+01
 0.4890501778966E+01
 0.5810458178970E+01
 0.6675365844595E+01
 0.4434911434420E+01
 0.4643859842298E+01
 0.4847013519449E+01
 0.5009191811916E+01
 0.5115317024477E+01
 0.5168833965945E+01
 0.5181707581812E+01
 0.5166506155167E+01
 0.5133097250233E+01
 0.5088246365943E+01
 0.5036236425518E+01
 0.4979573107546E+01
 0.4919499696263E+01
 0.4856309782099E+01
 0.4789526335714E+01
 0.4718036493125E+01
 0.4640309908128E+01
 0.4554791183824E+01
 0.4460407641272E+01
 0.4357049960460E+01
 0.4246112547040E+01
 0.4129994952680E+01
 0.4010537712517E+01
 0.3888219956394E+01
 0.3762357235575E+01
 0.3631763285988E+01
 0.3495466571144E+01
 0.3353293051514E+01
 0.3206333811947E+01
 0.3057460837315E+01
 0.2912037830532E+01
 0.2779233759495E+01
 0.2674829318411E+01
 0.2625357470165E+01
 0.2672225519051E+01
 0.2871802569025E+01
 0.3283531934456E+01
 0.3942661461226E+01
 0.4827343721380E+01
 0.5836469445766E+01
 0.6796480432804E+01
 0.4547520896166E+01
 0.4775023855986E+01
 0.4991846543949E+01
 0.5157043361420E+01
 0.5256862714292E+01
 0.5299487909962E+01
 0.5300943947943E+01
 0.5275925835317E+01
 0.5234988021927E+01
 0.5184893337343E+01
 0.5129699969786E+01
 0.5071672753940E+01
 0.5011864368426E+01
 0.4950428949937E+01
 0.4886765728510E+01
 0.4819595779863E+01
 0.4747124511551E+01
 0.4667428543437E+01
 0.4579045716594E+01
 0.4481587128224E+01
 0.4376366141842E+01
 0.4265822205774E+01
 0.4151753307231E+01
 0.4034391813467E+01
 0.3912623708866E+01
 0.3784734822041E+01
 0.3649189020911E+01
 0.3505209877427E+01
 0.3353181770385E+01
 0.3195053857604E+01
 0.3034911883604E+01
 0.2880167660934E+01
 0.2744448551351E+01
 0.2652349016874E+01
 0.2645533701691E+01
 0.2787229930137E+01
 0.3154755826139E+01
 0.3808697049898E+01
 0.4745623776380E+01
 0.5858451257575E+01
 0.6933635562671E+01
 0.4667472542199E+01
 0.4916280127943E+01
 0.5147287421462E+01
 0.5313037136557E+01
 0.5402870481009E+01
 0.5431468457554E+01
 0.5419501925847E+01
 0.5383607230287E+01
 0.5334667454811E+01
 0.5279169561104E+01
 0.5220787284043E+01
 0.5161465981554E+01
 0.5102041903966E+01
 0.5042540677577E+01
 0.4982275177987E+01
 0.4919849610453E+01
 0.4853240434951E+01
 0.4780151116865E+01
 0.4698685092599E+01
 0.4608126929218E+01
 0.4509696288713E+01
 0.4405889126834E+01
 0.4298474378592E+01
 0.4187432844225E+01
 0.4071212229884E+01
 0.3947577759862E+01
 0.3814459326502E+01
 0.3670525922101E+01
 0.3515502594073E+01
 0.3350431075001E+01
 0.3178054074980E+01
 0.3003807086506E+01
 0.2838658366340E+01
 0.2704168230331E+01
 0.2640086951654E+01
 0.2713633484057E+01
 0.3020118249552E+01
 0.3653165488114E+01
 0.4639892598788E+01
 0.5873437822987E+01
 0.7090133845764E+01
 0.4796462354482E+01
 0.5069877746957E+01
 0.5315087292601E+01
 0.5477627033617E+01
 0.5552741248031E+01
 0.5563773548594E+01
 0.5536411804571E+01
 0.5488757780025E+01
 0.5431516677716E+01
 0.5370583650073E+01
 0.5309085096566E+01
 0.5248574466071E+01
 0.5189652850757E+01
 0.5132235964318E+01
 0.5075599436771E+01
 0.5018299345370E+01
 0.4958143178272E+01
 0.4892473054391E+01
 0.4818910537895E+01
 0.4736350182667E+01
 0.4645890170498E+01
 0.4550090475237E+01
 0.4450696372021E+01
 0.4347425979576E+01
 0.4238282634923E+01
 0.4120532847045E+01
 0.3991626960560E+01
 0.3849758114311E+01
 0.3694079000420E+01
 0.3524788628680E+01
 0.3343278003719E+01
 0.3152850678783E+01
 0.2961393648583E+01
 0.2786444834034E+01
 0.2663564946585E+01
 0.2659781523091E+01
 0.2885530890385E+01
 0.3474816761687E+01
 0.4503201539202E+01
 0.5876894326179E+01
 0.7270351837115E+01
 0.4936790231303E+01
 0.5238765343533E+01
 0.5497246321245E+01
 0.5650949944732E+01
 0.5705386333140E+01
 0.5695040611383E+01
 0.5650514413501E+01
 0.5590504235427E+01
 0.5524890477752E+01
 0.5458642820875E+01
 0.5394188831005E+01
 0.5332630430833E+01
 0.5274324104361E+01
 0.5219101276560E+01
 0.5166259651997E+01
 0.5114396799650E+01
 0.5061243561280E+01
 0.5003820784998E+01
 0.4939224030579E+01
 0.4865874218767E+01
 0.4784696757720E+01
 0.4698304905736E+01
 0.4608408889779E+01
 0.4514441754445E+01
 0.4413960600418E+01
 0.4303775855465E+01
 0.4180942547561E+01
 0.4043291351205E+01
 0.3889533658930E+01
 0.3719150051516E+01
 0.3532246362819E+01
 0.3329928989382E+01
 0.3116699154808E+01
 0.2905263617668E+01
 0.2724888604455E+01
 0.2637379013872E+01
 0.2761299678319E+01
 0.3274851110885E+01
 0.4326932219273E+01
 0.5861746103494E+01
 0.7480218935433E+01
 0.5091660514896E+01
 0.5426854764615E+01
 0.5695935603499E+01
 0.5832536154248E+01
 0.5859027128629E+01
 0.5823493106245E+01
 0.5760473297271E+01
 0.5687914814025E+01
 0.5614135660254E+01
 0.5542866966677E+01
 0.5475713666012E+01
 0.5413286153215E+01
 0.5355698031561E+01
 0.5302727512099E+01
 0.5253760264528E+01
 0.5207544564107E+01
 0.5161867216191E+01
 0.5113512796310E+01
 0.5059022321464E+01
 0.4996237391207E+01
 0.4925823975374E+01
 0.4850404375797E+01
 0.4771611097103E+01
 0.4688551315800E+01
 0.4598342186482E+01
 0.4497411660060E+01
 0.4382541736323E+01
 0.4251351005624E+01
 0.4102285149569E+01
 0.3934297066575E+01
 0.3746368413223E+01
 0.3537468762735E+01
 0.3308576615664E+01
 0.3067007525313E+01
 0.2834032740559E+01
 0.2661199409250E+01
 0.2664022110587E+01
 0.3059731762401E+01
 0.4101102778647E+01
 0.5816771533223E+01
 0.7727931480381E+01
 0.5265680930563E+01
 0.5639386836141E+01
 0.5913257988509E+01
 0.6020836226244E+01
 0.6010961647821E+01
 0.5946924725310E+01
 0.5864814589110E+01
 0.5780032472482E+01
 0.5698614187439E+01
 0.5622804981540E+01
 0.5553306660554E+01
 0.5490224219854E+01
 0.5433442680730E+01
 0.5382721190524E+01
 0.5337599722740E+01
 0.5297100228853E+01
 0.5259244324282E+01
 0.5220733506007E+01
 0.5177564731230E+01
 0.5126875673795E+01
 0.5068934437628E+01
 0.5006268843296E+01
 0.4940335360642E+01
 0.4869846246281E+01
 0.4791501702502E+01
 0.4701468749252E+01
 0.4596428790962E+01
 0.4473976232643E+01
 0.4332504989006E+01
 0.4170697043107E+01
 0.3986680459765E+01
 0.3777513691207E+01
 0.3540754863353E+01
 0.3278110095428E+01
 0.3001733732621E+01
 0.2748776717403E+01
 0.2618309427875E+01
 0.2846265517266E+01
 0.3816136410692E+01
 0.5723979782192E+01
 0.8024990767222E+01
 0.5465728352216E+01
 0.5883416072715E+01
 0.6150656375360E+01
 0.6212479185654E+01
 0.6157349373429E+01
 0.6062761512165E+01
 0.5961999106995E+01
 0.5865917890456E+01
 0.5777730810697E+01
 0.5698052906860E+01
 0.5626659593513E+01
 0.5563168260402E+01
 0.5507262793375E+01
 0.5458717836663E+01
 0.5417286151505E+01
 0.5382387379840E+01
 0.5352502277874E+01
 0.5324500408139E+01
 0.5293926511059E+01
 0.5257086564394E+01
 0.5213638783893E+01
 0.5165809274873E+01
 0.5114683240601E+01
 0.5058467949868E+01
 0.4993503714969E+01
 0.4915893675363E+01
 0.4822459402913E+01
 0.4710995402413E+01
 0.4580080110616E+01
 0.4428434298166E+01
 0.4253717406334E+01
 0.4051503997633E+01
 0.3816364187634E+01
 0.3544658370521E+01
 0.3239055966403E+01
 0.2919711463074E+01
 0.2657226479029E+01
 0.2669660113652E+01
 0.3468668184617E+01
 0.5554584241501E+01
 0.8387606675475E+01
 0.5702531360686E+01
 0.6168368320688E+01
 0.6407562214168E+01
 0.6401193266506E+01
 0.6293152470891E+01
 0.6168246629632E+01
 0.6050518362500E+01
 0.5944699998321E+01
 0.5850964674673E+01
 0.5768272885162E+01
 0.5695521980388E+01
 0.5631893671923E+01
 0.5576911013418E+01
 0.5530396866644E+01
 0.5492358493362E+01
 0.5462717107717E+01
 0.5440666337875E+01
 0.5423624455864E+01
 0.5406930170149E+01
 0.5385971577476E+01
 0.5359484497448E+01
 0.5329003534666E+01
 0.5294879530424E+01
 0.5254649599684E+01
 0.5204419343355E+01
 0.5140543688424E+01
 0.5060320458995E+01
 0.4962003620033E+01
 0.4844585536394E+01
 0.4707154600955E+01
 0.4547387929446E+01
 0.4360026987656E+01
 0.4137508855844E+01
 0.3871786725540E+01
 0.3556670595681E+01
 0.3194736367042E+01
 0.2820610029734E+01
 0.2592573929775E+01
 0.3077871646087E+01
 0.5263940244638E+01
 0.8838207851346E+01
 0.5993751734144E+01
 0.6506357473245E+01
 0.6678422955432E+01
 0.6576498492807E+01
 0.6412525166937E+01
 0.6260747559110E+01
 0.6128989807429E+01
 0.6015636562256E+01
 0.5917902605278E+01
 0.5833211769940E+01
 0.5759713834702E+01
 0.5696237829282E+01
 0.5642198740876E+01
 0.5597496797391E+01
 0.5562412443999E+01
 0.5537424543957E+01
 0.5522678191169E+01
 0.5516667089549E+01
 0.5515043210850E+01
 0.5512342034807E+01
 0.5505937187370E+01
 0.5495953811862E+01
 0.5481353520820E+01
 0.5458774715957E+01
 0.5424347102963E+01
 0.5375175563708E+01
 0.5309503225123E+01
 0.5226341017889E+01
 0.5125273377293E+01
 0.5006036717097E+01
 0.4866870335907E+01
 0.4702563252507E+01
 0.4504757223099E+01
 0.4262828539173E+01
 0.3963666747649E+01
 0.3594219468414E+01
 0.3152282924689E+01
 0.2706641221641E+01
 0.2725806403261E+01
 0.4790220072670E+01
 0.9405786530372E+01
 0.6370485410950E+01
 0.6910873032461E+01
 0.6946368798699E+01
 0.6723039530993E+01
 0.6510068853580E+01
 0.6338015646606E+01
 0.6196250246542E+01
 0.6078189438997E+01
 0.5978266856787E+01
 0.5892719768816E+01
 0.5819137015885E+01
 0.5756109216288E+01
 0.5703005947768E+01
 0.5659829163185E+01
 0.5627127746404E+01
 0.5605923108650E+01
 0.5597449738433E+01
 0.5601906094010E+01
 0.5616223735746E+01
 0.5634558700747E+01
 0.5652349330424E+01
 0.5666981206705E+01
 0.5674860560108E+01
 0.5671455686731E+01
 0.5653436841330E+01
 0.5619427352643E+01
 0.5569262937884E+01
 0.5503065126343E+01
 0.5421083329065E+01
 0.5323809497308E+01
 0.5210549203405E+01
 0.5077251534236E+01
 0.4916618810005E+01
 0.4718220559338E+01
 0.4465841645616E+01
 0.4135304963969E+01
 0.3696607474652E+01
 0.3121498610335E+01
 0.2624873130498E+01
 0.4083329626452E+01
 0.1012056196421E+02
 0.6892543808065E+01
 0.7387847644569E+01
 0.7170811130771E+01
 0.6823956785542E+01
 0.6582695601813E+01
 0.6398042385478E+01
 0.6251587281942E+01
 0.6132063810071E+01
 0.6031944616519E+01
 0.5946766458164E+01
 0.5873784518633E+01
 0.5811495044077E+01
 0.5759289267328E+01
 0.5717290387603E+01
 0.5686290781030E+01
 0.5667770898013E+01
 0.5663979357666E+01
 0.5677347451636E+01
 0.5707685548849E+01
 0.5750245829313E+01
 0.5797911687925E+01
 0.5842789200308E+01
 0.5876663177912E+01
 0.5893634544072E+01
 0.5891913813249E+01
 0.5872791203165E+01
 0.5838557029933E+01
 0.5790901284281E+01
 0.5730679730962E+01
 0.5658844830801E+01
 0.5576022081553E+01
 0.5480680531924E+01
 0.5369095814180E+01
 0.5234384040159E+01
 0.5063165942882E+01
 0.4828365212488E+01
 0.4488117572506E+01
 0.3959087071398E+01
 0.3116253812216E+01
 0.3298089925698E+01
 0.1099514809524E+02
 0.7690496081869E+01
 0.7890036685933E+01
 0.7272842307165E+01
 0.6876658975948E+01
 0.6627528678862E+01
 0.6439672868446E+01
 0.6294875753749E+01
 0.6177221085893E+01
 0.6079024645966E+01
 0.5995448126818E+01
 0.5923749141065E+01
 0.5862466461074E+01
 0.5811087889490E+01
 0.5769871327976E+01
 0.5739809918547E+01
 0.5722722191680E+01
 0.5721554909871E+01
 0.5740890822220E+01
 0.5785542601793E+01
 0.5855744053473E+01
 0.5941595524819E+01
 0.6024760776620E+01
 0.6088795581068E+01
 0.6126706342688E+01
 0.6140096720553E+01
 0.6134578298119E+01
 0.6115961869189E+01
 0.6088136349186E+01
 0.6052506746090E+01
 0.6009404410691E+01
 0.5960187325808E+01
 0.5907753599066E+01
 0.5855226204965E+01
 0.5803266432325E+01
 0.5746334463684E+01
 0.5672317872729E+01
 0.5538732673165E+01
 0.5312240361192E+01
 0.4624952576080E+01
 0.3519969752155E+01
 0.1199611968382E+02
 0.9113541977580E+01
 0.8057546888401E+01
 0.7227433085153E+01
 0.6889433625353E+01
 0.6639988389978E+01
 0.6464217488759E+01
 0.6326164334811E+01
 0.6214053702781E+01
 0.6119772315501E+01
 0.6039005366400E+01
 0.5969225102449E+01
 0.5909182297489E+01
 0.5858526616862E+01
 0.5817661731691E+01
 0.5787728762975E+01
 0.5770736515299E+01
 0.5769950952660E+01
 0.5790968358482E+01
 0.5844308391696E+01
 0.5944917731221E+01
 0.6082194907062E+01
 0.6215493264002E+01
 0.6314430596575E+01
 0.6372658474271E+01
 0.6398394431932E+01
 0.6403868424844E+01
 0.6399592334875E+01
 0.6392396476707E+01
 0.6384760430625E+01
 0.6374241336683E+01
 0.6359470401783E+01
 0.6351343224019E+01
 0.6365255631676E+01
 0.6411087609515E+01
 0.6498589248177E+01
 0.6636698441441E+01
 0.6852108882431E+01
 0.7106369180234E+01
 0.7686260222118E+01
 0.6883630837996E+01
 0.1419845272462E+02
 0.7585015345608E+00
 0.1103895563610E+01
 0.1414167552341E+01
 0.1688913840959E+01
 0.1930762830033E+01
 0.2143284778482E+01
 0.2330348272145E+01
 0.2495799624000E+01
 0.2643164882627E+01
 0.2775633486059E+01
 0.2896275132732E+01
 0.3007121795033E+01
 0.3110547901121E+01
 0.3210194231763E+01
 0.3308564326026E+01
 0.3406371829875E+01
 0.3503361554208E+01
 0.3598652091703E+01
 0.3691087205722E+01
 0.3777400767060E+01
 0.7347777757758E+00
 0.1095964799469E+01
 0.1418366275577E+01
 0.1703416476840E+01
 0.1954153324202E+01
 0.2174533472164E+01
 0.2368817796960E+01
 0.2541123301136E+01
 0.2695156604394E+01
 0.2834290542944E+01
 0.2961626294214E+01
 0.3079365563763E+01
 0.3190340571066E+01
 0.3298043862220E+01
 0.3404724214479E+01
 0.3511478961709E+01
 0.3618447357316E+01
 0.3725150515283E+01
 0.3827397711638E+01
 0.3914997270340E+01
 0.7120676769014E+00
 0.1088875727776E+01
 0.1423020432896E+01
 0.1717508271990E+01
 0.1976300917949E+01
 0.2203829545115E+01
 0.2404682617819E+01
 0.2583214642512E+01
 0.2743328981756E+01
 0.2888533217794E+01
 0.3021993484460E+01
 0.3146243922098E+01
 0.3264242498328E+01
 0.3379306391236E+01
 0.3493697184701E+01
 0.3608603867447E+01
 0.3724230656776E+01
 0.3839150620890E+01
 0.3947877865089E+01
 0.4043057025972E+01
 0.6906796235044E+00
 0.1082348433551E+01
 0.1427664059670E+01
 0.1730876024577E+01
 0.1996951883826E+01
 0.2230904735674E+01
 0.2437653359941E+01
 0.2621774815830E+01
 0.2787348990383E+01
 0.2938013590748E+01
 0.3077047433358E+01
 0.3207226513014E+01
 0.3331571743453E+01
 0.3453244892656E+01
 0.3574463566928E+01
 0.3696377042362E+01
 0.3818869829930E+01
 0.3939842567090E+01
 0.4054191948490E+01
 0.4155982136729E+01
 0.6707134370863E+00
 0.1076296843725E+01
 0.1432012768139E+01
 0.1743218548803E+01
 0.2015839884262E+01
 0.2255499027660E+01
 0.2467461701140E+01
 0.2656519684573E+01
 0.2826914858666E+01
 0.2982412534694E+01
 0.3126398406093E+01
 0.3261823416891E+01
 0.3391727019644E+01
 0.3519113546253E+01
 0.3646095098878E+01
 0.3773656999602E+01
 0.3901371265369E+01
 0.4026905118152E+01
 0.4145547450717E+01
 0.4252003003797E+01
 0.6522320904223E+00
 0.1070634244854E+01
 0.1435863082772E+01
 0.1754280799402E+01
 0.2032710654527E+01
 0.2277365646926E+01
 0.2493858421154E+01
 0.2687189829102E+01
 0.2861751041031E+01
 0.3021421346647E+01
 0.3169675871981E+01
 0.3309581593185E+01
 0.3444159219760E+01
 0.3576246875884E+01
 0.3707802830178E+01
 0.3839622555255E+01
 0.3971064666532E+01
 0.4099698786039E+01
 0.4221080004990E+01
 0.4330074670899E+01
 0.6352836894394E+00
 0.1065282145216E+01
 0.1439045721193E+01
 0.1763846810839E+01
 0.2047335703216E+01
 0.2296278062337E+01
 0.2516617286301E+01
 0.2713552106556E+01
 0.2891607364990E+01
 0.3054757552819E+01
 0.3206543407103E+01
 0.3350097440237E+01
 0.3488389613701E+01
 0.3624084439205E+01
 0.3758968600685E+01
 0.3893663220444E+01
 0.4027373927991E+01
 0.4157619186222E+01
 0.4280093996536E+01
 0.4389581940066E+01
 0.6199095425099E+00
 0.1060170472682E+01
 0.1441416367777E+01
 0.1771731808042E+01
 0.2059515745950E+01
 0.2312035969255E+01
 0.2535538781937E+01
 0.2735402022120E+01
 0.2916264608439E+01
 0.3082174034249E+01
 0.3236710488705E+01
 0.3383029193801E+01
 0.3524023704856E+01
 0.3662183858507E+01
 0.3799125208377E+01
 0.3935314311908E+01
 0.4069840522681E+01
 0.4200185338476E+01
 0.4322104597024E+01
 0.4430199039059E+01
 0.6061463188117E+00
 0.1055238958697E+01
 0.1442852318813E+01
 0.1777779413856E+01
 0.2069081393251E+01
 0.2324468657212E+01
 0.2550453532100E+01
 0.2752567400333E+01
 0.2935539711342E+01
 0.3103466618487E+01
 0.3259941359504E+01
 0.3408106317373E+01
 0.3550759594972E+01
 0.3690219978227E+01
 0.3827939187839E+01
 0.3964247094378E+01
 0.4098140286217E+01
 0.4227072402735E+01
 0.4346826526650E+01
 0.4451810384505E+01
 0.5940265837351E+00
 0.1050437730222E+01
 0.1443251654070E+01
 0.1781860619084E+01
 0.2075893675765E+01
 0.2333437059954E+01
 0.2561225207576E+01
 0.2764911914096E+01
 0.2949290400327E+01
 0.3118479941073E+01
 0.3276061416237E+01
 0.3425135375428E+01
 0.3568390882230E+01
 0.3707981391529E+01
 0.3845204255723E+01
 0.3980267831535E+01
 0.4112093771409E+01
 0.4238118943523E+01
 0.4354148616746E+01
 0.4454441442326E+01
 0.5835787047032E+00
 0.1045727551924E+01
 0.1442533080719E+01
 0.1783873577339E+01
 0.2079844532390E+01
 0.2338835237206E+01
 0.2567752825808E+01
 0.2772338083054E+01
 0.2957418909321E+01
 0.3127111752908E+01
 0.3284961369290E+01
 0.3434002992028E+01
 0.3576807050346E+01
 0.3715367987785E+01
 0.3850838479109E+01
 0.3983318558194E+01
 0.4111670315151E+01
 0.4233327509153E+01
 0.4344128835075E+01
 0.4438258742552E+01
 0.5748266284191E+00
 0.1041079839689E+01
 0.1440635974131E+01
 0.1783743668864E+01
 0.2080857256630E+01
 0.2340591445686E+01
 0.2569972457855E+01
 0.2774789515190E+01
 0.2959874627185E+01
 0.3129315669192E+01
 0.3286599403666E+01
 0.3434676709261E+01
 0.3575992610816E+01
 0.3712388724523E+01
 0.3844882266365E+01
 0.3973476670825E+01
 0.4096988598883E+01
 0.4212864650298E+01
 0.4317000659617E+01
 0.4403594274326E+01
 0.5677896659485E+00
 0.1036476521817E+01
 0.1437520386468E+01
 0.1781423570951E+01
 0.2078886792886E+01
 0.2338668828868E+01
 0.2567858341739E+01
 0.2772252345326E+01
 0.2956655662854E+01
 0.3125102509343E+01
 0.3281001739059E+01
 0.3427204385492E+01
 0.3566025310810E+01
 0.3699159066078E+01
 0.3827495888158E+01
 0.3950953098656E+01
 0.4068315181360E+01
 0.4177059471762E+01
 0.4273170357314E+01
 0.4350944417577E+01
 0.5624823357991E+00
 0.1031909791777E+01
 0.1433166937073E+01
 0.1776893197121E+01
 0.2073919797623E+01
 0.2333065696141E+01
 0.2561423385884E+01
 0.2764755849212E+01
 0.2947809348764E+01
 0.3114540356395E+01
 0.3268261836105E+01
 0.3411712357203E+01
 0.3547073353049E+01
 0.3675897584555E+01
 0.3798955948448E+01
 0.3916088937138E+01
 0.4026061120393E+01
 0.4126398969959E+01
 0.4213208767223E+01
 0.4280962157032E+01
 0.5589142580538E+00
 0.1027381769446E+01
 0.1427576544450E+01
 0.1770159437409E+01
 0.2065974416956E+01
 0.2323815380324E+01
 0.2550719079618E+01
 0.2752372278191E+01
 0.2933431778590E+01
 0.3097753506407E+01
 0.3248538456442E+01
 0.3388402510814E+01
 0.3519391594131E+01
 0.3642921514073E+01
 0.3759650598319E+01
 0.3869350501167E+01
 0.3970776608815E+01
 0.4061521363210E+01
 0.4137843303134E+01
 0.4194451431615E+01
 0.5570900792084E+00
 0.1022904086374E+01
 0.1420769985908E+01
 0.1761255666773E+01
 0.2055099753936E+01
 0.2310985668717E+01
 0.2535834832297E+01
 0.2735215966360E+01
 0.2913666470640E+01
 0.3074920435465E+01
 0.3222052700024E+01
 0.3357548322037E+01
 0.3483316670717E+01
 0.3600641116367E+01
 0.3710073344344E+01
 0.3811322708989E+01
 0.3903143890150E+01
 0.3983208633601E+01
 0.4047951615872E+01
 0.4092365318176E+01
 0.5570093799264E+00
 0.1018497392544E+01
 0.1412787267841E+01
 0.1750240996183E+01
 0.2041375005065E+01
 0.2294677805225E+01
 0.2516896764050E+01
 0.2713441763175E+01
 0.2888702240919E+01
 0.3046270888453E+01
 0.3189084112234E+01
 0.3319489911031E+01
 0.3439261042680E+01
 0.3549552802474E+01
 0.3650815396073E+01
 0.3742700839270E+01
 0.3823968737637E+01
 0.3892378584112E+01
 0.3944556419394E+01
 0.3975807078460E+01
 0.5586665623084E+00
 0.1014190796627E+01
 0.1403686818217E+01
 0.1737199274109E+01
 0.2024908278772E+01
 0.2275025090921E+01
 0.2494065997354E+01
 0.2687242865783E+01
 0.2858770383066E+01
 0.3012082198499E+01
 0.3149965959836E+01
 0.3274628185234E+01
 0.3387705993322E+01
 0.3490231026938E+01
 0.3582556572568E+01
 0.3664280717035E+01
 0.3734170523259E+01
 0.3790076102724E+01
 0.3828820453464E+01
 0.3846032532930E+01
 0.5620506980636E+00
 0.1010021244597E+01
 0.1393544508861E+01
 0.1722237850037E+01
 0.2005835115345E+01
 0.2252191117271E+01
 0.2467536503602E+01
 0.2656848126880E+01
 0.2824141249620E+01
 0.2972674941166E+01
 0.3105079775412E+01
 0.3223418155949E+01
 0.3329193657024E+01
 0.3423319010974E+01
 0.3506054809413E+01
 0.3576947309622E+01
 0.3634770658318E+01
 0.3677462996128E+01
 0.3702040413197E+01
 0.3704452111626E+01
 0.5671453443211E+00
 0.1006032844280E+01
 0.1382452522618E+01
 0.1705486119180E+01
 0.1984316734736E+01
 0.2226367670477E+01
 0.2437532559314E+01
 0.2622518910385E+01
 0.2785120322457E+01
 0.2928408021305E+01
 0.3054849270668E+01
 0.3166361528093E+01
 0.3264318172471E+01
 0.3349518387119E+01
 0.3422134330620E+01
 0.3481661692851E+01
 0.3526879085032E+01
 0.3555805623009E+01
 0.3565638615535E+01
 0.3552631046879E+01
 0.5739283495778E+00
 0.1002276146570E+01
 0.1370518086944E+01
 0.1687093877177E+01
 0.1960538049247E+01
 0.2197772355546E+01
 0.2404305875337E+01
 0.2584545574318E+01
 0.2742043867050E+01
 0.2879673299868E+01
 0.2999733735670E+01
 0.3103998689867E+01
 0.3193716098056E+01
 0.3269577902951E+01
 0.3331672590839E+01
 0.3379446383254E+01
 0.3411678541587E+01
 0.3426459416019E+01
 0.3421150737811E+01
 0.3392284588745E+01
 0.5823716827396E+00
 0.9988073960656E+00
 0.1357862098685E+01
 0.1667229517498E+01
 0.1934705481733E+01
 0.2166645990955E+01
 0.2368132462634E+01
 0.2543243658855E+01
 0.2695274263347E+01
 0.2826889868259E+01
 0.2940221046729E+01
 0.3036900243073E+01
 0.3118056249896E+01
 0.3184281355218E+01
 0.3235586139594E+01
 0.3271369093113E+01
 0.3290406445389E+01
 0.3290849509488E+01
 0.3270206483417E+01
 0.3225259733207E+01
 0.5924413244885E+00
 0.9956877659810E+00
 0.1344617668758E+01
 0.1646078108764E+01
 0.1907044634247E+01
 0.2133249827991E+01
 0.2329309300195E+01
 0.2498949858477E+01
 0.2645195107171E+01
 0.2770498080857E+01
 0.2876820413316E+01
 0.2965658229486E+01
 0.3038029148012E+01
 0.3094434968306E+01
 0.3134815626024E+01
 0.3158525080251E+01
 0.3164334395222E+01
 0.3150447400148E+01
 0.3114502891247E+01
 0.3053508073153E+01
 0.6040972586964E+00
 0.9929825941425E+00
 0.1330928619386E+01
 0.1623839394448E+01
 0.1877797857396E+01
 0.2097862653682E+01
 0.2288150874631E+01
 0.2452017860851E+01
 0.2592206180349E+01
 0.2710953462524E+01
 0.2810055004059E+01
 0.2890877224098E+01
 0.2954336282342E+01
 0.3000854478116E+01
 0.3030310254660E+01
 0.3042018412139E+01
 0.3034745602975E+01
 0.3006743903510E+01
 0.2955773139376E+01
 0.2879051876510E+01
 0.6172935953980E+00
 0.9907606374383E+00
 0.1316947967499E+01
 0.1600725757947E+01
 0.1847221770188E+01
 0.2060777834173E+01
 0.2244985657462E+01
 0.2402814130470E+01
 0.2536718382830E+01
 0.2648720603293E+01
 0.2740454588360E+01
 0.2813165464912E+01
 0.2867679416044E+01
 0.2904352209719E+01
 0.2923012076271E+01
 0.2922942648711E+01
 0.2902910812112E+01
 0.2861219036532E+01
 0.2795749471940E+01
 0.2703938059144E+01
 0.6319788473185E+00
 0.9890933626928E+00
 0.1302836429078E+01
 0.1576960197052E+01
 0.1815584780123E+01
 0.2022300353748E+01
 0.2200152582898E+01
 0.2351713711006E+01
 0.2479148715861E+01
 0.2584267148485E+01
 0.2668548326238E+01
 0.2733126184708E+01
 0.2778750142170E+01
 0.2805724450134E+01
 0.2813840559327E+01
 0.2802361600977E+01
 0.2770063622974E+01
 0.2715309530601E+01
 0.2636119541038E+01
 0.2530178238497E+01
 0.6480963675405E+00
 0.9880542921593E+00
 0.1288760982338E+01
 0.1552774357075E+01
 0.1783164658686E+01
 0.1982743909168E+01
 0.2153997592244E+01
 0.2299096123230E+01
 0.2419915408783E+01
 0.2518057996802E+01
 0.2594857842916E+01
 0.2651349311139E+01
 0.2688219906734E+01
 0.2705739418738E+01
 0.2703677913177E+01
 0.2681290933651E+01
 0.2637376407023E+01
 0.2570375530484E+01
 0.2478477947977E+01
 0.2359676052181E+01
 0.6655849490692E+00
 0.9877184194503E+00
 0.1274893519603E+01
 0.1528406658780E+01
 0.1750246209525E+01
 0.1942428096577E+01
 0.2106870285149E+01
 0.2245341407906E+01
 0.2359433255337E+01
 0.2450549794566E+01
 0.2519890701453E+01
 0.2568403674105E+01
 0.2596730673963E+01
 0.2605126091175E+01
 0.2593355592950E+01
 0.2560681377965E+01
 0.2505938188942E+01
 0.2427669061523E+01
 0.2324277513921E+01
 0.2194148946632E+01
 0.6843795730055E+00
 0.9881617149346E+00
 0.1261409634042E+01
 0.1504100581031E+01
 0.1717119092065E+01
 0.1901675750921E+01
 0.2059120735789E+01
 0.2190826376266E+01
 0.2298109235636E+01
 0.2382185823045E+01
 0.2444134391966E+01
 0.2484829850603E+01
 0.2504886370101E+01
 0.2504564051797E+01
 0.2483642296997E+01
 0.2441404190998E+01
 0.2376735838420E+01
 0.2288307191490E+01
 0.2174787106010E+01
 0.2035059653168E+01
 0.7044122622429E+00
 0.9894607287337E+00
 0.1248487575445E+01
 0.1480103148941E+01
 0.1684075853620E+01
 0.1860810486386E+01
 0.2011096519712E+01
 0.2135921119944E+01
 0.2236338495474E+01
 0.2313391384508E+01
 0.2368050982261E+01
 0.2401133811938E+01
 0.2413245258935E+01
 0.2404674523773E+01
 0.2375233701549E+01
 0.2324239420991E+01
 0.2250639822671E+01
 0.2153252584768E+01
 0.2031062025014E+01
 0.1883570221482E+01
 0.7256130231374E+00
 0.9916923030261E+00
 0.1236307416890E+01
 0.1456663681290E+01
 0.1651410216992E+01
 0.1820154469009E+01
 0.1963139970175E+01
 0.2080985797913E+01
 0.2174500716401E+01
 0.2244569759881E+01
 0.2292072561596E+01
 0.2317781540063E+01
 0.2322313378067E+01
 0.2306012610679E+01
 0.2268743949745E+01
 0.2209867249828E+01
 0.2128395385329E+01
 0.2023303228482E+01
 0.1893929573316E+01
 0.1740521092235E+01
 0.7479108133557E+00
 0.9949333893421E+00
 0.1225050482864E+01
 0.1434032874289E+01
 0.1619415687921E+01
 0.1780026457732E+01
 0.1915585677570E+01
 0.2026367702282E+01
 0.2112956878565E+01
 0.2176098770229E+01
 0.2216597586942E+01
 0.2235194798789E+01
 0.2232539171553E+01
 0.2209060652346E+01
 0.2164698514060E+01
 0.2098862101527E+01
 0.2010619423715E+01
 0.1899091988706E+01
 0.1763989621013E+01
 0.1606431383871E+01
 0.7712344655193E+00
 0.9992609563341E+00
 0.1214899103010E+01
 0.1412462309363E+01
 0.1588384530970E+01
 0.1740740106109E+01
 0.1868758193463E+01
 0.1972398551084E+01
 0.2052046348259E+01
 0.2108327875760E+01
 0.2141988167345E+01
 0.2153748277471E+01
 0.2144309610770E+01
 0.2114222632028E+01
 0.2063527681714E+01
 0.1991688300370E+01
 0.1897802573800E+01
 0.1781096606412E+01
 0.1641628815712E+01
 0.1481515097732E+01
 0.7955134298694E+00
 0.1004751947108E+01
 0.1206036817431E+01
 0.1392204570021E+01
 0.1558607216454E+01
 0.1702602550006E+01
 0.1822969952355E+01
 0.1919392053775E+01
 0.1992084330514E+01
 0.2041575806104E+01
 0.2068568345330E+01
 0.2073768549135E+01
 0.2057948654857E+01
 0.2021820338035E+01
 0.1965559924008E+01
 0.1888695104049E+01
 0.1790314294696E+01
 0.1669661596678E+01
 0.1527051977439E+01
 0.1365710706701E+01
 0.8206780878666E+00
 0.1011483181252E+01
 0.1198649323666E+01
 0.1373514267230E+01
 0.1530372435308E+01
 0.1665913160808E+01
 0.1778519308938E+01
 0.1867641709193E+01
 0.1933359623258E+01
 0.1976128480187E+01
 0.1996622918830E+01
 0.1995534648345E+01
 0.1973719110505E+01
 0.1932092706485E+01
 0.1871014915632E+01
 0.1790106107521E+01
 0.1688404982499E+01
 0.1565029259094E+01
 0.1420343504252E+01
 0.1258748520148E+01
 0.8466589933045E+00
 0.1019531117438E+01
 0.1192926693382E+01
 0.1356650677855E+01
 0.1503967598411E+01
 0.1630962190463E+01
 0.1735688491189E+01
 0.1817418945719E+01
 0.1876132815910E+01
 0.1912237118906E+01
 0.1926396316623E+01
 0.1919279290037E+01
 0.1891828430392E+01
 0.1845203602974E+01
 0.1779998604939E+01
 0.1695998854024E+01
 0.1592189240815E+01
 0.1467374087335E+01
 0.1321557317917E+01
 0.1160256828918E+01
 0.8733837816428E+00
 0.1028970571689E+01
 0.1189069422170E+01
 0.1341882759092E+01
 0.1479679836889E+01
 0.1598028221056E+01
 0.1694741362880E+01
 0.1768971784948E+01
 0.1820635185607E+01
 0.1850116568739E+01
 0.1858090737443E+01
 0.1845189071400E+01
 0.1812434813649E+01
 0.1761261802289E+01
 0.1692521410919E+01
 0.1606264501504E+01
 0.1501588764269E+01
 0.1376801355653E+01
 0.1230854991308E+01
 0.1069881129013E+01
 0.9007655899144E+00
 0.1039877132280E+01
 0.1187300352419E+01
 0.1329502111791E+01
 0.1457793097803E+01
 0.1567373595973E+01
 0.1655921015747E+01
 0.1722524437535E+01
 0.1767068776011E+01
 0.1789944380216E+01
 0.1791863559248E+01
 0.1773401259643E+01
 0.1735650378995E+01
 0.1680339304785E+01
 0.1608564299645E+01
 0.1520637565940E+01
 0.1416102226174E+01
 0.1293274621634E+01
 0.1148668009847E+01
 0.9875984263464E+00
 0.9286768675568E+00
 0.1052305875781E+01
 0.1187935421447E+01
 0.1319825794278E+01
 0.1438576311042E+01
 0.1539239702723E+01
 0.1619447305628E+01
 0.1678276897628E+01
 0.1715610445564E+01
 0.1731861067980E+01
 0.1727824109521E+01
 0.1703998358970E+01
 0.1661532661736E+01
 0.1602484657812E+01
 0.1528121756539E+01
 0.1438943490435E+01
 0.1334788983564E+01
 0.1215442478583E+01
 0.1076328370082E+01
 0.9146415335502E+00
 0.9566643976395E+00
 0.1066657040948E+01
 0.1191452799219E+01
 0.1313156083375E+01
 0.1422270379634E+01
 0.1513841987263E+01
 0.1585517478196E+01
 0.1636400908804E+01
 0.1666413663720E+01
 0.1675991066224E+01
 0.1666016513385E+01
 0.1636993420861E+01
 0.1590089478529E+01
 0.1527682548174E+01
 0.1451243600746E+01
 0.1361161222307E+01
 0.1257373754673E+01
 0.1140023863849E+01
 0.1010158819115E+01
 0.8605909368155E+00
 0.1914578644828E+01
 0.7259573835932E+00
 0.1662177406802E+00
 0.2601169504704E-01
 0.5869162832199E-01
 0.1162298538720E+00
 0.1645170965796E+00
 0.2076534376368E+00
 0.2455201583805E+00
 0.2764008992243E+00
 0.2960398038629E+00
 0.2992302809393E+00
 0.2761580094754E+00
 0.2266083621772E+00
 0.1584205887700E+00
 0.7897237452515E-01
 0.1430369853692E-01
 0.7461869598834E-01
 0.1384926876564E+00
 0.2616742285047E+00
 0.1993454351022E+01
 0.1401512811814E+01
 0.5758170443155E+00
 0.2589902944874E+00
 0.1175720910027E+00
 0.3196645508751E-01
 0.2936841692998E-01
 0.7924060918143E-01
 0.1225631111451E+00
 0.1595702802810E+00
 0.1881355796784E+00
 0.2082847206473E+00
 0.2089870304625E+00
 0.1821653093798E+00
 0.1340939677896E+00
 0.7376228321536E-01
 0.1575326524079E-01
 0.4204586073922E-01
 0.9687330217900E-01
 0.1866770025005E+00
 0.1857579485057E+01
 0.1620183712701E+01
 0.9787661009606E+00
 0.5457493330663E+00
 0.3291509256883E+00
 0.2068333774554E+00
 0.1261574294281E+00
 0.6537781561935E-01
 0.1461929978735E-01
 0.2982311983344E-01
 0.6826432079088E-01
 0.1021333308026E+00
 0.1212840262873E+00
 0.1138066202319E+00
 0.8383866852630E-01
 0.4023088463129E-01
 0.6702521870702E-02
 0.5265439435657E-01
 0.1070899179659E+00
 0.2144710778024E+00
 0.1717225945963E+01
 0.1674953661079E+01
 0.1235506012356E+01
 0.8287027593110E+00
 0.5632104253937E+00
 0.4037057259643E+00
 0.3004804850961E+00
 0.2261384647315E+00
 0.1663148817874E+00
 0.1138856386056E+00
 0.6646987794750E-01
 0.2140608770875E-01
 0.1288413565231E-01
 0.2118283648708E-01
 0.6216615520254E-02
 0.2549585887253E-01
 0.6453184925484E-01
 0.1115382630646E+00
 0.1819266588371E+00
 0.3302369339223E+00
 0.1591804262775E+01
 0.1662671986337E+01
 0.1388524290584E+01
 0.1056423483787E+01
 0.7925849589441E+00
 0.6114503108690E+00
 0.4889256249365E+00
 0.4011180344883E+00
 0.3319325421981E+00
 0.2718815428726E+00
 0.2168350108730E+00
 0.1629169549051E+00
 0.1177709727494E+00
 0.9714648737865E-01
 0.1019145623789E+00
 0.1258084206658E+00
 0.1641840724861E+00
 0.2207699207169E+00
 0.3169828470378E+00
 0.5103887315314E+00
 0.1484145218394E+01
 0.1622149782383E+01
 0.1474973737167E+01
 0.1228205181827E+01
 0.9960471527558E+00
 0.8157071197674E+00
 0.6837815103733E+00
 0.5863214022244E+00
 0.5094991627110E+00
 0.4432938581759E+00
 0.3825850530386E+00
 0.3226679832209E+00
 0.2697827452779E+00
 0.2407850815412E+00
 0.2394574333099E+00
 0.2613926980794E+00
 0.3050733114448E+00
 0.3771491473996E+00
 0.5018551135413E+00
 0.7346718978076E+00
 0.1392296126493E+01
 0.1571092672883E+01
 0.1519837544983E+01
 0.1354118023154E+01
 0.1168010413343E+01
 0.1005697862102E+01
 0.8766612766127E+00
 0.7763856782128E+00
 0.6957480343358E+00
 0.6261112090106E+00
 0.5623791013158E+00
 0.4995705086124E+00
 0.4426729346359E+00
 0.4093201162153E+00
 0.4062172725191E+00
 0.4308212844008E+00
 0.4840343118135E+00
 0.5739329104865E+00
 0.7247195970882E+00
 0.9866637314916E+00
 0.1313544640518E+01
 0.1517966571462E+01
 0.1539135802875E+01
 0.1445238504231E+01
 0.1309982512006E+01
 0.1176588722537E+01
 0.1061074813729E+01
 0.9658419107038E+00
 0.8866545611826E+00
 0.8174020028448E+00
 0.7539421919343E+00
 0.6916571824518E+00
 0.6345629391903E+00
 0.6008059997751E+00
 0.5998143280594E+00
 0.6306029925571E+00
 0.6955177015273E+00
 0.8026210995980E+00
 0.9740991498806E+00
 0.1253412924506E+01
 0.1245320544733E+01
 0.1466807212449E+01
 0.1543081625581E+01
 0.1510896079816E+01
 0.1426117736853E+01
 0.1327426172219E+01
 0.1233221738844E+01
 0.1150196632384E+01
 0.1078138057200E+01
 0.1013705024408E+01
 0.9542635341538E+00
 0.8961028171094E+00
 0.8425878105878E+00
 0.8121157219005E+00
 0.8164286929369E+00
 0.8556339588633E+00
 0.9325752875907E+00
 0.1054241218831E+01
 0.1239653464895E+01
 0.1524925635825E+01
 0.1185436405690E+01
 0.1419391519440E+01
 0.1538173998077E+01
 0.1558300151191E+01
 0.1521053031787E+01
 0.1459318282815E+01
 0.1391422738663E+01
 0.1326293346337E+01
 0.1266590323240E+01
 0.1211444166677E+01
 0.1159876779165E+01
 0.1109413168943E+01
 0.1063041190072E+01
 0.1039110356458E+01
 0.1051114517590E+01
 0.1099764775664E+01
 0.1187664289282E+01
 0.1320112566027E+01
 0.1512471634143E+01
 0.1793654162470E+01
 0.1132104735648E+01
 0.1376307326613E+01
 0.1528515814490E+01
 0.1592794931719E+01
 0.1599023160784E+01
 0.1574233071333E+01
 0.1535363715641E+01
 0.1492155769209E+01
 0.1449089012292E+01
 0.1407237817168E+01
 0.1367144941719E+01
 0.1327672410338E+01
 0.1291611694612E+01
 0.1276919372091E+01
 0.1298189559229E+01
 0.1356324800735E+01
 0.1453222162979E+01
 0.1592270332188E+01
 0.1785126743502E+01
 0.2054045329215E+01
 0.1083894134622E+01
 0.1337511073943E+01
 0.1516641775504E+01
 0.1618234361515E+01
 0.1663561767088E+01
 0.1674324242527E+01
 0.1665475990944E+01
 0.1646672345603E+01
 0.1623381779815E+01
 0.1598061925339E+01
 0.1572492273658E+01
 0.1546797482476E+01
 0.1523657453549E+01
 0.1520258757589E+01
 0.1551620259884E+01
 0.1618551966695E+01
 0.1722051729894E+01
 0.1863677272805E+01
 0.2051614015150E+01
 0.2302158074932E+01
 0.1039672947309E+01
 0.1302631243503E+01
 0.1504046011269E+01
 0.1637323774325E+01
 0.1717460318982E+01
 0.1761589447632E+01
 0.1782515689497E+01
 0.1789289986758E+01
 0.1787770637001E+01
 0.1781300640952E+01
 0.1772563245039E+01
 0.1762761783007E+01
 0.1754475548922E+01
 0.1763743286538E+01
 0.1805366987236E+01
 0.1879925521781E+01
 0.1987562108778E+01
 0.2128297247285E+01
 0.2307226040524E+01
 0.2535346158745E+01
 0.9985561411080E+00
 0.1271138397103E+01
 0.1491525282989E+01
 0.1651896544257E+01
 0.1762830501580E+01
 0.1837721506460E+01
 0.1887308084044E+01
 0.1919777779899E+01
 0.1940977351493E+01
 0.1954735138044E+01
 0.1964317930296E+01
 0.1971771561950E+01
 0.1979540314769E+01
 0.2002170025714E+01
 0.2053681743992E+01
 0.2134418753562E+01
 0.2243905076384E+01
 0.2381071152884E+01
 0.2548384438751E+01
 0.2751996737559E+01
 0.9598591044743E+00
 0.1242441651137E+01
 0.1479407202304E+01
 0.1663129456745E+01
 0.1801201474877E+01
 0.1904065224099E+01
 0.1980608404498E+01
 0.2038066737026E+01
 0.2082027859546E+01
 0.2116507354450E+01
 0.2145081194230E+01
 0.2170392068144E+01
 0.2194696858647E+01
 0.2230763485186E+01
 0.2291365629278E+01
 0.2376700570912E+01
 0.2486043744762E+01
 0.2617818102221E+01
 0.2772424214202E+01
 0.2951311758041E+01
 0.9230577959752E+00
 0.1215942330887E+01
 0.1467705472310E+01
 0.1671710114882E+01
 0.1833623942614E+01
 0.1961630348092E+01
 0.2063038803454E+01
 0.2144152705972E+01
 0.2210167208476E+01
 0.2265079174708E+01
 0.2312560226182E+01
 0.2355624785131E+01
 0.2396298410181E+01
 0.2445373065689E+01
 0.2514000337748E+01
 0.2602329374900E+01
 0.2709810394169E+01
 0.2835084117963E+01
 0.2977311405292E+01
 0.3133106555829E+01
 0.8877529246579E+00
 0.1191059861017E+01
 0.1456228749693E+01
 0.1677970054367E+01
 0.1860772150272E+01
 0.2011134185195E+01
 0.2135073254207E+01
 0.2238046324068E+01
 0.2324804598319E+01
 0.2399197525227E+01
 0.2464842039430E+01
 0.2524938487574E+01
 0.2581273741682E+01
 0.2642588332327E+01
 0.2718144418290E+01
 0.2808006185370E+01
 0.2912052789144E+01
 0.3030019405349E+01
 0.3161238613391E+01
 0.3297587808387E+01
 0.8536315219334E+00
 0.1167240625449E+01
 0.1444659247915E+01
 0.1681999718989E+01
 0.1883042765168E+01
 0.2053060459155E+01
 0.2197051696320E+01
 0.2319754083690E+01
 0.2425483952509E+01
 0.2517870008206E+01
 0.2600383026028E+01
 0.2676264147442E+01
 0.2747113126339E+01
 0.2819720200475E+01
 0.2901349860029E+01
 0.2991871205334E+01
 0.3091168393688E+01
 0.3200443096917E+01
 0.3322127146101E+01
 0.3444916136245E+01
 0.8204277126145E+00
 0.1143933012889E+01
 0.1432639658886E+01
 0.1683754472372E+01
 0.1900653875201E+01
 0.2087728701402E+01
 0.2249210273854E+01
 0.2389277139094E+01
 0.2511867218285E+01
 0.2620360749354E+01
 0.2718004895211E+01
 0.2807979582434E+01
 0.2891805758541E+01
 0.2974622002851E+01
 0.3061853803349E+01
 0.3153152278313E+01
 0.3248011890003E+01
 0.3346684967426E+01
 0.3456609369851E+01
 0.3574345316220E+01
 0.7877495703031E+00
 0.1120724061762E+01
 0.1419845442761E+01
 0.1683159895260E+01
 0.1913765988287E+01
 0.2115361698213E+01
 0.2291710863144E+01
 0.2446624463715E+01
 0.2583717582175E+01
 0.2706164739848E+01
 0.2816975036244E+01
 0.2918924573549E+01
 0.3013761563036E+01
 0.3105560191365E+01
 0.3198047503360E+01
 0.3291012964866E+01
 0.3383682835810E+01
 0.3474990760691E+01
 0.3566988195604E+01
 0.3679148500558E+01
 0.9865065730594E+00
 0.1087308784235E+01
 0.1202706589330E+01
 0.1313866166490E+01
 0.1411283167806E+01
 0.1490399921689E+01
 0.1549204073709E+01
 0.1587147676439E+01
 0.1604518124918E+01
 0.1602035693325E+01
 0.1580793654609E+01
 0.1542090123279E+01
 0.1487177938252E+01
 0.1418757165268E+01
 0.1339381710692E+01
 0.1249012409902E+01
 0.1147459152904E+01
 0.1034835633691E+01
 0.9153975660030E+00
 0.8072390580177E+00
 0.1019804529893E+01
 0.1113218111669E+01
 0.1220823719674E+01
 0.1321239996264E+01
 0.1404821388159E+01
 0.1467789218304E+01
 0.1509051885611E+01
 0.1528915697846E+01
 0.1528437571350E+01
 0.1509000965360E+01
 0.1472334716670E+01
 0.1420465811472E+01
 0.1355021542789E+01
 0.1279225449975E+01
 0.1196459028926E+01
 0.1106652927042E+01
 0.1009812607644E+01
 0.9065017015064E+00
 0.8040345422123E+00
 0.6969690701349E+00
 0.1054142157677E+01
 0.1141748402818E+01
 0.1242584415288E+01
 0.1332433084988E+01
 0.1401535928706E+01
 0.1447270685658E+01
 0.1469865335347E+01
 0.1470775057383E+01
 0.1451991485784E+01
 0.1415657765963E+01
 0.1364139584451E+01
 0.1299824923815E+01
 0.1224635351835E+01
 0.1142588866080E+01
 0.1057763263817E+01
 0.9700807371171E+00
 0.8794899776225E+00
 0.7866985170817E+00
 0.6929196122865E+00
 0.5844117607361E+00
 0.1089732347141E+01
 0.1173657649989E+01
 0.1268681663749E+01
 0.1347669628421E+01
 0.1401174101125E+01
 0.1428253400382E+01
 0.1430883749746E+01
 0.1411951144590E+01
 0.1374526321721E+01
 0.1321530810559E+01
 0.1255869969805E+01
 0.1180131871524E+01
 0.1096486969807E+01
 0.1009730077131E+01
 0.9243970432381E+00
 0.8400863118178E+00
 0.7561766471609E+00
 0.6713823279842E+00
 0.5831348078896E+00
 0.4808538037561E+00
 0.1126999192137E+01
 0.1209666726464E+01
 0.1299656178361E+01
 0.1366953310960E+01
 0.1403166635967E+01
 0.1409767725494E+01
 0.1390962579282E+01
 0.1351329273571E+01
 0.1295104951789E+01
 0.1225939637165E+01
 0.1147154380784E+01
 0.1061382446685E+01
 0.9709462107765E+00
 0.8812743820403E+00
 0.7969710941731E+00
 0.7169493179927E+00
 0.6394938417562E+00
 0.5617545716329E+00
 0.4802434691530E+00
 0.3883917323521E+00
 0.1166496094146E+01
 0.1250582648581E+01
 0.1335899093259E+01
 0.1389956715192E+01
 0.1406516896340E+01
 0.1390396799676E+01
 0.1348554902530E+01
 0.1287478294080E+01
 0.1212577962073E+01
 0.1128103160830E+01
 0.1037604189333E+01
 0.9435674495605E+00
 0.8483202613700E+00
 0.7577090407931E+00
 0.6760130370602E+00
 0.6012034096498E+00
 0.5305420337769E+00
 0.4603324000084E+00
 0.3871786161083E+00
 0.3076064454783E+00
 0.1208932635144E+01
 0.1297279383240E+01
 0.1377602092862E+01
 0.1415919258580E+01
 0.1409696421094E+01
 0.1368214576478E+01
 0.1301705913358E+01
 0.1218698052011E+01
 0.1125667281478E+01
 0.1027222843333E+01
 0.9268766253423E+00
 0.8267265315409E+00
 0.7289297757467E+00
 0.6395259241538E+00
 0.5621382051057E+00
 0.4937224023405E+00
 0.4307056764495E+00
 0.3689617474439E+00
 0.3054513476900E+00
 0.2385509955226E+00
 0.1255208290079E+01
 0.1350677312734E+01
 0.1424654964735E+01
 0.1443515045887E+01
 0.1410534555844E+01
 0.1340734619543E+01
 0.1248072382137E+01
 0.1143096951381E+01
 0.1033073291041E+01
 0.9225908113171E+00
 0.8147649046618E+00
 0.7110212710447E+00
 0.6131746313365E+00
 0.5272583534208E+00
 0.4559963141240E+00
 0.3953415668557E+00
 0.3410379211214E+00
 0.2887382371869E+00
 0.2356887486147E+00
 0.1811246705647E+00
 0.1306456833406E+01
 0.1411701120443E+01
 0.1476496943016E+01
 0.1470677611359E+01
 0.1406094791165E+01
 0.1304877088718E+01
 0.1184981766055E+01
 0.1058715182003E+01
 0.9336215355320E+00
 0.8137246674309E+00
 0.7013012737410E+00
 0.5968037828051E+00
 0.5015655295296E+00
 0.4214593602310E+00
 0.3581510954336E+00
 0.3066543950778E+00
 0.2621405893948E+00
 0.2201302690577E+00
 0.1779924679159E+00
 0.1351355383191E+00
 0.1364101100849E+01
 0.1481204788284E+01
 0.1531900022843E+01
 0.1494369638217E+01
 0.1392539709847E+01
 0.1256971564869E+01
 0.1109555717600E+01
 0.9637143973959E+00
 0.8264573557737E+00
 0.7005242710300E+00
 0.5868591685802E+00
 0.4846678530507E+00
 0.3947315578410E+00
 0.3226680490130E+00
 0.2690168877672E+00
 0.2279633878360E+00
 0.1941957695965E+00
 0.1631380241553E+00
 0.1321229761447E+00
 0.1002932983410E+00
 0.1429920132837E+01
 0.1559840067554E+01
 0.1588649336798E+01
 0.1510280153599E+01
 0.1364998526419E+01
 0.1192832316856E+01
 0.1018936893043E+01
 0.8566565006250E+00
 0.7112890523331E+00
 0.5834352512587E+00
 0.4722350733624E+00
 0.3754714815906E+00
 0.2934080203708E+00
 0.2313856660650E+00
 0.1888452116804E+00
 0.1593019377863E+00
 0.1370449278194E+00
 0.1174191945476E+00
 0.9759900628333E-01
 0.7619416657995E-01
 0.1506129019173E+01
 0.1647825192704E+01
 0.1643061727752E+01
 0.1512430520303E+01
 0.1317475528231E+01
 0.1107974312175E+01
 0.9106751337937E+00
 0.7368895917851E+00
 0.5886625545694E+00
 0.4635867979333E+00
 0.3586818302535E+00
 0.2703162371658E+00
 0.1984035095934E+00
 0.1480598228481E+00
 0.1177407095518E+00
 0.1004859836758E+00
 0.9027119891050E-01
 0.8238316732186E-01
 0.7376431788265E-01
 0.6235055041200E-01
 0.1595466841057E+01
 0.1744530723374E+01
 0.1689245045203E+01
 0.1492681772775E+01
 0.1242892539466E+01
 0.9980907854800E+00
 0.7833417575992E+00
 0.6050341528998E+00
 0.4602139063468E+00
 0.3428471409237E+00
 0.2478582207604E+00
 0.1704723680955E+00
 0.1105524391481E+00
 0.7309382710454E-01
 0.5572087642507E-01
 0.5118840776145E-01
 0.5327327760888E-01
 0.5726810434424E-01
 0.5986118758898E-01
 0.5826441661335E-01
 0.1701272712398E+01
 0.1847716366801E+01
 0.1717936187336E+01
 0.1440183113220E+01
 0.1133475956664E+01
 0.8599867029129E+00
 0.6374238517760E+00
 0.4634893223214E+00
 0.3287867551234E+00
 0.2237195227814E+00
 0.1416700100280E+00
 0.7726940814127E-01
 0.3081634884836E-01
 0.8251343230464E-02
 0.5391956634546E-02
 0.1133870196847E-01
 0.2532907838787E-01
 0.4122469703124E-01
 0.5509215541843E-01
 0.6339113346320E-01
 0.1827486470239E+01
 0.1952065344652E+01
 0.1714652108809E+01
 0.1340964094508E+01
 0.9819365029275E+00
 0.6932417584320E+00
 0.4764218250460E+00
 0.3167328571177E+00
 0.1982334426361E+00
 0.1090234516401E+00
 0.4205733324472E-01
 0.9356967742077E-02
 0.4139163763573E-01
 0.5159345395061E-01
 0.4260842204404E-01
 0.2144956768606E-01
 0.5651256850943E-02
 0.3340784551771E-01
 0.5856279437186E-01
 0.7697498929233E-01
 0.1978358975015E+01
 0.2046210925682E+01
 0.1656753957808E+01
 0.1178351938798E+01
 0.7843900047071E+00
 0.5027460641366E+00
 0.3077236230896E+00
 0.1709260590386E+00
 0.7277135726833E-01
 0.2362244621343E-02
 0.4980313010359E-01
 0.8529929704560E-01
 0.1037661343424E+00
 0.1003373685576E+00
 0.7850632462812E-01
 0.4502198858649E-01
 0.6580301008412E-02
 0.3293409011169E-01
 0.6915677918136E-01
 0.9805290157246E-01
 0.2157287447105E+01
 0.2106167009743E+01
 0.1509007806091E+01
 0.9365696132066E+00
 0.5464168732129E+00
 0.3016393797513E+00
 0.1416873023337E+00
 0.3253344107104E-01
 0.4394142122395E-01
 0.9729978972986E-01
 0.1323137526503E+00
 0.1529120930833E+00
 0.1569912991583E+00
 0.1401327660613E+00
 0.1059507974880E+00
 0.6092595117736E-01
 0.1217253809698E-01
 0.3867191519535E-01
 0.8553947538259E-01
 0.1255595264608E+00
 0.2361504678550E+01
 0.2079188458253E+01
 0.1218936162646E+01
 0.6137889631442E+00
 0.2947612267762E+00
 0.1085080630960E+00
 0.1214310098628E-01
 0.9346876429291E-01
 0.1495234257036E+00
 0.1859605596626E+00
 0.2055354720537E+00
 0.2112428618140E+00
 0.2007120494102E+00
 0.1705805636577E+00
 0.1245639541879E+00
 0.6900975951648E-01
 0.1212705060577E-01
 0.4932165252610E-01
 0.1061598977162E+00
 0.1583095813444E+00
 0.2566333066891E+01
 0.1833926539681E+01
 0.7253403034946E+00
 0.2755377505210E+00
 0.6559355343218E-01
 0.6220310396482E-01
 0.1463047873926E+00
 0.2043572341652E+00
 0.2430429960883E+00
 0.2647757116710E+00
 0.2699860536241E+00
 0.2606470409092E+00
 0.2345915088618E+00
 0.1908649638776E+00
 0.1334953701044E+00
 0.6883404158760E-01
 0.9506870080979E-02
 0.6371357101716E-01
 0.1290117341251E+00
 0.1948158568214E+00
 0.2495227978542E+01
 0.9752308574912E+00
 0.2050189583207E+00
 0.7830543115273E-02
 0.1235108972708E+00
 0.2027747285222E+00
 0.2596476390582E+00
 0.2997783870302E+00
 0.3245866925852E+00
 0.3343870151326E+00
 0.3279551445992E+00
 0.3024652786145E+00
 0.2573443285966E+00
 0.1988629677584E+00
 0.1313434945325E+00
 0.5979011154979E-01
 0.1664763313088E-01
 0.8191449758683E-01
 0.1511638616255E+00
 0.2320964248693E+00
 0.3803832388652E+01
 0.3714571462196E+01
 0.3609103007927E+01
 0.3490646241987E+01
 0.3356418285798E+01
 0.3205707288761E+01
 0.3038223243356E+01
 0.2853959059521E+01
 0.2653094091139E+01
 0.2436017582723E+01
 0.2203404408402E+01
 0.1956353952939E+01
 0.1696621100359E+01
 0.1426998172488E+01
 0.1151950980772E+01
 0.8787020115349E+00
 0.6191210148443E+00
 0.3933550749454E+00
 0.2370776843179E+00
 0.2272750534042E+00
 0.3943851833535E+01
 0.3892083792817E+01
 0.3810625320937E+01
 0.3711178644866E+01
 0.3596657939077E+01
 0.3466821198071E+01
 0.3321078693028E+01
 0.3158848818212E+01
 0.2979706255336E+01
 0.2783432668639E+01
 0.2570084085532E+01
 0.2340103428518E+01
 0.2094510746252E+01
 0.1835217520452E+01
 0.1565546462361E+01
 0.1291105390921E+01
 0.1021332206601E+01
 0.7723360239175E+00
 0.5735063539949E+00
 0.4826930689023E+00
 0.4073673253888E+01
 0.4038446355330E+01
 0.3983614170902E+01
 0.3908501230033E+01
 0.3816565983534E+01
 0.3708980621843E+01
 0.3585740427591E+01
 0.3446433048877E+01
 0.3290565578044E+01
 0.3117744611423E+01
 0.2927794443015E+01
 0.2720873854247E+01
 0.2497624313593E+01
 0.2259378642874E+01
 0.2008462636241E+01
 0.1748636273420E+01
 0.1485714105630E+01
 0.1228461734401E+01
 0.9891439256159E+00
 0.7811769895488E+00
 0.4191435574264E+01
 0.4169427152162E+01
 0.4133239752440E+01
 0.4080121674189E+01
 0.4010281471214E+01
 0.3924524341186E+01
 0.3823017342473E+01
 0.3705473012439E+01
 0.3571389753259E+01
 0.3420222744743E+01
 0.3251502274788E+01
 0.3064919363596E+01
 0.2860393599600E+01
 0.2638124395760E+01
 0.2398609022937E+01
 0.2142570476504E+01
 0.1870656453416E+01
 0.1582444265132E+01
 0.1273542308975E+01
 0.9261216103630E+00
 0.4292882172282E+01
 0.4283028760490E+01
 0.4261931640342E+01
 0.4226644538678E+01
 0.4176068745463E+01
 0.4109911448439E+01
 0.4027941605058E+01
 0.3929680792820E+01
 0.3814429056273E+01
 0.3681339013473E+01
 0.3529472456239E+01
 0.3357819914100E+01
 0.3165270495488E+01
 0.2950510128650E+01
 0.2711802346709E+01
 0.2446562921388E+01
 0.2150544558950E+01
 0.1816310435216E+01
 0.1430414935324E+01
 0.9700117867285E+00
 0.4376021096240E+01
 0.4377332394998E+01
 0.4368862598504E+01
 0.4348109021328E+01
 0.4313405132281E+01
 0.4263722567842E+01
 0.4198230128356E+01
 0.4116024683904E+01
 0.4016016880876E+01
 0.3896906169669E+01
 0.3757163405830E+01
 0.3594982690036E+01
 0.3408174992219E+01
 0.3193972511939E+01
 0.2948699126514E+01
 0.2667239038308E+01
 0.2342220086811E+01
 0.1962858915795E+01
 0.1513870984635E+01
 0.9769905250774E+00
 0.4439679866805E+01
 0.4450852329172E+01
 0.4452992525628E+01
 0.4443984138215E+01
 0.4421983121200E+01
 0.4385475822044E+01
 0.4333098722869E+01
 0.4263442768633E+01
 0.4174924837385E+01
 0.4065706319505E+01
 0.3933624447859E+01
 0.3776101152388E+01
 0.3590002412915E+01
 0.3371422577638E+01
 0.3115366848065E+01
 0.2815309727309E+01
 0.2462635236459E+01
 0.2046091949240E+01
 0.1551774676801E+01
 0.9659046990840E+00
 0.4483266490888E+01
 0.4502730925577E+01
 0.4513570293694E+01
 0.4513893355802E+01
 0.4501780521067E+01
 0.4475400806015E+01
 0.4432950516421E+01
 0.4372536736763E+01
 0.4292066521207E+01
 0.4189154864821E+01
 0.4061037463068E+01
 0.3904469540445E+01
 0.3715593047255E+01
 0.3489759011027E+01
 0.3221299439094E+01
 0.2903260016808E+01
 0.2527148044369E+01
 0.2082847138060E+01
 0.1559177324156E+01
 0.9479417034904E+00
 0.4506504705870E+01
 0.4532490447955E+01
 0.4550133598300E+01
 0.4557617147933E+01
 0.4552957577518E+01
 0.4534095009963E+01
 0.4498878818584E+01
 0.4444999500080E+01
 0.4369906622398E+01
 0.4270728204810E+01
 0.4144191353070E+01
 0.3986537085957E+01
 0.3793422831317E+01
 0.3559811015499E+01
 0.3279852396672E+01
 0.2946792391689E+01
 0.2552966366020E+01
 0.2090049852570E+01
 0.1550157371917E+01
 0.9323869674521E+00
 0.4509325802086E+01
 0.4539916595916E+01
 0.4562425407996E+01
 0.4575019467594E+01
 0.4575646690145E+01
 0.4562078630666E+01
 0.4531904876017E+01
 0.4482491522709E+01
 0.4410924100018E+01
 0.4313947782335E+01
 0.4187909558558E+01
 0.4028703188620E+01
 0.3831718220230E+01
 0.3591799033352E+01
 0.3303229447921E+01
 0.2959775960551E+01
 0.2554861477089E+01
 0.2082061712356E+01
 0.1536736618431E+01
 0.9243197643047E+00
 0.4491872460616E+01
 0.4525120959486E+01
 0.4550548961872E+01
 0.4566288984165E+01
 0.4570232719709E+01
 0.4560038392399E+01
 0.4533120672725E+01
 0.4486621871639E+01
 0.4417373694438E+01
 0.4321858588492E+01
 0.4196176987093E+01
 0.4036025161580E+01
 0.3836689257014E+01
 0.3593064812081E+01
 0.3299718739177E+01
 0.2951026551419E+01
 0.2541457801336E+01
 0.2066226272743E+01
 0.1523194862637E+01
 0.9219543655657E+00
 0.4454459839050E+01
 0.4488445703297E+01
 0.4514873276145E+01
 0.4531867364078E+01
 0.4537298912918E+01
 0.4528773709064E+01
 0.4503616383492E+01
 0.4458847232244E+01
 0.4391156436376E+01
 0.4296882291210E+01
 0.4171999911971E+01
 0.4012126763563E+01
 0.3812552270955E+01
 0.3568301371403E+01
 0.3274247585213E+01
 0.2925304846345E+01
 0.2516767686193E+01
 0.2045014588793E+01
 0.1509479827906E+01
 0.9220140927751E+00
 0.4397565914126E+01
 0.4430410175089E+01
 0.4455958710226E+01
 0.4472374499582E+01
 0.4477559376108E+01
 0.4469134420750E+01
 0.4444419900123E+01
 0.4400414002118E+01
 0.4333773745325E+01
 0.4240803504097E+01
 0.4117457461138E+01
 0.3959362856907E+01
 0.3761871730390E+01
 0.3520150484141E+01
 0.3229320538267E+01
 0.2884674756327E+01
 0.2482031905189E+01
 0.2018434917087E+01
 0.1494104174902E+01
 0.9218031751675E+00
 0.4321831080019E+01
 0.4351696774670E+01
 0.4374527232484E+01
 0.4388573973785E+01
 0.4391828006981E+01
 0.4381996834977E+01
 0.4356481650374E+01
 0.4312355506627E+01
 0.4246345648657E+01
 0.4154824907321E+01
 0.4033818244891E+01
 0.3879031478242E+01
 0.3685910104529E+01
 0.3449737338114E+01
 0.3165783250226E+01
 0.2829526292920E+01
 0.2437003369388E+01
 0.1985486841166E+01
 0.1475392703522E+01
 0.9194525184688E+00
 0.4228061063674E+01
 0.4253154614978E+01
 0.4271462839946E+01
 0.4281373560354E+01
 0.4281024628870E+01
 0.4268279791832E+01
 0.4240703726500E+01
 0.4195537687549E+01
 0.4129678702701E+01
 0.4039666670914E+01
 0.3921685048004E+01
 0.3771582143870E+01
 0.3584921454463E+01
 0.3357071053043E+01
 0.3083344852071E+01
 0.2759217041457E+01
 0.2380663707729E+01
 0.1944823242681E+01
 0.1451851794548E+01
 0.9137293304479E+00
 0.4117231890193E+01
 0.4135810494080E+01
 0.4147827441459E+01
 0.4151847675206E+01
 0.4146207535299E+01
 0.4128990922387E+01
 0.4098002714476E+01
 0.4050740750064E+01
 0.3984368629305E+01
 0.3895692732073E+01
 0.3781148254680E+01
 0.3636800868391E+01
 0.3458372942207E+01
 0.3241306332543E+01
 0.2980878222345E+01
 0.2672396046784E+01
 0.2311528728237E+01
 0.1894959806550E+01
 0.1422188274580E+01
 0.9038201116191E+00
 0.3990497797510E+01
 0.4000885476116E+01
 0.4004887362678E+01
 0.4001275983700E+01
 0.3988627379983E+01
 0.3965299092887E+01
 0.3929403143238E+01
 0.3878774610927E+01
 0.3810936880449E+01
 0.3723065392574E+01
 0.3611953016073E+01
 0.3473982225183E+01
 0.3305112595095E+01
 0.3100897332881E+01
 0.2856550600597E+01
 0.2567100951285E+01
 0.2227698556649E+01
 0.1834261118645E+01
 0.1385220020303E+01
 0.8891826213157E+00
 0.3849201435398E+01
 0.3849816222014E+01
 0.3844148535988E+01
 0.3831195844986E+01
 0.3809800813114E+01
 0.3778633070283E+01
 0.3736163949164E+01
 0.3680633779469E+01
 0.3610011204608E+01
 0.3521944244532E+01
 0.3413703573064E+01
 0.3282120204760E+01
 0.3123523369360E+01
 0.2933691184443E+01
 0.2707839059013E+01
 0.2440692102822E+01
 0.2126727437303E+01
 0.1760783304558E+01
 0.1339736435048E+01
 0.8694603797260E+00
 0.3694883832149E+01
 0.3684277256080E+01
 0.3667395125244E+01
 0.3643462218479E+01
 0.3611597229193E+01
 0.3570800614082E+01
 0.3519934428900E+01
 0.3457692327165E+01
 0.3382557584056E+01
 0.3292746555418E+01
 0.3186134672905E+01
 0.3060162527224E+01
 0.2911721836373E+01
 0.2737027224221E+01
 0.2531493671031E+01
 0.2289668947400E+01
 0.2005327856043E+01
 0.1671954421290E+01
 0.1284277251596E+01
 0.8444480738104E+00
 0.3529293057273E+01
 0.3506202368929E+01
 0.3476728960711E+01
 0.3440312108163E+01
 0.3396335862423E+01
 0.3344126415531E+01
 0.3282941001672E+01
 0.3211945765119E+01
 0.3130179570941E+01
 0.3036499233866E+01
 0.2929499957295E+01
 0.2807403103108E+01
 0.2667902466676E+01
 0.2507961825576E+01
 0.2323565389510E+01
 0.2109449603402E+01
 0.1858918071366E+01
 0.1564008674046E+01
 0.1216684928761E+01
 0.8140322613324E+00
 0.3354381812107E+01
 0.3317790400454E+01
 0.3274592145019E+01
 0.3224411786771E+01
 0.3166866903657E+01
 0.3101578382182E+01
 0.3028171365914E+01
 0.2946266031373E+01
 0.2855455124812E+01
 0.2755262943144E+01
 0.2645077487841E+01
 0.2524043609476E+01
 0.2390899859117E+01
 0.2243735787027E+01
 0.2079641680143E+01
 0.1894228569006E+01
 0.1681039837602E+01
 0.1431075807091E+01
 0.1133207654196E+01
 0.7779580592248E+00
 0.3172279750229E+01
 0.3121479899219E+01
 0.3063750388328E+01
 0.2998855213508E+01
 0.2926595762972E+01
 0.2846832603385E+01
 0.2759499438351E+01
 0.2664609832244E+01
 0.2562254776461E+01
 0.2452586621010E+01
 0.2335781495752E+01
 0.2211967220315E+01
 0.2081095627384E+01
 0.1942725240649E+01
 0.1795659675532E+01
 0.1637356109872E+01
 0.1462986617336E+01
 0.1264050141291E+01
 0.1027057197917E+01
 0.7349859796846E+00
 0.2985280348524E+01
 0.2919947475347E+01
 0.2847300478485E+01
 0.2767190032569E+01
 0.2679542008060E+01
 0.2584386325120E+01
 0.2481881666027E+01
 0.2372337554882E+01
 0.2256233717686E+01
 0.2134234785914E+01
 0.2007195781849E+01
 0.1876149514660E+01
 0.1742259378668E+01
 0.1606706860479E+01
 0.1470455587039E+01
 0.1333778851881E+01
 0.1195322800047E+01
 0.1050249447745E+01
 0.8865349895452E+00
 0.6807531508898E+00
 0.2795797832898E+01
 0.2716062686182E+01
 0.2628627204495E+01
 0.2533383852916E+01
 0.2430328404301E+01
 0.2319590951796E+01
 0.2201466451329E+01
 0.2076447265185E+01
 0.1945259714408E+01
 0.1808906171235E+01
 0.1668713458345E+01
 0.1526386832163E+01
 0.1384065622706E+01
 0.1244369391559E+01
 0.1110406764976E+01
 0.9856789107800E+00
 0.8737049552722E+00
 0.7769023792309E+00
 0.6931913167710E+00
 0.6044117790803E+00
 0.2606303128255E+01
 0.2512805817800E+01
 0.2411303874308E+01
 0.2301707713899E+01
 0.2184050965037E+01
 0.2058519102032E+01
 0.1925480149531E+01
 0.1785520318232E+01
 0.1639488294152E+01
 0.1488552869464E+01
 0.1334279929899E+01
 0.1178736843778E+01
 0.1024635317867E+01
 0.8755278789328E+00
 0.7360778764422E+00
 0.6124270419929E+00
 0.5126950854933E+00
 0.4476812376455E+00
 0.4320105971179E+00
 0.4819234423692E+00
 0.2419238780807E+01
 0.2313149854860E+01
 0.2198933421466E+01
 0.2076526429336E+01
 0.1946007607455E+01
 0.1807622579137E+01
 0.1661812174916E+01
 0.1509246672702E+01
 0.1350870972551E+01
 0.1187967780961E+01
 0.1022248869590E+01
 0.8559897837649E+00
 0.6922330652517E+00
 0.5351023791253E+00
 0.3902973954329E+00
 0.2658518175936E+00
 0.1729889901493E+00
 0.1261064993578E+00
 0.1505155821642E+00
 0.3139473667540E+00
 0.2236911504392E+01
 0.2119902806957E+01
 0.1994921481166E+01
 0.1861974018369E+01
 0.1721235575424E+01
 0.1573076484440E+01
 0.1418091913532E+01
 0.1257138119122E+01
 0.1091382439469E+01
 0.9223771452781E+00
 0.7521724490728E+00
 0.5834966951628E+00
 0.4200700515792E+00
 0.2672797914144E+00
 0.1346171302690E+00
 0.5701868647069E-01
 0.8713489744944E-01
 0.9752460951378E-01
 0.2473045964364E-01
 0.2133844092138E+00
 0.2061371510125E+01
 0.1935522415706E+01
 0.1802196137685E+01
 0.1661528244986E+01
 0.1513862340554E+01
 0.1359785778940E+01
 0.1200165520322E+01
 0.1036190612778E+01
 0.8694323006340E+00
 0.7019364128142E+00
 0.5363732439042E+00
 0.3763125916441E+00
 0.2269308220288E+00
 0.9903636539592E-01
 0.6147325540290E-01
 0.1249883622353E+00
 0.1578558002350E+00
 0.1279913658332E+00
 0.8541714845378E-02
 0.2367477654710E+00
 0.1894307655709E+01
 0.1761958578777E+01
 0.1622975877795E+01
 0.1477668890733E+01
 0.1326603055137E+01
 0.1170648891061E+01
 0.1011020934160E+01
 0.8493198712330E+00
 0.6875942947526E+00
 0.5284422365594E+00
 0.3751967797801E+00
 0.2323873779000E+00
 0.1081138166076E+00
 0.4954355837071E-01
 0.1064870253112E+00
 0.1475988001024E+00
 0.1426346496078E+00
 0.7653510287409E-01
 0.6414853969889E-01
 0.2829058456845E+00
 0.1736986725251E+01
 0.1600579167947E+01
 0.1458684483974E+01
 0.1311790788590E+01
 0.1160697673693E+01
 0.1006575088072E+01
 0.8509919231016E+00
 0.6959411573932E+00
 0.5438855857728E+00
 0.3978507110574E+00
 0.2616437701298E+00
 0.1407070956730E+00
 0.5103989357426E-01
 0.6805347346075E-01
 0.1124882474528E+00
 0.1242260746639E+00
 0.9192481269459E-01
 0.9512876677574E-02
 0.1278172110400E+00
 0.3101862312226E+00
 0.1590238828267E+01
 0.1452174521215E+01
 0.1309984476162E+01
 0.1164289622510E+01
 0.1016096521831E+01
 0.8668501952017E+00
 0.7184277949144E+00
 0.5731255249491E+00
 0.4336713324492E+00
 0.3032947680097E+00
 0.1859774279402E+00
 0.8792342666176E-01
 0.3714370163318E-01
 0.6922490469860E-01
 0.9193116690351E-01
 0.8230815926190E-01
 0.3520541569903E-01
 0.5200680902569E-01
 0.1744542626993E+00
 0.3246539871019E+00
 0.1454480227509E+01
 0.1317014993502E+01
 0.1176871050405E+01
 0.1034711113309E+01
 0.8917071447439E+00
 0.7495431441076E+00
 0.6103375940458E+00
 0.4765719181389E+00
 0.3510609542802E+00
 0.2369926008470E+00
 0.1381826422256E+00
 0.6093690820838E-01
 0.3307695429252E-01
 0.5495250873579E-01
 0.6058054746834E-01
 0.3791051472679E-01
 0.1767193589902E-01
 0.9945303953224E-01
 0.2074054079714E+00
 0.3331596502296E+00
 0.1329772838490E+01
 0.1194943586861E+01
 0.1058778573355E+01
 0.9218904923879E+00
 0.7856070663838E+00
 0.6518398314752E+00
 0.5228906213397E+00
 0.4013103912893E+00
 0.2898332425848E+00
 0.1913887993276E+00
 0.1093044477822E+00
 0.4875483089765E-01
 0.2648150197317E-01
 0.3463735848970E-01
 0.2858116349552E-01
 0.9440023262301E-02
 0.5850344749601E-01
 0.1353157984574E+00
 0.2310509864572E+00
 0.3402339263657E+00
 0.1215927300505E+01
 0.1085475414560E+01
 0.9546663963466E+00
 0.8240589595182E+00
 0.6952180772983E+00
 0.5703252037727E+00
 0.4518269967384E+00
 0.3422391996887E+00
 0.2440733301803E+00
 0.1598396373710E+00
 0.9215587231758E-01
 0.4431355745079E-01
 0.2175173015507E-01
 0.1727222897719E-01
 0.1207743533106E-01
 0.3837029379628E-01
 0.9096519101001E-01
 0.1621390171926E+00
 0.2485877535213E+00
 0.3472505219450E+00
 0.1112627500276E+01
 0.9879291968790E+00
 0.8632165375875E+00
 0.7391792326150E+00
 0.6178471246409E+00
 0.5017563283883E+00
 0.3934467306687E+00
 0.2952784852624E+00
 0.2094092663795E+00
 0.1378182579967E+00
 0.8232846988025E-01
 0.4454340858017E-01
 0.2479089770445E-01
 0.1969985997963E-01
 0.3206787276497E-01
 0.6525239200340E-01
 0.1160192654739E+00
 0.1819043801821E+00
 0.2608539589138E+00
 0.3512930986993E+00
 0.1019596918060E+01
 0.9016083527880E+00
 0.7830188815034E+00
 0.6652259852190E+00
 0.5510941309276E+00
 0.4435492342810E+00
 0.3450756715413E+00
 0.2577003457005E+00
 0.1830974941255E+00
 0.1226533657251E+00
 0.7744481478107E-01
 0.4802876835243E-01
 0.3402217523585E-01
 0.3521807301759E-01
 0.5298162983860E-01
 0.8677018180618E-01
 0.1348576096300E+00
 0.1956558214009E+00
 0.2677841395420E+00
 0.3501365418710E+00
 0.9366048659207E+00
 0.8255140729304E+00
 0.7121906610448E+00
 0.5999120303922E+00
 0.4927209786978E+00
 0.3936806799791E+00
 0.3048687696040E+00
 0.2277601093143E+00
 0.1634541841724E+00
 0.1127595386637E+00
 0.7616312447720E-01
 0.5372403221260E-01
 0.4520542350352E-01
 0.5074981529523E-01
 0.7040452558414E-01
 0.1032500839597E+00
 0.1480533173168E+00
 0.2036828305079E+00
 0.2691159857707E+00
 0.3433466334052E+00
 0.8633152833424E+00
 0.7576712636913E+00
 0.6478313275020E+00
 0.5407313183185E+00
 0.4410683214843E+00
 0.3511040217216E+00
 0.2720775378570E+00
 0.2047900157324E+00
 0.1498057141417E+00
 0.1074842355869E+00
 0.7794118125199E-01
 0.6104371843338E-01
 0.5660143661267E-01
 0.6449682041085E-01
 0.8427233946387E-01
 0.1150260779137E+00
 0.1557788774180E+00
 0.2056971620320E+00
 0.2641138230365E+00
 0.3302516202048E+00
 0.7982496925614E+00
 0.6931246584699E+00
 0.5860497563786E+00
 0.4864529458536E+00
 0.3964362626105E+00
 0.3166226176837E+00
 0.2474290140107E+00
 0.1892206179790E+00
 0.1422867058398E+00
 0.1067746641827E+00
 0.8264592674220E-01
 0.6970496329482E-01
 0.6769616073460E-01
 0.7626123092186E-01
 0.9475843384296E-01
 0.1223192381774E+00
 0.1580599319844E+00
 0.2012335045996E+00
 0.2515259160488E+00
 0.3092248673024E+00
 0.7336765098909E+00
 0.6228227232335E+00
 0.5271250814431E+00
 0.4409517956505E+00
 0.3628958424929E+00
 0.2933047447515E+00
 0.2328142987179E+00
 0.1819930522293E+00
 0.1412091021857E+00
 0.1105979098763E+00
 0.9007645788391E-01
 0.7939762097018E-01
 0.7819811644665E-01
 0.8595775210110E-01
 0.1019395465285E+00
 0.1252447437926E+00
 0.1549152351513E+00
 0.1900319420990E+00
 0.2298236794659E+00
 0.2754727425267E+00
</DataArray>
<CellData Tensors="'E_Centroid','S_Centroid'">
<DataArray type="Float64" Name="E_Centroid" NumberOfComponents="4" ComponentName0="E11" ComponentName1="E22" ComponentName2="E33" ComponentName3="E12" format="ascii">
-0.3989483939798E-03  0.2983744632263E-02  0.0000000000000E+00  0.8325363503449E-03
-0.6816981541698E-03  0.2518313255520E-02  0.0000000000000E+00  0.7127740795934E-04
-0.5521961320549E-03  0.2249593949461E-02  0.0000000000000E+00  0.1193230593652E-03
-0.5089890027260E-03  0.2030243451845E-02  0.0000000000000E+00  0.1078687993125E-03
-0.4521707061343E-03  0.1811963705118E-02  0.0000000000000E+00  0.1097539978919E-03
-0.3976465711996E-03  0.1591582050410E-02  0.0000000000000E+00  0.1119801471563E-03
-0.3409944550836E-03  0.1365246027322E-02  0.0000000000000E+00  0.1152290635013E-03
-0.2826435399669E-03  0.1131557305583E-02  0.0000000000000E+00  0.1190077513762E-03
-0.2221295278679E-03  0.8893583761735E-03  0.0000000000000E+00  0.1232923808503E-03
-0.1592412242420E-03  0.6376277589347E-03  0.0000000000000E+00  0.1280926301468E-03
-0.9369285481087E-04  0.3752546159390E-03  0.0000000000000E+00  0.1334842534828E-03
-0.2516424862962E-04  0.1009426958403E-03  0.0000000000000E+00  0.1395831699115E-03
 0.4673918514887E-04 -0.1868909863609E-03  0.0000000000000E+00  0.1465526907123E-03
 0.1225075206708E-03 -0.4902234047948E-03  0.0000000000000E+00  0.1546180943933E-03
 0.2027658240207E-03 -0.8115572521241E-03  0.0000000000000E+00  0.1640811358599E-03
 0.2883303305516E-03 -0.1154187454098E-02  0.0000000000000E+00  0.1754038492833E-03
 0.3803102872433E-03 -0.1522605965966E-02  0.0000000000000E+00  0.1893280545078E-03
 0.4803587090607E-03 -0.1923438654052E-02  0.0000000000000E+00  0.2072221816809E-03
 0.5907248921226E-03 -0.2367945005896E-02  0.0000000000000E+00  0.2336388254180E-03
 0.7135974593198E-03 -0.2874280988900E-02  0.0000000000000E+00  0.2871545492043E-03
 0.8491943622908E-03 -0.3449516212379E-02  0.0000000000000E+00  0.4014919019160E-03
 0.9932727208399E-03 -0.4075678706704E-02  0.0000000000000E+00  0.6045016517269E-03
 0.1138528745899E-02 -0.4726804296177E-02  0.0000000000000E+00  0.9032333607221E-03
 0.1278334782294E-02 -0.5383715492674E-02  0.0000000000000E+00  0.1290321097954E-02
 0.1408209101872E-02 -0.6036136966034E-02  0.0000000000000E+00  0.1755009850935E-02
 0.1525231033809E-02 -0.6679528428395E-02  0.0000000000000E+00  0.2289431060710E-02
 0.1626915588584E-02 -0.7311391002282E-02  0.0000000000000E+00  0.2890357385241E-02
 0.1710205704762E-02 -0.7928608676010E-02  0.0000000000000E+00  0.3558714528630E-02
 0.1770699314668E-02 -0.8525074638082E-02  0.0000000000000E+00  0.4297933721937E-02
 0.1803499499254E-02 -0.9088176861847E-02  0.0000000000000E+00  0.5105939183987E-02
 0.1807160042407E-02 -0.9604735903028E-02  0.0000000000000E+00  0.5965013265586E-02
 0.1784109100451E-02 -0.1008143477096E-01  0.0000000000000E+00  0.6859788490404E-02
 0.1735435910716E-02 -0.1053840284311E-01  0.0000000000000E+00  0.7800089612011E-02
 0.1657975790263E-02 -0.1099303857583E-01  0.0000000000000E+00  0.8815306751271E-02
 0.1545791200665E-02 -0.1146609578288E-01  0.0000000000000E+00  0.9954254928051E-02
 0.1378224240810E-02 -0.1198635792474E-01  0.0000000000000E+00  0.1129501875383E-01
 0.1151443916475E-02 -0.1260469842418E-01  0.0000000000000E+00  0.1299290354355E-01
 0.6644584948516E-03 -0.1336173845413E-01  0.0000000000000E+00  0.1528723908420E-01
 0.3860843984260E-03 -0.1451546587568E-01  0.0000000000000E+00  0.1894244509488E-01
-0.4404799679849E-02 -0.1475559822003E-01  0.0000000000000E+00  0.2568664665342E-01
 0.1306793355354E-01 -0.1713552994624E-01  0.0000000000000E+00  0.2901967161595E-01
-0.2558144388158E-03  0.2347484338544E-02  0.0000000000000E+00  0.8861994792444E-03
-0.5246131994656E-03  0.2240271444932E-02  0.0000000000000E+00  0.5054921894315E-03
-0.4967698905735E-03  0.1971489785268E-02  0.0000000000000E+00  0.3215547224574E-03
-0.4364829346001E-03  0.1756707485673E-02  0.0000000000000E+00  0.3218927112434E-03
-0.3874109982593E-03  0.1547597594882E-02  0.0000000000000E+00  0.3195220203837E-03
-0.3342951803005E-03  0.1335446214203E-02  0.0000000000000E+00  0.3269810217799E-03
-0.2801255023909E-03  0.1117304205027E-02  0.0000000000000E+00  0.3367748621135E-03
-0.2238249252029E-03  0.8914093473259E-03  0.0000000000000E+00  0.3485045654344E-03
-0.1653340961390E-03  0.6566701210146E-03  0.0000000000000E+00  0.3617198006679E-03
-0.1043920440093E-03  0.4120985477205E-03  0.0000000000000E+00  0.3764628778840E-03
-0.4076150684054E-04  0.1566442668006E-03  0.0000000000000E+00  0.3929367820290E-03
 0.2585364181425E-04 -0.1109279820266E-03  0.0000000000000E+00  0.4114927249307E-03
 0.9581457292906E-04 -0.3921348228191E-03  0.0000000000000E+00  0.4326250250163E-03
 0.1695736778016E-03 -0.6888801621749E-03  0.0000000000000E+00  0.4570063189796E-03
 0.2477011257916E-03 -0.1003587452543E-02  0.0000000000000E+00  0.4855743424943E-03
 0.3309224488808E-03 -0.1339430352767E-02  0.0000000000000E+00  0.5197234028709E-03
 0.4201814134979E-03 -0.1700712157360E-02  0.0000000000000E+00  0.5616929206742E-03
 0.5166268278426E-03 -0.2093578351117E-02  0.0000000000000E+00  0.6158393998995E-03
 0.6203217285105E-03 -0.2526537642709E-02  0.0000000000000E+00  0.6923391746729E-03
 0.7291447200815E-03 -0.3007562520096E-02  0.0000000000000E+00  0.8085543213214E-03
 0.8406540671581E-03 -0.3536197262216E-02  0.0000000000000E+00  0.9821658404895E-03
 0.9530429817452E-03 -0.4100403692050E-02  0.0000000000000E+00  0.1224775891701E-02
 0.1063715953289E-02 -0.4683480902969E-02  0.0000000000000E+00  0.1540309322051E-02
 0.1169089744337E-02 -0.5271302319789E-02  0.0000000000000E+00  0.1926174377135E-02
 0.1265491398779E-02 -0.5854391957017E-02  0.0000000000000E+00  0.2376906071631E-02
 0.1349527904756E-02 -0.6426680699910E-02  0.0000000000000E+00  0.2887306144301E-02
 0.1417884232919E-02 -0.6983412898705E-02  0.0000000000000E+00  0.3453793239774E-02
 0.1466880544087E-02 -0.7519228392328E-02  0.0000000000000E+00  0.4074155205150E-02
 0.1492845955005E-02 -0.8026743254788E-02  0.0000000000000E+00  0.4745099331347E-02
 0.1494256785845E-02 -0.8497065317259E-02  0.0000000000000E+00  0.5459279519547E-02
 0.1471280502325E-02 -0.8923474382483E-02  0.0000000000000E+00  0.6208612561946E-02
 0.1421659672537E-02 -0.9304733320719E-02  0.0000000000000E+00  0.6990291405832E-02
 0.1339750958479E-02 -0.9643800788306E-02  0.0000000000000E+00  0.7809187790834E-02
 0.1217322839449E-02 -0.9942921983837E-02  0.0000000000000E+00  0.8680592245691E-02
 0.1038521637984E-02 -0.1019898150636E-01  0.0000000000000E+00  0.9631706225920E-02
 0.7816143282282E-03 -0.1040006567582E-01  0.0000000000000E+00  0.1070100937682E-01
 0.3737544349684E-03 -0.1050449182659E-01  0.0000000000000E+00  0.1193929483488E-01
-0.1759206288606E-03 -0.1043447091946E-01  0.0000000000000E+00  0.1333065644032E-01
-0.1518113851481E-02 -0.9756819836563E-02  0.0000000000000E+00  0.1497953127039E-01
-0.1957763202595E-02 -0.7816333341050E-02  0.0000000000000E+00  0.1184562154971E-01
 0.1538735327557E-01 -0.1068447392112E-01  0.0000000000000E+00  0.8863493671512E-02
-0.1640557620884E-03  0.1885343715186E-02  0.0000000000000E+00  0.8502168356654E-03
-0.3830720462218E-03  0.1870010682697E-02  0.0000000000000E+00  0.7318739707985E-03
-0.4135076259725E-03  0.1687157151559E-02  0.0000000000000E+00  0.5534602519964E-03
-0.3689474266345E-03  0.1482173223585E-02  0.0000000000000E+00  0.5182662889483E-03
-0.3220049354289E-03  0.1284488704624E-02  0.0000000000000E+00  0.5214918132112E-03
-0.2728048784967E-03  0.1081836363074E-02  0.0000000000000E+00  0.5329036828029E-03
-0.2210692588767E-03  0.8724292435110E-03  0.0000000000000E+00  0.5500348147096E-03
-0.1671785940299E-03  0.6547594405493E-03  0.0000000000000E+00  0.5700632832602E-03
-0.1109246160717E-03  0.4278630882999E-03  0.0000000000000E+00  0.5925760560684E-03
-0.5219039237370E-04  0.1908665349156E-03  0.0000000000000E+00  0.6175501050197E-03
 0.9221907141213E-05 -0.5718336317220E-04  0.0000000000000E+00  0.6453374186979E-03
 0.7355302511595E-04 -0.3174249317890E-03  0.0000000000000E+00  0.6765220395915E-03
 0.1411082274244E-03 -0.5912703165345E-03  0.0000000000000E+00  0.7119278220339E-03
 0.2122666608185E-03 -0.8805000133322E-03  0.0000000000000E+00  0.7526728459045E-03
 0.2874890727966E-03 -0.1187372117277E-02  0.0000000000000E+00  0.8003103859971E-03
 0.3673171690264E-03 -0.1514803310576E-02  0.0000000000000E+00  0.8571166619132E-03
 0.4523329069188E-03 -0.1866627503215E-02  0.0000000000000E+00  0.9267219065616E-03
 0.5426687562647E-03 -0.2247758028451E-02  0.0000000000000E+00  0.1015735189136E-02
 0.6365029099916E-03 -0.2663205586622E-02  0.0000000000000E+00  0.1135470731775E-02
 0.7298595317093E-03 -0.3115246968258E-02  0.0000000000000E+00  0.1299244172654E-02
 0.8196126664287E-03 -0.3600390430485E-02  0.0000000000000E+00  0.1515562065865E-02
 0.9051398143128E-03 -0.4109579335081E-02  0.0000000000000E+00  0.1787239059692E-02
 0.9862598762043E-03 -0.4631544977187E-02  0.0000000000000E+00  0.2114987546106E-02
 0.1061438448707E-02 -0.5155814716974E-02  0.0000000000000E+00  0.2497794895344E-02
 0.1127935521295E-02 -0.5673953187123E-02  0.0000000000000E+00  0.2932846550824E-02
 0.1182459460224E-02 -0.6179226071647E-02  0.0000000000000E+00  0.3416307274503E-02
 0.1221504777855E-02 -0.6665532786135E-02  0.0000000000000E+00  0.3943937126452E-02
 0.1241549002021E-02 -0.7126290187994E-02  0.0000000000000E+00  0.4510720856688E-02
 0.1240048211649E-02 -0.7554100279315E-02  0.0000000000000E+00  0.5109506266023E-02
 0.1216726649209E-02 -0.7941909234828E-02  0.0000000000000E+00  0.5731850067240E-02
 0.1171452635461E-02 -0.8283750089522E-02  0.0000000000000E+00  0.6372534849195E-02
 0.1100000783668E-02 -0.8573452791252E-02  0.0000000000000E+00  0.7030126307209E-02
 0.9941666551224E-03 -0.8803945181576E-02  0.0000000000000E+00  0.7703442168751E-02
 0.8427509064565E-03 -0.8965015857258E-02  0.0000000000000E+00  0.8391756926637E-02
 0.6306321774152E-03 -0.9037427376379E-02  0.0000000000000E+00  0.9091888426363E-02
 0.3306910414373E-03 -0.8982813927826E-02  0.0000000000000E+00  0.9786975919796E-02
-0.7820704591899E-04 -0.8728774316346E-02  0.0000000000000E+00  0.1039039345583E-01
-0.6440372656875E-03 -0.8130562750225E-02  0.0000000000000E+00  0.1070415599870E-01
-0.1218042263946E-02 -0.6863752243679E-02  0.0000000000000E+00  0.9512846379968E-02
 0.1519969524328E-02 -0.5948494941033E-02  0.0000000000000E+00  0.4135227969332E-02
 0.1536334355400E-01 -0.8749367967712E-02  0.0000000000000E+00  0.3863668459231E-02
-0.1041976849146E-03  0.1501905347374E-02  0.0000000000000E+00  0.8149485843301E-03
-0.2697282458958E-03  0.1507934756426E-02  0.0000000000000E+00  0.8574852845450E-03
-0.3236106682132E-03  0.1385799918945E-02  0.0000000000000E+00  0.7486769652066E-03
-0.2995175804138E-03  0.1208272781820E-02  0.0000000000000E+00  0.7069418824209E-03
-0.2582563632831E-03  0.1022793341420E-02  0.0000000000000E+00  0.7115167168557E-03
-0.2127706590618E-03  0.8309037914909E-03  0.0000000000000E+00  0.7297584231049E-03
-0.1640618388420E-03  0.6307654149372E-03  0.0000000000000E+00  0.7545331113674E-03
-0.1127502351996E-03  0.4217141285989E-03  0.0000000000000E+00  0.7834237992756E-03
-0.5896757299953E-04  0.2030206589015E-03  0.0000000000000E+00  0.8155591785709E-03
-0.2675855187692E-05 -0.2600877400705E-04  0.0000000000000E+00  0.8510068379018E-03
 0.5623080841886E-04 -0.2661894084751E-03  0.0000000000000E+00  0.8902535300268E-03
 0.1179228705527E-03 -0.5185288803648E-03  0.0000000000000E+00  0.9341235881339E-03
 0.1826241498074E-03 -0.7842977185164E-03  0.0000000000000E+00  0.9837609494792E-03
 0.2506082421815E-03 -0.1065102346974E-02  0.0000000000000E+00  0.1040706561027E-02
 0.3221769519717E-03 -0.1362957963946E-02  0.0000000000000E+00  0.1107074778544E-02
 0.3976080323433E-03 -0.1680397477679E-02  0.0000000000000E+00  0.1185906726232E-02
 0.4769512879482E-03 -0.2020533259956E-02  0.0000000000000E+00  0.1281908952351E-02
 0.5592889608293E-03 -0.2386685189201E-02  0.0000000000000E+00  0.1402624041519E-02
 0.6415800202714E-03 -0.2780993020079E-02  0.0000000000000E+00  0.1558330727388E-02
 0.7192318950174E-03 -0.3202555709380E-02  0.0000000000000E+00  0.1758276749620E-02
 0.7891832590480E-03 -0.3646647133643E-02  0.0000000000000E+00  0.2005353866882E-02
 0.8514641246267E-03 -0.4105984035682E-02  0.0000000000000E+00  0.2297378221811E-02
 0.9071319527199E-03 -0.4572524590132E-02  0.0000000000000E+00  0.2632469575135E-02
 0.9559799734062E-03 -0.5038335331074E-02  0.0000000000000E+00  0.3009568569619E-02
 0.9961652234782E-03 -0.5496024397403E-02  0.0000000000000E+00  0.3426784065726E-02
 0.1024836968289E-02 -0.5938735139705E-02  0.0000000000000E+00  0.3880653439822E-02
 0.1038782649986E-02 -0.6359731252042E-02  0.0000000000000E+00  0.4366031088363E-02
 0.1035074049222E-02 -0.6751971944262E-02  0.0000000000000E+00  0.4875762614460E-02
 0.1012103639113E-02 -0.7108315469024E-02  0.0000000000000E+00  0.5400583426439E-02
 0.9700145303326E-03 -0.7422235138138E-02  0.0000000000000E+00  0.5931291750319E-02
 0.9082720202824E-03 -0.7687075229467E-02  0.0000000000000E+00  0.6461921358649E-02
 0.8223139479974E-03 -0.7893496423152E-02  0.0000000000000E+00  0.6987725886600E-02
 0.7039522974969E-03 -0.8028632127824E-02  0.0000000000000E+00  0.7499358353291E-02
 0.5435766279522E-03 -0.8074890606687E-02  0.0000000000000E+00  0.7979046393358E-02
 0.3303216815493E-03 -0.8004902509557E-02  0.0000000000000E+00  0.8393266238189E-02
 0.5703013865205E-04 -0.7774114060893E-02  0.0000000000000E+00  0.8665933641440E-02
-0.2621872887332E-03 -0.7315327357150E-02  0.0000000000000E+00  0.8628302608384E-02
-0.5286922876659E-03 -0.6529260821173E-02  0.0000000000000E+00  0.7842483661717E-02
-0.1226555122236E-04 -0.5522416372652E-02  0.0000000000000E+00  0.5193367398776E-02
 0.4063056547622E-02 -0.5580347934612E-02  0.0000000000000E+00  0.5702154543918E-03
 0.1457427342472E-01 -0.7833488612851E-02  0.0000000000000E+00  0.2287637829765E-02
-0.6331601538591E-04  0.1163744936960E-02  0.0000000000000E+00  0.7936546281025E-03
-0.1809117450687E-03  0.1168741789192E-02  0.0000000000000E+00  0.9356035519677E-03
-0.2382378536520E-03  0.1082473005776E-02  0.0000000000000E+00  0.9038778182868E-03
-0.2296564923474E-03  0.9336767258077E-03  0.0000000000000E+00  0.8799795922478E-03
-0.1960225189954E-03  0.7634671487677E-03  0.0000000000000E+00  0.8902881249563E-03
-0.1546358715492E-03  0.5828336788237E-03  0.0000000000000E+00  0.9165493212030E-03
-0.1091576771473E-03  0.3924909645585E-03  0.0000000000000E+00  0.9500773211333E-03
-0.6064065792970E-04  0.1923828433531E-03  0.0000000000000E+00  0.9883035583340E-03
-0.9507634281730E-05 -0.1778557663526E-04  0.0000000000000E+00  0.1030403727932E-02
 0.4412445782642E-04 -0.2384882953857E-03  0.0000000000000E+00  0.1076504144853E-02
 0.1002616412901E-03 -0.4703638222574E-03  0.0000000000000E+00  0.1127272281494E-02
 0.1589813301669E-03 -0.7142587434972E-03  0.0000000000000E+00  0.1183768941511E-02
 0.2204059073826E-03 -0.9712677740880E-03  0.0000000000000E+00  0.1247443795856E-02
 0.2846753000138E-03 -0.1242777801647E-02  0.0000000000000E+00  0.1320220300734E-02
 0.3518938535538E-03 -0.1530495228588E-02  0.0000000000000E+00  0.1404689387110E-02
 0.4220134541419E-03 -0.1836465479144E-02  0.0000000000000E+00  0.1504481461175E-02
 0.4945006767019E-03 -0.2162926346566E-02  0.0000000000000E+00  0.1624894563340E-02
 0.5675836039172E-03 -0.2511648965119E-02  0.0000000000000E+00  0.1773368700103E-02
 0.6375735862303E-03 -0.2882688472676E-02  0.0000000000000E+00  0.1958312623286E-02
 0.6998780787622E-03 -0.3273382700373E-02  0.0000000000000E+00  0.2185530683794E-02
 0.7517786908383E-03 -0.3678577712476E-02  0.0000000000000E+00  0.2454320017460E-02
 0.7937073864345E-03 -0.4092152816664E-02  0.0000000000000E+00  0.2759527670170E-02
 0.8273627747661E-03 -0.4508050349786E-02  0.0000000000000E+00  0.3097281138046E-02
 0.8534032522614E-03 -0.4920086585684E-02  0.0000000000000E+00  0.3465723821529E-02
 0.8707955267794E-03 -0.5321820185510E-02  0.0000000000000E+00  0.3862832291812E-02
 0.8773253998316E-03 -0.5706612302961E-02  0.0000000000000E+00  0.4284830299816E-02
 0.8703856167417E-03 -0.6067608779644E-02  0.0000000000000E+00  0.4725558054798E-02
 0.8478241582521E-03 -0.6397771365326E-02  0.0000000000000E+00  0.5176285740207E-02
 0.8088021777735E-03 -0.6690217507898E-02  0.0000000000000E+00  0.5626349596296E-02
 0.7537215781491E-03 -0.6938445708798E-02  0.0000000000000E+00  0.6065335992424E-02
 0.6820953997939E-03 -0.7135032896740E-02  0.0000000000000E+00  0.6484704615754E-02
 0.5902045262414E-03 -0.7268938859593E-02  0.0000000000000E+00  0.6874476155382E-02
 0.4720962537755E-03 -0.7324729331586E-02  0.0000000000000E+00  0.7216250480350E-02
 0.3226674197165E-03 -0.7282287137240E-02  0.0000000000000E+00  0.7476738141788E-02
 0.1419855882672E-03 -0.7114262085953E-02  0.0000000000000E+00  0.7595761890710E-02
-0.5264608659744E-04 -0.6785065800585E-02  0.0000000000000E+00  0.7459452663111E-02
-0.1926709987635E-03 -0.6257326495438E-02  0.0000000000000E+00  0.6844867676174E-02
-0.2287809663831E-04 -0.5548068789676E-02  0.0000000000000E+00  0.5303537763216E-02
 0.1327434504615E-02 -0.5000362532484E-02  0.0000000000000E+00  0.2304291457726E-02
 0.5691804830947E-02 -0.5585051361437E-02  0.0000000000000E+00 -0.9661979251582E-03
 0.1370919384562E-01 -0.7305653662501E-02  0.0000000000000E+00  0.1628830661965E-02
-0.3418279427812E-04  0.8555179096884E-03  0.0000000000000E+00  0.7865071514836E-03
-0.1111832072310E-03  0.8521999150130E-03  0.0000000000000E+00  0.9913985747516E-03
-0.1616204909257E-03  0.7856805526508E-03  0.0000000000000E+00  0.1027901546326E-02
-0.1620504662429E-03  0.6608247463342E-03  0.0000000000000E+00  0.1034302150510E-02
-0.1356745140673E-03  0.5068926459261E-03  0.0000000000000E+00  0.1056947171902E-02
-0.9867090245708E-04  0.3380481041757E-03  0.0000000000000E+00  0.1093052430320E-02
-0.5651560256123E-04  0.1577770836497E-03  0.0000000000000E+00  0.1136373246907E-02
-0.1092335795599E-04 -0.3312015543651E-04  0.0000000000000E+00  0.1184508261311E-02
 0.3741271168516E-04 -0.2344978392514E-03  0.0000000000000E+00  0.1236866294352E-02
 0.8820183287072E-04 -0.4465540112003E-03  0.0000000000000E+00  0.1293743175050E-02
 0.1413324898011E-03 -0.6697254570811E-03  0.0000000000000E+00  0.1356006405406E-02
 0.1967757348096E-03 -0.9046711474792E-03  0.0000000000000E+00  0.1424957559554E-02
 0.2545355252815E-03 -0.1152281190739E-02  0.0000000000000E+00  0.1502328620046E-02
 0.3145978188849E-03 -0.1413685741838E-02  0.0000000000000E+00  0.1590371867975E-02
 0.3768436795934E-03 -0.1690232292351E-02  0.0000000000000E+00  0.1692048389398E-02
 0.4408742511859E-03 -0.1983412385844E-02  0.0000000000000E+00  0.1811354744468E-02
 0.5056198324432E-03 -0.2294562111073E-02  0.0000000000000E+00  0.1953707856628E-02
 0.5687109423161E-03 -0.2624132860941E-02  0.0000000000000E+00  0.2125809348872E-02
 0.6262191945789E-03 -0.2970752220160E-02  0.0000000000000E+00  0.2334015750211E-02
 0.6738510020590E-03 -0.3330811798139E-02  0.0000000000000E+00  0.2581369720187E-02
 0.7093208856188E-03 -0.3699110725384E-02  0.0000000000000E+00  0.2864782598763E-02
 0.7333408971536E-03 -0.4070347930783E-02  0.0000000000000E+00  0.3177269165761E-02
 0.7479542371761E-03 -0.4439738888997E-02  0.0000000000000E+00  0.3513428382192E-02
 0.7544079648565E-03 -0.4802326792991E-02  0.0000000000000E+00  0.3870304924889E-02
 0.7523925766280E-03 -0.5152511076425E-02  0.0000000000000E+00  0.4245148814821E-02
 0.7404323127987E-03 -0.5484080663379E-02  0.0000000000000E+00  0.4633449162253E-02
 0.7166971469775E-03 -0.5790411459091E-02  0.0000000000000E+00  0.5028013146710E-02
 0.6798818689289E-03 -0.6064736456343E-02  0.0000000000000E+00  0.5418882022122E-02
 0.6298670603699E-03 -0.6300458368745E-02  0.0000000000000E+00  0.5794208806251E-02
 0.5674614508059E-03 -0.6491074928732E-02  0.0000000000000E+00  0.6141944815550E-02
 0.4927902877170E-03 -0.6628813310066E-02  0.0000000000000E+00  0.6450239292561E-02
 0.4039633737341E-03 -0.6702264108690E-02  0.0000000000000E+00  0.6703464712611E-02
 0.2987682985430E-03 -0.6695997288615E-02  0.0000000000000E+00  0.6874886553370E-02
 0.1790760399182E-03 -0.6591428709711E-02  0.0000000000000E+00  0.6918777869394E-02
 0.5868993065122E-04 -0.6367586056244E-02  0.0000000000000E+00  0.6757965989780E-02
-0.1857547340550E-04 -0.6006286827898E-02  0.0000000000000E+00  0.6261314445810E-02
 0.6968929663048E-04 -0.5513881214470E-02  0.0000000000000E+00  0.5207977831627E-02
 0.6576005391831E-03 -0.5001260560946E-02  0.0000000000000E+00  0.3292600906946E-02
 0.2512923782943E-02 -0.4852600167385E-02  0.0000000000000E+00  0.5065094999334E-03
 0.6694847219723E-02 -0.5654989281398E-02  0.0000000000000E+00 -0.1573674274341E-02
 0.1293760166673E-01 -0.6971018518262E-02  0.0000000000000E+00  0.1250365402607E-02
-0.1268646024478E-04  0.5689382888855E-03  0.0000000000000E+00  0.7913787909107E-03
-0.5597448012830E-04  0.5554375238983E-03  0.0000000000000E+00  0.1037051637024E-02
-0.9470509402292E-04  0.4989953466069E-03  0.0000000000000E+00  0.1129716875344E-02
-0.9865938233581E-04  0.3923479061115E-03  0.0000000000000E+00  0.1170676255680E-02
-0.7792634103469E-04  0.2538268483127E-03  0.0000000000000E+00  0.1210935488014E-02
-0.4513904445648E-04  0.9691376572186E-04  0.0000000000000E+00  0.1259140133011E-02
-0.6294687961712E-05 -0.7316595578288E-04  0.0000000000000E+00  0.1313277227718E-02
 0.3632641377659E-04 -0.2546924113058E-03  0.0000000000000E+00  0.1371878544798E-02
 0.8176528561818E-04 -0.4470719673852E-03  0.0000000000000E+00  0.1434749183677E-02
 0.1295635503647E-03 -0.6502102426791E-03  0.0000000000000E+00  0.1502456782000E-02
 0.1794836654107E-03 -0.8643218718935E-03  0.0000000000000E+00  0.1576101666624E-02
 0.2313813659488E-03 -0.1089859537839E-02  0.0000000000000E+00  0.1657225004367E-02
 0.2851314611778E-03 -0.1327486548288E-02  0.0000000000000E+00  0.1747813077326E-02
 0.3405540729912E-03 -0.1578049616331E-02  0.0000000000000E+00  0.1850383676943E-02
 0.3972974737805E-03 -0.1842506225430E-02  0.0000000000000E+00  0.1968147474315E-02
 0.4546254128244E-03 -0.2121773364609E-02  0.0000000000000E+00  0.2105237415137E-02
 0.5110325510847E-03 -0.2416348723774E-02  0.0000000000000E+00  0.2266819131268E-02
 0.5637917206540E-03 -0.2725640100890E-02  0.0000000000000E+00  0.2458533380837E-02
 0.6090037377565E-03 -0.3047339733202E-02  0.0000000000000E+00  0.2684790398812E-02
 0.6428100674426E-03 -0.3377372607471E-02  0.0000000000000E+00  0.2946456509029E-02
 0.6633737858064E-03 -0.3710676780258E-02  0.0000000000000E+00  0.3238809170414E-02
 0.6716304421337E-03 -0.4042568230445E-02  0.0000000000000E+00  0.3553693665367E-02
 0.6698297435396E-03 -0.4369123569649E-02  0.0000000000000E+00  0.3884522119546E-02
 0.6596521751535E-03 -0.4686279299775E-02  0.0000000000000E+00  0.4227165529169E-02
 0.6414438749185E-03 -0.4989182106139E-02  0.0000000000000E+00  0.4577854558207E-02
 0.6145091310406E-03 -0.5272173870940E-02  0.0000000000000E+00  0.4931124776266E-02
 0.5778760779461E-03 -0.5529082806752E-02  0.0000000000000E+00  0.5278773497927E-02
 0.5311199776843E-03 -0.5753589199205E-02  0.0000000000000E+00  0.5609802887667E-02
 0.4748827868734E-03 -0.5939479298396E-02  0.0000000000000E+00  0.5911234213546E-02
 0.4106354772866E-03 -0.6080458635484E-02  0.0000000000000E+00  0.6169197063126E-02
 0.3396464917129E-03 -0.6168978738451E-02  0.0000000000000E+00  0.6368493105125E-02
 0.2625743739300E-03 -0.6194418174894E-02  0.0000000000000E+00  0.6488422437810E-02
 0.1819321411524E-03 -0.6143318499656E-02  0.0000000000000E+00  0.6495708340303E-02
 0.1077418210491E-03 -0.6001579101686E-02  0.0000000000000E+00  0.6336895532418E-02
 0.6788923643841E-04 -0.5758208582004E-02  0.0000000000000E+00  0.5928333603298E-02
 0.1301176881806E-03 -0.5415785437702E-02  0.0000000000000E+00  0.5143085686774E-02
 0.4516806319091E-03 -0.5019962833302E-02  0.0000000000000E+00  0.3809129581805E-02
 0.1372286123666E-02 -0.4726212358362E-02  0.0000000000000E+00  0.1801270976479E-02
 0.3477378597618E-02 -0.4861198804637E-02  0.0000000000000E+00 -0.5626711424819E-03
 0.7303275443929E-02 -0.5717478029034E-02  0.0000000000000E+00 -0.1762821330754E-02
 0.1228601375362E-01 -0.6746536274579E-02  0.0000000000000E+00  0.9795567584124E-03
 0.3614143714837E-05  0.2990224844544E-03  0.0000000000000E+00  0.8060307563439E-03
-0.1183690754880E-04  0.2755104717996E-03  0.0000000000000E+00  0.1078591030147E-02
-0.3705584096816E-04  0.2234914921129E-03  0.0000000000000E+00  0.1216197078666E-02
-0.4054553276711E-04  0.1300680341593E-03  0.0000000000000E+00  0.1291441008292E-02
-0.2346680368291E-04  0.5146714399654E-05  0.0000000000000E+00  0.1352470139063E-02
 0.5672333535878E-05 -0.1401953837271E-03  0.0000000000000E+00  0.1414822083559E-02
 0.4136110076719E-04 -0.3001374048836E-03  0.0000000000000E+00  0.1480760503205E-02
 0.8104140415650E-04 -0.4722394086586E-03  0.0000000000000E+00  0.1550319398990E-02
 0.1235355423250E-03 -0.6554819293851E-03  0.0000000000000E+00  0.1623897655284E-02
 0.1682343782674E-03 -0.8494835091768E-03  0.0000000000000E+00  0.1702416307589E-02
 0.2147767510836E-03 -0.1054228637180E-02  0.0000000000000E+00  0.1787241453391E-02
 0.2628998960027E-03 -0.1269952140055E-02  0.0000000000000E+00  0.1880150191654E-02
 0.3123452297269E-03 -0.1497076511626E-02  0.0000000000000E+00  0.1983350641619E-02
 0.3627645381510E-03 -0.1736149832392E-02  0.0000000000000E+00  0.2099557921918E-02
 0.4135807135201E-03 -0.1987729371779E-02  0.0000000000000E+00  0.2232109459413E-02
 0.4637621107473E-03 -0.2252177239596E-02  0.0000000000000E+00  0.2385071912064E-02
 0.5114871277881E-03 -0.2529264229866E-02  0.0000000000000E+00  0.2563109386063E-02
 0.5538679200554E-03 -0.2817615175770E-02  0.0000000000000E+00  0.2770685072989E-02
 0.5872034027689E-03 -0.3114340929506E-02  0.0000000000000E+00  0.3010478144457E-02
 0.6081235587074E-03 -0.3415188614142E-02  0.0000000000000E+00  0.3281645078068E-02
 0.6152288861074E-03 -0.3715328527065E-02  0.0000000000000E+00  0.3578313526911E-02
 0.6096568350102E-03 -0.4010571843076E-02  0.0000000000000E+00  0.3891561529910E-02
 0.5938093061327E-03 -0.4297616915798E-02  0.0000000000000E+00  0.4213868050259E-02
 0.5697198600108E-03 -0.4573086580628E-02  0.0000000000000E+00  0.4539969416170E-02
 0.5383403598131E-03 -0.4832805062619E-02  0.0000000000000E+00  0.4864973791486E-02
 0.4997609577544E-03 -0.5071738883019E-02  0.0000000000000E+00  0.5182383788020E-02
 0.4538972470855E-03 -0.5284309446796E-02  0.0000000000000E+00  0.5483034564042E-02
 0.4012293682621E-03 -0.5464778706813E-02  0.0000000000000E+00  0.5755005773897E-02
 0.3432464249661E-03 -0.5607465473595E-02  0.0000000000000E+00  0.5984237110508E-02
 0.2823426974323E-03 -0.5706580652158E-02  0.0000000000000E+00  0.6155099416238E-02
 0.2213437943197E-03 -0.5755368372872E-02  0.0000000000000E+00  0.6249480873756E-02
 0.1639055058541E-03 -0.5744914727486E-02  0.0000000000000E+00  0.6242781370097E-02
 0.1176766344541E-03 -0.5665095690235E-02  0.0000000000000E+00  0.6097680359693E-02
 0.1008286458786E-03 -0.5507967583488E-02  0.0000000000000E+00  0.5758162684937E-02
 0.1537031791898E-03 -0.5273732289726E-02  0.0000000000000E+00  0.5143918141828E-02
 0.3610522810081E-03 -0.4984018145852E-02  0.0000000000000E+00  0.4149695860505E-02
 0.8920458460086E-03 -0.4709790679289E-02  0.0000000000000E+00  0.2673506134700E-02
 0.2048021204066E-02 -0.4611179272500E-02  0.0000000000000E+00  0.7431920298937E-03
 0.4234770432875E-02 -0.4928114094003E-02  0.0000000000000E+00 -0.1167958210706E-02
 0.7668345373417E-02 -0.5762595068293E-02  0.0000000000000E+00 -0.1764492781640E-02
 0.1174138985414E-01 -0.6591218074536E-02  0.0000000000000E+00  0.7688319491149E-03
 0.1623485453058E-04  0.4252737681363E-04  0.0000000000000E+00  0.8285468180259E-03
 0.2376534461167E-04  0.9917380810480E-05  0.0000000000000E+00  0.1119013343847E-02
 0.1226327977921E-04 -0.4091559487608E-04  0.0000000000000E+00  0.1292191388910E-02
 0.1189543595816E-04 -0.1249987677850E-03  0.0000000000000E+00  0.1399249764474E-02
 0.2720736826427E-04 -0.2384034322882E-03  0.0000000000000E+00  0.1482348806355E-02
 0.5349762814640E-04 -0.3729158231798E-03  0.0000000000000E+00  0.1560319370073E-02
 0.8632601575045E-04 -0.5229577285459E-03  0.0000000000000E+00  0.1638893461164E-02
 0.1231703382282E-03 -0.6856836103818E-03  0.0000000000000E+00  0.1719804052271E-02
 0.1627243335316E-03 -0.8597211168913E-03  0.0000000000000E+00  0.1804204067580E-02
 0.2042568489037E-03 -0.1044423239927E-02  0.0000000000000E+00  0.1893434379250E-02
 0.2472938012069E-03 -0.1239548216239E-02  0.0000000000000E+00  0.1989151394081E-02
 0.2914571934117E-03 -0.1445109486168E-02  0.0000000000000E+00  0.2093361362629E-02
 0.3363573511385E-03 -0.1661283155341E-02  0.0000000000000E+00  0.2208459090114E-02
 0.3814845152229E-03 -0.1888315378925E-02  0.0000000000000E+00  0.2337288520067E-02
 0.4260581364322E-03 -0.2126372601220E-02  0.0000000000000E+00  0.2483200524688E-02
 0.4688099418658E-03 -0.2375310373465E-02  0.0000000000000E+00  0.2650036587038E-02
 0.5077191667776E-03 -0.2634301463134E-02  0.0000000000000E+00  0.2841813581084E-02
 0.5398884753850E-03 -0.2901410581536E-02  0.0000000000000E+00  0.3061822956724E-02
 0.5619165644501E-03 -0.3173417963967E-02  0.0000000000000E+00  0.3311253927728E-02
 0.5709345340824E-03 -0.3446070880060E-02  0.0000000000000E+00  0.3587915774220E-02
 0.5659620364540E-03 -0.3714820508304E-02  0.0000000000000E+00  0.3885109202739E-02
 0.5483358067963E-03 -0.3975900330080E-02  0.0000000000000E+00  0.4193400489444E-02
 0.5205991886277E-03 -0.4226492779509E-02  0.0000000000000E+00  0.4504529851150E-02
 0.4851025821308E-03 -0.4463782238471E-02  0.0000000000000E+00  0.4812194487139E-02
 0.4433678706542E-03 -0.4684222185589E-02  0.0000000000000E+00  0.5110392016667E-02
 0.3962575964573E-03 -0.4883443461211E-02  0.0000000000000E+00  0.5391604189099E-02
 0.3445767835520E-03 -0.5056552158748E-02  0.0000000000000E+00  0.5645774515506E-02
 0.2897305164110E-03 -0.5198504308926E-02  0.0000000000000E+00  0.5860163613837E-02
 0.2341467125042E-03 -0.5304318028336E-02  0.0000000000000E+00  0.6019742515282E-02
 0.1813544011982E-03 -0.5369010858650E-02  0.0000000000000E+00  0.6107393089653E-02
 0.1360014734079E-03 -0.5387096552630E-02  0.0000000000000E+00  0.6102817518151E-02
 0.1049100866387E-03 -0.5352014483817E-02  0.0000000000000E+00  0.5979008494473E-02
 0.1007426932342E-03 -0.5257734967120E-02  0.0000000000000E+00  0.5697331943613E-02
 0.1488973973157E-03 -0.5103007363139E-02  0.0000000000000E+00  0.5204023747109E-02
 0.2990802313834E-03 -0.4898475988030E-02  0.0000000000000E+00  0.4429949249684E-02
 0.6444812737507E-03 -0.4679881136575E-02  0.0000000000000E+00  0.3301607226621E-02
 0.1347885198393E-02 -0.4528727442204E-02  0.0000000000000E+00  0.1787158011818E-02
 0.2653970039044E-02 -0.4586802946154E-02  0.0000000000000E+00  0.2060258053313E-04
 0.4821510303397E-02 -0.5011783963469E-02  0.0000000000000E+00 -0.1482221478048E-02
 0.7883364446937E-02 -0.5794700357784E-02  0.0000000000000E+00 -0.1681862276634E-02
 0.1128427858371E-01 -0.6482486236120E-02  0.0000000000000E+00  0.6036755117751E-03
 0.2615732550304E-04 -0.2027915152759E-03  0.0000000000000E+00  0.8573665245889E-03
 0.5269525049678E-04 -0.2433699950767E-03  0.0000000000000E+00  0.1159770413791E-02
 0.5429940737803E-04 -0.2948100494308E-03  0.0000000000000E+00  0.1361011772866E-02
 0.5868876412822E-04 -0.3724254159842E-03  0.0000000000000E+00  0.1496534856816E-02
 0.7382023285013E-04 -0.4763070105165E-03  0.0000000000000E+00  0.1601662022196E-02
 0.9813548409766E-04 -0.6009405054196E-03  0.0000000000000E+00  0.1696049624702E-02
 0.1285016592556E-03 -0.7414774437158E-03  0.0000000000000E+00  0.1787843451472E-02
 0.1626824291524E-03 -0.8949712834389E-03  0.0000000000000E+00  0.1880370158013E-02
 0.1993501398984E-03 -0.1059804698186E-02  0.0000000000000E+00  0.1975609700911E-02
 0.2376913298765E-03 -0.1235101982118E-02  0.0000000000000E+00  0.2075367094061E-02
 0.2771362324119E-03 -0.1420408758643E-02  0.0000000000000E+00  0.2181602733103E-02
 0.3172007824196E-03 -0.1615521531851E-02  0.0000000000000E+00  0.2296540842377E-02
 0.3573727883107E-03 -0.1820372750511E-02  0.0000000000000E+00  0.2422726808492E-02
 0.3969959946759E-03 -0.2034914550635E-02  0.0000000000000E+00  0.2563068964749E-02
 0.4351188838655E-03 -0.2258947896617E-02  0.0000000000000E+00  0.2720835851292E-02
 0.4703020970377E-03 -0.2491886837199E-02  0.0000000000000E+00  0.2899531961557E-02
 0.5004301583752E-03 -0.2732433917943E-02  0.0000000000000E+00  0.3102460961294E-02
 0.5227074575627E-03 -0.2978275217237E-02  0.0000000000000E+00  0.3331815239529E-02
 0.5340906678019E-03 -0.3226037548919E-02  0.0000000000000E+00  0.3587524931725E-02
 0.5322054145470E-03 -0.3471580871225E-02  0.0000000000000E+00  0.3866333326161E-02
 0.5164726618713E-03 -0.3710664144824E-02  0.0000000000000E+00  0.4160938160505E-02
 0.4884357012785E-03 -0.3939900766532E-02  0.0000000000000E+00  0.4461565212340E-02
 0.4507900268314E-03 -0.4156880264146E-02  0.0000000000000E+00  0.4759371370173E-02
 0.4061911948737E-03 -0.4359275946563E-02  0.0000000000000E+00  0.5047136745467E-02
 0.3567051906265E-03 -0.4544138705656E-02  0.0000000000000E+00  0.5317827579831E-02
 0.3039439797176E-03 -0.4707785018057E-02  0.0000000000000E+00  0.5562975707143E-02
 0.2495891778609E-03 -0.4846066992721E-02  0.0000000000000E+00  0.5771728063136E-02
 0.1959831576200E-03 -0.4954729585084E-02  0.0000000000000E+00  0.5930648768900E-02
 0.1465645639723E-03 -0.5029647021514E-02  0.0000000000000E+00  0.6023929047469E-02
 0.1061331423773E-03 -0.5066899651738E-02  0.0000000000000E+00  0.6033376804584E-02
 0.8126853483392E-04 -0.5062616077611E-02  0.0000000000000E+00  0.5937389393919E-02
 0.8186854378206E-04 -0.5012952241694E-02  0.0000000000000E+00  0.5708135216530E-02
 0.1250598663883E-03 -0.4916195548744E-02  0.0000000000000E+00  0.5308241809254E-02
 0.2419121550195E-03 -0.4777426156781E-02  0.0000000000000E+00  0.4690108523491E-02
 0.4877276555322E-03 -0.4615675595341E-02  0.0000000000000E+00  0.3800808473125E-02
 0.9562729999044E-03 -0.4474882161013E-02  0.0000000000000E+00  0.2601394316322E-02
 0.1792524924719E-02 -0.4435738053258E-02  0.0000000000000E+00  0.1118709654934E-02
 0.3182302138844E-02 -0.4612181553248E-02  0.0000000000000E+00 -0.4513699942551E-03
 0.5274833590290E-02 -0.5095925690102E-02  0.0000000000000E+00 -0.1613735800823E-02
 0.8005216557724E-02 -0.5819479251742E-02  0.0000000000000E+00 -0.1560828227946E-02
 0.1089746033940E-01 -0.6406863904434E-02  0.0000000000000E+00  0.4778629069131E-03
 0.3404208344330E-04 -0.4385673221571E-03  0.0000000000000E+00  0.8912320060331E-03
 0.7633404988475E-04 -0.4859833073903E-03  0.0000000000000E+00  0.1201508098200E-02
 0.9004996012807E-04 -0.5389605482286E-03  0.0000000000000E+00  0.1424886535676E-02
 0.1000996470369E-03 -0.6121693024803E-03  0.0000000000000E+00  0.1585335640983E-02
 0.1162861812562E-03 -0.7082756719166E-03  0.0000000000000E+00  0.1711579161549E-02
 0.1394682855918E-03 -0.8240501654611E-03  0.0000000000000E+00  0.1822566210852E-02
 0.1678268383608E-03 -0.9555879205205E-03  0.0000000000000E+00  0.1927864652480E-02
 0.1995707972307E-03 -0.1100077041653E-02  0.0000000000000E+00  0.2032114628138E-02
 0.2334506163985E-03 -0.1255771600525E-02  0.0000000000000E+00  0.2138103701303E-02
 0.2686159160701E-03 -0.1421615240369E-02  0.0000000000000E+00  0.2248114989858E-02
 0.3044234094815E-03 -0.1596962437450E-02  0.0000000000000E+00  0.2364414363486E-02
 0.3402970144950E-03 -0.1781404299105E-02  0.0000000000000E+00  0.2489428073386E-02
 0.3756160874374E-03 -0.1974640012807E-02  0.0000000000000E+00  0.2625816484854E-02
 0.4095994931044E-03 -0.2176345229942E-02  0.0000000000000E+00  0.2776495359253E-02
 0.4411635374183E-03 -0.2385992178564E-02  0.0000000000000E+00  0.2944576362339E-02
 0.4687631103957E-03 -0.2602625717169E-02  0.0000000000000E+00  0.3133157925070E-02
 0.4902760652849E-03 -0.2824595493386E-02  0.0000000000000E+00  0.3344820536613E-02
 0.5030878538546E-03 -0.3049353034406E-02  0.0000000000000E+00  0.3580762536932E-02
 0.5045438701684E-03 -0.3273497450005E-02  0.0000000000000E+00  0.3839862323476E-02
 0.4927495469654E-03 -0.3493074466554E-02  0.0000000000000E+00  0.4118017391379E-02
 0.4675120783700E-03 -0.3704167037879E-02  0.0000000000000E+00  0.4407484931090E-02
 0.4305930690834E-03 -0.3903745176253E-02  0.0000000000000E+00  0.4698272462273E-02
 0.3848600458664E-03 -0.4089764720789E-02  0.0000000000000E+00  0.4981083213118E-02
 0.3332745066232E-03 -0.4260347657680E-02  0.0000000000000E+00  0.5247912720240E-02
 0.2784266679173E-03 -0.4413121955831E-02  0.0000000000000E+00  0.5490812372578E-02
 0.2226503966590E-03 -0.4545100387819E-02  0.0000000000000E+00  0.5700472530638E-02
 0.1684815433048E-03 -0.4652922259735E-02  0.0000000000000E+00  0.5865363025113E-02
 0.1191992867098E-03 -0.4733197186199E-02  0.0000000000000E+00  0.5971504316667E-02
 0.7929060411233E-04 -0.4782783378482E-02  0.0000000000000E+00  0.6002560574144E-02
 0.5487853936809E-04 -0.4799010248328E-02  0.0000000000000E+00  0.5939763608526E-02
 0.5443905145203E-04 -0.4779821947150E-02  0.0000000000000E+00  0.5761127219656E-02
 0.9063997320047E-04 -0.4724193584702E-02  0.0000000000000E+00  0.5439487448424E-02
 0.1842254613996E-03 -0.4634522008794E-02  0.0000000000000E+00  0.4940891440676E-02
 0.3700634161699E-03 -0.4521244459406E-02  0.0000000000000E+00  0.4226617588775E-02
 0.7053553184784E-03 -0.4409149787224E-02  0.0000000000000E+00  0.3262130974407E-02
 0.1278476916333E-02 -0.4345032001322E-02  0.0000000000000E+00  0.2040652843936E-02
 0.2211182461591E-02 -0.4401677940386E-02  0.0000000000000E+00  0.6322674920454E-03
 0.3636347168865E-02 -0.4663907603175E-02  0.0000000000000E+00 -0.7392705441016E-03
 0.5626228379647E-02 -0.5175116939649E-02  0.0000000000000E+00 -0.1629452625584E-02
 0.8068832908240E-02 -0.5841174499878E-02  0.0000000000000E+00 -0.1421738664539E-02
 0.1056740888650E-01 -0.6355749533949E-02  0.0000000000000E+00  0.3871019508716E-03
 0.4034922196573E-04 -0.6660390113542E-03  0.0000000000000E+00  0.9291263638078E-03
 0.9571974455190E-04 -0.7192436444286E-03  0.0000000000000E+00  0.1244446837846E-02
 0.1204053644030E-03 -0.7741732351421E-03  0.0000000000000E+00  0.1485301568420E-02
 0.1365154811540E-03 -0.8444227909350E-03  0.0000000000000E+00  0.1667285855545E-02
 0.1546635753158E-03 -0.9342123254101E-03  0.0000000000000E+00  0.1813221982257E-02
 0.1774629423160E-03 -0.1042123663100E-02  0.0000000000000E+00  0.1940492355472E-02
 0.2042835507094E-03 -0.1165229837181E-02  0.0000000000000E+00  0.2059278813318E-02
 0.2338550578177E-03 -0.1301007225590E-02  0.0000000000000E+00  0.2175186724381E-02
 0.2650834359702E-03 -0.1447685740185E-02  0.0000000000000E+00  0.2291720377514E-02
 0.2971260233589E-03 -0.1604081027492E-02  0.0000000000000E+00  0.2411622740244E-02
 0.3292910300452E-03 -0.1769383524052E-02  0.0000000000000E+00  0.2537453693806E-02
 0.3609280950510E-03 -0.1942996310112E-02  0.0000000000000E+00  0.2671821082434E-02
 0.3913265294354E-03 -0.2124402252295E-02  0.0000000000000E+00  0.2817466382118E-02
 0.4196065187992E-03 -0.2313025598888E-02  0.0000000000000E+00  0.2977265320577E-02
 0.4445936560892E-03 -0.2508053590398E-02  0.0000000000000E+00  0.3154119688364E-02
 0.4646979631946E-03 -0.2708234889597E-02  0.0000000000000E+00  0.3350687999195E-02
 0.4778620907070E-03 -0.2911669270630E-02  0.0000000000000E+00  0.3568854444021E-02
 0.4817076479990E-03 -0.3115686583901E-02  0.0000000000000E+00  0.3808940376793E-02
 0.4739824884140E-03 -0.3316948113191E-02  0.0000000000000E+00  0.4068953451544E-02
 0.4532544545333E-03 -0.3511734090443E-02  0.0000000000000E+00  0.4344120797044E-02
 0.4197048104841E-03 -0.3696462226080E-02  0.0000000000000E+00  0.4626382617961E-02
 0.3753264457272E-03 -0.3868447608534E-02  0.0000000000000E+00  0.4905621464043E-02
 0.3231811683790E-03 -0.4025992903259E-02  0.0000000000000E+00  0.5172199148846E-02
 0.2665423726456E-03 -0.4167647982460E-02  0.0000000000000E+00  0.5417460961753E-02
 0.2085077452424E-03 -0.4291604856590E-02  0.0000000000000E+00  0.5632679045899E-02
 0.1521028786229E-03 -0.4395576307216E-02  0.0000000000000E+00  0.5807834034765E-02
 0.1006875476758E-03 -0.4477014383916E-02  0.0000000000000E+00  0.5930859273793E-02
 0.5846044128682E-04 -0.4533447142448E-02  0.0000000000000E+00  0.5987412697013E-02
 0.3095417613896E-04 -0.4562804972189E-02  0.0000000000000E+00  0.5960925394192E-02
 0.2558786722689E-04 -0.4563773826727E-02  0.0000000000000E+00  0.5832577740125E-02
 0.5257644581325E-04 -0.4536176080066E-02  0.0000000000000E+00  0.5580872615488E-02
 0.1268959886073E-03 -0.4481691519739E-02  0.0000000000000E+00  0.5180589739903E-02
 0.2718991389066E-03 -0.4406313634568E-02  0.0000000000000E+00  0.4602792870820E-02
 0.5243473275377E-03 -0.4324541290589E-02  0.0000000000000E+00  0.3819109340440E-02
 0.9402085821901E-03 -0.4264300706440E-02  0.0000000000000E+00  0.2813257065098E-02
 0.1598630957338E-02 -0.4271169362069E-02  0.0000000000000E+00  0.1605382382533E-02
 0.2596955212213E-02 -0.4406504622007E-02  0.0000000000000E+00  0.2938355542303E-03
 0.4024071346037E-02 -0.4728870838802E-02  0.0000000000000E+00 -0.8928549327684E-03
 0.5900475626368E-02 -0.5248364235872E-02  0.0000000000000E+00 -0.1570845106312E-02
 0.8096003588925E-02 -0.5862481508913E-02  0.0000000000000E+00 -0.1273589097316E-02
 0.1028381357034E-01 -0.6323332561669E-02  0.0000000000000E+00  0.3276163766544E-03
 0.4540937838395E-04 -0.8861803005566E-03  0.0000000000000E+00  0.9702215652039E-03
 0.1116444933257E-03 -0.9442339094339E-03  0.0000000000000E+00  0.1288583589520E-02
 0.1461374199628E-03 -0.1001226195791E-02  0.0000000000000E+00  0.1543239840364E-02
 0.1683740933527E-03 -0.1069513495967E-02  0.0000000000000E+00  0.1743661324195E-02
 0.1891108572262E-03 -0.1154166233246E-02  0.0000000000000E+00  0.1907602437055E-02
 0.2121611901927E-03 -0.1255133552391E-02  0.0000000000000E+00  0.2050468234168E-02
 0.2378981424726E-03 -0.1370396842739E-02  0.0000000000000E+00  0.2182452520666E-02
 0.2655825924927E-03 -0.1497801909065E-02  0.0000000000000E+00  0.2309779227780E-02
 0.2943264791178E-03 -0.1635636423810E-02  0.0000000000000E+00  0.2436535337100E-02
 0.3233336303574E-03 -0.1782638971068E-02  0.0000000000000E+00  0.2565877689106E-02
 0.3518893426526E-03 -0.1937866183882E-02  0.0000000000000E+00  0.2700636312904E-02
 0.3792890807384E-03 -0.2100554863364E-02  0.0000000000000E+00  0.2843576378743E-02
 0.4047535336783E-03 -0.2269993624094E-02  0.0000000000000E+00  0.2997489298134E-02
 0.4273330324051E-03 -0.2445385706588E-02  0.0000000000000E+00  0.3165173539261E-02
 0.4458037994279E-03 -0.2625680438223E-02  0.0000000000000E+00  0.3349287719425E-02
 0.4585852257621E-03 -0.2809399870914E-02  0.0000000000000E+00  0.3552043716078E-02
 0.4637411975149E-03 -0.2994481939608E-02  0.0000000000000E+00  0.3774678949642E-02
 0.4591666467298E-03 -0.3178222678320E-02  0.0000000000000E+00  0.4016755614621E-02
 0.4430152509304E-03 -0.3357410376898E-02  0.0000000000000E+00  0.4275566924996E-02
 0.4142996761452E-03 -0.3528593045049E-02  0.0000000000000E+00  0.4545812429371E-02
 0.3735653815773E-03 -0.3688530849119E-02  0.0000000000000E+00  0.4819213965217E-02
 0.3230487559308E-03 -0.3834879351016E-02  0.0000000000000E+00  0.5085604950983E-02
 0.2660268099154E-03 -0.3966280629730E-02  0.0000000000000E+00  0.5335105711277E-02
 0.2060916408363E-03 -0.4081702720328E-02  0.0000000000000E+00  0.5558542738662E-02
 0.1468325182231E-03 -0.4179892552229E-02  0.0000000000000E+00  0.5746552452552E-02
 0.9193422030979E-04 -0.4259261023100E-02  0.0000000000000E+00  0.5888550850591E-02
 0.4554225893766E-04 -0.4318084540882E-02  0.0000000000000E+00  0.5972090822300E-02
 0.1273878012836E-04 -0.4354839395374E-02  0.0000000000000E+00  0.5982668112534E-02
 0.5923806545294E-07 -0.4368572601485E-02  0.0000000000000E+00  0.5903790709056E-02
 0.1612265727230E-04 -0.4359357292313E-02  0.0000000000000E+00  0.5717092751782E-02
 0.7263348150544E-04 -0.4328837733363E-02  0.0000000000000E+00  0.5402327019510E-02
 0.1863204881010E-03 -0.4281121664436E-02  0.0000000000000E+00  0.4937205437835E-02
 0.3820967513209E-03 -0.4225106479558E-02  0.0000000000000E+00  0.4298804935186E-02
 0.6968932149893E-03 -0.4177979788603E-02  0.0000000000000E+00  0.3469473001432E-02
 0.1183092908760E-02 -0.4168551351878E-02  0.0000000000000E+00  0.2449461292571E-02
 0.1908634540327E-02 -0.4238489763299E-02  0.0000000000000E+00  0.1279568497229E-02
 0.2947800877674E-02 -0.4436687755779E-02  0.0000000000000E+00  0.7389421857114E-04
 0.4354744415244E-02 -0.4799878947488E-02  0.0000000000000E+00 -0.9484806374463E-03
 0.6116500958176E-02 -0.5316318599392E-02  0.0000000000000E+00 -0.1463858768055E-02
 0.8100574828981E-02 -0.5884974431438E-02  0.0000000000000E+00 -0.1120376405376E-02
 0.1003878862319E-01 -0.6305491579804E-02  0.0000000000000E+00  0.2959181011015E-03
 0.4946696828654E-04 -0.1099779838610E-02  0.0000000000000E+00  0.1013837866770E-02
 0.1247226493845E-03 -0.1161854872369E-02  0.0000000000000E+00  0.1333801488916E-02
 0.1679065038642E-03 -0.1220843437204E-02  0.0000000000000E+00  0.1599345112388E-02
 0.1961221970206E-03 -0.1287840775777E-02  0.0000000000000E+00  0.1815443624958E-02
 0.2198510823251E-03 -0.1368292384977E-02  0.0000000000000E+00  0.1995600419170E-02
 0.2436657373383E-03 -0.1463134101798E-02  0.0000000000000E+00  0.2153114909742E-02
 0.2687386610015E-03 -0.1571134724264E-02  0.0000000000000E+00  0.2297775969146E-02
 0.2948283109125E-03 -0.1690535362162E-02  0.0000000000000E+00  0.2436118672569E-02
 0.3212773971145E-03 -0.1819738079365E-02  0.0000000000000E+00  0.2572660864120E-02
 0.3473662126651E-03 -0.1957449111849E-02  0.0000000000000E+00  0.2710907567225E-02
 0.3723812655480E-03 -0.2102622190652E-02  0.0000000000000E+00  0.2853924698101E-02
 0.3955849748952E-03 -0.2254352426710E-02  0.0000000000000E+00  0.3004607594380E-02
 0.4161525056574E-03 -0.2411759851958E-02  0.0000000000000E+00  0.3165769767182E-02
 0.4330940505202E-03 -0.2573860295035E-02  0.0000000000000E+00  0.3340105194217E-02
 0.4451757414814E-03 -0.2739412761160E-02  0.0000000000000E+00  0.3530012814175E-02
 0.4508731052367E-03 -0.2906776605934E-02  0.0000000000000E+00  0.3737270948241E-02
 0.4484148301146E-03 -0.3073801845145E-02  0.0000000000000E+00  0.3962532460544E-02
 0.4359932811510E-03 -0.3237818897756E-02  0.0000000000000E+00  0.4204713123285E-02
 0.4121650770042E-03 -0.3395790202848E-02  0.0000000000000E+00  0.4460526532842E-02
 0.3763708993794E-03 -0.3544554609080E-02  0.0000000000000E+00  0.4724263570581E-02
 0.3295119866709E-03 -0.3681220364368E-02  0.0000000000000E+00  0.4987509934591E-02
 0.2740785360524E-03 -0.3803782627085E-02  0.0000000000000E+00  0.5240114865827E-02
 0.2135804520765E-03 -0.3911221783094E-02  0.0000000000000E+00  0.5472047861709E-02
 0.1519337162662E-03 -0.4002919925677E-02  0.0000000000000E+00  0.5673742630924E-02
 0.9320253390044E-04 -0.4078171053737E-02  0.0000000000000E+00  0.5835344355118E-02
 0.4169561161887E-04 -0.4136076837328E-02  0.0000000000000E+00  0.5945855339674E-02
 0.2297981276100E-05 -0.4175736337959E-02  0.0000000000000E+00  0.5992612326398E-02
-0.1907942182522E-04 -0.4196579394034E-02  0.0000000000000E+00  0.5961156494454E-02
-0.1497684090396E-04 -0.4198771306955E-02  0.0000000000000E+00  0.5835375412779E-02
 0.2427453364778E-04 -0.4183735101045E-02  0.0000000000000E+00  0.5597807986866E-02
 0.1115589753893E-03 -0.4154787429230E-02  0.0000000000000E+00  0.5230067255880E-02
 0.2647668954802E-03 -0.4118082096826E-02  0.0000000000000E+00  0.4713473048698E-02
 0.5093819257225E-03 -0.4084657444222E-02  0.0000000000000E+00  0.4031553111190E-02
 0.8810841798421E-03 -0.4073111876686E-02  0.0000000000000E+00  0.3176900637606E-02
 0.1427115029938E-02 -0.4111402774529E-02  0.0000000000000E+00  0.2163710027509E-02
 0.2203619801946E-02 -0.4235787577722E-02  0.0000000000000E+00  0.1047301389697E-02
 0.3264475404290E-02 -0.4483179199403E-02  0.0000000000000E+00 -0.5201185146804E-04
 0.4637368804438E-02 -0.4873086699990E-02  0.0000000000000E+00 -0.9324301017666E-03
 0.6288607464433E-02 -0.5380118825507E-02  0.0000000000000E+00 -0.1324947644722E-02
 0.8091510846385E-02 -0.5909522317215E-02  0.0000000000000E+00 -0.9639556193158E-03
 0.9826187260152E-02 -0.6299180420884E-02  0.0000000000000E+00  0.2887842152361E-03
 0.5270735577961E-04 -0.1307493074799E-02  0.0000000000000E+00  0.1059413077596E-02
 0.1354384415208E-03 -0.1372867337011E-02  0.0000000000000E+00  0.1379930435975E-02
 0.1862753446690E-03 -0.1433687704643E-02  0.0000000000000E+00  0.1654032899444E-02
 0.2201927109688E-03 -0.1499836487266E-02  0.0000000000000E+00  0.1883381492913E-02
 0.2471454651674E-03 -0.1576818745308E-02  0.0000000000000E+00  0.2077963821402E-02
 0.2721259845176E-03 -0.1666246726990E-02  0.0000000000000E+00  0.2249013024694E-02
 0.2969098711067E-03 -0.1767537359078E-02  0.0000000000000E+00  0.2405645789194E-02
 0.3216930525426E-03 -0.1879314975705E-02  0.0000000000000E+00  0.2554455808336E-02
 0.3460525659975E-03 -0.2000129324454E-02  0.0000000000000E+00  0.2700240887375E-02
 0.3693654053521E-03 -0.2128690413320E-02  0.0000000000000E+00  0.2846777599155E-02
 0.3909404531121E-03 -0.2263878596400E-02  0.0000000000000E+00  0.2997326110388E-02
 0.4100280020281E-03 -0.2404673232056E-02  0.0000000000000E+00  0.3154883050278E-02
 0.4257812252015E-03 -0.2550053549039E-02  0.0000000000000E+00  0.3322259900438E-02
 0.4371993776561E-03 -0.2698882926659E-02  0.0000000000000E+00  0.3502028048210E-02
 0.4430744942342E-03 -0.2849776163336E-02  0.0000000000000E+00  0.3696323811605E-02
 0.4419775405634E-03 -0.3000987135500E-02  0.0000000000000E+00  0.3906518739448E-02
 0.4323349124708E-03 -0.3150339278409E-02  0.0000000000000E+00  0.4132749327545E-02
 0.4126510861661E-03 -0.3295250264444E-02  0.0000000000000E+00  0.4373389885140E-02
 0.3818790058747E-03 -0.3432891125001E-02  0.0000000000000E+00  0.4624691167881E-02
 0.3398715566736E-03 -0.3560407534220E-02  0.0000000000000E+00  0.4880636635878E-02
 0.2878780373492E-03 -0.3675259710833E-02  0.0000000000000E+00  0.5132746919404E-02
 0.2286502422135E-03 -0.3775783119152E-02  0.0000000000000E+00  0.5370944837486E-02
 0.1659445648995E-03 -0.3861298034415E-02  0.0000000000000E+00  0.5585132234223E-02
 0.1040030872025E-03 -0.3931598592804E-02  0.0000000000000E+00  0.5765469173964E-02
 0.4734643536436E-04 -0.3986517312560E-02  0.0000000000000E+00  0.5901750548678E-02
 0.8688547910030E-06 -0.4025833583855E-02  0.0000000000000E+00  0.5982715807647E-02
-0.2985913035297E-04 -0.4049454574609E-02  0.0000000000000E+00  0.5995650670981E-02
-0.3816920435501E-04 -0.4057745628053E-02  0.0000000000000E+00  0.5926344663084E-02
-0.1578464951890E-04 -0.4051953651508E-02  0.0000000000000E+00  0.5759341286607E-02
 0.4782558737310E-04 -0.4034759244795E-02  0.0000000000000E+00  0.5478457976114E-02
 0.1663860454739E-03 -0.4010936816065E-02  0.0000000000000E+00  0.5067611006667E-02
 0.3583706702782E-03 -0.3988251584941E-02  0.0000000000000E+00  0.4512102030748E-02
 0.6489672786870E-03 -0.3979134253283E-02  0.0000000000000E+00  0.3801880749261E-02
 0.1071533943312E-02 -0.4002510031935E-02  0.0000000000000E+00  0.2938743757420E-02
 0.1667307185597E-02 -0.4084277921890E-02  0.0000000000000E+00  0.1947918793450E-02
 0.2480995711030E-02 -0.4254680129247E-02  0.0000000000000E+00  0.8938795375981E-03
 0.3549202758256E-02 -0.4539939574891E-02  0.0000000000000E+00 -0.1035993845159E-03
 0.4880025207144E-02 -0.4946505974736E-02  0.0000000000000E+00 -0.8636038921404E-03
 0.6427608847908E-02 -0.5440943814010E-02  0.0000000000000E+00 -0.1164670881476E-02
 0.8074730245152E-02 -0.5936606838038E-02  0.0000000000000E+00 -0.8053299236365E-03
 0.9641085039009E-02 -0.6302076585643E-02  0.0000000000000E+00  0.3032059890695E-03
 0.5527444241133E-04 -0.1509876954443E-02  0.0000000000000E+00  0.1106479361136E-02
 0.1441796608472E-03 -0.1577923579242E-02  0.0000000000000E+00  0.1426780876823E-02
 0.2017239387876E-03 -0.1640361888893E-02  0.0000000000000E+00  0.1707565597080E-02
 0.2409934552968E-03 -0.1705941327876E-02  0.0000000000000E+00  0.1948043549631E-02
 0.2712746213144E-03 -0.1780021315526E-02  0.0000000000000E+00  0.2155319660637E-02
 0.2977251473569E-03 -0.1864645560774E-02  0.0000000000000E+00  0.2338692419492E-02
 0.3225471977654E-03 -0.1959740741914E-02  0.0000000000000E+00  0.2506452508496E-02
 0.3463009718233E-03 -0.2064278813052E-02  0.0000000000000E+00  0.2665057048230E-02
 0.3687854950934E-03 -0.2176971302584E-02  0.0000000000000E+00  0.2819445786801E-02
 0.3894854252887E-03 -0.2296558888222E-02  0.0000000000000E+00  0.2973587067023E-02
 0.4077493410840E-03 -0.2421875259745E-02  0.0000000000000E+00  0.3130889697972E-02
 0.4228351002288E-03 -0.2551809988080E-02  0.0000000000000E+00  0.3294422311229E-02
 0.4338967915915E-03 -0.2685230042109E-02  0.0000000000000E+00  0.3466974096534E-02
 0.4399503535046E-03 -0.2820881192487E-02  0.0000000000000E+00  0.3650983699966E-02
 0.4398457570513E-03 -0.2957277356285E-02  0.0000000000000E+00  0.3848332345064E-02
 0.4322817104506E-03 -0.3092617196676E-02  0.0000000000000E+00  0.4060020509380E-02
 0.4159065617924E-03 -0.3224748022876E-02  0.0000000000000E+00  0.4285738119474E-02
 0.3895447700723E-03 -0.3351215666090E-02  0.0000000000000E+00  0.4523414284278E-02
 0.3525367576267E-03 -0.3469424875433E-02  0.0000000000000E+00  0.4768938757822E-02
 0.3051326744691E-03 -0.3576838955954E-02  0.0000000000000E+00  0.5016075488806E-02
 0.2489222490403E-03 -0.3671272306807E-02  0.0000000000000E+00  0.5256343125993E-02
 0.1869238731441E-03 -0.3751401582642E-02  0.0000000000000E+00  0.5479790627575E-02
 0.1231496637590E-03 -0.3816888962988E-02  0.0000000000000E+00  0.5676328852861E-02
 0.6216642955931E-04 -0.3867938445016E-02  0.0000000000000E+00  0.5835955630619E-02
 0.8930188426237E-05 -0.3904910432256E-02  0.0000000000000E+00  0.5948249905466E-02
-0.3112097592861E-04 -0.3928243051519E-02  0.0000000000000E+00  0.6001834139079E-02
-0.5179210090611E-04 -0.3938624979766E-02  0.0000000000000E+00  0.5984102007086E-02
-0.4574252996803E-04 -0.3937318128719E-02  0.0000000000000E+00  0.5881279120982E-02
-0.4006581020011E-05 -0.3926582576555E-02  0.0000000000000E+00  0.5678801134132E-02
 0.8460029859775E-04 -0.3910223679673E-02  0.0000000000000E+00  0.5362048296034E-02
 0.2342997206108E-03 -0.3894220680049E-02  0.0000000000000E+00  0.4917516364817E-02
 0.4636199106500E-03 -0.3887506060729E-02  0.0000000000000E+00  0.4334596886204E-02
 0.7967446378719E-03 -0.3903225510867E-02  0.0000000000000E+00  0.3609280454837E-02
 0.1263978399921E-02 -0.3959780437704E-02  0.0000000000000E+00  0.2751206865455E-02
 0.1900235381548E-02 -0.4080271032671E-02  0.0000000000000E+00  0.1793784032678E-02
 0.2739706309970E-02 -0.4288930789496E-02  0.0000000000000E+00  0.8062749447889E-03
 0.3804850038122E-02 -0.4602911221491E-02  0.0000000000000E+00 -0.9652309585489E-04
 0.5089662767866E-02 -0.5019132755496E-02  0.0000000000000E+00 -0.7555424628951E-03
 0.6541738359797E-02 -0.5499853557364E-02  0.0000000000000E+00 -0.9897897575953E-03
 0.8054253066129E-02 -0.5966564809451E-02  0.0000000000000E+00 -0.6452104904106E-03
 0.9479402989059E-02 -0.6312390894679E-02  0.0000000000000E+00  0.3362530407699E-03
 0.5728234710967E-04 -0.1707413804034E-02  0.0000000000000E+00  0.1154645677667E-02
 0.1512617064688E-03 -0.1777590833141E-02  0.0000000000000E+00  0.1474162676959E-02
 0.2146633827817E-03 -0.1841414039280E-02  0.0000000000000E+00  0.1760103514972E-02
 0.2589025115691E-03 -0.1906591052348E-02  0.0000000000000E+00  0.2009861187612E-02
 0.2925257842781E-03 -0.1978205867324E-02  0.0000000000000E+00  0.2228189753606E-02
 0.3206694850270E-03 -0.2058544592638E-02  0.0000000000000E+00  0.2422629172464E-02
 0.3458105088179E-03 -0.2147916302987E-02  0.0000000000000E+00  0.2600572343211E-02
 0.3687963292133E-03 -0.2245592310663E-02  0.0000000000000E+00  0.2768197438133E-02
 0.3896248423864E-03 -0.2350445535536E-02  0.0000000000000E+00  0.2930467459551E-02
 0.4078913364843E-03 -0.2461265540933E-02  0.0000000000000E+00  0.3091465652308E-02
 0.4229972378416E-03 -0.2576862427478E-02  0.0000000000000E+00  0.3254703135142E-02
 0.4342256846036E-03 -0.2696060905979E-02  0.0000000000000E+00  0.3423292139045E-02
 0.4407531291368E-03 -0.2817643857622E-02  0.0000000000000E+00  0.3599983188808E-02
 0.4416374902279E-03 -0.2940273023941E-02  0.0000000000000E+00  0.3787078711502E-02
 0.4358144698090E-03 -0.3062401183373E-02  0.0000000000000E+00  0.3986220101587E-02
 0.4221364992479E-03 -0.3182215296319E-02  0.0000000000000E+00  0.4198077772648E-02
 0.3994911618479E-03 -0.3297627733417E-02  0.0000000000000E+00  0.4421963762302E-02
 0.3670258368469E-03 -0.3406343998669E-02  0.0000000000000E+00  0.4655449561114E-02
 0.3244582187499E-03 -0.3506020669472E-02  0.0000000000000E+00  0.4894153422535E-02
 0.2724214141606E-03 -0.3594445470436E-02  0.0000000000000E+00  0.5131697346291E-02
 0.2128375978959E-03 -0.3669787471893E-02  0.0000000000000E+00  0.5359654986896E-02
 0.1489939308479E-03 -0.3731064668654E-02  0.0000000000000E+00  0.5568249830789E-02
 0.8516321107560E-04 -0.3778282213206E-02  0.0000000000000E+00  0.5747472410413E-02
 0.2623184724193E-04 -0.3812050223143E-02  0.0000000000000E+00  0.5887261434324E-02
-0.2243254331269E-04 -0.3833243404552E-02  0.0000000000000E+00  0.5977105449977E-02
-0.5489288226446E-04 -0.3842933738613E-02  0.0000000000000E+00  0.6005646898625E-02
-0.6439652632473E-04 -0.3842554010417E-02  0.0000000000000E+00  0.5960534317069E-02
-0.4302531076045E-04 -0.3834206290985E-02  0.0000000000000E+00  0.5828593887176E-02
 0.1873511647943E-04 -0.3821071255322E-02  0.0000000000000E+00  0.5596340996481E-02
 0.1325074145294E-03 -0.3807920089248E-02  0.0000000000000E+00  0.5250910413457E-02
 0.3126841946048E-03 -0.3801669023233E-02  0.0000000000000E+00  0.4781500416485E-02
 0.5773904360206E-03 -0.3811996361483E-02  0.0000000000000E+00  0.4181484178555E-02
 0.9492656092949E-03 -0.3852188226324E-02  0.0000000000000E+00  0.3452274321699E-02
 0.1455127077411E-02 -0.3939503838970E-02  0.0000000000000E+00  0.2609872519225E-02
 0.2123643852612E-02 -0.4093873815569E-02  0.0000000000000E+00  0.1693291145340E-02
 0.2979688155062E-02 -0.4333905816616E-02  0.0000000000000E+00  0.7732297387122E-03
 0.4034437861548E-02 -0.4669325047273E-02  0.0000000000000E+00 -0.4313842731811E-04
 0.5272080481323E-02 -0.5090413580557E-02  0.0000000000000E+00 -0.6179213985071E-03
 0.6637319761713E-02 -0.5557703975342E-02  0.0000000000000E+00 -0.8044287064811E-03
 0.8032976109587E-02 -0.5999792667395E-02  0.0000000000000E+00 -0.4841568319987E-03
 0.9337632083015E-02 -0.6328803033529E-02  0.0000000000000E+00  0.3847996068708E-03
 0.5882334020542E-04 -0.1900528167323E-02  0.0000000000000E+00  0.1203584410002E-02
 0.1569449492101E-03 -0.1972368957027E-02  0.0000000000000E+00  0.1521895584259E-02
 0.2254478698106E-03 -0.2037343526964E-02  0.0000000000000E+00  0.1811739678001E-02
 0.2742673387434E-03 -0.2102208800642E-02  0.0000000000000E+00  0.2069162422030E-02
 0.3111844074855E-03 -0.2171694880007E-02  0.0000000000000E+00  0.2297007331775E-02
 0.3411797083694E-03 -0.2248186820794E-02  0.0000000000000E+00  0.2501247233776E-02
 0.3668782746500E-03 -0.2332264236657E-02  0.0000000000000E+00  0.2688362490872E-02
 0.3893400348076E-03 -0.2423444493335E-02  0.0000000000000E+00  0.2864155224445E-02
 0.4087321819137E-03 -0.2520751412895E-02  0.0000000000000E+00  0.3033514833358E-02
 0.4247572211008E-03 -0.2623034163356E-02  0.0000000000000E+00  0.3200569698327E-02
 0.4368784952031E-03 -0.2729098379918E-02  0.0000000000000E+00  0.3368888935698E-02
 0.4444196892250E-03 -0.2837727025762E-02  0.0000000000000E+00  0.3541602031858E-02
 0.4465990061025E-03 -0.2947645802355E-02  0.0000000000000E+00  0.3721408298121E-02
 0.4425388491495E-03 -0.3057463920581E-02  0.0000000000000E+00  0.3910475912064E-02
 0.4312841954956E-03 -0.3165608768296E-02  0.0000000000000E+00  0.4110227166500E-02
 0.4118615995299E-03 -0.3270292790922E-02  0.0000000000000E+00  0.4321046086940E-02
 0.3834095897593E-03 -0.3369526774322E-02  0.0000000000000E+00  0.4541932754527E-02
 0.3453977909719E-03 -0.3461199959961E-02  0.0000000000000E+00  0.4770180409348E-02
 0.2979100997146E-03 -0.3543233431034E-02  0.0000000000000E+00  0.5001215049467E-02
 0.2419486433525E-03 -0.3613742842008E-02  0.0000000000000E+00  0.5228585985296E-02
 0.1797594196500E-03 -0.3671250658283E-02  0.0000000000000E+00  0.5443973856640E-02
 0.1148978089712E-03 -0.3715115071527E-02  0.0000000000000E+00  0.5637821354642E-02
 0.5189825906637E-04 -0.3745683529582E-02  0.0000000000000E+00  0.5800263535872E-02
-0.4041962876622E-05 -0.3763966179679E-02  0.0000000000000E+00  0.5921274411353E-02
-0.4717011267530E-04 -0.3771335077752E-02  0.0000000000000E+00  0.5990367305496E-02
-0.7109759576213E-04 -0.3769465635377E-02  0.0000000000000E+00  0.5996329641140E-02
-0.6858482880923E-04 -0.3760488206283E-02  0.0000000000000E+00  0.5927195074800E-02
-0.3123665599747E-04 -0.3747275097528E-02  0.0000000000000E+00  0.5770526137624E-02
 0.5086517223030E-04 -0.3733818638808E-02  0.0000000000000E+00  0.5514053214544E-02
 0.1895714749299E-03 -0.3725683868263E-02  0.0000000000000E+00  0.5146768710432E-02
 0.3991517039367E-03 -0.3730459927477E-02  0.0000000000000E+00  0.4660564874098E-02
 0.6969531888841E-03 -0.3758193440610E-02  0.0000000000000E+00  0.4052525757817E-02
 0.1103691055179E-02 -0.3821851057531E-02  0.0000000000000E+00  0.3328729838637E-02
 0.1642504674179E-02 -0.3937138677423E-02  0.0000000000000E+00  0.2510078610420E-02
 0.2336155430907E-02 -0.4120718685526E-02  0.0000000000000E+00  0.1638991802978E-02
 0.3201489827387E-02 -0.4386153363420E-02  0.0000000000000E+00  0.7851690373327E-03
 0.4240876583658E-02 -0.4737265848785E-02  0.0000000000000E+00  0.4677556594024E-04
 0.5431976220141E-02 -0.5159907436377E-02  0.0000000000000E+00 -0.4577344252940E-03
 0.6719183320550E-02 -0.5614986847305E-02  0.0000000000000E+00 -0.6106847513650E-03
 0.8013276013810E-02 -0.6036895844846E-02  0.0000000000000E+00 -0.3222543808788E-03
 0.9212613947134E-02 -0.6350558926509E-02  0.0000000000000E+00  0.4449632972857E-03
 0.5997333708578E-04 -0.2089598848280E-02  0.0000000000000E+00  0.1253021184862E-02
 0.1614474458345E-03 -0.2162703951857E-02  0.0000000000000E+00  0.1569814950201E-02
 0.2343847568343E-03 -0.2228607175459E-02  0.0000000000000E+00  0.1862523553245E-02
 0.2874058774156E-03 -0.2293201142804E-02  0.0000000000000E+00  0.2126198200050E-02
 0.3275288819979E-03 -0.2360818392179E-02  0.0000000000000E+00  0.2362132769478E-02
 0.3594843582827E-03 -0.2433835416940E-02  0.0000000000000E+00  0.2574922630545E-02
 0.3859423814898E-03 -0.2513007282716E-02  0.0000000000000E+00  0.2770159044038E-02
 0.4081062109833E-03 -0.2598044028575E-02  0.0000000000000E+00  0.2953207901349E-02
 0.4262796665202E-03 -0.2688103477057E-02  0.0000000000000E+00  0.3128809940725E-02
 0.4402643247002E-03 -0.2782099059757E-02  0.0000000000000E+00  0.3301078535623E-02
 0.4495907900924E-03 -0.2878847179533E-02  0.0000000000000E+00  0.3473600601380E-02
 0.4536358851902E-03 -0.2977109850264E-02  0.0000000000000E+00  0.3649499553012E-02
 0.4516765098812E-03 -0.3075580587675E-02  0.0000000000000E+00  0.3831414641715E-02
 0.4429190180060E-03 -0.3172844943776E-02  0.0000000000000E+00  0.4021386113711E-02
 0.4265371158932E-03 -0.3267336524380E-02  0.0000000000000E+00  0.4220641524736E-02
 0.4017470267016E-03 -0.3357324662262E-02  0.0000000000000E+00  0.4429322984541E-02
 0.3679454713229E-03 -0.3440945300128E-02  0.0000000000000E+00  0.4646180896316E-02
 0.3249209622360E-03 -0.3516289493816E-02  0.0000000000000E+00  0.4868302049272E-02
 0.2731119356363E-03 -0.3581551179248E-02  0.0000000000000E+00  0.5090990801133E-02
 0.2138757549042E-03 -0.3635174665084E-02  0.0000000000000E+00  0.5307786119281E-02
 0.1497728163139E-03 -0.3676032747979E-02  0.0000000000000E+00  0.5510523207335E-02
 0.8462365163647E-04 -0.3703821070207E-02  0.0000000000000E+00  0.5689905074954E-02
 0.2322174199559E-04 -0.3719226540393E-02  0.0000000000000E+00  0.5836270388822E-02
-0.2893680341726E-04 -0.3723650527459E-02  0.0000000000000E+00  0.5939713908353E-02
-0.6574292543449E-04 -0.3718942058269E-02  0.0000000000000E+00  0.5989877420315E-02
-0.8040584395397E-04 -0.3707344670552E-02  0.0000000000000E+00  0.5975804147387E-02
-0.6527181671512E-04 -0.3691632569726E-02  0.0000000000000E+00  0.5886023353353E-02
-0.1157088950576E-04 -0.3675368983984E-02  0.0000000000000E+00  0.5708938102794E-02
 0.9087663310464E-04 -0.3663239876729E-02  0.0000000000000E+00  0.5433577030261E-02
 0.2539545099059E-03 -0.3661430116425E-02  0.0000000000000E+00  0.5050813668903E-02
 0.4915559804456E-03 -0.3677955136967E-02  0.0000000000000E+00  0.4555119680073E-02
 0.8199616612061E-03 -0.3722908016262E-02  0.0000000000000E+00  0.3946908143693E-02
 0.1257724412495E-02 -0.3808588663188E-02  0.0000000000000E+00  0.3236110737027E-02
 0.1824299318201E-02 -0.3948910279436E-02  0.0000000000000E+00  0.2447174133920E-02
 0.2537034025699E-02 -0.4157353889419E-02  0.0000000000000E+00  0.1624135502471E-02
 0.3406005814428E-02 -0.4443094648623E-02  0.0000000000000E+00  0.8340078952710E-03
 0.4426860639699E-02 -0.4805373806966E-02  0.0000000000000E+00  0.1654847041458E-03
 0.5573064524105E-02 -0.5227261997527E-02  0.0000000000000E+00 -0.2804090957265E-03
 0.6790745550329E-02 -0.5671313690857E-02  0.0000000000000E+00 -0.4091763859684E-03
 0.7997524784846E-02 -0.6078760508431E-02  0.0000000000000E+00 -0.1579083444949E-03
 0.9101465663937E-02 -0.6377652325376E-02  0.0000000000000E+00  0.5110266401891E-03
 0.6079580423614E-04 -0.2274967309788E-02  0.0000000000000E+00  0.1302727677622E-02
 0.1649544952157E-03 -0.2348999099410E-02  0.0000000000000E+00  0.1617774778750E-02
 0.2417428364972E-03 -0.2415624412761E-02  0.0000000000000E+00  0.1912476829643E-02
 0.2986085646479E-03 -0.2479956531151E-02  0.0000000000000E+00  0.2181162974078E-02
 0.3418274506047E-03 -0.2545907660546E-02  0.0000000000000E+00  0.2423867468790E-02
 0.3758148215837E-03 -0.2615766713637E-02  0.0000000000000E+00  0.2643988940141E-02
 0.4032037092385E-03 -0.2690385176166E-02  0.0000000000000E+00  0.2846276714950E-02
 0.4252789503493E-03 -0.2769615357683E-02  0.0000000000000E+00  0.3035629515496E-02
 0.4424477074659E-03 -0.2852728645130E-02  0.0000000000000E+00  0.3216584582461E-02
 0.4545992376822E-03 -0.2938702771872E-02  0.0000000000000E+00  0.3393190974835E-02
 0.4613335407125E-03 -0.3026376553637E-02  0.0000000000000E+00  0.3569018741660E-02
 0.4620904620060E-03 -0.3114509280290E-02  0.0000000000000E+00  0.3747165618610E-02
 0.4562199162201E-03 -0.3201784935394E-02  0.0000000000000E+00  0.3930205485534E-02
 0.4430285655609E-03 -0.3286791337065E-02  0.0000000000000E+00  0.4120060382615E-02
 0.4218344718852E-03 -0.3367995813652E-02  0.0000000000000E+00  0.4317789712599E-02
 0.3920548887588E-03 -0.3443750765821E-02  0.0000000000000E+00  0.4523337646918E-02
 0.3533483904157E-03 -0.3512338441482E-02  0.0000000000000E+00  0.4735263092435E-02
 0.3058169887233E-03 -0.3572064902476E-02  0.0000000000000E+00  0.4950511296308E-02
 0.2502415520347E-03 -0.3621401736084E-02  0.0000000000000E+00  0.5164328216546E-02
 0.1883208801637E-03 -0.3659120202452E-02  0.0000000000000E+00  0.5370298846892E-02
 0.1229194791267E-03 -0.3684438586368E-02  0.0000000000000E+00  0.5560456452038E-02
 0.5811770869307E-04 -0.3697385506665E-02  0.0000000000000E+00  0.5725801912614E-02
-0.1037648670321E-05 -0.3698982194059E-02  0.0000000000000E+00  0.5856930788314E-02
-0.4876646561114E-04 -0.3691009648782E-02  0.0000000000000E+00  0.5944134883444E-02
-0.7863399146085E-04 -0.3675770292879E-02  0.0000000000000E+00  0.5977275942581E-02
-0.8349748083886E-04 -0.3656036503627E-02  0.0000000000000E+00  0.5945748215859E-02
-0.5536186373067E-04 -0.3635167549854E-02  0.0000000000000E+00  0.5838665574988E-02
 0.1481738353548E-04 -0.3617332855663E-02  0.0000000000000E+00  0.5645343564646E-02
 0.1373467803100E-03 -0.3607791311024E-02  0.0000000000000E+00  0.5356143651501E-02
 0.3239690107607E-03 -0.3613180176799E-02  0.0000000000000E+00  0.4963776338066E-02
 0.5879935226645E-03 -0.3641721042837E-02  0.0000000000000E+00  0.4465098336072E-02
 0.9444263150001E-03 -0.3703291366094E-02  0.0000000000000E+00  0.3863403769952E-02
 0.1409538811378E-02 -0.3809279287156E-02  0.0000000000000E+00  0.3171667911486E-02
 0.1999228266904E-02 -0.3971700028476E-02  0.0000000000000E+00  0.2416684304890E-02
 0.2725996598897E-02 -0.4201056441319E-02  0.0000000000000E+00  0.1642701896069E-02
 0.3594317150570E-02 -0.4502796137740E-02  0.0000000000000E+00  0.9129594663892E-03
 0.4594774864098E-02 -0.4872670686968E-02  0.0000000000000E+00  0.3067705041662E-03
 0.5698469023400E-02 -0.5292175570628E-02  0.0000000000000E+00 -0.9006035040193E-04
 0.6853689445808E-02 -0.5725956049506E-02  0.0000000000000E+00 -0.2016710459725E-03
 0.7988412820625E-02 -0.6123596795420E-02  0.0000000000000E+00  0.1582132051964E-04
 0.9000833139927E-02 -0.6413528283922E-02  0.0000000000000E+00  0.5730895641928E-03
 0.6132879713138E-04 -0.2456931054127E-02  0.0000000000000E+00  0.1352542311012E-02
 0.1676180417899E-03 -0.2531552815373E-02  0.0000000000000E+00  0.1665636262240E-02
 0.2477461707706E-03 -0.2598671579132E-02  0.0000000000000E+00  0.1961588829992E-02
 0.3081271476059E-03 -0.2662690471723E-02  0.0000000000000E+00  0.2234174543619E-02
 0.3543184351883E-03 -0.2727094299218E-02  0.0000000000000E+00  0.2482411905490E-02
 0.3903794221305E-03 -0.2794028321584E-02  0.0000000000000E+00  0.2708666854217E-02
 0.4188421597751E-03 -0.2864376891572E-02  0.0000000000000E+00  0.2916908982092E-02
 0.4410201976211E-03 -0.2938089732830E-02  0.0000000000000E+00  0.3111562025334E-02
 0.4573924258958E-03 -0.3014530750306E-02  0.0000000000000E+00  0.3296923719204E-02
 0.4679229518886E-03 -0.3092739458090E-02  0.0000000000000E+00  0.3476941426455E-02
 0.4722811079016E-03 -0.3171586318569E-02  0.0000000000000E+00  0.3655140856189E-02
 0.4699774089461E-03 -0.3249844207582E-02  0.0000000000000E+00  0.3834579507225E-02
 0.4604466475347E-03 -0.3326208341264E-02  0.0000000000000E+00  0.4017764940884E-02
 0.4431091129085E-03 -0.3399292233177E-02  0.0000000000000E+00  0.4206514585227E-02
 0.4174390525817E-03 -0.3467620917486E-02  0.0000000000000E+00  0.4401748897500E-02
 0.3830618720656E-03 -0.3529651545030E-02  0.0000000000000E+00  0.4603258427198E-02
 0.3398976767648E-03 -0.3583828890980E-02  0.0000000000000E+00  0.4809466269731E-02
 0.2883534716753E-03 -0.3628682581760E-02  0.0000000000000E+00  0.5017236448638E-02
 0.2295381171454E-03 -0.3662962628661E-02  0.0000000000000E+00  0.5221814665775E-02
 0.1654756469361E-03 -0.3685761868530E-02  0.0000000000000E+00  0.5416883898982E-02
 0.9932119480990E-04 -0.3696635814991E-02  0.0000000000000E+00  0.5594714968652E-02
 0.3540525067783E-04 -0.3695937643111E-02  0.0000000000000E+00  0.5746639242520E-02
-0.2098311453808E-04 -0.3685012869361E-02  0.0000000000000E+00  0.5863555193338E-02
-0.6379974711740E-04 -0.3666004812920E-02  0.0000000000000E+00  0.5936017274150E-02
-0.8631911880314E-04 -0.3641639261044E-02  0.0000000000000E+00  0.5954184075734E-02
-0.8109979139992E-04 -0.3615170903796E-02  0.0000000000000E+00  0.5907876536509E-02
-0.3987935468874E-04 -0.3590477550179E-02  0.0000000000000E+00  0.5786854960892E-02
 0.4656381646512E-04 -0.3572243387552E-02  0.0000000000000E+00  0.5581380451373E-02
 0.1885395696770E-03 -0.3566177618430E-02  0.0000000000000E+00  0.5283127597842E-02
 0.3975022259991E-03 -0.3579211964498E-02  0.0000000000000E+00  0.4886530707570E-02
 0.6860213845769E-03 -0.3619584399759E-02  0.0000000000000E+00  0.4390564520744E-02
 0.1067704568181E-02 -0.3696756452328E-02  0.0000000000000E+00  0.3800906899534E-02
 0.1556536084111E-02 -0.3821055299845E-02  0.0000000000000E+00  0.3132791143020E-02
 0.2165096487187E-02 -0.4002606943208E-02  0.0000000000000E+00  0.2414322534682E-02
 0.2901667159807E-02 -0.4249224700521E-02  0.0000000000000E+00  0.1688902224406E-02
 0.3766179217924E-02 -0.4563267450500E-02  0.0000000000000E+00  0.1015386236783E-02
 0.4745544272116E-02 -0.4937900435114E-02  0.0000000000000E+00  0.4642118994328E-03
 0.5809621981191E-02 -0.5353837432815E-02  0.0000000000000E+00  0.1081924710324E-03
 0.6909779225284E-02 -0.5778139145015E-02  0.0000000000000E+00  0.8078977780684E-05
 0.7980721756576E-02 -0.6166366774535E-02  0.0000000000000E+00  0.1975029505925E-03
 0.8938571614350E-02 -0.6463300992359E-02  0.0000000000000E+00  0.6491906649103E-03
 0.6165517259262E-04 -0.2635782167758E-02  0.0000000000000E+00  0.1402233626252E-02
 0.1695895635793E-03 -0.2710703728207E-02  0.0000000000000E+00  0.1713253588015E-02
 0.2526195576091E-03 -0.2778112987746E-02  0.0000000000000E+00  0.2009820495791E-02
 0.3162171295741E-03 -0.2841760320643E-02  0.0000000000000E+00  0.2285320479070E-02
 0.3652565898354E-03 -0.2904706870643E-02  0.0000000000000E+00  0.2537952122534E-02
 0.4034151610988E-03 -0.2968914390672E-02  0.0000000000000E+00  0.2769196808746E-02
 0.4330747733511E-03 -0.3035249273424E-02  0.0000000000000E+00  0.2982313773213E-02
 0.4555325781671E-03 -0.3103719211094E-02  0.0000000000000E+00  0.3181260399831E-02
 0.4713096554647E-03 -0.3173759701346E-02  0.0000000000000E+00  0.3370074174406E-02
 0.4804311190671E-03 -0.3244467317878E-02  0.0000000000000E+00  0.3552574026031E-02
 0.4826334477820E-03 -0.3314750718979E-02  0.0000000000000E+00  0.3732220556754E-02
 0.4775030343301E-03 -0.3383410042377E-02  0.0000000000000E+00  0.3912020839836E-02
 0.4645687476342E-03 -0.3449169738202E-02  0.0000000000000E+00  0.4094418199489E-02
 0.4433748147272E-03 -0.3510689196915E-02  0.0000000000000E+00  0.4281140825665E-02
 0.4135602451188E-03 -0.3566571240932E-02  0.0000000000000E+00  0.4472999400792E-02
 0.3749626118656E-03 -0.3615395108742E-02  0.0000000000000E+00  0.4669672625744E-02
 0.3277609085884E-03 -0.3655780092847E-02  0.0000000000000E+00  0.4869498391555E-02
 0.2726575631498E-03 -0.3686484420036E-02  0.0000000000000E+00  0.5069313118321E-02
 0.2110749440943E-03 -0.3706534684584E-02  0.0000000000000E+00  0.5264413550663E-02
 0.1453462894405E-03 -0.3715337930755E-02  0.0000000000000E+00  0.5448626378303E-02
 0.7890341897202E-04 -0.3712776855806E-02  0.0000000000000E+00  0.5614494559552E-02
 0.1631588383361E-04 -0.3699519161551E-02  0.0000000000000E+00  0.5753708390081E-02
-0.3689767952186E-04 -0.3677222798738E-02  0.0000000000000E+00  0.5857508606269E-02
-0.7445018127300E-04 -0.3648374209352E-02  0.0000000000000E+00  0.5916767346502E-02
-0.8935993303327E-04 -0.3616090942176E-02  0.0000000000000E+00  0.5922002692923E-02
-0.7393786809579E-04 -0.3584062496879E-02  0.0000000000000E+00  0.5863519996723E-02
-0.1972339118200E-04 -0.3556618867073E-02  0.0000000000000E+00  0.5731765140561E-02
 0.8259389816279E-04 -0.3538870386367E-02  0.0000000000000E+00  0.5517948796392E-02
 0.2432203732652E-03 -0.3536862527737E-02  0.0000000000000E+00  0.5215003237623E-02
 0.4732035808889E-03 -0.3557682697475E-02  0.0000000000000E+00  0.4818935180759E-02
 0.7842628864279E-03 -0.3609430943803E-02  0.0000000000000E+00  0.4330542103313E-02
 0.1188546584019E-02 -0.3701008226505E-02  0.0000000000000E+00  0.3757396676123E-02
 0.1697815574528E-02 -0.3841603206591E-02  0.0000000000000E+00  0.3116288329188E-02
 0.2321621553116E-02 -0.4039528372431E-02  0.0000000000000E+00  0.2435792987233E-02
 0.3064620664713E-02 -0.4300217626151E-02  0.0000000000000E+00  0.1757709204724E-02
 0.3923114994036E-02 -0.4623507375460E-02  0.0000000000000E+00  0.1136233968505E-02
 0.4881381621798E-02 -0.5000678819037E-02  0.0000000000000E+00  0.6336142076604E-03
 0.5908952273625E-02 -0.5412214771992E-02  0.0000000000000E+00  0.3115369074366E-03
 0.6960081629725E-02 -0.5827477469686E-02  0.0000000000000E+00  0.2191346998206E-03
 0.7976178493533E-02 -0.6206850590584E-02  0.0000000000000E+00  0.3792455172345E-03
 0.8892047991682E-02 -0.6508363756428E-02  0.0000000000000E+00  0.7706185410364E-03
 0.6179694342598E-04 -0.2811802721764E-02  0.0000000000000E+00  0.1451715955267E-02
 0.1709860610426E-03 -0.2886829876444E-02  0.0000000000000E+00  0.1760578897013E-02
 0.2565496572972E-03 -0.2954397245322E-02  0.0000000000000E+00  0.2057230054873E-02
 0.3231073391747E-03 -0.3017659682433E-02  0.0000000000000E+00  0.2334782005059E-02
 0.3748849422901E-03 -0.3079263091724E-02  0.0000000000000E+00  0.2590776273260E-02
 0.4151626988377E-03 -0.3140957289111E-02  0.0000000000000E+00  0.2825941714776E-02
 0.4461344122728E-03 -0.3203549599248E-02  0.0000000000000E+00  0.3042898802339E-02
 0.4690424996715E-03 -0.3267070874985E-02  0.0000000000000E+00  0.3245158516310E-02
 0.4844228345874E-03 -0.3331007554309E-02  0.0000000000000E+00  0.3436489272232E-02
 0.4923469933922E-03 -0.3394506471087E-02  0.0000000000000E+00  0.3620563803841E-02
 0.4926144327777E-03 -0.3456518096297E-02  0.0000000000000E+00  0.3800762601666E-02
 0.4848901875221E-03 -0.3515880323392E-02  0.0000000000000E+00  0.3980035543249E-02
 0.4688037651199E-03 -0.3571361438842E-02  0.0000000000000E+00  0.4160765532062E-02
 0.4440309199877E-03 -0.3621683153552E-02  0.0000000000000E+00  0.4344607013099E-02
 0.4103814033199E-03 -0.3665542111135E-02  0.0000000000000E+00  0.4532288225150E-02
 0.3679069553737E-03 -0.3701652935343E-02  0.0000000000000E+00  0.4723413702114E-02
 0.3170419192980E-03 -0.3728817946129E-02  0.0000000000000E+00  0.4916280666290E-02
 0.2587750704287E-03 -0.3746026582742E-02  0.0000000000000E+00  0.5107744525451E-02
 0.1948294313298E-03 -0.3752578961025E-02  0.0000000000000E+00  0.5293197668991E-02
 0.1278334372606E-03 -0.3748188766685E-02  0.0000000000000E+00  0.5466650741934E-02
 0.6148337500667E-04 -0.3733056348073E-02  0.0000000000000E+00  0.5620949409735E-02
 0.5779452555699E-06 -0.3708154607138E-02  0.0000000000000E+00  0.5748167781982E-02
-0.4914634674469E-04 -0.3675442712283E-02  0.0000000000000E+00  0.5839923084839E-02
-0.8117868677193E-04 -0.3637732163050E-02  0.0000000000000E+00  0.5887452311299E-02
-0.8831226414896E-04 -0.3598502984121E-02  0.0000000000000E+00  0.5881685232805E-02
-0.6265566463493E-04 -0.3561835963687E-02  0.0000000000000E+00  0.5813456734589E-02
 0.4389269266991E-05 -0.3532453157409E-02  0.0000000000000E+00  0.5673922654376E-02
 0.1221457881100E-03 -0.3515812139292E-02  0.0000000000000E+00  0.5455230289968E-02
 0.3006282138324E-03 -0.3518196011886E-02  0.0000000000000E+00  0.5151496563225E-02
 0.5503851956618E-03 -0.3546733131153E-02  0.0000000000000E+00  0.4760136766125E-02
 0.8822106369554E-03 -0.3609266581342E-02  0.0000000000000E+00  0.4283481168488E-02
 0.1306773286879E-02 -0.3714038363641E-02  0.0000000000000E+00  0.3730550821777E-02
 0.1833706698220E-02 -0.3869070070876E-02  0.0000000000000E+00  0.3119092785878E-02
 0.2469817840334E-02 -0.4080966799351E-02  0.0000000000000E+00  0.2477490032269E-02
 0.3216659488321E-02 -0.4353073918156E-02  0.0000000000000E+00  0.1845410210021E-02
 0.4067633066395E-02 -0.4683172699438E-02  0.0000000000000E+00  0.1272307916450E-02
 0.5005182921042E-02 -0.5061190374873E-02  0.0000000000000E+00  0.8129043243389E-03
 0.5999025726474E-02 -0.5467732148259E-02  0.0000000000000E+00  0.5193829732518E-03
 0.7006405644451E-02 -0.5874287471142E-02  0.0000000000000E+00  0.4311470324100E-03
 0.7974919953263E-02 -0.6245669023653E-02  0.0000000000000E+00  0.5636652697266E-03
 0.8851055718735E-02 -0.6546500168687E-02  0.0000000000000E+00  0.8964072997909E-03
 0.6179025909758E-04 -0.2985243665220E-02  0.0000000000000E+00  0.1500888412871E-02
 0.1719153220831E-03 -0.3060219195092E-02  0.0000000000000E+00  0.1807540228081E-02
 0.2597047634711E-03 -0.3127837222605E-02  0.0000000000000E+00  0.2103817002510E-02
 0.3290027557430E-03 -0.3190705409045E-02  0.0000000000000E+00  0.2382648307438E-02
 0.3834209145354E-03 -0.3251066762978E-02  0.0000000000000E+00  0.2641051402355E-02
 0.4258361870237E-03 -0.3310440232066E-02  0.0000000000000E+00  0.2879119558789E-02
 0.4582258709097E-03 -0.3369541895483E-02  0.0000000000000E+00  0.3098906058016E-02
 0.4817459592950E-03 -0.3428396236270E-02  0.0000000000000E+00  0.3303504016745E-02
 0.4969226730476E-03 -0.3486521592871E-02  0.0000000000000E+00  0.3496414416623E-02
 0.5038598233478E-03 -0.3543107590114E-02  0.0000000000000E+00  0.3681154760677E-02
 0.5024145752891E-03 -0.3597148406298E-02  0.0000000000000E+00  0.3861016620841E-02
 0.4923315933900E-03 -0.3647528025848E-02  0.0000000000000E+00  0.4038889980572E-02
 0.4733454445707E-03 -0.3693070716915E-02  0.0000000000000E+00  0.4217103573736E-02
 0.4452686300230E-03 -0.3732574162847E-02  0.0000000000000E+00  0.4397254534439E-02
 0.4080852086904E-03 -0.3764841767303E-02  0.0000000000000E+00  0.4580015290263E-02
 0.3620609481697E-03 -0.3788733657843E-02  0.0000000000000E+00  0.4764951445745E-02
 0.3078804878257E-03 -0.3803240774257E-02  0.0000000000000E+00  0.4950360177216E-02
 0.2468091360977E-03 -0.3807584002233E-02  0.0000000000000E+00  0.5133157823951E-02
 0.1808575165050E-03 -0.3801332102725E-02  0.0000000000000E+00  0.5308872460439E-02
 0.1129351139725E-03 -0.3784496387055E-02  0.0000000000000E+00  0.5471734775604E-02
 0.4698999150660E-04 -0.3757584136617E-02  0.0000000000000E+00  0.5614920125512E-02
-0.1196087315553E-04 -0.3721862871204E-02  0.0000000000000E+00  0.5730907686262E-02
-0.5797591227535E-04 -0.3679580269831E-02  0.0000000000000E+00  0.5811719986271E-02
-0.8434028204568E-04 -0.3633853433343E-02  0.0000000000000E+00  0.5848997880746E-02
-0.8365219310758E-04 -0.3588494788768E-02  0.0000000000000E+00  0.5834124008263E-02
-0.4786024230852E-04 -0.3547933227344E-02  0.0000000000000E+00  0.5758494006634E-02
 0.3171645639971E-04 -0.3517224978121E-02  0.0000000000000E+00  0.5613981020122E-02
 0.1643481241986E-03 -0.3502101479221E-02  0.0000000000000E+00  0.5393635957174E-02
 0.3597847749323E-03 -0.3508995847915E-02  0.0000000000000E+00  0.5092666079915E-02
 0.6280086510780E-03 -0.3544981765581E-02  0.0000000000000E+00  0.4709714551034E-02
 0.9788465183874E-03 -0.3617555478517E-02  0.0000000000000E+00  0.4248352916602E-02
 0.1421506476108E-02 -0.3734240301769E-02  0.0000000000000E+00  0.3718634712482E-02
 0.1963624143944E-02 -0.3901902797696E-02  0.0000000000000E+00  0.3138747278778E-02
 0.2609552884162E-02 -0.4125572885242E-02  0.0000000000000E+00  0.2536356397773E-02
 0.3358215991294E-02 -0.4406786973815E-02  0.0000000000000E+00  0.1948648303904E-02
 0.4200729193077E-02 -0.4741672046239E-02  0.0000000000000E+00  0.1420396779102E-02
 0.5118308855793E-02 -0.5119215885255E-02  0.0000000000000E+00  0.9994948360421E-03
 0.6081253428609E-02 -0.5520381817885E-02  0.0000000000000E+00  0.7299464409634E-03
 0.7049714015974E-02 -0.5918700330477E-02  0.0000000000000E+00  0.6432015525457E-03
 0.7977023269292E-02 -0.6282849362534E-02  0.0000000000000E+00  0.7490246340253E-03
 0.8817589195671E-02 -0.6582570867541E-02  0.0000000000000E+00  0.1028650664307E-02
 0.6166736260457E-04 -0.3156340380577E-02  0.0000000000000E+00  0.1549672879868E-02
 0.1724740206172E-03 -0.3231141711255E-02  0.0000000000000E+00  0.1854082336934E-02
 0.2622375144526E-03 -0.3298727110220E-02  0.0000000000000E+00  0.2149585479496E-02
 0.3340927864163E-03 -0.3361199262260E-02  0.0000000000000E+00  0.2428999911454E-02
 0.3910701535787E-03 -0.3420412335607E-02  0.0000000000000E+00  0.2688928331229E-02
 0.4356427861466E-03 -0.3477642549762E-02  0.0000000000000E+00  0.2928931307007E-02
 0.4695507822431E-03 -0.3533489929955E-02  0.0000000000000E+00  0.3150564658177E-02
 0.4938378494404E-03 -0.3587947927855E-02  0.0000000000000E+00  0.3356538055261E-02
 0.5089991096610E-03 -0.3640549688844E-02  0.0000000000000E+00  0.3550095077013E-02
 0.5151570839177E-03 -0.3690520007658E-02  0.0000000000000E+00  0.3734596582560E-02
 0.5122206697412E-03 -0.3736897356538E-02  0.0000000000000E+00  0.3913242123834E-02
 0.5000136797540E-03 -0.3778618249511E-02  0.0000000000000E+00  0.4088862883244E-02
 0.4783782746234E-03 -0.3814572809921E-02  0.0000000000000E+00  0.4263741814220E-02
 0.4472668191492E-03 -0.3843645759060E-02  0.0000000000000E+00  0.4439435772655E-02
 0.4068391451244E-03 -0.3864757393227E-02  0.0000000000000E+00  0.4616587027950E-02
 0.3575730954566E-03 -0.3876920650031E-02  0.0000000000000E+00  0.4794754973328E-02
 0.3003973018937E-03 -0.3879318143897E-02  0.0000000000000E+00  0.4972273640844E-02
 0.2368431875676E-03 -0.3871400377120E-02  0.0000000000000E+00  0.5146157968265E-02
 0.1691957561413E-03 -0.3852998280526E-02  0.0000000000000E+00  0.5312107541079E-02
 0.1006312872620E-03 -0.3824410498220E-02  0.0000000000000E+00  0.5464605250362E-02
 0.3533658369448E-04 -0.3786439471980E-02  0.0000000000000E+00  0.5597179620660E-02
-0.2146466088584E-04 -0.3740635687557E-02  0.0000000000000E+00  0.5702732549488E-02
-0.6363932941694E-04 -0.3689521418220E-02  0.0000000000000E+00  0.5773715474339E-02
-0.8428824731016E-04 -0.3636498928677E-02  0.0000000000000E+00  0.5802204428505E-02
-0.7584334811461E-04 -0.3585682776879E-02  0.0000000000000E+00  0.5780065869481E-02
-0.3013202897290E-04 -0.3541807952308E-02  0.0000000000000E+00  0.5699274811764E-02
 0.6156100803834E-04 -0.3510210336806E-02  0.0000000000000E+00  0.5552414301774E-02
 0.2083977080174E-03 -0.3496828671122E-02  0.0000000000000E+00  0.5333389703239E-02
 0.4198076968725E-03 -0.3508170454716E-02  0.0000000000000E+00  0.5038389323322E-02
 0.7051620290408E-03 -0.3551177890721E-02  0.0000000000000E+00  0.4667095355391E-02
 0.1073307259093E-02 -0.3632936832234E-02  0.0000000000000E+00  0.4224037491824E-02
 0.1532039801272E-02 -0.3760223967041E-02  0.0000000000000E+00  0.3719923778911E-02
 0.2087147543602E-02 -0.3938792392323E-02  0.0000000000000E+00  0.3172943652719E-02
 0.2740815232793E-02 -0.4172242225955E-02  0.0000000000000E+00  0.2609642142386E-02
 0.3489760120932E-02 -0.4460560818805E-02  0.0000000000000E+00  0.2064510157096E-02
 0.4323319737958E-02 -0.4798560201425E-02  0.0000000000000E+00  0.1577803211040E-02
 0.5221952487679E-02 -0.5174610526537E-02  0.0000000000000E+00  0.1191257859212E-02
 0.6156791126269E-02 -0.5570203391523E-02  0.0000000000000E+00  0.9418741773633E-03
 0.7090815015630E-02 -0.5960820902449E-02  0.0000000000000E+00  0.8545917730299E-03
 0.7982331297033E-02 -0.6318586822385E-02  0.0000000000000E+00  0.9352201811385E-03
 0.8791347046307E-02 -0.6617153009861E-02  0.0000000000000E+00  0.1166994213359E-02
 0.6145727465813E-04 -0.3325314952962E-02  0.0000000000000E+00  0.1598012141683E-02
 0.1727495103521E-03 -0.3399851551383E-02  0.0000000000000E+00  0.1900166074212E-02
 0.2642871928373E-03 -0.3467344633003E-02  0.0000000000000E+00  0.2194545739834E-02
 0.3385530723969E-03 -0.3529428940527E-02  0.0000000000000E+00  0.2473912588633E-02
 0.3980271619445E-03 -0.3587584596184E-02  0.0000000000000E+00  0.2734545978705E-02
 0.4447822681859E-03 -0.3642838356810E-02  0.0000000000000E+00  0.2975564289150E-02
 0.4803066017938E-03 -0.3695655388860E-02  0.0000000000000E+00  0.3198092642537E-02
 0.5055107444705E-03 -0.3745977822878E-02  0.0000000000000E+00  0.3404495533626E-02
 0.5208401730960E-03 -0.3793338601518E-02  0.0000000000000E+00  0.3597775795843E-02
 0.5264235498069E-03 -0.3836990294102E-02  0.0000000000000E+00  0.3781142748442E-02
 0.5222151515899E-03 -0.3876015306794E-02  0.0000000000000E+00  0.3957705931218E-02
 0.5081162858538E-03 -0.3909407497985E-02  0.0000000000000E+00  0.4130242244940E-02
 0.4840776219316E-03 -0.3936130667299E-02  0.0000000000000E+00  0.4300999077313E-02
 0.4501926745751E-03 -0.3955165283728E-02  0.0000000000000E+00  0.4471510343965E-02
 0.4067967045527E-03 -0.3965556145899E-02  0.0000000000000E+00  0.4642412627317E-02
 0.3545761490155E-03 -0.3966473823159E-02  0.0000000000000E+00  0.4813289289454E-02
 0.2946962935885E-03 -0.3957293443312E-02  0.0000000000000E+00  0.4982544590902E-02
 0.2289437635122E-03 -0.3937691492110E-02  0.0000000000000E+00  0.5147325772482E-02
 0.1598645880225E-03 -0.3907753186417E-02  0.0000000000000E+00  0.5303535835986E-02
 0.9088752548789E-04 -0.3868053089101E-02  0.0000000000000E+00  0.5445938299960E-02
 0.2642486631116E-04 -0.3819676122015E-02  0.0000000000000E+00  0.5568434934740E-02
-0.2810498032113E-04 -0.3764443203114E-02  0.0000000000000E+00  0.5664364515084E-02
-0.6639120855295E-04 -0.3705136356901E-02  0.0000000000000E+00  0.5726626061016E-02
-0.8136959188010E-04 -0.3645421991352E-02  0.0000000000000E+00  0.5747754979610E-02
-0.6533258451830E-04 -0.3589686864098E-02  0.0000000000000E+00  0.5720123230821E-02
-0.1002111425624E-04 -0.3542931947371E-02  0.0000000000000E+00  0.5636292762745E-02
 0.9327317389640E-04 -0.3510722477444E-02  0.0000000000000E+00  0.5489536822784E-02
 0.2535594816114E-03 -0.3499145560215E-02  0.0000000000000E+00  0.5274553813641E-02
 0.4799064540062E-03 -0.3514719721915E-02  0.0000000000000E+00  0.4988394448185E-02
 0.7810495590768E-03 -0.3564196703800E-02  0.0000000000000E+00  0.4631590090841E-02
 0.1164865750482E-02 -0.3654211436212E-02  0.0000000000000E+00  0.4209360862101E-02
 0.1637810887982E-02 -0.3790791438903E-02  0.0000000000000E+00  0.3732732720455E-02
 0.2203986150095E-02 -0.3978638326358E-02  0.0000000000000E+00  0.3219532922971E-02
 0.2863678581767E-02 -0.4220071672581E-02  0.0000000000000E+00  0.2694883438226E-02
 0.3611770919811E-02 -0.4513765714355E-02  0.0000000000000E+00  0.2190470566875E-02
 0.4436239238885E-02 -0.4853501148900E-02  0.0000000000000E+00  0.1742254562712E-02
 0.5317138507183E-02 -0.5227280342592E-02  0.0000000000000E+00  0.1386458453141E-02
 0.6226596108446E-02 -0.5617235694257E-02  0.0000000000000E+00  0.1154103403220E-02
 0.7130252115066E-02 -0.6000699639825E-02  0.0000000000000E+00  0.1064911696065E-02
 0.7990579185964E-02 -0.6352756092717E-02  0.0000000000000E+00  0.1122043348989E-02
 0.8771868607077E-02 -0.6650119256388E-02  0.0000000000000E+00  0.1310447810823E-02
 0.6118633969274E-04 -0.3492377858978E-02  0.0000000000000E+00  0.1645868049770E-02
 0.1728213001510E-03 -0.3566588833980E-02  0.0000000000000E+00  0.1945767633362E-02
 0.2659816224383E-03 -0.3633952815854E-02  0.0000000000000E+00  0.2238715240729E-02
 0.3425470534407E-03 -0.3695669093335E-02  0.0000000000000E+00  0.2517460199282E-02
 0.4044760069291E-03 -0.3752858604921E-02  0.0000000000000E+00  0.2778034797846E-02
 0.4534468629275E-03 -0.3806295617094E-02  0.0000000000000E+00  0.3019195017616E-02
 0.4906858878931E-03 -0.3856296455361E-02  0.0000000000000E+00  0.3241698565728E-02
 0.5169539488418E-03 -0.3902735488302E-02  0.0000000000000E+00  0.3447605383630E-02
 0.5326310470483E-03 -0.3945132539492E-02  0.0000000000000E+00  0.3639699367432E-02
 0.5378405263288E-03 -0.3982761049518E-02  0.0000000000000E+00  0.3821048868581E-02
 0.5325755839076E-03 -0.4014746361454E-02  0.0000000000000E+00  0.3994679885655E-02
 0.5168124761579E-03 -0.4040143138584E-02  0.0000000000000E+00  0.4163322565053E-02
 0.4906099433317E-03 -0.4057994862407E-02  0.0000000000000E+00  0.4329200446127E-02
 0.4542023728940E-03 -0.4067384346232E-02  0.0000000000000E+00  0.4493841888505E-02
 0.4080985711720E-03 -0.4067486250748E-02  0.0000000000000E+00  0.4657900926778E-02
 0.3531888049706E-03 -0.4057631407244E-02  0.0000000000000E+00  0.4821012549214E-02
 0.2908668198163E-03 -0.4037386354325E-02  0.0000000000000E+00  0.4981681270537E-02
 0.2231631281092E-03 -0.4006648345760E-02  0.0000000000000E+00  0.5137216647349E-02
 0.1528713328850E-03 -0.3965747759554E-02  0.0000000000000E+00  0.5283753335402E-02
 0.8365834794913E-04 -0.3915522688623E-02  0.0000000000000E+00  0.5416360361267E-02
 0.2014860874783E-04 -0.3857327094413E-02  0.0000000000000E+00  0.5529329552222E-02
-0.3205697713671E-04 -0.3793239096381E-02  0.0000000000000E+00  0.5616447369403E-02
-0.6648381060487E-04 -0.3726284970517E-02  0.0000000000000E+00  0.5671074489876E-02
-0.7592111334065E-04 -0.3660374031356E-02  0.0000000000000E+00  0.5686223423317E-02
-0.5254638916058E-04 -0.3600136111368E-02  0.0000000000000E+00  0.5654785120662E-02
 0.1195556206773E-04 -0.3550800499619E-02  0.0000000000000E+00  0.5569906608735E-02
 0.1262519493183E-03 -0.3518116298416E-02  0.0000000000000E+00  0.5425521846818E-02
 0.2991653354379E-03 -0.3508268067418E-02  0.0000000000000E+00  0.5217052260886E-02
 0.5393772091801E-03 -0.3527734068641E-02  0.0000000000000E+00  0.4942287874947E-02
 0.8549808790407E-03 -0.3583032957241E-02  0.0000000000000E+00  0.4602423902118E-02
 0.1252913394888E-02 -0.3680327842663E-02  0.0000000000000E+00  0.4203123159459E-02
 0.1738376684963E-02 -0.3824914254768E-02  0.0000000000000E+00  0.3755434924662E-02
 0.2313949680091E-02 -0.4020517467368E-02  0.0000000000000E+00  0.3276526605915E-02
 0.2978273450462E-02 -0.4268323259476E-02  0.0000000000000E+00  0.2789878229084E-02
 0.3724718155110E-02 -0.4565902916723E-02  0.0000000000000E+00  0.2324339309663E-02
 0.4540236172817E-02 -0.4906240435703E-02  0.0000000000000E+00  0.1911833409596E-02
 0.5404741756171E-02 -0.5277160177347E-02  0.0000000000000E+00  0.1583670995872E-02
 0.6291435803197E-02 -0.5661499826485E-02  0.0000000000000E+00  0.1365800307208E-02
 0.7168382328949E-02 -0.6038296956607E-02  0.0000000000000E+00  0.1273814606883E-02
 0.8001527257774E-02 -0.6385131665082E-02  0.0000000000000E+00  0.1309084639922E-02
 0.8758629117056E-02 -0.6681212208264E-02  0.0000000000000E+00  0.1457992599676E-02
 0.6087864560715E-04 -0.3657729313290E-02  0.0000000000000E+00  0.1693219918750E-02
 0.1727622434989E-03 -0.3731581282525E-02  0.0000000000000E+00  0.1990877764754E-02
 0.2674387427186E-03 -0.3798801495362E-02  0.0000000000000E+00  0.2282119365528E-02
 0.3462273321170E-03 -0.3860182267711E-02  0.0000000000000E+00  0.2559716809825E-02
 0.4105910494736E-03 -0.3916499809863E-02  0.0000000000000E+00  0.2819519473135E-02
 0.4618212829380E-03 -0.3968275511715E-02  0.0000000000000E+00  0.3059991511993E-02
 0.5008758181205E-03 -0.4015666716922E-02  0.0000000000000E+00  0.3281582874679E-02
 0.5283527697070E-03 -0.4058466927656E-02  0.0000000000000E+00  0.3486090851881E-02
 0.5445533193500E-03 -0.4096171956444E-02  0.0000000000000E+00  0.3676106148672E-02
 0.5495852244523E-03 -0.4128069886240E-02  0.0000000000000E+00  0.3854571228666E-02
 0.5434742573747E-03 -0.4153327625425E-02  0.0000000000000E+00  0.4024438827011E-02
 0.5262684414933E-03 -0.4171063006540E-02  0.0000000000000E+00  0.4188402423776E-02
 0.4981330552293E-03 -0.4180403625097E-02  0.0000000000000E+00  0.4348674601832E-02
 0.4594417731346E-03 -0.4180539366479E-02  0.0000000000000E+00  0.4506795359867E-02
 0.4108737702819E-03 -0.4170778122041E-02  0.0000000000000E+00  0.4663457874626E-02
 0.3535173084492E-03 -0.4150611685920E-02  0.0000000000000E+00  0.4818373926627E-02
 0.2889856941660E-03 -0.4119795200878E-02  0.0000000000000E+00  0.4970175130685E-02
 0.2195416879494E-03 -0.4078440081304E-02  0.0000000000000E+00  0.5116359915050E-02
 0.1482129552847E-03 -0.4027111649752E-02  0.0000000000000E+00  0.5253319383707E-02
 0.7889029047711E-04 -0.3966898302703E-02  0.0000000000000E+00  0.5376449594775E-02
 0.1639695548258E-04 -0.3899408981885E-02  0.0000000000000E+00  0.5480446140715E-02
-0.3349588473969E-04 -0.3826965255603E-02  0.0000000000000E+00  0.5559550830319E-02
-0.6416350610816E-04 -0.3752821742145E-02  0.0000000000000E+00  0.5607595860327E-02
-0.6826601141607E-04 -0.3681109532395E-02  0.0000000000000E+00  0.5618082818595E-02
-0.3788795022597E-04 -0.3616673597535E-02  0.0000000000000E+00  0.5584428083464E-02
 0.3531623086778E-04 -0.3564936737287E-02  0.0000000000000E+00  0.5500354199115E-02
 0.1599455139127E-03 -0.3531791587509E-02  0.0000000000000E+00  0.5360419010304E-02
 0.3446120219210E-03 -0.3523477344426E-02  0.0000000000000E+00  0.5160691688275E-02
 0.5975970218077E-03 -0.3546392198066E-02  0.0000000000000E+00  0.4899578117277E-02
 0.9263603368826E-03 -0.3606793739326E-02  0.0000000000000E+00  0.4578760721263E-02
 0.1336943763970E-02 -0.3710368718219E-02  0.0000000000000E+00  0.4204119893978E-02
 0.1833391996063E-02 -0.3861712692767E-02  0.0000000000000E+00  0.3786474274085E-02
 0.2416924251881E-02 -0.4063657298415E-02  0.0000000000000E+00  0.3342092245547E-02
 0.3084765580334E-02 -0.4316394516507E-02  0.0000000000000E+00  0.2892660128853E-02
 0.3829049249683E-02 -0.4616577073615E-02  0.0000000000000E+00  0.2464213941834E-02
 0.4635974222144E-02 -0.4956583709963E-02  0.0000000000000E+00  0.2084914878535E-02
 0.5485501616977E-02 -0.5324200581735E-02  0.0000000000000E+00  0.1781714631050E-02
 0.6351918309611E-02 -0.5702990602665E-02  0.0000000000000E+00  0.1576276658596E-02
 0.7205452174730E-02 -0.6073524191603E-02  0.0000000000000E+00  0.1480933689369E-02
 0.8014961503337E-02 -0.6415480856094E-02  0.0000000000000E+00  0.1495841597860E-02
 0.8751104390891E-02 -0.6710152238622E-02  0.0000000000000E+00  0.1608638085267E-02
 0.6055636052117E-04 -0.3821560374187E-02  0.0000000000000E+00  0.1740063125245E-02
 0.1726395043970E-03 -0.3895045572820E-02  0.0000000000000E+00  0.2035500990033E-02
 0.2687679267782E-03 -0.3962128608714E-02  0.0000000000000E+00  0.2324791832668E-02
 0.3497368734344E-03 -0.4023219762693E-02  0.0000000000000E+00  0.2600758233468E-02
 0.4165376688948E-03 -0.4078764239744E-02  0.0000000000000E+00  0.2859120989530E-02
 0.4700828773753E-03 -0.4129031995999E-02  0.0000000000000E+00  0.3098115149636E-02
 0.5110578937857E-03 -0.4174014289058E-02  0.0000000000000E+00  0.3317939029854E-02
 0.5398879773943E-03 -0.4213413512765E-02  0.0000000000000E+00  0.3520169715101E-02
 0.5567843897071E-03 -0.4246692488613E-02  0.0000000000000E+00  0.3707233427774E-02
 0.5618302596193E-03 -0.4273148509907E-02  0.0000000000000E+00  0.3881965475207E-02
 0.5550778830338E-03 -0.4291988525959E-02  0.0000000000000E+00  0.4047258775180E-02
 0.5366434644904E-03 -0.4302395048717E-02  0.0000000000000E+00  0.4205782333555E-02
 0.5067964359993E-03 -0.4303582884907E-02  0.0000000000000E+00  0.4359751514183E-02
 0.4660471044309E-03 -0.4294852089695E-02  0.0000000000000E+00  0.4510734740646E-02
 0.4152407662400E-03 -0.4275645404874E-02  0.0000000000000E+00  0.4659484475049E-02
 0.3556569589990E-03 -0.4245614593725E-02  0.0000000000000E+00  0.4805812002058E-02
 0.2891190737216E-03 -0.4204699098970E-02  0.0000000000000E+00  0.4948499853127E-02
 0.2181102230514E-03 -0.4153216661835E-02  0.0000000000000E+00  0.5085258633244E-02
 0.1458786004201E-03 -0.4091956374835E-02  0.0000000000000E+00  0.5212757449735E-02
 0.7652470656302E-04 -0.4022242999471E-02  0.0000000000000E+00  0.5326737749786E-02
 0.1505743491129E-04 -0.3945925910054E-02  0.0000000000000E+00  0.5422309684867E-02
-0.3259389661139E-04 -0.3865556007969E-02  0.0000000000000E+00  0.5494175161369E-02
-0.5966766934040E-04 -0.3784600152293E-02  0.0000000000000E+00  0.5536643973161E-02
-0.5871101697036E-04 -0.3707390455835E-02  0.0000000000000E+00  0.5543713759232E-02
-0.2173483426859E-04 -0.3638960573474E-02  0.0000000000000E+00  0.5509326880011E-02
 0.5961561626566E-04 -0.3584895134626E-02  0.0000000000000E+00  0.5427765819027E-02
 0.1938509205394E-03 -0.3551195266854E-02  0.0000000000000E+00  0.5294170455878E-02
 0.3893583838869E-03 -0.3544119884802E-02  0.0000000000000E+00  0.5105180118705E-02
 0.6540176691494E-03 -0.3569957952120E-02  0.0000000000000E+00  0.4859696073851E-02
 0.9946765687583E-03 -0.3634690855154E-02  0.0000000000000E+00  0.4559722936893E-02
 0.1416537646185E-02 -0.3743537794494E-02  0.0000000000000E+00  0.4211157288030E-02
 0.1922590850621E-02 -0.3900437154945E-02  0.0000000000000E+00  0.3824371156054E-02
 0.2512852626435E-02 -0.4107412997298E-02  0.0000000000000E+00  0.3414544926953E-02
 0.3183339271050E-02 -0.4363794174373E-02  0.0000000000000E+00  0.3001472306704E-02
 0.3925180755032E-02 -0.4665474479974E-02  0.0000000000000E+00  0.2608437053432E-02
 0.4724035611085E-02 -0.5004381189778E-02  0.0000000000000E+00  0.2260113690417E-02
 0.5560038267895E-02 -0.5368359934718E-02  0.0000000000000E+00  0.1979596450842E-02
 0.6408527067703E-02 -0.5741683393543E-02  0.0000000000000E+00  0.1784933999998E-02
 0.7241637675044E-02 -0.6106276810246E-02  0.0000000000000E+00  0.1685878059987E-02
 0.8030687047507E-02 -0.6443589455813E-02  0.0000000000000E+00  0.1681772946995E-02
 0.8748794904534E-02 -0.6736675411059E-02  0.0000000000000E+00  0.1761427593963E-02
 0.6024000232514E-04 -0.3984053872441E-02  0.0000000000000E+00  0.1786407893612E-02
 0.1725153477269E-03 -0.4057188475018E-02  0.0000000000000E+00  0.2079654851454E-02
 0.2700710918854E-03 -0.4124161315611E-02  0.0000000000000E+00  0.2366774881918E-02
 0.3532100654406E-03 -0.4185022425104E-02  0.0000000000000E+00  0.2640663134814E-02
 0.4224729716920E-03 -0.4239898774271E-02  0.0000000000000E+00  0.2896958205510E-02
 0.4784018803757E-03 -0.4288811534780E-02  0.0000000000000E+00  0.3133722118447E-02
 0.5214077971400E-03 -0.4331581155916E-02  0.0000000000000E+00  0.3350954398379E-02
 0.5517354272767E-03 -0.4367811122887E-02  0.0000000000000E+00  0.3550054429734E-02
 0.5694970189926E-03 -0.4396924068021E-02  0.0000000000000E+00  0.3733314851658E-02
 0.5747432624586E-03 -0.4418221941582E-02  0.0000000000000E+00  0.3903485449695E-02
 0.5675473665880E-03 -0.4430950245231E-02  0.0000000000000E+00  0.4063415334688E-02
 0.5480899362915E-03 -0.4434357050127E-02  0.0000000000000E+00  0.4215762881636E-02
 0.5167415464336E-03 -0.4427746365672E-02  0.0000000000000E+00  0.4362760492076E-02
 0.4741456331214E-03 -0.4410530112805E-02  0.0000000000000E+00  0.4506021180821E-02
 0.4213084963310E-03 -0.4382285979106E-02  0.0000000000000E+00  0.4646375203818E-02
 0.3596935068999E-03 -0.4342823218566E-02  0.0000000000000E+00  0.4783753642922E-02
 0.2913241941082E-03 -0.4292259952870E-02  0.0000000000000E+00  0.4917110866671E-02
 0.2188919272028E-03 -0.4231111334916E-02  0.0000000000000E+00  0.5044389893494E-02
 0.1458519031051E-03 -0.4160378214011E-02  0.0000000000000E+00  0.5162556339883E-02
 0.7650030159795E-04 -0.4081607179272E-02  0.0000000000000E+00  0.5267712428651E-02
 0.1601865766049E-04 -0.3996873117777E-02  0.0000000000000E+00  0.5355390958311E-02
-0.2951739835927E-04 -0.3908941923703E-02  0.0000000000000E+00  0.5420756036297E-02
-0.5322198670266E-04 -0.3821476585321E-02  0.0000000000000E+00  0.5458597798394E-02
-0.4754399391199E-04 -0.3738990070411E-02  0.0000000000000E+00  0.5463412670385E-02
-0.4437193443063E-05 -0.3666679945896E-02  0.0000000000000E+00  0.5429664829341E-02
 0.8444568918581E-04 -0.3610264247550E-02  0.0000000000000E+00  0.5352176727835E-02
 0.2275132331979E-03 -0.3575822800592E-02  0.0000000000000E+00  0.5226625529240E-02
 0.4329221735018E-03 -0.3569606826204E-02  0.0000000000000E+00  0.5050143364691E-02
 0.7081594136788E-03 -0.3597776581413E-02  0.0000000000000E+00  0.4822011998492E-02
 0.1059492679655E-02 -0.3666033155910E-02  0.0000000000000E+00  0.4544406767389E-02
 0.1491349672785E-02 -0.3779147686650E-02  0.0000000000000E+00  0.4223062790217E-02
 0.2005770624599E-02 -0.3940451679358E-02  0.0000000000000E+00  0.3867724103044E-02
 0.2601718208950E-02 -0.4151248016402E-02  0.0000000000000E+00  0.3492336338676E-02
 0.3274184849192E-02 -0.4410122400070E-02  0.0000000000000E+00  0.3114742227298E-02
 0.4013493223821E-02 -0.4712346245887E-02  0.0000000000000E+00  0.2755558512529E-02
 0.4804926210410E-02 -0.5049516628870E-02  0.0000000000000E+00  0.2436239374956E-02
 0.5628869746256E-02 -0.5409601761987E-02  0.0000000000000E+00  0.2176466589015E-02
 0.6461648773656E-02 -0.5777544073164E-02  0.0000000000000E+00  0.1991233803671E-02
 0.7277066383464E-02 -0.6136451989982E-02  0.0000000000000E+00  0.1888242174725E-02
 0.8048523749857E-02 -0.6469269446500E-02  0.0000000000000E+00  0.1866323486003E-02
 0.8751238962661E-02 -0.6760546341511E-02  0.0000000000000E+00  0.1915431210535E-02
 0.5994866033946E-04 -0.4145385206976E-02  0.0000000000000E+00  0.1832278232742E-02
 0.1724477952881E-03 -0.4218207832922E-02  0.0000000000000E+00  0.2123369202454E-02
 0.2714436462358E-03 -0.4285116982257E-02  0.0000000000000E+00  0.2408119294298E-02
 0.3567736648875E-03 -0.4345821389300E-02  0.0000000000000E+00  0.2679513788008E-02
 0.4285464797764E-03 -0.4400141463343E-02  0.0000000000000E+00  0.2933149013881E-02
 0.4869417286302E-03 -0.4447852969657E-02  0.0000000000000E+00  0.3166964516047E-02
 0.5320953702435E-03 -0.4488602680108E-02  0.0000000000000E+00  0.3380810921665E-02
 0.5640658156143E-03 -0.4521889450221E-02  0.0000000000000E+00  0.3575952193123E-02
 0.5828589984436E-03 -0.4547090177237E-02  0.0000000000000E+00  0.3754579880175E-02
 0.5884865836205E-03 -0.4563507850193E-02  0.0000000000000E+00  0.3919382140000E-02
 0.5810376477420E-03 -0.4570425232798E-02  0.0000000000000E+00  0.4073182291303E-02
 0.5607534079787E-03 -0.4567156410564E-02  0.0000000000000E+00  0.4218643132541E-02
 0.5281021521052E-03 -0.4553095697618E-02  0.0000000000000E+00  0.4358028557344E-02
 0.4838562952893E-03 -0.4527767389495E-02  0.0000000000000E+00  0.4493011513934E-02
 0.4291773306845E-03 -0.4490882896275E-02  0.0000000000000E+00  0.4624516840915E-02
 0.3657044358006E-03 -0.4442405186781E-02  0.0000000000000E+00  0.4752613320483E-02
 0.2956509533939E-03 -0.4382624282421E-02  0.0000000000000E+00  0.4876445298992E-02
 0.2219042625406E-03 -0.4312242878487E-02  0.0000000000000E+00  0.4994205539407E-02
 0.1481130773689E-03 -0.4232460835190E-02  0.0000000000000E+00  0.5103171802812E-02
 0.7875541246663E-04 -0.4145031532562E-02  0.0000000000000E+00  0.5199819701175E-02
 0.1917272164592E-04 -0.4052240178456E-02  0.0000000000000E+00  0.5280110284916E-02
-0.2442453496024E-04 -0.3957053210632E-02  0.0000000000000E+00  0.5339669602712E-02
-0.4503814405377E-04 -0.3863313769693E-02  0.0000000000000E+00  0.5373768008662E-02
-0.3503196225052E-04 -0.3775696251840E-02  0.0000000000000E+00  0.5377399972873E-02
 0.1368357359993E-04 -0.3699539163584E-02  0.0000000000000E+00  0.5345543726178E-02
 0.1094359629714E-03 -0.3640668795270E-02  0.0000000000000E+00  0.5273538849577E-02
 0.2605242665014E-03 -0.3605218936418E-02  0.0000000000000E+00  0.5157554043400E-02
 0.4748766512537E-03 -0.3599412675941E-02  0.0000000000000E+00  0.4995139266048E-02
 0.7596049142163E-03 -0.3629270707065E-02  0.0000000000000E+00  0.4785849487279E-02
 0.1120437166088E-02 -0.3700219084603E-02  0.0000000000000E+00  0.4531893974896E-02
 0.1561096502748E-02 -0.3816608740318E-02  0.0000000000000E+00  0.4238691723120E-02
 0.2082778614290E-02 -0.3981219508351E-02  0.0000000000000E+00  0.3915208230752E-02
 0.2683532181707E-02 -0.4194717741231E-02  0.0000000000000E+00  0.3574042438937E-02
 0.3357489356733E-02 -0.4455054813855E-02  0.0000000000000E+00  0.3231057852087E-02
 0.4094328524147E-02 -0.4756995352246E-02  0.0000000000000E+00  0.2904302441648E-02
 0.4879081694222E-02 -0.5091899832643E-02  0.0000000000000E+00  0.2612259140430E-02
 0.5692427497560E-02 -0.5447894830720E-02  0.0000000000000E+00  0.2371585149833E-02
 0.6511594212176E-02 -0.5810536959620E-02  0.0000000000000E+00  0.2194681457701E-02
 0.7311830687402E-02 -0.6163957386933E-02  0.0000000000000E+00  0.2087614625886E-02
 0.8068305141728E-02 -0.6492361030674E-02  0.0000000000000E+00  0.2048934377083E-02
 0.8758019849442E-02 -0.6781563509529E-02  0.0000000000000E+00  0.2069740654447E-02
 0.5970017969251E-04 -0.4305723041316E-02  0.0000000000000E+00  0.1877711003594E-02
 0.1724911784602E-03 -0.4378293423267E-02  0.0000000000000E+00  0.2166685546783E-02
 0.2729753068017E-03 -0.4445204064865E-02  0.0000000000000E+00  0.2448884296062E-02
 0.3605476490545E-03 -0.4505838781871E-02  0.0000000000000E+00  0.2717396567108E-02
 0.4349007978659E-03 -0.4559721896718E-02  0.0000000000000E+00  0.2967811167668E-02
 0.4958594311357E-03 -0.4606387508223E-02  0.0000000000000E+00  0.3197991145977E-02
 0.5432846921891E-03 -0.4645307271895E-02  0.0000000000000E+00  0.3407685576193E-02
 0.5770445476345E-03 -0.4675871468901E-02  0.0000000000000E+00  0.3598064912463E-02
 0.5970329212843E-03 -0.4697407250827E-02  0.0000000000000E+00  0.3771253252994E-02
 0.6032170787722E-03 -0.4709216006106E-02  0.0000000000000E+00  0.3929902731877E-02
 0.5956975924314E-03 -0.4710616811516E-02  0.0000000000000E+00  0.4076830382225E-02
 0.5747726653203E-03 -0.4700989985873E-02  0.0000000000000E+00  0.4214719268435E-02
 0.5410046371480E-03 -0.4679820562109E-02  0.0000000000000E+00  0.4345879112699E-02
 0.4952902861707E-03 -0.4646744730727E-02  0.0000000000000E+00  0.4472057112599E-02
 0.4389399527637E-03 -0.4601605269295E-02  0.0000000000000E+00  0.4594287672139E-02
 0.3737601298827E-03 -0.4544513954562E-02  0.0000000000000E+00  0.4712792807132E-02
 0.3021433465393E-03 -0.4475924909181E-02  0.0000000000000E+00  0.4826922303258E-02
 0.2271606329818E-03 -0.4396717658929E-02  0.0000000000000E+00  0.4935133239815E-02
 0.1526407941003E-03 -0.4308277689154E-02  0.0000000000000E+00  0.5035028457264E-02
 0.8323004361152E-04 -0.4212549720126E-02  0.0000000000000E+00  0.5123466995844E-02
 0.2441734068084E-04 -0.4112013898710E-02  0.0000000000000E+00  0.5196841509871E-02
-0.1746308770073E-04 -0.4009822739528E-02  0.0000000000000E+00  0.5251237658349E-02
-0.3531185455502E-04 -0.3909983800287E-02  0.0000000000000E+00  0.5282403484535E-02
-0.2141948495576E-04 -0.3817314315147E-02  0.0000000000000E+00  0.5285828017099E-02
 0.3233579101602E-04 -0.3737272592854E-02  0.0000000000000E+00  0.5256993240500E-02
 0.1342534490767E-03 -0.3675771209868E-02  0.0000000000000E+00  0.5191731548308E-02
 0.2925210822279E-03 -0.3638977947050E-02  0.0000000000000E+00  0.5086658108980E-02
 0.5148471494967E-03 -0.3633073669563E-02  0.0000000000000E+00  0.4939669878933E-02
 0.8079934645480E-03 -0.3663936207642E-02  0.0000000000000E+00  0.4750496801755E-02
 0.1177195706152E-02 -0.3736729645106E-02  0.0000000000000E+00  0.4521260488708E-02
 0.1625546551673E-02 -0.3855419007054E-02  0.0000000000000E+00  0.4256930876871E-02
 0.2153500827776E-02 -0.4022290611117E-02  0.0000000000000E+00  0.3965571409011E-02
 0.2758323283341E-02 -0.4237455859992E-02  0.0000000000000E+00  0.3658350544345E-02
 0.3433429785999E-02 -0.4498329656854E-02  0.0000000000000E+00  0.3349145703145E-02
 0.4167988919297E-02 -0.4799266805063E-02  0.0000000000000E+00  0.3053538732710E-02
 0.4946873965998E-02 -0.5131461723371E-02  0.0000000000000E+00  0.2787267871469E-02
 0.5751069607066E-02 -0.5483214188257E-02  0.0000000000000E+00  0.2564298344738E-02
 0.6558613663379E-02 -0.5840630268053E-02  0.0000000000000E+00  0.2394817186598E-02
 0.7345996904517E-02 -0.6188715479720E-02  0.0000000000000E+00  0.2283584139519E-02
 0.8089879316318E-02 -0.6512733123597E-02  0.0000000000000E+00  0.2229047875292E-02
 0.8768769165682E-02 -0.6799561463059E-02  0.0000000000000E+00  0.2223467138663E-02
 0.5951131666651E-04 -0.4465229925496E-02  0.0000000000000E+00  0.1922755101189E-02
 0.1726966118060E-03 -0.4537627720115E-02  0.0000000000000E+00  0.2209656426703E-02
 0.2747508166254E-03 -0.4604622908676E-02  0.0000000000000E+00  0.2489137379579E-02
 0.3646459920914E-03 -0.4665288388235E-02  0.0000000000000E+00  0.2754402223065E-02
 0.4416722612836E-03 -0.4718861599286E-02  0.0000000000000E+00  0.3001062824839E-02
 0.5053059774389E-03 -0.4764638793898E-02  0.0000000000000E+00  0.3226948044707E-02
 0.5551342333138E-03 -0.4801916168595E-02  0.0000000000000E+00  0.3431750635386E-02
 0.5908316952256E-03 -0.4829973016957E-02  0.0000000000000E+00  0.3616589069502E-02
 0.6121760359575E-03 -0.4848084173933E-02  0.0000000000000E+00  0.3783554446410E-02
 0.6190859551602E-03 -0.4855547806982E-02  0.0000000000000E+00  0.3935289733928E-02
 0.6116699210043E-03 -0.4851718827725E-02  0.0000000000000E+00  0.4074626211871E-02
 0.5902798112898E-03 -0.4836043943950E-02  0.0000000000000E+00  0.4204283437667E-02
 0.5555682957795E-03 -0.4808098819233E-02  0.0000000000000E+00  0.4326630870990E-02
 0.5085515956607E-03 -0.4767630252698E-02  0.0000000000000E+00  0.4443503046838E-02
 0.4506821535623E-03 -0.4714609070648E-02  0.0000000000000E+00  0.4556057020548E-02
 0.3839249230571E-03 -0.4649289966743E-02  0.0000000000000E+00  0.4664681214797E-02
 0.3108407520211E-03 -0.4572282468498E-02  0.0000000000000E+00  0.4768943722685E-02
 0.2346718817266E-03 -0.4484631474643E-02  0.0000000000000E+00  0.4867577884522E-02
 0.1594138552867E-03 -0.4387894150139E-02  0.0000000000000E+00  0.4958522015619E-02
 0.8986767182773E-04 -0.4284190761650E-02  0.0000000000000E+00  0.5039026245519E-02
 0.3165771366442E-04 -0.4176180887966E-02  0.0000000000000E+00  0.5105916162987E-02
-0.8768637314582E-05 -0.4067188703297E-02  0.0000000000000E+00  0.5155732926828E-02
-0.2422119463791E-04 -0.3961370758638E-02  0.0000000000000E+00  0.5184697783710E-02
-0.6927374030130E-05 -0.3863669413443E-02  0.0000000000000E+00  0.5188788786400E-02
 0.5125816588830E-04 -0.3779643440432E-02  0.0000000000000E+00  0.5163979814915E-02
 0.1586023520589E-03 -0.3715272742851E-02  0.0000000000000E+00  0.5106571537255E-02
 0.3231843382300E-03 -0.3676743494308E-02  0.0000000000000E+00  0.5013582642732E-02
 0.5525076983911E-03 -0.3670185911798E-02  0.0000000000000E+00  0.4883191833082E-02
 0.8530156291647E-03 -0.3701338183022E-02  0.0000000000000E+00  0.4715215892058E-02
 0.1229503807821E-02 -0.3775121902112E-02  0.0000000000000E+00  0.4511582468908E-02
 0.1684511114091E-02 -0.3895155345162E-02  0.0000000000000E+00  0.4276699710001E-02
 0.2217852650590E-02 -0.4063290978047E-02  0.0000000000000E+00  0.4017628834838E-02
 0.2826129691310E-02 -0.4279163042676E-02  0.0000000000000E+00  0.3744046313356E-02
 0.3502168191242E-02 -0.4539737507965E-02  0.0000000000000E+00  0.3467850835229E-02
 0.4234737221151E-02 -0.4839040149391E-02  0.0000000000000E+00  0.3202258617847E-02
 0.5008617210800E-02 -0.5168151023265E-02  0.0000000000000E+00  0.2960464019579E-02
 0.5805091617202E-02 -0.5515542249042E-02  0.0000000000000E+00  0.2754020992775E-02
 0.6602908407601E-02 -0.5867799612958E-02  0.0000000000000E+00  0.2591210278628E-02
 0.7379612078118E-02 -0.6210665772764E-02  0.0000000000000E+00  0.2475743333554E-02
 0.8113110484410E-02 -0.6530283378342E-02  0.0000000000000E+00  0.2406110180659E-02
 0.8783168190566E-02 -0.6814411602993E-02  0.0000000000000E+00  0.2375740996137E-02
 0.5939787435383E-04 -0.4624062864364E-02  0.0000000000000E+00  0.1967470730948E-02
 0.1731124082210E-03 -0.4696386589142E-02  0.0000000000000E+00  0.2252344857249E-02
 0.2768505867911E-03 -0.4763566483278E-02  0.0000000000000E+00  0.2528954062764E-02
 0.3691773840602E-03 -0.4824376289643E-02  0.0000000000000E+00  0.2790625987352E-02
 0.4489915690184E-03 -0.4877774445190E-02  0.0000000000000E+00  0.3033022853424E-02
 0.5154267766026E-03 -0.4922823037532E-02  0.0000000000000E+00  0.3253978767357E-02
 0.5677970709990E-03 -0.4958643299407E-02  0.0000000000000E+00  0.3453173741267E-02
 0.6055820263333E-03 -0.4984402465668E-02  0.0000000000000E+00  0.3631715473738E-02
 0.6284401635343E-03 -0.4999321854050E-02  0.0000000000000E+00  0.3791697103643E-02
 0.6362386637023E-03 -0.5002695853722E-02  0.0000000000000E+00  0.3935780155809E-02
 0.6290911576587E-03 -0.4993915324629E-02  0.0000000000000E+00  0.4066831291711E-02
 0.6074003429241E-03 -0.4972493615143E-02  0.0000000000000E+00  0.4187622788533E-02
 0.5719055897339E-03 -0.4938096598883E-02  0.0000000000000E+00  0.4300597020434E-02
 0.5237374803317E-03 -0.4890579754694E-02  0.0000000000000E+00  0.4407687516926E-02
 0.4644835327675E-03 -0.4830037824376E-02  0.0000000000000E+00  0.4510185077013E-02
 0.3962580265096E-03 -0.4756861671797E-02  0.0000000000000E+00  0.4608655342742E-02
 0.3217790698520E-03 -0.4671806740056E-02  0.0000000000000E+00  0.4702895061799E-02
 0.2444476147361E-03 -0.4576071181226E-02  0.0000000000000E+00  0.4791923272811E-02
 0.1684126696607E-03 -0.4471369402392E-02  0.0000000000000E+00  0.4874021774962E-02
 0.9861682845677E-04 -0.4359981136086E-02  0.0000000000000E+00  0.4946837260812E-02
 0.4080814854168E-04 -0.4244729807347E-02  0.0000000000000E+00  0.5007627788921E-02
 0.1537008717412E-05 -0.4129096925424E-02  0.0000000000000E+00  0.5053384409829E-02
-0.1192521521370E-04 -0.4017372956937E-02  0.0000000000000E+00  0.5080795555057E-02
 0.8248331516914E-05 -0.3914608544011E-02  0.0000000000000E+00  0.5086321359357E-02
 0.7022020442615E-04 -0.3826445285075E-02  0.0000000000000E+00  0.5066415067430E-02
 0.1822235886827E-03 -0.3758914215222E-02  0.0000000000000E+00  0.5017821964665E-02
 0.3522365903851E-03 -0.3718208228023E-02  0.0000000000000E+00  0.4937924658854E-02
 0.5875778171139E-03 -0.3710403429183E-02  0.0000000000000E+00  0.4825125056188E-02
 0.8944083535029E-03 -0.3741107118579E-02  0.0000000000000E+00  0.4679249441818E-02
 0.1277140325699E-02 -0.3815023089640E-02  0.0000000000000E+00  0.4501940259723E-02
 0.1737836774880E-02 -0.3935465625917E-02  0.0000000000000E+00  0.4296949690929E-02
 0.2275771132944E-02 -0.4103913520863E-02  0.0000000000000E+00  0.4070256516267E-02
 0.2886992612598E-02 -0.4319597595663E-02  0.0000000000000E+00  0.3830000944091E-02
 0.3563848199117E-02 -0.4579113070410E-02  0.0000000000000E+00  0.3586118682828E-02
 0.4294797547795E-02 -0.4876223758679E-02  0.0000000000000E+00  0.3349553784215E-02
 0.5064573275818E-02 -0.5201931934331E-02  0.0000000000000E+00  0.3131130177334E-02
 0.5854735207686E-02 -0.5544869631607E-02  0.0000000000000E+00  0.2940223370012E-02
 0.6644639449235E-02 -0.5892030190007E-02  0.0000000000000E+00  0.2783455049846E-02
 0.7412709259718E-02 -0.6229765934750E-02  0.0000000000000E+00  0.2663691201624E-02
 0.8137880568344E-02 -0.6544938014784E-02  0.0000000000000E+00  0.2579573796833E-02
 0.8800947949973E-02 -0.6826022244991E-02  0.0000000000000E+00  0.2525712522712E-02
 0.5937482299208E-04 -0.4782373850463E-02  0.0000000000000E+00  0.2011928771737E-02
 0.1737844511273E-03 -0.4854739937205E-02  0.0000000000000E+00  0.2294823808784E-02
 0.2793512831309E-03 -0.4922221080093E-02  0.0000000000000E+00  0.2568417608942E-02
 0.3742459084401E-03 -0.4983301490117E-02  0.0000000000000E+00  0.2826167539162E-02
 0.4569844078742E-03 -0.5036667100865E-02  0.0000000000000E+00  0.3063810936161E-02
 0.5263621224974E-03 -0.5081149213000E-02  0.0000000000000E+00  0.3279224461501E-02
 0.5814211558489E-03 -0.5115695234445E-02  0.0000000000000E+00  0.3472117800076E-02
 0.6214450921148E-03 -0.5139360475709E-02  0.0000000000000E+00  0.3643628904564E-02
 0.6459716654239E-03 -0.5151312868189E-02  0.0000000000000E+00  0.3795888429811E-02
 0.6548148240549E-03 -0.5150843582016E-02  0.0000000000000E+00  0.3931604725542E-02
 0.6480915902117E-03 -0.5137380247229E-02  0.0000000000000E+00  0.4053701186407E-02
 0.6262532133105E-03 -0.5110503347717E-02  0.0000000000000E+00  0.4165018666768E-02
 0.5901223643148E-03 -0.5069968368188E-02  0.0000000000000E+00  0.4268084599565E-02
 0.5409388669345E-03 -0.5015737042110E-02  0.0000000000000E+00  0.4364941529017E-02
 0.4804181043705E-03 -0.4948023209739E-02  0.0000000000000E+00  0.4457022992696E-02
 0.4108143345835E-03 -0.4867346413558E-02  0.0000000000000E+00  0.4545080292815E-02
 0.3349917132797E-03 -0.4774597819833E-02  0.0000000000000E+00  0.4629146718468E-02
 0.2564973546973E-03 -0.4671116123167E-02  0.0000000000000E+00  0.4708534045327E-02
 0.1796205368968E-03 -0.4558758099394E-02  0.0000000000000E+00  0.4781873323080E-02
 0.1094324698583E-03 -0.4439946622572E-02  0.0000000000000E+00  0.4847211275807E-02
 0.5179345747880E-04 -0.4317653329816E-02  0.0000000000000E+00  0.4902236387337E-02
 0.1334714916257E-04 -0.4195502854859E-02  0.0000000000000E+00  0.4944382759219E-02
 0.1437207316601E-05 -0.4077904851238E-02  0.0000000000000E+00  0.4970798845554E-02
 0.2393716548516E-04 -0.3970002219448E-02  0.0000000000000E+00  0.4978419090350E-02
 0.8902245095110E-04 -0.3877503292360E-02  0.0000000000000E+00  0.4964163681519E-02
 0.2048942153591E-03 -0.3806476505107E-02  0.0000000000000E+00  0.4925200698456E-02
 0.3794406445993E-03 -0.3763113232180E-02  0.0000000000000E+00  0.4859241429134E-02
 0.6198195667924E-03 -0.3753436255633E-02  0.0000000000000E+00  0.4764860041295E-02
 0.9319506201727E-03 -0.3782935358660E-02  0.0000000000000E+00  0.4641826218747E-02
 0.1319921858784E-02 -0.3856125391320E-02  0.0000000000000E+00  0.4491420619249E-02
 0.1785399028338E-02 -0.3976062022629E-02  0.0000000000000E+00  0.4316662223496E-02
 0.2327208702495E-02 -0.4143910436485E-02  0.0000000000000E+00  0.4122384072074E-02
 0.2940951284532E-02 -0.4358567820304E-02  0.0000000000000E+00  0.3915158823112E-02
 0.3618592571203E-02 -0.4616328649387E-02  0.0000000000000E+00  0.3702978721659E-02
 0.4348356384240E-02 -0.4910750464824E-02  0.0000000000000E+00  0.3494598561779E-02
 0.5114956292173E-02 -0.5232782444661E-02  0.0000000000000E+00  0.3298617366658E-02
 0.5900195099309E-02 -0.5571195708616E-02  0.0000000000000E+00  0.3122421161131E-02
 0.6683934205432E-02 -0.5913318104746E-02  0.0000000000000E+00  0.2971167965093E-02
 0.7445311656480E-02 -0.6245992363749E-02  0.0000000000000E+00  0.2847035087835E-02
 0.8164090506472E-02 -0.6556651518429E-02  0.0000000000000E+00  0.2748899980007E-02
 0.8821888499390E-02 -0.6834338205233E-02  0.0000000000000E+00  0.2672553567982E-02
 0.5945640925655E-04 -0.4940310375596E-02  0.0000000000000E+00  0.2056210218775E-02
 0.1747565367383E-03 -0.5012852331299E-02  0.0000000000000E+00  0.2337175736653E-02
 0.2823263747572E-03 -0.5080766982322E-02  0.0000000000000E+00  0.2607618719388E-02
 0.3799516921760E-03 -0.5142256533919E-02  0.0000000000000E+00  0.2861130858587E-02
 0.4657720733827E-03 -0.5195739484867E-02  0.0000000000000E+00  0.3093547498307E-02
 0.5382476815688E-03 -0.5239819292754E-02  0.0000000000000E+00  0.3302823744888E-02
 0.5961496169894E-03 -0.5273271185295E-02  0.0000000000000E+00  0.3488740705811E-02
 0.6385653564200E-03 -0.5295039802549E-02  0.0000000000000E+00  0.3652507635508E-02
 0.6649114444698E-03 -0.5304241145729E-02  0.0000000000000E+00  0.3796328537684E-02
 0.6749481658973E-03 -0.5300164909000E-02  0.0000000000000E+00  0.3922987128606E-02
 0.6687952244655E-03 -0.5282277138214E-02  0.0000000000000E+00  0.4035484747649E-02
 0.6469508645226E-03 -0.5250226328166E-02  0.0000000000000E+00  0.4136745957555E-02
 0.6103180109269E-03 -0.5203856936014E-02  0.0000000000000E+00  0.4229394062200E-02
 0.5602406777241E-03 -0.5143234157047E-02  0.0000000000000E+00  0.4315588793586E-02
 0.4985547998398E-03 -0.5068685541478E-02  0.0000000000000E+00  0.4396913214039E-02
 0.4276451049144E-03 -0.4980851167678E-02  0.0000000000000E+00  0.4474310334464E-02
 0.3505104527214E-03 -0.4880747104830E-02  0.0000000000000E+00  0.4548055462061E-02
 0.2708315265455E-03 -0.4769839347061E-02  0.0000000000000E+00  0.4617757848707E-02
 0.1930247441809E-03 -0.4650111774777E-02  0.0000000000000E+00  0.4682401453592E-02
 0.1222771434378E-03 -0.4524113865742E-02  0.0000000000000E+00  0.4740434666060E-02
 0.6455013510828E-04 -0.4394949801448E-02  0.0000000000000E+00  0.4789972970059E-02
 0.2657130024303E-04 -0.4266373245092E-02  0.0000000000000E+00  0.4828885685417E-02
 0.1574830593154E-04 -0.4142898631955E-02  0.0000000000000E+00  0.4854773328858E-02
 0.3999484710254E-04 -0.4029745825177E-02  0.0000000000000E+00  0.4865036554859E-02
 0.1074965946544E-03 -0.3932675149715E-02  0.0000000000000E+00  0.4857050855988E-02
 0.2264268170177E-03 -0.3857780826531E-02  0.0000000000000E+00  0.4828387920026E-02
 0.4045980134513E-03 -0.3811247384809E-02  0.0000000000000E+00  0.4777057674600E-02
 0.6490349074317E-03 -0.3799048619622E-02  0.0000000000000E+00  0.4701763884970E-02
 0.9654596592280E-03 -0.3826573940125E-02  0.0000000000000E+00  0.4602165026178E-02
 0.1357697975677E-02 -0.3898181397022E-02  0.0000000000000E+00  0.4479117568540E-02
 0.1827096964569E-02 -0.4016715309896E-02  0.0000000000000E+00  0.4334845494731E-02
 0.2372128065606E-02 -0.4183086862194E-02  0.0000000000000E+00  0.4172987093471E-02
 0.2988039070464E-02 -0.4395925801628E-02  0.0000000000000E+00  0.3998525671814E-02
 0.3666501479093E-02 -0.4651288972085E-02  0.0000000000000E+00  0.3817529691306E-02
 0.4395563676788E-02 -0.4942574166606E-02  0.0000000000000E+00  0.3636634560660E-02
 0.5159936476576E-02 -0.5260693004787E-02  0.0000000000000E+00  0.3462332073666E-02
 0.5941624437832E-02 -0.5594528877768E-02  0.0000000000000E+00  0.3300167505935E-02
 0.6720891593273E-02 -0.5931671114952E-02  0.0000000000000E+00  0.3153985465521E-02
 0.7477435798044E-02 -0.6259340379048E-02  0.0000000000000E+00  0.3025392396910E-02
 0.8191661138701E-02 -0.6565406189261E-02  0.0000000000000E+00  0.2913561274639E-02
 0.8845817673220E-02 -0.6839340065576E-02  0.0000000000000E+00  0.2815459351330E-02
 0.5965626036424E-04 -0.5098015935228E-02  0.0000000000000E+00  0.2100405695067E-02
 0.1760706985361E-03 -0.5170883607832E-02  0.0000000000000E+00  0.2379492156349E-02
 0.2858466611675E-03 -0.5239379130699E-02  0.0000000000000E+00  0.2646655206615E-02
 0.3863915432854E-03 -0.5301428134579E-02  0.0000000000000E+00  0.2895623982211E-02
 0.4754720962679E-03 -0.5355185260111E-02  0.0000000000000E+00  0.3122353476101E-02
 0.5512150041420E-03 -0.5399028533503E-02  0.0000000000000E+00  0.3324912398615E-02
 0.6121211012015E-03 -0.5431563064104E-02  0.0000000000000E+00  0.3503194893661E-02
 0.6570823585940E-03 -0.5451625157694E-02  0.0000000000000E+00  0.3658522833202E-02
 0.6853949692009E-03 -0.5458281695392E-02  0.0000000000000E+00  0.3793209729673E-02
 0.6967664766916E-03 -0.5450823906508E-02  0.0000000000000E+00  0.3910143249218E-02
 0.6913197248802E-03 -0.5428758839658E-02  0.0000000000000E+00  0.4012423412052E-02
 0.6695992251715E-03 -0.5391804384554E-02  0.0000000000000E+00  0.4103072544281E-02
 0.6325855719965E-03 -0.5339893416002E-02  0.0000000000000E+00  0.4184818999843E-02
 0.5817220759226E-03 -0.5273191541115E-02  0.0000000000000E+00  0.4259945808771E-02
 0.5189578695723E-03 -0.5192134154280E-02  0.0000000000000E+00  0.4330190016855E-02
 0.4467985157940E-03 -0.5097473153148E-02  0.0000000000000E+00  0.4396689970923E-02
 0.3683661170001E-03 -0.4990338123306E-02  0.0000000000000E+00  0.4459966104374E-02
 0.2874622817405E-03 -0.4872308631096E-02  0.0000000000000E+00  0.4519927675355E-02
 0.2086174849192E-03 -0.4745480041637E-02  0.0000000000000E+00  0.4575913229139E-02
 0.1371219625605E-03 -0.4612511704435E-02  0.0000000000000E+00  0.4626772775804E-02
 0.7902733827866E-04 -0.4476624646120E-02  0.0000000000000E+00  0.4671044172559E-02
 0.4113611053852E-04 -0.4341687564582E-02  0.0000000000000E+00  0.4707023343554E-02
 0.3091217843093E-04 -0.4212305545878E-02  0.0000000000000E+00  0.4732754406782E-02
 0.5630375233345E-04 -0.4093760727057E-02  0.0000000000000E+00  0.4746096228297E-02
 0.1255055021805E-03 -0.3991851796987E-02  0.0000000000000E+00  0.4744869311599E-02
 0.2466689262065E-03 -0.3912688886376E-02  0.0000000000000E+00  0.4727033065823E-02
 0.4275475512963E-03 -0.3862446726719E-02  0.0000000000000E+00  0.4690871883446E-02
 0.6750634260088E-03 -0.3847057326480E-02  0.0000000000000E+00  0.4635185258374E-02
 0.9947877551151E-03 -0.3871829861061E-02  0.0000000000000E+00  0.4559477485518E-02
 0.1390347263984E-02 -0.3941000269949E-02  0.0000000000000E+00  0.4464132138661E-02
 0.1862848956078E-02 -0.4057250143171E-02  0.0000000000000E+00  0.4350530526384E-02
 0.2410498161573E-02 -0.4221295713551E-02  0.0000000000000E+00  0.4221079281632E-02
 0.3028280464998E-02 -0.4431562443100E-02  0.0000000000000E+00  0.4079157254476E-02
 0.3707651304870E-02 -0.4683927118234E-02  0.0000000000000E+00  0.3928926221751E-02
 0.4436533850524E-02 -0.4971667195957E-02  0.0000000000000E+00  0.3774957350272E-02
 0.5199643172106E-02 -0.5285665456990E-02  0.0000000000000E+00  0.3621725449738E-02
 0.5979138922515E-02 -0.5614886617129E-02  0.0000000000000E+00  0.3473046650398E-02
 0.6755585842325E-02 -0.5947108972802E-02  0.0000000000000E+00  0.3331562432310E-02
 0.7509093867151E-02 -0.6269824149759E-02  0.0000000000000E+00  0.3198392332037E-02
 0.8220533641201E-02 -0.6571211543740E-02  0.0000000000000E+00  0.3073044200191E-02
 0.8872609636113E-02 -0.6841043240159E-02  0.0000000000000E+00  0.2953650480745E-02
 0.5998748322104E-04 -0.5255630537417E-02  0.0000000000000E+00  0.2144615037238E-02
 0.1777675225597E-03 -0.5328989486068E-02  0.0000000000000E+00  0.2421873268564E-02
 0.2899807903410E-03 -0.5398227798140E-02  0.0000000000000E+00  0.2685631659841E-02
 0.3936595878418E-03 -0.5460997823654E-02  0.0000000000000E+00  0.2929758676973E-02
 0.4861988811140E-03 -0.5515192358814E-02  0.0000000000000E+00  0.3150349941461E-02
 0.5653920588573E-03 -0.5558965803930E-02  0.0000000000000E+00  0.3345622886186E-02
 0.6294701390777E-03 -0.5590755586399E-02  0.0000000000000E+00  0.3515626726289E-02
 0.6771308985222E-03 -0.5609293107011E-02  0.0000000000000E+00  0.3661837826984E-02
 0.7075523082609E-03 -0.5613600356012E-02  0.0000000000000E+00  0.3786715706848E-02
 0.7203915429323E-03 -0.5602974480729E-02  0.0000000000000E+00  0.3893280401349E-02
 0.7157763298117E-03 -0.5576967181535E-02  0.0000000000000E+00  0.3984750548397E-02
 0.6942976628093E-03 -0.5535367755629E-02  0.0000000000000E+00  0.4064258867224E-02
 0.6570117808930E-03 -0.5478197132861E-02  0.0000000000000E+00  0.4134646002485E-02
 0.6054566264743E-03 -0.5405718117434E-02  0.0000000000000E+00  0.4198322107354E-02
 0.5416871802958E-03 -0.5318467680880E-02  0.0000000000000E+00  0.4257180216456E-02
 0.4683201007475E-03 -0.5217300310788E-02  0.0000000000000E+00  0.4312555182349E-02
 0.3885891539029E-03 -0.5103447204827E-02  0.0000000000000E+00  0.4365213338756E-02
 0.3064041651875E-03 -0.4978587327584E-02  0.0000000000000E+00  0.4415364354420E-02
 0.2263966054949E-03 -0.4844911579680E-02  0.0000000000000E+00  0.4462701170555E-02
 0.1539473987709E-03 -0.4705172266427E-02  0.0000000000000E+00  0.4506473835876E-02
 0.9518767905764E-04 -0.4562691520319E-02  0.0000000000000E+00  0.4545636907493E-02
 0.5698609570784E-04 -0.4421439150624E-02  0.0000000000000E+00  0.4578903694833E-02
 0.4685538502497E-04 -0.4286096968787E-02  0.0000000000000E+00  0.4604753195637E-02
 0.7277327163391E-04 -0.4161995156857E-02  0.0000000000000E+00  0.4621494931144E-02
 0.1429432096470E-03 -0.4054957989965E-02  0.0000000000000E+00  0.4627385915941E-02
 0.2655025093324E-03 -0.3971102965776E-02  0.0000000000000E+00  0.4620761215679E-02
 0.4481643019367E-03 -0.3916593889942E-02  0.0000000000000E+00  0.4600161899313E-02
 0.6977804563416E-03 -0.3897330382108E-02  0.0000000000000E+00  0.4564458502666E-02
 0.1019819642481E-02 -0.3918563811928E-02  0.0000000000000E+00  0.4512969879375E-02
 0.1417774151364E-02 -0.3984444614370E-02  0.0000000000000E+00  0.4445571257376E-02
 0.1892589235440E-02 -0.4097541254840E-02  0.0000000000000E+00  0.4362766637287E-02
 0.2442291004623E-02 -0.4258433578563E-02  0.0000000000000E+00  0.4265704470764E-02
 0.3061688807970E-02 -0.4465403565216E-02  0.0000000000000E+00  0.4156148594875E-02
 0.3742093774867E-02 -0.4714201351523E-02  0.0000000000000E+00  0.4036366601394E-02
 0.4471346631224E-02 -0.4998018257098E-02  0.0000000000000E+00  0.3908904713109E-02
 0.5234167144780E-02 -0.5307712122399E-02  0.0000000000000E+00  0.3776284106847E-02
 0.6012819833202E-02 -0.5632295352011E-02  0.0000000000000E+00  0.3640668733666E-02
 0.6788069218037E-02 -0.5959663455759E-02  0.0000000000000E+00  0.3503571106819E-02
 0.7540295260606E-02 -0.6277476395929E-02  0.0000000000000E+00  0.3365677673993E-02
 0.8250669558471E-02 -0.6574103567524E-02  0.0000000000000E+00  0.3226851984150E-02
 0.8902183161317E-02 -0.6839496840030E-02  0.0000000000000E+00  0.3086375070157E-02
 0.6046276432804E-04 -0.5413291226827E-02  0.0000000000000E+00  0.2188946946547E-02
 0.1798864636919E-03 -0.5487322195665E-02  0.0000000000000E+00  0.2464427630117E-02
 0.2947957821382E-03 -0.5557479280765E-02  0.0000000000000E+00  0.2724659100931E-02
 0.4018479199675E-03 -0.5621142620360E-02  0.0000000000000E+00  0.2963650032248E-02
 0.4980643658999E-03 -0.5675943531995E-02  0.0000000000000E+00  0.3177657581200E-02
 0.5809037916273E-03 -0.5719813936287E-02  0.0000000000000E+00  0.3365083692402E-02
 0.6483275324719E-03 -0.5751026390790E-02  0.0000000000000E+00  0.3526175701832E-02
 0.6988412328505E-03 -0.5768211973062E-02  0.0000000000000E+00  0.3662607234096E-02
 0.7315081609227E-03 -0.5770353534486E-02  0.0000000000000E+00  0.3777020687978E-02
 0.7459390698276E-03 -0.5756760020235E-02  0.0000000000000E+00  0.3872596532160E-02
 0.7422697267597E-03 -0.5727032618920E-02  0.0000000000000E+00  0.3952690837591E-02
 0.7211388780578E-03 -0.5681034788351E-02  0.0000000000000E+00  0.4020557566600E-02
 0.6836770256822E-03 -0.5618875435945E-02  0.0000000000000E+00  0.4079154643429E-02
 0.6315123631255E-03 -0.5540911257566E-02  0.0000000000000E+00  0.4131020654506E-02
 0.5667984016852E-03 -0.5447774191560E-02  0.0000000000000E+00  0.4178204042980E-02
 0.4922530557077E-03 -0.5340411618703E-02  0.0000000000000E+00  0.4222234837945E-02
 0.4112100474178E-03 -0.5220143962557E-02  0.0000000000000E+00  0.4264123743305E-02
 0.3276746240850E-03 -0.5088734993546E-02  0.0000000000000E+00  0.4304379194672E-02
 0.2463661814482E-03 -0.4948454888161E-02  0.0000000000000E+00  0.4343046578790E-02
 0.1727438952732E-03 -0.4802131810705E-02  0.0000000000000E+00  0.4379772987008E-02
 0.1130078382569E-03 -0.4653173204017E-02  0.0000000000000E+00  0.4413923085197E-02
 0.7408420452137E-04 -0.4505636098217E-02  0.0000000000000E+00  0.4444617881559E-02
 0.6352740467236E-04 -0.4364265227196E-02  0.0000000000000E+00  0.4470762453464E-02
 0.8934007633543E-04 -0.4234424882287E-02  0.0000000000000E+00  0.4491110118965E-02
 0.1597349012949E-03 -0.4121952712259E-02  0.0000000000000E+00  0.4504348033153E-02
 0.2828435497589E-03 -0.4032965948873E-02  0.0000000000000E+00  0.4509179067525E-02
 0.4663585856317E-03 -0.3973617612284E-02  0.0000000000000E+00  0.4504389954916E-02
 0.7170956055230E-03 -0.3949785880102E-02  0.0000000000000E+00  0.4488907054979E-02
 0.1040470481652E-02 -0.3966688374915E-02  0.0000000000000E+00  0.4461844277793E-02
 0.1439906452650E-02 -0.4028428019626E-02  0.0000000000000E+00  0.4422545984357E-02
 0.1916265274089E-02 -0.4137510500132E-02  0.0000000000000E+00  0.4370616467053E-02
 0.2467479281960E-02 -0.4294437554508E-02  0.0000000000000E+00  0.4305928575133E-02
 0.3088264552346E-02 -0.4497406915985E-02  0.0000000000000E+00  0.4228623578381E-02
 0.3769855285505E-02 -0.4742092687417E-02  0.0000000000000E+00  0.4139081377398E-02
 0.4500047592399E-02 -0.5021630803169E-02  0.0000000000000E+00  0.4037846004417E-02
 0.5263562155900E-02 -0.5326854982366E-02  0.0000000000000E+00  0.3925521979604E-02
 0.6042716064626E-02 -0.5646790151845E-02  0.0000000000000E+00  0.3802665280905E-02
 0.6818373773366E-02 -0.5969378137931E-02  0.0000000000000E+00  0.3669700238327E-02
 0.7571047441968E-02 -0.6282347885802E-02  0.0000000000000E+00  0.3526906489669E-02
 0.8282050419373E-02 -0.6574143820896E-02  0.0000000000000E+00  0.3374507195616E-02
 0.8934499847221E-02 -0.6834782380791E-02  0.0000000000000E+00  0.3212910628349E-02
 0.6109447209854E-04 -0.5571132635708E-02  0.0000000000000E+00  0.2233518708890E-02
 0.1824661711571E-03 -0.5646031135871E-02  0.0000000000000E+00  0.2507271874885E-02
 0.3003575695367E-03 -0.5717296625662E-02  0.0000000000000E+00  0.2763854636875E-02
 0.4110472778163E-03 -0.5782035741830E-02  0.0000000000000E+00  0.2997415975998E-02
 0.5111787117360E-03 -0.5837616939643E-02  0.0000000000000E+00  0.3204396034144E-02
 0.5978727124699E-03 -0.5881750113122E-02  0.0000000000000E+00  0.3383418481379E-02
 0.6688207605916E-03 -0.5912546182871E-02  0.0000000000000E+00  0.3534973478655E-02
 0.7223392753909E-03 -0.5928541746975E-02  0.0000000000000E+00  0.3660975932063E-02
 0.7573818746643E-03 -0.5928687936917E-02  0.0000000000000E+00  0.3764288427663E-02
 0.7735185704121E-03 -0.5912313020601E-02  0.0000000000000E+00  0.3848279384832E-02
 0.7708978800849E-03 -0.5879073829355E-02  0.0000000000000E+00  0.3916459669793E-02
 0.7502087351482E-03 -0.5828911578806E-02  0.0000000000000E+00  0.3972213191080E-02
 0.7126552338710E-03 -0.5762023438400E-02  0.0000000000000E+00  0.4018617565074E-02
 0.6599517613949E-03 -0.5678856654664E-02  0.0000000000000E+00  0.4058338368475E-02
 0.5943430839085E-03 -0.5580131218806E-02  0.0000000000000E+00  0.4093576149192E-02
 0.5186384223080E-03 -0.5466877270455E-02  0.0000000000000E+00  0.4126052239528E-02
 0.4362595966530E-03 -0.5340491615015E-02  0.0000000000000E+00  0.4157017906152E-02
 0.3512943650145E-03 -0.5202807837715E-02  0.0000000000000E+00  0.4187276733654E-02
 0.2685369308273E-03 -0.5056158833912E-02  0.0000000000000E+00  0.4217222941755E-02
 0.1935123112733E-03 -0.4903431347600E-02  0.0000000000000E+00  0.4246896360771E-02
 0.1324790117049E-03 -0.4748102259454E-02  0.0000000000000E+00  0.4276064357034E-02
 0.9241223204806E-04 -0.4594301918011E-02  0.0000000000000E+00  0.4304245579977E-02
 0.8090097066621E-04 -0.4446824206579E-02  0.0000000000000E+00  0.4330762426568E-02
 0.1059683195956E-03 -0.4311053703223E-02  0.0000000000000E+00  0.4354806017163E-02
 0.1758369061433E-03 -0.4192829481903E-02  0.0000000000000E+00  0.4375489627649E-02
 0.2986417630160E-03 -0.4098261349222E-02  0.0000000000000E+00  0.4391880564156E-02
 0.4820753607376E-03 -0.4033492389200E-02  0.0000000000000E+00  0.4403007257264E-02
 0.7329517157183E-03 -0.4004391198531E-02  0.0000000000000E+00  0.4407846349397E-02
 0.1056684427411E-02 -0.4016166724084E-02  0.0000000000000E+00  0.4405299117448E-02
 0.1456693632774E-02 -0.4072913289278E-02  0.0000000000000E+00  0.4394169264708E-02
 0.1933835922904E-02 -0.4177124729760E-02  0.0000000000000E+00  0.4373150693849E-02
 0.2486034642459E-02 -0.4329282970044E-02  0.0000000000000E+00  0.4340831513664E-02
 0.3107994009596E-02 -0.4527560009720E-02  0.0000000000000E+00  0.4295724879590E-02
 0.3790936361200E-02 -0.4767603108135E-02  0.0000000000000E+00  0.4236322605540E-02
 0.4522648416738E-02 -0.5042521785349E-02  0.0000000000000E+00  0.4161172346635E-02
 0.5287845868993E-02 -0.5343124938761E-02  0.0000000000000E+00  0.4068972980212E-02
 0.6068845280023E-02 -0.5658414290357E-02  0.0000000000000E+00  0.3958685232759E-02
 0.6846512243340E-02 -0.5976307948965E-02  0.0000000000000E+00  0.3829654442635E-02
 0.7601356152341E-02 -0.6284506755110E-02  0.0000000000000E+00  0.3681753841133E-02
 0.8314677010255E-02 -0.6571418413331E-02  0.0000000000000E+00  0.3515554290344E-02
 0.8969562277708E-02 -0.6827012385244E-02  0.0000000000000E+00  0.3332565827975E-02
 0.6189476462747E-04 -0.5729287572901E-02  0.0000000000000E+00  0.2278455985366E-02
 0.1855448319948E-03 -0.5805263579029E-02  0.0000000000000E+00  0.2550530486264E-02
 0.3067315708625E-03 -0.5877840407836E-02  0.0000000000000E+00  0.2803341108679E-02
 0.4213477591275E-03 -0.5943847362619E-02  0.0000000000000E+00  0.3031176711620E-02
 0.5256510324647E-03 -0.6000386783232E-02  0.0000000000000E+00  0.3230683078421E-02
 0.6164195132910E-03 -0.6044946282666E-02  0.0000000000000E+00  0.3400745061968E-02
 0.6910744009380E-03 -0.6075478889581E-02  0.0000000000000E+00  0.3542142702639E-02
 0.7477467926660E-03 -0.6090433991157E-02  0.0000000000000E+00  0.3657077863338E-02
 0.7852874379238E-03 -0.6088740272059E-02  0.0000000000000E+00  0.3748671119187E-02
 0.8032332116559E-03 -0.6069754664791E-02  0.0000000000000E+00  0.3820505607177E-02
 0.8017517998345E-03 -0.6033197250947E-02  0.0000000000000E+00  0.3876262545477E-02
 0.7815860194876E-03 -0.5979091539215E-02  0.0000000000000E+00  0.3919461958181E-02
 0.7440136710934E-03 -0.5907723666884E-02  0.0000000000000E+00  0.3953300651135E-02
 0.6908316127098E-03 -0.5819628090025E-02  0.0000000000000E+00  0.3980566748644E-02
 0.6243686235009E-03 -0.5715605656384E-02  0.0000000000000E+00  0.4003606734341E-02
 0.5475151465142E-03 -0.5596758707083E-02  0.0000000000000E+00  0.4024326779866E-02
 0.4637690571633E-03 -0.5464547140176E-02  0.0000000000000E+00  0.4044212656671E-02
 0.3772875612721E-03 -0.5320858978457E-02  0.0000000000000E+00  0.4064357578537E-02
 0.2929264678885E-03 -0.5168072990637E-02  0.0000000000000E+00  0.4085499414694E-02
 0.2162642016774E-03 -0.5009117034835E-02  0.0000000000000E+00  0.4108065212286E-02
 0.1536071953917E-03 -0.4847521458028E-02  0.0000000000000E+00  0.4132216884436E-02
 0.1119710882215E-03 -0.4687475966343E-02  0.0000000000000E+00  0.4157860346628E-02
 0.9897229627043E-04 -0.4533809752495E-02  0.0000000000000E+00  0.4184726648920E-02
 0.1226497855196E-03 -0.4391913784511E-02  0.0000000000000E+00  0.4212439657346E-02
 0.1912367286226E-03 -0.4267616567117E-02  0.0000000000000E+00  0.4240537207290E-02
 0.3128804609036E-03 -0.4167013351457E-02  0.0000000000000E+00  0.4268452289549E-02
 0.4952938743630E-03 -0.4096238281213E-02  0.0000000000000E+00  0.4295458273376E-02
 0.7453242682422E-03 -0.4061162520634E-02  0.0000000000000E+00  0.4320586365279E-02
 0.1068433784141E-02 -0.4067011830161E-02  0.0000000000000E+00  0.4342529411618E-02
 0.1468105758588E-02 -0.4117911341701E-02  0.0000000000000E+00  0.4359553355100E-02
 0.1945270264630E-02 -0.4216394452524E-02  0.0000000000000E+00  0.4369442539776E-02
 0.2497926606248E-02 -0.4362981932049E-02  0.0000000000000E+00  0.4369499107048E-02
 0.3120848495145E-02 -0.4555878716878E-02  0.0000000000000E+00  0.4356604086058E-02
 0.3805311179938E-02 -0.4790754346849E-02  0.0000000000000E+00  0.4327353497336E-02
 0.4539126843409E-02 -0.5060720716934E-02  0.0000000000000E+00  0.4278287324561E-02
 0.5307000110324E-02 -0.5356561131575E-02  0.0000000000000E+00  0.4206184108581E-02
 0.6091194238502E-02 -0.5667218679894E-02  0.0000000000000E+00  0.4108391253406E-02
 0.6872478138448E-02 -0.5980518541184E-02  0.0000000000000E+00  0.3983153628382E-02
 0.7631225018787E-02 -0.6284037660436E-02  0.0000000000000E+00  0.3829913415479E-02
 0.8348568330184E-02 -0.6566036864045E-02  0.0000000000000E+00  0.3649562004342E-02
 0.9007412179968E-02 -0.6816328892148E-02  0.0000000000000E+00  0.3444682036698E-02
 0.6287570592927E-04 -0.5887887662858E-02  0.0000000000000E+00  0.2323892676915E-02
 0.1891605416202E-03 -0.5965165433342E-02  0.0000000000000E+00  0.2594335623965E-02
 0.3139833069387E-03 -0.6039269572078E-02  0.0000000000000E+00  0.2843246735703E-02
 0.4328395909703E-03 -0.6106745436363E-02  0.0000000000000E+00  0.3065054068679E-02
 0.5415901748765E-03 -0.6164423987324E-02  0.0000000000000E+00  0.3256633656236E-02
 0.6366637206195E-03 -0.6209569602007E-02  0.0000000000000E+00  0.3417174143986E-02
 0.7152105620457E-03 -0.6239981816492E-02  0.0000000000000E+00  0.3547795619311E-02
 0.7751815862424E-03 -0.6254031721219E-02  0.0000000000000E+00  0.3651034655689E-02
 0.8153334370134E-03 -0.6250636914139E-02  0.0000000000000E+00  0.3730308167598E-02
 0.8351796063125E-03 -0.6229194347403E-02  0.0000000000000E+00  0.3789439793173E-02
 0.8349152418542E-03 -0.6189496551743E-02  0.0000000000000E+00  0.3832294467870E-02
 0.8153421147179E-03 -0.6131654884433E-02  0.0000000000000E+00  0.3862531552967E-02
 0.7778126487070E-03 -0.6056045618066E-02  0.0000000000000E+00  0.3883463269796E-02
 0.7242027970402E-03 -0.5963287091742E-02  0.0000000000000E+00  0.3897992593132E-02
 0.6569181169446E-03 -0.5854253533626E-02  0.0000000000000E+00  0.3908602764051E-02
 0.5789200136423E-03 -0.5730108505541E-02  0.0000000000000E+00  0.3917375693947E-02
 0.4937701470320E-03 -0.5592361265942E-02  0.0000000000000E+00  0.3926023379659E-02
 0.4056819137480E-03 -0.5442938517855E-02  0.0000000000000E+00  0.3935921315628E-02
 0.3195594012105E-03 -0.5284247775728E-02  0.0000000000000E+00  0.3948144352602E-02
 0.2410219369247E-03 -0.5119240356663E-02  0.0000000000000E+00  0.3963500087319E-02
 0.1764133151413E-03 -0.4951483983601E-02  0.0000000000000E+00  0.3982536123850E-02
 0.1327809286336E-03 -0.4785213656914E-02  0.0000000000000E+00  0.4005534960525E-02
 0.1177611988207E-03 -0.4625279875821E-02  0.0000000000000E+00  0.4032627714100E-02
 0.1394039966826E-03 -0.4477065838518E-02  0.0000000000000E+00  0.4063866858221E-02
 0.2059531251181E-03 -0.4346377126452E-02  0.0000000000000E+00  0.4099215677538E-02
 0.3255765772866E-03 -0.4239286884893E-02  0.0000000000000E+00  0.4138478738191E-02
 0.5060276138230E-03 -0.4161920893565E-02  0.0000000000000E+00  0.4181184850702E-02
 0.7542212376762E-03 -0.4120164693354E-02  0.0000000000000E+00  0.4226433979376E-02
 0.1075718747221E-02 -0.4119286177245E-02  0.0000000000000E+00  0.4272726751416E-02
 0.1474133127915E-02 -0.4163480778438E-02  0.0000000000000E+00  0.4317807058994E-02
 0.1950547153053E-02 -0.4255373269939E-02  0.0000000000000E+00  0.4358562142026E-02
 0.2503122058851E-02 -0.4395582664820E-02  0.0000000000000E+00  0.4391014934849E-02
 0.3126783834128E-02 -0.4582406563082E-02  0.0000000000000E+00  0.4410411896513E-02
 0.3812927136198E-02 -0.4811587200175E-02  0.0000000000000E+00  0.4411438242050E-02
 0.4549426293753E-02 -0.5076269025343E-02  0.0000000000000E+00  0.4388597900349E-02
 0.5320970503973E-02 -0.5367210308812E-02  0.0000000000000E+00  0.4336708746066E-02
 0.6109718336124E-02 -0.5673261193053E-02  0.0000000000000E+00  0.4251456119744E-02
 0.6896245077309E-02 -0.5982085482541E-02  0.0000000000000E+00  0.4129932388688E-02
 0.7660654590664E-02 -0.6281040781115E-02  0.0000000000000E+00  0.3971099037060E-02
 0.8383760259867E-02 -0.6558130863737E-02  0.0000000000000E+00  0.3776125563916E-02
 0.9048128620420E-02 -0.6802901901714E-02  0.0000000000000E+00  0.3548634567372E-02
 0.6404939368811E-04 -0.6047064047646E-02  0.0000000000000E+00  0.2369970869116E-02
 0.1933517112693E-03 -0.6125882080956E-02  0.0000000000000E+00  0.2638827009042E-02
 0.3221790782051E-03 -0.6201742356590E-02  0.0000000000000E+00  0.2883704753064E-02
 0.4456139695216E-03 -0.6270896593171E-02  0.0000000000000E+00  0.3099170756474E-02
 0.5591055611342E-03 -0.6329896936950E-02  0.0000000000000E+00  0.3282358717457E-02
 0.6587243875086E-03 -0.6375782906444E-02  0.0000000000000E+00  0.3432807862724E-02
 0.7413493246142E-03 -0.6406205799209E-02  0.0000000000000E+00  0.3552032448857E-02
 0.8047576528645E-03 -0.6419469253913E-02  0.0000000000000E+00  0.3642954039880E-02
 0.8476229655842E-03 -0.6414493510792E-02  0.0000000000000E+00  0.3709324818804E-02
 0.8694475389351E-03 -0.6390729129933E-02  0.0000000000000E+00  0.3755233446207E-02
 0.8704643293933E-03 -0.6348052020310E-02  0.0000000000000E+00  0.3784739316589E-02
 0.8515405920204E-03 -0.6286668031055E-02  0.0000000000000E+00  0.3801640953975E-02
 0.8141051356886E-03 -0.6207045217924E-02  0.0000000000000E+00  0.3809358574617E-02
 0.7601099517880E-03 -0.6109882483936E-02  0.0000000000000E+00  0.3810898790220E-02
 0.6920301016849E-03 -0.5996119665368E-02  0.0000000000000E+00  0.3808869268186E-02
 0.6128874610385E-03 -0.5866970125550E-02  0.0000000000000E+00  0.3805515883285E-02
 0.5262949200853E-03 -0.5723978300226E-02  0.0000000000000E+00  0.3802766391429E-02
 0.4365085684300E-03 -0.5569093436141E-02  0.0000000000000E+00  0.3802269467385E-02
 0.3484672796220E-03 -0.5404734389486E-02  0.0000000000000E+00  0.3805428875104E-02
 0.2678186664164E-03 -0.5233858091463E-02  0.0000000000000E+00  0.3813425008307E-02
 0.2009332042351E-03 -0.5060053417803E-02  0.0000000000000E+00  0.3827181619806E-02
 0.1548811510046E-03 -0.4887586459977E-02  0.0000000000000E+00  0.3847346765556E-02
 0.1373111259307E-03 -0.4721314768242E-02  0.0000000000000E+00  0.3874443041793E-02
 0.1562782840653E-03 -0.4566599163951E-02  0.0000000000000E+00  0.3908948196308E-02
 0.2200362308786E-03 -0.4429209280216E-02  0.0000000000000E+00  0.3951254180294E-02
 0.3367808603031E-03 -0.4315187736280E-02  0.0000000000000E+00  0.4001547562395E-02
 0.5143245633242E-03 -0.4230651535095E-02  0.0000000000000E+00  0.4059630306572E-02
 0.7596833990853E-03 -0.4181511429580E-02  0.0000000000000E+00  0.4124695275953E-02
 0.1078567730805E-02 -0.4173101994664E-02  0.0000000000000E+00  0.4195079253379E-02
 0.1474786571386E-02 -0.4209728119099E-02  0.0000000000000E+00  0.4268032898778E-02
 0.1949655428976E-02 -0.4294158075792E-02  0.0000000000000E+00  0.4339570857111E-02
 0.2501585315163E-02 -0.4427169628566E-02  0.0000000000000E+00  0.4404452129624E-02
 0.3125740211333E-02 -0.4607214720561E-02  0.0000000000000E+00  0.4456288265946E-02
 0.3813704429599E-02 -0.4830161353576E-02  0.0000000000000E+00  0.4487831783627E-02
 0.4553455174236E-02 -0.5089219684199E-02  0.0000000000000E+00  0.4491505278436E-02
 0.5329665492586E-02 -0.5375126251696E-02  0.0000000000000E+00  0.4460099874955E-02
 0.6124340379000E-02 -0.5676605882667E-02  0.0000000000000E+00  0.4387559000529E-02
 0.6917765375925E-02 -0.5981093287921E-02  0.0000000000000E+00  0.4269739252493E-02
 0.7689640818973E-02 -0.6275630681195E-02  0.0000000000000E+00  0.4105046017220E-02
 0.8420303967545E-02 -0.6547852954876E-02  0.0000000000000E+00  0.3894868686919E-02
 0.9091826272568E-02 -0.6786927784132E-02  0.0000000000000E+00  0.3643833608612E-02
 0.6542810208882E-04 -0.6206948166246E-02  0.0000000000000E+00  0.2416840864778E-02
 0.1981575233714E-03 -0.6287559308472E-02  0.0000000000000E+00  0.2684151871503E-02
 0.3313867186940E-03 -0.6365417315757E-02  0.0000000000000E+00  0.2924853037241E-02
 0.4597639874386E-03 -0.6436467125874E-02  0.0000000000000E+00  0.3133649503588E-02
 0.5783081058865E-03 -0.6496972275500E-02  0.0000000000000E+00  0.3307963855632E-02
 0.6827208285667E-03 -0.6543745199813E-02  0.0000000000000E+00  0.3447738041926E-02
 0.7696091864280E-03 -0.6574295335379E-02  0.0000000000000E+00  0.3554939496959E-02
 0.8365853117447E-03 -0.6586872002782E-02  0.0000000000000E+00  0.3632928044100E-02
 0.8822534733822E-03 -0.6580414516671E-02  0.0000000000000E+00  0.3685830631056E-02
 0.9061196131104E-03 -0.6554443109283E-02  0.0000000000000E+00  0.3718023855361E-02
 0.9084670853293E-03 -0.6508929862734E-02  0.0000000000000E+00  0.3733769195878E-02
 0.8902367035282E-03 -0.6444182897525E-02  0.0000000000000E+00  0.3737000279451E-02
 0.8529362693542E-03 -0.6360764175005E-02  0.0000000000000E+00  0.3731233854543E-02
 0.7985910337163E-03 -0.6259449819806E-02  0.0000000000000E+00  0.3719565172935E-02
 0.7297381831686E-03 -0.6141237172366E-02  0.0000000000000E+00  0.3704710704226E-02
 0.6494492683668E-03 -0.6007377510899E-02  0.0000000000000E+00  0.3689065799646E-02
 0.5613755071073E-03 -0.5859435797578E-02  0.0000000000000E+00  0.3674761363827E-02
 0.4698018918269E-03 -0.5699367304021E-02  0.0000000000000E+00  0.3663708483596E-02
 0.3796883871757E-03 -0.5529584554533E-02  0.0000000000000E+00  0.3657630452727E-02
 0.2966981262802E-03 -0.5353032065449E-02  0.0000000000000E+00  0.3658071672953E-02
 0.2272174289150E-03 -0.5173303504583E-02  0.0000000000000E+00  0.3666321807986E-02
 0.1783302562964E-03 -0.4994681685496E-02  0.0000000000000E+00  0.3683383027677E-02
 0.1576890818272E-03 -0.4822016623497E-02  0.0000000000000E+00  0.3710160671273E-02
 0.1733478166674E-03 -0.4660631535380E-02  0.0000000000000E+00  0.3747555022359E-02
 0.2335677341455E-03 -0.4516246106684E-02  0.0000000000000E+00  0.3796392001664E-02
 0.3465782279992E-03 -0.4394862694602E-02  0.0000000000000E+00  0.3857254912705E-02
 0.5202677638100E-03 -0.4302587549369E-02  0.0000000000000E+00  0.3930243630277E-02
 0.7617850880484E-03 -0.4245365848147E-02  0.0000000000000E+00  0.4014677976957E-02
 0.1077038284260E-02 -0.4228622000076E-02  0.0000000000000E+00  0.4108771614226E-02
 0.1470098432229E-02 -0.4256808701702E-02  0.0000000000000E+00  0.4209324355502E-02
 0.1942594820627E-02 -0.4332890022498E-02  0.0000000000000E+00  0.4311515565124E-02
 0.2493278762289E-02 -0.4457864421593E-02  0.0000000000000E+00  0.4408865081876E-02
 0.3117642374411E-02 -0.4630402698387E-02  0.0000000000000E+00  0.4493352365076E-02
 0.3807535687269E-02 -0.4846555727765E-02  0.0000000000000E+00  0.4555769327401E-02
 0.4551085862799E-02 -0.5099637135392E-02  0.0000000000000E+00  0.4586395445389E-02
 0.5332954747096E-02 -0.5380369266624E-02  0.0000000000000E+00  0.4575902958510E-02
 0.6134948587345E-02 -0.5677322111611E-02  0.0000000000000E+00  0.4516381421712E-02
 0.6936967888416E-02 -0.5977634299036E-02  0.0000000000000E+00  0.4402335672636E-02
 0.7718172975801E-02 -0.6267935042929E-02  0.0000000000000E+00  0.4231512282107E-02
 0.8458264061409E-02 -0.6535375149314E-02  0.0000000000000E+00  0.4005445343946E-02
 0.9138653789064E-02 -0.6768627680655E-02  0.0000000000000E+00  0.3729724788507E-02
 0.6702444390795E-04 -0.6367672627712E-02  0.0000000000000E+00  0.2464661313803E-02
 0.2036184476257E-03 -0.6450344350284E-02  0.0000000000000E+00  0.2730464965767E-02
 0.3416764463409E-03 -0.6530454463175E-02  0.0000000000000E+00  0.2966833712657E-02
 0.4753856688287E-03 -0.6603624081494E-02  0.0000000000000E+00  0.3168612060636E-02
 0.5993112219403E-03 -0.6665815770151E-02  0.0000000000000E+00  0.3333547702132E-02
 0.7087734021481E-03 -0.6713612162124E-02  0.0000000000000E+00  0.3462044157885E-02
 0.8001075056185E-03 -0.6744388685059E-02  0.0000000000000E+00  0.3556586969332E-02
 0.8707712873307E-03 -0.6756356204956E-02  0.0000000000000E+00  0.3621030942534E-02
 0.9193165404418E-03 -0.6748492636183E-02  0.0000000000000E+00  0.3659917775512E-02
 0.9452708071100E-03 -0.6720406685844E-02  0.0000000000000E+00  0.3677932877525E-02
 0.9489828650159E-03 -0.6672181396516E-02  0.0000000000000E+00  0.3679543752298E-02
 0.9314767730862E-03 -0.6604236099705E-02  0.0000000000000E+00  0.3668810647566E-02
 0.8943427610367E-03 -0.6517229225239E-02  0.0000000000000E+00  0.3649330923834E-02
 0.8396767723487E-03 -0.6412010698361E-02  0.0000000000000E+00  0.3624269424287E-02
 0.7700705480507E-03 -0.6289626873586E-02  0.0000000000000E+00  0.3596432370886E-02
 0.6886341268833E-03 -0.6151354547651E-02  0.0000000000000E+00  0.3568347370799E-02
 0.5990437271922E-03 -0.5998764065566E-02  0.0000000000000E+00  0.3542333777404E-02
 0.5055991066623E-03 -0.5833799816483E-02  0.0000000000000E+00  0.3520552747513E-02
 0.4132673890883E-03 -0.5658850058938E-02  0.0000000000000E+00  0.3505036496426E-02
 0.3277142922919E-03 -0.5476828695356E-02  0.0000000000000E+00  0.3497683650811E-02
 0.2553309609392E-03 -0.5291317695535E-02  0.0000000000000E+00  0.3500138820725E-02
 0.2032055716191E-03 -0.5106602049866E-02  0.0000000000000E+00  0.3513746310951E-02
 0.1789854487859E-03 -0.4927509261435E-02  0.0000000000000E+00  0.3539785103079E-02
 0.1907155837260E-03 -0.4759308937669E-02  0.0000000000000E+00  0.3579575567842E-02
 0.2466610889996E-03 -0.4607655554459E-02  0.0000000000000E+00  0.3634384621762E-02
 0.3550882787494E-03 -0.4478499717273E-02  0.0000000000000E+00  0.3705210976676E-02
 0.5239761693372E-03 -0.4377932807128E-02  0.0000000000000E+00  0.3792483933940E-02
 0.7606354118023E-03 -0.4311941343189E-02  0.0000000000000E+00  0.3895694150273E-02
 0.1071218603625E-02 -0.4286060651393E-02  0.0000000000000E+00  0.4012985433679E-02
 0.1460124240768E-02 -0.4304928255276E-02  0.0000000000000E+00  0.4140763311121E-02
 0.1929377555958E-02 -0.4371756272163E-02  0.0000000000000E+00  0.4273423048560E-02
 0.2478164116540E-02 -0.4487827494543E-02  0.0000000000000E+00  0.4403281039257E-02
 0.3102400227334E-02 -0.4652099766638E-02  0.0000000000000E+00  0.4520692232018E-02
 0.3794285650578E-02 -0.4860869382270E-02  0.0000000000000E+00  0.4614455361760E-02
 0.4542153395672E-02 -0.5107597532603E-02  0.0000000000000E+00  0.4672629119862E-02
 0.5330666965394E-02 -0.5383005767048E-02  0.0000000000000E+00  0.4683648226461E-02
 0.6141393815655E-02 -0.5675483607355E-02  0.0000000000000E+00  0.4637602724412E-02
 0.6953755077602E-02 -0.5971807422973E-02  0.0000000000000E+00  0.4527494639415E-02
 0.7746230997924E-02 -0.6258093282963E-02  0.0000000000000E+00  0.4350279235333E-02
 0.8497716492284E-02 -0.6520887502295E-02  0.0000000000000E+00  0.4107541268076E-02
 0.9188792312422E-02 -0.6748245929453E-02  0.0000000000000E+00  0.3805789346670E-02
 0.6885155657710E-04 -0.6529372197432E-02  0.0000000000000E+00  0.2513599453180E-02
 0.2097768327336E-03 -0.6614387068540E-02  0.0000000000000E+00  0.2777928660617E-02
 0.3531218322697E-03 -0.6697016559359E-02  0.0000000000000E+00  0.3009792729456E-02
 0.4925791346122E-03 -0.6772536476535E-02  0.0000000000000E+00  0.3204178036515E-02
 0.6222319295743E-03 -0.6836593252144E-02  0.0000000000000E+00  0.3359200034964E-02
 0.7370043430843E-03 -0.6885536669307E-02  0.0000000000000E+00  0.3475790959212E-02
 0.8329609349570E-03 -0.6916617924955E-02  0.0000000000000E+00  0.3557026452934E-02
 0.9074187338084E-03 -0.6928028560651E-02  0.0000000000000E+00  0.3607316934352E-02
 0.9588975614076E-03 -0.6918808157966E-02  0.0000000000000E+00  0.3631659154348E-02
 0.9869679246491E-03 -0.6888675718030E-02  0.0000000000000E+00  0.3635065621212E-02
 0.9920616801076E-03 -0.6837842133405E-02  0.0000000000000E+00  0.3622209459775E-02
 0.9752974785022E-03 -0.6766848038537E-02  0.0000000000000E+00  0.3597264046596E-02
 0.9383521939716E-03 -0.6676451268314E-02  0.0000000000000E+00  0.3563886543991E-02
 0.8833900143514E-03 -0.6567571966998E-02  0.0000000000000E+00  0.3525288021188E-02
 0.8130493646729E-03 -0.6441296553846E-02  0.0000000000000E+00  0.3484341856533E-02
 0.7304670898912E-03 -0.6298914383622E-02  0.0000000000000E+00  0.3443687950315E-02
 0.6393305720427E-03 -0.6141985515850E-02  0.0000000000000E+00  0.3405817383983E-02
 0.5439397906439E-03 -0.5972426153270E-02  0.0000000000000E+00  0.3373127576256E-02
 0.4492548306439E-03 -0.5792582107920E-02  0.0000000000000E+00  0.3347947930041E-02
 0.3609308782511E-03 -0.5605318323850E-02  0.0000000000000E+00  0.3332520560137E-02
 0.2853526949371E-03 -0.5414188477702E-02  0.0000000000000E+00  0.3328833283307E-02
 0.2296028294527E-03 -0.5223465024877E-02  0.0000000000000E+00  0.3338559871436E-02
 0.2013136945533E-03 -0.5037937549630E-02  0.0000000000000E+00  0.3363343204151E-02
 0.2085123168050E-03 -0.4862805135344E-02  0.0000000000000E+00  0.3404921179391E-02
 0.2594617513135E-03 -0.4703640256311E-02  0.0000000000000E+00  0.3465009973346E-02
 0.3624659398827E-03 -0.4566328099395E-02  0.0000000000000E+00  0.3545045816316E-02
 0.5256057858671E-03 -0.4456938340857E-02  0.0000000000000E+00  0.3645825286086E-02
 0.7563799047799E-03 -0.4381502767446E-02  0.0000000000000E+00  0.3767063355989E-02
 0.1061229644431E-02 -0.4345685901964E-02  0.0000000000000E+00  0.3906899973083E-02
 0.1444945107729E-02 -0.4354345155023E-02  0.0000000000000E+00  0.4061417839449E-02
 0.1910030729947E-02 -0.4410992562338E-02  0.0000000000000E+00  0.4224294533772E-02
 0.2456204352276E-02 -0.4517260725530E-02  0.0000000000000E+00  0.4386691595429E-02
 0.3079909875480E-02 -0.4672467175599E-02  0.0000000000000E+00  0.4537354000159E-02
 0.3773790976153E-02 -0.4873223038310E-02  0.0000000000000E+00  0.4663051977605E-02
 0.4526453879084E-02 -0.5113189357536E-02  0.0000000000000E+00  0.4749530837393E-02
 0.5322587052733E-02 -0.5383107978756E-02  0.0000000000000E+00  0.4782842096223E-02
 0.6143485955869E-02 -0.5671167458157E-02  0.0000000000000E+00  0.4750894808526E-02
 0.6967999272248E-02 -0.5963716737818E-02  0.0000000000000E+00  0.4644998799644E-02
 0.7773782220337E-02 -0.6246255060280E-02  0.0000000000000E+00  0.4461152309489E-02
 0.8538746199823E-02 -0.6504596660658E-02  0.0000000000000E+00  0.4200875205631E-02
 0.9242454154287E-02 -0.6726048546302E-02  0.0000000000000E+00  0.3871543899831E-02
 0.7092331792596E-04 -0.6692184919011E-02  0.0000000000000E+00  0.2563831472957E-02
 0.2166775916744E-03 -0.6779841296190E-02  0.0000000000000E+00  0.2826713110873E-02
 0.3658009156981E-03 -0.6865270569988E-02  0.0000000000000E+00  0.3053879398213E-02
 0.5114499242107E-03 -0.6943376653041E-02  0.0000000000000E+00  0.3240463528626E-02
 0.6471920851667E-03 -0.7009471633794E-02  0.0000000000000E+00  0.3384999546796E-02
 0.7675386471124E-03 -0.7059669311082E-02  0.0000000000000E+00  0.3489025686671E-02
 0.8682858357467E-03 -0.7091108931094E-02  0.0000000000000E+00  0.3556288021517E-02
 0.9466271829197E-03 -0.7101985755383E-02  0.0000000000000E+00  0.3591817529474E-02
 0.1001075320445E-02 -0.7091428152577E-02  0.0000000000000E+00  0.3601106329135E-02
 0.1031268924034E-02 -0.7059290539498E-02  0.0000000000000E+00  0.3589509034687E-02
 0.1037743400962E-02 -0.7005930732865E-02  0.0000000000000E+00  0.3561898877705E-02
 0.1021725016927E-02 -0.6932021865903E-02  0.0000000000000E+00  0.3522543219148E-02
 0.9849822079991E-03 -0.6838424384405E-02  0.0000000000000E+00  0.3475132878278E-02
 0.9297449553862E-03 -0.6726124799927E-02  0.0000000000000E+00  0.3422897214339E-02
 0.8586900684431E-03 -0.6596240097179E-02  0.0000000000000E+00  0.3368750517655E-02
 0.7749689027303E-03 -0.6450058599473E-02  0.0000000000000E+00  0.3315422285899E-02
 0.6822655619281E-03 -0.6289113850162E-02  0.0000000000000E+00  0.3265556673264E-02
 0.5848652368142E-03 -0.6115276155878E-02  0.0000000000000E+00  0.3221772210924E-02
 0.4877064865041E-03 -0.5930830473113E-02  0.0000000000000E+00  0.3186682743021E-02
 0.3964206751488E-03 -0.5738574334990E-02  0.0000000000000E+00  0.3162862226144E-02
 0.3173748027670E-03 -0.5542016468441E-02  0.0000000000000E+00  0.3152629109022E-02
 0.2576355913819E-03 -0.5345401949485E-02  0.0000000000000E+00  0.3157973087988E-02
 0.2248099493696E-03 -0.5153466597857E-02  0.0000000000000E+00  0.3180890211984E-02
 0.2268963307440E-03 -0.4971321046115E-02  0.0000000000000E+00  0.3223532739567E-02
 0.2721474130962E-03 -0.4804437207405E-02  0.0000000000000E+00  0.3288074997077E-02
 0.3689022286574E-03 -0.4658618604233E-02  0.0000000000000E+00  0.3376415626766E-02
 0.5253510702856E-03 -0.4539903078756E-02  0.0000000000000E+00  0.3489762086722E-02
 0.7492026171655E-03 -0.4454367892669E-02  0.0000000000000E+00  0.3628116419354E-02
 0.1047227843791E-02 -0.4407821437091E-02  0.0000000000000E+00  0.3789693550532E-02
 0.1424670870940E-02 -0.4405373362469E-02  0.0000000000000E+00  0.3970340527638E-02
 0.1884599490812E-02 -0.4450886619689E-02  0.0000000000000E+00  0.4163100516934E-02
 0.2427366389990E-02 -0.4546410919987E-02  0.0000000000000E+00  0.4358044088856E-02
 0.3050055217116E-02 -0.4691701254952E-02  0.0000000000000E+00  0.4542330594262E-02
 0.3745860229638E-02 -0.4883761309575E-02  0.0000000000000E+00  0.4700666254209E-02
 0.4503742665192E-02 -0.5116514482036E-02  0.0000000000000E+00  0.4816376859542E-02
 0.5308452673375E-02 -0.5380753814652E-02  0.0000000000000E+00  0.4872957412589E-02
 0.6140989471883E-02 -0.5664453072448E-02  0.0000000000000E+00  0.4855915906959E-02
 0.6979538042207E-02 -0.5953469975217E-02  0.0000000000000E+00  0.4754637921170E-02
 0.7800777439284E-02 -0.6232578687311E-02  0.0000000000000E+00  0.4563961127443E-02
 0.8581444470923E-02 -0.6486724403598E-02  0.0000000000000E+00  0.4285199880759E-02
 0.9299881662202E-02 -0.6702321796424E-02  0.0000000000000E+00  0.3926539768135E-02
 0.7325459928623E-04 -0.6856253399769E-02  0.0000000000000E+00  0.2615543024396E-02
 0.2243690028232E-03 -0.6946866380314E-02  0.0000000000000E+00  0.2876996518741E-02
 0.3797974976610E-03 -0.7035389334145E-02  0.0000000000000E+00  0.3099245861721E-02
 0.5321105055330E-03 -0.7116321807300E-02  0.0000000000000E+00  0.3277579496081E-02
 0.6743197487146E-03 -0.7184620019143E-02  0.0000000000000E+00  0.3411011202631E-02
 0.8005050099386E-03 -0.7236158908838E-02  0.0000000000000E+00  0.3501774825236E-02
 0.9061986611084E-03 -0.7267981283167E-02  0.0000000000000E+00  0.3554376915075E-02
 0.9884923992232E-03 -0.7278313858070E-02  0.0000000000000E+00  0.3574538612908E-02
 0.1045921442300E-02 -0.7266405533380E-02  0.0000000000000E+00  0.3568287248525E-02
 0.1078222116932E-02 -0.7232274849173E-02  0.0000000000000E+00  0.3541330395035E-02
 0.1086056835650E-02 -0.7176447846338E-02  0.0000000000000E+00  0.3498729877088E-02
 0.1070774157231E-02 -0.7099742356797E-02  0.0000000000000E+00  0.3444821547722E-02
 0.1034239579053E-02 -0.7003124764827E-02  0.0000000000000E+00  0.3383297956023E-02
 0.9787462699941E-03 -0.6887643689444E-02  0.0000000000000E+00  0.3317374011386E-02
 0.9070005443099E-03 -0.6754436525110E-02  0.0000000000000E+00  0.3249974946159E-02
 0.8221552256166E-03 -0.6604776272336E-02  0.0000000000000E+00  0.3183894457767E-02
 0.7278759873009E-03 -0.6440153123661E-02  0.0000000000000E+00  0.3121909288384E-02
 0.6284176894184E-03 -0.6262373364753E-02  0.0000000000000E+00  0.3066842735104E-02
 0.5286825730907E-03 -0.6073642483490E-02  0.0000000000000E+00  0.3021579456452E-02
 0.4342647409742E-03 -0.5876672092867E-02  0.0000000000000E+00  0.2989012749782E-02
 0.3515019302533E-03 -0.5674909317752E-02  0.0000000000000E+00  0.2971778221373E-02
 0.2874345157000E-03 -0.5472556940075E-02  0.0000000000000E+00  0.2972166862383E-02
 0.2496324446253E-03 -0.5274280754185E-02  0.0000000000000E+00  0.2992515780613E-02
 0.2460532673726E-03 -0.5085083938226E-02  0.0000000000000E+00  0.3035387235344E-02
 0.2849282113558E-03 -0.4910317317388E-02  0.0000000000000E+00  0.3103422482965E-02
 0.3746250963398E-03 -0.4755683554819E-02  0.0000000000000E+00  0.3199009443709E-02
 0.5234465604767E-03 -0.4627174672299E-02  0.0000000000000E+00  0.3323815056382E-02
 0.7393286162578E-03 -0.4530909143304E-02  0.0000000000000E+00  0.3478199947833E-02
 0.1029408451903E-02 -0.4472849401280E-02  0.0000000000000E+00  0.3660545722704E-02
 0.1399444026777E-02 -0.4458386085680E-02  0.0000000000000E+00  0.3866567483401E-02
 0.1853151113268E-02 -0.4491782491833E-02  0.0000000000000E+00  0.4088775992589E-02
 0.2391624643172E-02 -0.4575574341600E-02  0.0000000000000E+00  0.4316232944744E-02
 0.3012710192748E-02 -0.4710037523878E-02  0.0000000000000E+00  0.4534549806845E-02
 0.3710274164887E-02 -0.4892655772987E-02  0.0000000000000E+00  0.4726336498871E-02
 0.4473732335325E-02 -0.5117689782112E-02  0.0000000000000E+00  0.4872381612993E-02
 0.5287950152949E-02 -0.5376026982413E-02  0.0000000000000E+00  0.4953422210267E-02
 0.6133617995897E-02 -0.5655421126316E-02  0.0000000000000E+00  0.4952303174230E-02
 0.6988168609043E-02 -0.5941176886796E-02  0.0000000000000E+00  0.4856205598498E-02
 0.7827146247502E-02 -0.6217229450018E-02  0.0000000000000E+00  0.4658559257753E-02
 0.8625905992136E-02 -0.6467506186263E-02  0.0000000000000E+00  0.4360302687281E-02
 0.9361346344738E-02 -0.6677370872414E-02  0.0000000000000E+00  0.3970361895375E-02
 0.7586156303513E-04 -0.7021726292101E-02  0.0000000000000E+00  0.2668929901138E-02
 0.2329036528264E-03 -0.7115628961740E-02  0.0000000000000E+00  0.2928965496684E-02
 0.3952026509081E-03 -0.7207553474513E-02  0.0000000000000E+00  0.3146046480133E-02
 0.5546820068119E-03 -0.7291555706042E-02  0.0000000000000E+00  0.3315629812754E-02
 0.7037507058284E-03 -0.7362210897493E-02  0.0000000000000E+00  0.3437283103626E-02
 0.8360368142164E-03 -0.7415152998127E-02  0.0000000000000E+00  0.3514040312167E-02
 0.9468162849974E-03 -0.7447348039492E-02  0.0000000000000E+00  0.3551269744447E-02
 0.1033106111937E-02 -0.7457087539543E-02  0.0000000000000E+00  0.3555457171681E-02
 0.1093499690005E-02 -0.7443777929093E-02  0.0000000000000E+00  0.3533203785107E-02
 0.1127865213176E-02 -0.7407634429926E-02  0.0000000000000E+00  0.3490575721934E-02
 0.1137018668579E-02 -0.7349374814958E-02  0.0000000000000E+00  0.3432804861774E-02
 0.1122447167305E-02 -0.7269974654602E-02  0.0000000000000E+00  0.3364262965932E-02
 0.1086119184042E-02 -0.7170509524504E-02  0.0000000000000E+00  0.3288606166822E-02
 0.1030388131008E-02 -0.7052085316824E-02  0.0000000000000E+00  0.3208997180972E-02
 0.9579801978632E-03 -0.6915848904542E-02  0.0000000000000E+00  0.3128338443439E-02
 0.8720357407339E-03 -0.6763042894616E-02  0.0000000000000E+00  0.3049459807740E-02
 0.7761860273279E-03 -0.6595096646656E-02  0.0000000000000E+00  0.2975248415028E-02
 0.6746394460323E-03 -0.6413733876301E-02  0.0000000000000E+00  0.2908714950488E-02
 0.5722468133215E-03 -0.6221061815904E-02  0.0000000000000E+00  0.2853000535312E-02
 0.4745514275724E-03 -0.6019687658873E-02  0.0000000000000E+00  0.2811304524939E-02
 0.3878502182824E-03 -0.5812980369606E-02  0.0000000000000E+00  0.2786565248278E-02
 0.3191464449543E-03 -0.5605085544956E-02  0.0000000000000E+00  0.2781359043774E-02
 0.2759607820869E-03 -0.5400582340602E-02  0.0000000000000E+00  0.2798350138217E-02
 0.2661957031589E-03 -0.5204346379936E-02  0.0000000000000E+00  0.2840504564988E-02
 0.2980468655386E-03 -0.5021584754144E-02  0.0000000000000E+00  0.2910938317388E-02
 0.3799003054935E-03 -0.4857876795540E-02  0.0000000000000E+00  0.3012556456066E-02
 0.5201686896033E-03 -0.4719150322768E-02  0.0000000000000E+00  0.3147538039268E-02
 0.7270268683770E-03 -0.4611555516055E-02  0.0000000000000E+00  0.3316681835388E-02
 0.1008009470360E-02 -0.4541213551691E-02  0.0000000000000E+00  0.3518640525638E-02
 0.1369444488485E-02 -0.4513820135872E-02  0.0000000000000E+00  0.3749118296694E-02
 0.1815780054096E-02 -0.4534085829165E-02  0.0000000000000E+00  0.4000216298019E-02
 0.2348965566567E-02 -0.4605102365664E-02  0.0000000000000E+00  0.4260091054822E-02
 0.2967741856515E-02 -0.4727755949588E-02  0.0000000000000E+00  0.4512861676973E-02
 0.3666786430593E-02 -0.4900109031750E-02  0.0000000000000E+00  0.4739017072993E-02
 0.4436090563137E-02 -0.5116849431636E-02  0.0000000000000E+00  0.4916682245848E-02
 0.5260709708424E-02 -0.5369017400985E-02  0.0000000000000E+00  0.5023606543600E-02
 0.6121027882455E-02 -0.5644152526930E-02  0.0000000000000E+00  0.5039663705676E-02
 0.6993641157224E-02 -0.5926947503835E-02  0.0000000000000E+00  0.4949494944796E-02
 0.7852791515399E-02 -0.6200377850346E-02  0.0000000000000E+00  0.4744823407656E-02
 0.8672225519508E-02 -0.6447189704144E-02  0.0000000000000E+00  0.4426006018064E-02
 0.9427148159486E-02 -0.6651518696980E-02  0.0000000000000E+00  0.4002627289022E-02
 0.7876201769165E-04 -0.7188760010972E-02  0.0000000000000E+00  0.2724198912648E-02
 0.2423395558290E-03 -0.7286305038990E-02  0.0000000000000E+00  0.2982815536738E-02
 0.4121164949781E-03 -0.7381953594478E-02  0.0000000000000E+00  0.3194437086822E-02
 0.5792962130689E-03 -0.7469270615548E-02  0.0000000000000E+00  0.3354708908660E-02
 0.7356301637378E-03 -0.7542421415692E-02  0.0000000000000E+00  0.3463842742975E-02
 0.8742731568442E-03 -0.7596798245041E-02  0.0000000000000E+00  0.3525795100026E-02
 0.9902562505310E-03 -0.7629315337783E-02  0.0000000000000E+00  0.3546910156780E-02
 0.1080555590951E-02 -0.7638369066748E-02  0.0000000000000E+00  0.3534517660446E-02
 0.1143865081043E-02 -0.7623566332878E-02  0.0000000000000E+00  0.3495829086465E-02
 0.1180224192349E-02 -0.7585355673497E-02  0.0000000000000E+00  0.3437268133715E-02
 0.1190632248211E-02 -0.7524672209139E-02  0.0000000000000E+00  0.3364210001491E-02
 0.1176732611818E-02 -0.7442662884559E-02  0.0000000000000E+00  0.3281021903950E-02
 0.1140602849525E-02 -0.7340515393879E-02  0.0000000000000E+00  0.3191278783826E-02
 0.1084653117580E-02 -0.7219387300217E-02  0.0000000000000E+00  0.3098048269883E-02
 0.1011618913901E-02 -0.7080423121163E-02  0.0000000000000E+00  0.3004172490084E-02
 0.9246131422080E-03 -0.6924819142416E-02  0.0000000000000E+00  0.2912486847485E-02
 0.8272157440500E-03 -0.6753925718337E-02  0.0000000000000E+00  0.2825965133354E-02
 0.7235718245730E-03 -0.6569365012984E-02  0.0000000000000E+00  0.2747787199588E-02
 0.6184653512841E-03 -0.6373127077852E-02  0.0000000000000E+00  0.2681335737238E-02
 0.5173752395330E-03 -0.6167696278390E-02  0.0000000000000E+00  0.2630102194996E-02
 0.4265461388252E-03 -0.5956347069363E-02  0.0000000000000E+00  0.2597312181559E-02
 0.3529332978069E-03 -0.5743153124107E-02  0.0000000000000E+00  0.2585809876510E-02
 0.3039950102635E-03 -0.5532590100270E-02  0.0000000000000E+00  0.2598570366312E-02
 0.2875625883845E-03 -0.5329384901374E-02  0.0000000000000E+00  0.2638954611987E-02
 0.3117787022824E-03 -0.5138576025565E-02  0.0000000000000E+00  0.2710559193613E-02
 0.3850322932961E-03 -0.4965593456689E-02  0.0000000000000E+00  0.2816834024291E-02
 0.5158377390819E-03 -0.4816277531568E-02  0.0000000000000E+00  0.2960525776147E-02
 0.7126134710534E-03 -0.4696794613746E-02  0.0000000000000E+00  0.3142957972171E-02
 0.9833162012230E-03 -0.4613422788558E-02  0.0000000000000E+00  0.3363171048375E-02
 0.1334895229804E-02 -0.4572180976505E-02  0.0000000000000E+00  0.3616997256255E-02
 0.1772614116874E-02 -0.4578270178826E-02  0.0000000000000E+00  0.3896273844389E-02
 0.2299393397809E-02 -0.4635408391551E-02  0.0000000000000E+00  0.4188381360296E-02
 0.2915014497583E-02 -0.4745187552264E-02  0.0000000000000E+00  0.4476025155804E-02
 0.3615124913127E-02 -0.4906359991375E-02  0.0000000000000E+00  0.4737561569571E-02
 0.4390437982387E-02 -0.5114148065470E-02  0.0000000000000E+00  0.4948320883035E-02
 0.5226300005867E-02 -0.5359822043796E-02  0.0000000000000E+00  0.5082806903001E-02
 0.6102810614017E-02 -0.5630727440686E-02  0.0000000000000E+00  0.5117563595898E-02
 0.6995650903141E-02 -0.5910890315335E-02  0.0000000000000E+00  0.5034293041657E-02
 0.7877582907762E-02 -0.6182197807460E-02  0.0000000000000E+00  0.4822651929057E-02
 0.8720494056839E-02 -0.6426033503461E-02  0.0000000000000E+00  0.4482167140706E-02
 0.9497615060803E-02 -0.6625104896624E-02  0.0000000000000E+00  0.4022982908208E-02
 0.8197584275535E-04 -0.7357520738744E-02  0.0000000000000E+00  0.2781568991971E-02
 0.2527414903146E-03 -0.7459082381841E-02  0.0000000000000E+00  0.3038751600858E-02
 0.4306502945168E-03 -0.7558792826009E-02  0.0000000000000E+00  0.3244574070542E-02
 0.6060978761059E-03 -0.7649669485215E-02  0.0000000000000E+00  0.3394898895266E-02
 0.7701146406552E-03 -0.7725434737076E-02  0.0000000000000E+00  0.3490692525594E-02
 0.9153599039899E-03 -0.7781240776436E-02  0.0000000000000E+00  0.3536977967887E-02
 0.1036636905767E-02 -0.7813981791031E-02  0.0000000000000E+00  0.3541203903344E-02
 0.1130923032729E-02 -0.7822207049124E-02  0.0000000000000E+00  0.3511627995461E-02
 0.1197062797441E-02 -0.7805773522412E-02  0.0000000000000E+00  0.3456104760252E-02
 0.1235311991820E-02 -0.7765403926184E-02  0.0000000000000E+00  0.3381406173286E-02
 0.1246886226321E-02 -0.7702278240878E-02  0.0000000000000E+00  0.3293014495060E-02
 0.1233604031324E-02 -0.7617728676654E-02  0.0000000000000E+00  0.3195243268953E-02
 0.1197658099243E-02 -0.7513057336456E-02  0.0000000000000E+00  0.3091534498160E-02
 0.1141511028069E-02 -0.7389466867039E-02  0.0000000000000E+00  0.2984812599886E-02
 0.1067895918692E-02 -0.7248086565671E-02  0.0000000000000E+00  0.2877818166841E-02
 0.9798820252015E-03 -0.7090049540867E-02  0.0000000000000E+00  0.2773359093878E-02
 0.8809799687326E-03 -0.6916608240565E-02  0.0000000000000E+00  0.2674470674190E-02
 0.7752540117794E-03 -0.6729263855842E-02  0.0000000000000E+00  0.2584483069654E-02
 0.6674055320640E-03 -0.6529870232703E-02  0.0000000000000E+00  0.2507005323166E-02
 0.5628355366206E-03 -0.6320770686483E-02  0.0000000000000E+00  0.2445806464865E-02
 0.4677251508778E-03 -0.6105129163621E-02  0.0000000000000E+00  0.2404382909968E-02
 0.3889707607247E-03 -0.5886932993756E-02  0.0000000000000E+00  0.2385827374941E-02
 0.3339544909295E-03 -0.5670537384941E-02  0.0000000000000E+00  0.2393406705187E-02
 0.3104184855721E-03 -0.5460498381487E-02  0.0000000000000E+00  0.2430864500651E-02
 0.3264315182730E-03 -0.5261658792123E-02  0.0000000000000E+00  0.2502280724049E-02
 0.3903649561200E-03 -0.5079269493155E-02  0.0000000000000E+00  0.2611676384712E-02
 0.5108198569417E-03 -0.4919054727581E-02  0.0000000000000E+00  0.2762422691043E-02
 0.6964551684721E-03 -0.4787174740632E-02  0.0000000000000E+00  0.2956460285442E-02
 0.9556663689985E-03 -0.4690055024892E-02  0.0000000000000E+00  0.3193345551693E-02
 0.1296068832410E-02 -0.4634048470827E-02  0.0000000000000E+00  0.3469196098405E-02
 0.1723821822706E-02 -0.4624884368698E-02  0.0000000000000E+00  0.3775756021149E-02
 0.2242937271088E-02 -0.4666976179903E-02  0.0000000000000E+00  0.4099788844804E-02
 0.2854395043357E-02 -0.4762722599154E-02  0.0000000000000E+00  0.4422694086566E-02
 0.3554993935566E-02 -0.4911690623696E-02  0.0000000000000E+00  0.4720704123701E-02
 0.4336346182845E-02 -0.5109765048320E-02  0.0000000000000E+00  0.4966224137698E-02
 0.5184222013496E-02 -0.5348546344086E-02  0.0000000000000E+00  0.5130227691816E-02
 0.6078483890520E-02 -0.5615224418713E-02  0.0000000000000E+00  0.5185514633545E-02
 0.6993828730232E-02 -0.5893110365492E-02  0.0000000000000E+00  0.5110373972512E-02
 0.7901349304540E-02 -0.6162864843525E-02  0.0000000000000E+00  0.4891962574456E-02
 0.8770794479812E-02 -0.6404305640425E-02  0.0000000000000E+00  0.4528677502119E-02
 0.9573102665387E-02 -0.6598484902704E-02  0.0000000000000E+00  0.4031103109234E-02
 0.8552550142708E-04 -0.7528186779291E-02  0.0000000000000E+00  0.2841272579416E-02
 0.2641826068868E-03 -0.7634163365250E-02  0.0000000000000E+00  0.3096988839910E-02
 0.4509289529871E-03 -0.7738289788565E-02  0.0000000000000E+00  0.3296613212167E-02
 0.6352473941011E-03 -0.7832968407813E-02  0.0000000000000E+00  0.3436266027725E-02
 0.8073740630973E-03 -0.7911441458379E-02  0.0000000000000E+00  0.3517804381263E-02
 0.9594507463674E-03 -0.7968626354539E-02  0.0000000000000E+00  0.3547487447025E-02
 0.1086077375546E-02 -0.8001437592218E-02  0.0000000000000E+00  0.3534013244680E-02
 0.1184284702496E-02 -0.8008634856743E-02  0.0000000000000E+00  0.3486655176970E-02
 0.1253126848044E-02 -0.7990382188560E-02  0.0000000000000E+00  0.3413937933435E-02
 0.1293126985392E-02 -0.7947721612085E-02  0.0000000000000E+00  0.3322962156615E-02
 0.1305753035692E-02 -0.7882107019146E-02  0.0000000000000E+00  0.3219269909886E-02
 0.1293018496582E-02 -0.7795069574281E-02  0.0000000000000E+00  0.3107062492295E-02
 0.1257236795934E-02 -0.7688027067835E-02  0.0000000000000E+00  0.2989589982922E-02
 0.1200917591541E-02 -0.7562219422363E-02  0.0000000000000E+00  0.2869580255326E-02
 0.1126778537083E-02 -0.7418746698736E-02  0.0000000000000E+00  0.2749627537536E-02
 0.1037827663487E-02 -0.7258660987501E-02  0.0000000000000E+00  0.2632476847084E-02
 0.9374870692809E-03 -0.7083097169970E-02  0.0000000000000E+00  0.2521198601991E-02
 0.8297217821575E-03 -0.6893415596440E-02  0.0000000000000E+00  0.2419254006332E-02
 0.7191345351572E-03 -0.6691314823656E-02  0.0000000000000E+00  0.2330463162130E-02
 0.6110350657830E-03 -0.6478979187268E-02  0.0000000000000E+00  0.2258857802752E-02
 0.5115301575759E-03 -0.6259446643517E-02  0.0000000000000E+00  0.2208187661480E-02
 0.4274467534136E-03 -0.6036604280032E-02  0.0000000000000E+00  0.2181772663673E-02
 0.3660765196833E-03 -0.5814670015864E-02  0.0000000000000E+00  0.2183148929988E-02
 0.3350525582731E-03 -0.5598006077691E-02  0.0000000000000E+00  0.2216426090281E-02
 0.3423452177280E-03 -0.5391230307484E-02  0.0000000000000E+00  0.2286166035411E-02
 0.3962822786000E-03 -0.5199380872194E-02  0.0000000000000E+00  0.2396984163560E-02
 0.5055290590469E-03 -0.5028031628214E-02  0.0000000000000E+00  0.2552932881097E-02
 0.6789730790076E-03 -0.4883306911350E-02  0.0000000000000E+00  0.2756666388826E-02
 0.9254557834881E-03 -0.4771761269275E-02  0.0000000000000E+00  0.3008395505654E-02
 0.1253294979029E-02 -0.4700083260228E-02  0.0000000000000E+00  0.3304698737667E-02
 0.1669621133954E-02 -0.4674561011920E-02  0.0000000000000E+00  0.3637424733862E-02
 0.2179659964759E-02 -0.4700369769904E-02  0.0000000000000E+00  0.3992913296147E-02
 0.2785760090767E-02 -0.4780820663108E-02  0.0000000000000E+00  0.4351402619148E-02
 0.3486077661800E-02 -0.4916434563198E-02  0.0000000000000E+00  0.4687038626774E-02
 0.4273336066072E-02 -0.5103910168261E-02  0.0000000000000E+00  0.4969179293266E-02
 0.5133902162800E-02 -0.5335306357070E-02  0.0000000000000E+00  0.5164958991967E-02
 0.6047481205097E-02 -0.5597719669998E-02  0.0000000000000E+00  0.5242957982713E-02
 0.6987730136869E-02 -0.5873707284617E-02  0.0000000000000E+00  0.5177490111663E-02
 0.7923869976420E-02 -0.6142554339265E-02  0.0000000000000E+00  0.4952689307787E-02
 0.8823196429152E-02 -0.6382282444255E-02  0.0000000000000E+00  0.4565461138109E-02
 0.9653993881162E-02 -0.6572029097003E-02  0.0000000000000E+00  0.4026686421503E-02
 0.8943666452111E-04 -0.7700951341437E-02  0.0000000000000E+00  0.2903557333144E-02
 0.2767463754698E-03 -0.7811768322064E-02  0.0000000000000E+00  0.3157753448776E-02
 0.4730939930346E-03 -0.7920682047872E-02  0.0000000000000E+00  0.3350708180678E-02
 0.6669239289578E-03 -0.8019399400668E-02  0.0000000000000E+00  0.3478856316329E-02
 0.8475940861471E-03 -0.8100641070357E-02  0.0000000000000E+00  0.3545113262275E-02
 0.1006708220124E-02 -0.8159100339828E-02  0.0000000000000E+00  0.3557174706799E-02
 0.1138697311531E-02 -0.8191763262576E-02  0.0000000000000E+00  0.3525150627595E-02
 0.1240709779538E-02 -0.8197668663856E-02  0.0000000000000E+00  0.3459420550494E-02
 0.1312078450573E-02 -0.8177352757976E-02  0.0000000000000E+00  0.3369198235423E-02
 0.1353651243537E-02 -0.8132226149541E-02  0.0000000000000E+00  0.3261880596331E-02
 0.1367187215017E-02 -0.8064046685436E-02  0.0000000000000E+00  0.3143009630163E-02
 0.1354915056440E-02 -0.7974557376908E-02  0.0000000000000E+00  0.3016605647304E-02
 0.1319273698484E-02 -0.7865291527553E-02  0.0000000000000E+00  0.2885660464191E-02
 0.1262813097570E-02 -0.7737517062913E-02  0.0000000000000E+00  0.2752647019935E-02
 0.1188220861714E-02 -0.7592289541177E-02  0.0000000000000E+00  0.2619964941837E-02
 0.1098424691350E-02 -0.7430561178159E-02  0.0000000000000E+00  0.2490258854772E-02
 0.9967376148579E-03 -0.7253328853179E-02  0.0000000000000E+00  0.2366606865576E-02
 0.8870061046241E-03 -0.7061791755467E-02  0.0000000000000E+00  0.2252581773774E-02
 0.7737178788174E-03 -0.6857474046707E-02  0.0000000000000E+00  0.2152199658978E-02
 0.6620783376290E-03 -0.6642383559137E-02  0.0000000000000E+00  0.2069739949175E-02
 0.5581097734777E-03 -0.6419417482681E-02  0.0000000000000E+00  0.2009187259778E-02
 0.4685596672548E-03 -0.6192349527580E-02  0.0000000000000E+00  0.1974065176241E-02
 0.4006146856909E-03 -0.5965243852824E-02  0.0000000000000E+00  0.1968152681662E-02
 0.3617772762980E-03 -0.5742245314063E-02  0.0000000000000E+00  0.1995903590940E-02
 0.3598911668526E-03 -0.5527715476335E-02  0.0000000000000E+00  0.2062354743464E-02
 0.4032087239457E-03 -0.5326442366739E-02  0.0000000000000E+00  0.2172734635801E-02
 0.5004291094404E-03 -0.5143809258015E-02  0.0000000000000E+00  0.2331831317520E-02
 0.6606465273036E-03 -0.4985866676246E-02  0.0000000000000E+00  0.2543110958955E-02
 0.8931444635720E-03 -0.4859269830543E-02  0.0000000000000E+00  0.2807585804328E-02
 0.1206968883845E-02 -0.4771033731497E-02  0.0000000000000E+00  0.3122488373557E-02
 0.1610289639138E-02 -0.4728026190852E-02  0.0000000000000E+00  0.3479998047397E-02
 0.2109668532244E-02 -0.4736245177703E-02  0.0000000000000E+00  0.3866263261205E-02
 0.2709004933734E-02 -0.4800022894678E-02  0.0000000000000E+00  0.4260550262948E-02
 0.3408045104186E-02 -0.4920987982314E-02  0.0000000000000E+00  0.4634995661907E-02
 0.4200876839267E-02 -0.5096831183382E-02  0.0000000000000E+00  0.4955806526102E-02
 0.5074684821969E-02 -0.5320231940386E-02  0.0000000000000E+00  0.5185949711803E-02
 0.6009139619738E-02 -0.5578286515176E-02  0.0000000000000E+00  0.5289244101440E-02
 0.6976822163260E-02 -0.5852773221236E-02  0.0000000000000E+00  0.5235361431806E-02
 0.7944864409904E-02 -0.6121439985883E-02  0.0000000000000E+00  0.5004778129095E-02
 0.8877750401717E-02 -0.6360247458783E-02  0.0000000000000E+00  0.4592471691249E-02
 0.9740698133229E-02 -0.6546121851580E-02  0.0000000000000E+00  0.4009451366377E-02
 0.9373897414927E-04 -0.7876025852738E-02  0.0000000000000E+00  0.2968688238743E-02
 0.2905289588346E-03 -0.7992139532835E-02  0.0000000000000E+00  0.3221283663882E-02
 0.4973071351422E-03 -0.8106230172619E-02  0.0000000000000E+00  0.3407008559858E-02
 0.7013290371606E-03 -0.8209213539958E-02  0.0000000000000E+00  0.3522690044335E-02
 0.8909786402228E-03 -0.8293243413856E-02  0.0000000000000E+00  0.3572509268574E-02
 0.1057304634554E-02 -0.8352807340068E-02  0.0000000000000E+00  0.3565835227691E-02
 0.1194616336737E-02 -0.8385027932143E-02  0.0000000000000E+00  0.3514371581273E-02
 0.1300258832424E-02 -0.8389305032039E-02  0.0000000000000E+00  0.3429694749910E-02
 0.1373924088387E-02 -0.8366620862231E-02  0.0000000000000E+00  0.3321714792809E-02
 0.1416848558679E-02 -0.8318807647094E-02  0.0000000000000E+00  0.3198076788286E-02
 0.1431123584070E-02 -0.8247957436829E-02  0.0000000000000E+00  0.3064248476326E-02
 0.1419213091213E-02 -0.8156036432240E-02  0.0000000000000E+00  0.2923989668062E-02
 0.1383684946773E-02 -0.8044691317758E-02  0.0000000000000E+00  0.2779960302440E-02
 0.1327120952488E-02 -0.7915207043979E-02  0.0000000000000E+00  0.2634315250009E-02
 0.1252162337373E-02 -0.7768578088646E-02  0.0000000000000E+00  0.2489208180227E-02
 0.1161635689628E-02 -0.7605636928554E-02  0.0000000000000E+00  0.2347143848422E-02
 0.1058722937086E-02 -0.7427221235641E-02  0.0000000000000E+00  0.2211179709215E-02
 0.9471316376106E-03 -0.7234348259160E-02  0.0000000000000E+00  0.2084980758237E-02
 0.8312177971338E-03 -0.7028348666243E-02  0.0000000000000E+00  0.1972744501339E-02
 0.7160698478425E-03 -0.6811036781409E-02  0.0000000000000E+00  0.1878983223784E-02
 0.6076163977044E-03 -0.6585155164899E-02  0.0000000000000E+00  0.1807897176268E-02
 0.5125163636990E-03 -0.6354352053277E-02  0.0000000000000E+00  0.1763187682704E-02
 0.4378369441212E-03 -0.6122522050116E-02  0.0000000000000E+00  0.1748845712938E-02
 0.3909267916007E-03 -0.5893568787128E-02  0.0000000000000E+00  0.1769641255498E-02
 0.3794711939520E-03 -0.5671564458918E-02  0.0000000000000E+00  0.1831072269772E-02
 0.4116092847052E-03 -0.5461005845902E-02  0.0000000000000E+00  0.1938992724455E-02
 0.4960351527891E-03 -0.5267039476482E-02  0.0000000000000E+00  0.2098976326125E-02
 0.6420168444440E-03 -0.5095595585203E-02  0.0000000000000E+00  0.2315399029412E-02
 0.8592631115897E-03 -0.4953390467004E-02  0.0000000000000E+00  0.2590227512070E-02
 0.1157560630080E-02 -0.4847743448408E-02  0.0000000000000E+00  0.2921557503013E-02
 0.1546176310691E-02 -0.4786110316754E-02  0.0000000000000E+00  0.3302154583983E-02
 0.2033127111909E-02 -0.4775364055631E-02  0.0000000000000E+00  0.3718251817903E-02
 0.2624055053346E-02 -0.4820966893082E-02  0.0000000000000E+00  0.4148386954059E-02
 0.3320557275770E-02 -0.4925823290236E-02  0.0000000000000E+00  0.4562817054566E-02
 0.4118386071441E-02 -0.5088823792990E-02  0.0000000000000E+00  0.4924526432059E-02
 0.5005824146397E-02 -0.5303471328570E-02  0.0000000000000E+00  0.5191974884089E-02
 0.5962685349004E-02 -0.5556995040776E-02  0.0000000000000E+00  0.5323607780148E-02
 0.6960467786301E-02 -0.5830390549910E-02  0.0000000000000E+00  0.5283662546705E-02
 0.7963980731459E-02 -0.6099692649452E-02  0.0000000000000E+00  0.5048182047368E-02
 0.8934480989645E-02 -0.6338490773136E-02  0.0000000000000E+00  0.4609687112897E-02
 0.9833649431680E-02 -0.6521160006031E-02  0.0000000000000E+00  0.3979130879405E-02
 0.9846698738735E-04 -0.8053643932764E-02  0.0000000000000E+00  0.3036950196882E-02
 0.3056421265853E-03 -0.8175545998173E-02  0.0000000000000E+00  0.3287830895179E-02
 0.5237546154825E-03 -0.8295222499754E-02  0.0000000000000E+00  0.3465657218108E-02
 0.7386909005476E-03 -0.8402684464932E-02  0.0000000000000E+00  0.3567754863474E-02
 0.9377526929056E-03 -0.8489470040298E-02  0.0000000000000E+00  0.3599828071077E-02
 0.1111422817236E-02 -0.8549890387944E-02  0.0000000000000E+00  0.3573199057819E-02
 0.1253953069753E-02 -0.8581286989272E-02  0.0000000000000E+00  0.3501366789975E-02
 0.1362981828348E-02 -0.8583517906020E-02  0.0000000000000E+00  0.3397192397639E-02
 0.1438653183562E-02 -0.8558094374507E-02  0.0000000000000E+00  0.3271273359771E-02
 0.1482662211210E-02 -0.8507326338026E-02  0.0000000000000E+00  0.3131435679199E-02
 0.1497475265696E-02 -0.8433669416120E-02  0.0000000000000E+00  0.2982982580901E-02
 0.1485810575169E-02 -0.8339321861799E-02  0.0000000000000E+00  0.2829322716992E-02
 0.1450366474811E-02 -0.8226039085861E-02  0.0000000000000E+00  0.2672703603664E-02
 0.1393746154471E-02 -0.8095110163619E-02  0.0000000000000E+00  0.2514894689286E-02
 0.1318526244046E-02 -0.7947450601090E-02  0.0000000000000E+00  0.2357749597486E-02
 0.1227409653388E-02 -0.7783752330072E-02  0.0000000000000E+00  0.2203591970377E-02
 0.1123423563609E-02 -0.7604671875720E-02  0.0000000000000E+00  0.2055429479966E-02
 0.1010115089996E-02 -0.7411023303180E-02  0.0000000000000E+00  0.1917000166242E-02
 0.8916914695294E-03 -0.7203924703879E-02  0.0000000000000E+00  0.1792669285742E-02
 0.7731121237838E-03 -0.6984980514456E-02  0.0000000000000E+00  0.1687167691870E-02
 0.6602040707226E-03 -0.6756765932919E-02  0.0000000000000E+00  0.1604891436248E-02
 0.5595299043857E-03 -0.6522792971724E-02  0.0000000000000E+00  0.1549691197958E-02
 0.4780233625113E-03 -0.6286771914689E-02  0.0000000000000E+00  0.1525734092658E-02
 0.4228549292696E-03 -0.6052341383490E-02  0.0000000000000E+00  0.1538071185528E-02
 0.4015161553052E-03 -0.5823249683989E-02  0.0000000000000E+00  0.1592639544286E-02
 0.4219890837138E-03 -0.5603657880805E-02  0.0000000000000E+00  0.1695922817705E-02
 0.4929149594007E-03 -0.5398423784420E-02  0.0000000000000E+00  0.1854323503962E-02
 0.6236909836506E-03 -0.5213302019260E-02  0.0000000000000E+00  0.2073221499400E-02
 0.8244198124149E-03 -0.5055018201391E-02  0.0000000000000E+00  0.2355693642312E-02
 0.1105625381375E-02 -0.4931158823037E-02  0.0000000000000E+00  0.2700921574224E-02
 0.1477714977062E-02 -0.4849760082423E-02  0.0000000000000E+00  0.3102541602528E-02
 0.1950272300620E-02 -0.4818609463683E-02  0.0000000000000E+00  0.3547195116190E-02
 0.2530880700945E-02 -0.4844404609432E-02  0.0000000000000E+00  0.4012998827923E-02
 0.3223277260522E-02 -0.4931506331447E-02  0.0000000000000E+00  0.4468528149730E-02
 0.4025231507933E-02 -0.5080244819809E-02  0.0000000000000E+00  0.4873522128546E-02
 0.4926475555967E-02 -0.5285197709173E-02  0.0000000000000E+00  0.5181595511664E-02
 0.5907216675752E-02 -0.5533911987936E-02  0.0000000000000E+00  0.5345136628414E-02
 0.6937906980777E-02 -0.5806629041902E-02  0.0000000000000E+00  0.5322007129726E-02
 0.7980782806342E-02 -0.6077479954218E-02  0.0000000000000E+00  0.5082855962288E-02
 0.8993379609090E-02 -0.6317309380567E-02  0.0000000000000E+00  0.4617100505407E-02
 0.9933301174029E-02 -0.6497549545780E-02  0.0000000000000E+00  0.3935463790221E-02
 0.1036613531691E-03 -0.8234066197231E-02  0.0000000000000E+00  0.3108651189032E-02
 0.3222168592379E-03 -0.8362289192527E-02  0.0000000000000E+00  0.3357660973100E-02
 0.5526524223279E-03 -0.8487980764037E-02  0.0000000000000E+00  0.3526786767224E-02
 0.7792692586892E-03 -0.8600112288983E-02  0.0000000000000E+00  0.3613997040909E-02
 0.9881652001421E-03 -0.8689555383083E-02  0.0000000000000E+00  0.3626839229068E-02
 0.1169256560323E-02 -0.8750489487040E-02  0.0000000000000E+00  0.3578919429777E-02
 0.1316823595635E-02 -0.8780578954208E-02  0.0000000000000E+00  0.3485753325339E-02
 0.1428915581479E-02 -0.8780254941612E-02  0.0000000000000E+00  0.3361566677194E-02
 0.1506235346393E-02 -0.8751650004926E-02  0.0000000000000E+00  0.3217613736796E-02
 0.1551012482290E-02 -0.8697609798291E-02  0.0000000000000E+00  0.3061811138732E-02
 0.1566131587625E-02 -0.8620980543339E-02  0.0000000000000E+00  0.2899189586135E-02
 0.1554582290500E-02 -0.8524197803986E-02  0.0000000000000E+00  0.2732704707247E-02
 0.1519192392003E-02 -0.8409117932179E-02  0.0000000000000E+00  0.2564104819123E-02
 0.1462573718685E-02 -0.8277019135477E-02  0.0000000000000E+00  0.2394703154633E-02
 0.1387218100484E-02 -0.8128718827134E-02  0.0000000000000E+00  0.2225996981521E-02
 0.1295680357100E-02 -0.7964746791776E-02  0.0000000000000E+00  0.2060086009675E-02
 0.1190807539158E-02 -0.7785555813717E-02  0.0000000000000E+00  0.1899898256146E-02
 0.1075963466474E-02 -0.7591735057574E-02  0.0000000000000E+00  0.1749226045824E-02
 0.9551891255116E-03 -0.7384170962202E-02  0.0000000000000E+00  0.1612589946186E-02
 0.8333036207038E-03 -0.7164242403575E-02  0.0000000000000E+00  0.1494926098760E-02
 0.7160261363259E-03 -0.6934345834702E-02  0.0000000000000E+00  0.1400806264524E-02
 0.6098170263536E-03 -0.6697847969148E-02  0.0000000000000E+00  0.1334199627288E-02
 0.5214635393146E-03 -0.6458261434316E-02  0.0000000000000E+00  0.1299408192281E-02
 0.4579327669831E-03 -0.6218936555132E-02  0.0000000000000E+00  0.1301721043300E-02
 0.4264840026277E-03 -0.5983262276913E-02  0.0000000000000E+00  0.1347482866961E-02
 0.4348924107764E-03 -0.5755016614920E-02  0.0000000000000E+00  0.1443801189632E-02
 0.4916896116489E-03 -0.5538711286300E-02  0.0000000000000E+00  0.1597940928274E-02
 0.6063447338261E-03 -0.5339861195225E-02  0.0000000000000E+00  0.1816372868203E-02
 0.7893067316253E-03 -0.5165136561115E-02  0.0000000000000E+00  0.2103438232288E-02
 0.1051814310573E-02 -0.5022336806262E-02  0.0000000000000E+00  0.2459636874518E-02
 0.1405439527973E-02 -0.4920051415474E-02  0.0000000000000E+00  0.2879787669492E-02
 0.1861431396379E-02 -0.4867003911131E-02  0.0000000000000E+00  0.3351314769744E-02
 0.2429515202119E-02 -0.4871223794358E-02  0.0000000000000E+00  0.3852295585195E-02
 0.3115884055434E-02 -0.4938717897001E-02  0.0000000000000E+00  0.4349908109141E-02
 0.3920735505575E-02 -0.5071529627201E-02  0.0000000000000E+00  0.4800695277655E-02
 0.4835687287768E-02 -0.5265618747716E-02  0.0000000000000E+00  0.5153109023914E-02
 0.5841683493303E-02 -0.5509101012902E-02  0.0000000000000E+00  0.5352730302987E-02
 0.6908233061422E-02 -0.5781541527900E-02  0.0000000000000E+00  0.5349929393188E-02
 0.7994736126222E-02 -0.6054967078876E-02  0.0000000000000E+00  0.5108753405969E-02
 0.9054398541661E-02 -0.6297009639737E-02  0.0000000000000E+00  0.4614705565435E-02
 0.1004011263096E-01 -0.6475698106685E-02  0.0000000000000E+00  0.3878178604680E-02
 0.1093702926533E-03 -0.8417586119080E-02  0.0000000000000E+00  0.3184126154540E-02
 0.3404078374764E-03 -0.8552710043895E-02  0.0000000000000E+00  0.3431055466846E-02
 0.5842526734517E-03 -0.8684866764944E-02  0.0000000000000E+00  0.3590514760278E-02
 0.8233611505016E-03 -0.8801827920978E-02  0.0000000000000E+00  0.3661310295196E-02
 0.1042492181348E-02 -0.8893747564954E-02  0.0000000000000E+00  0.3653231902276E-02
 0.1231010592512E-02 -0.8954739272019E-02  0.0000000000000E+00  0.3582559504514E-02
 0.1383339200360E-02 -0.8982921353398E-02  0.0000000000000E+00  0.3467065075610E-02
 0.1498080514834E-02 -0.8979433028544E-02  0.0000000000000E+00  0.3322403970890E-02
 0.1576617147143E-02 -0.8947129403315E-02  0.0000000000000E+00  0.3160427701782E-02
 0.1621793912505E-02 -0.8889449953836E-02  0.0000000000000E+00  0.2989025814509E-02
 0.1636955890321E-02 -0.8809654320232E-02  0.0000000000000E+00  0.2812829270722E-02
 0.1625378024933E-02 -0.8710415708701E-02  0.0000000000000E+00  0.2634228021271E-02
 0.1590013357084E-02 -0.8593679865202E-02  0.0000000000000E+00  0.2454379327187E-02
 0.1533467062863E-02 -0.8460696954274E-02  0.0000000000000E+00  0.2274067060221E-02
 0.1458123983876E-02 -0.8312166147231E-02  0.0000000000000E+00  0.2094374241422E-02
 0.1366364602530E-02 -0.8148432935707E-02  0.0000000000000E+00  0.1917132424737E-02
 0.1260828616428E-02 -0.7969723253785E-02  0.0000000000000E+00  0.1745159298115E-02
 0.1144672183191E-02 -0.7776379170421E-02  0.0000000000000E+00  0.1582283152604E-02
 0.1021752016503E-02 -0.7569036347041E-02  0.0000000000000E+00  0.1433169016545E-02
 0.8967364635828E-03 -0.7348833178558E-02  0.0000000000000E+00  0.1302946600337E-02
 0.7752327049781E-03 -0.7117977545721E-02  0.0000000000000E+00  0.1196343484560E-02
 0.6635953537547E-03 -0.6879683805835E-02  0.0000000000000E+00  0.1117414139585E-02
 0.5684536745626E-03 -0.6637255447953E-02  0.0000000000000E+00  0.1070548412936E-02
 0.4965457608855E-03 -0.6393732202077E-02  0.0000000000000E+00  0.1061221592225E-02
 0.4548572732792E-03 -0.6152107810588E-02  0.0000000000000E+00  0.1096143822463E-02
 0.4509010627685E-03 -0.5915727742149E-02  0.0000000000000E+00  0.1183028919628E-02
 0.4930334341943E-03 -0.5688695567403E-02  0.0000000000000E+00  0.1330025614565E-02
 0.5907252725402E-03 -0.5476214010612E-02  0.0000000000000E+00  0.1544771311393E-02
 0.7547065322408E-03 -0.5284819841970E-02  0.0000000000000E+00  0.1833019115895E-02
 0.9968860273272E-03 -0.5122452198499E-02  0.0000000000000E+00  0.2196823454864E-02
 0.1330000840471E-02 -0.4998203165638E-02  0.0000000000000E+00  0.2632521168775E-02
 0.1767043834791E-02 -0.4921729714095E-02  0.0000000000000E+00  0.3128745602116E-02
 0.2320077795975E-02 -0.4902473468782E-02  0.0000000000000E+00  0.3664000925118E-02
 0.2998091270165E-02 -0.4948280590903E-02  0.0000000000000E+00  0.4204458737694E-02
 0.3804183352026E-02 -0.5063214832736E-02  0.0000000000000E+00  0.4703615847285E-02
 0.4732392965307E-02 -0.5244990853469E-02  0.0000000000000E+00  0.5104487989663E-02
 0.5764863019636E-02 -0.5482623647797E-02  0.0000000000000E+00  0.5345046296519E-02
 0.6870361065704E-02 -0.5755156497817E-02  0.0000000000000E+00  0.5366859992456E-02
 0.8005193458567E-02 -0.6032317420285E-02  0.0000000000000E+00  0.5125833110156E-02
 0.9117449385697E-02 -0.6277918549882E-02  0.0000000000000E+00  0.4602469188122E-02
 0.1015451856115E-01 -0.6455988516043E-02  0.0000000000000E+00  0.3806967998864E-02
 0.1156514846553E-03 -0.8604537258237E-02  0.0000000000000E+00  0.3263741713512E-02
 0.3603990773145E-03 -0.8747197459587E-02  0.0000000000000E+00  0.3508312976168E-02
 0.6188514236019E-03 -0.8886290307908E-02  0.0000000000000E+00  0.3656937141971E-02
 0.8713075931995E-03 -0.9008197812329E-02  0.0000000000000E+00  0.3709521462052E-02
 0.1101039816700E-02 -0.9102308629950E-02  0.0000000000000E+00  0.3678597328825E-02
 0.1296899852893E-02 -0.9162765505307E-02  0.0000000000000E+00  0.3583576995512E-02
 0.1453603162900E-02 -0.9188305391266E-02  0.0000000000000E+00  0.3444742461509E-02
 0.1570476621536E-02 -0.9180932937066E-02  0.0000000000000E+00  0.3279218815233E-02
 0.1649718392879E-02 -0.9144334816434E-02  0.0000000000000E+00  0.3099357706555E-02
 0.1694872355392E-02 -0.9082599997867E-02  0.0000000000000E+00  0.2912871737379E-02
 0.1709783321294E-02 -0.8999417761332E-02  0.0000000000000E+00  0.2723844668080E-02
 0.1698020839909E-02 -0.8897692844255E-02  0.0000000000000E+00  0.2533978396714E-02
 0.1662655023697E-02 -0.8779444458382E-02  0.0000000000000E+00  0.2343743900736E-02
 0.1606266417426E-02 -0.8645875394192E-02  0.0000000000000E+00  0.2153321640904E-02
 0.1531108814285E-02 -0.8497545760539E-02  0.0000000000000E+00  0.1963321707666E-02
 0.1439360387918E-02 -0.8334594459526E-02  0.0000000000000E+00  0.1775261999274E-02
 0.1333424354426E-02 -0.8156997171619E-02  0.0000000000000E+00  0.1591818182419E-02
 0.1216223099061E-02 -0.7964826193838E-02  0.0000000000000E+00  0.1416836532866E-02
 0.1091410311364E-02 -0.7758447131994E-02  0.0000000000000E+00  0.1255117594954E-02
 0.9634941000483E-03 -0.7538743716470E-02  0.0000000000000E+00  0.1111975135243E-02
 0.8379679874740E-03 -0.7307727157466E-02  0.0000000000000E+00  0.9922734775592E-03
 0.7210804118743E-03 -0.7068454753735E-02  0.0000000000000E+00  0.9001170199265E-03
 0.6192933458902E-03 -0.6824011669577E-02  0.0000000000000E+00  0.8399303354386E-03
 0.5390904438297E-03 -0.6577106259698E-02  0.0000000000000E+00  0.8173136686818E-03
 0.4871399802742E-03 -0.6330301536434E-02  0.0000000000000E+00  0.8392887737510E-03
 0.4706318887017E-03 -0.6086459677568E-02  0.0000000000000E+00  0.9141447864379E-03
 0.4976729689113E-03 -0.5849210464738E-02  0.0000000000000E+00  0.1050920715952E-02
 0.5776527488707E-03 -0.5623364577361E-02  0.0000000000000E+00  0.1258480724623E-02
 0.7214981142845E-03 -0.5415234117663E-02  0.0000000000000E+00  0.1544124321859E-02
 0.9417181164341E-03 -0.5232804239639E-02  0.0000000000000E+00  0.1911693512557E-02
 0.1252185189775E-02 -0.5085591269031E-02  0.0000000000000E+00  0.2359395662212E-02
 0.1667686016426E-02 -0.4984151709594E-02  0.0000000000000E+00  0.2877550333874E-02
 0.2202801597221E-02 -0.4939394019370E-02  0.0000000000000E+00  0.3445647490459E-02
 0.2869672289665E-02 -0.4961192148987E-02  0.0000000000000E+00  0.4029373348544E-02
 0.3674835950117E-02 -0.5055968412561E-02  0.0000000000000E+00  0.4579463210494E-02
 0.4615408097125E-02 -0.5223638089335E-02  0.0000000000000E+00  0.5033309900601E-02
 0.5675330109755E-02 -0.5454548382915E-02  0.0000000000000E+00  0.5320418081791E-02
 0.6822985362907E-02 -0.5727455222254E-02  0.0000000000000E+00  0.5372099398136E-02
 0.8011372261975E-02 -0.6009702038004E-02  0.0000000000000E+00  0.5134073933919E-02
 0.9182436353811E-02 -0.6260397741358E-02  0.0000000000000E+00  0.4580318940020E-02
 0.1027680914220E-01 -0.6438735130486E-02  0.0000000000000E+00  0.3721368395575E-02
 0.1225744850843E-03 -0.8795302312701E-02  0.0000000000000E+00  0.3347901887000E-02
 0.3824110375147E-03 -0.8946198719448E-02  0.0000000000000E+00  0.3589750227370E-02
 0.6567982542358E-03 -0.9092718689266E-02  0.0000000000000E+00  0.3726119333011E-02
 0.9235013135044E-03 -0.9219629031814E-02  0.0000000000000E+00  0.3758371956017E-02
 0.1164147351605E-02 -0.9315513773591E-02  0.0000000000000E+00  0.3702407322227E-02
 0.1367147715564E-02 -0.9374679923490E-02  0.0000000000000E+00  0.3581306480036E-02
 0.1527706298499E-02 -0.9396689031538E-02  0.0000000000000E+00  0.3418121673186E-02
 0.1646078444565E-02 -0.9384592866031E-02  0.0000000000000E+00  0.3231449596075E-02
 0.1725427845629E-02 -0.9343024203803E-02  0.0000000000000E+00  0.3033996738218E-02
 0.1770081830004E-02 -0.9276771185138E-02  0.0000000000000E+00  0.2833111968892E-02
 0.1784418643852E-02 -0.9189959431667E-02  0.0000000000000E+00  0.2632163855436E-02
 0.1772305432907E-02 -0.9085710981738E-02  0.0000000000000E+00  0.2432036073943E-02
 0.1736916561738E-02 -0.8966097644794E-02  0.0000000000000E+00  0.2232417100745E-02
 0.1680787237440E-02 -0.8832253539913E-02  0.0000000000000E+00  0.2032810892036E-02
 0.1606014553224E-02 -0.8684578775443E-02  0.0000000000000E+00  0.1833296079405E-02
 0.1514544926055E-02 -0.8522983789834E-02  0.0000000000000E+00  0.1635030193804E-02
 0.1408514042463E-02 -0.8347170645383E-02  0.0000000000000E+00  0.1440513738801E-02
 0.1290582384646E-02 -0.8156918719534E-02  0.0000000000000E+00  0.1253593001710E-02
 0.1164180848775E-02 -0.7952303955849E-02  0.0000000000000E+00  0.1079197230801E-02
 0.1033648809180E-02 -0.7733941868309E-02  0.0000000000000E+00  0.9228176811829E-03
 0.9043674525253E-03 -0.7503640744786E-02  0.0000000000000E+00  0.7894379468682E-03
 0.7824824021086E-03 -0.7264298789613E-02  0.0000000000000E+00  0.6831752305670E-03
 0.6742819472114E-03 -0.7018776382684E-02  0.0000000000000E+00  0.6084294866851E-03
 0.5859706398487E-03 -0.6769431786928E-02  0.0000000000000E+00  0.5708547269441E-03
 0.5238538126798E-03 -0.6518362845442E-02  0.0000000000000E+00  0.5777180198343E-03
 0.4947333900731E-03 -0.6267897592214E-02  0.0000000000000E+00  0.6378381849368E-03
 0.5063847567549E-03 -0.6021124288335E-02  0.0000000000000E+00  0.7611335359035E-03
 0.5680205532198E-03 -0.5782375856760E-02  0.0000000000000E+00  0.9577349500602E-03
 0.6906612514802E-03 -0.5557636259132E-02  0.0000000000000E+00  0.1236602649661E-02
 0.8873183616960E-03 -0.5354821656723E-02  0.0000000000000E+00  0.1603586359671E-02
 0.1172933954399E-02 -0.5183762655918E-02  0.0000000000000E+00  0.2059124024621E-02
 0.1564099715477E-02 -0.5055841971157E-02  0.0000000000000E+00  0.2595743775024E-02
 0.2078068027340E-02 -0.4983452270623E-02  0.0000000000000E+00  0.3194579507527E-02
 0.2730492690502E-02 -0.4978666578814E-02  0.0000000000000E+00  0.3821506650779E-02
 0.3531952576959E-02 -0.5050628822372E-02  0.0000000000000E+00  0.4424963022562E-02
 0.4483421784502E-02 -0.5201980197507E-02  0.0000000000000E+00  0.4936660357021E-02
 0.5571450333238E-02 -0.5424958616420E-02  0.0000000000000E+00  0.5276792516251E-02
 0.6764474364476E-02 -0.5698384673717E-02  0.0000000000000E+00  0.5364643465413E-02
 0.8012376120230E-02 -0.5987164471236E-02  0.0000000000000E+00  0.5133747219500E-02
 0.9249275707371E-02 -0.6245165147540E-02  0.0000000000000E+00  0.4547813382059E-02
 0.1040697591301E-01 -0.6423575103326E-02  0.0000000000000E+00  0.3620969704999E-02
 0.1302238380614E-03 -0.8990324813831E-02  0.0000000000000E+00  0.3437054539916E-02
 0.4067095801885E-03 -0.9150231752098E-02  0.0000000000000E+00  0.3675702709236E-02
 0.6985081491967E-03 -0.9304688419014E-02  0.0000000000000E+00  0.3798084224892E-02
 0.9803956662882E-03 -0.9436574347876E-02  0.0000000000000E+00  0.3807493382984E-02
 0.1232189467516E-02 -0.9533649074508E-02  0.0000000000000E+00  0.3723987968369E-02
 0.1441982732649E-02 -0.9590572846752E-02  0.0000000000000E+00  0.3574939182765E-02
 0.1605720900965E-02 -0.9607988106423E-02  0.0000000000000E+00  0.3386423797026E-02
 0.1724828915408E-02 -0.9590200745004E-02  0.0000000000000E+00  0.3178455500667E-02
 0.1803598367577E-02 -0.9542905828148E-02  0.0000000000000E+00  0.2963889777316E-02
 0.1847221234710E-02 -0.9471629591453E-02  0.0000000000000E+00  0.2749483552037E-02
 0.1860634143045E-02 -0.9380927692055E-02  0.0000000000000E+00  0.2537702522365E-02
 0.1847996667933E-02 -0.9274115343032E-02  0.0000000000000E+00  0.2328477203655E-02
 0.1812569305576E-02 -0.9153290709567E-02  0.0000000000000E+00  0.2120619520919E-02
 0.1756818637170E-02 -0.9019496376608E-02  0.0000000000000E+00  0.1912887107556E-02
 0.1682658304673E-02 -0.8872952191570E-02  0.0000000000000E+00  0.1704769891024E-02
 0.1591772473394E-02 -0.8713319477731E-02  0.0000000000000E+00  0.1497017091395E-02
 0.1485996400163E-02 -0.8540003837803E-02  0.0000000000000E+00  0.1291918741239E-02
 0.1367698185042E-02 -0.8352468147004E-02  0.0000000000000E+00  0.1093302527318E-02
 0.1240064720171E-02 -0.8150478493563E-02  0.0000000000000E+00  0.9062217831355E-03
 0.1107259057616E-02 -0.7934369012754E-02  0.0000000000000E+00  0.7363424552391E-03
 0.9745548151165E-03 -0.7705740705520E-02  0.0000000000000E+00  0.5887525352258E-03
 0.8480027558654E-03 -0.7467333560848E-02  0.0000000000000E+00  0.4675436860838E-03
 0.7337148107410E-03 -0.7221779832839E-02  0.0000000000000E+00  0.3770256622859E-03
 0.6375932033268E-03 -0.6971071571214E-02  0.0000000000000E+00  0.3228248092935E-03
 0.5655336173396E-03 -0.6716808931988E-02  0.0000000000000E+00  0.3123743728606E-03
 0.5238812742618E-03 -0.6460736200792E-02  0.0000000000000E+00  0.3549617395635E-03
 0.5199917083704E-03 -0.6205332246977E-02  0.0000000000000E+00  0.4613540085709E-03
 0.5627939072239E-03 -0.5954362964075E-02  0.0000000000000E+00  0.6429639570484E-03
 0.6632795988132E-03 -0.5713370315627E-02  0.0000000000000E+00  0.9104985332687E-03
 0.8348350679900E-03 -0.5490065327150E-02  0.0000000000000E+00  0.1272010793489E-02
 0.1093364128367E-02 -0.5294448062405E-02  0.0000000000000E+00  0.1730523167126E-02
 0.1457224286346E-02 -0.5138606019583E-02  0.0000000000000E+00  0.2281329587634E-02
 0.1946448166207E-02 -0.5036381836613E-02  0.0000000000000E+00  0.2907966436777E-02
 0.2580554230545E-02 -0.5002184715859E-02  0.0000000000000E+00  0.3577350325714E-02
 0.3374818669265E-02 -0.5048255706743E-02  0.0000000000000E+00  0.4236314286370E-02
 0.4335014885126E-02 -0.5180572432794E-02  0.0000000000000E+00  0.4811033475124E-02
 0.5451298114589E-02 -0.5393967221370E-02  0.0000000000000E+00  0.5211575682816E-02
 0.6693011796789E-02 -0.5667864375710E-02  0.0000000000000E+00  0.5343265254879E-02
 0.8006458687359E-02 -0.5964629657742E-02  0.0000000000000E+00  0.5124574170611E-02
 0.9319565893621E-02 -0.6232780604779E-02  0.0000000000000E+00  0.4506884529798E-02
 0.1054113155931E-01 -0.6411065790662E-02  0.0000000000000E+00  0.3499672900610E-02
 0.1387097999653E-03 -0.9190135662784E-02  0.0000000000000E+00  0.3531672169339E-02
 0.4336287792225E-03 -0.9359977791776E-02  0.0000000000000E+00  0.3766539459975E-02
 0.7445075814765E-03 -0.9522948918525E-02  0.0000000000000E+00  0.3872812926899E-02
 0.1042568520297E-02 -0.9659726456793E-02  0.0000000000000E+00  0.3856395867973E-02
 0.1305658584782E-02 -0.9757252980882E-02  0.0000000000000E+00  0.3742488203973E-02
 0.1521739553974E-02 -0.9810800750391E-02  0.0000000000000E+00  0.3563468709439E-02
 0.1687821578560E-02 -0.9822409003547E-02  0.0000000000000E+00  0.3348671373122E-02
 0.1806780280367E-02 -0.9797870304058E-02  0.0000000000000E+00  0.3119397159762E-02
 0.1884207224172E-02 -0.9744055630963E-02  0.0000000000000E+00  0.2888373594713E-02
 0.1926233188315E-02 -0.9667253377105E-02  0.0000000000000E+00  0.2661494154867E-02
 0.1938366780388E-02 -0.9572427836333E-02  0.0000000000000E+00  0.2440116960645E-02
 0.1925045704160E-02 -0.9463053229798E-02  0.0000000000000E+00  0.2223083122633E-02
 0.1889593282692E-02 -0.9341223526586E-02  0.0000000000000E+00  0.2008238496942E-02
 0.1834382163404E-02 -0.9207866946506E-02  0.0000000000000E+00  0.1793528483513E-02
 0.1761115112396E-02 -0.9063005091896E-02  0.0000000000000E+00  0.1577797186417E-02
 0.1671182283788E-02 -0.8906031851460E-02  0.0000000000000E+00  0.1361333696521E-02
 0.1566082554932E-02 -0.8736034234677E-02  0.0000000000000E+00  0.1146176845009E-02
 0.1447856711188E-02 -0.8552133686737E-02  0.0000000000000E+00  0.9361138763011E-03
 0.1319422617125E-02 -0.8353763961680E-02  0.0000000000000E+00  0.7363188834344E-03
 0.1184758622110E-02 -0.8140963212397E-02  0.0000000000000E+00  0.5526338978626E-03
 0.1049038242330E-02 -0.7915121198586E-02  0.0000000000000E+00  0.3902394697019E-03
 0.9182294522527E-03 -0.7678822444092E-02  0.0000000000000E+00  0.2531618512545E-03
 0.7982678793189E-03 -0.7434469414861E-02  0.0000000000000E+00  0.1455472532774E-03
 0.6947294353624E-03 -0.7183671955568E-02  0.0000000000000E+00  0.7290089948236E-04
 0.6130489340616E-03 -0.6927498497673E-02  0.0000000000000E+00  0.4272953887619E-04
 0.5590386513620E-03 -0.6667057231756E-02  0.0000000000000E+00  0.6471366820082E-04
 0.5395354487913E-03 -0.6404145521563E-02  0.0000000000000E+00  0.1504220505003E-03
 0.5630633203574E-03 -0.6141865364303E-02  0.0000000000000E+00  0.3125439611320E-03
 0.6404411208560E-03 -0.5885188334330E-02  0.0000000000000E+00  0.5635955354191E-03
 0.7852695936994E-03 -0.5641458039384E-02  0.0000000000000E+00  0.9140099728959E-03
 0.1014261441413E-02 -0.5420657578440E-02  0.0000000000000E+00  0.1369751484271E-02
 0.1347447803260E-02 -0.5235400957126E-02  0.0000000000000E+00  0.1929487985515E-02
 0.1807706840096E-02 -0.5100884547571E-02  0.0000000000000E+00  0.2580047005478E-02
 0.2418772737151E-02 -0.5033951039445E-02  0.0000000000000E+00  0.3290466301961E-02
 0.3201370000353E-02 -0.5050337062778E-02  0.0000000000000E+00  0.4006962993364E-02
 0.4167222130081E-02 -0.5160088377652E-02  0.0000000000000E+00  0.4650578809741E-02
 0.5311477717130E-02 -0.5361563163222E-02  0.0000000000000E+00  0.5120465504809E-02
 0.6605366577425E-02 -0.5635536861292E-02  0.0000000000000E+00  0.5305702950686E-02
 0.7992407774014E-02 -0.5942029070150E-02  0.0000000000000E+00  0.5105826164587E-02
 0.9390401603479E-02 -0.6222723186790E-02  0.0000000000000E+00  0.4458061806021E-02
 0.1070085199643E-01 -0.6405987831188E-02  0.0000000000000E+00  0.3347914592811E-02
 0.1481403587606E-03 -0.9395346337658E-02  0.0000000000000E+00  0.3632400045469E-02
 0.4635496640614E-03 -0.9576158707815E-02  0.0000000000000E+00  0.3862684500190E-02
 0.7953741612377E-03 -0.9748225583009E-02  0.0000000000000E+00  0.3950237906191E-02
 0.1110613240707E-02 -0.9889653626494E-02  0.0000000000000E+00  0.3904442943873E-02
 0.1384996360020E-02 -0.9986626200131E-02  0.0000000000000E+00  0.3756885942364E-02
 0.1606636233675E-02 -0.1003538403733E-01  0.0000000000000E+00  0.3545766360799E-02
 0.1774018148650E-02 -0.1003975092809E-01  0.0000000000000E+00  0.3303853602561E-02
 0.1891791369708E-02 -0.1000726079569E-01  0.0000000000000E+00  0.3053497590800E-02
 0.1967022620256E-02 -0.9946061475243E-02  0.0000000000000E+00  0.2806931983505E-02
 0.2006840990964E-02 -0.9863203277099E-02  0.0000000000000E+00  0.2568868517315E-02
 0.2017324016527E-02 -0.9764016495750E-02  0.0000000000000E+00  0.2339339994819E-02
 0.2003161430996E-02 -0.9652087011645E-02  0.0000000000000E+00  0.2115966782674E-02
 0.1967710228230E-02 -0.9529468606879E-02  0.0000000000000E+00  0.1895549645488E-02
 0.1913222465204E-02 -0.9396952507396E-02  0.0000000000000E+00  0.1675164555708E-02
 0.1841163449679E-02 -0.9254347427216E-02  0.0000000000000E+00  0.1452955958743E-02
 0.1752598109197E-02 -0.9100765405430E-02  0.0000000000000E+00  0.1228698354602E-02
 0.1648651426155E-02 -0.8934955004342E-02  0.0000000000000E+00  0.1004132640558E-02
 0.1530998330913E-02 -0.8755671136331E-02  0.0000000000000E+00  0.7829792603608E-03
 0.1402259301450E-02 -0.8561991249934E-02  0.0000000000000E+00  0.5705303895587E-03
 0.1266219383110E-02 -0.8353642276192E-02  0.0000000000000E+00  0.3728108067240E-03
 0.1127963558697E-02 -0.8131800187836E-02  0.0000000000000E+00  0.1950871573068E-03
 0.9933959892335E-03 -0.7898899972258E-02  0.0000000000000E+00  0.4128025856387E-04
 0.8682818842540E-03 -0.7657116307691E-02  0.0000000000000E+00 -0.8470827700646E-04
 0.7578494539051E-03 -0.7407664119319E-02  0.0000000000000E+00 -0.1776005618460E-03
 0.6670208990022E-03 -0.7151049296632E-02  0.0000000000000E+00 -0.2299241340613E-03
 0.6009966697445E-03 -0.6887695454570E-02  0.0000000000000E+00 -0.2316987310855E-03
 0.5659914304827E-03 -0.6618650512260E-02  0.0000000000000E+00 -0.1706252311067E-03
 0.5699938204961E-03 -0.6346257753010E-02  0.0000000000000E+00 -0.3277806271279E-04
 0.6234873842171E-03 -0.6074784923244E-02  0.0000000000000E+00  0.1961837152287E-03
 0.7400925067668E-03 -0.5811026573114E-02  0.0000000000000E+00  0.5291966503511E-03
 0.9371206533091E-03 -0.5564720812230E-02  0.0000000000000E+00  0.9754804225299E-03
 0.1236103357351E-02 -0.5348760974841E-02  0.0000000000000E+00  0.1537688281674E-02
 0.1662738186756E-02 -0.5179509585160E-02  0.0000000000000E+00  0.2206928215160E-02
 0.2245263187885E-02 -0.5076252501544E-02  0.0000000000000E+00  0.2955682383201E-02
 0.3010628311364E-02 -0.5058587708442E-02  0.0000000000000E+00  0.3730932087329E-02
 0.3977861936708E-02 -0.5141447269969E-02  0.0000000000000E+00  0.4449419287718E-02
 0.5148826232693E-02 -0.5327878248632E-02  0.0000000000000E+00  0.4998863386826E-02
 0.6498308666853E-02 -0.5601089260295E-02  0.0000000000000E+00  0.5249419773187E-02
 0.7967188758505E-02 -0.5919089137025E-02  0.0000000000000E+00  0.5077750878452E-02
 0.9463644932873E-02 -0.6215379458651E-02  0.0000000000000E+00  0.4398387579035E-02
 0.1087783726029E-01 -0.6411378646842E-02  0.0000000000000E+00  0.3188334492144E-02
 0.1586859189531E-03 -0.9606665543755E-02  0.0000000000000E+00  0.3739841452557E-02
 0.4969670054269E-03 -0.9799556433113E-02  0.0000000000000E+00  0.3964483349298E-02
 0.8518193071755E-03 -0.9981233236245E-02  0.0000000000000E+00  0.4030046452807E-02
 0.1185204478878E-02 -0.1012679703102E-01  0.0000000000000E+00  0.3950632699487E-02
 0.1470634152816E-02 -0.1022181554411E-01  0.0000000000000E+00  0.3765781790444E-02
 0.1696792748691E-02 -0.1026398739385E-01  0.0000000000000E+00  0.3520410209143E-02
 0.1864160979178E-02 -0.1025939192902E-01  0.0000000000000E+00  0.3250791598310E-02
 0.1979526336319E-02 -0.1021757258045E-01  0.0000000000000E+00  0.2979931787455E-02
 0.2051598786756E-02 -0.1014802769423E-01  0.0000000000000E+00  0.2719095544757E-02
 0.2088540483891E-02 -0.1005853346028E-01  0.0000000000000E+00  0.2471446987267E-02
 0.2096971687979E-02 -0.9954715833751E-02  0.0000000000000E+00  0.2235470250239E-02
 0.2081793138865E-02 -0.9840209006903E-02  0.0000000000000E+00  0.2007447398326E-02
 0.2046359628977E-02 -0.9716984387479E-02  0.0000000000000E+00  0.1783073560383E-02
 0.1992775283801E-02 -0.9585674246014E-02  0.0000000000000E+00  0.1558513487819E-02
 0.1922243969365E-02 -0.9445864480977E-02  0.0000000000000E+00  0.1331166575146E-02
 0.1835477102019E-02 -0.9296376752964E-02  0.0000000000000E+00  0.1100238702828E-02
 0.1733189028347E-02 -0.9135605630145E-02  0.0000000000000E+00  0.8671210335639E-03
 0.1616648346764E-02 -0.8961915689511E-02  0.0000000000000E+00  0.6354359076388E-03
 0.1488147517194E-02 -0.8774003406809E-02  0.0000000000000E+00  0.4105915064025E-03
 0.1351270883918E-02 -0.8571269170327E-02  0.0000000000000E+00  0.1988082056429E-03
 0.1211032621221E-02 -0.8354674856400E-02  0.0000000000000E+00  0.5439248138117E-05
 0.1073301009968E-02 -0.8126516349309E-02  0.0000000000000E+00 -0.1657376411303E-03
 0.9436853558795E-03 -0.7888748435586E-02  0.0000000000000E+00 -0.3111507605571E-03
 0.8270511712310E-03 -0.7642185340214E-02  0.0000000000000E+00 -0.4258646055326E-03
 0.7277610518756E-03 -0.7386748485886E-02  0.0000000000000E+00 -0.5025603082772E-03
 0.6503293381925E-03 -0.7122140439514E-02  0.0000000000000E+00 -0.5310675657617E-03
 0.6002494545325E-03 -0.6848606628250E-02  0.0000000000000E+00 -0.4984556816857E-03
 0.5848456611028E-03 -0.6567651799082E-02  0.0000000000000E+00 -0.3896494072333E-03
 0.6140950523799E-03 -0.6282715440119E-02  0.0000000000000E+00 -0.1885386515110E-03
 0.7014135583205E-03 -0.5999854904739E-02  0.0000000000000E+00  0.1203450292689E-03
 0.8644387024066E-03 -0.5728300482436E-02  0.0000000000000E+00  0.5496881459747E-03
 0.1125922834884E-02 -0.5480900582779E-02  0.0000000000000E+00  0.1106665728934E-02
 0.1514210732500E-02 -0.5274873631364E-02  0.0000000000000E+00  0.1787673051710E-02
 0.2062180308369E-02 -0.5131809215372E-02  0.0000000000000E+00  0.2570157243390E-02
 0.2803707770284E-02 -0.5075415924912E-02  0.0000000000000E+00  0.3403675236976E-02
 0.3766579673927E-02 -0.5126342326163E-02  0.0000000000000E+00  0.4202123541827E-02
 0.4961509072754E-02 -0.5293707378769E-02  0.0000000000000E+00  0.4841764775790E-02
 0.6368959330347E-02 -0.5564658882152E-02  0.0000000000000E+00  0.5171378617277E-02
 0.7928423066635E-02 -0.5895766117273E-02  0.0000000000000E+00  0.5038928757023E-02
 0.9537481374279E-02 -0.6212440725394E-02  0.0000000000000E+00  0.4331583424152E-02
 0.1106862417046E-01 -0.6422520272490E-02  0.0000000000000E+00  0.3014814132322E-02
 0.1705466111465E-03 -0.9824964121530E-02  0.0000000000000E+00  0.3854738094719E-02
 0.5344906516194E-03 -0.1003119654105E-01  0.0000000000000E+00  0.4072336417859E-02
 0.9147128564049E-03 -0.1022295241368E-01  0.0000000000000E+00  0.4111821865995E-02
 0.1267150502442E-02 -0.1037183382244E-01  0.0000000000000E+00  0.3993724206866E-02
 0.1563083062654E-02 -0.1046306597707E-01  0.0000000000000E+00  0.3767508520919E-02
 0.1792371812515E-02 -0.1049646725563E-01  0.0000000000000E+00  0.3485760238353E-02
 0.1958139696279E-02 -0.1048093353234E-01  0.0000000000000E+00  0.3188152417108E-02
 0.2069710408179E-02 -0.1042828452794E-01  0.0000000000000E+00  0.2897757005686E-02
 0.2137583695139E-02 -0.1034939875488E-01  0.0000000000000E+00  0.2624276780907E-02
 0.2170954717725E-02 -0.1025269688302E-01  0.0000000000000E+00  0.2368923618619E-02
 0.2176932916288E-02 -0.1014399968527E-01  0.0000000000000E+00  0.2128416018776E-02
 0.2160573529555E-02 -0.1002691109006E-01  0.0000000000000E+00  0.1897602886331E-02
 0.2125187553824E-02 -0.9903273766707E-02  0.0000000000000E+00  0.1671036846161E-02
 0.2072704625672E-02 -0.9773542068886E-02  0.0000000000000E+00  0.1443947412726E-02
 0.2004047251903E-02 -0.9637076275959E-02  0.0000000000000E+00  0.1212952014034E-02
 0.1919548933139E-02 -0.9492407230938E-02  0.0000000000000E+00  0.9766319525598E-03
 0.1819477092870E-02 -0.9337565597947E-02  0.0000000000000E+00  0.7359673008920E-03
 0.1704649512130E-02 -0.9170502808836E-02  0.0000000000000E+00  0.4944412021641E-03
 0.1576994485729E-02 -0.8989506998774E-02  0.0000000000000E+00  0.2575736076239E-03
 0.1439886531056E-02 -0.8793633867167E-02  0.0000000000000E+00  0.3180009777309E-04
 0.1298291474659E-02 -0.8583630672604E-02  0.0000000000000E+00 -0.1774297101770E-03
 0.1158078336979E-02 -0.8361666989269E-02  0.0000000000000E+00 -0.3665151211795E-03
 0.1024722746410E-02 -0.8129489020303E-02  0.0000000000000E+00 -0.5323041317254E-03
 0.9027165858463E-03 -0.7887508207951E-02  0.0000000000000E+00 -0.6703271696895E-03
 0.7958173824695E-03 -0.7635044890008E-02  0.0000000000000E+00 -0.7735469839024E-03
 0.7077807534360E-03 -0.7371052985513E-02  0.0000000000000E+00 -0.8317235008619E-03
 0.6432829436597E-03 -0.7094935397927E-02  0.0000000000000E+00 -0.8314124704241E-03
 0.6088573414234E-03 -0.6807293645614E-02  0.0000000000000E+00 -0.7565129458396E-03
 0.6137990533576E-03 -0.6510626310753E-02  0.0000000000000E+00 -0.5892653283419E-03
 0.6710730434019E-03 -0.6210064117931E-02  0.0000000000000E+00 -0.3117339234916E-03
 0.7983148893779E-03 -0.5914038010968E-02  0.0000000000000E+00  0.9233394159286E-04
 0.1019115164154E-02 -0.5634953931792E-02  0.0000000000000E+00  0.6350752874538E-03
 0.1364139696920E-02 -0.5390445819054E-02  0.0000000000000E+00  0.1319171281037E-02
 0.1870868407618E-02 -0.5204093234653E-02  0.0000000000000E+00  0.2128741943650E-02
 0.2580697156785E-02 -0.5103808692122E-02  0.0000000000000E+00  0.3018216351801E-02
 0.3531742740702E-02 -0.5116770848242E-02  0.0000000000000E+00  0.3900845005974E-02
 0.4746159965051E-02 -0.5259819036094E-02  0.0000000000000E+00  0.4642173877335E-02
 0.6213088359631E-02 -0.5526041142449E-02  0.0000000000000E+00  0.5067085895346E-02
 0.7872530681814E-02 -0.5871954632042E-02  0.0000000000000E+00  0.4988620345386E-02
 0.9610329980757E-02 -0.6213726447998E-02  0.0000000000000E+00  0.4258525052764E-02
 0.1127481001836E-01 -0.6441408878270E-02  0.0000000000000E+00  0.2825384852595E-02
 0.1839777357079E-03 -0.1005130210762E-01  0.0000000000000E+00  0.3977950992612E-02
 0.5768869885376E-03 -0.1027232005274E-01  0.0000000000000E+00  0.4186639591975E-02
 0.9851121689656E-03 -0.1047453218285E-01  0.0000000000000E+00  0.4194901924949E-02
 0.1357376935158E-02 -0.1062549217935E-01  0.0000000000000E+00  0.4032071228001E-02
 0.1662865729333E-02 -0.1071055781654E-01  0.0000000000000E+00  0.3760004641783E-02
 0.1893472878792E-02 -0.1073255385880E-01  0.0000000000000E+00  0.3439904515306E-02
 0.2055754057422E-02 -0.1070384482888E-01  0.0000000000000E+00  0.3114466595606E-02
 0.2161984877683E-02 -0.1063876670259E-01  0.0000000000000E+00  0.2805988441539E-02
 0.2224559372005E-02 -0.1054954030613E-01  0.0000000000000E+00  0.2521893127503E-02
 0.2253658247192E-02 -0.1044509205396E-01  0.0000000000000E+00  0.2261011226103E-02
 0.2256794403705E-02 -0.1033130287490E-01  0.0000000000000E+00  0.2018100750915E-02
 0.2239104905253E-02 -0.1021165310491E-01  0.0000000000000E+00  0.1786516400708E-02
 0.2203810577352E-02 -0.1008780767922E-01  0.0000000000000E+00  0.1559662199332E-02
 0.2152642453300E-02 -0.9960028967778E-02  0.0000000000000E+00  0.1331830911338E-02
 0.2086228035654E-02 -0.9827458340216E-02  0.0000000000000E+00  0.1098832399347E-02
 0.2004504789350E-02 -0.9688346362386E-02  0.0000000000000E+00  0.8585657096565E-03
 0.1907259008937E-02 -0.9540358173123E-02  0.0000000000000E+00  0.6115258770392E-03
 0.1794808969823E-02 -0.9381011466379E-02  0.0000000000000E+00  0.3610010018968E-03
 0.1668675298358E-02 -0.9208155275086E-02  0.0000000000000E+00  0.1126127899213E-03
 0.1532010044936E-02 -0.9020477855156E-02  0.0000000000000E+00 -0.1269616950907E-03
 0.1389757659123E-02 -0.8818509437606E-02  0.0000000000000E+00 -0.3521551647871E-03
 0.1247834236548E-02 -0.8604307312407E-02  0.0000000000000E+00 -0.5595721564782E-03
 0.1111612577622E-02 -0.8379422943403E-02  0.0000000000000E+00 -0.7465734155493E-03
 0.9852042960367E-03 -0.8143866067862E-02  0.0000000000000E+00 -0.9092854752668E-03
 0.8717181932343E-03 -0.7896345091976E-02  0.0000000000000E+00 -0.1041085781300E-02
 0.7740816944046E-03 -0.7635048733701E-02  0.0000000000000E+00 -0.1131790405786E-02
 0.6960645772773E-03 -0.7358514712588E-02  0.0000000000000E+00 -0.1167574298620E-02
 0.6432914972333E-03 -0.7066398704739E-02  0.0000000000000E+00 -0.1131470426478E-02
 0.6242041529056E-03 -0.6760167365318E-02  0.0000000000000E+00 -0.1004258052957E-02
 0.6510571102110E-03 -0.6443846416665E-02  0.0000000000000E+00 -0.7657088562696E-03
 0.7411071866623E-03 -0.6124759797764E-02  0.0000000000000E+00 -0.3960522262150E-03
 0.9182927255332E-03 -0.5814406250613E-02  0.0000000000000E+00  0.1220949203123E-03
 0.1215091355608E-02 -0.5530252046138E-02  0.0000000000000E+00  0.7986102468900E-03
 0.1673305341100E-02 -0.5297330866316E-02  0.0000000000000E+00  0.1626116435306E-02
 0.2342236939684E-02 -0.5147607168373E-02  0.0000000000000E+00  0.2566712967830E-02
 0.3271927563739E-02 -0.5115491443729E-02  0.0000000000000E+00  0.3536160426367E-02
 0.4499076564430E-02 -0.5227417615733E-02  0.0000000000000E+00  0.4391110297487E-02
 0.6025539096982E-02 -0.5485128666357E-02  0.0000000000000E+00  0.4930568381888E-02
 0.7794868244602E-02 -0.5847130409030E-02  0.0000000000000E+00  0.4925197288429E-02
 0.9680170626056E-02 -0.6219452102956E-02  0.0000000000000E+00  0.4180358418709E-02
 0.1149893756840E-01 -0.6468956739893E-02  0.0000000000000E+00  0.2617786802679E-02
 0.1993091902755E-03 -0.1028698495192E-01  0.0000000000000E+00  0.4110488271086E-02
 0.6251288910390E-03 -0.1052444391188E-01  0.0000000000000E+00  0.4307758517754E-02
 0.1064307311806E-02 -0.1073732006950E-01  0.0000000000000E+00  0.4278273241652E-02
 0.1456934096645E-02 -0.1088853457454E-01  0.0000000000000E+00  0.4063496047912E-02
 0.1770490984923E-02 -0.1096436145607E-01  0.0000000000000E+00  0.3740735397919E-02
 0.2000098049623E-02 -0.1097180622628E-01  0.0000000000000E+00  0.3380640983401E-02
 0.2156688077690E-02 -0.1092743304294E-01  0.0000000000000E+00  0.3028147120106E-02
 0.2255893303528E-02 -0.1084826696099E-01  0.0000000000000E+00  0.2703628680764E-02
 0.2312037127175E-02 -0.1074773623034E-01  0.0000000000000E+00  0.2411392301217E-02
 0.2336177334224E-02 -0.1063506530945E-01  0.0000000000000E+00  0.2147458339912E-02
 0.2336108745800E-02 -0.1051602548668E-01  0.0000000000000E+00  0.1904471880194E-02
 0.2316961864197E-02 -0.1039386734686E-01  0.0000000000000E+00  0.1674278345126E-02
 0.2281817720684E-02 -0.1027002863279E-01  0.0000000000000E+00  0.1449164923090E-02
 0.2232188991878E-02 -0.1014457260785E-01  0.0000000000000E+00  0.1222513528025E-02
 0.2168403322545E-02 -0.1001644049825E-01  0.0000000000000E+00  0.9893156928993E-03
 0.2089993340880E-02 -0.9883627545275E-02  0.0000000000000E+00  0.7467297040748E-03
 0.1996234514363E-02 -0.9743443626816E-02  0.0000000000000E+00  0.4946757187851E-03
 0.1886892919833E-02 -0.9592956383576E-02  0.0000000000000E+00  0.2361696323726E-03
 0.1763028422948E-02 -0.9429541039769E-02  0.0000000000000E+00 -0.2308651097668E-04
 0.1627551903807E-02 -0.9251488709344E-02  0.0000000000000E+00 -0.2761423378880E-03
 0.1485417236161E-02 -0.9059105815103E-02  0.0000000000000E+00 -0.5172777450153E-03
 0.1342644575654E-02 -0.8854350676283E-02  0.0000000000000E+00 -0.7433225854193E-03
 0.1204544122598E-02 -0.8638594781416E-02  0.0000000000000E+00 -0.9522450575574E-03
 0.1074844746378E-02 -0.8411449296765E-02  0.0000000000000E+00 -0.1140901808261E-02
 0.9559646326517E-03 -0.8171005872851E-02  0.0000000000000E+00 -0.1303217942169E-02
 0.8499381004094E-03 -0.7914684817737E-02  0.0000000000000E+00 -0.1429190485840E-02
 0.7595496453026E-03 -0.7640158049139E-02  0.0000000000000E+00 -0.1504754409139E-02
 0.6894128890877E-03 -0.7346122395308E-02  0.0000000000000E+00 -0.1512267287184E-02
 0.6469592686530E-03 -0.7032954436452E-02  0.0000000000000E+00 -0.1431305482918E-02
 0.6434738733332E-03 -0.6703423115145E-02  0.0000000000000E+00 -0.1239645868464E-02
 0.6954218891715E-03 -0.6363440199549E-02  0.0000000000000E+00 -0.9142305890467E-03
 0.8264948364354E-03 -0.6023081274675E-02  0.0000000000000E+00 -0.4323709532934E-03
 0.1070267064980E-02 -0.5698917465235E-02  0.0000000000000E+00  0.2237232540632E-03
 0.1472268766569E-02 -0.5416633824735E-02  0.0000000000000E+00  0.1057009803478E-02
 0.2089751542145E-02 -0.5211740214736E-02  0.0000000000000E+00  0.2040521276053E-02
 0.2986148402762E-02 -0.5126312558130E-02  0.0000000000000E+00  0.3096819886945E-02
 0.4216279937505E-02 -0.5198404987613E-02  0.0000000000000E+00  0.4077100377401E-02
 0.5800077512973E-02 -0.5441922560359E-02  0.0000000000000E+00  0.4753565017191E-02
 0.7689386735130E-02 -0.5820551765222E-02  0.0000000000000E+00  0.4845957237773E-02
 0.9744402128963E-02 -0.6229635495529E-02  0.0000000000000E+00  0.4097977673457E-02
 0.1174402497638E-01 -0.6506474577986E-02  0.0000000000000E+00  0.2389932951827E-02
 0.2169735172133E-03 -0.1053364195494E-01  0.0000000000000E+00  0.4253541459600E-02
 0.6804646248049E-03 -0.1078944098608E-01  0.0000000000000E+00  0.4435983246286E-02
 0.1153876651356E-02 -0.1101289419726E-01  0.0000000000000E+00  0.4360415923789E-02
 0.1566996406872E-02 -0.1116172374674E-01  0.0000000000000E+00  0.4085123728079E-02
 0.1886412652035E-02 -0.1122437122299E-01  0.0000000000000E+00  0.3706605860865E-02
 0.2112106464229E-02 -0.1121355475616E-01  0.0000000000000E+00  0.3305473070897E-02
 0.2260479934485E-02 -0.1115081096363E-01  0.0000000000000E+00  0.2927525751184E-02
 0.2350868052747E-02 -0.1105589917228E-01  0.0000000000000E+00  0.2589709122380E-02
 0.2399454637688E-02 -0.1094318844080E-01  0.0000000000000E+00  0.2292283807774E-02
 0.2417992053872E-02 -0.1082191552561E-01  0.0000000000000E+00  0.2028068746452E-02
 0.2414398342304E-02 -0.1069753907256E-01  0.0000000000000E+00  0.1787510425251E-02
 0.2393695333487E-02 -0.1057296465536E-01  0.0000000000000E+00  0.1560988152862E-02
 0.2358773521617E-02 -0.1044935566149E-01  0.0000000000000E+00  0.1339748345061E-02
 0.2310913865311E-02 -0.1032657807754E-01  0.0000000000000E+00  0.1116320211900E-02
 0.2250150775601E-02 -0.1020340627965E-01  0.0000000000000E+00  0.8848854154991E-03
 0.2175616262948E-02 -0.1007762346533E-01  0.0000000000000E+00  0.6418042945016E-03
 0.2086053300938E-02 -0.9946211214173E-02  0.0000000000000E+00  0.3863132915665E-03
 0.1980620006267E-02 -0.9805778445991E-02  0.0000000000000E+00  0.1210492188480E-03
 0.1859850237211E-02 -0.9653187827507E-02  0.0000000000000E+00 -0.1482468131441E-03
 0.1726385393542E-02 -0.9486293742160E-02  0.0000000000000E+00 -0.4143166298581E-03
 0.1585222041680E-02 -0.9305164039769E-02  0.0000000000000E+00 -0.6712361970533E-03
 0.1442552742279E-02 -0.9111667518566E-02  0.0000000000000E+00 -0.9160699251059E-03
 0.1303675157966E-02 -0.8907008647145E-02  0.0000000000000E+00 -0.1147487642867E-02
 0.1171936467489E-02 -0.8690403343141E-02  0.0000000000000E+00 -0.1363209841558E-02
 0.1049023703619E-02 -0.8459327777942E-02  0.0000000000000E+00 -0.1557834959894E-02
 0.9360190688482E-03 -0.8210446543786E-02  0.0000000000000E+00 -0.1721655855881E-02
 0.8346574320333E-03 -0.7940592144211E-02  0.0000000000000E+00 -0.1840507587765E-02
 0.7484621214034E-03 -0.7647526949104E-02  0.0000000000000E+00 -0.1896286522593E-02
 0.6837240812648E-03 -0.7330524292718E-02  0.0000000000000E+00 -0.1867690661053E-02
 0.6505172408377E-03 -0.6990989418163E-02  0.0000000000000E+00 -0.1730930302042E-02
 0.6640862956135E-03 -0.6633144344783E-02  0.0000000000000E+00 -0.1460103569986E-02
 0.7471927449020E-03 -0.6265102712640E-02  0.0000000000000E+00 -0.1027452538742E-02
 0.9335780323318E-03 -0.5901685266722E-02  0.0000000000000E+00 -0.4068852794147E-03
 0.1271520677678E-02 -0.5568128538769E-02  0.0000000000000E+00  0.4165422290128E-03
 0.1825751373701E-02 -0.5302502023268E-02  0.0000000000000E+00  0.1430381957780E-02
 0.2674189757843E-02 -0.5154491372842E-02  0.0000000000000E+00  0.2569557151765E-02
 0.3893689593346E-02 -0.5175745914404E-02  0.0000000000000E+00  0.3685472200006E-02
 0.5529217801711E-02 -0.5396738454344E-02  0.0000000000000E+00  0.4524596566210E-02
 0.7548215434300E-02 -0.5791196174197E-02  0.0000000000000E+00  0.4746403480298E-02
 0.9799482073224E-02 -0.6244244682298E-02  0.0000000000000E+00  0.4012216119234E-02
 0.1201378090541E-01 -0.6555695472357E-02  0.0000000000000E+00  0.2139681472603E-02
 0.2375473115758E-03 -0.1079333749384E-01  0.0000000000000E+00  0.4408532448627E-02
 0.7445142763443E-03 -0.1106964772050E-01  0.0000000000000E+00  0.4571448835711E-02
 0.1255753825016E-02 -0.1130309355560E-01  0.0000000000000E+00  0.4439073985967E-02
 0.1688846210398E-02 -0.1144576012830E-01  0.0000000000000E+00  0.4093166007831E-02
 0.2010965306619E-02 -0.1149021032189E-01  0.0000000000000E+00  0.3653872989587E-02
 0.2229154942073E-02 -0.1145683006065E-01  0.0000000000000E+00  0.3211630122101E-02
 0.2366488704831E-02 -0.1137286324625E-01  0.0000000000000E+00  0.2810913185094E-02
 0.2446218773482E-02 -0.1126063513077E-01  0.0000000000000E+00  0.2463345182846E-02
 0.2486175917565E-02 -0.1113502059628E-01  0.0000000000000E+00  0.2164176421504E-02
 0.2498540805145E-02 -0.1100490179019E-01  0.0000000000000E+00  0.1902723101263E-02
 0.2491161147853E-02 -0.1087519503275E-01  0.0000000000000E+00  0.1667241032671E-02
 0.2468838110261E-02 -0.1074834227846E-01  0.0000000000000E+00  0.1446755710086E-02
 0.2434222443218E-02 -0.1062519091771E-01  0.0000000000000E+00  0.1231598097620E-02
 0.2388358333309E-02 -0.1050542213236E-01  0.0000000000000E+00  0.1013539482882E-02
 0.2331007651023E-02 -0.1038769330191E-01  0.0000000000000E+00  0.7859847827792E-03
 0.2260923348760E-02 -0.1026964139204E-01  0.0000000000000E+00  0.5444447123568E-03
 0.2176307258787E-02 -0.1014796966023E-01  0.0000000000000E+00  0.2873421179911E-03
 0.2075652931385E-02 -0.1001883266549E-01  0.0000000000000E+00  0.1678784354245E-04
 0.1958888111493E-02 -0.9878538645977E-02  0.0000000000000E+00 -0.2615114691952E-03
 0.1828341996179E-02 -0.9724452234993E-02  0.0000000000000E+00 -0.5399584939052E-03
 0.1689087202882E-02 -0.9556374779294E-02  0.0000000000000E+00 -0.8123568045161E-03
 0.1547568665755E-02 -0.9376086164076E-02  0.0000000000000E+00 -0.1076000814128E-02
 0.1409131314893E-02 -0.9184630569500E-02  0.0000000000000E+00 -0.1330352600666E-02
 0.1276743866546E-02 -0.8980829279115E-02  0.0000000000000E+00 -0.1574123790156E-02
 0.1151322226486E-02 -0.8761550418056E-02  0.0000000000000E+00 -0.1802694638923E-02
 0.1032944782128E-02 -0.8522734599325E-02  0.0000000000000E+00 -0.2006747683102E-02
 0.9222510192113E-03 -0.8260433635048E-02  0.0000000000000E+00 -0.2172146741201E-02
 0.8216253810008E-03 -0.7971544838977E-02  0.0000000000000E+00 -0.2280554171385E-02
 0.7361277460908E-03 -0.7654282197324E-02  0.0000000000000E+00 -0.2310171319855E-02
 0.6744169241893E-03 -0.7308645183677E-02  0.0000000000000E+00 -0.2236199109839E-02
 0.6501000088496E-03 -0.6936947169972E-02  0.0000000000000E+00 -0.2030567185029E-02
 0.6842671476938E-03 -0.6544820821209E-02  0.0000000000000E+00 -0.1661046422317E-02
 0.8096967314268E-03 -0.6144395960135E-02  0.0000000000000E+00 -0.1093330333644E-02
 0.1075999224072E-02 -0.5759064150048E-02  0.0000000000000E+00 -0.2992767688290E-03
 0.1554207858508E-02 -0.5427869591586E-02  0.0000000000000E+00  0.7268070692321E-03
 0.2337093180437E-02 -0.5207261182795E-02  0.0000000000000E+00  0.1939011408272E-02
 0.3527462451445E-02 -0.5164043775887E-02  0.0000000000000E+00  0.3197539467298E-02
 0.5204090600604E-02 -0.5350541631991E-02  0.0000000000000E+00  0.4227619434806E-02
 0.7361056143954E-02 -0.5757786572794E-02  0.0000000000000E+00  0.4619260738189E-02
 0.9840380488330E-02 -0.6263134101346E-02  0.0000000000000E+00  0.3923865320937E-02
 0.1231286466552E-01 -0.6618886229205E-02  0.0000000000000E+00  0.1864654742748E-02
 0.2618138052009E-03 -0.1106873230504E-01  0.0000000000000E+00  0.4577174186970E-02
 0.8194064556740E-03 -0.1136801037855E-01  0.0000000000000E+00  0.4713996349571E-02
 0.1372305233810E-02 -0.1161003764838E-01  0.0000000000000E+00  0.4510913561926E-02
 0.1823829017556E-02 -0.1174117250637E-01  0.0000000000000E+00  0.4082644309423E-02
 0.2144267323294E-02 -0.1176109677394E-01  0.0000000000000E+00  0.3578071461085E-02
 0.2350623491720E-02 -0.1170027839484E-01  0.0000000000000E+00  0.3096129031829E-02
 0.2473860432815E-02 -0.1159221543852E-01  0.0000000000000E+00  0.2676690248424E-02
 0.2541125111133E-02 -0.1146130296493E-01  0.0000000000000E+00  0.2323806090150E-02
 0.2571495352332E-02 -0.1132228699342E-01  0.0000000000000E+00  0.2026820650194E-02
 0.2577227696487E-02 -0.1118325449118E-01  0.0000000000000E+00  0.1771401740479E-02
 0.2565878448302E-02 -0.1104833532656E-01  0.0000000000000E+00  0.1543742001912E-02
 0.2541912039430E-02 -0.1091939361283E-01  0.0000000000000E+00  0.1331702314428E-02
 0.2507694827536E-02 -0.1079692810862E-01  0.0000000000000E+00  0.1124875340023E-02
 0.2464038971320E-02 -0.1068045933455E-01  0.0000000000000E+00  0.9144092668897E-03
 0.2410470642958E-02 -0.1056859515280E-01  0.0000000000000E+00  0.6929966446085E-03
 0.2345407366176E-02 -0.1045891869726E-01  0.0000000000000E+00  0.4552597188728E-03
 0.2266521063518E-02 -0.1034793594071E-01  0.0000000000000E+00  0.1986573222459E-03
 0.2171587625454E-02 -0.1023137286073E-01  0.0000000000000E+00 -0.7542439142230E-04
 0.2059831323350E-02 -0.1010494120466E-01  0.0000000000000E+00 -0.3614368459717E-03
 0.1933205673088E-02 -0.9965445468345E-02  0.0000000000000E+00 -0.6514259406958E-03
 0.1796888921093E-02 -0.9812372052980E-02  0.0000000000000E+00 -0.9388374700111E-03
 0.1657669387197E-02 -0.9647395904076E-02  0.0000000000000E+00 -0.1221174589914E-02
 0.1521007745936E-02 -0.9471394403045E-02  0.0000000000000E+00 -0.1498774317076E-02
 0.1389497286412E-02 -0.9282787821340E-02  0.0000000000000E+00 -0.1771450795561E-02
 0.1263242318413E-02 -0.9077850204751E-02  0.0000000000000E+00 -0.2035443560238E-02
 0.1141274822863E-02 -0.8851853313424E-02  0.0000000000000E+00 -0.2281884070210E-02
 0.1023116027474E-02 -0.8600165277958E-02  0.0000000000000E+00 -0.2496770499935E-02
 0.9100008070851E-03 -0.8318939704637E-02  0.0000000000000E+00 -0.2661758873701E-02
 0.8057200757267E-03 -0.8005443038236E-02  0.0000000000000E+00 -0.2754977664870E-02
 0.7173738098276E-03 -0.7658311819715E-02  0.0000000000000E+00 -0.2751291893517E-02
 0.6565609207247E-03 -0.7277826012673E-02  0.0000000000000E+00 -0.2621373967495E-02
 0.6419479204126E-03 -0.6866694911084E-02  0.0000000000000E+00 -0.2329531126056E-02
 0.7040658285272E-03 -0.6433406726625E-02  0.0000000000000E+00 -0.1833954704414E-02
 0.8919941842143E-03 -0.5997868882755E-02  0.0000000000000E+00 -0.1092856912318E-02
 0.1280997883739E-02 -0.5597836092625E-02  0.0000000000000E+00 -0.7923627609846E-04
 0.1977846107829E-02 -0.5294517110610E-02  0.0000000000000E+00  0.1187904059871E-02
 0.3114602759329E-02 -0.5170406664641E-02  0.0000000000000E+00  0.2589710499479E-02
 0.4814421251109E-02 -0.5305556164367E-02  0.0000000000000E+00  0.3840155980493E-02
 0.7114333049757E-02 -0.5718848499352E-02  0.0000000000000E+00  0.4452863293375E-02
 0.9859731933953E-02 -0.6285906478395E-02  0.0000000000000E+00  0.3833458693359E-02
 0.1264727866265E-01 -0.6699031149686E-02  0.0000000000000E+00  0.1562096151634E-02
 0.2908599275977E-03 -0.1136332346455E-01  0.0000000000000E+00  0.4761548703073E-02
 0.9079744317309E-03 -0.1168828486496E-01  0.0000000000000E+00  0.4862927932819E-02
 0.1506412545289E-02 -0.1193611690103E-01  0.0000000000000E+00  0.4571010720426E-02
 0.1973258327730E-02 -0.1204813288050E-01  0.0000000000000E+00  0.4047045711322E-02
 0.2286078964978E-02 -0.1203565889117E-01  0.0000000000000E+00  0.3473982175115E-02
 0.2475526574604E-02 -0.1194206771904E-01  0.0000000000000E+00  0.2955900067443E-02
 0.2581498225692E-02 -0.1180721216813E-01  0.0000000000000E+00  0.2523436705333E-02
 0.2634636698776E-02 -0.1165659543541E-01  0.0000000000000E+00  0.2170598135947E-02
 0.2654646977331E-02 -0.1150398777770E-01  0.0000000000000E+00  0.1880154205142E-02
 0.2653433160681E-02 -0.1135619011048E-01  0.0000000000000E+00  0.1634207476613E-02
 0.2638024746334E-02 -0.1121630553127E-01  0.0000000000000E+00  0.1417154739941E-02
 0.2612436870987E-02 -0.1108551979599E-01  0.0000000000000E+00  0.1215961112781E-02
 0.2578714557904E-02 -0.1096396289354E-01  0.0000000000000E+00  0.1019709195376E-02
 0.2537453187611E-02 -0.1085103050633E-01  0.0000000000000E+00  0.8191006239568E-03
 0.2487997188787E-02 -0.1074536547421E-01  0.0000000000000E+00  0.6062187564100E-03
 0.2428498992262E-02 -0.1064461918202E-01  0.0000000000000E+00  0.3747830549803E-03
 0.2356140809790E-02 -0.1054522220503E-01  0.0000000000000E+00  0.1211228909189E-03
 0.2267939038042E-02 -0.1044253191194E-01  0.0000000000000E+00 -0.1543629797186E-03
 0.2162298688250E-02 -0.1033162796377E-01  0.0000000000000E+00 -0.4464826307979E-03
 0.2040705272491E-02 -0.1020866322978E-01  0.0000000000000E+00 -0.7469396077091E-03
 0.1908462412429E-02 -0.1007272988814E-01  0.0000000000000E+00 -0.1048723760388E-02
 0.1772801750465E-02 -0.9925353073810E-02  0.0000000000000E+00 -0.1349506778632E-02
 0.1639374049157E-02 -0.9767212508356E-02  0.0000000000000E+00 -0.1650568813647E-02
 0.1510396208367E-02 -0.9596307914891E-02  0.0000000000000E+00 -0.1952907077181E-02
 0.1385118959776E-02 -0.9408341135842E-02  0.0000000000000E+00 -0.2253647149151E-02
 0.1261497263151E-02 -0.9198000261954E-02  0.0000000000000E+00 -0.2544377804779E-02
 0.1137938831152E-02 -0.8960112178772E-02  0.0000000000000E+00 -0.2811302860051E-02
 0.1014562391522E-02 -0.8690265760480E-02  0.0000000000000E+00 -0.3036287324101E-02
 0.8939162333235E-03 -0.8384967549103E-02  0.0000000000000E+00 -0.3197831961944E-02
 0.7814809457497E-03 -0.8041636587883E-02  0.0000000000000E+00 -0.3271229554960E-02
 0.6865631297376E-03 -0.7658525644001E-02  0.0000000000000E+00 -0.3227023009537E-02
 0.6247057700530E-03 -0.7235123484571E-02  0.0000000000000E+00 -0.3027488408027E-02
 0.6228401012976E-03 -0.6775427090091E-02  0.0000000000000E+00 -0.2624772168241E-02
 0.7272671356222E-03 -0.6294108919757E-02  0.0000000000000E+00 -0.1964118006856E-02
 0.1014390774435E-02 -0.5824710273376E-02  0.0000000000000E+00 -0.9952206306382E-03
 0.1602320826727E-02 -0.5429665183769E-02  0.0000000000000E+00  0.2976932422764E-03
 0.2654000808732E-02 -0.5205735002047E-02  0.0000000000000E+00  0.1832680516812E-02
 0.4348774519402E-02 -0.5266337522016E-02  0.0000000000000E+00  0.3330715047356E-02
 0.6790052403847E-02 -0.5672907337551E-02  0.0000000000000E+00  0.4228441327481E-02
 0.9846472302966E-02 -0.6311685612539E-02  0.0000000000000E+00  0.3740640211316E-02
 0.1302493122123E-01 -0.6800142989365E-02  0.0000000000000E+00  0.1228776983518E-02
 0.3262311527769E-03 -0.1168181210941E-01  0.0000000000000E+00  0.4964205421038E-02
 0.1014040550630E-02 -0.1203530993466E-01  0.0000000000000E+00  0.5016569961202E-02
 0.1661544040251E-02 -0.1228391535728E-01  0.0000000000000E+00  0.4612080478297E-02
 0.2138234034869E-02 -0.1236615010024E-01  0.0000000000000E+00  0.3977920714755E-02
 0.2435601941772E-02 -0.1231169046852E-01  0.0000000000000E+00  0.3335696116145E-02
 0.2602416041015E-02 -0.1217979573909E-01  0.0000000000000E+00  0.2788006324025E-02
 0.2688044159391E-02 -0.1201591424244E-01  0.0000000000000E+00  0.2350100623640E-02
 0.2725683981986E-02 -0.1184509178494E-01  0.0000000000000E+00  0.2003557042260E-02
 0.2734820024491E-02 -0.1167909142092E-01  0.0000000000000E+00  0.1724347330857E-02
 0.2726528047224E-02 -0.1152292996789E-01  0.0000000000000E+00  0.1491386737201E-02
 0.2707079789079E-02 -0.1137847029265E-01  0.0000000000000E+00  0.1287691865693E-02
 0.2679940810452E-02 -0.1124614318353E-01  0.0000000000000E+00  0.1099676877155E-02
 0.2646808606351E-02 -0.1112570545424E-01  0.0000000000000E+00  0.9161887725488E-03
 0.2608087112275E-02 -0.1101647414597E-01  0.0000000000000E+00  0.7276998853866E-03
 0.2563009135636E-02 -0.1091722546168E-01  0.0000000000000E+00  0.5258341330959E-03
 0.2509562625594E-02 -0.1082583154232E-01  0.0000000000000E+00  0.3034356871663E-03
 0.2444520661794E-02 -0.1073882128283E-01  0.0000000000000E+00  0.5553822171778E-04
 0.2364122484604E-02 -0.1065129650930E-01  0.0000000000000E+00 -0.2187831586668E-03
 0.2265821415870E-02 -0.1055768896279E-01  0.0000000000000E+00 -0.5150005906831E-03
 0.2150504018469E-02 -0.1045338519754E-01  0.0000000000000E+00 -0.8245524346718E-03
 0.2023599994185E-02 -0.1033695869262E-01  0.0000000000000E+00 -0.1139873142812E-02
 0.1892888275983E-02 -0.1020969177366E-01  0.0000000000000E+00 -0.1458743503720E-02
 0.1764284057557E-02 -0.1007199363335E-01  0.0000000000000E+00 -0.1783430212690E-02
 0.1639617035377E-02 -0.9921402049407E-02  0.0000000000000E+00 -0.2116139182812E-02
 0.1517240548468E-02 -0.9753080060371E-02  0.0000000000000E+00 -0.2454829567559E-02
 0.1394019096742E-02 -0.9561258165795E-02  0.0000000000000E+00 -0.2791485869251E-02
 0.1267285052504E-02 -0.9340419240265E-02  0.0000000000000E+00 -0.3112546191709E-02
 0.1136122922318E-02 -0.9085827885263E-02  0.0000000000000E+00 -0.3400277542086E-02
 0.1001937105154E-02 -0.8793497067584E-02  0.0000000000000E+00 -0.3633994762500E-02
 0.8686321257460E-03 -0.8459888409542E-02  0.0000000000000E+00 -0.3790231404538E-02
 0.7430663362514E-03 -0.8081398419766E-02  0.0000000000000E+00 -0.3840697802385E-02
 0.6370874143906E-03 -0.7654218046751E-02  0.0000000000000E+00 -0.3747464279348E-02
 0.5727336203238E-03 -0.7177248191185E-02  0.0000000000000E+00 -0.3458887463526E-02
 0.5910575258219E-03 -0.6658289973301E-02  0.0000000000000E+00 -0.2909371247423E-02
 0.7655097724857E-03 -0.6123288415652E-02  0.0000000000000E+00 -0.2025402074370E-02
 0.1220485855824E-02 -0.5630593149699E-02  0.0000000000000E+00 -0.7499498874593E-03
 0.2148126322460E-02 -0.5286587313124E-02  0.0000000000000E+00  0.8910615209519E-03
 0.3795380692622E-02 -0.5241658167002E-02  0.0000000000000E+00  0.2655346354733E-02
 0.6364362512939E-02 -0.5619060717616E-02  0.0000000000000E+00  0.3915541924825E-02
 0.9783571877493E-02 -0.6338765253906E-02  0.0000000000000E+00  0.3642658388655E-02
 0.1345644178196E-01 -0.6927777878144E-02  0.0000000000000E+00  0.8609535545849E-03
 0.3701861923132E-03 -0.1203068610703E-01  0.0000000000000E+00  0.5188278624724E-02
 0.1142831826151E-02 -0.1241537690078E-01  0.0000000000000E+00  0.5171480228732E-02
 0.1841774903207E-02 -0.1265598665299E-01  0.0000000000000E+00  0.4623315920574E-02
 0.2319316234531E-02 -0.1269357303479E-01  0.0000000000000E+00  0.3864470948588E-02
 0.2591209641881E-02 -0.1258584506931E-01  0.0000000000000E+00  0.3156864317865E-02
 0.2729290982582E-02 -0.1241042341962E-01  0.0000000000000E+00  0.2589988737252E-02
 0.2791884053203E-02 -0.1221612693994E-01  0.0000000000000E+00  0.2156202678129E-02
 0.2813103044372E-02 -0.1202529566939E-01  0.0000000000000E+00  0.1822941334266E-02
 0.2811181164783E-02 -0.1184656459725E-01  0.0000000000000E+00  0.1559844281824E-02
 0.2795891116995E-02 -0.1168272265749E-01  0.0000000000000E+00  0.1343347362041E-02
 0.2772542509135E-02 -0.1153423075428E-01  0.0000000000000E+00  0.1155643291352E-02
 0.2743972521139E-02 -0.1140072229032E-01  0.0000000000000E+00  0.9830052115125E-03
 0.2711518386397E-02 -0.1128159495809E-01  0.0000000000000E+00  0.8143555727942E-03
 0.2675426236905E-02 -0.1117614102293E-01  0.0000000000000E+00  0.6401904984684E-03
 0.2634899801854E-02 -0.1108337589045E-01  0.0000000000000E+00  0.4518771404715E-03
 0.2587894250379E-02 -0.1100157159984E-01  0.0000000000000E+00  0.2414770038963E-03
 0.2530907618117E-02 -0.1092759134469E-01  0.0000000000000E+00  0.2589333636893E-05
 0.2459428911522E-02 -0.1085647449609E-01  0.0000000000000E+00 -0.2674451205128E-03
 0.2369818584844E-02 -0.1078203359576E-01  0.0000000000000E+00 -0.5652226316453E-03
 0.2262183962634E-02 -0.1069875369742E-01  0.0000000000000E+00 -0.8821067096313E-03
 0.2142048770279E-02 -0.1060450018427E-01  0.0000000000000E+00 -0.1209901244305E-02
 0.2017837335150E-02 -0.1050014055836E-01  0.0000000000000E+00 -0.1546421796978E-02
 0.1895792350187E-02 -0.1038567027842E-01  0.0000000000000E+00 -0.1894923361917E-02
 0.1777326888550E-02 -0.1025808989008E-01  0.0000000000000E+00 -0.2258751669297E-02
 0.1659852919035E-02 -0.1011207663849E-01  0.0000000000000E+00 -0.2636525646164E-02
 0.1539157875589E-02 -0.9941588337569E-02  0.0000000000000E+00 -0.3020471819888E-02
 0.1411578504215E-02 -0.9741029223921E-02  0.0000000000000E+00 -0.3397246947437E-02
 0.1275297328165E-02 -0.9505643149194E-02  0.0000000000000E+00 -0.3749688824069E-02
 0.1130748152131E-02 -0.9231289601251E-02  0.0000000000000E+00 -0.4058339142382E-02
 0.9804217193985E-03 -0.8913849668199E-02  0.0000000000000E+00 -0.4301778693359E-02
 0.8287392472440E-03 -0.8548224044685E-02  0.0000000000000E+00 -0.4454271941684E-02
 0.6834903481715E-03 -0.8127520324799E-02  0.0000000000000E+00 -0.4479809540934E-02
 0.5607468713653E-03 -0.7645347026205E-02  0.0000000000000E+00 -0.4325959010641E-02
 0.4938985249098E-03 -0.7101430897683E-02  0.0000000000000E+00 -0.3920052749400E-02
 0.5486369892800E-03 -0.6510744496206E-02  0.0000000000000E+00 -0.3168517105781E-02
 0.8478379449983E-03 -0.5920613818860E-02  0.0000000000000E+00 -0.1970351946022E-02
 0.1605671414327E-02 -0.5437770369634E-02  0.0000000000000E+00 -0.2758092191354E-03
 0.3144145199425E-02 -0.5247798675373E-02  0.0000000000000E+00  0.1753382930762E-02
 0.5805958520542E-02 -0.5558452543533E-02  0.0000000000000E+00  0.3464334481243E-02
 0.9644177628281E-02 -0.6364108320507E-02  0.0000000000000E+00  0.3530902123397E-02
 0.1395625724412E-01 -0.7089909347460E-02  0.0000000000000E+00  0.4543440662131E-03
 0.4261300606493E-03 -0.1241917980928E-01  0.0000000000000E+00  0.5437607379887E-02
 0.1301588456401E-02 -0.1283671335179E-01  0.0000000000000E+00  0.5320976701626E-02
 0.2051665088109E-02 -0.1305432140389E-01  0.0000000000000E+00  0.4588654067141E-02
 0.2515964374115E-02 -0.1302680497064E-01  0.0000000000000E+00  0.3693267850981E-02
 0.2750111761501E-02 -0.1285329701809E-01  0.0000000000000E+00  0.2931279243805E-02
 0.2853545664837E-02 -0.1263027599412E-01  0.0000000000000E+00  0.2360356630669E-02
 0.2891188325879E-02 -0.1240547158958E-01  0.0000000000000E+00  0.1942053717456E-02
 0.2895675978116E-02 -0.1219568951060E-01  0.0000000000000E+00  0.1629515327270E-02
 0.2882903282237E-02 -0.1200540916332E-01  0.0000000000000E+00  0.1387397008424E-02
 0.2860929687634E-02 -0.1183486977135E-01  0.0000000000000E+00  0.1190671028938E-02
 0.2833946522262E-02 -0.1168304348859E-01  0.0000000000000E+00  0.1021379444086E-02
 0.2804114243096E-02 -0.1154876777016E-01  0.0000000000000E+00  0.8661111644808E-03
 0.2772412700464E-02 -0.1143111556386E-01  0.0000000000000E+00  0.7141971032421E-03
 0.2738969119240E-02 -0.1132941210354E-01  0.0000000000000E+00  0.5564364434013E-03
 0.2703045837337E-02 -0.1124301518422E-01  0.0000000000000E+00  0.3841970800458E-03
 0.2662723482285E-02 -0.1117079121554E-01  0.0000000000000E+00  0.1889434251453E-03
 0.2614425338211E-02 -0.1111024177504E-01  0.0000000000000E+00 -0.3722192571154E-04
 0.2552992249835E-02 -0.1105665309788E-01  0.0000000000000E+00 -0.2991582885250E-03
 0.2473561434358E-02 -0.1100333603248E-01  0.0000000000000E+00 -0.5952509741943E-03
 0.2375222091833E-02 -0.1094373268874E-01  0.0000000000000E+00 -0.9171736063863E-03
 0.2263507152511E-02 -0.1087471955872E-01  0.0000000000000E+00 -0.1256101098853E-02
 0.2147559572949E-02 -0.1079644781708E-01  0.0000000000000E+00 -0.1609808831632E-02
 0.2033980475994E-02 -0.1070823960560E-01  0.0000000000000E+00 -0.1982471233908E-02
 0.1923705575935E-02 -0.1060643301870E-01  0.0000000000000E+00 -0.2378344292838E-02
 0.1813167419787E-02 -0.1048530870193E-01  0.0000000000000E+00 -0.2796349064524E-02
 0.1697134087960E-02 -0.1033882491899E-01  0.0000000000000E+00 -0.3228683444451E-02
 0.1571080415574E-02 -0.1016166072676E-01  0.0000000000000E+00 -0.3662173406892E-02
 0.1432468007140E-02 -0.9949405026104E-02  0.0000000000000E+00 -0.4080386056274E-02
 0.1281000696009E-02 -0.9698161627952E-02  0.0000000000000E+00 -0.4465452930580E-02
 0.1118041748696E-02 -0.9403711638270E-02  0.0000000000000E+00 -0.4798732046762E-02
 0.9457834879830E-03 -0.9060018520904E-02  0.0000000000000E+00 -0.5058404821735E-02
 0.7678798307664E-03 -0.8657670706125E-02  0.0000000000000E+00 -0.5212647579362E-02
 0.5937584075703E-03 -0.8185360582224E-02  0.0000000000000E+00 -0.5211797893090E-02
 0.4471608431384E-03 -0.7634347364287E-02  0.0000000000000E+00 -0.4981458595500E-02
 0.3811455931865E-03 -0.7006022328765E-02  0.0000000000000E+00 -0.4414871166320E-02
 0.5068280765952E-03 -0.6329032256088E-02  0.0000000000000E+00 -0.3371149085903E-02
 0.1045437675382E-02 -0.5695659583125E-02  0.0000000000000E+00 -0.1710475520715E-02
 0.2390937119728E-02 -0.5314188481243E-02  0.0000000000000E+00  0.5430889628442E-03
 0.5074937778344E-02 -0.5497830896832E-02  0.0000000000000E+00  0.2792847392649E-02
 0.9384971763096E-02 -0.6382804195113E-02  0.0000000000000E+00  0.3382996942083E-02
 0.1454405288962E-01 -0.7298479464365E-02  0.0000000000000E+00  0.3860723569893E-05
 0.4993769501744E-03 -0.1286092865880E-01  0.0000000000000E+00  0.5716791141753E-02
 0.1500446064305E-02 -0.1331005808098E-01  0.0000000000000E+00  0.5452332480346E-02
 0.2295791486076E-02 -0.1347917206069E-01  0.0000000000000E+00  0.4484250526559E-02
 0.2725613178533E-02 -0.1335911197002E-01  0.0000000000000E+00  0.3448451366532E-02
 0.2907998978567E-02 -0.1310746530879E-01  0.0000000000000E+00  0.2653993530265E-02
 0.2972009003796E-02 -0.1283517342857E-01  0.0000000000000E+00  0.2099196710819E-02
 0.2983999026189E-02 -0.1258150429662E-01  0.0000000000000E+00  0.1708942471030E-02
 0.2972185174288E-02 -0.1235480280982E-01  0.0000000000000E+00  0.1424611171476E-02
 0.2949200291390E-02 -0.1215470587164E-01  0.0000000000000E+00  0.1208087163627E-02
 0.2921102951611E-02 -0.1197875419829E-01  0.0000000000000E+00  0.1034117907908E-02
 0.2890876688537E-02 -0.1182444041963E-01  0.0000000000000E+00  0.8853508332184E-03
 0.2859995640414E-02 -0.1168985904970E-01  0.0000000000000E+00  0.7491671189398E-03
 0.2829101904997E-02 -0.1157381353630E-01  0.0000000000000E+00  0.6156424550208E-03
 0.2798244225267E-02 -0.1147571968116E-01  0.0000000000000E+00  0.4761697354742E-03
 0.2766825550674E-02 -0.1139536518592E-01  0.0000000000000E+00  0.3224230311618E-03
 0.2733223330616E-02 -0.1133239850872E-01  0.0000000000000E+00  0.1455745932978E-03
 0.2694059688956E-02 -0.1128532500604E-01  0.0000000000000E+00 -0.6367939683111E-04
 0.2643747168940E-02 -0.1125014717457E-01  0.0000000000000E+00 -0.3128581100018E-03
 0.2576120860320E-02 -0.1121995665155E-01  0.0000000000000E+00 -0.6030567936027E-03
 0.2488952775101E-02 -0.1118704488024E-01  0.0000000000000E+00 -0.9269683038671E-03
 0.2387619148832E-02 -0.1114689324360E-01  0.0000000000000E+00 -0.1275321055607E-02
 0.2281994013200E-02 -0.1109842089341E-01  0.0000000000000E+00 -0.1645809575127E-02
 0.2178997724032E-02 -0.1103982465709E-01  0.0000000000000E+00 -0.2043335948224E-02
 0.2078978980602E-02 -0.1096658522252E-01  0.0000000000000E+00 -0.2472564074224E-02
 0.1977373851930E-02 -0.1087274436477E-01  0.0000000000000E+00 -0.2932083380694E-02
 0.1868063390241E-02 -0.1075266913459E-01  0.0000000000000E+00 -0.3413649641403E-02
 0.1745868188794E-02 -0.1060178505232E-01  0.0000000000000E+00 -0.3904204543834E-02
 0.1607753832484E-02 -0.1041645185752E-01  0.0000000000000E+00 -0.4388233749660E-02
 0.1452980972544E-02 -0.1019344202824E-01  0.0000000000000E+00 -0.4849766033946E-02
 0.1282184984509E-02 -0.9928984921336E-02  0.0000000000000E+00 -0.5273508341012E-02
 0.1095749384872E-02 -0.9616847846524E-02  0.0000000000000E+00 -0.5642749429508E-02
 0.8934586930562E-03 -0.9246045420545E-02  0.0000000000000E+00 -0.5932022011994E-02
 0.6779831023416E-03 -0.8801443653473E-02  0.0000000000000E+00 -0.6098213377265E-02
 0.4622672492424E-03 -0.8266621677404E-02  0.0000000000000E+00 -0.6071725165896E-02
 0.2827671176741E-03 -0.7628492735940E-02  0.0000000000000E+00 -0.5743145639155E-02
 0.2277173193396E-03 -0.6890673260435E-02  0.0000000000000E+00 -0.4945260201066E-02
 0.5015140660827E-03 -0.6111779700344E-02  0.0000000000000E+00 -0.3448973272643E-02
 0.1546021838202E-02 -0.5492719115455E-02  0.0000000000000E+00 -0.1080308270450E-02
 0.4123943803105E-02 -0.5457813445895E-02  0.0000000000000E+00  0.1766498081680E-02
 0.8934776942544E-02 -0.6388160374159E-02  0.0000000000000E+00  0.3144833813268E-02
 0.1524598106189E-01 -0.7572313203586E-02  0.0000000000000E+00 -0.4981234418174E-03
 0.5985453646796E-03 -0.1337698282464E-01  0.0000000000000E+00  0.6030952315078E-02
 0.1753668218263E-02 -0.1384914256830E-01  0.0000000000000E+00  0.5541252954868E-02
 0.2577487717452E-02 -0.1392654106461E-01  0.0000000000000E+00  0.4275043211172E-02
 0.2942237508572E-02 -0.1367896426064E-01  0.0000000000000E+00  0.3113200628790E-02
 0.3058813487202E-02 -0.1334004011824E-01  0.0000000000000E+00  0.2323187396403E-02
 0.3081147906973E-02 -0.1302074987774E-01  0.0000000000000E+00  0.1808758170316E-02
 0.3068357813716E-02 -0.1274186450976E-01  0.0000000000000E+00  0.1459239833209E-02
 0.3041477073686E-02 -0.1250129207224E-01  0.0000000000000E+00  0.1210167302851E-02
 0.3009367627808E-02 -0.1229366382470E-01  0.0000000000000E+00  0.1023330940279E-02
 0.2975946777620E-02 -0.1211386934304E-01  0.0000000000000E+00  0.8746214805032E-03
 0.2942985997176E-02 -0.1195804894509E-01  0.0000000000000E+00  0.7480835710555E-03
 0.2911307780602E-02 -0.1182366084480E-01  0.0000000000000E+00  0.6323498375187E-03
 0.2881252520366E-02 -0.1170931453004E-01  0.0000000000000E+00  0.5185604825486E-03
 0.2852829201159E-02 -0.1161457050683E-01  0.0000000000000E+00  0.3989849027982E-03
 0.2825644878014E-02 -0.1153970509856E-01  0.0000000000000E+00  0.2659366470371E-03
 0.2798532647922E-02 -0.1148529515649E-01  0.0000000000000E+00  0.1107316164297E-03
 0.2768651452048E-02 -0.1145124301292E-01  0.0000000000000E+00 -0.7699491587559E-04
 0.2730376029024E-02 -0.1143493818756E-01  0.0000000000000E+00 -0.3077379195783E-03
 0.2676289032863E-02 -0.1142982702401E-01  0.0000000000000E+00 -0.5865009090175E-03
 0.2602506914205E-02 -0.1142707214336E-01  0.0000000000000E+00 -0.9082305817357E-03
 0.2513964115446E-02 -0.1142018859795E-01  0.0000000000000E+00 -0.1263777540194E-02
 0.2421149157719E-02 -0.1140598650303E-01  0.0000000000000E+00 -0.1650826519211E-02
 0.2331123360544E-02 -0.1138076504681E-01  0.0000000000000E+00 -0.2074592871053E-02
 0.2243467724536E-02 -0.1133886293442E-01  0.0000000000000E+00 -0.2539180552906E-02
 0.2152658485806E-02 -0.1127437096794E-01  0.0000000000000E+00 -0.3041804776557E-02
 0.2051946387969E-02 -0.1118268065434E-01  0.0000000000000E+00 -0.3573201556292E-02
 0.1935811008447E-02 -0.1106059789679E-01  0.0000000000000E+00 -0.4120427669983E-02
 0.1800983417596E-02 -0.1090573838894E-01  0.0000000000000E+00 -0.4669189618327E-02
 0.1646573301185E-02 -0.1071594425516E-01  0.0000000000000E+00 -0.5205692413713E-02
 0.1472965466119E-02 -0.1048843836887E-01  0.0000000000000E+00 -0.5718316575562E-02
 0.1279360174217E-02 -0.1021766552588E-01  0.0000000000000E+00 -0.6196287761875E-02
 0.1062310395149E-02 -0.9892389042784E-02  0.0000000000000E+00 -0.6622272968602E-02
 0.8183178394242E-03 -0.9495541455888E-02  0.0000000000000E+00 -0.6963214235277E-02
 0.5495894001940E-03 -0.9005295975545E-02  0.0000000000000E+00 -0.7161332566290E-02
 0.2739316721314E-03 -0.8395746418780E-02  0.0000000000000E+00 -0.7117671067384E-02
 0.4778522951387E-04 -0.7643363005158E-02  0.0000000000000E+00 -0.6661882951320E-02
 0.2887589729084E-04 -0.6754979949371E-02  0.0000000000000E+00 -0.5503969207899E-02
 0.6494386476262E-03 -0.5871986596520E-02  0.0000000000000E+00 -0.3237525248386E-02
 0.2906531303490E-02 -0.5491533106849E-02  0.0000000000000E+00  0.1678082112053E-03
 0.8175627172808E-02 -0.6375148058376E-02  0.0000000000000E+00  0.2689901927583E-02
 0.1609384304140E-01 -0.7942991930279E-02  0.0000000000000E+00 -0.1069753858254E-02
 0.7382089306482E-03 -0.1400168644708E-01  0.0000000000000E+00  0.6384431088214E-02
 0.2081181561443E-02 -0.1447030197545E-01  0.0000000000000E+00  0.5540585959877E-02
 0.2895814885578E-02 -0.1438289709950E-01  0.0000000000000E+00  0.3910951707372E-02
 0.3154365648953E-02 -0.1396821517703E-01  0.0000000000000E+00  0.2674140159441E-02
 0.3194996372793E-02 -0.1354178709876E-01  0.0000000000000E+00  0.1942723926134E-02
 0.3177481554829E-02 -0.1318292801598E-01  0.0000000000000E+00  0.1493676944562E-02
 0.3142439108740E-02 -0.1288441674825E-01  0.0000000000000E+00  0.1196414792603E-02
 0.3102535485082E-02 -0.1263403851863E-01  0.0000000000000E+00  0.9887443229954E-03
 0.3062827257186E-02 -0.1242167091465E-01  0.0000000000000E+00  0.8348563735234E-03
 0.3025097937093E-02 -0.1223984787171E-01  0.0000000000000E+00  0.7132739682323E-03
 0.2990012251771E-02 -0.1208361158417E-01  0.0000000000000E+00  0.6101700087971E-03
 0.2957816571440E-02 -0.1194993880270E-01  0.0000000000000E+00  0.5158364835749E-03
 0.2928601458085E-02 -0.1183734026872E-01  0.0000000000000E+00  0.4227606955811E-03
 0.2902371050827E-02 -0.1174556907920E-01  0.0000000000000E+00  0.3243423902795E-03
 0.2878970855025E-02 -0.1167541203502E-01  0.0000000000000E+00  0.2138624026009E-03
 0.2857797857242E-02 -0.1162843736074E-01  0.0000000000000E+00  0.8332052385962E-04
 0.2836907314431E-02 -0.1160628515407E-01  0.0000000000000E+00 -0.7799964857358E-04
 0.2811246859313E-02 -0.1160861093383E-01  0.0000000000000E+00 -0.2834738464010E-03
 0.2772461124951E-02 -0.1163027959464E-01  0.0000000000000E+00 -0.5434057735023E-03
 0.2714710859454E-02 -0.1166169324149E-01  0.0000000000000E+00 -0.8570560877755E-03
 0.2642038465787E-02 -0.1169363053801E-01  0.0000000000000E+00 -0.1216761935166E-02
 0.2565168888193E-02 -0.1171928696412E-01  0.0000000000000E+00 -0.1620546723406E-02
 0.2490861376500E-02 -0.1173175197373E-01  0.0000000000000E+00 -0.2073100620471E-02
 0.2417656282690E-02 -0.1172384210451E-01  0.0000000000000E+00 -0.2576198285867E-02
 0.2339227350265E-02 -0.1169023124605E-01  0.0000000000000E+00 -0.3124049051293E-02
 0.2248652858993E-02 -0.1162826319570E-01  0.0000000000000E+00 -0.3705626300263E-02
 0.2140537574449E-02 -0.1153698008324E-01  0.0000000000000E+00 -0.4308243925358E-02
 0.2011671609566E-02 -0.1141580710951E-01  0.0000000000000E+00 -0.4919382600136E-02
 0.1861245636870E-02 -0.1126396470583E-01  0.0000000000000E+00 -0.5527766904376E-02
 0.1689872274163E-02 -0.1108008689435E-01  0.0000000000000E+00 -0.6125448505897E-02
 0.1496364507349E-02 -0.1086019788202E-01  0.0000000000000E+00 -0.6707807637107E-02
 0.1275049716173E-02 -0.1059447894298E-01  0.0000000000000E+00 -0.7266676645389E-02
 0.1017609056213E-02 -0.1026663510275E-01  0.0000000000000E+00 -0.7781686444377E-02
 0.7171081756906E-03 -0.9853367897140E-02  0.0000000000000E+00 -0.8213348517547E-02
 0.3732194070405E-03 -0.9320697930237E-02  0.0000000000000E+00 -0.8487178622172E-02
 0.7377257983165E-05 -0.8622435750675E-02  0.0000000000000E+00 -0.8457953571490E-02
-0.2939038883830E-03 -0.7708148175830E-02  0.0000000000000E+00 -0.7836401291066E-02
-0.2038212552222E-03 -0.6595450916931E-02  0.0000000000000E+00 -0.6033510417861E-02
 0.1405087523890E-02 -0.5725225318931E-02  0.0000000000000E+00 -0.2339368821995E-02
 0.6914222501803E-02 -0.6356924927864E-02  0.0000000000000E+00  0.1728149738477E-02
 0.1711569880341E-01 -0.8467721016139E-02  0.0000000000000E+00 -0.1771323407649E-02
 0.9441116086443E-03 -0.1479523135128E-01  0.0000000000000E+00  0.6775625228339E-02
 0.2509740579407E-02 -0.1518819693032E-01  0.0000000000000E+00  0.5356243833958E-02
 0.3238655095586E-02 -0.1481432949218E-01  0.0000000000000E+00  0.3326111004770E-02
 0.3343119274081E-02 -0.1420185861852E-01  0.0000000000000E+00  0.2131695437109E-02
 0.3308873367435E-02 -0.1370469931759E-01  0.0000000000000E+00  0.1524134537779E-02
 0.3258070525781E-02 -0.1331822138657E-01  0.0000000000000E+00  0.1160442721763E-02
 0.3204641185079E-02 -0.1300741471831E-01  0.0000000000000E+00  0.9251164576636E-03
 0.3154581299614E-02 -0.1275226384318E-01  0.0000000000000E+00  0.7634678749328E-03
 0.3109167609099E-02 -0.1253833407521E-01  0.0000000000000E+00  0.6446535523726E-03
 0.3068317080022E-02 -0.1235649141789E-01  0.0000000000000E+00  0.5513048691120E-03
 0.3031793781996E-02 -0.1220100287272E-01  0.0000000000000E+00  0.4722524917376E-03
 0.2999374663243E-02 -0.1206857357885E-01  0.0000000000000E+00  0.3998004765759E-03
 0.2970969111826E-02 -0.1195772348506E-01  0.0000000000000E+00  0.3279966620875E-03
 0.2946604804927E-02 -0.1186843879088E-01  0.0000000000000E+00  0.2515806853751E-03
 0.2926369022604E-02 -0.1180200218953E-01  0.0000000000000E+00  0.1650849119955E-03
 0.2910239994377E-02 -0.1176092297887E-01  0.0000000000000E+00  0.6174977352513E-04
 0.2897449752466E-02 -0.1174872580878E-01  0.0000000000000E+00 -0.6837977225443E-04
 0.2884352445078E-02 -0.1176831093696E-01  0.0000000000000E+00 -0.2406057616821E-03
 0.2862454598477E-02 -0.1181779182989E-01  0.0000000000000E+00 -0.4717428955956E-03
 0.2823912913934E-02 -0.1188800850132E-01  0.0000000000000E+00 -0.7686556605254E-03
 0.2771223291018E-02 -0.1196604694163E-01  0.0000000000000E+00 -0.1128167975914E-02
 0.2714440857711E-02 -0.1203883842384E-01  0.0000000000000E+00 -0.1549619197851E-02
 0.2659083995236E-02 -0.1209402828903E-01  0.0000000000000E+00 -0.2035478439327E-02
 0.2602287399339E-02 -0.1212248604315E-01  0.0000000000000E+00 -0.2582029175623E-02
 0.2537333397369E-02 -0.1212046398640E-01  0.0000000000000E+00 -0.3178037838892E-02
 0.2457895784402E-02 -0.1208863948175E-01  0.0000000000000E+00 -0.3809864235168E-02
 0.2359386576797E-02 -0.1202943630556E-01  0.0000000000000E+00 -0.4465484641576E-02
 0.2238993023672E-02 -0.1194474644620E-01  0.0000000000000E+00 -0.5135151210216E-02
 0.2096065507539E-02 -0.1183531288994E-01  0.0000000000000E+00 -0.5810738693300E-02
 0.1931780464086E-02 -0.1170125415635E-01  0.0000000000000E+00 -0.6487605327676E-02
 0.1745435349701E-02 -0.1154090680969E-01  0.0000000000000E+00 -0.7166546701131E-02
 0.1530518679443E-02 -0.1134784092668E-01  0.0000000000000E+00 -0.7848337935671E-02
 0.1275929007817E-02 -0.1111006911788E-01  0.0000000000000E+00 -0.8526637331917E-02
 0.9688581051528E-03 -0.1080817172564E-01  0.0000000000000E+00 -0.9184676873390E-02
 0.5945260639205E-03 -0.1040838296805E-01  0.0000000000000E+00 -0.9785364336035E-02
 0.1421551152805E-03 -0.9852890801187E-02  0.0000000000000E+00 -0.1023543636830E-01
-0.3731502342334E-03 -0.9052545614513E-02  0.0000000000000E+00 -0.1031999834620E-01
-0.8311425493829E-03 -0.7872509145816E-02  0.0000000000000E+00 -0.9470324292070E-02
-0.2931324704827E-03 -0.6441144757443E-02  0.0000000000000E+00 -0.6218512737810E-02
 0.4851984838121E-02 -0.6427453715264E-02  0.0000000000000E+00 -0.3924472938372E-03
 0.1829590300386E-01 -0.9261758268762E-02  0.0000000000000E+00 -0.2824340631381E-02
 0.1263580981819E-02 -0.1587408016554E-01  0.0000000000000E+00  0.7176675898465E-02
 0.3070343523889E-02 -0.1599515142917E-01  0.0000000000000E+00  0.4793662470951E-02
 0.3567656281702E-02 -0.1514650377723E-01  0.0000000000000E+00  0.2455810082003E-02
 0.3483272195716E-02 -0.1435564618877E-01  0.0000000000000E+00  0.1519202142115E-02
 0.3395789203750E-02 -0.1382444735373E-01  0.0000000000000E+00  0.1083455530710E-02
 0.3320452426501E-02 -0.1342341522388E-01  0.0000000000000E+00  0.8169409065141E-03
 0.3253761886768E-02 -0.1310994622932E-01  0.0000000000000E+00  0.6513909746847E-03
 0.3197186999397E-02 -0.1285554803108E-01  0.0000000000000E+00  0.5377545265709E-03
 0.3148161058646E-02 -0.1264353890001E-01  0.0000000000000E+00  0.4549670757384E-03
 0.3105517226018E-02 -0.1246379029943E-01  0.0000000000000E+00  0.3900269296746E-03
 0.3068279822043E-02 -0.1231024486831E-01  0.0000000000000E+00  0.3350086583386E-03
 0.3035932242729E-02 -0.1217957203328E-01  0.0000000000000E+00  0.2844043698927E-03
 0.3008270261287E-02 -0.1207042016875E-01  0.0000000000000E+00  0.2339729458749E-03
 0.2985369188102E-02 -0.1198304013785E-01  0.0000000000000E+00  0.1799343637112E-03
 0.2967536122645E-02 -0.1191916364562E-01  0.0000000000000E+00  0.1182932460073E-03
 0.2955245934458E-02 -0.1188209197228E-01  0.0000000000000E+00  0.4397058294503E-04
 0.2948941498349E-02 -0.1187702441101E-01  0.0000000000000E+00 -0.5090678184294E-04
 0.2947284394283E-02 -0.1191079039021E-01  0.0000000000000E+00 -0.1811734789399E-03
 0.2943230668910E-02 -0.1198759898004E-01  0.0000000000000E+00 -0.3700829513865E-03
 0.2927673959444E-02 -0.1210184873528E-01  0.0000000000000E+00 -0.6370048516537E-03
 0.2900730166042E-02 -0.1223598639572E-01  0.0000000000000E+00 -0.9896976395264E-03
 0.2869782739247E-02 -0.1236580464655E-01  0.0000000000000E+00 -0.1431172431973E-02
 0.2837248606513E-02 -0.1246968358723E-01  0.0000000000000E+00 -0.1958123541854E-02
 0.2798485396357E-02 -0.1253630704662E-01  0.0000000000000E+00 -0.2555760789174E-02
 0.2747304460611E-02 -0.1256534394332E-01  0.0000000000000E+00 -0.3203980600636E-02
 0.2679191927239E-02 -0.1256281338446E-01  0.0000000000000E+00 -0.3885762551324E-02
 0.2591327216324E-02 -0.1253600143996E-01  0.0000000000000E+00 -0.4590556507303E-02
 0.2481734572127E-02 -0.1249010803094E-01  0.0000000000000E+00 -0.5313016512449E-02
 0.2349759818530E-02 -0.1242737534368E-01  0.0000000000000E+00 -0.6049542346645E-02
 0.2197047308405E-02 -0.1234876161895E-01  0.0000000000000E+00 -0.6798245384106E-02
 0.2024165326248E-02 -0.1225506153302E-01  0.0000000000000E+00 -0.7563013883936E-02
 0.1825481622647E-02 -0.1214554322101E-01  0.0000000000000E+00 -0.8351438280294E-02
 0.1590107397241E-02 -0.1201698295751E-01  0.0000000000000E+00 -0.9170662696069E-02
 0.1303151262749E-02 -0.1186015085803E-01  0.0000000000000E+00 -0.1002922865652E-01
 0.9441010190985E-03 -0.1165201011493E-01  0.0000000000000E+00 -0.1093249333677E-01
 0.4757670881067E-03 -0.1134286565996E-01  0.0000000000000E+00 -0.1186727915827E-01
-0.1324210745434E-03 -0.1083708224274E-01  0.0000000000000E+00 -0.1272848405791E-01
-0.9517767650454E-03 -0.9941878289485E-02  0.0000000000000E+00 -0.1326895857745E-01
-0.1811706117148E-02 -0.8218435970394E-02  0.0000000000000E+00 -0.1190203413156E-01
 0.1611145319782E-02 -0.6985894853366E-02  0.0000000000000E+00 -0.5092293435115E-02
 0.1944569032411E-01 -0.1059326055599E-01  0.0000000000000E+00 -0.5054207908099E-02
 0.1784491906954E-02 -0.1750013230173E-01  0.0000000000000E+00  0.7442787773604E-02
 0.3776467331340E-02 -0.1676328512363E-01  0.0000000000000E+00  0.3437579967076E-02
 0.3788923490428E-02 -0.1524916215688E-01  0.0000000000000E+00  0.1330505283016E-02
 0.3558226595127E-02 -0.1443463629110E-01  0.0000000000000E+00  0.9142960691045E-03
 0.3456126740563E-02 -0.1389385769670E-01  0.0000000000000E+00  0.6267127361397E-03
 0.3361471755161E-02 -0.1349783615785E-01  0.0000000000000E+00  0.4773576557141E-03
 0.3289854264648E-02 -0.1319169307820E-01  0.0000000000000E+00  0.3807128573828E-03
 0.3230094206240E-02 -0.1294398092890E-01  0.0000000000000E+00  0.3156211126468E-03
 0.3179869983335E-02 -0.1273746796025E-01  0.0000000000000E+00  0.2680902951447E-03
 0.3136758469136E-02 -0.1256194470469E-01  0.0000000000000E+00  0.2308184434975E-03
 0.3099546236048E-02 -0.1241151769754E-01  0.0000000000000E+00  0.1991201286980E-03
 0.3067543023984E-02 -0.1228307584013E-01  0.0000000000000E+00  0.1697942284531E-03
 0.3040522286650E-02 -0.1217551834163E-01  0.0000000000000E+00  0.1403525862904E-03
 0.3018620257411E-02 -0.1208938469738E-01  0.0000000000000E+00  0.1085612446313E-03
 0.3002318357033E-02 -0.1202678121960E-01  0.0000000000000E+00  0.7202821499980E-04
 0.2992456829850E-02 -0.1199159225407E-01  0.0000000000000E+00  0.2764168863523E-04
 0.2990333900577E-02 -0.1199015418375E-01  0.0000000000000E+00 -0.2948046287782E-04
 0.2997341991380E-02 -0.1203273849095E-01  0.0000000000000E+00 -0.1097325417316E-03
 0.3010463820858E-02 -0.1213311293272E-01  0.0000000000000E+00 -0.2386761677827E-03
 0.3022185317572E-02 -0.1229682866228E-01  0.0000000000000E+00 -0.4543037160893E-03
 0.3029522247240E-02 -0.1250163027135E-01  0.0000000000000E+00 -0.7894459845382E-03
 0.3032779627354E-02 -0.1270249492285E-01  0.0000000000000E+00 -0.1256126148243E-02
 0.3027721656822E-02 -0.1286207891182E-01  0.0000000000000E+00 -0.1837342142036E-02
 0.3007908327466E-02 -0.1296756210116E-01  0.0000000000000E+00 -0.2497571654793E-02
 0.2969564504102E-02 -0.1302531090547E-01  0.0000000000000E+00 -0.3203470300501E-02
 0.2911811680060E-02 -0.1304952034437E-01  0.0000000000000E+00 -0.3934384412095E-02
 0.2834839728884E-02 -0.1305412130661E-01  0.0000000000000E+00 -0.4682663841576E-02
 0.2738184524241E-02 -0.1304872617279E-01  0.0000000000000E+00 -0.5449588409076E-02
 0.2620822904055E-02 -0.1303718809972E-01  0.0000000000000E+00 -0.6238977873583E-02
 0.2483791751120E-02 -0.1301936729550E-01  0.0000000000000E+00 -0.7051889779683E-02
 0.2329112446467E-02 -0.1299696577362E-01  0.0000000000000E+00 -0.7890178220332E-02
 0.2154542596344E-02 -0.1297802676169E-01  0.0000000000000E+00 -0.8762611514017E-02
 0.1952878887317E-02 -0.1297396057744E-01  0.0000000000000E+00 -0.9688209771054E-02
 0.1712988484782E-02 -0.1299211453975E-01  0.0000000000000E+00 -0.1070029798750E-01
 0.1412977124099E-02 -0.1303031947135E-01  0.0000000000000E+00 -0.1184698489991E-01
 0.1022700928818E-02 -0.1307337101643E-01  0.0000000000000E+00 -0.1318974034493E-01
 0.4431996664370E-03 -0.1306581620069E-01  0.0000000000000E+00 -0.1480584983200E-01
-0.3163713734484E-03 -0.1290461825298E-01  0.0000000000000E+00 -0.1668660397849E-01
-0.2138775529820E-02 -0.1201364211609E-01  0.0000000000000E+00 -0.1900467651659E-01
-0.2843596848369E-02 -0.9502822215791E-02  0.0000000000000E+00 -0.1512750466017E-01
 0.1971986391736E-01 -0.1331869831248E-01  0.0000000000000E+00 -0.1173797874461E-01
 0.2640880023307E-02 -0.2043215996617E-01  0.0000000000000E+00  0.6798803772629E-02
 0.4507599204960E-02 -0.1668620462718E-01  0.0000000000000E+00  0.4416454187986E-03
 0.3725733231953E-02 -0.1518023550922E-01  0.0000000000000E+00  0.4781686735797E-03
 0.3616448861547E-02 -0.1442708639742E-01  0.0000000000000E+00  0.2688671474750E-03
 0.3473507408002E-02 -0.1391272772172E-01  0.0000000000000E+00  0.1958713269154E-03
 0.3384920888443E-02 -0.1354219461336E-01  0.0000000000000E+00  0.1491867489092E-03
 0.3312214880668E-02 -0.1325325778705E-01  0.0000000000000E+00  0.1205182293230E-03
 0.3253828170504E-02 -0.1301817936230E-01  0.0000000000000E+00  0.1008117273789E-03
 0.3204517905176E-02 -0.1282062535718E-01  0.0000000000000E+00  0.8641808029455E-04
 0.3162296123339E-02 -0.1265137552909E-01  0.0000000000000E+00  0.7503212734888E-04
 0.3125791835652E-02 -0.1250516593924E-01  0.0000000000000E+00  0.6525298413818E-04
 0.3094371006455E-02 -0.1237936611958E-01  0.0000000000000E+00  0.5608938740667E-04
 0.3067849011404E-02 -0.1227324292098E-01  0.0000000000000E+00  0.4676562691791E-04
 0.3046438087945E-02 -0.1218764144037E-01  0.0000000000000E+00  0.3657468975865E-04
 0.3030731197889E-02 -0.1212495531552E-01  0.0000000000000E+00  0.2474556952786E-04
 0.3021771378840E-02 -0.1208939878718E-01  0.0000000000000E+00  0.1026856644853E-04
 0.3021243767168E-02 -0.1208783057780E-01  0.0000000000000E+00 -0.8486106993388E-05
 0.3032068193404E-02 -0.1213198167480E-01  0.0000000000000E+00 -0.3469237468823E-04
 0.3057887336428E-02 -0.1224513388640E-01  0.0000000000000E+00 -0.8224269586449E-04
 0.3101075532667E-02 -0.1246223100587E-01  0.0000000000000E+00 -0.2099965682975E-03
 0.3156252055273E-02 -0.1276093887678E-01  0.0000000000000E+00 -0.5091784732710E-03
 0.3206421389053E-02 -0.1305323911563E-01  0.0000000000000E+00 -0.1012385916862E-02
 0.3234235159113E-02 -0.1327642826400E-01  0.0000000000000E+00 -0.1669711586217E-02
 0.3232921861108E-02 -0.1341947047634E-01  0.0000000000000E+00 -0.2409363548262E-02
 0.3204627788706E-02 -0.1350096426799E-01  0.0000000000000E+00 -0.3179998236419E-02
 0.3154715937387E-02 -0.1354714943197E-01  0.0000000000000E+00 -0.3958339588485E-02
 0.3087784094655E-02 -0.1358054968892E-01  0.0000000000000E+00 -0.4742146541499E-02
 0.3005838096284E-02 -0.1361637473874E-01  0.0000000000000E+00 -0.5541602615019E-02
 0.2907649169222E-02 -0.1366128501324E-01  0.0000000000000E+00 -0.6372649333162E-02
 0.2790536171651E-02 -0.1371082237961E-01  0.0000000000000E+00 -0.7244217027543E-02
 0.2656007391483E-02 -0.1376040626510E-01  0.0000000000000E+00 -0.8145493523557E-02
 0.2509688725525E-02 -0.1383263282681E-01  0.0000000000000E+00 -0.9072486980056E-02
 0.2353572684026E-02 -0.1396324151110E-01  0.0000000000000E+00 -0.1005721241005E-01
 0.2182532944648E-02 -0.1417880847888E-01  0.0000000000000E+00 -0.1115622853877E-01
 0.1987102449484E-02 -0.1450783398649E-01  0.0000000000000E+00 -0.1244884066199E-01
 0.1737817645085E-02 -0.1498790696631E-01  0.0000000000000E+00 -0.1405048498429E-01
 0.1427667277205E-02 -0.1568468360229E-01  0.0000000000000E+00 -0.1617689420001E-01
 0.7855669112503E-03 -0.1664892850557E-01  0.0000000000000E+00 -0.1915336672885E-01
 0.4376416785344E-03 -0.1822430980971E-01  0.0000000000000E+00 -0.2400860717740E-01
-0.5956244847034E-02 -0.1867290987945E-01  0.0000000000000E+00 -0.3310173106081E-01
 0.1714963158644E-01 -0.2209456490478E-01  0.0000000000000E+00 -0.3829638754485E-01
 0.7533238945875E-01 -0.1363384921561E+00  0.0000000000000E+00 -0.2425854704682E+00
 0.1263363437520E+00 -0.1841675021052E+00  0.0000000000000E+00 -0.1678671048074E+00
 0.1719551171239E+00 -0.2268574886893E+00  0.0000000000000E+00 -0.1079311798459E+00
 0.2123007145130E+00 -0.2645427950478E+00  0.0000000000000E+00 -0.5995370297987E-01
 0.2477860184201E+00 -0.2976701164564E+00  0.0000000000000E+00 -0.2200555045165E-01
 0.2789374535800E+00 -0.3267720291902E+00  0.0000000000000E+00  0.7288311632580E-02
 0.3063171918919E+00 -0.3524049313985E+00  0.0000000000000E+00  0.2896314943527E-01
 0.3304788777749E+00 -0.3751164198628E+00  0.0000000000000E+00  0.4385029690933E-01
 0.3519246919453E+00 -0.3954093820112E+00  0.0000000000000E+00  0.5266654927745E-01
 0.3711066513958E+00 -0.4137387297179E+00  0.0000000000000E+00  0.5597351824217E-01
 0.3884617474431E+00 -0.4305389968494E+00  0.0000000000000E+00  0.5422692046876E-01
 0.4042562631033E+00 -0.4461199794159E+00  0.0000000000000E+00  0.4803430505711E-01
 0.4188350378791E+00 -0.4608102705157E+00  0.0000000000000E+00  0.3729457738063E-01
 0.4327198230760E+00 -0.4751193860901E+00  0.0000000000000E+00  0.2203227874460E-01
 0.4462453145944E+00 -0.4894209394399E+00  0.0000000000000E+00  0.3065617654325E-02
 0.4595117230429E+00 -0.5038168737871E+00  0.0000000000000E+00 -0.1895849440745E-01
 0.4724682534515E+00 -0.5182853761635E+00  0.0000000000000E+00 -0.4354998513339E-01
 0.4849561949083E+00 -0.5327345737228E+00  0.0000000000000E+00 -0.7038540985670E-01
 0.4968290332099E+00 -0.5469839817763E+00  0.0000000000000E+00 -0.9881522947137E-01
 0.5071178264454E+00 -0.5610610861635E+00  0.0000000000000E+00 -0.1248197378007E+00
 0.7126471326967E-01 -0.1334782748326E+00  0.0000000000000E+00 -0.2175547941385E+00
 0.1246676446360E+00 -0.1835154051372E+00  0.0000000000000E+00 -0.1459387734245E+00
 0.1720686416816E+00 -0.2278929864939E+00  0.0000000000000E+00 -0.8902856322576E-01
 0.2139061047824E+00 -0.2670166466175E+00  0.0000000000000E+00 -0.4359878688723E-01
 0.2506718556251E+00 -0.3013854051157E+00  0.0000000000000E+00 -0.7614409703970E-02
 0.2829507158859E+00 -0.3315871463983E+00  0.0000000000000E+00  0.2025858851464E-01
 0.3113606313147E+00 -0.3582351104195E+00  0.0000000000000E+00  0.4101779522693E-01
 0.3364935048235E+00 -0.3819159334054E+00  0.0000000000000E+00  0.5546783460900E-01
 0.3588785215889E+00 -0.4031569959822E+00  0.0000000000000E+00  0.6427799023578E-01
 0.3789947337280E+00 -0.4224382882944E+00  0.0000000000000E+00  0.6796648148479E-01
 0.3972770123772E+00 -0.4402052383031E+00  0.0000000000000E+00  0.6699200114601E-01
 0.4140320914276E+00 -0.4567758406121E+00  0.0000000000000E+00  0.6180257148812E-01
 0.4296573378157E+00 -0.4725553303549E+00  0.0000000000000E+00  0.5234137401658E-01
 0.4446448826063E+00 -0.4880406500667E+00  0.0000000000000E+00  0.3880766017556E-01
 0.4593060334522E+00 -0.5035571147311E+00  0.0000000000000E+00  0.2189941811015E-01
 0.4737824613698E+00 -0.5192734109756E+00  0.0000000000000E+00  0.2191105616655E-02
 0.4880722442723E+00 -0.5352302749935E+00  0.0000000000000E+00 -0.1974285821428E-01
 0.5020812409516E+00 -0.5513854007950E+00  0.0000000000000E+00 -0.4321722009762E-01
 0.5150739508325E+00 -0.5672834513244E+00  0.0000000000000E+00 -0.6653404502698E-01
 0.5255627878499E+00 -0.5815249564154E+00  0.0000000000000E+00 -0.8943556581059E-01
 0.6739431238199E-01 -0.1307066258313E+00  0.0000000000000E+00 -0.1918263654971E+00
 0.1231415402421E+00 -0.1829609925924E+00  0.0000000000000E+00 -0.1236672723089E+00
 0.1722722078794E+00 -0.2289695425066E+00  0.0000000000000E+00 -0.6974211481983E-01
 0.2154817121597E+00 -0.2694057324428E+00  0.0000000000000E+00 -0.2681925070534E-01
 0.2534098697658E+00 -0.3048980554667E+00  0.0000000000000E+00  0.7214764065265E-02
 0.2867145639658E+00 -0.3361000884751E+00  0.0000000000000E+00  0.3370361388519E-01
 0.3160615235195E+00 -0.3636715541817E+00  0.0000000000000E+00  0.5361424580582E-01
 0.3420768636410E+00 -0.3882327565811E+00  0.0000000000000E+00  0.6770974539289E-01
 0.3653182773481E+00 -0.4103385821648E+00  0.0000000000000E+00  0.7661152477974E-01
 0.3862832254598E+00 -0.4304888797139E+00  0.0000000000000E+00  0.8080656040039E-01
 0.4054180783403E+00 -0.4491361293705E+00  0.0000000000000E+00  0.8070441906783E-01
 0.4230762892579E+00 -0.4666457238374E+00  0.0000000000000E+00  0.7667823307605E-01
 0.4396716682604E+00 -0.4834420229860E+00  0.0000000000000E+00  0.6875983347585E-01
 0.4556690392613E+00 -0.4999995877216E+00  0.0000000000000E+00  0.5720114532187E-01
 0.4713787647366E+00 -0.5166482366779E+00  0.0000000000000E+00  0.4264377814703E-01
 0.4869522461370E+00 -0.5335727776417E+00  0.0000000000000E+00  0.2567785602086E-01
 0.5023926578809E+00 -0.5508271109117E+00  0.0000000000000E+00  0.6987934257097E-02
 0.5174416531579E+00 -0.5682638930974E+00  0.0000000000000E+00 -0.1245762168229E-01
 0.5312586676673E+00 -0.5851686393976E+00  0.0000000000000E+00 -0.3159047992971E-01
 0.5427433522387E+00 -0.6005569352231E+00  0.0000000000000E+00 -0.5083219389438E-01
 0.6374870331672E-01 -0.1280828412735E+00  0.0000000000000E+00 -0.1653421895222E+00
 0.1217302373437E+00 -0.1824541915423E+00  0.0000000000000E+00 -0.1009568191907E+00
 0.1725029866609E+00 -0.2300181308029E+00  0.0000000000000E+00 -0.5012789826791E-01
 0.2169835454366E+00 -0.2716653165333E+00  0.0000000000000E+00 -0.9703731282996E-02
 0.2559644772958E+00 -0.3081717988015E+00  0.0000000000000E+00  0.2241180872937E-01
 0.2901917002603E+00 -0.3402722185747E+00  0.0000000000000E+00  0.4756315514840E-01
 0.3203798348371E+00 -0.3686724073269E+00  0.0000000000000E+00  0.6668949860435E-01
 0.3471873355754E+00 -0.3940239398653E+00  0.0000000000000E+00  0.8051000081585E-01
 0.3711971945591E+00 -0.4169066539993E+00  0.0000000000000E+00  0.8959940059115E-01
 0.3929259273704E+00 -0.4378383373707E+00  0.0000000000000E+00  0.9440538018873E-01
 0.4128360232505E+00 -0.4572873239409E+00  0.0000000000000E+00  0.9529919754150E-01
 0.4313154580484E+00 -0.4756529844972E+00  0.0000000000000E+00  0.9261379385883E-01
 0.4487858575860E+00 -0.4933696646918E+00  0.0000000000000E+00  0.8645170640158E-01
 0.4656877604807E+00 -0.5108921757428E+00  0.0000000000000E+00  0.7710785198332E-01
 0.4823227194217E+00 -0.5285466379906E+00  0.0000000000000E+00  0.6519272364474E-01
 0.4988334929117E+00 -0.5465151808288E+00  0.0000000000000E+00  0.5132905013747E-01
 0.5151704604504E+00 -0.5648137890691E+00  0.0000000000000E+00  0.3627263960057E-01
 0.5309908939248E+00 -0.5831894931709E+00  0.0000000000000E+00  0.2088303577736E-01
 0.5455152321635E+00 -0.6009752379010E+00  0.0000000000000E+00  0.5865352540681E-02
 0.5578425902275E+00 -0.6173888005850E+00  0.0000000000000E+00 -0.9173554329305E-02
 0.6034397278687E-01 -0.1256214376064E+00  0.0000000000000E+00 -0.1381485276578E+00
 0.1204227405038E+00 -0.1819819960601E+00  0.0000000000000E+00 -0.7782016132007E-01
 0.1727243764162E+00 -0.2309950517362E+00  0.0000000000000E+00 -0.3021661605716E-01
 0.2183701677381E+00 -0.2737515647973E+00  0.0000000000000E+00  0.7684814586561E-02
 0.2582985521925E+00 -0.3111683475069E+00  0.0000000000000E+00  0.3791080267304E-01
 0.2933459311124E+00 -0.3440661267857E+00  0.0000000000000E+00  0.6177421263716E-01
 0.3242782581956E+00 -0.3731990367657E+00  0.0000000000000E+00  0.8017925343524E-01
 0.3517853363686E+00 -0.3992486576149E+00  0.0000000000000E+00  0.9380019742662E-01
 0.3764736469632E+00 -0.4228174599972E+00  0.0000000000000E+00  0.1031647898299E+00
 0.3988781106093E+00 -0.4444410810801E+00  0.0000000000000E+00  0.1086834082717E+00
 0.4194764994903E+00 -0.4646028936103E+00  0.0000000000000E+00  0.1106977742436E+00
 0.4386815339943E+00 -0.4837270748519E+00  0.0000000000000E+00  0.1095180710436E+00
 0.4569166017693E+00 -0.5022514492913E+00  0.0000000000000E+00  0.1053056003421E+00
 0.4745979809010E+00 -0.5206104891557E+00  0.0000000000000E+00  0.9839142428992E-01
 0.4920100725629E+00 -0.5391175551134E+00  0.0000000000000E+00  0.8936859350798E-01
 0.5092693920197E+00 -0.5579345346376E+00  0.0000000000000E+00  0.7887573250819E-01
 0.5262824384041E+00 -0.5770328563603E+00  0.0000000000000E+00  0.6764048472636E-01
 0.5426755340689E+00 -0.5961244718673E+00  0.0000000000000E+00  0.5639327392674E-01
 0.5577277995406E+00 -0.6145946799089E+00  0.0000000000000E+00  0.4565171183715E-01
 0.5706286290127E+00 -0.6317521961404E+00  0.0000000000000E+00  0.3514513848956E-01
 0.5719194454069E-01 -0.1233311425657E+00  0.0000000000000E+00 -0.1103044606368E+00
 0.1192087413223E+00 -0.1815306008799E+00  0.0000000000000E+00 -0.5429739571933E-01
 0.1729092755255E+00 -0.2318698770725E+00  0.0000000000000E+00 -0.1004794046487E-01
 0.2196069101908E+00 -0.2756269645200E+00  0.0000000000000E+00  0.2529580481122E-01
 0.2603768415376E+00 -0.3138509682584E+00  0.0000000000000E+00  0.5365250692846E-01
 0.2961429054885E+00 -0.3474463081755E+00  0.0000000000000E+00  0.7627456365963E-01
 0.3277220924553E+00 -0.3772156070419E+00  0.0000000000000E+00  0.9401788798479E-01
 0.3558348264016E+00 -0.4038695382892E+00  0.0000000000000E+00  0.1075086867319E+00
 0.3811092740888E+00 -0.4280313891729E+00  0.0000000000000E+00  0.1172290627800E+00
 0.4040968012765E+00 -0.4502527356648E+00  0.0000000000000E+00  0.1235552597846E+00
 0.4252878981483E+00 -0.4710296067416E+00  0.0000000000000E+00  0.1268059885747E+00
 0.4451116323976E+00 -0.4908027034370E+00  0.0000000000000E+00  0.1272792502301E+00
 0.4639879661015E+00 -0.5100079670893E+00  0.0000000000000E+00  0.1251840999256E+00
 0.4823080705803E+00 -0.5290579057521E+00  0.0000000000000E+00  0.1208803406070E+00
 0.5003327395158E+00 -0.5482459082552E+00  0.0000000000000E+00  0.1149444476709E+00
 0.5181504908932E+00 -0.5677080996317E+00  0.0000000000000E+00  0.1080003267692E+00
 0.5356375572106E+00 -0.5873857659074E+00  0.0000000000000E+00  0.1007180686963E+00
 0.5524074604555E+00 -0.6069760323443E+00  0.0000000000000E+00  0.9371725376599E-01
 0.5677781087038E+00 -0.6259007208955E+00  0.0000000000000E+00  0.8740001359188E-01
 0.5809618883811E+00 -0.6434912177936E+00  0.0000000000000E+00  0.8159904367866E-01
 0.5430287838173E-01 -0.1212184014390E+00  0.0000000000000E+00 -0.8187860681873E-01
 0.1180788560600E+00 -0.1810875618927E+00  0.0000000000000E+00 -0.3043899006902E-01
 0.1730351252658E+00 -0.2326172998347E+00  0.0000000000000E+00  0.1033379593527E-01
 0.2206642720805E+00 -0.2772598816578E+00  0.0000000000000E+00  0.4308144309004E-01
 0.2621677717494E+00 -0.3161865498470E+00  0.0000000000000E+00  0.6958253984699E-01
 0.2985511137958E+00 -0.3503801470853E+00  0.0000000000000E+00  0.9100382734005E-01
 0.3306798434044E+00 -0.3806895814059E+00  0.0000000000000E+00  0.1081390843425E+00
 0.3593033483405E+00 -0.4078530606296E+00  0.0000000000000E+00  0.1215619287434E+00
 0.3850692576974E+00 -0.4325124680111E+00  0.0000000000000E+00  0.1317098709080E+00
 0.4085426872703E+00 -0.4552326856042E+00  0.0000000000000E+00  0.1389279836529E+00
 0.4302234631574E+00 -0.4765190319970E+00  0.0000000000000E+00  0.1435165582469E+00
 0.4505498265495E+00 -0.4968216104816E+00  0.0000000000000E+00  0.1457673371218E+00
 0.4699339328848E+00 -0.5165698059308E+00  0.0000000000000E+00  0.1459266525859E+00
 0.4887411653078E+00 -0.5361527576579E+00  0.0000000000000E+00  0.1443738502568E+00
 0.5072069101845E+00 -0.5558406775691E+00  0.0000000000000E+00  0.1416632721360E+00
 0.5253943389335E+00 -0.5757456740073E+00  0.0000000000000E+00  0.1383874341071E+00
 0.5431580316093E+00 -0.5957873726468E+00  0.0000000000000E+00  0.1351508851710E+00
 0.5601046442405E+00 -0.6156552594784E+00  0.0000000000000E+00  0.1324773915718E+00
 0.5755726307816E+00 -0.6347901668070E+00  0.0000000000000E+00  0.1306799161242E+00
 0.5887633340203E+00 -0.6525110342832E+00  0.0000000000000E+00  0.1296421866716E+00
 0.5168611772317E-01 -0.1192889036358E+00  0.0000000000000E+00 -0.5294615352178E-01
 0.1170247488213E+00 -0.1806417409996E+00  0.0000000000000E+00 -0.6300461449513E-02
 0.1730826412535E+00 -0.2332157903444E+00  0.0000000000000E+00  0.3088196388550E-01
 0.2215169836680E+00 -0.2786232758081E+00  0.0000000000000E+00  0.6099509417403E-01
 0.2636437921397E+00 -0.3181462242823E+00  0.0000000000000E+00  0.8564916567349E-01
 0.3005427174955E+00 -0.3528387811280E+00  0.0000000000000E+00  0.1059033896722E+00
 0.3331237254545E+00 -0.3835922755229E+00  0.0000000000000E+00  0.1224765014483E+00
 0.3621624226497E+00 -0.4111698316878E+00  0.0000000000000E+00  0.1358845917889E+00
 0.3883230836742E+00 -0.4362291760151E+00  0.0000000000000E+00  0.1465208586293E+00
 0.4121814150182E+00 -0.4593453611510E+00  0.0000000000000E+00  0.1547013222116E+00
 0.4342428870231E+00 -0.4810292779760E+00  0.0000000000000E+00  0.1607107059650E+00
 0.4549488815431E+00 -0.5017343420902E+00  0.0000000000000E+00  0.1648370999069E+00
 0.4747002825515E+00 -0.5218795887931E+00  0.0000000000000E+00  0.1673540304836E+00
 0.4938369352218E+00 -0.5418302479687E+00  0.0000000000000E+00  0.1686507479228E+00
 0.5125693078286E+00 -0.5618330037874E+00  0.0000000000000E+00  0.1692548136498E+00
 0.5309383529832E+00 -0.5819784260006E+00  0.0000000000000E+00  0.1697188304193E+00
 0.5487822308013E+00 -0.6021696346935E+00  0.0000000000000E+00  0.1705805415946E+00
 0.5657026979926E+00 -0.6220905237063E+00  0.0000000000000E+00  0.1722759321911E+00
 0.5810475409637E+00 -0.6411897681645E+00  0.0000000000000E+00  0.1750322621561E+00
 0.5939929881923E+00 -0.6587596064347E+00  0.0000000000000E+00  0.1787281442178E+00
 0.4935023994135E-01 -0.1175479521733E+00  0.0000000000000E+00 -0.2358768782019E-01
 0.1160392702225E+00 -0.1801835545083E+00  0.0000000000000E+00  0.1805982015473E-01
 0.1730354055206E+00 -0.2336470603371E+00  0.0000000000000E+00  0.5154895630219E-01
 0.2221436246900E+00 -0.2796942920583E+00  0.0000000000000E+00  0.7899095428021E-01
 0.2647814699953E+00 -0.3197054667147E+00  0.0000000000000E+00  0.1018024412876E+00
 0.3020939833457E+00 -0.3547976184189E+00  0.0000000000000E+00  0.1209160814301E+00
 0.3350301452456E+00 -0.3858993418931E+00  0.0000000000000E+00  0.1369640031563E+00
 0.3643880645383E+00 -0.4137951088766E+00  0.0000000000000E+00  0.1503998471976E+00
 0.3908452812103E+00 -0.4391551815922E+00  0.0000000000000E+00  0.1615720451066E+00
 0.4149846354248E+00 -0.4625613399029E+00  0.0000000000000E+00  0.1707686802990E+00
 0.4373135340894E+00 -0.4845262774950E+00  0.0000000000000E+00  0.1782602303148E+00
 0.4582715272053E+00 -0.5055016328943E+00  0.0000000000000E+00  0.1843314005090E+00
 0.4782457162508E+00 -0.5258932164494E+00  0.0000000000000E+00  0.1892735428548E+00
 0.4975512429017E+00 -0.5460425474021E+00  0.0000000000000E+00  0.1934773797855E+00
 0.5163750209788E+00 -0.5661734907495E+00  0.0000000000000E+00  0.1974404755440E+00
 0.5347385611556E+00 -0.5863573646505E+00  0.0000000000000E+00  0.2016713020951E+00
 0.5524670934012E+00 -0.6064839497685E+00  0.0000000000000E+00  0.2066411791998E+00
 0.5691589180051E+00 -0.6262326852989E+00  0.0000000000000E+00  0.2127018116608E+00
 0.5841665199320E+00 -0.6450552194447E+00  0.0000000000000E+00  0.2199912768307E+00
 0.5966392987690E+00 -0.6622159125868E+00  0.0000000000000E+00  0.2283362443969E+00
 0.4730302397820E-01 -0.1160005360737E+00  0.0000000000000E+00  0.6111754496412E-02
 0.1151165251509E+00 -0.1797050723724E+00  0.0000000000000E+00  0.4258171388929E-01
 0.1728797600455E+00 -0.2338959372444E+00  0.0000000000000E+00  0.7228691940829E-01
 0.2225264978657E+00 -0.2804540976754E+00  0.0000000000000E+00  0.9702408440600E-01
 0.2655615599758E+00 -0.3208441747121E+00  0.0000000000000E+00  0.1179938772141E+00
 0.3031855647781E+00 -0.3562366362462E+00  0.0000000000000E+00  0.1359859856864E+00
 0.3363801043928E+00 -0.3875911899191E+00  0.0000000000000E+00  0.1515357823496E+00
 0.3659612826279E+00 -0.4157093001238E+00  0.0000000000000E+00  0.1650297648013E+00
 0.3926160689875E+00 -0.4412700044215E+00  0.0000000000000E+00  0.1767705514147E+00
 0.4169308169546E+00 -0.4648581919998E+00  0.0000000000000E+00  0.1870184718527E+00
 0.4394113126614E+00 -0.4869847223512E+00  0.0000000000000E+00  0.1960298235987E+00
 0.4604912478557E+00 -0.5080952770474E+00  0.0000000000000E+00  0.2040846583293E+00
 0.4805421910162E+00 -0.5285803500848E+00  0.0000000000000E+00  0.2114838571921E+00
 0.4998556601242E+00 -0.5487582948258E+00  0.0000000000000E+00  0.2186126507534E+00
 0.5185966265114E+00 -0.5688312290120E+00  0.0000000000000E+00  0.2259364663802E+00
 0.5367695484723E+00 -0.5888531281443E+00  0.0000000000000E+00  0.2339175471180E+00
 0.5541894701010E+00 -0.6087027394023E+00  0.0000000000000E+00  0.2429615550643E+00
 0.5704530342838E+00 -0.6280563919722E+00  0.0000000000000E+00  0.2533376939327E+00
 0.5849168752765E+00 -0.6463678299822E+00  0.0000000000000E+00  0.2650915172901E+00
 0.5967098150813E+00 -0.6628797206894E+00  0.0000000000000E+00  0.2779655801508E+00
 0.4555134077023E-01 -0.1146512806106E+00  0.0000000000000E+00  0.3606353334649E-01
 0.1142518921261E+00 -0.1792000664212E+00  0.0000000000000E+00  0.6720398426930E-01
 0.1726047865338E+00 -0.2339503419703E+00  0.0000000000000E+00  0.9304820919643E-01
 0.2226516035416E+00 -0.2808878501965E+00  0.0000000000000E+00  0.1150505408446E+00
 0.2659690722107E+00 -0.3215467385239E+00  0.0000000000000E+00  0.1341763637138E+00
 0.3038027045334E+00 -0.3571405976457E+00  0.0000000000000E+00  0.1510584193506E+00
 0.3371595185027E+00 -0.3886533176575E+00  0.0000000000000E+00  0.1661265821741E+00
 0.3668684963027E+00 -0.4168983949171E+00  0.0000000000000E+00  0.1796958623323E+00
 0.3936218719589E+00 -0.4425595513460E+00  0.0000000000000E+00  0.1920215871678E+00
 0.4180058374806E+00 -0.4662211066990E+00  0.0000000000000E+00  0.2033357428579E+00
 0.4405212372500E+00 -0.4883886773894E+00  0.0000000000000E+00  0.2138795574503E+00
 0.4615926631004E+00 -0.5094985835004E+00  0.0000000000000E+00  0.2239262412881E+00
 0.4815749505025E+00 -0.5299244899356E+00  0.0000000000000E+00  0.2337790257328E+00
 0.5007371202760E+00 -0.5499622508401E+00  0.0000000000000E+00  0.2438119921410E+00
 0.5192238176721E+00 -0.5697933674818E+00  0.0000000000000E+00  0.2544569497487E+00
 0.5370245577729E+00 -0.5894561013866E+00  0.0000000000000E+00  0.2661289399557E+00
 0.5539466220784E+00 -0.6088200993672E+00  0.0000000000000E+00  0.2791689793233E+00
 0.5695871871344E+00 -0.6275602632092E+00  0.0000000000000E+00  0.2937651574394E+00
 0.5833088550059E+00 -0.6451338033389E+00  0.0000000000000E+00  0.3098675460037E+00
 0.5942310224089E+00 -0.6607717528064E+00  0.0000000000000E+00  0.3271113919344E+00
 0.4410103418256E-01 -0.1135043568954E+00  0.0000000000000E+00  0.6617623787319E-01
 0.1134420172668E+00 -0.1786640197149E+00  0.0000000000000E+00  0.9186480908082E-01
 0.1722023123513E+00 -0.2338012960055E+00  0.0000000000000E+00  0.1137857105528E+00
 0.2225086510564E+00 -0.2809847048522E+00  0.0000000000000E+00  0.1330275181204E+00
 0.2659933353869E+00 -0.3218021045643E+00  0.0000000000000E+00  0.1503042140457E+00
 0.3039353834861E+00 -0.3574992057200E+00  0.0000000000000E+00  0.1660800354344E+00
 0.3373594542295E+00 -0.3890765577868E+00  0.0000000000000E+00  0.1806720142886E+00
 0.3671018471515E+00 -0.4173542871286E+00  0.0000000000000E+00  0.1943197645933E+00
 0.3938556870000E+00 -0.4430164997636E+00  0.0000000000000E+00  0.2072295712025E+00
 0.4182033593962E+00 -0.4666432947929E+00  0.0000000000000E+00  0.2196038996562E+00
 0.4406377141951E+00 -0.4887319058045E+00  0.0000000000000E+00  0.2316673405289E+00
 0.4615716291486E+00 -0.5097065170243E+00  0.0000000000000E+00  0.2436835616538E+00
 0.4813423919116E+00 -0.5299228653386E+00  0.0000000000000E+00  0.2559519737131E+00
 0.5001976069595E+00 -0.5496549788942E+00  0.0000000000000E+00  0.2688308856251E+00
 0.5182631253425E+00 -0.5690648239226E+00  0.0000000000000E+00  0.2827174016929E+00
 0.5355154184891E+00 -0.5881763711728E+00  0.0000000000000E+00  0.2979790676511E+00
 0.5517562637447E+00 -0.6068519146774E+00  0.0000000000000E+00  0.3148935516138E+00
 0.5665859052631E+00 -0.6247669169023E+00  0.0000000000000E+00  0.3335692876945E+00
 0.5793765987933E+00 -0.6413850918239E+00  0.0000000000000E+00  0.3538587527707E+00
 0.5892512271783E+00 -0.6559376849869E+00  0.0000000000000E+00  0.3752761596414E+00
 0.4295680519468E-01 -0.1125633839743E+00  0.0000000000000E+00  0.9635651067133E-01
 0.1126847893711E+00 -0.1780941116118E+00  0.0000000000000E+00  0.1165022164448E+00
 0.1716669109795E+00 -0.2334429245748E+00  0.0000000000000E+00  0.1344530908163E+00
 0.2220910691543E+00 -0.2807378246143E+00  0.0000000000000E+00  0.1509134975189E+00
 0.2656280382548E+00 -0.3216038179616E+00  0.0000000000000E+00  0.1663332811232E+00
 0.3035784160808E+00 -0.3573072034567E+00  0.0000000000000E+00  0.1809990249063E+00
 0.3369762830884E+00 -0.3888572388447E+00  0.0000000000000E+00  0.1951089780019E+00
 0.3666593970209E+00 -0.4170749839585E+00  0.0000000000000E+00  0.2088239631260E+00
 0.3933172964469E+00 -0.4426405268304E+00  0.0000000000000E+00  0.2222993441378E+00
 0.4175250080958E+00 -0.4661261890241E+00  0.0000000000000E+00  0.2357064786166E+00
 0.4397646077400E+00 -0.4880179612092E+00  0.0000000000000E+00  0.2492512936822E+00
 0.4604351422769E+00 -0.5087256241867E+00  0.0000000000000E+00  0.2631849499551E+00
 0.4798558080480E+00 -0.5285861855195E+00  0.0000000000000E+00  0.2777977088619E+00
 0.4982537936696E+00 -0.5478524810051E+00  0.0000000000000E+00  0.2934282650669E+00
 0.5157375687887E+00 -0.5666679329386E+00  0.0000000000000E+00  0.3104381690012E+00
 0.5322722805814E+00 -0.5850434747146E+00  0.0000000000000E+00  0.3291476242262E+00
 0.5476563391786E+00 -0.6028356676996E+00  0.0000000000000E+00  0.3497725647829E+00
 0.5614958861434E+00 -0.6197227789223E+00  0.0000000000000E+00  0.3723437330827E+00
 0.5731776185586E+00 -0.6351791415578E+00  0.0000000000000E+00  0.3966161510188E+00
 0.5818405013559E+00 -0.6484479033581E+00  0.0000000000000E+00  0.4219781050866E+00
 0.4212211167609E-01 -0.1118313370773E+00  0.0000000000000E+00  0.1265098563590E+00
 0.1119793021690E+00 -0.1774891849115E+00  0.0000000000000E+00  0.1410544745754E+00
 0.1709958863974E+00 -0.2328724421770E+00  0.0000000000000E+00  0.1550050062306E+00
 0.2213959977868E+00 -0.2801443716218E+00  0.0000000000000E+00  0.1686683823519E+00
 0.2648712381422E+00 -0.3209500315472E+00  0.0000000000000E+00  0.1822211015744E+00
 0.3027314885442E+00 -0.3565644146003E+00  0.0000000000000E+00  0.1957653680659E+00
 0.3360117500636E+00 -0.3879972591096E+00  0.0000000000000E+00  0.2093761306549E+00
 0.3655452108107E+00 -0.4160646968843E+00  0.0000000000000E+00  0.2231326143546E+00
 0.3920133335670E+00 -0.4414383863638E+00  0.0000000000000E+00  0.2371373886143E+00
 0.4159803732529E+00 -0.4646794594812E+00  0.0000000000000E+00  0.2515288593966E+00
 0.4379151205210E+00 -0.4862600824007E+00  0.0000000000000E+00  0.2664919725920E+00
 0.4582010742864E+00 -0.5065737777114E+00  0.0000000000000E+00  0.2822623017256E+00
 0.4771389944450E+00 -0.5259382459095E+00  0.0000000000000E+00  0.2991163054147E+00
 0.4949365674062E+00 -0.5445857126078E+00  0.0000000000000E+00  0.3173697952866E+00
 0.5116861611487E+00 -0.5626419422049E+00  0.0000000000000E+00  0.3373480523407E+00
 0.5273431393753E+00 -0.5801059223983E+00  0.0000000000000E+00  0.3593243933316E+00
 0.5417045404400E+00 -0.5968299639441E+00  0.0000000000000E+00  0.3834549981892E+00
 0.5543853041475E+00 -0.6124974546598E+00  0.0000000000000E+00  0.4096958420496E+00
 0.5647916193675E+00 -0.6265977455554E+00  0.0000000000000E+00  0.4377075052501E+00
 0.5720897083428E+00 -0.6383962784829E+00  0.0000000000000E+00  0.4667547891457E+00
 0.4159908787352E-01 -0.1113104684987E+00  0.0000000000000E+00  0.1565414502237E+00
 0.1113258058481E+00 -0.1768496977137E+00  0.0000000000000E+00  0.1654604669287E+00
 0.1701892359485E+00 -0.2320901145753E+00  0.0000000000000E+00  0.1753972909287E+00
 0.2204242521784E+00 -0.2792054699761E+00  0.0000000000000E+00  0.1862536313091E+00
 0.2637253297917E+00 -0.3198434742614E+00  0.0000000000000E+00  0.1979270602213E+00
 0.3013991381721E+00 -0.3552757241487E+00  0.0000000000000E+00  0.2103311192981E+00
 0.3344729593914E+00 -0.3865040755526E+00  0.0000000000000E+00  0.2234143883471E+00
 0.3637693305119E+00 -0.4143338208638E+00  0.0000000000000E+00  0.2371723482934E+00
 0.3899572137723E+00 -0.4394238468143E+00  0.0000000000000E+00  0.2516530218236E+00
 0.4135868566430E+00 -0.4623208684783E+00  0.0000000000000E+00  0.2669598915247E+00
 0.4351115166924E+00 -0.4834809213186E+00  0.0000000000000E+00  0.2832544355078E+00
 0.4548977587890E+00 -0.5032797617408E+00  0.0000000000000E+00  0.3007535322482E+00
 0.4732277163171E+00 -0.5220153857257E+00  0.0000000000000E+00  0.3197157111610E+00
 0.4902904081872E+00 -0.5398999454541E+00  0.0000000000000E+00  0.3404310373642E+00
 0.5061632424956E+00 -0.5570423255563E+00  0.0000000000000E+00  0.3631878570209E+00
 0.5207931455213E+00 -0.5734304885124E+00  0.0000000000000E+00  0.3882132460627E+00
 0.5339775527141E+00 -0.5889137692997E+00  0.0000000000000E+00  0.4156059973497E+00
 0.5453428710621E+00 -0.6031827812504E+00  0.0000000000000E+00  0.4452513481235E+00
 0.5543193973274E+00 -0.6157458833552E+00  0.0000000000000E+00  0.4767211751758E+00
 0.5601098024025E+00 -0.6258992695644E+00  0.0000000000000E+00  0.5091648460074E+00
 0.4138848711418E-01 -0.1110022443826E+00  0.0000000000000E+00  0.1863569242049E+00
 0.1107256499821E+00 -0.1761776622668E+00  0.0000000000000E+00  0.1896600473573E+00
 0.1692495901405E+00 -0.2310991948904E+00  0.0000000000000E+00  0.1955871272766E+00
 0.2191802549532E+00 -0.2779261348137E+00  0.0000000000000E+00  0.2036323826611E+00
 0.2621969710924E+00 -0.3182913748688E+00  0.0000000000000E+00  0.2134125580431E+00
 0.2995906732388E+00 -0.3534509975862E+00  0.0000000000000E+00  0.2246507008871E+00
 0.3323722807679E+00 -0.3843906107287E+00  0.0000000000000E+00  0.2371674278333E+00
 0.3613476480624E+00 -0.4118988089168E+00  0.0000000000000E+00  0.2508730548359E+00
 0.3871689445916E+00 -0.4366175031589E+00  0.0000000000000E+00  0.2657595267339E+00
 0.4103693843001E+00 -0.4590759832327E+00  0.0000000000000E+00  0.2818934088920E+00
 0.4313847044106E+00 -0.4797121223876E+00  0.0000000000000E+00  0.2994101491688E+00
 0.4505634357716E+00 -0.4988827068265E+00  0.0000000000000E+00  0.3185048473854E+00
 0.4681690281894E+00 -0.5168657896454E+00  0.0000000000000E+00  0.3394143823854E+00
 0.4843726052789E+00 -0.5338539576066E+00  0.0000000000000E+00  0.3624004797688E+00
 0.4992376206864E+00 -0.5499398907905E+00  0.0000000000000E+00  0.3877138584375E+00
 0.5127036877551E+00 -0.5651012570665E+00  0.0000000000000E+00  0.4155360774336E+00
 0.5245700735912E+00 -0.5791853868526E+00  0.0000000000000E+00  0.4459112067403E+00
 0.5344768115113E+00 -0.5918917426073E+00  0.0000000000000E+00  0.4786587044307E+00
 0.5418819958661E+00 -0.6027507727708E+00  0.0000000000000E+00  0.5132695909816E+00
 0.5460316410832E+00 -0.6110955999047E+00  0.0000000000000E+00  0.5487897350799E+00
 0.4148964324999E-01 -0.1109072977762E+00  0.0000000000000E+00  0.2158631434505E+00
 0.1101812163894E+00 -0.1754765713991E+00  0.0000000000000E+00  0.2135943905762E+00
 0.1681821259979E+00 -0.2299058322466E+00  0.0000000000000E+00  0.2155332110774E+00
 0.2176719320486E+00 -0.2763151646662E+00  0.0000000000000E+00  0.2207695745506E+00
 0.2602969622274E+00 -0.3163053386277E+00  0.0000000000000E+00  0.2286411782433E+00
 0.2973200326448E+00 -0.3511049390035E+00  0.0000000000000E+00  0.2386811910898E+00
 0.3297271787524E+00 -0.3816750813173E+00  0.0000000000000E+00  0.2505821677378E+00
 0.3583016840539E+00 -0.4087819500250E+00  0.0000000000000E+00  0.2641686212795E+00
 0.3836748257433E+00 -0.4330464751212E+00  0.0000000000000E+00  0.2793751947149E+00
 0.4063599970089E+00 -0.4549777617843E+00  0.0000000000000E+00  0.2962296088680E+00
 0.4267736898923E+00 -0.4749937671811E+00  0.0000000000000E+00  0.3148387162161E+00
 0.4452455605050E+00 -0.4934313821983E+00  0.0000000000000E+00  0.3353728131760E+00
 0.4620204443266E+00 -0.5105486323530E+00  0.0000000000000E+00  0.3580437159233E+00
 0.4772523024377E+00 -0.5265190425955E+00  0.0000000000000E+00  0.3830823796948E+00
 0.4909915123696E+00 -0.5414196741423E+00  0.0000000000000E+00  0.4107010978539E+00
 0.5031712562090E+00 -0.5552184270450E+00  0.0000000000000E+00  0.4410365744240E+00
 0.5135936449541E+00 -0.5677612150687E+00  0.0000000000000E+00  0.4740809097559E+00
 0.5219137887971E+00 -0.5787572975274E+00  0.0000000000000E+00  0.5095932677191E+00
 0.5276200377833E+00 -0.5877610757110E+00  0.0000000000000E+00  0.5469929373892E+00
 0.5300062058325E+00 -0.5941463348135E+00  0.0000000000000E+00  0.5852364743149E+00
 0.4190045660803E-01 -0.1110253988031E+00  0.0000000000000E+00  0.2449689604908E+00
 0.1096958447031E+00 -0.1747513133464E+00  0.0000000000000E+00  0.2372063300150E+00
 0.1669944568341E+00 -0.2285189535085E+00  0.0000000000000E+00  0.2351959058064E+00
 0.2159105745654E+00 -0.2743849972285E+00  0.0000000000000E+00  0.2376320528162E+00
 0.2580400809736E+00 -0.3139011778399E+00  0.0000000000000E+00  0.2435788362459E+00
 0.2946055899689E+00 -0.3482568912327E+00  0.0000000000000E+00  0.2523825864998E+00
 0.3265599729923E+00 -0.3783807546540E+00  0.0000000000000E+00  0.2636092047821E+00
 0.3546582833075E+00 -0.4050110603723E+00  0.0000000000000E+00  0.2769975946783E+00
 0.3795070533866E+00 -0.4287440051653E+00  0.0000000000000E+00  0.2924242536789E+00
 0.4015973346680E+00 -0.4500660274509E+00  0.0000000000000E+00  0.3098762729705E+00
 0.4213249170484E+00 -0.4693736984307E+00  0.0000000000000E+00  0.3294294033294E+00
 0.4389999869752E+00 -0.4869833554798E+00  0.0000000000000E+00  0.3512261990591E+00
 0.4548489657881E+00 -0.5031330714797E+00  0.0000000000000E+00  0.3754502405642E+00
 0.4690093747415E+00 -0.5179778398130E+00  0.0000000000000E+00  0.4022993586598E+00
 0.4815192874287E+00 -0.5315796238068E+00  0.0000000000000E+00  0.4319464353764E+00
 0.4923060938897E+00 -0.5438968852464E+00  0.0000000000000E+00  0.4644837543077E+00
 0.5011752990482E+00 -0.5547742932720E+00  0.0000000000000E+00  0.4998539966707E+00
 0.5077977328049E+00 -0.5639310818802E+00  0.0000000000000E+00  0.5377615079585E+00
 0.5116930881224E+00 -0.5709461124083E+00  0.0000000000000E+00  0.5775633018005E+00
 0.5122050228532E+00 -0.5752351355620E+00  0.0000000000000E+00  0.6181414335983E+00
 0.4261740030420E-01 -0.1113554420229E+00  0.0000000000000E+00  0.2735859240282E+00
 0.1092737504820E+00 -0.1740080764582E+00  0.0000000000000E+00  0.2604406715914E+00
 0.1656964986156E+00 -0.2269501199888E+00  0.0000000000000E+00  0.2545373775542E+00
 0.2139106675326E+00 -0.2721515307909E+00  0.0000000000000E+00  0.2541886575002E+00
 0.2554448763439E+00 -0.3110986995714E+00  0.0000000000000E+00  0.2581939014760E+00
 0.2914699062586E+00 -0.3449305833200E+00  0.0000000000000E+00  0.2657180228067E+00
 0.3228975364334E+00 -0.3745356413863E+00  0.0000000000000E+00  0.2762031864580E+00
 0.3504492375229E+00 -0.4006190991519E+00  0.0000000000000E+00  0.2893037496107E+00
 0.3747032413290E+00 -0.4237489701877E+00  0.0000000000000E+00  0.3048376632432E+00
 0.3961260285880E+00 -0.4443868471769E+00  0.0000000000000E+00  0.3227498122738E+00
 0.4150915060826E+00 -0.4629067381581E+00  0.0000000000000E+00  0.3430824532235E+00
 0.4318900373241E+00 -0.4796040326887E+00  0.0000000000000E+00  0.3659475720779E+00
 0.4467299734164E+00 -0.4946970995197E+00  0.0000000000000E+00  0.3914975335088E+00
 0.4597331443637E+00 -0.5083229947448E+00  0.0000000000000E+00  0.4198947035011E+00
 0.4709260217865E+00 -0.5205290792844E+00  0.0000000000000E+00  0.4512713019212E+00
 0.4802306319781E+00 -0.5312645456789E+00  0.0000000000000E+00  0.4856752296351E+00
 0.4874559855402E+00 -0.5403726057453E+00  0.0000000000000E+00  0.5230017753426E+00
 0.4922884778683E+00 -0.5475818965986E+00  0.0000000000000E+00  0.5629053386245E+00
 0.4942788839617E+00 -0.5524949170577E+00  0.0000000000000E+00  0.6046894507875E+00
 0.4928205491077E+00 -0.5545684576377E+00  0.0000000000000E+00  0.6471755515172E+00
 0.4363554689996E-01 -0.1118954498860E+00  0.0000000000000E+00  0.3016289511843E+00
 0.1089199370263E+00 -0.1732542448518E+00  0.0000000000000E+00  0.2832444917744E+00
 0.1643003152867E+00 -0.2252133610499E+00  0.0000000000000E+00  0.2735217179888E+00
 0.2116896884865E+00 -0.2696339138692E+00  0.0000000000000E+00  0.2704102914361E+00
 0.2525334244863E+00 -0.3079214541115E+00  0.0000000000000E+00  0.2724572895108E+00
 0.2879394371295E+00 -0.3411538306476E+00  0.0000000000000E+00  0.2786539480223E+00
 0.3187709393227E+00 -0.3701721319189E+00  0.0000000000000E+00  0.2883231109944E+00
 0.3457108452171E+00 -0.3956437191766E+00  0.0000000000000E+00  0.3010365505673E+00
 0.3693058715157E+00 -0.4181053194380E+00  0.0000000000000E+00  0.3165537655654E+00
 0.3899960153793E+00 -0.4379918278129E+00  0.0000000000000E+00  0.3347761255254E+00
 0.4081324049908E+00 -0.4556538143908E+00  0.0000000000000E+00  0.3557101655369E+00
 0.4239854710330E+00 -0.4713655929005E+00  0.0000000000000E+00  0.3794346191161E+00
 0.4377460002423E+00 -0.4853262689869E+00  0.0000000000000E+00  0.4060678261900E+00
 0.4495209477741E+00 -0.4976556627106E+00  0.0000000000000E+00  0.4357343222038E+00
 0.4593258666876E+00 -0.5083870566274E+00  0.0000000000000E+00  0.4685240877500E+00
 0.4670777014964E+00 -0.5174604516516E+00  0.0000000000000E+00  0.5044401343078E+00
 0.4725887320546E+00 -0.5247171012111E+00  0.0000000000000E+00  0.5433315712698E+00
 0.4755601025738E+00 -0.5298938716500E+00  0.0000000000000E+00  0.5848065570489E+00
 0.4755722557526E+00 -0.5326149622029E+00  0.0000000000000E+00  0.6281222444093E+00
 0.4720663134914E+00 -0.5323754692600E+00  0.0000000000000E+00  0.6720508420371E+00
 0.4494861425865E-01 -0.1126425918723E+00  0.0000000000000E+00  0.3290169517805E+00
 0.1086401023297E+00 -0.1724982867233E+00  0.0000000000000E+00  0.3055674139266E+00
 0.1628199459598E+00 -0.2233249877801E+00  0.0000000000000E+00  0.2921150506344E+00
 0.2092678798612E+00 -0.2668543071715E+00  0.0000000000000E+00  0.2862699654430E+00
 0.2493310520085E+00 -0.3043964494640E+00  0.0000000000000E+00  0.2863425168481E+00
 0.2840442009800E+00 -0.3369581946561E+00  0.0000000000000E+00  0.2911602380534E+00
 0.3142150478497E+00 -0.3653265857149E+00  0.0000000000000E+00  0.2999325428336E+00
 0.3404834200160E+00 -0.3901267636855E+00  0.0000000000000E+00  0.3121514964326E+00
 0.3633616869514E+00 -0.4118614522823E+00  0.0000000000000E+00  0.3275187790304E+00
 0.3832617873052E+00 -0.4309373458061E+00  0.0000000000000E+00  0.3458912562355E+00
 0.4005114701325E+00 -0.4476810133900E+00  0.0000000000000E+00  0.3672377297103E+00
 0.4153613713083E+00 -0.4623458359696E+00  0.0000000000000E+00  0.3916011728382E+00
 0.4279854019993E+00 -0.4751123107551E+00  0.0000000000000E+00  0.4190632635876E+00
 0.4384765729334E+00 -0.4860838764490E+00  0.0000000000000E+00  0.4497083043435E+00
 0.4468402479445E+00 -0.4952803558810E+00  0.0000000000000E+00  0.4835821009529E+00
 0.4529885190716E+00 -0.5026326416027E+00  0.0000000000000E+00  0.5206416265218E+00
 0.4567364956331E+00 -0.5079793915928E+00  0.0000000000000E+00  0.5606899986899E+00
 0.4577988397921E+00 -0.5110641798517E+00  0.0000000000000E+00  0.6032912700118E+00
 0.4557835137790E+00 -0.5115303075260E+00  0.0000000000000E+00  0.6476607743021E+00
 0.4501763377477E+00 -0.5089072815950E+00  0.0000000000000E+00  0.6925290010783E+00
 0.4654902935601E-01 -0.1135932185440E+00  0.0000000000000E+00  0.3556734002010E+00
 0.1084405428630E+00 -0.1717496373441E+00  0.0000000000000E+00  0.3273618621307E+00
 0.1612712173787E+00 -0.2213033903388E+00  0.0000000000000E+00  0.3102856202679E+00
 0.2066679997414E+00 -0.2638376225882E+00  0.0000000000000E+00  0.3017428186012E+00
 0.2458660324177E+00 -0.3005538376702E+00  0.0000000000000E+00  0.2998257146891E+00
 0.2798174154391E+00 -0.3323786094235E+00  0.0000000000000E+00  0.3032102490496E+00
 0.3092680863218E+00 -0.3600388825503E+00  0.0000000000000E+00  0.3109997367700E+00
 0.3348107581746E+00 -0.3841137205224E+00  0.0000000000000E+00  0.3226103396690E+00
 0.3569210399690E+00 -0.4050695491438E+00  0.0000000000000E+00  0.3376871270920E+00
 0.3759815940328E+00 -0.4232837257862E+00  0.0000000000000E+00  0.3560418400759E+00
 0.3922964928750E+00 -0.4390585751014E+00  0.0000000000000E+00  0.3776037982802E+00
 0.4060969680935E+00 -0.4526269636717E+00  0.0000000000000E+00  0.4023779232687E+00
 0.4175409477737E+00 -0.4641516689149E+00  0.0000000000000E+00  0.4304067884778E+00
 0.4267085896974E+00 -0.4737208027694E+00  0.0000000000000E+00  0.4617320422397E+00
 0.4335959152863E+00 -0.4813415134596E+00  0.0000000000000E+00  0.4963530299617E+00
 0.4381104525511E+00 -0.4869357888786E+00  0.0000000000000E+00  0.5341788689474E+00
 0.4400696821530E+00 -0.4903391090365E+00  0.0000000000000E+00  0.5749657580362E+00
 0.4392004346734E+00 -0.4913002007886E+00  0.0000000000000E+00  0.6182340302902E+00
 0.4351358441410E+00 -0.4894787381498E+00  0.0000000000000E+00  0.6631591043303E+00
 0.4274026454539E+00 -0.4844342739081E+00  0.0000000000000E+00  0.7084333529925E+00
 0.4842800881818E-01 -0.1147429097155E+00  0.0000000000000E+00  0.3815268502569E+00
 0.1083280562136E+00 -0.1710185790676E+00  0.0000000000000E+00  0.3485832911421E+00
 0.1596715456258E+00 -0.2191688231170E+00  0.0000000000000E+00  0.3280038647589E+00
 0.2039150561806E+00 -0.2606112445183E+00  0.0000000000000E+00  0.3168061121250E+00
 0.2421692619733E+00 -0.2964265793587E+00  0.0000000000000E+00  0.3128855988076E+00
 0.2752951096358E+00 -0.3274529828113E+00  0.0000000000000E+00  0.3147808023327E+00
 0.3039711720439E+00 -0.3543519450780E+00  0.0000000000000E+00  0.3214976658702E+00
 0.3287395763460E+00 -0.3776531449864E+00  0.0000000000000E+00  0.3323811751740E+00
 0.3500372089301E+00 -0.3977848690938E+00  0.0000000000000E+00  0.3470215971906E+00
 0.3682166111693E+00 -0.4150943839532E+00  0.0000000000000E+00  0.3651853368832E+00
 0.3835581904074E+00 -0.4298598506029E+00  0.0000000000000E+00  0.3867607927072E+00
 0.3962744192353E+00 -0.4422943167018E+00  0.0000000000000E+00  0.4117128020297E+00
 0.4065083563726E+00 -0.4525439790456E+00  0.0000000000000E+00  0.4400426285534E+00
 0.4143286027430E+00 -0.4606829194496E+00  0.0000000000000E+00  0.4717468750904E+00
 0.4197228711314E+00 -0.4667066318933E+00  0.0000000000000E+00  0.5067758442996E+00
 0.4225945894532E+00 -0.4705286410692E+00  0.0000000000000E+00  0.5449883743445E+00
 0.4227633295921E+00 -0.4719809253277E+00  0.0000000000000E+00  0.5860917630540E+00
 0.4199669502449E+00 -0.4708161149162E+00  0.0000000000000E+00  0.6295612985037E+00
 0.4138616379575E+00 -0.4667078870854E+00  0.0000000000000E+00  0.6745317231047E+00
 0.4040117245007E+00 -0.4592419618663E+00  0.0000000000000E+00  0.7196561104628E+00
 0.5057565461835E-01 -0.1160865358184E+00  0.0000000000000E+00  0.4065113865438E+00
 0.1083098448344E+00 -0.1703161210048E+00  0.0000000000000E+00  0.3691903894818E+00
 0.1580397315579E+00 -0.2169431824773E+00  0.0000000000000E+00  0.3452424674120E+00
 0.2010360309763E+00 -0.2572047396273E+00  0.0000000000000E+00  0.3314391945982E+00
 0.2382739219709E+00 -0.2920500937140E+00  0.0000000000000E+00  0.3255033925027E+00
 0.2705157205208E+00 -0.3222217805987E+00  0.0000000000000E+00  0.3258520983663E+00
 0.2983678326208E+00 -0.3483112426593E+00  0.0000000000000E+00  0.3314039496172E+00
 0.3223189311250E+00 -0.3707960631982E+00  0.0000000000000E+00  0.3414383956760E+00
 0.3427656970288E+00 -0.3900650281932E+00  0.0000000000000E+00  0.3554933270978E+00
 0.3600300918269E+00 -0.4064349530583E+00  0.0000000000000E+00  0.3732900446575E+00
 0.3743691801818E+00 -0.4201602417032E+00  0.0000000000000E+00  0.3946749380946E+00
 0.3859775735023E+00 -0.4314350921307E+00  0.0000000000000E+00  0.4195710323701E+00
 0.3949848077338E+00 -0.4403905204353E+00  0.0000000000000E+00  0.4479363728602E+00
 0.4014494629982E+00 -0.4470881502319E+00  0.0000000000000E+00  0.4797202284395E+00
 0.4053522214948E+00 -0.4515131320399E+00  0.0000000000000E+00  0.5148210756609E+00
 0.4065931508450E+00 -0.4535713066145E+00  0.0000000000000E+00  0.5530445987730E+00
 0.4049940001127E+00 -0.4530912766205E+00  0.0000000000000E+00  0.5940463807663E+00
 0.4003030479604E+00 -0.4498289743928E+00  0.0000000000000E+00  0.6372538934842E+00
 0.3921982411407E+00 -0.4434706643967E+00  0.0000000000000E+00  0.6817578324644E+00
 0.3802798440125E+00 -0.4336260880665E+00  0.0000000000000E+00  0.7261661822428E+00
 0.5298106328260E-01 -0.1176183314544E+00  0.0000000000000E+00  0.4305670101446E+00
 0.1083934232276E+00 -0.1696538811105E+00  0.0000000000000E+00  0.3891452561610E+00
 0.1563957545867E+00 -0.2146497819706E+00  0.0000000000000E+00  0.3619763907658E+00
 0.1980595988711E+00 -0.2536495612094E+00  0.0000000000000E+00  0.3456234389576E+00
 0.2342151343987E+00 -0.2874619009812E+00  0.0000000000000E+00  0.3376627023119E+00
 0.2655196811864E+00 -0.3167276017284E+00  0.0000000000000E+00  0.3364075592034E+00
 0.2925035148990E+00 -0.3419642859020E+00  0.0000000000000E+00  0.3407006821576E+00
 0.3155996312472E+00 -0.3635953671643E+00  0.0000000000000E+00  0.3497625144888E+00
 0.3351635261857E+00 -0.3819692719719E+00  0.0000000000000E+00  0.3630816205482E+00
 0.3514865168212E+00 -0.3973724051043E+00  0.0000000000000E+00  0.3803348982068E+00
 0.3648029569674E+00 -0.4100361423216E+00  0.0000000000000E+00  0.4013260296545E+00
 0.3752907390623E+00 -0.4201370657094E+00  0.0000000000000E+00  0.4259348467873E+00
 0.3830674596212E+00 -0.4277926735156E+00  0.0000000000000E+00  0.4540746360800E+00
 0.3881834776978E+00 -0.4330539993497E+00  0.0000000000000E+00  0.4856452379032E+00
 0.3906140021194E+00 -0.4358974832803E+00  0.0000000000000E+00  0.5204904417327E+00
 0.3902568208775E+00 -0.4362224610974E+00  0.0000000000000E+00  0.5583596816948E+00
 0.3869364541776E+00 -0.4338548776708E+00  0.0000000000000E+00  0.5988535689744E+00
 0.3804118399107E+00 -0.4285543325698E+00  0.0000000000000E+00  0.6413480927415E+00
 0.3703828481940E+00 -0.4200198782850E+00  0.0000000000000E+00  0.6848846403317E+00
 0.3564866765658E+00 -0.4078859819600E+00  0.0000000000000E+00  0.7280169923058E+00
 0.5563244704352E-01 -0.1193319800933E+00  0.0000000000000E+00  0.4536399577101E+00
 0.1085865309947E+00 -0.1690439734912E+00  0.0000000000000E+00  0.4084135519644E+00
 0.1547605696181E+00 -0.2123131300771E+00  0.0000000000000E+00  0.3781828931484E+00
 0.1950158483127E+00 -0.2499787544512E+00  0.0000000000000E+00  0.3593421521000E+00
 0.2300296179241E+00 -0.2827012645985E+00  0.0000000000000E+00  0.3493493469216E+00
 0.2603490089136E+00 -0.3110147525343E+00  0.0000000000000E+00  0.3464336000567E+00
 0.2864250943399E+00 -0.3353601208697E+00  0.0000000000000E+00  0.3493741623278E+00
 0.3086336527746E+00 -0.3561052121154E+00  0.0000000000000E+00  0.3573398588938E+00
 0.3272885384466E+00 -0.3735577548170E+00  0.0000000000000E+00  0.3697735971154E+00
 0.3426507585655E+00 -0.3879741873114E+00  0.0000000000000E+00  0.3863090588477E+00
 0.3549328909674E+00 -0.3995639006951E+00  0.0000000000000E+00  0.4067069385462E+00
 0.3642974804676E+00 -0.4084873427541E+00  0.0000000000000E+00  0.4308028807883E+00
 0.3708519997922E+00 -0.4148504134346E+00  0.0000000000000E+00  0.4584643198998E+00
 0.3746406611970E+00 -0.4186957286887E+00  0.0000000000000E+00  0.4895398640104E+00
 0.3756350423164E+00 -0.4199929752413E+00  0.0000000000000E+00  0.5238158040209E+00
 0.3737320830775E+00 -0.4186365679649E+00  0.0000000000000E+00  0.5609822776759E+00
 0.3687602354980E+00 -0.4144511570029E+00  0.0000000000000E+00  0.6005817421645E+00
 0.3604903927823E+00 -0.4072015503702E+00  0.0000000000000E+00  0.6419350629151E+00
 0.3486464578559E+00 -0.3966019300257E+00  0.0000000000000E+00  0.6840286470024E+00
 0.3329069762666E+00 -0.3823159246470E+00  0.0000000000000E+00  0.7253519057623E+00
 0.5851726484121E-01 -0.1212207085715E+00  0.0000000000000E+00  0.4756829486726E+00
 0.1088970541556E+00 -0.1684989038101E+00  0.0000000000000E+00  0.4269646226412E+00
 0.1531559123577E+00 -0.2099587160259E+00  0.0000000000000E+00  0.3938415265394E+00
 0.1919360105917E+00 -0.2462266696896E+00  0.0000000000000E+00  0.3725804558965E+00
 0.2257553518940E+00 -0.2778088408577E+00  0.0000000000000E+00  0.3605511382449E+00
 0.2550469012794E+00 -0.3051288284759E+00  0.0000000000000E+00  0.3559193299848E+00
 0.2801803940641E+00 -0.3285488324130E+00  0.0000000000000E+00  0.3574145275011E+00
 0.3014735679964E+00 -0.3483804271263E+00  0.0000000000000E+00  0.3641621389176E+00
 0.3191987177733E+00 -0.3648908395568E+00  0.0000000000000E+00  0.3755636838175E+00
 0.3335872743022E+00 -0.3783073875387E+00  0.0000000000000E+00  0.3912113049152E+00
 0.3448312659720E+00 -0.3888188220574E+00  0.0000000000000E+00  0.4108228688831E+00
 0.3530794673255E+00 -0.3965711614878E+00  0.0000000000000E+00  0.4341892571321E+00
 0.3584312634411E+00 -0.4016608702243E+00  0.0000000000000E+00  0.4611314907084E+00
 0.3609270690892E+00 -0.4041246206195E+00  0.0000000000000E+00  0.4914455240799E+00
 0.3605369327575E+00 -0.4039275980765E+00  0.0000000000000E+00  0.5248574876860E+00
 0.3571586717520E+00 -0.4009612226477E+00  0.0000000000000E+00  0.5609954875698E+00
 0.3506263304063E+00 -0.3950507837272E+00  0.0000000000000E+00  0.5993412988082E+00
 0.3407251013223E+00 -0.3859690017204E+00  0.0000000000000E+00  0.6391582351792E+00
 0.3272071359888E+00 -0.3734498415101E+00  0.0000000000000E+00  0.6793738284402E+00
 0.3098004762239E+00 -0.3571946888377E+00  0.0000000000000E+00  0.7184054526537E+00
 0.6162236175607E-01 -0.1232773907434E+00  0.0000000000000E+00  0.4966553745396E+00
 0.1093329568239E+00 -0.1680314752794E+00  0.0000000000000E+00  0.4447716084186E+00
 0.1516041170362E+00 -0.2076128081203E+00  0.0000000000000E+00  0.4089341273438E+00
 0.1888522023174E+00 -0.2424286888943E+00  0.0000000000000E+00  0.3853251477263E+00
 0.2214312534816E+00 -0.2728263414586E+00  0.0000000000000E+00  0.3712576203790E+00
 0.2496573454829E+00 -0.2991163087274E+00  0.0000000000000E+00  0.3648561868201E+00
 0.2738177191572E+00 -0.3215810623838E+00  0.0000000000000E+00  0.3648152977650E+00
 0.2941719949172E+00 -0.3404759460916E+00  0.0000000000000E+00  0.3702259007485E+00
 0.3109515413822E+00 -0.3560284267085E+00  0.0000000000000E+00  0.3804529606628E+00
 0.3243593408870E+00 -0.3684379418689E+00  0.0000000000000E+00  0.3950492375113E+00
 0.3345683732356E+00 -0.3778742281293E+00  0.0000000000000E+00  0.4136903818592E+00
 0.3417153939619E+00 -0.3844707688210E+00  0.0000000000000E+00  0.4361223788533E+00
 0.3458939405477E+00 -0.3883169806473E+00  0.0000000000000E+00  0.4621198994478E+00
 0.3471432517452E+00 -0.3894463627558E+00  0.0000000000000E+00  0.4914252827710E+00
 0.3454341582124E+00 -0.3878220919784E+00  0.0000000000000E+00  0.5237020253992E+00
 0.3406672469104E+00 -0.3833347284659E+00  0.0000000000000E+00  0.5585139655952E+00
 0.3326840977633E+00 -0.3758124800795E+00  0.0000000000000E+00  0.5952808465657E+00
 0.3212872986868E+00 -0.3650395413394E+00  0.0000000000000E+00  0.6332084326566E+00
 0.3062632165939E+00 -0.3507762656714E+00  0.0000000000000E+00  0.6711656891116E+00
 0.2874010177558E+00 -0.3327742795593E+00  0.0000000000000E+00  0.7074968902874E+00
 0.6493411605178E-01 -0.1254946581134E+00  0.0000000000000E+00  0.5165234136180E+00
 0.1099022261543E+00 -0.1676547078279E+00  0.0000000000000E+00  0.4618115266025E+00
 0.1501279534325E+00 -0.2053022708808E+00  0.0000000000000E+00  0.4234447916062E+00
 0.1857971899530E+00 -0.2386209736304E+00  0.0000000000000E+00  0.3975645352344E+00
 0.2170968770946E+00 -0.2677962175982E+00  0.0000000000000E+00  0.3814597633398E+00
 0.2442247495964E+00 -0.2930241718660E+00  0.0000000000000E+00  0.3732375064878E+00
 0.2673854146689E+00 -0.3145075507338E+00  0.0000000000000E+00  0.3715728355832E+00
 0.2867810763631E+00 -0.3324462677452E+00  0.0000000000000E+00  0.3755318763030E+00
 0.3026033714831E+00 -0.3470293240779E+00  0.0000000000000E+00  0.3844483780182E+00
 0.3150283447714E+00 -0.3584298981333E+00  0.0000000000000E+00  0.3978383241221E+00
 0.3242116776083E+00 -0.3668005904231E+00  0.0000000000000E+00  0.4153362120658E+00
 0.3302799881816E+00 -0.3722643872885E+00  0.0000000000000E+00  0.4366434581385E+00
 0.3333233922602E+00 -0.3749062511659E+00  0.0000000000000E+00  0.4614891802773E+00
 0.3333828522486E+00 -0.3747595791937E+00  0.0000000000000E+00  0.4895616634254E+00
 0.3304324397723E+00 -0.3717882093334E+00  0.0000000000000E+00  0.5204594289154E+00
 0.3243773838480E+00 -0.3658839932677E+00  0.0000000000000E+00  0.5536803532039E+00
 0.3150686619269E+00 -0.3568803069725E+00  0.0000000000000E+00  0.5885823098514E+00
 0.3023295237935E+00 -0.3445766431471E+00  0.0000000000000E+00  0.6243169211529E+00
 0.2859874223179E+00 -0.3287674308487E+00  0.0000000000000E+00  0.6597010753327E+00
 0.2659070327924E+00 -0.3092700596855E+00  0.0000000000000E+00  0.6930147332383E+00
 0.6843858643234E-01 -0.1278650147683E+00  0.0000000000000E+00  0.5352600757624E+00
 0.1106128305508E+00 -0.1673817726209E+00  0.0000000000000E+00  0.4780653384426E+00
 0.1487504868503E+00 -0.2030544070048E+00  0.0000000000000E+00  0.4373598419926E+00
 0.1828041825611E+00 -0.2348402426353E+00  0.0000000000000E+00  0.4092882467112E+00
 0.2127921426571E+00 -0.2627613739075E+00  0.0000000000000E+00  0.3911496087556E+00
 0.2387936018731E+00 -0.2868995401836E+00  0.0000000000000E+00  0.3810580232055E+00
 0.2609314531714E+00 -0.3073787065087E+00  0.0000000000000E+00  0.3776857204774E+00
 0.2793519955386E+00 -0.3243449525234E+00  0.0000000000000E+00  0.3800842342898E+00
 0.2942088970968E+00 -0.3379506672806E+00  0.0000000000000E+00  0.3875618579001E+00
 0.3056531415866E+00 -0.3483447508375E+00  0.0000000000000E+00  0.3996007969860E+00
 0.3138250756697E+00 -0.3556647585571E+00  0.0000000000000E+00  0.4157958927462E+00
 0.3188431315245E+00 -0.3600252973604E+00  0.0000000000000E+00  0.4358047929530E+00
 0.3207965972222E+00 -0.3615096544268E+00  0.0000000000000E+00  0.4593127424061E+00
 0.3197313697602E+00 -0.3601545293776E+00  0.0000000000000E+00  0.4859541226193E+00
 0.3156273218545E+00 -0.3559272234900E+00  0.0000000000000E+00  0.5152600904837E+00
 0.3083959577284E+00 -0.3487228248457E+00  0.0000000000000E+00  0.5466612245719E+00
 0.2978989474958E+00 -0.3383815980006E+00  0.0000000000000E+00  0.5794552081251E+00
 0.2839828319053E+00 -0.3247215868467E+00  0.0000000000000E+00  0.6127468670518E+00
 0.2665227637970E+00 -0.3075788603354E+00  0.0000000000000E+00  0.6453149185650E+00
 0.2454751811972E+00 -0.2868541010793E+00  0.0000000000000E+00  0.6753958353804E+00
 0.7212166142745E-01 -0.1303809543967E+00  0.0000000000000E+00  0.5528451898483E+00
 0.1114726935514E+00 -0.1672259429103E+00  0.0000000000000E+00  0.4935180128936E+00
 0.1474949678063E+00 -0.2008968294354E+00  0.0000000000000E+00  0.4506677992883E+00
 0.1799066609313E+00 -0.2311235861107E+00  0.0000000000000E+00  0.4204870252393E+00
 0.2085570999265E+00 -0.2577649183758E+00  0.0000000000000E+00  0.4003198716723E+00
 0.2334081630181E+00 -0.2807893565191E+00  0.0000000000000E+00  0.3883133052581E+00
 0.2545030549962E+00 -0.3002442109444E+00  0.0000000000000E+00  0.3831540487626E+00
 0.2719345309219E+00 -0.3162241583429E+00  0.0000000000000E+00  0.3838897518500E+00
 0.2858206310326E+00 -0.3288473955693E+00  0.0000000000000E+00  0.3898093097828E+00
 0.2962894958593E+00 -0.3382408575787E+00  0.0000000000000E+00  0.4003644479178E+00
 0.3034682642514E+00 -0.3445293024590E+00  0.0000000000000E+00  0.4151122355138E+00
 0.3074691137640E+00 -0.3478210595425E+00  0.0000000000000E+00  0.4336678277935E+00
 0.3083832449768E+00 -0.3482006785879E+00  0.0000000000000E+00  0.4556753829538E+00
 0.3062650928816E+00 -0.3457119795737E+00  0.0000000000000E+00  0.4807162423909E+00
 0.3011030079840E+00 -0.3403286850399E+00  0.0000000000000E+00  0.5082514586999E+00
 0.2928159629805E+00 -0.3319506621399E+00  0.0000000000000E+00  0.5376428279517E+00
 0.2812764784635E+00 -0.3204256643723E+00  0.0000000000000E+00  0.5681305616211E+00
 0.2663553976311E+00 -0.3055919473291E+00  0.0000000000000E+00  0.5987839668326E+00
 0.2479805753799E+00 -0.2873332507540E+00  0.0000000000000E+00  0.6283655387108E+00
 0.2262174838242E+00 -0.2656521231559E+00  0.0000000000000E+00  0.6551029865990E+00
 0.7596920342889E-01 -0.1330350737384E+00  0.0000000000000E+00  0.5692653267160E+00
 0.1124896823543E+00 -0.1672005608597E+00  0.0000000000000E+00  0.5081585959969E+00
 0.1463847578947E+00 -0.1988573714605E+00  0.0000000000000E+00  0.4633593661615E+00
 0.1771382533273E+00 -0.2275083282988E+00  0.0000000000000E+00  0.4311525057210E+00
 0.2044317375157E+00 -0.2528499577635E+00  0.0000000000000E+00  0.4089634909187E+00
 0.2281121963343E+00 -0.2747400989239E+00  0.0000000000000E+00  0.3949991200265E+00
 0.2481463429518E+00 -0.2931526546680E+00  0.0000000000000E+00  0.3879786593869E+00
 0.2645766506294E+00 -0.3081342156607E+00  0.0000000000000E+00  0.3869569180012E+00
 0.2774884623833E+00 -0.3197717831505E+00  0.0000000000000E+00  0.3912095859222E+00
 0.2869896056080E+00 -0.3281729413312E+00  0.0000000000000E+00  0.4001613617510E+00
 0.2931962348666E+00 -0.3334519838940E+00  0.0000000000000E+00  0.4133337176620E+00
 0.2962160466346E+00 -0.3357129037905E+00  0.0000000000000E+00  0.4303010343511E+00
 0.2961449935646E+00 -0.3350445506655E+00  0.0000000000000E+00  0.4506706173713E+00
 0.2930501878711E+00 -0.3315022345042E+00  0.0000000000000E+00  0.4739726294002E+00
 0.2869313936462E+00 -0.3250693695772E+00  0.0000000000000E+00  0.4995945798466E+00
 0.2777157294633E+00 -0.3156516924882E+00  0.0000000000000E+00  0.5268269489215E+00
 0.2652849780678E+00 -0.3031033115173E+00  0.0000000000000E+00  0.5548549872099E+00
 0.2495324959936E+00 -0.2872814875690E+00  0.0000000000000E+00  0.5827270757662E+00
 0.2304406491156E+00 -0.2681204958496E+00  0.0000000000000E+00  0.6092198521696E+00
 0.2082014014303E+00 -0.2457434861601E+00  0.0000000000000E+00  0.6326031784413E+00
 0.7996718099842E-01 -0.1358201737602E+00  0.0000000000000E+00  0.5845136747564E+00
 0.1136716091084E+00 -0.1673190179625E+00  0.0000000000000E+00  0.5219803262549E+00
 0.1454433006236E+00 -0.1969640443580E+00  0.0000000000000E+00  0.4754274566915E+00
 0.1745326698849E+00 -0.2240319511588E+00  0.0000000000000E+00  0.4412769855387E+00
 0.2004558434242E+00 -0.2480594454304E+00  0.0000000000000E+00  0.4170731227116E+00
 0.2229487350682E+00 -0.2687975316086E+00  0.0000000000000E+00  0.4011107234920E+00
 0.2419060263703E+00 -0.2861512032412E+00  0.0000000000000E+00  0.3921602905728E+00
 0.2573241390966E+00 -0.3001232342578E+00  0.0000000000000E+00  0.3892949822082E+00
 0.2692592550227E+00 -0.3107730162370E+00  0.0000000000000E+00  0.3917833995078E+00
 0.2778017035786E+00 -0.3181916681092E+00  0.0000000000000E+00  0.3990266365906E+00
 0.2830588999634E+00 -0.3224853615195E+00  0.0000000000000E+00  0.4105128551280E+00
 0.2851354676981E+00 -0.3237553169404E+00  0.0000000000000E+00  0.4257776836840E+00
 0.2841349280395E+00 -0.3220976796053E+00  0.0000000000000E+00  0.4443977136769E+00
 0.2801419293204E+00 -0.3175843235673E+00  0.0000000000000E+00  0.4658554169005E+00
 0.2731711905567E+00 -0.3102123101858E+00  0.0000000000000E+00  0.4894604651853E+00
 0.2631583729385E+00 -0.2998941735253E+00  0.0000000000000E+00  0.5144272074952E+00
 0.2499907157544E+00 -0.2864870829259E+00  0.0000000000000E+00  0.5398858145460E+00
 0.2335779141993E+00 -0.2698615738716E+00  0.0000000000000E+00  0.5648796793914E+00
 0.2139532723602E+00 -0.2499996675378E+00  0.0000000000000E+00  0.5882392517341E+00
 0.1914521382893E+00 -0.2271634632154E+00  0.0000000000000E+00  0.6083476463351E+00
 0.8410177354755E-01 -0.1387293299801E+00  0.0000000000000E+00  0.5985898693350E+00
 0.1150262387687E+00 -0.1675947433674E+00  0.0000000000000E+00  0.5349808344384E+00
 0.1446941535794E+00 -0.1952450619559E+00  0.0000000000000E+00  0.4868672973737E+00
 0.1721237195762E+00 -0.2207321075695E+00  0.0000000000000E+00  0.4508531689139E+00
 0.1966689311722E+00 -0.2434360965158E+00  0.0000000000000E+00  0.4246405319165E+00
 0.2179598902945E+00 -0.2630064959608E+00  0.0000000000000E+00  0.4066420398858E+00
 0.2358251163605E+00 -0.2792852928514E+00  0.0000000000000E+00  0.3956986555541E+00
 0.2502202614150E+00 -0.2922367492814E+00  0.0000000000000E+00  0.3909129471936E+00
 0.2611764969487E+00 -0.3018968223515E+00  0.0000000000000E+00  0.3915522072339E+00
 0.2687697333617E+00 -0.3083432999566E+00  0.0000000000000E+00  0.3969971147021E+00
 0.2731008628794E+00 -0.3116765344352E+00  0.0000000000000E+00  0.4067046650024E+00
 0.2742721955577E+00 -0.3119958920215E+00  0.0000000000000E+00  0.4201736586092E+00
 0.2723973377869E+00 -0.3094074420844E+00  0.0000000000000E+00  0.4369584908085E+00
 0.2675841541498E+00 -0.3040054590448E+00  0.0000000000000E+00  0.4565001507127E+00
 0.2598670371757E+00 -0.2958058105836E+00  0.0000000000000E+00  0.4780259702652E+00
 0.2491911809202E+00 -0.2847296435040E+00  0.0000000000000E+00  0.5006659207517E+00
 0.2354433134292E+00 -0.2706318953077E+00  0.0000000000000E+00  0.5234883097096E+00
 0.2185370515104E+00 -0.2533842732937E+00  0.0000000000000E+00  0.5455440426236E+00
 0.1985434671725E+00 -0.2330036495028E+00  0.0000000000000E+00  0.5657656062416E+00
 0.1759570281726E+00 -0.2099072294517E+00  0.0000000000000E+00  0.5827508750860E+00
 0.8835942217140E-01 -0.1417558921939E+00  0.0000000000000E+00  0.6114997857609E+00
 0.1165612929814E+00 -0.1680411811074E+00  0.0000000000000E+00  0.5471625581050E+00
 0.1441611192787E+00 -0.1937289768692E+00  0.0000000000000E+00  0.4976766929218E+00
 0.1699454527370E+00 -0.2176467660803E+00  0.0000000000000E+00  0.4598738788788E+00
 0.1931102449032E+00 -0.2390223845374E+00  0.0000000000000E+00  0.4316558346512E+00
 0.2131866867723E+00 -0.2574107203202E+00  0.0000000000000E+00  0.4115847225185E+00
 0.2299446586115E+00 -0.2725983408737E+00  0.0000000000000E+00  0.3985914821067E+00
 0.2433054606226E+00 -0.2845173998777E+00  0.0000000000000E+00  0.3918185562105E+00
 0.2532799902399E+00 -0.2931851440756E+00  0.0000000000000E+00  0.3905370840815E+00
 0.2599330677522E+00 -0.2986693875575E+00  0.0000000000000E+00  0.3941101504341E+00
 0.2633612666424E+00 -0.3010669598703E+00  0.0000000000000E+00  0.4019653158302E+00
 0.2636644293629E+00 -0.3004753923032E+00  0.0000000000000E+00  0.4135656542124E+00
 0.2609679460653E+00 -0.2970124769809E+00  0.0000000000000E+00  0.4284541684067E+00
 0.2554091406366E+00 -0.2908009684012E+00  0.0000000000000E+00  0.4460408955812E+00
 0.2470485024488E+00 -0.2818824631120E+00  0.0000000000000E+00  0.4654682351755E+00
 0.2358442818110E+00 -0.2701912578697E+00  0.0000000000000E+00  0.4857709783031E+00
 0.2216761997895E+00 -0.2555751878526E+00  0.0000000000000E+00  0.5059361005998E+00
 0.2044413542574E+00 -0.2378866986916E+00  0.0000000000000E+00  0.5250209251830E+00
 0.1842195142519E+00 -0.2171479870394E+00  0.0000000000000E+00  0.5421105447348E+00
 0.1616743458718E+00 -0.1939400744399E+00  0.0000000000000E+00  0.5561581145651E+00
 0.9272675686182E-01 -0.1448933056209E+00  0.0000000000000E+00  0.6232554173464E+00
 0.1182844268460E+00 -0.1686717539517E+00  0.0000000000000E+00  0.5585336571648E+00
 0.1438685502849E+00 -0.1924450028654E+00  0.0000000000000E+00  0.5078566178053E+00
 0.1680325079737E+00 -0.2148146066164E+00  0.0000000000000E+00  0.4683316258078E+00
 0.1898188419125E+00 -0.2348605980095E+00  0.0000000000000E+00  0.4381063966286E+00
 0.2086688832757E+00 -0.2520526141739E+00  0.0000000000000E+00  0.4159270333410E+00
 0.2243034599177E+00 -0.2661314388165E+00  0.0000000000000E+00  0.4008335324021E+00
 0.2366170972819E+00 -0.2770046618389E+00  0.0000000000000E+00  0.3920172966069E+00
 0.2456056001336E+00 -0.2846758791046E+00  0.0000000000000E+00  0.3887575327101E+00
 0.2513262497620E+00 -0.2892064943788E+00  0.0000000000000E+00  0.3904023035994E+00
 0.2538736585389E+00 -0.2906922704769E+00  0.0000000000000E+00  0.3963509091546E+00
 0.2533439401597E+00 -0.2892279049434E+00  0.0000000000000E+00  0.4060299050769E+00
 0.2498747669543E+00 -0.2849434702522E+00  0.0000000000000E+00  0.4189833388116E+00
 0.2436385044794E+00 -0.2779955906739E+00  0.0000000000000E+00  0.4346045893089E+00
 0.2347293899440E+00 -0.2684584467717E+00  0.0000000000000E+00  0.4519561615884E+00
 0.2231277880008E+00 -0.2562908728032E+00  0.0000000000000E+00  0.4699698262336E+00
 0.2087048341250E+00 -0.2413339874885E+00  0.0000000000000E+00  0.4875154331691E+00
 0.1913132213589E+00 -0.2233958469024E+00  0.0000000000000E+00  0.5036197724597E+00
 0.1709853980170E+00 -0.2024438957390E+00  0.0000000000000E+00  0.5175569143259E+00
 0.1485475941008E+00 -0.1792131227796E+00  0.0000000000000E+00  0.5288367318392E+00
 0.9719022523163E-01 -0.1481345719726E+00  0.0000000000000E+00  0.6338748014053E+00
 0.1202031309385E+00 -0.1694996129606E+00  0.0000000000000E+00  0.5691103037292E+00
 0.1438420898844E+00 -0.1914239803428E+00  0.0000000000000E+00  0.5174124828707E+00
 0.1664208306965E+00 -0.2122757209422E+00  0.0000000000000E+00  0.4762176751164E+00
 0.1868337179140E+00 -0.2309929939559E+00  0.0000000000000E+00  0.4439751271043E+00
 0.2044446732145E+00 -0.2469728459476E+00  0.0000000000000E+00  0.4196525316313E+00
 0.2189377731737E+00 -0.2599230316508E+00  0.0000000000000E+00  0.4024158741306E+00
 0.2301892666525E+00 -0.2697346507982E+00  0.0000000000000E+00  0.3915115341879E+00
 0.2381850940440E+00 -0.2764027272417E+00  0.0000000000000E+00  0.3862302808725E+00
 0.2429787599698E+00 -0.2799859538499E+00  0.0000000000000E+00  0.3859078856391E+00
 0.2446657452236E+00 -0.2805819922709E+00  0.0000000000000E+00  0.3899162374455E+00
 0.2433361599295E+00 -0.2782808108229E+00  0.0000000000000E+00  0.3976415225933E+00
 0.2391389685312E+00 -0.2732240177172E+00  0.0000000000000E+00  0.4086415641924E+00
 0.2322862040511E+00 -0.2656061330808E+00  0.0000000000000E+00  0.4223092305661E+00
 0.2229092353310E+00 -0.2555371310531E+00  0.0000000000000E+00  0.4376354991679E+00
 0.2110268455465E+00 -0.2430126073329E+00  0.0000000000000E+00  0.4534743160582E+00
 0.1965187080479E+00 -0.2278967375336E+00  0.0000000000000E+00  0.4685286939671E+00
 0.1791675761235E+00 -0.2099267167455E+00  0.0000000000000E+00  0.4816889561870E+00
 0.1588587625988E+00 -0.1889193390062E+00  0.0000000000000E+00  0.4923808473459E+00
 0.1365208333271E+00 -0.1656816710274E+00  0.0000000000000E+00  0.5009622378219E+00
 0.1017351088665E+00 -0.1514699828246E+00  0.0000000000000E+00  0.6433847413116E+00
 0.1223247629190E+00 -0.1705382655031E+00  0.0000000000000E+00  0.5789226633892E+00
 0.1441104852430E+00 -0.1906999582014E+00  0.0000000000000E+00  0.5263565608314E+00
 0.1651491482845E+00 -0.2100737818340E+00  0.0000000000000E+00  0.4835196190865E+00
 0.1841936767118E+00 -0.2274611201832E+00  0.0000000000000E+00  0.4492369450939E+00
 0.2005499997853E+00 -0.2422097279585E+00  0.0000000000000E+00  0.4227393072802E+00
 0.2138809946669E+00 -0.2540085382756E+00  0.0000000000000E+00  0.4033254156212E+00
 0.2240527223543E+00 -0.2627400813581E+00  0.0000000000000E+00  0.3902998686326E+00
 0.2310461491075E+00 -0.2683952035781E+00  0.0000000000000E+00  0.3829679918623E+00
 0.2349148707045E+00 -0.2710337523313E+00  0.0000000000000E+00  0.3806571560536E+00
 0.2357590404822E+00 -0.2707591629642E+00  0.0000000000000E+00  0.3827130432382E+00
 0.2336597711477E+00 -0.2676542866193E+00  0.0000000000000E+00  0.3884738103055E+00
 0.2287754914678E+00 -0.2618709112122E+00  0.0000000000000E+00  0.3975227707447E+00
 0.2213609514333E+00 -0.2536442364115E+00  0.0000000000000E+00  0.4092664183902E+00
 0.2115838315604E+00 -0.2431173055912E+00  0.0000000000000E+00  0.4226286987473E+00
 0.1994998850203E+00 -0.2303227336759E+00  0.0000000000000E+00  0.4364242852773E+00
 0.1850562566203E+00 -0.2151835886515E+00  0.0000000000000E+00  0.4492813640516E+00
 0.1679996812414E+00 -0.1974738685658E+00  0.0000000000000E+00  0.4596829933381E+00
 0.1478974027360E+00 -0.1766387012187E+00  0.0000000000000E+00  0.4669290064972E+00
 0.1255748382723E+00 -0.1533575386337E+00  0.0000000000000E+00  0.4726003225224E+00
 0.1063412704473E+00 -0.1548838168892E+00  0.0000000000000E+00  0.6518184970626E+00
 0.1246558950069E+00 -0.1717964293475E+00  0.0000000000000E+00  0.5880359374864E+00
 0.1447124104261E+00 -0.1903231663790E+00  0.0000000000000E+00  0.5347129976377E+00
 0.1642609758702E+00 -0.2082549538878E+00  0.0000000000000E+00  0.4902073466009E+00
 0.1819353689505E+00 -0.2243043990474E+00  0.0000000000000E+00  0.4538578475152E+00
 0.1970180024673E+00 -0.2377984370058E+00  0.0000000000000E+00  0.4251595920232E+00
 0.2091632553634E+00 -0.2484200564230E+00  0.0000000000000E+00  0.4035446754865E+00
 0.2182349271141E+00 -0.2560501051108E+00  0.0000000000000E+00  0.3883772592001E+00
 0.2242127897551E+00 -0.2606793390660E+00  0.0000000000000E+00  0.3789782350565E+00
 0.2271536949005E+00 -0.2623705530910E+00  0.0000000000000E+00  0.3746736525275E+00
 0.2271684380025E+00 -0.2612398449294E+00  0.0000000000000E+00  0.3747879209313E+00
 0.2243259124050E+00 -0.2573605588647E+00  0.0000000000000E+00  0.3785966197735E+00
 0.2187919681373E+00 -0.2508928169933E+00  0.0000000000000E+00  0.3857209606834E+00
 0.2108686584117E+00 -0.2421177245402E+00  0.0000000000000E+00  0.3955892678133E+00
 0.2007499875122E+00 -0.2312005281528E+00  0.0000000000000E+00  0.4070468138824E+00
 0.1885213909923E+00 -0.2181973492575E+00  0.0000000000000E+00  0.4189006788107E+00
 0.1741676438858E+00 -0.2030772765409E+00  0.0000000000000E+00  0.4298196757011E+00
 0.1576768632983E+00 -0.1857904832045E+00  0.0000000000000E+00  0.4383007082132E+00
 0.1382574524852E+00 -0.1658214497418E+00  0.0000000000000E+00  0.4419744685164E+00
 0.1158555129456E+00 -0.1424423693711E+00  0.0000000000000E+00  0.4435764060001E+00
 0.1109731501345E+00 -0.1582866838421E+00  0.0000000000000E+00  0.6593685291436E+00
 0.1272300959855E+00 -0.1733517332387E+00  0.0000000000000E+00  0.5966596113903E+00
 0.1457160487239E+00 -0.1903608960833E+00  0.0000000000000E+00  0.5424534568432E+00
 0.1637969463491E+00 -0.2068639958858E+00  0.0000000000000E+00  0.4962317820070E+00
 0.1800921215027E+00 -0.2215576522007E+00  0.0000000000000E+00  0.4577942219146E+00
 0.1938781074834E+00 -0.2337704956199E+00  0.0000000000000E+00  0.4268813758834E+00
 0.2048115255129E+00 -0.2431864334516E+00  0.0000000000000E+00  0.4030513353927E+00
 0.2127593600249E+00 -0.2496898525780E+00  0.0000000000000E+00  0.3857338713090E+00
 0.2177062634357E+00 -0.2532773422218E+00  0.0000000000000E+00  0.3742670107053E+00
 0.2197110753468E+00 -0.2540156883793E+00  0.0000000000000E+00  0.3679695446315E+00
 0.2189002826993E+00 -0.2520302191863E+00  0.0000000000000E+00  0.3661740773093E+00
 0.2153367394039E+00 -0.2474012115344E+00  0.0000000000000E+00  0.3680805664341E+00
 0.2091881241747E+00 -0.2402921929004E+00  0.0000000000000E+00  0.3733264529453E+00
 0.2008078018750E+00 -0.2310238487022E+00  0.0000000000000E+00  0.3813976211244E+00
 0.1904136653587E+00 -0.2197949273959E+00  0.0000000000000E+00  0.3910176227155E+00
 0.1780823171238E+00 -0.2066392896402E+00  0.0000000000000E+00  0.4009730755754E+00
 0.1638205081651E+00 -0.1915325752801E+00  0.0000000000000E+00  0.4100326493468E+00
 0.1476398184329E+00 -0.1745016944598E+00  0.0000000000000E+00  0.4171222149288E+00
 0.1297678758356E+00 -0.1556177278644E+00  0.0000000000000E+00  0.4203125205641E+00
 0.1083502714283E+00 -0.1346387541078E+00  0.0000000000000E+00  0.4151212454630E+00
 0.2094928573367E+00 -0.3278190348228E+00  0.0000000000000E+00 -0.2298044319333E+00
 0.9825724882093E-01 -0.1070544651350E+00  0.0000000000000E+00  0.1914951439297E+00
 0.2258591681870E-01 -0.2442535924206E-01  0.0000000000000E+00  0.8174504784723E-01
 0.4564432963259E-02 -0.2716570940063E-02  0.0000000000000E+00  0.1428057563013E-01
-0.6759439311971E-02  0.9754245342885E-02  0.0000000000000E+00 -0.1813998359765E-01
-0.1464267337832E-01  0.1817561521251E-01  0.0000000000000E+00 -0.3292117440838E-01
-0.2127005789325E-01  0.2521629775371E-01  0.0000000000000E+00 -0.3776712987853E-01
-0.2717541813803E-01  0.3151658663625E-01  0.0000000000000E+00 -0.3644596042370E-01
-0.3237339854557E-01  0.3703254713361E-01  0.0000000000000E+00 -0.3108198043178E-01
-0.3661094337927E-01  0.4153169463006E-01  0.0000000000000E+00 -0.2177769445525E-01
-0.3925060332006E-01  0.4444581127813E-01  0.0000000000000E+00 -0.8856891247111E-02
-0.3973936534414E-01  0.4486169498749E-01  0.0000000000000E+00  0.6527940873710E-02
-0.3650927283816E-01  0.4156180022835E-01  0.0000000000000E+00  0.2988342610861E-01
-0.2942396158296E-01  0.3461385048217E-01  0.0000000000000E+00  0.5717077447044E-01
-0.1954333806220E-01  0.2515677001854E-01  0.0000000000000E+00  0.8051170978202E-01
-0.7900179167560E-02  0.1414809950850E-01  0.0000000000000E+00  0.9847763398004E-01
 0.3619829201439E-02  0.3376276563770E-02  0.0000000000000E+00  0.1104472052029E+00
 0.1417701367364E-01 -0.6456802245505E-02  0.0000000000000E+00  0.1158913926305E+00
 0.2363034222614E-01 -0.1524953229397E-01  0.0000000000000E+00  0.1121660235941E+00
 0.3969148291583E-01 -0.3427038902228E-01  0.0000000000000E+00  0.1111897430418E+00
 0.2460724330358E+00 -0.3164148380613E+00  0.0000000000000E+00 -0.3759173336983E+00
 0.1798219666862E+00 -0.2161142454967E+00  0.0000000000000E+00  0.4750044226750E-01
 0.7721208756461E-01 -0.8561523201749E-01  0.0000000000000E+00  0.9996402379528E-01
 0.3528041766902E-01 -0.3797187931125E-01  0.0000000000000E+00  0.5217641799719E-01
 0.1651652277112E-01 -0.1674455305996E-01  0.0000000000000E+00  0.1519701219895E-01
 0.4920620765288E-02 -0.4110642346730E-02  0.0000000000000E+00 -0.7023854138294E-02
-0.3398403625490E-02  0.4866613969846E-02  0.0000000000000E+00 -0.1891225592873E-01
-0.1021303320618E-01  0.1217560969537E-01  0.0000000000000E+00 -0.2363225630691E-01
-0.1614470894349E-01  0.1850187729711E-01  0.0000000000000E+00 -0.2342798660896E-01
-0.2121316557270E-01  0.2390281057410E-01  0.0000000000000E+00 -0.1886435210604E-01
-0.2515067175568E-01  0.2804691707048E-01  0.0000000000000E+00 -0.9759768300468E-02
-0.2792714350315E-01  0.3097073632168E-01  0.0000000000000E+00  0.2630296166056E-02
-0.2794104763706E-01  0.3115264109728E-01  0.0000000000000E+00  0.2082528677977E-01
-0.2406151417862E-01  0.2743649832360E-01  0.0000000000000E+00  0.4143435080040E-01
-0.1713943321718E-01  0.2073900106473E-01  0.0000000000000E+00  0.5775229611565E-01
-0.8412661693840E-02  0.1233177150064E-01  0.0000000000000E+00  0.6806123283101E-01
 0.2394081992848E-03  0.3973681115710E-02  0.0000000000000E+00  0.7124014069041E-01
 0.7993556803284E-02 -0.3631638716649E-02  0.0000000000000E+00  0.6580884015992E-01
 0.1546839356386E-01 -0.1185782738410E-01  0.0000000000000E+00  0.4848418934106E-01
 0.2666728560032E-01 -0.2614307576886E-01  0.0000000000000E+00  0.2721874855494E-01
 0.2338740082884E+00 -0.2906161439068E+00  0.0000000000000E+00 -0.4281479844860E+00
 0.2103789913016E+00 -0.2474730206651E+00  0.0000000000000E+00 -0.7750643247839E-01
 0.1289054609941E+00 -0.1477746732508E+00  0.0000000000000E+00  0.5633729172022E-01
 0.7324662858491E-01 -0.8108048620953E-01  0.0000000000000E+00  0.6523965372645E-01
 0.4456070062388E-01 -0.4852845126365E-01  0.0000000000000E+00  0.3899342596581E-01
 0.2817184113517E-01 -0.3032841027340E-01  0.0000000000000E+00  0.1516798584915E-01
 0.1725517492894E-01 -0.1842853780319E-01  0.0000000000000E+00 -0.1424850990249E-02
 0.8989025036293E-02 -0.9504075061870E-02  0.0000000000000E+00 -0.1140124125475E-01
 0.2053771990499E-02 -0.2082019617980E-02  0.0000000000000E+00 -0.1625899136382E-01
-0.4044503723496E-02  0.4390145209105E-02  0.0000000000000E+00 -0.1654151175689E-01
-0.9348342563802E-02  0.9960510745680E-02  0.0000000000000E+00 -0.1225211837108E-01
-0.1401690013061E-01  0.1487256220817E-01  0.0000000000000E+00 -0.4536073979253E-02
-0.1658526702126E-01  0.1771992757562E-01  0.0000000000000E+00  0.7868384803575E-02
-0.1544200384011E-01  0.1674528087848E-01  0.0000000000000E+00  0.2165930182785E-01
-0.1117177047071E-01  0.1253329579477E-01  0.0000000000000E+00  0.3066829430471E-01
-0.4997115494804E-02  0.6357148615507E-02  0.0000000000000E+00  0.3281657506771E-01
 0.1483276587986E-02 -0.2813323697586E-03  0.0000000000000E+00  0.2657600220004E-01
 0.7750483846731E-02 -0.7141378550756E-02  0.0000000000000E+00  0.1001072953019E-01
 0.1466302813450E-01 -0.1562776382620E-01  0.0000000000000E+00 -0.2056930904657E-01
 0.2741705627262E-01 -0.3316629776666E-01  0.0000000000000E+00 -0.6394870036926E-01
 0.2172921251000E+00 -0.2676433441346E+00  0.0000000000000E+00 -0.4519952035716E+00
 0.2180914740258E+00 -0.2552692423590E+00  0.0000000000000E+00 -0.1642155629480E+00
 0.1627237063898E+00 -0.1865325563346E+00  0.0000000000000E+00 -0.3822922255152E-02
 0.1103134340768E+00 -0.1239948225412E+00  0.0000000000000E+00  0.4964733542459E-01
 0.7560649463888E-01 -0.8365881503481E-01  0.0000000000000E+00  0.4775031820323E-01
 0.5437544940442E-01 -0.5979075602201E-01  0.0000000000000E+00  0.3021536760205E-01
 0.4049512135991E-01 -0.4448015656088E-01  0.0000000000000E+00  0.1275649468218E-01
 0.3041999082383E-01 -0.3352975112753E-01  0.0000000000000E+00 -0.7529568312581E-03
 0.2226073355033E-01 -0.2476774896777E-01  0.0000000000000E+00 -0.1000154013614E-01
 0.1506571964539E-01 -0.1713064837699E-01  0.0000000000000E+00 -0.1510194282452E-01
 0.8516745781881E-02 -0.1026071513528E-01  0.0000000000000E+00 -0.1605317130554E-01
 0.2282006619803E-02 -0.3716879487184E-02  0.0000000000000E+00 -0.1374926032655E-01
-0.2353124314570E-02  0.1234104051089E-02  0.0000000000000E+00 -0.7723120579596E-02
-0.3476072928781E-02  0.2489452058836E-02  0.0000000000000E+00 -0.1161026607535E-02
-0.1368786811911E-02  0.2719337677686E-03  0.0000000000000E+00  0.2272650422819E-03
 0.2878009844683E-02 -0.4288680001475E-02  0.0000000000000E+00 -0.5992169846241E-02
 0.8083448620957E-02 -0.1013427923329E-01  0.0000000000000E+00 -0.2158943346288E-01
 0.1410319506208E-01 -0.1739391295291E-01  0.0000000000000E+00 -0.4874082602532E-01
 0.2273537865600E-01 -0.2861971993130E-01  0.0000000000000E+00 -0.9122539332787E-01
 0.4065668727773E-01 -0.5251661285424E-01  0.0000000000000E+00 -0.1491306284315E+00
 0.2011380425662E+00 -0.2483599260793E+00  0.0000000000000E+00 -0.4618748996352E+00
 0.2162643046930E+00 -0.2536137703947E+00  0.0000000000000E+00 -0.2239628798772E+00
 0.1827587903117E+00 -0.2097478214160E+00  0.0000000000000E+00 -0.6007135759874E-01
 0.1402446430364E+00 -0.1584347071559E+00  0.0000000000000E+00  0.1963280495962E-01
 0.1059110135640E+00 -0.1182002779430E+00  0.0000000000000E+00  0.4121544083194E-01
 0.8201650223182E-01 -0.9088794189821E-01  0.0000000000000E+00  0.3585576212901E-01
 0.6564484522992E-01 -0.7261446802404E-01  0.0000000000000E+00  0.2181133912574E-01
 0.5380086353098E-01 -0.5962623085519E-01  0.0000000000000E+00  0.7212690748574E-02
 0.4439124811052E-01 -0.4946726761249E-01  0.0000000000000E+00 -0.5220916042358E-02
 0.3615990460725E-01 -0.4071093438404E-01  0.0000000000000E+00 -0.1466248999696E-01
 0.2855920700258E-01 -0.3273634612144E-01  0.0000000000000E+00 -0.2081972864175E-01
 0.2110276001484E-01 -0.2493361312096E-01  0.0000000000000E+00 -0.2420125246062E-01
 0.1486771069623E-01 -0.1838784587451E-01  0.0000000000000E+00 -0.2486607397202E-01
 0.1197457804824E-01 -0.1543558300806E-01  0.0000000000000E+00 -0.2581947697292E-01
 0.1250033151846E-01 -0.1625007043685E-01  0.0000000000000E+00 -0.3218511109909E-01
 0.1556302265170E-01 -0.1993861600987E-01  0.0000000000000E+00 -0.4659210291518E-01
 0.2043459511688E-01 -0.2590581109671E-01  0.0000000000000E+00 -0.7089246060055E-01
 0.2747701744237E-01 -0.3483452996446E-01  0.0000000000000E+00 -0.1071400353734E+00
 0.3932150402850E-01 -0.5013583782382E-01  0.0000000000000E+00 -0.1580705346570E+00
 0.6324350593845E-01 -0.8079046186966E-01  0.0000000000000E+00 -0.2228919930782E+00
 0.1866374961216E+00 -0.2323975740652E+00  0.0000000000000E+00 -0.4640810327380E+00
 0.2102697842556E+00 -0.2481184763666E+00  0.0000000000000E+00 -0.2644454581098E+00
 0.1937730518518E+00 -0.2231544765697E+00  0.0000000000000E+00 -0.1073159023282E+00
 0.1627160351844E+00 -0.1845171581817E+00  0.0000000000000E+00 -0.1437847489508E-01
 0.1327472772771E+00 -0.1488820668935E+00  0.0000000000000E+00  0.2487919787295E-01
 0.1091343387379E+00 -0.1215197204991E+00  0.0000000000000E+00  0.3249653854615E-01
 0.9164211307382E-01 -0.1017133816548E+00  0.0000000000000E+00  0.2486491344793E-01
 0.7857290383946E-01 -0.8722317449367E-01  0.0000000000000E+00  0.1164251046723E-01
 0.6816821840915E-01 -0.7590077165199E-01  0.0000000000000E+00 -0.2410783030491E-02
 0.5911445559567E-01 -0.6622685362228E-01  0.0000000000000E+00 -0.1531492843932E-01
 0.5073848421875E-01 -0.5742655066852E-01  0.0000000000000E+00 -0.2624075992283E-01
 0.4244351939202E-01 -0.4876674825717E-01  0.0000000000000E+00 -0.3518570079943E-01
 0.3509705488138E-01 -0.4114500622465E-01  0.0000000000000E+00 -0.4254109734421E-01
 0.3096954264682E-01 -0.3705818568794E-01  0.0000000000000E+00 -0.5100839803294E-01
 0.3053573163564E-01 -0.3710103767581E-01  0.0000000000000E+00 -0.6493671301099E-01
 0.3316546479792E-01 -0.4065637715055E-01  0.0000000000000E+00 -0.8693416584761E-01
 0.3856678829680E-01 -0.4758186129699E-01  0.0000000000000E+00 -0.1187011764630E+00
 0.4751124999734E-01 -0.5897922635769E-01  0.0000000000000E+00 -0.1617627921037E+00
 0.6305695545464E-01 -0.7863356208315E-01  0.0000000000000E+00 -0.2173762588494E+00
 0.9235537777968E-01 -0.1150703328328E+00  0.0000000000000E+00 -0.2831099734528E+00
 0.1738677660836E+00 -0.2191466164882E+00  0.0000000000000E+00 -0.4616060363748E+00
 0.2026407018785E+00 -0.2412642352993E+00  0.0000000000000E+00 -0.2910199997212E+00
 0.1990727271313E+00 -0.2305085639850E+00  0.0000000000000E+00 -0.1447575433414E+00
 0.1789932320245E+00 -0.2038206953026E+00  0.0000000000000E+00 -0.4698563352542E-01
 0.1553344588274E+00 -0.1749043644792E+00  0.0000000000000E+00  0.3974575375640E-02
 0.1343002733188E+00 -0.1500676214459E+00  0.0000000000000E+00  0.2270446199402E-01
 0.1173416589598E+00 -0.1305499786761E+00  0.0000000000000E+00  0.2238879251890E-01
 0.1039956057932E+00 -0.1155439473365E+00  0.0000000000000E+00  0.1230775613854E-01
 0.9313597782903E-01 -0.1035995456872E+00  0.0000000000000E+00 -0.1822066384310E-02
 0.8364772561832E-01 -0.9339081318820E-01  0.0000000000000E+00 -0.1707274601028E-01
 0.7486881189732E-01 -0.8413910142515E-01  0.0000000000000E+00 -0.3200998493668E-01
 0.6616791863848E-01 -0.7506795113467E-01  0.0000000000000E+00 -0.4604725208677E-01
 0.5822598376103E-01 -0.6690658788813E-01  0.0000000000000E+00 -0.5975358578301E-01
 0.5342314010868E-01 -0.6226169607452E-01  0.0000000000000E+00 -0.7538346684023E-01
 0.5264231774998E-01 -0.6214614260839E-01  0.0000000000000E+00 -0.9631638408547E-01
 0.5550705633271E-01 -0.6621606226018E-01  0.0000000000000E+00 -0.1249103406559E+00
 0.6206581525883E-01 -0.7467464196153E-01  0.0000000000000E+00 -0.1625044815473E+00
 0.7330182782336E-01 -0.8881743116094E-01  0.0000000000000E+00 -0.2099092167462E+00
 0.9231603426903E-01 -0.1123807870684E+00  0.0000000000000E+00 -0.2669043841360E+00
 0.1256653127680E+00 -0.1530164310726E+00  0.0000000000000E+00 -0.3294239240509E+00
 0.1626308032226E+00 -0.2080468671117E+00  0.0000000000000E+00 -0.4560153420886E+00
 0.1946069899694E+00 -0.2342188204851E+00  0.0000000000000E+00 -0.3073540992861E+00
 0.2008311431267E+00 -0.2341673081379E+00  0.0000000000000E+00 -0.1730828340106E+00
 0.1905310535425E+00 -0.2180211086421E+00  0.0000000000000E+00 -0.7559463518260E-01
 0.1738524008737E+00 -0.1965127861652E+00  0.0000000000000E+00 -0.1782046048253E-01
 0.1568606826841E+00 -0.1758181884113E+00  0.0000000000000E+00  0.9327750013469E-02
 0.1418686331514E+00 -0.1581636989111E+00  0.0000000000000E+00  0.1582586439819E-01
 0.1293196398116E+00 -0.1437908457963E+00  0.0000000000000E+00  0.9685620723957E-02
 0.1187378274606E+00 -0.1319816251523E+00  0.0000000000000E+00 -0.3326694285322E-02
 0.1093518819892E+00 -0.1217811078025E+00  0.0000000000000E+00 -0.1979021343307E-01
 0.1006343019892E+00 -0.1125462682851E+00  0.0000000000000E+00 -0.3778506320087E-01
 0.9200588274939E-01 -0.1035514879537E+00  0.0000000000000E+00 -0.5616126197867E-01
 0.8400191402023E-01 -0.9539639730294E-01  0.0000000000000E+00 -0.7555434572464E-01
 0.7907899919538E-01 -0.9075623723866E-01  0.0000000000000E+00 -0.9764539528538E-01
 0.7850603163597E-01 -0.9102833485040E-01  0.0000000000000E+00 -0.1246875230517E+00
 0.8212113069706E-01 -0.9609496475413E-01  0.0000000000000E+00 -0.1586004917052E+00
 0.9018073586038E-01 -0.1063604891911E+00  0.0000000000000E+00 -0.2002479845715E+00
 0.1036841039124E+00 -0.1231017895219E+00  0.0000000000000E+00 -0.2497210099596E+00
 0.1254974480375E+00 -0.1497216592501E+00  0.0000000000000E+00 -0.3055606086018E+00
 0.1613281015998E+00 -0.1927986454327E+00  0.0000000000000E+00 -0.3624017277819E+00
 0.1526694327219E+00 -0.1986329166666E+00  0.0000000000000E+00 -0.4481546144565E+00
 0.1867673108791E+00 -0.2275270338111E+00  0.0000000000000E+00 -0.3160037248550E+00
 0.2004517050390E+00 -0.2356162486879E+00  0.0000000000000E+00 -0.1933915351771E+00
 0.1985825544726E+00 -0.2285031928000E+00  0.0000000000000E+00 -0.9913840714208E-01
 0.1888483758343E+00 -0.2143342472187E+00  0.0000000000000E+00 -0.3817929996161E-01
 0.1766827992913E+00 -0.1986343087724E+00  0.0000000000000E+00 -0.5251891675848E-02
 0.1647090582698E+00 -0.1839936767362E+00  0.0000000000000E+00  0.6889726248462E-02
 0.1539332803267E+00 -0.1713046231218E+00  0.0000000000000E+00  0.4741894485043E-02
 0.1444124750021E+00 -0.1604538954171E+00  0.0000000000000E+00 -0.6424702740330E-02
 0.1357478162828E+00 -0.1508975713031E+00  0.0000000000000E+00 -0.2311954656892E-01
 0.1276176271863E+00 -0.1422135270986E+00  0.0000000000000E+00 -0.4315609700179E-01
 0.1195674098926E+00 -0.1338081758929E+00  0.0000000000000E+00 -0.6492773294193E-01
 0.1120328194416E+00 -0.1261963434700E+00  0.0000000000000E+00 -0.8907384478731E-01
 0.1075127504098E+00 -0.1220820772292E+00  0.0000000000000E+00 -0.1166240985109E+00
 0.1076092732243E+00 -0.1231846164698E+00  0.0000000000000E+00 -0.1486258597934E+00
 0.1123131120041E+00 -0.1295426486626E+00  0.0000000000000E+00 -0.1864439589974E+00
 0.1219592438725E+00 -0.1416234369722E+00  0.0000000000000E+00 -0.2304453475226E+00
 0.1374157560775E+00 -0.1605320417847E+00  0.0000000000000E+00 -0.2801103924419E+00
 0.1611481674918E+00 -0.1891782327136E+00  0.0000000000000E+00 -0.3330685220665E+00
 0.1979133376677E+00 -0.2330143532390E+00  0.0000000000000E+00 -0.3831002655652E+00
 0.1437400511846E+00 -0.1905319521636E+00  0.0000000000000E+00 -0.4384873141558E+00
 0.1793942218255E+00 -0.2214202120061E+00  0.0000000000000E+00 -0.3187741147471E+00
 0.1988357360208E+00 -0.2357927623600E+00  0.0000000000000E+00 -0.2068174603012E+00
 0.2041281920656E+00 -0.2363253686713E+00  0.0000000000000E+00 -0.1173478678942E+00
 0.2009458233357E+00 -0.2290563911662E+00  0.0000000000000E+00 -0.5574086087360E-01
 0.1939137926096E+00 -0.2186819983980E+00  0.0000000000000E+00 -0.1926865135156E-01
 0.1856352624427E+00 -0.2077925773644E+00  0.0000000000000E+00 -0.2834568125898E-02
 0.1774070457663E+00 -0.1976219452409E+00  0.0000000000000E+00 -0.1378723503603E-02
 0.1696654247017E+00 -0.1884901767036E+00  0.0000000000000E+00 -0.1036950640994E-01
 0.1623422049265E+00 -0.1802218283796E+00  0.0000000000000E+00 -0.2653786573488E-01
 0.1553391970766E+00 -0.1726397734038E+00  0.0000000000000E+00 -0.4764400677889E-01
 0.1483694660056E+00 -0.1653324913321E+00  0.0000000000000E+00 -0.7177677263658E-01
 0.1418085337293E+00 -0.1587681094299E+00  0.0000000000000E+00 -0.9955600583873E-01
 0.1381571707352E+00 -0.1556355903267E+00  0.0000000000000E+00 -0.1313471068677E+00
 0.1392746736447E+00 -0.1578929878419E+00  0.0000000000000E+00 -0.1670095678654E+00
 0.1452383057399E+00 -0.1656633822919E+00  0.0000000000000E+00 -0.2073130615274E+00
 0.1563592381210E+00 -0.1793701680820E+00  0.0000000000000E+00 -0.2521753389238E+00
 0.1732868717183E+00 -0.1998598687406E+00  0.0000000000000E+00 -0.3006270681257E+00
 0.1980096682123E+00 -0.2294849589690E+00  0.0000000000000E+00 -0.3497194445874E+00
 0.2343353645899E+00 -0.2726109055185E+00  0.0000000000000E+00 -0.3928111705405E+00
 0.1356329035469E+00 -0.1834493357081E+00  0.0000000000000E+00 -0.4272652939376E+00
 0.1725870377477E+00 -0.2159662247251E+00  0.0000000000000E+00 -0.3169554091882E+00
 0.1965562328036E+00 -0.2352848911481E+00  0.0000000000000E+00 -0.2143930790710E+00
 0.2079010732436E+00 -0.2422661933670E+00  0.0000000000000E+00 -0.1303612584823E+00
 0.2107203274466E+00 -0.2413012466641E+00  0.0000000000000E+00 -0.6978340063614E-01
 0.2088201565872E+00 -0.2362512600288E+00  0.0000000000000E+00 -0.3150890543037E-01
 0.2046046954360E+00 -0.2295140572812E+00  0.0000000000000E+00 -0.1204973641997E-01
 0.1994719444273E+00 -0.2224527937593E+00  0.0000000000000E+00 -0.7569657529213E-02
 0.1940965735347E+00 -0.2156639200764E+00  0.0000000000000E+00 -0.1432483774664E-01
 0.1886694842011E+00 -0.2092628097779E+00  0.0000000000000E+00 -0.2942372872604E-01
 0.1832965008326E+00 -0.2032985906200E+00  0.0000000000000E+00 -0.5073167645613E-01
 0.1778705774214E+00 -0.1975580841537E+00  0.0000000000000E+00 -0.7618652489673E-01
 0.1727339163448E+00 -0.1924871222074E+00  0.0000000000000E+00 -0.1063862364093E+00
 0.1703412634247E+00 -0.1907098466994E+00  0.0000000000000E+00 -0.1410823737622E+00
 0.1727191086260E+00 -0.1943288534941E+00  0.0000000000000E+00 -0.1790602299843E+00
 0.1799747319820E+00 -0.2034914748756E+00  0.0000000000000E+00 -0.2205214470829E+00
 0.1923299976643E+00 -0.2185109526767E+00  0.0000000000000E+00 -0.2650236096988E+00
 0.2101818861849E+00 -0.2399460876147E+00  0.0000000000000E+00 -0.3113204638038E+00
 0.2350286094470E+00 -0.2695922446981E+00  0.0000000000000E+00 -0.3561835646961E+00
 0.2697903653871E+00 -0.3108193886087E+00  0.0000000000000E+00 -0.3929098975145E+00
 0.1281751705495E+00 -0.1771535896789E+00  0.0000000000000E+00 -0.4146209232320E+00
 0.1663521993163E+00 -0.2111469965045E+00  0.0000000000000E+00 -0.3114778330803E+00
 0.1939694978639E+00 -0.2344538076196E+00  0.0000000000000E+00 -0.2170111929799E+00
 0.2104332669788E+00 -0.2468839115897E+00  0.0000000000000E+00 -0.1385131578535E+00
 0.2186558455681E+00 -0.2515843473713E+00  0.0000000000000E+00 -0.7999509822366E-01
 0.2216959375244E+00 -0.2516571586214E+00  0.0000000000000E+00 -0.4119466299244E-01
 0.2216766959732E+00 -0.2492207352461E+00  0.0000000000000E+00 -0.1977577140618E-01
 0.2199766677206E+00 -0.2456340445858E+00  0.0000000000000E+00 -0.1287848699312E-01
 0.2173975217002E+00 -0.2416463922556E+00  0.0000000000000E+00 -0.1748831491741E-01
 0.2143136051895E+00 -0.2375810961130E+00  0.0000000000000E+00 -0.3114519367466E-01
 0.2109958655763E+00 -0.2336720741893E+00  0.0000000000000E+00 -0.5191376676478E-01
 0.2075061092468E+00 -0.2298944725741E+00  0.0000000000000E+00 -0.7771010501905E-01
 0.2041670925185E+00 -0.2266820373557E+00  0.0000000000000E+00 -0.1091123497305E+00
 0.2033345607396E+00 -0.2265403873505E+00  0.0000000000000E+00 -0.1453575815425E+00
 0.2071073846710E+00 -0.2316203104831E+00  0.0000000000000E+00 -0.1843481162485E+00
 0.2155834867420E+00 -0.2420524231138E+00  0.0000000000000E+00 -0.2257952680314E+00
 0.2288672001676E+00 -0.2580133349374E+00  0.0000000000000E+00 -0.2690043192645E+00
 0.2471112256419E+00 -0.2797884614354E+00  0.0000000000000E+00 -0.3126142889936E+00
 0.2713498819381E+00 -0.3086552997309E+00  0.0000000000000E+00 -0.3533669884141E+00
 0.3037028814631E+00 -0.3470992840307E+00  0.0000000000000E+00 -0.3847631517447E+00
 0.1212281392987E+00 -0.1714635398143E+00  0.0000000000000E+00 -0.4006189178731E+00
 0.1606473642031E+00 -0.2069003223142E+00  0.0000000000000E+00 -0.3030163637087E+00
 0.1912872592679E+00 -0.2335109027851E+00  0.0000000000000E+00 -0.2154239489700E+00
 0.2121002626740E+00 -0.2505685416401E+00  0.0000000000000E+00 -0.1422203603596E+00
 0.2251369703362E+00 -0.2603107804649E+00  0.0000000000000E+00 -0.8632135802052E-01
 0.2328155406571E+00 -0.2651903370756E+00  0.0000000000000E+00 -0.4787261902292E-01
 0.2369555287978E+00 -0.2670222002867E+00  0.0000000000000E+00 -0.2532271804676E-01
 0.2388461712999E+00 -0.2670842724935E+00  0.0000000000000E+00 -0.1655231016522E-01
 0.2393356784901E+00 -0.2661898528745E+00  0.0000000000000E+00 -0.1916874763122E-01
 0.2389146894313E+00 -0.2647965716967E+00  0.0000000000000E+00 -0.3113217373198E-01
 0.2379741341944E+00 -0.2632741135845E+00  0.0000000000000E+00 -0.5074716217226E-01
 0.2367191529039E+00 -0.2617594327139E+00  0.0000000000000E+00 -0.7600382805116E-01
 0.2354568959752E+00 -0.2606735327431E+00  0.0000000000000E+00 -0.1074579370425E+00
 0.2363906713166E+00 -0.2623500363947E+00  0.0000000000000E+00 -0.1439617336734E+00
 0.2416006286438E+00 -0.2688974315364E+00  0.0000000000000E+00 -0.1827752576839E+00
 0.2511558050963E+00 -0.2804099320929E+00  0.0000000000000E+00 -0.2232272593118E+00
 0.2650477208236E+00 -0.2969353659806E+00  0.0000000000000E+00 -0.2644797124912E+00
 0.2832230092294E+00 -0.3185305782669E+00  0.0000000000000E+00 -0.3051987433987E+00
 0.3063001437106E+00 -0.3460149994169E+00  0.0000000000000E+00 -0.3423016878264E+00
 0.3356814090408E+00 -0.3810928080984E+00  0.0000000000000E+00 -0.3696703184532E+00
 0.1146826984740E+00 -0.1662379404609E+00  0.0000000000000E+00 -0.3852866182762E+00
 0.1554062816966E+00 -0.2031431335540E+00  0.0000000000000E+00 -0.2920627777881E+00
 0.1886240542302E+00 -0.2325674625861E+00  0.0000000000000E+00 -0.2102553755913E+00
 0.2131578616620E+00 -0.2535831783277E+00  0.0000000000000E+00 -0.1419198780292E+00
 0.2304561640685E+00 -0.2677855455981E+00  0.0000000000000E+00 -0.8886515948162E-01
 0.2424127493982E+00 -0.2770958905402E+00  0.0000000000000E+00 -0.5132430220168E-01
 0.2505555106539E+00 -0.2830375741120E+00  0.0000000000000E+00 -0.2824480725495E-01
 0.2560496432827E+00 -0.2867689547007E+00  0.0000000000000E+00 -0.1804247801009E-01
 0.2597359652429E+00 -0.2891077809620E+00  0.0000000000000E+00 -0.1882454033949E-01
 0.2621674374348E+00 -0.2905868494049E+00  0.0000000000000E+00 -0.2892427337106E-01
 0.2638117023543E+00 -0.2916643300210E+00  0.0000000000000E+00 -0.4688974610010E-01
 0.2649848686676E+00 -0.2926045508150E+00  0.0000000000000E+00 -0.7084894566913E-01
 0.2659759868771E+00 -0.2938086049384E+00  0.0000000000000E+00 -0.1013266206557E+00
 0.2687869149393E+00 -0.2973894755072E+00  0.0000000000000E+00 -0.1369331853603E+00
 0.2753981523157E+00 -0.3053346194220E+00  0.0000000000000E+00 -0.1745458307421E+00
 0.2858489677207E+00 -0.3177014748254E+00  0.0000000000000E+00 -0.2132263541473E+00
 0.3000495306929E+00 -0.3344442079812E+00  0.0000000000000E+00 -0.2520883455030E+00
 0.3178005948807E+00 -0.3554573733198E+00  0.0000000000000E+00 -0.2899427525210E+00
 0.3393648518159E+00 -0.3811730667787E+00  0.0000000000000E+00 -0.3240597618316E+00
 0.3654819420344E+00 -0.4125872674874E+00  0.0000000000000E+00 -0.3488239534573E+00
 0.1084546543858E+00 -0.1613671860278E+00  0.0000000000000E+00 -0.3686322977730E+00
 0.1505530068577E+00 -0.1997846004454E+00  0.0000000000000E+00 -0.2789761765363E+00
 0.1860289576612E+00 -0.2316674829813E+00  0.0000000000000E+00 -0.2020174433515E+00
 0.2137713425814E+00 -0.2560957124360E+00  0.0000000000000E+00 -0.1380350955989E+00
 0.2348263421132E+00 -0.2742284442326E+00  0.0000000000000E+00 -0.8782180848435E-01
 0.2506743017651E+00 -0.2875675533046E+00  0.0000000000000E+00 -0.5149751836308E-01
 0.2625818677945E+00 -0.2973752777485E+00  0.0000000000000E+00 -0.2829286969235E-01
 0.2715787174700E+00 -0.3046769329760E+00  0.0000000000000E+00 -0.1698889254046E-01
 0.2784651376292E+00 -0.3102578608918E+00  0.0000000000000E+00 -0.1607508625243E-01
 0.2838162204190E+00 -0.3146819217722E+00  0.0000000000000E+00 -0.2419537024940E-01
 0.2881393103804E+00 -0.3184551949916E+00  0.0000000000000E+00 -0.4012301903946E-01
 0.2918279519156E+00 -0.3219334384980E+00  0.0000000000000E+00 -0.6216200153948E-01
 0.2951478610119E+00 -0.3254883064935E+00  0.0000000000000E+00 -0.9079482937855E-01
 0.2998586980948E+00 -0.3309722226403E+00  0.0000000000000E+00 -0.1245350333486E+00
 0.3077737961251E+00 -0.3401870974444E+00  0.0000000000000E+00 -0.1601278179123E+00
 0.3189148702943E+00 -0.3531667278080E+00  0.0000000000000E+00 -0.1964701634716E+00
 0.3331618329761E+00 -0.3698253796849E+00  0.0000000000000E+00 -0.2326900458491E+00
 0.3502491516323E+00 -0.3899805201067E+00  0.0000000000000E+00 -0.2678311093187E+00
 0.3701585055523E+00 -0.4137607338959E+00  0.0000000000000E+00 -0.2996882461453E+00
 0.3929777738654E+00 -0.4414833481250E+00  0.0000000000000E+00 -0.3232790239397E+00
 0.1024803031480E+00 -0.1567665384436E+00  0.0000000000000E+00 -0.3506566510160E+00
 0.1460098781087E+00 -0.1967333498361E+00  0.0000000000000E+00 -0.2640188066280E+00
 0.1835072753047E+00 -0.2308098830902E+00  0.0000000000000E+00 -0.1911254852730E+00
 0.2140383595454E+00 -0.2582032634998E+00  0.0000000000000E+00 -0.1309571441434E+00
 0.2383947701940E+00 -0.2797895946724E+00  0.0000000000000E+00 -0.8343563883263E-01
 0.2577413153206E+00 -0.2967499217317E+00  0.0000000000000E+00 -0.4845518501301E-01
 0.2731219739760E+00 -0.3101239574475E+00  0.0000000000000E+00 -0.2537157676921E-01
 0.2854342326804E+00 -0.3208061927018E+00  0.0000000000000E+00 -0.1319572407185E-01
 0.2954202493999E+00 -0.3295294619340E+00  0.0000000000000E+00 -0.1069552885367E-01
 0.3036495807749E+00 -0.3368581162354E+00  0.0000000000000E+00 -0.1676027312210E-01
 0.3106405333647E+00 -0.3433144995601E+00  0.0000000000000E+00 -0.3035956751889E-01
 0.3168334210313E+00 -0.3493127931087E+00  0.0000000000000E+00 -0.4999280061150E-01
 0.3224661427113E+00 -0.3551873096660E+00  0.0000000000000E+00 -0.7609160567028E-01
 0.3290275638310E+00 -0.3625024494826E+00  0.0000000000000E+00 -0.1072143480137E+00
 0.3381085600780E+00 -0.3728237665920E+00  0.0000000000000E+00 -0.1402028505928E+00
 0.3497276103230E+00 -0.3861748225250E+00  0.0000000000000E+00 -0.1738595393617E+00
 0.3637928705088E+00 -0.4024912605096E+00  0.0000000000000E+00 -0.2073356008429E+00
 0.3800746557923E+00 -0.4216165784431E+00  0.0000000000000E+00 -0.2399373783461E+00
 0.3983851878085E+00 -0.4434982591216E+00  0.0000000000000E+00 -0.2701684843715E+00
 0.4181324686074E+00 -0.4677651615362E+00  0.0000000000000E+00 -0.2939238287843E+00
 0.9671219014212E-01 -0.1523702910305E+00  0.0000000000000E+00 -0.3313604034409E+00
 0.1417015033522E+00 -0.1939008186008E+00  0.0000000000000E+00 -0.2473810332313E+00
 0.1810357421728E+00 -0.2299640943589E+00  0.0000000000000E+00 -0.1779108054524E+00
 0.2140073043175E+00 -0.2599514606120E+00  0.0000000000000E+00 -0.1210342973700E+00
 0.2412568761069E+00 -0.2845644555168E+00  0.0000000000000E+00 -0.7597063432517E-01
 0.2637149399208E+00 -0.3047448452219E+00  0.0000000000000E+00 -0.4233745890423E-01
 0.2822431765587E+00 -0.3213503816989E+00  0.0000000000000E+00 -0.1950323517492E-01
 0.2976193828561E+00 -0.3351565562875E+00  0.0000000000000E+00 -0.6604811358069E-02
 0.3105212059461E+00 -0.3468355413055E+00  0.0000000000000E+00 -0.2602220465823E-02
 0.3214955143047E+00 -0.3569329405498E+00  0.0000000000000E+00 -0.6569320670839E-02
 0.3310515149448E+00 -0.3659649133446E+00  0.0000000000000E+00 -0.1763945211208E-01
 0.3396509990906E+00 -0.3743768004435E+00  0.0000000000000E+00 -0.3451322773471E-01
 0.3475042684805E+00 -0.3824632997555E+00  0.0000000000000E+00 -0.5756779424473E-01
 0.3558177643299E+00 -0.3914910262799E+00  0.0000000000000E+00 -0.8554295805368E-01
 0.3659196318241E+00 -0.4027537395166E+00  0.0000000000000E+00 -0.1155855192450E+00
 0.3778180450223E+00 -0.4162613580983E+00  0.0000000000000E+00 -0.1464621110875E+00
 0.3914908576544E+00 -0.4320015492986E+00  0.0000000000000E+00 -0.1772585356144E+00
 0.4068642582189E+00 -0.4499717941201E+00  0.0000000000000E+00 -0.2074593801329E+00
 0.4237831040874E+00 -0.4701359543895E+00  0.0000000000000E+00 -0.2364193820850E+00
 0.4409706944134E+00 -0.4914666226045E+00  0.0000000000000E+00 -0.2614421996039E+00
 0.9111458562991E-01 -0.1481254963710E+00  0.0000000000000E+00 -0.3107483818735E+00
 0.1375560252133E+00 -0.1912024803959E+00  0.0000000000000E+00 -0.2291967077567E+00
 0.1785737067219E+00 -0.2290811252602E+00  0.0000000000000E+00 -0.1626289631394E+00
 0.2136930024719E+00 -0.2613512535136E+00  0.0000000000000E+00 -0.1085649659478E+00
 0.2434698974287E+00 -0.2886081467776E+00  0.0000000000000E+00 -0.6569091710007E-01
 0.2686643058942E+00 -0.3116201191755E+00  0.0000000000000E+00 -0.3333393178517E-01
 0.2899946738343E+00 -0.3311015621289E+00  0.0000000000000E+00 -0.1079855204177E-01
 0.3081371733672E+00 -0.3477268729123E+00  0.0000000000000E+00  0.2730312631015E-02
 0.3237067361038E+00 -0.3621083478404E+00  0.0000000000000E+00  0.8166616847955E-02
 0.3372182191345E+00 -0.3747614438522E+00  0.0000000000000E+00  0.6304354863608E-02
 0.3491595260238E+00 -0.3861824692238E+00  0.0000000000000E+00 -0.2120340779746E-02
 0.3599944235947E+00 -0.3968263812500E+00  0.0000000000000E+00 -0.1600392760689E-01
 0.3699136173440E+00 -0.4069548684729E+00  0.0000000000000E+00 -0.3566522892958E-01
 0.3798543961819E+00 -0.4175520761152E+00  0.0000000000000E+00 -0.6014991159266E-01
 0.3908633264090E+00 -0.4296280944383E+00  0.0000000000000E+00 -0.8710373324168E-01
 0.4029220142692E+00 -0.4431642854443E+00  0.0000000000000E+00 -0.1153547062012E+00
 0.4160090324911E+00 -0.4581490456854E+00  0.0000000000000E+00 -0.1438741774034E+00
 0.4302981987752E+00 -0.4747485930260E+00  0.0000000000000E+00 -0.1718458545930E+00
 0.4460484250147E+00 -0.4933892439150E+00  0.0000000000000E+00 -0.1994176910077E+00
 0.4615275514881E+00 -0.5125986900712E+00  0.0000000000000E+00 -0.2262991955028E+00
 0.8565767941919E-01 -0.1439865687561E+00  0.0000000000000E+00 -0.2888367286927E+00
 0.1335032442104E+00 -0.1885527874899E+00  0.0000000000000E+00 -0.2095465676749E+00
 0.1760737629657E+00 -0.2281074166456E+00  0.0000000000000E+00 -0.1454588151716E+00
 0.2130921478192E+00 -0.2623935217554E+00  0.0000000000000E+00 -0.9379662397705E-01
 0.2450662169902E+00 -0.2919501034011E+00  0.0000000000000E+00 -0.5284747839938E-01
 0.2726361219042E+00 -0.3174195190082E+00  0.0000000000000E+00 -0.2166524769783E-01
 0.2964116690024E+00 -0.3394091533723E+00  0.0000000000000E+00  0.5657514663180E-03
 0.3169901674043E+00 -0.3585149314291E+00  0.0000000000000E+00  0.1466723126960E-01
 0.3349324592134E+00 -0.3752966444649E+00  0.0000000000000E+00  0.2147401554734E-01
 0.3507172629587E+00 -0.3902358655725E+00  0.0000000000000E+00  0.2168299738528E-01
 0.3648025404432E+00 -0.4037958421342E+00  0.0000000000000E+00  0.1593413779318E-01
 0.3776392667960E+00 -0.4164270239394E+00  0.0000000000000E+00  0.5154805386170E-02
 0.3894145100844E+00 -0.4283727959215E+00  0.0000000000000E+00 -0.1090479474394E-01
 0.4008381837117E+00 -0.4403775490451E+00  0.0000000000000E+00 -0.3168408864869E-01
 0.4126938657620E+00 -0.4531939115417E+00  0.0000000000000E+00 -0.5549344128345E-01
 0.4249293209181E+00 -0.4667753706392E+00  0.0000000000000E+00 -0.8136181284664E-01
 0.4374704648193E+00 -0.4810528119782E+00  0.0000000000000E+00 -0.1083210909976E+00
 0.4503374118186E+00 -0.4960768724657E+00  0.0000000000000E+00 -0.1351638342076E+00
 0.4647241246537E+00 -0.5127629061604E+00  0.0000000000000E+00 -0.1606954476708E+00
 0.4797339202656E+00 -0.5310205725541E+00  0.0000000000000E+00 -0.1886074460623E+00
 0.8030710851359E-01 -0.1398785346791E+00  0.0000000000000E+00 -0.2655975256181E+00
 0.1294827103434E+00 -0.1858946689481E+00  0.0000000000000E+00 -0.1884131381787E+00
 0.1734976975318E+00 -0.2269898568856E+00  0.0000000000000E+00 -0.1265241915251E+00
 0.2121957871791E+00 -0.2630662573152E+00  0.0000000000000E+00 -0.7691543950965E-01
 0.2460703244201E+00 -0.2946113680106E+00  0.0000000000000E+00 -0.3767636618066E-01
 0.2756640579065E+00 -0.3221725043746E+00  0.0000000000000E+00 -0.7576332838015E-02
 0.3015195904052E+00 -0.3462935935015E+00  0.0000000000000E+00  0.1436316830730E-01
 0.3241822839429E+00 -0.3675193845185E+00  0.0000000000000E+00  0.2899496282746E-01
 0.3441678700586E+00 -0.3863639495980E+00  0.0000000000000E+00  0.3710249986793E-01
 0.3619263138086E+00 -0.4032797257725E+00  0.0000000000000E+00  0.3931864964716E-01
 0.3778782339438E+00 -0.4187000147990E+00  0.0000000000000E+00  0.3617458427549E-01
 0.3924248482882E+00 -0.4330111418368E+00  0.0000000000000E+00  0.2846958702504E-01
 0.4057872100319E+00 -0.4464869835034E+00  0.0000000000000E+00  0.1610787036194E-01
 0.4185249507767E+00 -0.4597210871736E+00  0.0000000000000E+00 -0.8441052895862E-03
 0.4311858781621E+00 -0.4732214122357E+00  0.0000000000000E+00 -0.2145053016575E-01
 0.4437288244252E+00 -0.4869693454340E+00  0.0000000000000E+00 -0.4500526551406E-01
 0.4560301815244E+00 -0.5008690967319E+00  0.0000000000000E+00 -0.7080591979960E-01
 0.4679347994463E+00 -0.5147737455718E+00  0.0000000000000E+00 -0.9805700799851E-01
 0.4796948040395E+00 -0.5290102196300E+00  0.0000000000000E+00 -0.1247791683647E+00
 0.4950707257917E+00 -0.5453613237676E+00  0.0000000000000E+00 -0.1505615490684E+00
 0.1157219187602E+00 -0.1620762385786E+00  0.0000000000000E+00  0.6647874513578E+00
 0.1307365034564E+00 -0.1757643973038E+00  0.0000000000000E+00  0.6027701799128E+00
 0.1479031143582E+00 -0.1914158342072E+00  0.0000000000000E+00  0.5480763889025E+00
 0.1645030176873E+00 -0.2064037908221E+00  0.0000000000000E+00  0.5005070501897E+00
 0.1791539252980E+00 -0.2194228866750E+00  0.0000000000000E+00  0.4602068457201E+00
 0.1911903282023E+00 -0.2298548957814E+00  0.0000000000000E+00  0.4272209185868E+00
 0.2003145021466E+00 -0.2374335833549E+00  0.0000000000000E+00  0.4012631474385E+00
 0.2064417020729E+00 -0.2420929312571E+00  0.0000000000000E+00  0.3818188755200E+00
 0.2096092454275E+00 -0.2438801054787E+00  0.0000000000000E+00  0.3682227814161E+00
 0.2099180033228E+00 -0.2429002922796E+00  0.0000000000000E+00  0.3597549907250E+00
 0.2075207354719E+00 -0.2393115568516E+00  0.0000000000000E+00  0.3556914631969E+00
 0.2026125078022E+00 -0.2332876738346E+00  0.0000000000000E+00  0.3550284814678E+00
 0.1953645946397E+00 -0.2250121275043E+00  0.0000000000000E+00  0.3574019212103E+00
 0.1861508100397E+00 -0.2148751465017E+00  0.0000000000000E+00  0.3625624253487E+00
 0.1753589419031E+00 -0.2032129173068E+00  0.0000000000000E+00  0.3694141492642E+00
 0.1629975687951E+00 -0.1900058473838E+00  0.0000000000000E+00  0.3768580014612E+00
 0.1490582525676E+00 -0.1752085258548E+00  0.0000000000000E+00  0.3836485491022E+00
 0.1335938054374E+00 -0.1588009268417E+00  0.0000000000000E+00  0.3886258629703E+00
 0.1171858502875E+00 -0.1414038706705E+00  0.0000000000000E+00  0.3902026537550E+00
 0.1034508748931E+00 -0.1245919524480E+00  0.0000000000000E+00  0.3890142537430E+00
 0.1210353035114E+00 -0.1662838433014E+00  0.0000000000000E+00  0.6694339656323E+00
 0.1350080263623E+00 -0.1789019114749E+00  0.0000000000000E+00  0.6078768248946E+00
 0.1511232511291E+00 -0.1933867256407E+00  0.0000000000000E+00  0.5518579603352E+00
 0.1662649590891E+00 -0.2067832356320E+00  0.0000000000000E+00  0.5016564584019E+00
 0.1790201618176E+00 -0.2177757178047E+00  0.0000000000000E+00  0.4580483193558E+00
 0.1888285796999E+00 -0.2258605872456E+00  0.0000000000000E+00  0.4215906620503E+00
 0.1955226397753E+00 -0.2309016675746E+00  0.0000000000000E+00  0.3922848002699E+00
 0.1991375944346E+00 -0.2329542784964E+00  0.0000000000000E+00  0.3697486829284E+00
 0.1998194285611E+00 -0.2321743629587E+00  0.0000000000000E+00  0.3533518405442E+00
 0.1977627606831E+00 -0.2287607713254E+00  0.0000000000000E+00  0.3423565387652E+00
 0.1932133081163E+00 -0.2229584070433E+00  0.0000000000000E+00  0.3359913536199E+00
 0.1864667815896E+00 -0.2150464085726E+00  0.0000000000000E+00  0.3331882645087E+00
 0.1777403177725E+00 -0.2052678858644E+00  0.0000000000000E+00  0.3338664578608E+00
 0.1674818554397E+00 -0.1940869802920E+00  0.0000000000000E+00  0.3379267834379E+00
 0.1561941699134E+00 -0.1819590169782E+00  0.0000000000000E+00  0.3440106560232E+00
 0.1438868037349E+00 -0.1688550610374E+00  0.0000000000000E+00  0.3508309251774E+00
 0.1305907592997E+00 -0.1547462602297E+00  0.0000000000000E+00  0.3570296707428E+00
 0.1164025673908E+00 -0.1396953948316E+00  0.0000000000000E+00  0.3613511917094E+00
 0.1025429635381E+00 -0.1245641229916E+00  0.0000000000000E+00  0.3631240378081E+00
 0.8788509254247E-01 -0.1089144295752E+00  0.0000000000000E+00  0.3673525540138E+00
 0.1264484205886E+00 -0.1706749545129E+00  0.0000000000000E+00  0.6730608029154E+00
 0.1396259769243E+00 -0.1824297407784E+00  0.0000000000000E+00  0.6118568338157E+00
 0.1548394434228E+00 -0.1958898501440E+00  0.0000000000000E+00  0.5539033380158E+00
 0.1685582102781E+00 -0.2077108898000E+00  0.0000000000000E+00  0.5003969334973E+00
 0.1793366398277E+00 -0.2165767815351E+00  0.0000000000000E+00  0.4529462746278E+00
 0.1867729292106E+00 -0.2221524641284E+00  0.0000000000000E+00  0.4126725958726E+00
 0.1908842683651E+00 -0.2244901331860E+00  0.0000000000000E+00  0.3798435903286E+00
 0.1918675018902E+00 -0.2238083040385E+00  0.0000000000000E+00  0.3541822045292E+00
 0.1900008628215E+00 -0.2203949036202E+00  0.0000000000000E+00  0.3350590241929E+00
 0.1855873885351E+00 -0.2145551425775E+00  0.0000000000000E+00  0.3216829474676E+00
 0.1789624476134E+00 -0.2066242672757E+00  0.0000000000000E+00  0.3132387268063E+00
 0.1704752208113E+00 -0.1969300307716E+00  0.0000000000000E+00  0.3085698663979E+00
 0.1603809541077E+00 -0.1857603830973E+00  0.0000000000000E+00  0.3077293604546E+00
 0.1492353511941E+00 -0.1736962468574E+00  0.0000000000000E+00  0.3107420676695E+00
 0.1376404835419E+00 -0.1612907787685E+00  0.0000000000000E+00  0.3160926996290E+00
 0.1256089892386E+00 -0.1485097521382E+00  0.0000000000000E+00  0.3223911849738E+00
 0.1131602851253E+00 -0.1353197197022E+00  0.0000000000000E+00  0.3283218276824E+00
 0.1004391509513E+00 -0.1217778908647E+00  0.0000000000000E+00  0.3331072003451E+00
 0.8758257659493E-01 -0.1080877028310E+00  0.0000000000000E+00  0.3375109679717E+00
 0.7258169828603E-01 -0.9235473984098E-01  0.0000000000000E+00  0.3424576203450E+00
 0.1319961186877E+00 -0.1752765800030E+00  0.0000000000000E+00  0.6756966436240E+00
 0.1446862384820E+00 -0.1864660628431E+00  0.0000000000000E+00  0.6146211800952E+00
 0.1591472464363E+00 -0.1990256301408E+00  0.0000000000000E+00  0.5540548678412E+00
 0.1714137249062E+00 -0.2092189112363E+00  0.0000000000000E+00  0.4964901566623E+00
 0.1800686712013E+00 -0.2157889286700E+00  0.0000000000000E+00  0.4446488896796E+00
 0.1849410099426E+00 -0.2186453595695E+00  0.0000000000000E+00  0.4002755349523E+00
 0.1862929272240E+00 -0.2180899301072E+00  0.0000000000000E+00  0.3638660426878E+00
 0.1845223774949E+00 -0.2145446475594E+00  0.0000000000000E+00  0.3351924883522E+00
 0.1800606304787E+00 -0.2084495273651E+00  0.0000000000000E+00  0.3135684591674E+00
 0.1733216463797E+00 -0.2002189200644E+00  0.0000000000000E+00  0.2981022787612E+00
 0.1647180402932E+00 -0.1902633713512E+00  0.0000000000000E+00  0.2878920075744E+00
 0.1546307149138E+00 -0.1789354926888E+00  0.0000000000000E+00  0.2816439647551E+00
 0.1433474181520E+00 -0.1665608722804E+00  0.0000000000000E+00  0.2794805729812E+00
 0.1315303808151E+00 -0.1538335292681E+00  0.0000000000000E+00  0.2815444175348E+00
 0.1198458553709E+00 -0.1413720908565E+00  0.0000000000000E+00  0.2862669891122E+00
 0.1082613306542E+00 -0.1290958541741E+00  0.0000000000000E+00  0.2922554686950E+00
 0.9671900148959E-01 -0.1168874610676E+00  0.0000000000000E+00  0.2983534441835E+00
 0.8504787541439E-01 -0.1045531400353E+00  0.0000000000000E+00  0.3041339639364E+00
 0.7288517567273E-01 -0.9172560926303E-01  0.0000000000000E+00  0.3097539239042E+00
 0.5868392986988E-01 -0.7694138561196E-01  0.0000000000000E+00  0.3142067073787E+00
 0.1377319477459E+00 -0.1801557455173E+00  0.0000000000000E+00  0.6774147838028E+00
 0.1502865824678E+00 -0.1911172107031E+00  0.0000000000000E+00  0.6160866925429E+00
 0.1641196018140E+00 -0.2028738152783E+00  0.0000000000000E+00  0.5520594460917E+00
 0.1748321603545E+00 -0.2113073402168E+00  0.0000000000000E+00  0.4896102801947E+00
 0.1811374478722E+00 -0.2153295221438E+00  0.0000000000000E+00  0.4328590305405E+00
 0.1831981783009E+00 -0.2151992304727E+00  0.0000000000000E+00  0.3842110095961E+00
 0.1815890524013E+00 -0.2115364928626E+00  0.0000000000000E+00  0.3443192019771E+00
 0.1769460367046E+00 -0.2050038555235E+00  0.0000000000000E+00  0.3129185783157E+00
 0.1698661290026E+00 -0.1962054531190E+00  0.0000000000000E+00  0.2891802894621E+00
 0.1608679935312E+00 -0.1856569072218E+00  0.0000000000000E+00  0.2720418651274E+00
 0.1504249413678E+00 -0.1738255627833E+00  0.0000000000000E+00  0.2604588402190E+00
 0.1389286965028E+00 -0.1610659926188E+00  0.0000000000000E+00  0.2529607349565E+00
 0.1266869232149E+00 -0.1477266181998E+00  0.0000000000000E+00  0.2496989172929E+00
 0.1144487708548E+00 -0.1345937507370E+00  0.0000000000000E+00  0.2509342927353E+00
 0.1028884164237E+00 -0.1222973666414E+00  0.0000000000000E+00  0.2551304595534E+00
 0.9187819489722E-01 -0.1106579261793E+00  0.0000000000000E+00  0.2609393711741E+00
 0.8120082339407E-01 -0.9940739486484E-01  0.0000000000000E+00  0.2672980673564E+00
 0.7047059383829E-01 -0.8812354002550E-01  0.0000000000000E+00  0.2736795828138E+00
 0.5919581723223E-01 -0.7630622075942E-01  0.0000000000000E+00  0.2797132551825E+00
 0.4642387004315E-01 -0.6303351513080E-01  0.0000000000000E+00  0.2837719546806E+00
 0.1437267473070E+00 -0.1853986961058E+00  0.0000000000000E+00  0.6782854130381E+00
 0.1565359008871E+00 -0.1965026815895E+00  0.0000000000000E+00  0.6161162388831E+00
 0.1698099120515E+00 -0.2074914257149E+00  0.0000000000000E+00  0.5475777177839E+00
 0.1787680819738E+00 -0.2139286016126E+00  0.0000000000000E+00  0.4793494793721E+00
 0.1824050357727E+00 -0.2150541490236E+00  0.0000000000000E+00  0.4172442175161E+00
 0.1813479119960E+00 -0.2116093988817E+00  0.0000000000000E+00  0.3643085866446E+00
 0.1765574776084E+00 -0.2046070361402E+00  0.0000000000000E+00  0.3212315450946E+00
 0.1689384574750E+00 -0.1949807837882E+00  0.0000000000000E+00  0.2875859628447E+00
 0.1592554851729E+00 -0.1834991187710E+00  0.0000000000000E+00  0.2622853094431E+00
 0.1481147716643E+00 -0.1707595469856E+00  0.0000000000000E+00  0.2440108925077E+00
 0.1360252566721E+00 -0.1572585634313E+00  0.0000000000000E+00  0.2315173573862E+00
 0.1233634207476E+00 -0.1433244593625E+00  0.0000000000000E+00  0.2231310664007E+00
 0.1104372880054E+00 -0.1293065063864E+00  0.0000000000000E+00  0.2190048779433E+00
 0.9805297766023E-01 -0.1160521064747E+00  0.0000000000000E+00  0.2195112793525E+00
 0.8683702545310E-01 -0.1041468647525E+00  0.0000000000000E+00  0.2232117755217E+00
 0.7652971327748E-01 -0.9327666049189E-01  0.0000000000000E+00  0.2288141727137E+00
 0.6677122578206E-01 -0.8302628674021E-01  0.0000000000000E+00  0.2352553821192E+00
 0.5705900834043E-01 -0.7285025176057E-01  0.0000000000000E+00  0.2418589009133E+00
 0.4691946410247E-01 -0.6225553747508E-01  0.0000000000000E+00  0.2479548245931E+00
 0.3584874970570E-01 -0.5074744913859E-01  0.0000000000000E+00  0.2519754828579E+00
 0.1500716184685E+00 -0.1911154762921E+00  0.0000000000000E+00  0.6783736911674E+00
 0.1635522216483E+00 -0.2027517510230E+00  0.0000000000000E+00  0.6144927489507E+00
 0.1762439146669E+00 -0.2129067090525E+00  0.0000000000000E+00  0.5401633267147E+00
 0.1831162308855E+00 -0.2169724272709E+00  0.0000000000000E+00  0.4652219259921E+00
 0.1836599141044E+00 -0.2147415645355E+00  0.0000000000000E+00  0.3974539569033E+00
 0.1791234115096E+00 -0.2075974608882E+00  0.0000000000000E+00  0.3404424941106E+00
 0.1709267601376E+00 -0.1970196988687E+00  0.0000000000000E+00  0.2947226704984E+00
 0.1602624831658E+00 -0.1842313491229E+00  0.0000000000000E+00  0.2595331960135E+00
 0.1480489212076E+00 -0.1701484810987E+00  0.0000000000000E+00  0.2333861996046E+00
 0.1349476734267E+00 -0.1554149917100E+00  0.0000000000000E+00  0.2146133220839E+00
 0.1214671188079E+00 -0.1405170267469E+00  0.0000000000000E+00  0.2017156001040E+00
 0.1079355450903E+00 -0.1257212112829E+00  0.0000000000000E+00  0.1928104302398E+00
 0.9463798595735E-01 -0.1113515436763E+00  0.0000000000000E+00  0.1880345322631E+00
 0.8240652106230E-01 -0.9828402641669E-01  0.0000000000000E+00  0.1878631985491E+00
 0.7177307327025E-01 -0.8701314243952E-01  0.0000000000000E+00  0.1910194722771E+00
 0.6233706236245E-01 -0.7707827314999E-01  0.0000000000000E+00  0.1962836642907E+00
 0.5362264414869E-01 -0.6794383333083E-01  0.0000000000000E+00  0.2025854188589E+00
 0.4506998881144E-01 -0.5899960961023E-01  0.0000000000000E+00  0.2091354372029E+00
 0.3625785825028E-01 -0.4980037117102E-01  0.0000000000000E+00  0.2151686297115E+00
 0.2694968296257E-01 -0.4010783527109E-01  0.0000000000000E+00  0.2194530736267E+00
 0.1568821715889E+00 -0.1974452092801E+00  0.0000000000000E+00  0.6777329554669E+00
 0.1714594098013E+00 -0.2100009383095E+00  0.0000000000000E+00  0.6108899507810E+00
 0.1834053510313E+00 -0.2191045072667E+00  0.0000000000000E+00  0.5292416018588E+00
 0.1876930571771E+00 -0.2202469633323E+00  0.0000000000000E+00  0.4466667890344E+00
 0.1846019437380E+00 -0.2140775452787E+00  0.0000000000000E+00  0.3731456698714E+00
 0.1761807464851E+00 -0.2028036911286E+00  0.0000000000000E+00  0.3125694722260E+00
 0.1643720572392E+00 -0.1884362031491E+00  0.0000000000000E+00  0.2650427827230E+00
 0.1506545568489E+00 -0.1724837552881E+00  0.0000000000000E+00  0.2292442359290E+00
 0.1360635171872E+00 -0.1559685669740E+00  0.0000000000000E+00  0.2031173017479E+00
 0.1212646345382E+00 -0.1395248057058E+00  0.0000000000000E+00  0.1845531218846E+00
 0.1067171837135E+00 -0.1235755456038E+00  0.0000000000000E+00  0.1717636543518E+00
 0.9266239389103E-01 -0.1082843720424E+00  0.0000000000000E+00  0.1626816428985E+00
 0.7933944297278E-01 -0.9392416626327E-01  0.0000000000000E+00  0.1574242493752E+00
 0.6757865734826E-01 -0.8137089052327E-01  0.0000000000000E+00  0.1565700216701E+00
 0.5778309369188E-01 -0.7099334774751E-01  0.0000000000000E+00  0.1590766700083E+00
 0.4941348470844E-01 -0.6218592289669E-01  0.0000000000000E+00  0.1638350922829E+00
 0.4189942137706E-01 -0.5431414747085E-01  0.0000000000000E+00  0.1697900797793E+00
 0.3465213147395E-01 -0.4673400568967E-01  0.0000000000000E+00  0.1760938922503E+00
 0.2729136849417E-01 -0.3903947307400E-01  0.0000000000000E+00  0.1820099070651E+00
 0.1970318007204E-01 -0.3111214330189E-01  0.0000000000000E+00  0.1867137674328E+00
 0.1643037387419E+00 -0.2045634059459E+00  0.0000000000000E+00  0.6763953323729E+00
 0.1803808543297E+00 -0.2183883894419E+00  0.0000000000000E+00  0.6048342164374E+00
 0.1912150566224E+00 -0.2260051204188E+00  0.0000000000000E+00  0.5140856933488E+00
 0.1922125319166E+00 -0.2234534111432E+00  0.0000000000000E+00  0.4230580261988E+00
 0.1848256003329E+00 -0.2126367108514E+00  0.0000000000000E+00  0.3440231656884E+00
 0.1720946855059E+00 -0.1967819075992E+00  0.0000000000000E+00  0.2807810937838E+00
 0.1565234851872E+00 -0.1784702392465E+00  0.0000000000000E+00  0.2326228102719E+00
 0.1398417444141E+00 -0.1594563431446E+00  0.0000000000000E+00  0.1973839009622E+00
 0.1231333836821E+00 -0.1407928120332E+00  0.0000000000000E+00  0.1722599164658E+00
 0.1069944118307E+00 -0.1230235310315E+00  0.0000000000000E+00  0.1546306639496E+00
 0.9177492046816E-01 -0.1064435185978E+00  0.0000000000000E+00  0.1424171120373E+00
 0.7758757291935E-01 -0.9106966506073E-01  0.0000000000000E+00  0.1334328840765E+00
 0.6460741293559E-01 -0.7710278166287E-01  0.0000000000000E+00  0.1277924763468E+00
 0.5364133069982E-01 -0.6539688153059E-01  0.0000000000000E+00  0.1261945148183E+00
 0.4494099265518E-01 -0.5617280985090E-01  0.0000000000000E+00  0.1279127956711E+00
 0.3783761659265E-01 -0.4868889890461E-01  0.0000000000000E+00  0.1319912910752E+00
 0.3168136728479E-01 -0.4222821919937E-01  0.0000000000000E+00  0.1374167742671E+00
 0.2586606435098E-01 -0.3612674346845E-01  0.0000000000000E+00  0.1433229895651E+00
 0.2002832548061E-01 -0.2999609571676E-01  0.0000000000000E+00  0.1490613334627E+00
 0.1407757977718E-01 -0.2374301760033E-01  0.0000000000000E+00  0.1541918120891E+00
 0.1725174921399E+00 -0.2126912733208E+00  0.0000000000000E+00  0.6743567485778E+00
 0.1904282945282E+00 -0.2280438069297E+00  0.0000000000000E+00  0.5956526868649E+00
 0.1995006395471E+00 -0.2334333377309E+00  0.0000000000000E+00  0.4937906122129E+00
 0.1962545754341E+00 -0.2261524857061E+00  0.0000000000000E+00  0.3937265033767E+00
 0.1838019754530E+00 -0.2098623549064E+00  0.0000000000000E+00  0.3098954399469E+00
 0.1663596328024E+00 -0.1889993609946E+00  0.0000000000000E+00  0.2453755705161E+00
 0.1469833479376E+00 -0.1667051884726E+00  0.0000000000000E+00  0.1981355592720E+00
 0.1275678100491E+00 -0.1448851758425E+00  0.0000000000000E+00  0.1648326514763E+00
 0.1091363737925E+00 -0.1245014094032E+00  0.0000000000000E+00  0.1417476747454E+00
 0.9211819784646E-01 -0.1059014281417E+00  0.0000000000000E+00  0.1257255805027E+00
 0.7668683595680E-01 -0.8917982686959E-01  0.0000000000000E+00  0.1144487882178E+00
 0.6278820440514E-01 -0.7416762977381E-01  0.0000000000000E+00  0.1057277314111E+00
 0.5052415005294E-01 -0.6098268232902E-01  0.0000000000000E+00  0.9971431536450E-01
 0.4066441253538E-01 -0.5044411189528E-01  0.0000000000000E+00  0.9725996089770E-01
 0.3329954417369E-01 -0.4261547631142E-01  0.0000000000000E+00  0.9803214796071E-01
 0.2764693381597E-01 -0.3663515809454E-01  0.0000000000000E+00  0.1012610845420E+00
 0.2298933265369E-01 -0.3171737539888E-01  0.0000000000000E+00  0.1059928638008E+00
 0.1870724245176E-01 -0.2718451711185E-01  0.0000000000000E+00  0.1113637718356E+00
 0.1443111106684E-01 -0.2264466105777E-01  0.0000000000000E+00  0.1168299398252E+00
 0.1003097113811E-01 -0.1796952960845E-01  0.0000000000000E+00  0.1222736574406E+00
 0.1817473619723E+00 -0.2221076828045E+00  0.0000000000000E+00  0.6715525122868E+00
 0.2016823886744E+00 -0.2390706325295E+00  0.0000000000000E+00  0.5824011036624E+00
 0.2079519780095E+00 -0.2410725278333E+00  0.0000000000000E+00  0.4672468493927E+00
 0.1992239784869E+00 -0.2277198710601E+00  0.0000000000000E+00  0.3580041394968E+00
 0.1808616521138E+00 -0.2050461376248E+00  0.0000000000000E+00  0.2707671591067E+00
 0.1584007263866E+00 -0.1788469477075E+00  0.0000000000000E+00  0.2069554967033E+00
 0.1353574567179E+00 -0.1527269621575E+00  0.0000000000000E+00  0.1625660339814E+00
 0.1136313678916E+00 -0.1285647417055E+00  0.0000000000000E+00  0.1327126078675E+00
 0.9402741271475E-01 -0.1070567627644E+00  0.0000000000000E+00  0.1126526099920E+00
 0.7669223987349E-01 -0.8822811395879E-01  0.0000000000000E+00  0.9875956092460E-01
 0.6155802172055E-01 -0.7190443702500E-01  0.0000000000000E+00  0.8860614785016E-01
 0.4837831771547E-01 -0.5770655682782E-01  0.0000000000000E+00  0.8016771380923E-01
 0.3718685332857E-01 -0.4567399617180E-01  0.0000000000000E+00  0.7369246189715E-01
 0.2871244751056E-01 -0.3658879154586E-01  0.0000000000000E+00  0.7022430595783E-01
 0.2288857276056E-01 -0.3036154246682E-01  0.0000000000000E+00  0.6988388193703E-01
 0.1884115932916E-01 -0.2603388274162E-01  0.0000000000000E+00  0.7210212807108E-01
 0.1579673288807E-01 -0.2276424414257E-01  0.0000000000000E+00  0.7598857769427E-01
 0.1312405438058E-01 -0.1986523359650E-01  0.0000000000000E+00  0.8068767643676E-01
 0.1042987310413E-01 -0.1692519466134E-01  0.0000000000000E+00  0.8575195335657E-01
 0.7507536048621E-02 -0.1374497125365E-01  0.0000000000000E+00  0.9130959031000E-01
 0.1922671139455E+00 -0.2331644925353E+00  0.0000000000000E+00  0.6678164227081E+00
 0.2141587862406E+00 -0.2515144796408E+00  0.0000000000000E+00  0.5637613879841E+00
 0.2160546604641E+00 -0.2483950165338E+00  0.0000000000000E+00  0.4331186802705E+00
 0.2002977351805E+00 -0.2272874828889E+00  0.0000000000000E+00  0.3153077067571E+00
 0.1751839883450E+00 -0.1973129497914E+00  0.0000000000000E+00  0.2269783981458E+00
 0.1476043654181E+00 -0.1656697950377E+00  0.0000000000000E+00  0.1665576006578E+00
 0.1213079922249E+00 -0.1361803590561E+00  0.0000000000000E+00  0.1272826093342E+00
 0.9793848342235E-01 -0.1104045059120E+00  0.0000000000000E+00  0.1023889478976E+00
 0.7787617087576E-01 -0.8854350442029E-01  0.0000000000000E+00  0.8613811348882E-01
 0.6086711726117E-01 -0.7017226365310E-01  0.0000000000000E+00  0.7463273177585E-01
 0.4655717857549E-01 -0.5480276231055E-01  0.0000000000000E+00  0.6555517901729E-01
 0.3450628852140E-01 -0.4184902057676E-01  0.0000000000000E+00  0.5725233584388E-01
 0.2470305316960E-01 -0.3129639003439E-01  0.0000000000000E+00  0.5013128499687E-01
 0.1784201652204E-01 -0.2389815601800E-01  0.0000000000000E+00  0.4545994231250E-01
 0.1371662517733E-01 -0.1942875071196E-01  0.0000000000000E+00  0.4384094921614E-01
 0.1138930330081E-01 -0.1686219293166E-01  0.0000000000000E+00  0.4489840892982E-01
 0.1004142111039E-01 -0.1531434487054E-01  0.0000000000000E+00  0.4779797420983E-01
 0.9031141122536E-02 -0.1409135602517E-01  0.0000000000000E+00  0.5168841497917E-01
 0.7930173223103E-02 -0.1275139534146E-01  0.0000000000000E+00  0.5619722308100E-01
 0.6435303588811E-02 -0.1100531584215E-01  0.0000000000000E+00  0.6161604645622E-01
 0.2044055970504E+00 -0.2463058354980E+00  0.0000000000000E+00  0.6628102237884E+00
 0.2277478141631E+00 -0.2653061701055E+00  0.0000000000000E+00  0.5378930792513E+00
 0.2229885866330E+00 -0.2545539760153E+00  0.0000000000000E+00  0.3898402548984E+00
 0.1983606943016E+00 -0.2236685508784E+00  0.0000000000000E+00  0.2652951147679E+00
 0.1658058943436E+00 -0.1856242122116E+00  0.0000000000000E+00  0.1794197448936E+00
 0.1333843046604E+00 -0.1488362401143E+00  0.0000000000000E+00  0.1258150436760E+00
 0.1046369277957E+00 -0.1168593541103E+00  0.0000000000000E+00  0.9408636187238E-01
 0.8056872313832E-01 -0.9050035402070E-01  0.0000000000000E+00  0.7541893349780E-01
 0.6090194917294E-01 -0.6920503233871E-01  0.0000000000000E+00  0.6336208075610E-01
 0.4489603557996E-01 -0.5200900207304E-01  0.0000000000000E+00  0.5413181155881E-01
 0.3191020963973E-01 -0.3811763861831E-01  0.0000000000000E+00  0.4581779687152E-01
 0.2134442627882E-01 -0.2678026094500E-01  0.0000000000000E+00  0.3734573160352E-01
 0.1318259137148E-01 -0.1797047372325E-01  0.0000000000000E+00  0.2932149838446E-01
 0.8099126718385E-02 -0.1242766731273E-01  0.0000000000000E+00  0.2324398963008E-01
 0.5774266326467E-02 -0.9815621284814E-02  0.0000000000000E+00  0.2018982975935E-01
 0.5237807980756E-02 -0.9073175255370E-02  0.0000000000000E+00  0.1994926595353E-01
 0.5636362836260E-02 -0.9286653883990E-02  0.0000000000000E+00  0.2173058178650E-01
 0.6319230513794E-02 -0.9759774487639E-02  0.0000000000000E+00  0.2467973427900E-01
 0.6817965094576E-02 -0.1001591240375E-01  0.0000000000000E+00  0.2847194270061E-01
 0.6725916644168E-02 -0.9669345265349E-02  0.0000000000000E+00  0.3347387674334E-01
 0.2185445483958E+00 -0.2620911579424E+00  0.0000000000000E+00  0.6558976320052E+00
 0.2421042926066E+00 -0.2801558184939E+00  0.0000000000000E+00  0.5022133260609E+00
 0.2274710140972E+00 -0.2582117610768E+00  0.0000000000000E+00  0.3356615250060E+00
 0.1919368508253E+00 -0.2152705196614E+00  0.0000000000000E+00  0.2081557607553E+00
 0.1516788547950E+00 -0.1688304062248E+00  0.0000000000000E+00  0.1298563909017E+00
 0.1153089190326E+00 -0.1278745328302E+00  0.0000000000000E+00  0.8713234270071E-01
 0.8540641315411E-01 -0.9483957274088E-01  0.0000000000000E+00  0.6518679143518E-01
 0.6184407890339E-01 -0.6920884529765E-01  0.0000000000000E+00  0.5340659880084E-01
 0.4349067606558E-01 -0.4945976817405E-01  0.0000000000000E+00  0.4531870323296E-01
 0.2912162067122E-01 -0.3410360330795E-01  0.0000000000000E+00  0.3782091381805E-01
 0.1787840504518E-01 -0.2212520214095E-01  0.0000000000000E+00  0.2971934007012E-01
 0.9070753254449E-02 -0.1268885125307E-01  0.0000000000000E+00  0.2066185330550E-01
 0.2727376962598E-02 -0.5807339593531E-02  0.0000000000000E+00  0.1144129529340E-01
-0.4827373910583E-03 -0.2219247729967E-02  0.0000000000000E+00  0.3761027268258E-02
-0.9611922112294E-03 -0.1506364479962E-02  0.0000000000000E+00 -0.8699591566415E-03
 0.3192407561610E-03 -0.2604569898662E-02  0.0000000000000E+00 -0.2533727696781E-02
 0.2479050853534E-02 -0.4582888321909E-02  0.0000000000000E+00 -0.1991497481213E-02
 0.4862450380092E-02 -0.6749104742511E-02  0.0000000000000E+00 -0.1047064362951E-03
 0.6963107805166E-02 -0.8594081109016E-02  0.0000000000000E+00  0.2820425175782E-02
 0.8275920070302E-02 -0.9640228120456E-02  0.0000000000000E+00  0.7126417447938E-02
 0.2350939303782E+00 -0.2812186717505E+00  0.0000000000000E+00  0.6459105531665E+00
 0.2564377836854E+00 -0.2953475817104E+00  0.0000000000000E+00  0.4530633506171E+00
 0.2275122213615E+00 -0.2572614813726E+00  0.0000000000000E+00  0.2688248804269E+00
 0.1791467052787E+00 -0.2000227110406E+00  0.0000000000000E+00  0.1451491840924E+00
 0.1318346575241E+00 -0.1458390877689E+00  0.0000000000000E+00  0.8139098538816E-01
 0.9332383323917E-01 -0.1027203423900E+00  0.0000000000000E+00  0.5379502608535E-01
 0.6408596996724E-01 -0.7064139106560E-01  0.0000000000000E+00  0.4300387036959E-01
 0.4237050420063E-01 -0.4719051429259E-01  0.0000000000000E+00  0.3771927668100E-01
 0.2617003085647E-01 -0.2986983748862E-01  0.0000000000000E+00  0.3263381757414E-01
 0.1393269274666E-01 -0.1686376035618E-01  0.0000000000000E+00  0.2595020447063E-01
 0.4722328809174E-02 -0.7096535371404E-02  0.0000000000000E+00  0.1736959846192E-01
-0.2153510588664E-02  0.2563439670027E-03  0.0000000000000E+00  0.7278199781788E-02
-0.6578071657348E-02  0.5100578074721E-02  0.0000000000000E+00 -0.3423726672997E-02
-0.7882163973121E-02  0.6697678966292E-02  0.0000000000000E+00 -0.1288221757381E-01
-0.6518619770276E-02  0.5521620687808E-02  0.0000000000000E+00 -0.1921864146445E-01
-0.3437895277022E-02  0.2611432984179E-02  0.0000000000000E+00 -0.2242558053817E-01
 0.4601550608045E-03 -0.1095891415019E-02  0.0000000000000E+00 -0.2323502032157E-01
 0.4523550868941E-02 -0.4924744319561E-02  0.0000000000000E+00 -0.2251187739939E-01
 0.8221287211417E-02 -0.8346066241085E-02  0.0000000000000E+00 -0.2057339763071E-01
 0.1096850483640E-01 -0.1080764719422E-01  0.0000000000000E+00 -0.1722004226949E-01
 0.2543977328606E+00 -0.3045342066631E+00  0.0000000000000E+00  0.6306864569769E+00
 0.2690940676475E+00 -0.3093163576401E+00  0.0000000000000E+00  0.3851981278470E+00
 0.2200386068822E+00 -0.2483741950889E+00  0.0000000000000E+00  0.1880716143019E+00
 0.1577914468011E+00 -0.1754109904010E+00  0.0000000000000E+00  0.7961048226109E-01
 0.1057791820647E+00 -0.1160468345320E+00  0.0000000000000E+00  0.3901982893900E-01
 0.6808819423536E-01 -0.7409716915073E-01  0.0000000000000E+00  0.2979787748371E-01
 0.4166762403570E-01 -0.4536176078988E-01  0.0000000000000E+00  0.2964320996347E-01
 0.2299028357573E-01 -0.2534584890777E-01  0.0000000000000E+00  0.2907227575542E-01
 0.9522806959573E-02 -0.1104554841721E-01  0.0000000000000E+00  0.2539868923986E-01
-0.3037251786022E-03 -0.6673863476518E-03  0.0000000000000E+00  0.1843290864164E-01
-0.7339985922418E-02  0.6745215612490E-02  0.0000000000000E+00  0.8694689789870E-02
-0.1220438473847E-01  0.1192639182361E-01  0.0000000000000E+00 -0.2820447128335E-02
-0.1467176493770E-01  0.1468384295199E-01  0.0000000000000E+00 -0.1524394419025E-01
-0.1408502072350E-01  0.1430031240998E-01  0.0000000000000E+00 -0.2663196764081E-01
-0.1092225836754E-01  0.1128631435208E-01  0.0000000000000E+00 -0.3480338103677E-01
-0.6096976408307E-02  0.6636014915438E-02  0.0000000000000E+00 -0.3968541613486E-01
-0.5276910497685E-03  0.1282201306066E-02  0.0000000000000E+00 -0.4195944209036E-01
 0.5157023766051E-02 -0.4141622278438E-02  0.0000000000000E+00 -0.4247307434632E-01
 0.1043337664583E-01 -0.9116408385967E-02  0.0000000000000E+00 -0.4158521189309E-01
 0.1467422681868E-01 -0.1304922881318E-01  0.0000000000000E+00 -0.3939148270474E-01
 0.2764477973377E+00 -0.3329789833805E+00  0.0000000000000E+00  0.6060998685667E+00
 0.2766370082814E+00 -0.3187058285459E+00  0.0000000000000E+00  0.2909729589947E+00
 0.2003774995905E+00 -0.2262616203473E+00  0.0000000000000E+00  0.9408529376491E-01
 0.1258660990255E+00 -0.1389827280793E+00  0.0000000000000E+00  0.1872023905130E-01
 0.7430108040602E-01 -0.8024307250099E-01  0.0000000000000E+00  0.9962884717779E-02
 0.4133877930622E-01 -0.4398184829432E-01  0.0000000000000E+00  0.1886890933211E-01
 0.1956315809323E-01 -0.2051663068526E-01  0.0000000000000E+00  0.2595104168942E-01
 0.4594142820260E-02 -0.4609616406929E-02  0.0000000000000E+00  0.2722330297624E-01
-0.5938807605249E-02  0.6488244115660E-02  0.0000000000000E+00  0.2316017863966E-01
-0.1331280406920E-01  0.1420860601848E-01  0.0000000000000E+00  0.1491874855137E-01
-0.1816739552537E-01  0.1925907424036E-01  0.0000000000000E+00  0.3513344754309E-02
-0.2100821548499E-01  0.2224497170561E-01  0.0000000000000E+00 -0.9676632034891E-02
-0.2151279071200E-01  0.2289315310786E-01  0.0000000000000E+00 -0.2399598283079E-01
-0.1907396245579E-01  0.2056053399360E-01  0.0000000000000E+00 -0.3745353588789E-01
-0.1417553915610E-01  0.1578373003872E-01  0.0000000000000E+00 -0.4762064416155E-01
-0.7696759415898E-02  0.9507555729492E-02  0.0000000000000E+00 -0.5435521637216E-01
-0.5793379229528E-03  0.2650096497585E-02  0.0000000000000E+00 -0.5822636838152E-01
 0.6610454105967E-02 -0.4244265092668E-02  0.0000000000000E+00 -0.6001582281142E-01
 0.1342011658200E-01 -0.1072921888587E-01  0.0000000000000E+00 -0.6015190453051E-01
 0.1924883544457E-01 -0.1622935492229E-01  0.0000000000000E+00 -0.5923581631969E-01
 0.2997223635837E+00 -0.3672138190063E+00  0.0000000000000E+00  0.5635141935018E+00
 0.2717522431195E+00 -0.3159010277748E+00  0.0000000000000E+00  0.1594053043714E+00
 0.1617794017885E+00 -0.1828450825032E+00  0.0000000000000E+00 -0.6712441676124E-02
 0.8343112235857E-01 -0.9016721907938E-01  0.0000000000000E+00 -0.2342640587519E-01
 0.4082923801123E-01 -0.4255325325688E-01  0.0000000000000E+00  0.2010730589211E-02
 0.1560549251484E-01 -0.1509017375697E-01  0.0000000000000E+00  0.2195222152436E-01
-0.8578725088819E-03  0.2451865981193E-02  0.0000000000000E+00  0.3096363419399E-01
-0.1211216509272E-01  0.1430011051322E-01  0.0000000000000E+00  0.3106196688990E-01
-0.1987955661862E-01  0.2239590848916E-01  0.0000000000000E+00  0.2510714080167E-01
-0.2495596750543E-01  0.2762992169347E-01  0.0000000000000E+00  0.1492377945979E-01
-0.2771698672148E-01  0.3040856457510E-01  0.0000000000000E+00  0.1626280725788E-02
-0.2854764097522E-01  0.3119377820009E-01  0.0000000000000E+00 -0.1328043742130E-01
-0.2707271079805E-01  0.2968896106584E-01  0.0000000000000E+00 -0.2959879675785E-01
-0.2281023126679E-01  0.2542369339457E-01  0.0000000000000E+00 -0.4528866125461E-01
-0.1623869567211E-01  0.1896546702547E-01  0.0000000000000E+00 -0.5769576188657E-01
-0.8228849394017E-02  0.1121771151939E-01  0.0000000000000E+00 -0.6655648450418E-01
 0.2392687491000E-03  0.3083527228983E-02  0.0000000000000E+00 -0.7221934396809E-01
 0.8725381038408E-02 -0.5067003758643E-02  0.0000000000000E+00 -0.7528870768181E-01
 0.1697001687656E-01 -0.1297404735160E-01  0.0000000000000E+00 -0.7628595024087E-01
 0.2452295930310E-01 -0.2019326281607E-01  0.0000000000000E+00 -0.7659847324112E-01
 0.3179161269078E+00 -0.4063078720101E+00  0.0000000000000E+00  0.4832362920530E+00
 0.2363800916022E+00 -0.2817782207323E+00  0.0000000000000E+00 -0.2563412181524E-01
 0.9816087738801E-01 -0.1069759545679E+00  0.0000000000000E+00 -0.8733182106606E-01
 0.3842422748845E-01 -0.3952326905928E-01  0.0000000000000E+00 -0.2716801176448E-01
 0.1031328955330E-01 -0.8203200338145E-02  0.0000000000000E+00  0.1556058829094E-01
-0.7076831629494E-02  0.1041468919504E-01  0.0000000000000E+00  0.3638151170329E-01
-0.1868663085901E-01  0.2264024197709E-01  0.0000000000000E+00  0.4239050816052E-01
-0.2674964192567E-01  0.3101097952435E-01  0.0000000000000E+00  0.3910577953094E-01
-0.3216603103950E-01  0.3654473812722E-01  0.0000000000000E+00  0.3031774093289E-01
-0.3524407195910E-01  0.3961881342777E-01  0.0000000000000E+00  0.1792651017449E-01
-0.3606177456286E-01  0.4027890405121E-01  0.0000000000000E+00  0.2884525169708E-02
-0.3487236693698E-01  0.3882970077434E-01  0.0000000000000E+00 -0.1346570418603E-01
-0.3131692231252E-01  0.3501504443098E-01  0.0000000000000E+00 -0.3180307584065E-01
-0.2519353159382E-01  0.2876313353623E-01  0.0000000000000E+00 -0.5001004999348E-01
-0.1699673220188E-01  0.2070847684402E-01  0.0000000000000E+00 -0.6508723897637E-01
-0.7625782056675E-02  0.1170456867246E-01  0.0000000000000E+00 -0.7648266277046E-01
 0.1921958905138E-02  0.2590289031835E-02  0.0000000000000E+00 -0.8422982877889E-01
 0.1136105168234E-01 -0.6438117296241E-02  0.0000000000000E+00 -0.8864380053331E-01
 0.2079947399104E-01 -0.1557321360425E-01  0.0000000000000E+00 -0.9011124518979E-01
 0.3027820231391E-01 -0.2474278394616E-01  0.0000000000000E+00 -0.9128672816709E-01
 0.2723881817307E+00 -0.4277907690328E+00  0.0000000000000E+00  0.2774861237795E+00
 0.1321146769228E+00 -0.1436986493397E+00  0.0000000000000E+00 -0.2404577624271E+00
 0.2840797715831E-01 -0.2958821776882E-01  0.0000000000000E+00 -0.8670180716917E-01
 0.1796600878765E-02  0.2020684607033E-02  0.0000000000000E+00  0.3979730733508E-02
-0.1474635200888E-01  0.2006013775017E-01  0.0000000000000E+00  0.4377740370315E-01
-0.2568438355897E-01  0.3157984890182E-01  0.0000000000000E+00  0.5776069796584E-01
-0.3361631287929E-01  0.3975293297047E-01  0.0000000000000E+00  0.5774015025731E-01
-0.3925350448791E-01  0.4547811191514E-01  0.0000000000000E+00  0.4996215305484E-01
-0.4280212352948E-01  0.4895523737753E-01  0.0000000000000E+00  0.3802607132351E-01
-0.4429068960322E-01  0.5024544895162E-01  0.0000000000000E+00  0.2327542398208E-01
-0.4348652168491E-01  0.4923318095275E-01  0.0000000000000E+00  0.7076823865869E-02
-0.4016124670910E-01  0.4535413426960E-01  0.0000000000000E+00 -0.9549890219673E-02
-0.3410258010243E-01  0.3865312967072E-01  0.0000000000000E+00 -0.2994281550620E-01
-0.2594202744768E-01  0.3026133370048E-01  0.0000000000000E+00 -0.5150801782212E-01
-0.1624288898181E-01  0.2082029885090E-01  0.0000000000000E+00 -0.6999345312980E-01
-0.5791215166553E-02  0.1086764739537E-01  0.0000000000000E+00 -0.8437701653817E-01
 0.4524001458988E-02  0.1128154180721E-02  0.0000000000000E+00 -0.9457804132263E-01
 0.1452132586115E-01 -0.8379514986872E-02  0.0000000000000E+00 -0.1005620810930E+00
 0.2455752158669E-01 -0.1804116902903E-01  0.0000000000000E+00 -0.1023208643233E+00
 0.3601450765234E-01 -0.2953944078728E-01  0.0000000000000E+00 -0.1027580492653E+00
 0.5090331677387E+00 -0.5665644737470E+00  0.0000000000000E+00 -0.1596071875124E+00
 0.4973309731444E+00 -0.5530351096072E+00  0.0000000000000E+00 -0.1918939177314E+00
 0.4826615162283E+00 -0.5378620974863E+00  0.0000000000000E+00 -0.2251714438185E+00
 0.4661580791593E+00 -0.5208465331536E+00  0.0000000000000E+00 -0.2583728167094E+00
 0.4474666552823E+00 -0.5015558935376E+00  0.0000000000000E+00 -0.2905139473883E+00
 0.4265299703050E+00 -0.4798472745694E+00  0.0000000000000E+00 -0.3208959091569E+00
 0.4033299938268E+00 -0.4556572108060E+00  0.0000000000000E+00 -0.3487725878380E+00
 0.3778853876443E+00 -0.4289655035856E+00  0.0000000000000E+00 -0.3733048710382E+00
 0.3502395656429E+00 -0.3997799061686E+00  0.0000000000000E+00 -0.3935253673921E+00
 0.3204660967803E+00 -0.3681374318365E+00  0.0000000000000E+00 -0.4083181855672E+00
 0.2886806803566E+00 -0.3341138709137E+00  0.0000000000000E+00 -0.4164011339138E+00
 0.2550621523108E+00 -0.2978421762265E+00  0.0000000000000E+00 -0.4163111694462E+00
 0.2198868510726E+00 -0.2595436267858E+00  0.0000000000000E+00 -0.4063958306628E+00
 0.1835850421392E+00 -0.2195798190323E+00  0.0000000000000E+00 -0.3848169097136E+00
 0.1468344059195E+00 -0.1785398991474E+00  0.0000000000000E+00 -0.3495789176102E+00
 0.1107192798271E+00 -0.1373895939783E+00  0.0000000000000E+00 -0.2986063408510E+00
 0.7700605896526E-01 -0.9773493423068E-01  0.0000000000000E+00 -0.2299325248001E+00
 0.4868232365036E-01 -0.6231958253136E-01  0.0000000000000E+00 -0.1421127129093E+00
 0.3093508382758E-01 -0.3606904980283E-01  0.0000000000000E+00 -0.3549708927042E-01
 0.3494020384586E-01 -0.2927297193962E-01  0.0000000000000E+00  0.8416823461488E-01
 0.5284010634524E+00 -0.5868112906754E+00  0.0000000000000E+00 -0.1236044576045E+00
 0.5209148129173E+00 -0.5796399091618E+00  0.0000000000000E+00 -0.1571262221738E+00
 0.5095460052640E+00 -0.5679584795683E+00  0.0000000000000E+00 -0.1891330704534E+00
 0.4955542546436E+00 -0.5538054457221E+00  0.0000000000000E+00 -0.2224575493842E+00
 0.4794663943840E+00 -0.5374825256190E+00  0.0000000000000E+00 -0.2557547974459E+00
 0.4612702870103E+00 -0.5189338759755E+00  0.0000000000000E+00 -0.2881126844595E+00
 0.4409093169727E+00 -0.4980498925016E+00  0.0000000000000E+00 -0.3186958871016E+00
 0.4183223023436E+00 -0.4747276168860E+00  0.0000000000000E+00 -0.3466877912675E+00
 0.3934698162599E+00 -0.4488865407271E+00  0.0000000000000E+00 -0.3712181898270E+00
 0.3663426912181E+00 -0.4204744995481E+00  0.0000000000000E+00 -0.3913205298157E+00
 0.3369733119653E+00 -0.3894755338938E+00  0.0000000000000E+00 -0.4058967283645E+00
 0.3054533200552E+00 -0.3559241503407E+00  0.0000000000000E+00 -0.4136821751355E+00
 0.2719628431820E+00 -0.3199301365765E+00  0.0000000000000E+00 -0.4132033528456E+00
 0.2368182250128E+00 -0.2817201757551E+00  0.0000000000000E+00 -0.4027200791919E+00
 0.2005506713347E+00 -0.2417071022934E+00  0.0000000000000E+00 -0.3801400866929E+00
 0.1640379322268E+00 -0.2006071634059E+00  0.0000000000000E+00 -0.3428853677626E+00
 0.1287397798821E+00 -0.1596452842475E+00  0.0000000000000E+00 -0.2876606841305E+00
 0.9712287039607E-01 -0.1209391535332E+00  0.0000000000000E+00 -0.2100349801222E+00
 0.7370543410490E-01 -0.8832086933197E-01  0.0000000000000E+00 -0.1034380567825E+00
 0.6728640158582E-01 -0.6926348431301E-01  0.0000000000000E+00  0.4419269503844E-01
 0.5457608065573E+00 -0.6061602965837E+00  0.0000000000000E+00 -0.7986063695756E-01
 0.5404992275413E+00 -0.6014419035101E+00  0.0000000000000E+00 -0.1149212722431E+00
 0.5325360469351E+00 -0.5938782773408E+00  0.0000000000000E+00 -0.1477490293974E+00
 0.5217806167645E+00 -0.5833688703929E+00  0.0000000000000E+00 -0.1806181050677E+00
 0.5086647090141E+00 -0.5704584478983E+00  0.0000000000000E+00 -0.2137702539491E+00
 0.4933801875010E+00 -0.5552875494668E+00  0.0000000000000E+00 -0.2465307441603E+00
 0.4759422630471E+00 -0.5378398787337E+00  0.0000000000000E+00 -0.2781463395978E+00
 0.4563113248466E+00 -0.5180386642094E+00  0.0000000000000E+00 -0.3078275034009E+00
 0.4344365027364E+00 -0.4957955617615E+00  0.0000000000000E+00 -0.3347440662803E+00
 0.4102827220497E+00 -0.4710346227650E+00  0.0000000000000E+00 -0.3579902002839E+00
 0.3838485313265E+00 -0.4437079750663E+00  0.0000000000000E+00 -0.3765445936113E+00
 0.3551841917056E+00 -0.4138108906615E+00  0.0000000000000E+00 -0.3892221642538E+00
 0.3244146600859E+00 -0.3814009218491E+00  0.0000000000000E+00 -0.3946096566033E+00
 0.2917719647589E+00 -0.3466249016094E+00  0.0000000000000E+00 -0.3909714477919E+00
 0.2576420505859E+00 -0.3097580527070E+00  0.0000000000000E+00 -0.3761028401397E+00
 0.2226341912986E+00 -0.2712605887162E+00  0.0000000000000E+00 -0.3470882007713E+00
 0.1876789228736E+00 -0.2318573824181E+00  0.0000000000000E+00 -0.2998801918717E+00
 0.1541815064194E+00 -0.1926422056419E+00  0.0000000000000E+00 -0.2284945383536E+00
 0.1241198990653E+00 -0.1551369435722E+00  0.0000000000000E+00 -0.1232569810086E+00
 0.9982799623795E-01 -0.1208351851680E+00  0.0000000000000E+00  0.3358106293303E-01
 0.5614640734485E+00 -0.6237543936086E+00  0.0000000000000E+00 -0.3269355266802E-01
 0.5578970799320E+00 -0.6210765175521E+00  0.0000000000000E+00 -0.6693011985621E-01
 0.5523742921485E+00 -0.6163425857594E+00  0.0000000000000E+00 -0.9986635906678E-01
 0.5444876490456E+00 -0.6091809628528E+00  0.0000000000000E+00 -0.1323363206071E+00
 0.5342658838398E+00 -0.5996216254733E+00  0.0000000000000E+00 -0.1647637655450E+00
 0.5218186776093E+00 -0.5877822864813E+00  0.0000000000000E+00 -0.1969298473468E+00
 0.5071816805558E+00 -0.5736746179333E+00  0.0000000000000E+00 -0.2282688924363E+00
 0.4903269584504E+00 -0.5572451959750E+00  0.0000000000000E+00 -0.2580826400751E+00
 0.4711984363002E+00 -0.5384081337400E+00  0.0000000000000E+00 -0.2855802210888E+00
 0.4497355994819E+00 -0.5170697193875E+00  0.0000000000000E+00 -0.3098735825107E+00
 0.4258909525831E+00 -0.4931444617509E+00  0.0000000000000E+00 -0.3299457780841E+00
 0.3996430098446E+00 -0.4665663575013E+00  0.0000000000000E+00 -0.3446011018827E+00
 0.3710071049178E+00 -0.4372973260292E+00  0.0000000000000E+00 -0.3523929688000E+00
 0.3400442041391E+00 -0.4053329760383E+00  0.0000000000000E+00 -0.3515185816896E+00
 0.3068655542824E+00 -0.3707031746520E+00  0.0000000000000E+00 -0.3396605208195E+00
 0.2716248469218E+00 -0.3334595834471E+00  0.0000000000000E+00 -0.3137418313624E+00
 0.2344791551224E+00 -0.2936295766846E+00  0.0000000000000E+00 -0.2695354896897E+00
 0.1954447676946E+00 -0.2510775605666E+00  0.0000000000000E+00 -0.2010263651947E+00
 0.1539769609693E+00 -0.2050992186010E+00  0.0000000000000E+00 -0.9940115408688E-01
 0.1074592861094E+00 -0.1532072870713E+00  0.0000000000000E+00  0.4809686288057E-01
 0.5749188801268E+00 -0.6389811520961E+00  0.0000000000000E+00  0.1712923077228E-01
 0.5729226382479E+00 -0.6381675071228E+00  0.0000000000000E+00 -0.1516685542841E-01
 0.5693447825079E+00 -0.6357528730422E+00  0.0000000000000E+00 -0.4692685637460E-01
 0.5637709313461E+00 -0.6313175826515E+00  0.0000000000000E+00 -0.7830743650099E-01
 0.5560410464341E+00 -0.6247102024575E+00  0.0000000000000E+00 -0.1094899625497E+00
 0.5461154523258E+00 -0.6158871787932E+00  0.0000000000000E+00 -0.1403595338992E+00
 0.5339652935658E+00 -0.6048116062582E+00  0.0000000000000E+00 -0.1705139545560E+00
 0.5195310834778E+00 -0.5914072469812E+00  0.0000000000000E+00 -0.1993548376530E+00
 0.5027235219326E+00 -0.5755648876557E+00  0.0000000000000E+00 -0.2261467184903E+00
 0.4834340198213E+00 -0.5571527431721E+00  0.0000000000000E+00 -0.2500256672448E+00
 0.4615426508448E+00 -0.5360244514518E+00  0.0000000000000E+00 -0.2699803635929E+00
 0.4369211780123E+00 -0.5120214850049E+00  0.0000000000000E+00 -0.2848111453284E+00
 0.4094290633068E+00 -0.4849684336454E+00  0.0000000000000E+00 -0.2930676721489E+00
 0.3788992588961E+00 -0.4546580880689E+00  0.0000000000000E+00 -0.2929602810692E+00
 0.3451069311833E+00 -0.4208199991650E+00  0.0000000000000E+00 -0.2822363060699E+00
 0.3077080260018E+00 -0.3830600182180E+00  0.0000000000000E+00 -0.2580101125614E+00
 0.2661187815271E+00 -0.3407461919263E+00  0.0000000000000E+00 -0.2165396458170E+00
 0.2192872160931E+00 -0.2927943719414E+00  0.0000000000000E+00 -0.1529777327547E+00
 0.1652444495671E+00 -0.2372794306051E+00  0.0000000000000E+00 -0.6128442150635E-01
 0.1004969022645E+00 -0.1708944312764E+00  0.0000000000000E+00  0.6484348168174E-01
 0.5858739344741E+00 -0.6515291120447E+00  0.0000000000000E+00  0.6893021699946E-01
 0.5853131865076E+00 -0.6524347849526E+00  0.0000000000000E+00  0.3930115424164E-01
 0.5833516150820E+00 -0.6519716193692E+00  0.0000000000000E+00  0.9663905510688E-02
 0.5796367875230E+00 -0.6497834735498E+00  0.0000000000000E+00 -0.1982842297672E-01
 0.5739326981793E+00 -0.6456342665902E+00  0.0000000000000E+00 -0.4914748371560E-01
 0.5660932957002E+00 -0.6393784575311E+00  0.0000000000000E+00 -0.7814417583364E-01
 0.5560028233011E+00 -0.6308959668737E+00  0.0000000000000E+00 -0.1064779393929E+00
 0.5435368282279E+00 -0.6200549310677E+00  0.0000000000000E+00 -0.1336296986998E+00
 0.5285460326992E+00 -0.6066954227784E+00  0.0000000000000E+00 -0.1589275112009E+00
 0.5108520891057E+00 -0.5906265037375E+00  0.0000000000000E+00 -0.1815572406124E+00
 0.4902448788378E+00 -0.5716238407156E+00  0.0000000000000E+00 -0.2005528983421E+00
 0.4664753880646E+00 -0.5494229367664E+00  0.0000000000000E+00 -0.2147707787829E+00
 0.4392402000892E+00 -0.5237040768211E+00  0.0000000000000E+00 -0.2228492512515E+00
 0.4081529035291E+00 -0.4940646983219E+00  0.0000000000000E+00 -0.2231554043438E+00
 0.3726956361133E+00 -0.4599728718921E+00  0.0000000000000E+00 -0.2137205542384E+00
 0.3321399645453E+00 -0.4206923048778E+00  0.0000000000000E+00 -0.1921720068939E+00
 0.2854232747395E+00 -0.3751657719858E+00  0.0000000000000E+00 -0.1556846310848E+00
 0.2309653117839E+00 -0.3218461631521E+00  0.0000000000000E+00 -0.1010157485260E+00
 0.1664671903586E+00 -0.2585003982991E+00  0.0000000000000E+00 -0.2476834079033E-01
 0.8891847722228E-01 -0.1821784019984E+00  0.0000000000000E+00  0.7601401211316E-01
 0.5941754836717E+00 -0.6612205734517E+00  0.0000000000000E+00  0.1221140746341E+00
 0.5948755359990E+00 -0.6636515931429E+00  0.0000000000000E+00  0.9561750429486E-01
 0.5942576866202E+00 -0.6648418548131E+00  0.0000000000000E+00  0.6877102571702E-01
 0.5920234865533E+00 -0.6644905043638E+00  0.0000000000000E+00  0.4182321039116E-01
 0.5879109571588E+00 -0.6623370811295E+00  0.0000000000000E+00  0.1492773256112E-01
 0.5817045915823E+00 -0.6581680018450E+00  0.0000000000000E+00 -0.1171570762748E-01
 0.5732104463792E+00 -0.6517904302714E+00  0.0000000000000E+00 -0.3778545601420E-01
 0.5622289342969E+00 -0.6430040563109E+00  0.0000000000000E+00 -0.6281776639002E-01
 0.5485362845701E+00 -0.6315831426891E+00  0.0000000000000E+00 -0.8620944490809E-01
 0.5318727200431E+00 -0.6172651330879E+00  0.0000000000000E+00 -0.1072217569929E+00
 0.5119322239784E+00 -0.5997411743376E+00  0.0000000000000E+00 -0.1249777053363E+00
 0.4883490310436E+00 -0.5786433773333E+00  0.0000000000000E+00 -0.1384518462243E+00
 0.4606767811274E+00 -0.5535250660792E+00  0.0000000000000E+00 -0.1464554750987E+00
 0.4283564412028E+00 -0.5238303446799E+00  0.0000000000000E+00 -0.1476217490614E+00
 0.3906686099852E+00 -0.4888490042022E+00  0.0000000000000E+00 -0.1403986148855E+00
 0.3466659644956E+00 -0.4476527759511E+00  0.0000000000000E+00 -0.1230638033192E+00
 0.2950835950904E+00 -0.3990112246947E+00  0.0000000000000E+00 -0.9378683128916E-01
 0.2342384789873E+00 -0.3412948189786E+00  0.0000000000000E+00 -0.5077357283740E-01
 0.1619496105878E+00 -0.2723942955883E+00  0.0000000000000E+00  0.7501464786971E-02
 0.7552164776021E-01 -0.1896682815765E+00  0.0000000000000E+00  0.8221336674451E-01
 0.5997488667853E+00 -0.6679629332631E+00  0.0000000000000E+00  0.1760988819906E+00
 0.6014983763606E+00 -0.6716868186532E+00  0.0000000000000E+00  0.1530488044362E+00
 0.6019678339329E+00 -0.6742464962621E+00  0.0000000000000E+00  0.1294372186006E+00
 0.6008885138282E+00 -0.6753749466079E+00  0.0000000000000E+00  0.1055101136702E+00
 0.5979863491003E+00 -0.6748022685651E+00  0.0000000000000E+00  0.8146613451722E-01
 0.5929990507484E+00 -0.6722716370718E+00  0.0000000000000E+00  0.5752897788639E-01
 0.5856679760537E+00 -0.6675300354430E+00  0.0000000000000E+00  0.3400272236088E-01
 0.5757217402028E+00 -0.6603115743044E+00  0.0000000000000E+00  0.1129853800504E-01
 0.5628604468151E+00 -0.6503217465332E+00  0.0000000000000E+00 -0.1005767520602E-01
 0.5467422883561E+00 -0.6372245318677E+00  0.0000000000000E+00 -0.2942555027315E-01
 0.5269706733364E+00 -0.6206301804989E+00  0.0000000000000E+00 -0.4605234164836E-01
 0.5030791189480E+00 -0.6000810216362E+00  0.0000000000000E+00 -0.5907591181409E-01
 0.4745112745007E+00 -0.5750326913594E+00  0.0000000000000E+00 -0.6753115898165E-01
 0.4405938809080E+00 -0.5448287424542E+00  0.0000000000000E+00 -0.7036532550778E-01
 0.4005012661498E+00 -0.5086673273969E+00  0.0000000000000E+00 -0.6647069494527E-01
 0.3532115079850E+00 -0.4655601658675E+00  0.0000000000000E+00 -0.5474691363366E-01
 0.2974582351648E+00 -0.4142870849803E+00  0.0000000000000E+00 -0.3420786846373E-01
 0.2316852880990E+00 -0.3533535125556E+00  0.0000000000000E+00 -0.4142240193241E-02
 0.1540089224850E+00 -0.2809532878671E+00  0.0000000000000E+00  0.3569149403969E-01
 0.6209505838547E-01 -0.1948865893804E+00  0.0000000000000E+00  0.8483585488787E-01
 0.6025625697159E+00 -0.6717097503856E+00  0.0000000000000E+00  0.2303514970867E+00
 0.6051243710013E+00 -0.6764629092262E+00  0.0000000000000E+00  0.2109705873029E+00
 0.6064289867508E+00 -0.6801081645771E+00  0.0000000000000E+00  0.1908906905510E+00
 0.6062158539644E+00 -0.6823911814189E+00  0.0000000000000E+00  0.1703087355616E+00
 0.6041998839437E+00 -0.6830348056094E+00  0.0000000000000E+00  0.1494124503316E+00
 0.6000843915951E+00 -0.6817515932553E+00  0.0000000000000E+00  0.1284117326358E+00
 0.5935592103672E+00 -0.6782415387382E+00  0.0000000000000E+00  0.1075731080454E+00
 0.5842910997103E+00 -0.6721822549045E+00  0.0000000000000E+00  0.8724161383655E-01
 0.5719119720039E+00 -0.6632173152218E+00  0.0000000000000E+00  0.6784987551447E-01
 0.5560071502855E+00 -0.6509448501180E+00  0.0000000000000E+00  0.4991828121291E-01
 0.5361035818635E+00 -0.6349063403035E+00  0.0000000000000E+00  0.3404908780939E-01
 0.5116569556522E+00 -0.6145745072696E+00  0.0000000000000E+00  0.2091471435702E-01
 0.4820366284977E+00 -0.5893392432152E+00  0.0000000000000E+00  0.1123792923956E-01
 0.4465078096373E+00 -0.5584910376286E+00  0.0000000000000E+00  0.5759505417867E-02
 0.4042114884782E+00 -0.5212023808503E+00  0.0000000000000E+00  0.5187102560740E-02
 0.3541443118421E+00 -0.4765091837491E+00  0.0000000000000E+00  0.1011800633960E-01
 0.2951423059307E+00 -0.4232961176819E+00  0.0000000000000E+00  0.2092911930592E-01
 0.2258731727999E+00 -0.3602903071881E+00  0.0000000000000E+00  0.3763056514057E-01
 0.1448316033476E+00 -0.2860632104446E+00  0.0000000000000E+00  0.5967134765848E-01
 0.5036071616010E-01 -0.1990523551380E+00  0.0000000000000E+00  0.8560525951371E-01
 0.6026138898215E+00 -0.6724444990970E+00  0.0000000000000E+00  0.2843740804908E+00
 0.6057340928049E+00 -0.6779389933137E+00  0.0000000000000E+00  0.2688353130850E+00
 0.6076194285745E+00 -0.6823763228472E+00  0.0000000000000E+00  0.2524923182012E+00
 0.6080048919401E+00 -0.6855019725674E+00  0.0000000000000E+00  0.2354762535646E+00
 0.6065937311773E+00 -0.6870308597034E+00  0.0000000000000E+00  0.2179277623251E+00
 0.6030633959415E+00 -0.6866534584189E+00  0.0000000000000E+00  0.2000088398492E+00
 0.5970647405417E+00 -0.6840348956521E+00  0.0000000000000E+00  0.1819220905891E+00
 0.5882160814955E+00 -0.6788089713721E+00  0.0000000000000E+00  0.1639254584202E+00
 0.5760949456338E+00 -0.6705699949823E+00  0.0000000000000E+00  0.1463390111900E+00
 0.5602292772171E+00 -0.6588642470217E+00  0.0000000000000E+00  0.1295439817693E+00
 0.5400887275468E+00 -0.6431816630002E+00  0.0000000000000E+00  0.1139746411004E+00
 0.5150760518946E+00 -0.6229477593711E+00  0.0000000000000E+00  0.1001025440633E+00
 0.4845186185651E+00 -0.5975157811650E+00  0.0000000000000E+00  0.8841136778340E-01
 0.4476604930195E+00 -0.5661595029509E+00  0.0000000000000E+00  0.7935947165145E-01
 0.4036564296793E+00 -0.5280679313882E+00  0.0000000000000E+00  0.7332676032019E-01
 0.3515701918048E+00 -0.4823442457666E+00  0.0000000000000E+00  0.7054271359776E-01
 0.2903808100894E+00 -0.4280123960384E+00  0.0000000000000E+00  0.7099346469535E-01
 0.2190006244798E+00 -0.3640356181855E+00  0.0000000000000E+00  0.7430560903587E-01
 0.1363163149894E+00 -0.2893554807380E+00  0.0000000000000E+00  0.7959586598268E-01
 0.4128233739598E-01 -0.2029772723079E+00  0.0000000000000E+00  0.8529229593841E-01
 0.5999269576417E+00 -0.6701835447061E+00  0.0000000000000E+00  0.3376509499251E+00
 0.6033503482675E+00 -0.6761240720370E+00  0.0000000000000E+00  0.3260721473643E+00
 0.6055637535955E+00 -0.6810559360009E+00  0.0000000000000E+00  0.3135947678205E+00
 0.6062955763403E+00 -0.6847212485165E+00  0.0000000000000E+00  0.3002800837337E+00
 0.6052393759883E+00 -0.6868285287900E+00  0.0000000000000E+00  0.2862004491204E+00
 0.6020547824767E+00 -0.6870537715772E+00  0.0000000000000E+00  0.2714444740423E+00
 0.5963659739464E+00 -0.6850389759750E+00  0.0000000000000E+00  0.2561273863220E+00
 0.5877574882373E+00 -0.6803879764697E+00  0.0000000000000E+00  0.2403999380177E+00
 0.5757686206356E+00 -0.6726609103025E+00  0.0000000000000E+00  0.2244525109592E+00
 0.5598876458451E+00 -0.6613685732992E+00  0.0000000000000E+00  0.2085132712730E+00
 0.5395466963641E+00 -0.6459674972928E+00  0.0000000000000E+00  0.1928398594008E+00
 0.5141178643424E+00 -0.6258562949936E+00  0.0000000000000E+00  0.1777038634757E+00
 0.4829111127553E+00 -0.6003738285660E+00  0.0000000000000E+00  0.1633668532462E+00
 0.4451748800216E+00 -0.5688000320211E+00  0.0000000000000E+00  0.1500465016885E+00
 0.4001007689321E+00 -0.5303607045923E+00  0.0000000000000E+00  0.1378715871796E+00
 0.3468343745093E+00 -0.4842382035236E+00  0.0000000000000E+00  0.1268255734656E+00
 0.2844949909426E+00 -0.4295906722123E+00  0.0000000000000E+00  0.1166798675297E+00
 0.2122088260834E+00 -0.3655837817113E+00  0.0000000000000E+00  0.1069192061802E+00
 0.1291635243575E+00 -0.2914420378604E+00  0.0000000000000E+00  0.9666912559457E-01
 0.3469090136494E-01 -0.2065264927731E+00  0.0000000000000E+00  0.8465597671790E-01
 0.5945483349122E+00 -0.6649695693030E+00  0.0000000000000E+00  0.3896723671447E+00
 0.5980251655344E+00 -0.6710630676779E+00  0.0000000000000E+00  0.3821043242525E+00
 0.6003197765879E+00 -0.6761938213780E+00  0.0000000000000E+00  0.3735506600859E+00
 0.6011582231267E+00 -0.6801039896251E+00  0.0000000000000E+00  0.3640009014109E+00
 0.6002297693442E+00 -0.6825003648208E+00  0.0000000000000E+00  0.3534475714144E+00
 0.5971851768994E+00 -0.6830527750240E+00  0.0000000000000E+00  0.3418894746057E+00
 0.5916343329142E+00 -0.6813917702119E+00  0.0000000000000E+00  0.3293375727291E+00
 0.5831428386422E+00 -0.6771052407492E+00  0.0000000000000E+00  0.3158202871442E+00
 0.5712281765329E+00 -0.6697346036616E+00  0.0000000000000E+00  0.3013859890580E+00
 0.5553563483399E+00 -0.6587714605557E+00  0.0000000000000E+00  0.2861014424292E+00
 0.5349398380415E+00 -0.6436555723762E+00  0.0000000000000E+00  0.2700454372042E+00
 0.5093376845548E+00 -0.6237749179003E+00  0.0000000000000E+00  0.2532969078216E+00
 0.4778584654558E+00 -0.5984686069071E+00  0.0000000000000E+00  0.2359167982938E+00
 0.4397671012841E+00 -0.5670335169249E+00  0.0000000000000E+00  0.2179231147215E+00
 0.3942965624118E+00 -0.5287356743936E+00  0.0000000000000E+00  0.1992592285816E+00
 0.3406657509597E+00 -0.4828275761805E+00  0.0000000000000E+00  0.1797567040878E+00
 0.2781051641079E+00 -0.4285728805721E+00  0.0000000000000E+00  0.1590957956494E+00
 0.2058922599050E+00 -0.3652802200061E+00  0.0000000000000E+00  0.1367703847633E+00
 0.1233975245495E+00 -0.2923471560248E+00  0.0000000000000E+00  0.1120704393567E+00
 0.3013793023649E-01 -0.2093115838923E+00  0.0000000000000E+00  0.8410191119007E-01
 0.5865458619320E+00 -0.6568699976501E+00  0.0000000000000E+00  0.4399479658175E+00
 0.5898330232796E+00 -0.6628285087626E+00  0.0000000000000E+00  0.4363694699851E+00
 0.5919688344390E+00 -0.6678673053975E+00  0.0000000000000E+00  0.4317296689391E+00
 0.5926838853150E+00 -0.6717347228658E+00  0.0000000000000E+00  0.4259453310881E+00
 0.5916708433414E+00 -0.6741427736237E+00  0.0000000000000E+00  0.4189238049680E+00
 0.5885815820083E+00 -0.6747643500234E+00  0.0000000000000E+00  0.4105654844294E+00
 0.5830242323342E+00 -0.6732303225611E+00  0.0000000000000E+00  0.4007674221444E+00
 0.5745600423952E+00 -0.6691264095963E+00  0.0000000000000E+00  0.3894267835309E+00
 0.5627005001222E+00 -0.6619902722082E+00  0.0000000000000E+00  0.3764429525871E+00
 0.5469054538241E+00 -0.6513095607396E+00  0.0000000000000E+00  0.3617174884456E+00
 0.5265830601159E+00 -0.6365217294600E+00  0.0000000000000E+00  0.3451513820820E+00
 0.5010924105493E+00 -0.6170164514576E+00  0.0000000000000E+00  0.3266391524547E+00
 0.4697496800380E+00 -0.5921414561492E+00  0.0000000000000E+00  0.3060593860863E+00
 0.4318385912868E+00 -0.5612125621811E+00  0.0000000000000E+00  0.2832615514523E+00
 0.3866258618708E+00 -0.5235285524452E+00  0.0000000000000E+00  0.2580494998854E+00
 0.3333820789779E+00 -0.4783913056042E+00  0.0000000000000E+00  0.2301631656801E+00
 0.2714080691274E+00 -0.4251312346300E+00  0.0000000000000E+00  0.1992618448184E+00
 0.2000660482881E+00 -0.3631373599522E+00  0.0000000000000E+00  0.1649150661101E+00
 0.1188132023962E+00 -0.2918898730150E+00  0.0000000000000E+00  0.1266095626976E+00
 0.2723272533426E-01 -0.2109906108949E+00  0.0000000000000E+00  0.8378051427812E-01
 0.5760086992387E+00 -0.6459768443202E+00  0.0000000000000E+00  0.4880089683730E+00
 0.5788691946680E+00 -0.6515181966443E+00  0.0000000000000E+00  0.4883267824988E+00
 0.5806121341869E+00 -0.6561794758708E+00  0.0000000000000E+00  0.4875244805406E+00
 0.5809801452484E+00 -0.6597219732827E+00  0.0000000000000E+00  0.4854471982279E+00
 0.5796779507517E+00 -0.6618708026483E+00  0.0000000000000E+00  0.4819167406660E+00
 0.5763690191956E+00 -0.6623116169201E+00  0.0000000000000E+00  0.4767330948341E+00
 0.5706722272680E+00 -0.6606873112520E+00  0.0000000000000E+00  0.4696766052205E+00
 0.5621586379836E+00 -0.6565948027997E+00  0.0000000000000E+00  0.4605104708315E+00
 0.5503488285634E+00 -0.6495823060373E+00  0.0000000000000E+00  0.4489831809422E+00
 0.5347114299602E+00 -0.6391477478935E+00  0.0000000000000E+00  0.4348306540928E+00
 0.5146636774621E+00 -0.6247391011322E+00  0.0000000000000E+00  0.4177779594587E+00
 0.4895748426222E+00 -0.6057574853932E+00  0.0000000000000E+00  0.3975405202957E+00
 0.4587734118603E+00 -0.5815638858802E+00  0.0000000000000E+00  0.3738246594659E+00
 0.4215587495790E+00 -0.5514902255770E+00  0.0000000000000E+00  0.3463273396512E+00
 0.3772176691774E+00 -0.5148552308787E+00  0.0000000000000E+00  0.3147351205469E+00
 0.3250457712201E+00 -0.4709849929480E+00  0.0000000000000E+00  0.2787229004727E+00
 0.2643725530381E+00 -0.4192373032288E+00  0.0000000000000E+00  0.2379540611835E+00
 0.1945881654294E+00 -0.3590277530096E+00  0.0000000000000E+00  0.1920849863362E+00
 0.1151684737491E+00 -0.2898543967660E+00  0.0000000000000E+00  0.1407776710451E+00
 0.2569432727102E-01 -0.2113169769484E+00  0.0000000000000E+00  0.8372290299464E-01
 0.5630477925027E+00 -0.6324070747613E+00  0.0000000000000E+00  0.5334066572567E+00
 0.5652504476039E+00 -0.6372555460212E+00  0.0000000000000E+00  0.5374564117456E+00
 0.5663711161925E+00 -0.6412589452317E+00  0.0000000000000E+00  0.5403485264900E+00
 0.5661716062969E+00 -0.6441979237496E+00  0.0000000000000E+00  0.5418607885409E+00
 0.5643772694998E+00 -0.6458184843748E+00  0.0000000000000E+00  0.5417337566010E+00
 0.5606734843124E+00 -0.6458285397506E+00  0.0000000000000E+00  0.5396709102053E+00
 0.5547020052828E+00 -0.6438943160496E+00  0.0000000000000E+00  0.5353394300806E+00
 0.5460573740360E+00 -0.6396367824464E+00  0.0000000000000E+00  0.5283718343296E+00
 0.5342837939468E+00 -0.6326284883980E+00  0.0000000000000E+00  0.5183686912808E+00
 0.5188730554741E+00 -0.6223913715917E+00  0.0000000000000E+00  0.5049027400036E+00
 0.4992642577232E+00 -0.6083962544145E+00  0.0000000000000E+00  0.4875248317211E+00
 0.4748461993345E+00 -0.5900648740958E+00  0.0000000000000E+00  0.4657720773734E+00
 0.4449633766305E+00 -0.5667753645313E+00  0.0000000000000E+00  0.4391783959013E+00
 0.4089264560134E+00 -0.5378720571202E+00  0.0000000000000E+00  0.4072872872511E+00
 0.3660277687381E+00 -0.5026801854999E+00  0.0000000000000E+00  0.3696661625913E+00
 0.3155616918018E+00 -0.4605254423885E+00  0.0000000000000E+00  0.3259211280125E+00
 0.2568486859501E+00 -0.4107572907928E+00  0.0000000000000E+00  0.2757110025247E+00
 0.1892604213280E+00 -0.3527736052265E+00  0.0000000000000E+00  0.2187597524343E+00
 0.1122423245893E+00 -0.2860430673723E+00  0.0000000000000E+00  0.1548673393242E+00
 0.2532972073211E-01 -0.2101214806558E+00  0.0000000000000E+00  0.8391966817535E-01
 0.5477966503898E+00 -0.6163032345287E+00  0.0000000000000E+00  0.5757109002631E+00
 0.5491167181317E+00 -0.6201910195446E+00  0.0000000000000E+00  0.5832569931995E+00
 0.5493898931933E+00 -0.6232619110124E+00  0.0000000000000E+00  0.5896313859450E+00
 0.5484033308573E+00 -0.6253213367315E+00  0.0000000000000E+00  0.5945522129574E+00
 0.5459107422047E+00 -0.6261431140232E+00  0.0000000000000E+00  0.5976875443537E+00
 0.5416289108792E+00 -0.6254660625318E+00  0.0000000000000E+00  0.5986537076738E+00
 0.5352337980856E+00 -0.6229901972306E+00  0.0000000000000E+00  0.5970142984931E+00
 0.5263564149559E+00 -0.6183726655283E+00  0.0000000000000E+00  0.5922804477627E+00
 0.5145787669613E+00 -0.6112237138210E+00  0.0000000000000E+00  0.5839130116610E+00
 0.4994303240875E+00 -0.6011031113665E+00  0.0000000000000E+00  0.5713275252135E+00
 0.4803856417292E+00 -0.5875176233782E+00  0.0000000000000E+00  0.5539029170654E+00
 0.4568639545575E+00 -0.5699203167467E+00  0.0000000000000E+00  0.5309950176763E+00
 0.4282317711820E+00 -0.5477126873026E+00  0.0000000000000E+00  0.5019556780484E+00
 0.3938096438985E+00 -0.5202507597818E+00  0.0000000000000E+00  0.4661576889399E+00
 0.3528842303264E+00 -0.4868562932374E+00  0.0000000000000E+00  0.4230245233215E+00
 0.3047262873095E+00 -0.4468338164839E+00  0.0000000000000E+00  0.3720622711730E+00
 0.2486141489684E+00 -0.3994932080605E+00  0.0000000000000E+00  0.3128894099557E+00
 0.1838605568603E+00 -0.3441759050812E+00  0.0000000000000E+00  0.2452590871464E+00
 0.1098388771633E+00 -0.2802809498268E+00  0.0000000000000E+00  0.1690694606712E+00
 0.2600377760586E-01 -0.2072859286156E+00  0.0000000000000E+00  0.8436096764540E-01
 0.5304125367569E+00 -0.5978344990368E+00  0.0000000000000E+00  0.6145106390781E+00
 0.5306335613509E+00 -0.6005043722263E+00  0.0000000000000E+00  0.6252450261786E+00
 0.5298391428055E+00 -0.6023757680497E+00  0.0000000000000E+00  0.6348162504354E+00
 0.5278464842217E+00 -0.6032828408727E+00  0.0000000000000E+00  0.6428936119175E+00
 0.5244439184489E+00 -0.6030326634406E+00  0.0000000000000E+00  0.6490854827012E+00
 0.5193876713427E+00 -0.6014021156010E+00  0.0000000000000E+00  0.6529354034729E+00
 0.5123978867204E+00 -0.5981340430754E+00  0.0000000000000E+00  0.6539187799606E+00
 0.5031539895287E+00 -0.5929327546794E+00  0.0000000000000E+00  0.6514409178267E+00
 0.4912895228850E+00 -0.5854589790842E+00  0.0000000000000E+00  0.6448373341334E+00
 0.4763866920822E+00 -0.5753244926057E+00  0.0000000000000E+00  0.6333775751439E+00
 0.4579710048436E+00 -0.5620867751268E+00  0.0000000000000E+00  0.6162740896136E+00
 0.4355066406434E+00 -0.5452442793845E+00  0.0000000000000E+00  0.5926979636318E+00
 0.4083935423632E+00 -0.5242332426566E+00  0.0000000000000E+00  0.5618033572859E+00
 0.3759677035860E+00 -0.4984274379671E+00  0.0000000000000E+00  0.5227620101732E+00
 0.3375066209942E+00 -0.4671427791700E+00  0.0000000000000E+00  0.4748077608763E+00
 0.2922420898247E+00 -0.4296489681026E+00  0.0000000000000E+00  0.4172882903617E+00
 0.2393819486846E+00 -0.3851899314950E+00  0.0000000000000E+00  0.3497174262015E+00
 0.1781405572135E+00 -0.3330131254829E+00  0.0000000000000E+00  0.2718175327954E+00
 0.1077746290399E+00 -0.2724047524326E+00  0.0000000000000E+00  0.1835400472406E+00
 0.2761737701121E-01 -0.2027241507466E+00  0.0000000000000E+00  0.8505617635672E-01
 0.5110779985596E+00 -0.5771980350277E+00  0.0000000000000E+00  0.6494160873388E+00
 0.5099952805604E+00 -0.5784075628666E+00  0.0000000000000E+00  0.6629561314938E+00
 0.5079212199080E+00 -0.5788239596018E+00  0.0000000000000E+00  0.6753596578241E+00
 0.5047059063411E+00 -0.5783122064140E+00  0.0000000000000E+00  0.6862603278611E+00
 0.5001765332554E+00 -0.5767160475631E+00  0.0000000000000E+00  0.6952228586805E+00
 0.4941346904253E+00 -0.5738554306232E+00  0.0000000000000E+00  0.7017366760988E+00
 0.4863526209909E+00 -0.5695229456941E+00  0.0000000000000E+00  0.7052098281435E+00
 0.4765683748739E+00 -0.5634791906698E+00  0.0000000000000E+00  0.7049638704758E+00
 0.4644797651247E+00 -0.5554469638048E+00  0.0000000000000E+00  0.7002307240497E+00
 0.4497370569814E+00 -0.5451042057363E+00  0.0000000000000E+00  0.6901529094917E+00
 0.4319344042615E+00 -0.5320756850516E+00  0.0000000000000E+00  0.6737890694640E+00
 0.4106002498667E+00 -0.5159236026255E+00  0.0000000000000E+00  0.6501272913822E+00
 0.3851873236145E+00 -0.4961376701629E+00  0.0000000000000E+00  0.6181093369762E+00
 0.3550636224938E+00 -0.4721259207076E+00  0.0000000000000E+00  0.5766691918468E+00
 0.3195069601955E+00 -0.4432086481129E+00  0.0000000000000E+00  0.5247887490114E+00
 0.2777071561659E+00 -0.4086193909994E+00  0.0000000000000E+00  0.4615706838650E+00
 0.2287809019547E+00 -0.3675179672203E+00  0.0000000000000E+00  0.3863226524879E+00
 0.1718035090341E+00 -0.3190200219948E+00  0.0000000000000E+00  0.2986384904855E+00
 0.1058579336447E+00 -0.2622441102404E+00  0.0000000000000E+00  0.1984540548376E+00
 0.3009407509696E-01 -0.1963704169297E+00  0.0000000000000E+00  0.8605274016218E-01
 0.4900023913561E+00 -0.5546203005112E+00  0.0000000000000E+00  0.6800634257317E+00
 0.4874282104039E+00 -0.5541477781514E+00  0.0000000000000E+00  0.6959497839821E+00
 0.4838757743005E+00 -0.5528712974527E+00  0.0000000000000E+00  0.7107358945864E+00
 0.4792287479369E+00 -0.5506866704084E+00  0.0000000000000E+00  0.7240342240701E+00
 0.4733549320761E+00 -0.5474752573253E+00  0.0000000000000E+00  0.7353838649603E+00
 0.4661044134624E+00 -0.5431022833861E+00  0.0000000000000E+00  0.7442419131110E+00
 0.4573065331870E+00 -0.5374140289537E+00  0.0000000000000E+00  0.7499744446765E+00
 0.4467654072291E+00 -0.5302336222965E+00  0.0000000000000E+00  0.7518476093164E+00
 0.4342536687003E+00 -0.5213551243081E+00  0.0000000000000E+00  0.7490197016074E+00
 0.4195040295917E+00 -0.5105355132107E+00  0.0000000000000E+00  0.7405354609086E+00
 0.4021981943056E+00 -0.4974841076064E+00  0.0000000000000E+00  0.7253244723746E+00
 0.3819526830076E+00 -0.4818489749749E+00  0.0000000000000E+00  0.7022064600434E+00
 0.3583013635811E+00 -0.4632000752438E+00  0.0000000000000E+00  0.6699075424390E+00
 0.3306751890923E+00 -0.4410095034744E+00  0.0000000000000E+00  0.6270931382413E+00
 0.2983811740747E+00 -0.4146305987014E+00  0.0000000000000E+00  0.5724247701143E+00
 0.2605856216571E+00 -0.3832804047378E+00  0.0000000000000E+00  0.5046482011030E+00
 0.2163107172065E+00 -0.3460342239869E+00  0.0000000000000E+00  0.4227149658035E+00
 0.1644562868315E+00 -0.3018439566138E+00  0.0000000000000E+00  0.3259255409590E+00
 0.1038566474883E+00 -0.2495906062723E+00  0.0000000000000E+00  0.2140634813007E+00
 0.3337412896417E-01 -0.1881738782155E+00  0.0000000000000E+00  0.8747182735148E-01
 0.4674232260700E+00 -0.5303581556176E+00  0.0000000000000E+00  0.7061216511055E+00
 0.4631939124399E+00 -0.5280103027643E+00  0.0000000000000E+00  0.7238173392460E+00
 0.4579855141653E+00 -0.5248293688301E+00  0.0000000000000E+00  0.7404464174112E+00
 0.4517137754266E+00 -0.5207398812620E+00  0.0000000000000E+00  0.7556141088335E+00
 0.4442859835952E+00 -0.5156589377999E+00  0.0000000000000E+00  0.7688520535053E+00
 0.4356004545863E+00 -0.5094958956201E+00  0.0000000000000E+00  0.7796080837360E+00
 0.4255448027875E+00 -0.5021508492661E+00  0.0000000000000E+00  0.7872344937659E+00
 0.4139925812784E+00 -0.4935115656725E+00  0.0000000000000E+00  0.7909753121301E+00
 0.4007978407005E+00 -0.4834484431728E+00  0.0000000000000E+00  0.7899530242321E+00
 0.3857869238959E+00 -0.4718068465682E+00  0.0000000000000E+00  0.7831554506644E+00
 0.3687465524661E+00 -0.4583959151843E+00  0.0000000000000E+00  0.7694240372470E+00
 0.3494069837841E+00 -0.4429726674341E+00  0.0000000000000E+00  0.7474457981600E+00
 0.3274188090880E+00 -0.4252200044598E+00  0.0000000000000E+00  0.7157528391517E+00
 0.3023220380077E+00 -0.4047172377346E+00  0.0000000000000E+00  0.6727361811789E+00
 0.2735070394338E+00 -0.3809025099709E+00  0.0000000000000E+00  0.6166849903425E+00
 0.2401697702069E+00 -0.3530290154259E+00  0.0000000000000E+00  0.5458682361225E+00
 0.2012714558773E+00 -0.3201234949233E+00  0.0000000000000E+00  0.4586808441903E+00
 0.1555246256601E+00 -0.2809682391161E+00  0.0000000000000E+00  0.3538637784170E+00
 0.1014329331387E+00 -0.2341341274619E+00  0.0000000000000E+00  0.2307700257900E+00
 0.3740633260271E-01 -0.1780861936978E+00  0.0000000000000E+00  0.8960971825201E-01
 0.4436059443879E+00 -0.5046984117686E+00  0.0000000000000E+00  0.7273033982361E+00
 0.4375900867902E+00 -0.5003192505073E+00  0.0000000000000E+00  0.7461971530479E+00
 0.4305794456924E+00 -0.4950596992571E+00  0.0000000000000E+00  0.7640398762021E+00
 0.4225180569120E+00 -0.4888685818406E+00  0.0000000000000E+00  0.7804405058839E+00
 0.4133484942439E+00 -0.4816939327292E+00  0.0000000000000E+00  0.7949394193596E+00
 0.4030132975598E+00 -0.4734844718406E+00  0.0000000000000E+00  0.8069969076445E+00
 0.3914549817239E+00 -0.4641897781163E+00  0.0000000000000E+00  0.8159794966370E+00
 0.3786145447017E+00 -0.4537590483391E+00  0.0000000000000E+00  0.8211442303161E+00
 0.3644280109724E+00 -0.4421380158994E+00  0.0000000000000E+00  0.8216207173037E+00
 0.3488202160072E+00 -0.4292632821159E+00  0.0000000000000E+00  0.8163907560701E+00
 0.3316945915334E+00 -0.4150528924354E+00  0.0000000000000E+00  0.8042655910569E+00
 0.3129171120568E+00 -0.3993914224478E+00  0.0000000000000E+00  0.7838614687664E+00
 0.2922917579968E+00 -0.3821070754010E+00  0.0000000000000E+00  0.7535755189019E+00
 0.2695238501083E+00 -0.3629373273597E+00  0.0000000000000E+00  0.7115668137943E+00
 0.2441666084090E+00 -0.3414786591701E+00  0.0000000000000E+00  0.6557531954441E+00
 0.2155464312953E+00 -0.3171157303873E+00  0.0000000000000E+00  0.5838457023843E+00
 0.1826663472838E+00 -0.2889287063989E+00  0.0000000000000E+00  0.4934627809168E+00
 0.1441100107680E+00 -0.2555943587014E+00  0.0000000000000E+00  0.3823956254711E+00
 0.9800605548219E-01 -0.2153410452641E+00  0.0000000000000E+00  0.2490535656532E+00
 0.4211255315276E-01 -0.1660216605905E+00  0.0000000000000E+00  0.9299485410753E-01
 0.4188401097227E+00 -0.4779538126075E+00  0.0000000000000E+00  0.7433841376765E+00
 0.4109468239487E+00 -0.4714341345629E+00  0.0000000000000E+00  0.7628041018365E+00
 0.4020302957394E+00 -0.4639716044395E+00  0.0000000000000E+00  0.7811511343551E+00
 0.3920564031718E+00 -0.4555327053777E+00  0.0000000000000E+00  0.7980447430642E+00
 0.3809961715992E+00 -0.4460891641088E+00  0.0000000000000E+00  0.8130456259002E+00
 0.3688288424173E+00 -0.4356210025055E+00  0.0000000000000E+00  0.8256432595758E+00
 0.3555437913335E+00 -0.4241185084237E+00  0.0000000000000E+00  0.8352415601632E+00
 0.3411413687492E+00 -0.4115832139453E+00  0.0000000000000E+00  0.8411419024624E+00
 0.3256323739359E+00 -0.3980276132589E+00  0.0000000000000E+00  0.8425225847545E+00
 0.3090354938886E+00 -0.3834730007399E+00  0.0000000000000E+00  0.8384135364905E+00
 0.2913715320345E+00 -0.3679443351669E+00  0.0000000000000E+00  0.8276647974687E+00
 0.2726524808997E+00 -0.3514603184234E+00  0.0000000000000E+00  0.8089071103886E+00
 0.2528622648031E+00 -0.3340157379879E+00  0.0000000000000E+00  0.7805030891877E+00
 0.2319239701916E+00 -0.3155512706031E+00  0.0000000000000E+00  0.7404884450458E+00
 0.2096451261253E+00 -0.2959029297209E+00  0.0000000000000E+00  0.6865061628693E+00
 0.1856273956180E+00 -0.2747185830098E+00  0.0000000000000E+00  0.6157462797494E+00
 0.1591209572196E+00 -0.2513227172738E+00  0.0000000000000E+00  0.5249296869491E+00
 0.1287997553928E+00 -0.2245071631549E+00  0.0000000000000E+00  0.4104439770455E+00
 0.9251703499456E-01 -0.1922736794993E+00  0.0000000000000E+00  0.2688937490854E+00
 0.4724134571660E-01 -0.1517416945935E+00  0.0000000000000E+00  0.9812282276979E-01
 0.3934378996028E+00 -0.4504608447884E+00  0.0000000000000E+00  0.7542121654067E+00
 0.3836272904095E+00 -0.4417487617991E+00  0.0000000000000E+00  0.7734433308599E+00
 0.3727567629340E+00 -0.4320221156732E+00  0.0000000000000E+00  0.7915206808565E+00
 0.3608065921023E+00 -0.4212575932164E+00  0.0000000000000E+00  0.8080764239460E+00
 0.3477678910988E+00 -0.4094421560040E+00  0.0000000000000E+00  0.8226959554909E+00
 0.3336467367088E+00 -0.3965770466503E+00  0.0000000000000E+00  0.8349057280562E+00
 0.3184676870374E+00 -0.3826812220588E+00  0.0000000000000E+00  0.8441597592697E+00
 0.3022769018663E+00 -0.3677944286339E+00  0.0000000000000E+00  0.8498236169112E+00
 0.2851448451022E+00 -0.3519799129831E+00  0.0000000000000E+00  0.8511544280693E+00
 0.2671682791907E+00 -0.3353265061994E+00  0.0000000000000E+00  0.8472749365227E+00
 0.2484708744185E+00 -0.3179494599832E+00  0.0000000000000E+00  0.8371388465872E+00
 0.2292011174129E+00 -0.2999888212787E+00  0.0000000000000E+00  0.8194835648777E+00
 0.2095250613253E+00 -0.2816030830493E+00  0.0000000000000E+00  0.7927648607490E+00
 0.1896093193587E+00 -0.2629538944629E+00  0.0000000000000E+00  0.7550658149425E+00
 0.1695854961513E+00 -0.2441738207561E+00  0.0000000000000E+00  0.7039699180597E+00
 0.1494787346602E+00 -0.2253014906113E+00  0.0000000000000E+00  0.6363866349836E+00
 0.1290646722511E+00 -0.2061524405744E+00  0.0000000000000E+00  0.5483245287317E+00
 0.1075818801800E+00 -0.1860602928279E+00  0.0000000000000E+00  0.4346456603302E+00
 0.8313629794771E-01 -0.1633527449453E+00  0.0000000000000E+00  0.2890797723476E+00
 0.5201042708815E-01 -0.1345820316797E+00  0.0000000000000E+00  0.1056424413128E+00
 0.3677282723735E+00 -0.4225733964548E+00  0.0000000000000E+00  0.7597229962393E+00
 0.3560217001481E+00 -0.4116845177885E+00  0.0000000000000E+00  0.7780297841339E+00
 0.3432180548194E+00 -0.3997092948055E+00  0.0000000000000E+00  0.7950249685772E+00
 0.3293055131647E+00 -0.3866283733697E+00  0.0000000000000E+00  0.8103499754703E+00
 0.3142874058275E+00 -0.3724363202154E+00  0.0000000000000E+00  0.8236108582280E+00
 0.2981867087752E+00 -0.3571458757025E+00  0.0000000000000E+00  0.8343673404754E+00
 0.2810504695570E+00 -0.3407921327064E+00  0.0000000000000E+00  0.8421213473757E+00
 0.2629545249246E+00 -0.3234369860321E+00  0.0000000000000E+00  0.8463038071705E+00
 0.2440088013047E+00 -0.3051741341195E+00  0.0000000000000E+00  0.8462581961547E+00
 0.2243634247142E+00 -0.2861348522466E+00  0.0000000000000E+00  0.8412186668254E+00
 0.2042157642153E+00 -0.2664946578215E+00  0.0000000000000E+00  0.8302795492849E+00
 0.1838183315153E+00 -0.2464807980793E+00  0.0000000000000E+00  0.8123513111964E+00
 0.1634870184523E+00 -0.2263800791766E+00  0.0000000000000E+00  0.7860952307734E+00
 0.1436081369732E+00 -0.2065456206351E+00  0.0000000000000E+00  0.7498241900321E+00
 0.1246403032567E+00 -0.1873989146940E+00  0.0000000000000E+00  0.7013483889591E+00
 0.1071011664759E+00 -0.1694181791309E+00  0.0000000000000E+00  0.6377290878732E+00
 0.9151270782114E-01 -0.1530897501420E+00  0.0000000000000E+00  0.5548732218668E+00
 0.7823183894157E-01 -0.1387592117788E+00  0.0000000000000E+00  0.4468502861158E+00
 0.6691871648436E-01 -0.1261786038631E+00  0.0000000000000E+00  0.3046987907670E+00
 0.5463880956416E-01 -0.1129977327775E+00  0.0000000000000E+00  0.1153631337995E+00
 0.3420481369059E+00 -0.3946534753379E+00  0.0000000000000E+00  0.7599560582418E+00
 0.3285359714824E+00 -0.3816784635303E+00  0.0000000000000E+00  0.7766123922368E+00
 0.3139002044832E+00 -0.3675577983352E+00  0.0000000000000E+00  0.7917130847429E+00
 0.2981332402557E+00 -0.3522729636361E+00  0.0000000000000E+00  0.8049004014821E+00
 0.2812457418976E+00 -0.3358218719880E+00  0.0000000000000E+00  0.8157893226041E+00
 0.2632708309012E+00 -0.3182227209803E+00  0.0000000000000E+00  0.8239577629014E+00
 0.2442686007282E+00 -0.2995181072920E+00  0.0000000000000E+00  0.8289370802579E+00
 0.2243313622080E+00 -0.2797797871901E+00  0.0000000000000E+00  0.8302019412776E+00
 0.2035901648113E+00 -0.2591145924144E+00  0.0000000000000E+00  0.8271583898960E+00
 0.1822232861482E+00 -0.2376721441263E+00  0.0000000000000E+00  0.8191284185598E+00
 0.1604675949872E+00 -0.2156551960481E+00  0.0000000000000E+00  0.8053284286548E+00
 0.1386340362935E+00 -0.1933337408030E+00  0.0000000000000E+00  0.7848374302084E+00
 0.1171290439684E+00 -0.1710645032013E+00  0.0000000000000E+00  0.7565481101896E+00
 0.9648457671788E-01 -0.1493182150344E+00  0.0000000000000E+00  0.7190888351710E+00
 0.7740086542544E-01 -0.1287182435097E+00  0.0000000000000E+00  0.6706947256608E+00
 0.6080797124076E-01 -0.1100957742248E+00  0.0000000000000E+00  0.6089851163172E+00
 0.4795504151053E-01 -0.9456859650424E-01  0.0000000000000E+00  0.5305573539648E+00
 0.4053219737541E-01 -0.8364720944499E-01  0.0000000000000E+00  0.4301831805653E+00
 0.4082328188374E-01 -0.7935182889676E-01  0.0000000000000E+00  0.2990276749261E+00
 0.5117593883216E-01 -0.8384961989527E-01  0.0000000000000E+00  0.1194330987122E+00
 0.3167305842962E+00 -0.3670589143550E+00  0.0000000000000E+00  0.7550690517551E+00
 0.3015753813449E+00 -0.3521663013813E+00  0.0000000000000E+00  0.7693963550460E+00
 0.2852940626587E+00 -0.3360959551627E+00  0.0000000000000E+00  0.7818419935593E+00
 0.2678840255836E+00 -0.3188318059766E+00  0.0000000000000E+00  0.7920390628965E+00
 0.2493637394678E+00 -0.3003766013579E+00  0.0000000000000E+00  0.7995963567883E+00
 0.2297764531312E+00 -0.2807552198262E+00  0.0000000000000E+00  0.8040887305903E+00
 0.2091943817570E+00 -0.2600183676028E+00  0.0000000000000E+00  0.8050478280367E+00
 0.1877237622324E+00 -0.2382470142479E+00  0.0000000000000E+00  0.8019527194590E+00
 0.1655114860560E+00 -0.2155582277954E+00  0.0000000000000E+00  0.7942197294297E+00
 0.1427543061061E+00 -0.1921133297561E+00  0.0000000000000E+00  0.7811902655422E+00
 0.1197120217485E+00 -0.1681296546541E+00  0.0000000000000E+00  0.7621148640673E+00
 0.9672676410402E-01 -0.1438978421080E+00  0.0000000000000E+00  0.7361307969804E+00
 0.7425181345897E-01 -0.1198077664097E+00  0.0000000000000E+00  0.7022291143151E+00
 0.5289581714960E-01 -0.9638838940270E-01  0.0000000000000E+00  0.6592042953573E+00
 0.3349298262532E-01 -0.7437099759940E-01  0.0000000000000E+00  0.6055744278490E+00
 0.1721956589771E-01 -0.5479379085132E-01  0.0000000000000E+00  0.5394488298128E+00
 0.5798563024467E-02 -0.3918446914959E-01  0.0000000000000E+00  0.4582953006799E+00
 0.1894107776698E-02 -0.2990546282092E-01  0.0000000000000E+00  0.3584912186397E+00
 0.9950616763556E-02 -0.3087998019994E-01  0.0000000000000E+00  0.2343550895233E+00
 0.3893684974350E-01 -0.4966320543362E-01  0.0000000000000E+00  0.7500875441259E-01
 0.2920899657037E+00 -0.3401278953512E+00  0.0000000000000E+00  0.7453471200892E+00
 0.2755226188854E+00 -0.3235597162853E+00  0.0000000000000E+00  0.7567590762152E+00
 0.2578636876295E+00 -0.3058231841241E+00  0.0000000000000E+00  0.7659048005182E+00
 0.2391210953315E+00 -0.2869112648553E+00  0.0000000000000E+00  0.7724038243699E+00
 0.2193276757660E+00 -0.2668394268543E+00  0.0000000000000E+00  0.7758516672704E+00
 0.1985450324979E+00 -0.2456491329795E+00  0.0000000000000E+00  0.7758097636526E+00
 0.1768678508624E+00 -0.2234116732760E+00  0.0000000000000E+00  0.7717953477329E+00
 0.1544291136423E+00 -0.2002327740908E+00  0.0000000000000E+00  0.7632717352474E+00
 0.1314071603474E+00 -0.1762588842350E+00  0.0000000000000E+00  0.7496388367646E+00
 0.1080358447732E+00 -0.1516863252072E+00  0.0000000000000E+00  0.7302232917392E+00
 0.8461947150290E-01 -0.1267748773874E+00  0.0000000000000E+00  0.7042674598441E+00
 0.6155498358331E-01 -0.1018681009345E+00  0.0000000000000E+00  0.6709166443841E+00
 0.3936535656027E-01 -0.7742406131715E-01  0.0000000000000E+00  0.6292044229625E+00
 0.1875091582875E-01 -0.5406268152726E-01  0.0000000000000E+00  0.5780371574725E+00
 0.6705652472050E-03 -0.3264080120891E-01  0.0000000000000E+00  0.5161816094745E+00
-0.1352443896555E-01 -0.1437577826691E-01  0.0000000000000E+00  0.4422669594344E+00
-0.2185815071494E-01 -0.1059669690298E-02  0.0000000000000E+00  0.3548321284008E+00
-0.2129645170684E-01  0.4542119813584E-02  0.0000000000000E+00  0.2525172237565E+00
-0.6837064279792E-02 -0.2133253217657E-02  0.0000000000000E+00  0.1346991424777E+00
 0.3078436420822E-01 -0.2957841800499E-01  0.0000000000000E+00  0.4849839329138E-02
 0.2684051251638E+00 -0.3141615725289E+00  0.0000000000000E+00  0.7311978095200E+00
 0.2507119534041E+00 -0.2962197750058E+00  0.0000000000000E+00  0.7392411962177E+00
 0.2320072367187E+00 -0.2771697965106E+00  0.0000000000000E+00  0.7446146340570E+00
 0.2123172693712E+00 -0.2570226093402E+00  0.0000000000000E+00  0.7469308633906E+00
 0.1916986880862E+00 -0.2358172885338E+00  0.0000000000000E+00  0.7457819186919E+00
 0.1702435528422E+00 -0.2136258037654E+00  0.0000000000000E+00  0.7407290739876E+00
 0.1480844011148E+00 -0.1905576935692E+00  0.0000000000000E+00  0.7312928997869E+00
 0.1254000914080E+00 -0.1667654509111E+00  0.0000000000000E+00  0.7169454465717E+00
 0.1024237690391E+00 -0.1424519425483E+00  0.0000000000000E+00  0.6971052639086E+00
 0.7945443172385E-01 -0.1178813068704E+00  0.0000000000000E+00  0.6711355108957E+00
 0.5687377333638E-01 -0.9339495734170E-01  0.0000000000000E+00  0.6383458534577E+00
 0.3517048525209E-01 -0.6943480097611E-01  0.0000000000000E+00  0.5980001745580E+00
 0.1497517326118E-01 -0.4657674036499E-01  0.0000000000000E+00  0.5493346622088E+00
-0.2889282090794E-02 -0.2557918767646E-01  0.0000000000000E+00  0.4915955808236E+00
-0.1733437686404E-01 -0.7454062098249E-02  0.0000000000000E+00  0.4241154318471E+00
-0.2689799195940E-01  0.6427862771517E-02  0.0000000000000E+00  0.3464661708120E+00
-0.2958431095553E-01  0.1417863305051E-01  0.0000000000000E+00  0.2587751105162E+00
-0.2263523866691E-01  0.1315790731439E-01  0.0000000000000E+00  0.1624057462075E+00
-0.2246983665739E-02 -0.3535724412309E-03  0.0000000000000E+00  0.6159181632229E-01
 0.3586787810177E-01 -0.3105068088070E-01  0.0000000000000E+00 -0.3231511581244E-01
 0.2459048802212E+00 -0.2894089205542E+00  0.0000000000000E+00  0.7131277931497E+00
 0.2274073328176E+00 -0.2704342292534E+00  0.0000000000000E+00  0.7175067866541E+00
 0.2080246858298E+00 -0.2504635950123E+00  0.0000000000000E+00  0.7188354251501E+00
 0.1878073990906E+00 -0.2295328384257E+00  0.0000000000000E+00  0.7167364084586E+00
 0.1668427879600E+00 -0.2077128529811E+00  0.0000000000000E+00  0.7108225363423E+00
 0.1452618959139E+00 -0.1851162656117E+00  0.0000000000000E+00  0.7006860719820E+00
 0.1232448234993E+00 -0.1619025059951E+00  0.0000000000000E+00  0.6858896572737E+00
 0.1010261881468E+00 -0.1382830132422E+00  0.0000000000000E+00  0.6659626773817E+00
 0.7890257620961E-01 -0.1145284574886E+00  0.0000000000000E+00  0.6404043167355E+00
 0.5724345916867E-01 -0.9097945302833E-01  0.0000000000000E+00  0.6086939102043E+00
 0.3650670018333E-01 -0.6806189970012E-01  0.0000000000000E+00  0.5703101089853E+00
 0.1725963782310E-01 -0.4630798567850E-01  0.0000000000000E+00  0.5247624969183E+00
 0.2066995217014E-03 -0.2638393040838E-01  0.0000000000000E+00  0.4716427478385E+00
-0.1377574382976E-01 -0.9125476857649E-02  0.0000000000000E+00  0.4107080546220E+00
-0.2359781403933E-01  0.4418677851744E-02  0.0000000000000E+00  0.3420192833580E+00
-0.2791258586680E-01  0.1293858842338E-01  0.0000000000000E+00  0.2661738417279E+00
-0.2508970357824E-01  0.1482424192975E-01  0.0000000000000E+00  0.1847051951254E+00
-0.1326613002083E-01  0.8186216483592E-02  0.0000000000000E+00  0.1007745093287E+00
 0.9277201180946E-02 -0.8868994972551E-02  0.0000000000000E+00  0.2032416141916E-01
 0.4289315401918E-01 -0.3707074470125E-01  0.0000000000000E+00 -0.4715140314035E-01
 0.2247596682860E+00 -0.2660579010713E+00  0.0000000000000E+00  0.6917106221207E+00
 0.2057921857851E+00 -0.2464067107991E+00  0.0000000000000E+00  0.6922929957480E+00
 0.1861061612845E+00 -0.2259174380262E+00  0.0000000000000E+00  0.6895018068685E+00
 0.1657764969656E+00 -0.2046519032898E+00  0.0000000000000E+00  0.6829928154933E+00
 0.1449223860618E+00 -0.1827151229600E+00  0.0000000000000E+00  0.6724319256855E+00
 0.1237155468603E+00 -0.1602633237464E+00  0.0000000000000E+00  0.6574802209914E+00
 0.1023839477343E+00 -0.1375074835688E+00  0.0000000000000E+00  0.6377844636856E+00
 0.8121451539674E-01 -0.1147159725188E+00  0.0000000000000E+00  0.6129781773582E+00
 0.6055745486214E-01 -0.9221895858632E-01  0.0000000000000E+00  0.5826936346640E+00
 0.4083339873193E-01 -0.7041580347651E-01  0.0000000000000E+00  0.5465842539546E+00
 0.2254350580467E-01 -0.4978561304386E-01  0.0000000000000E+00  0.5043582799248E+00
 0.6281816634782E-02 -0.3090036444718E-01  0.0000000000000E+00  0.4558269758075E+00
-0.7251760510798E-02 -0.1443922145041E-01  0.0000000000000E+00  0.4009735301619E+00
-0.1724119171903E-01 -0.1201143216941E-02  0.0000000000000E+00  0.3400525824713E+00
-0.2275383726523E-01  0.7890407468683E-02  0.0000000000000E+00  0.2737347740971E+00
-0.2276506115539E-01  0.1180425125950E-01  0.0000000000000E+00  0.2033150267978E+00
-0.1624038941814E-01  0.9469826281637E-02  0.0000000000000E+00  0.1310001256348E+00
-0.2348404007995E-02 -0.3591351501697E-04  0.0000000000000E+00  0.6025493448888E-01
 0.1909043772488E-01 -0.1705006617613E-01  0.0000000000000E+00 -0.4059137754551E-02
 0.4700971920367E-01 -0.4066600595087E-01  0.0000000000000E+00 -0.5645022817522E-01
 0.2050795662711E+00 -0.2442333007699E+00  0.0000000000000E+00  0.6675542819846E+00
 0.1859701819068E+00 -0.2242572281828E+00  0.0000000000000E+00  0.6643616241570E+00
 0.1663368238702E+00 -0.2036337964801E+00  0.0000000000000E+00  0.6575467068103E+00
 0.1462719864835E+00 -0.1824446948175E+00  0.0000000000000E+00  0.6468262393339E+00
 0.1259224768804E+00 -0.1608256849174E+00  0.0000000000000E+00  0.6319549367789E+00
 0.1054968529982E+00 -0.1389736427033E+00  0.0000000000000E+00  0.6126981897195E+00
 0.8526415390802E-01 -0.1171450529684E+00  0.0000000000000E+00  0.5888194924752E+00
 0.6555090109528E-01 -0.9565310295504E-01  0.0000000000000E+00  0.5600860763907E+00
 0.4673995295766E-01 -0.7486689962040E-01  0.0000000000000E+00  0.5262892281516E+00
 0.2927184995500E-01 -0.5521342550077E-01  0.0000000000000E+00  0.4872758366582E+00
 0.1364751694850E-01 -0.3718112613844E-01  0.0000000000000E+00  0.4429900136756E+00
 0.4300695587398E-03 -0.2132298462723E-01  0.0000000000000E+00  0.3935260825170E+00
-0.9757692482570E-02 -0.8255878007873E-02  0.0000000000000E+00  0.3391960031653E+00
-0.1624543756251E-01  0.1348784074835E-02  0.0000000000000E+00  0.2806149045075E+00
-0.1834590304117E-01  0.6791462992981E-02  0.0000000000000E+00  0.2188066420428E+00
-0.1541843483043E-01  0.7402078047694E-02  0.0000000000000E+00  0.1553234081638E+00
-0.6988238616716E-02  0.2651582755774E-02  0.0000000000000E+00  0.9235058474919E-01
 0.7055999948938E-02 -0.7652776254568E-02  0.0000000000000E+00  0.3270155449486E-01
 0.2621516464741E-01 -0.2310556580789E-01  0.0000000000000E+00 -0.2047942690940E-01
 0.4923421905256E-01 -0.4252930833206E-01  0.0000000000000E+00 -0.6436998033088E-01
 0.1869174662427E+00 -0.2239999998745E+00  0.0000000000000E+00  0.6412728194991E+00
 0.1679733770633E+00 -0.2040302920069E+00  0.0000000000000E+00  0.6344549871428E+00
 0.1487102205236E+00 -0.1836179627374E+00  0.0000000000000E+00  0.6238372227556E+00
 0.1292248596068E+00 -0.1628520566510E+00  0.0000000000000E+00  0.6092338106157E+00
 0.1096854200376E+00 -0.1418936817750E+00  0.0000000000000E+00  0.5905255488627E+00
 0.9033199864975E-01 -0.1209756219689E+00  0.0000000000000E+00  0.5676090349631E+00
 0.7146530257356E-01 -0.1003906912434E+00  0.0000000000000E+00  0.5403802083427E+00
 0.5343519125049E-01 -0.8048051928005E-01  0.0000000000000E+00  0.5087461195661E+00
 0.3663307940172E-01 -0.6162857784993E-01  0.0000000000000E+00  0.4726536093189E+00
 0.2148754357332E-01 -0.4425666281722E-01  0.0000000000000E+00  0.4321268089676E+00
 0.8460470088218E-02 -0.2882213628335E-01  0.0000000000000E+00  0.3873098572137E+00
-0.1959641636259E-02 -0.1581259172315E-01  0.0000000000000E+00  0.3385140948446E+00
-0.9271149862596E-02 -0.5734111003187E-02  0.0000000000000E+00  0.2862696364408E+00
-0.1298436832772E-01  0.9116541305891E-03  0.0000000000000E+00  0.2313794139596E+00
-0.1266444570047E-01  0.3667815896170E-02  0.0000000000000E+00  0.1749685313655E+00
-0.7999051349052E-02  0.2187536696719E-02  0.0000000000000E+00  0.1185108759654E+00
 0.1105350497243E-02 -0.3669799939748E-02  0.0000000000000E+00  0.6379441914298E-01
 0.1441143330165E-01 -0.1372117128528E-01  0.0000000000000E+00  0.1276567380438E-01
 0.3126660883336E-01 -0.2736547458094E-01  0.0000000000000E+00 -0.3278005693374E-01
 0.5059303280301E-01 -0.4357114509008E-01  0.0000000000000E+00 -0.7157274036098E-01
 0.1702772746913E+00 -0.2053715907613E+00  0.0000000000000E+00  0.6134645238046E+00
 0.1517752331687E+00 -0.1857080955551E+00  0.0000000000000E+00  0.6032533635588E+00
 0.1331435743701E+00 -0.1657928845904E+00  0.0000000000000E+00  0.5891144848387E+00
 0.1144696530913E+00 -0.1457102292144E+00  0.0000000000000E+00  0.5710150762274E+00
 0.9594114287060E-01 -0.1256457008295E+00  0.0000000000000E+00  0.5489990317903E+00
 0.7782801043118E-01 -0.1058666319079E+00  0.0000000000000E+00  0.5231071605926E+00
 0.6045479208654E-01 -0.8669405210403E-01  0.0000000000000E+00  0.4933625924043E+00
 0.4417918372836E-01 -0.6848180449419E-01  0.0000000000000E+00  0.4597950528077E+00
 0.2937927542394E-01 -0.5160472265632E-01  0.0000000000000E+00  0.4224800245780E+00
 0.1644583329021E-01 -0.3645198698404E-01  0.0000000000000E+00  0.3815798660839E+00
 0.5774999827040E-02 -0.2342092946645E-01  0.0000000000000E+00  0.3373822625830E+00
-0.2242594162120E-02 -0.1290728521641E-01  0.0000000000000E+00  0.2903348230395E+00
-0.7239600892719E-02 -0.5288591227521E-02  0.0000000000000E+00  0.2410743867518E+00
-0.8899383143990E-02 -0.8978576120127E-03  0.0000000000000E+00  0.1904467275872E+00
-0.6995008577177E-02  0.1472970881178E-04  0.0000000000000E+00  0.1395072512853E+00
-0.1439114917650E-02 -0.2667833975190E-02  0.0000000000000E+00  0.8948621993271E-01
 0.7662706350445E-02 -0.8873250977456E-02  0.0000000000000E+00  0.4169659005597E-01
 0.1997299595959E-01 -0.1829581540469E-01  0.0000000000000E+00 -0.2629868824914E-02
 0.3492224077925E-01 -0.3039006489922E-01  0.0000000000000E+00 -0.4256387673706E-01
 0.5175087910965E-01 -0.4440845852570E-01  0.0000000000000E+00 -0.7773232889401E-01
 0.1551278268466E+00 -0.1883255971751E+00  0.0000000000000E+00  0.5846913279422E+00
 0.1373052265504E+00 -0.1692240878022E+00  0.0000000000000E+00  0.5713266391215E+00
 0.1194905492975E+00 -0.1500106949438E+00  0.0000000000000E+00  0.5539379398142E+00
 0.1017601140046E+00 -0.1307652740336E+00  0.0000000000000E+00  0.5327239663201E+00
 0.8433214014385E-01 -0.1117099880448E+00  0.0000000000000E+00  0.5079228919410E+00
 0.6751259296030E-01 -0.9315280235290E-01  0.0000000000000E+00  0.4797109196607E+00
 0.5164504929277E-01 -0.7543730664204E-01  0.0000000000000E+00  0.4482094058872E+00
 0.3708135905423E-01 -0.5891458482963E-01  0.0000000000000E+00  0.4135346625672E+00
 0.2416823125925E-01 -0.4393123197826E-01  0.0000000000000E+00  0.3758509038546E+00
 0.1324063347285E-01 -0.3082398209100E-01  0.0000000000000E+00  0.3354124888881E+00
 0.4615145239302E-02 -0.1991403692523E-01  0.0000000000000E+00  0.2925937899567E+00
-0.1420633344125E-02 -0.1149720339651E-01  0.0000000000000E+00  0.2479079410545E+00
-0.4624407990886E-02 -0.5828058419728E-02  0.0000000000000E+00  0.2020141029543E+00
-0.4821526194666E-02 -0.3097724314821E-02  0.0000000000000E+00  0.1557097690049E+00
-0.1931761729689E-02 -0.3406523344244E-02  0.0000000000000E+00  0.1099015509635E+00
 0.4004080352892E-02 -0.6735755827083E-02  0.0000000000000E+00  0.6554651900501E-01
 0.1280670226059E-01 -0.1292740434587E-01  0.0000000000000E+00  0.2355980405869E-01
 0.2416250925085E-01 -0.2168456741047E-01  0.0000000000000E+00 -0.1530498561528E-01
 0.3766072998149E-01 -0.3260453780643E-01  0.0000000000000E+00 -0.5058381760155E-01
 0.5288250938332E-01 -0.4525651523072E-01  0.0000000000000E+00 -0.8223215050180E-01
 0.1414229495784E+00 -0.1728188264876E+00  0.0000000000000E+00  0.5554423525964E+00
 0.1244687339983E+00 -0.1544804146445E+00  0.0000000000000E+00  0.5391059280785E+00
 0.1075699087317E+00 -0.1360800818960E+00  0.0000000000000E+00  0.5186935824211E+00
 0.9081617561064E-01 -0.1177211019696E+00  0.0000000000000E+00  0.4947385010784E+00
 0.7448792841336E-01 -0.9969510580517E-01  0.0000000000000E+00  0.4676798047891E+00
 0.5893973433861E-01 -0.8236232646271E-01  0.0000000000000E+00  0.4377837838736E+00
 0.4452802281504E-01 -0.6608094415729E-01  0.0000000000000E+00  0.4052150509954E+00
 0.3158313253871E-01 -0.5118172737760E-01  0.0000000000000E+00  0.3701281842207E+00
 0.2040369625119E-01 -0.3796450565954E-01  0.0000000000000E+00  0.3327340917129E+00
 0.1125649578036E-01 -0.2669938202992E-01  0.0000000000000E+00  0.2933373322849E+00
 0.4373809000218E-02 -0.1762471865539E-01  0.0000000000000E+00  0.2523526522302E+00
-0.5396733638685E-04 -0.1094001868185E-01  0.0000000000000E+00  0.2103070115372E+00
-0.1890052922554E-02 -0.6794082466941E-02  0.0000000000000E+00  0.1678289639796E+00
-0.1065556930777E-02 -0.5270205233980E-02  0.0000000000000E+00  0.1256242656074E+00
 0.2406979076791E-02 -0.6371565261710E-02  0.0000000000000E+00  0.8443544544288E-01
 0.8425626174696E-02 -0.1001165680981E-01  0.0000000000000E+00  0.4498481324138E-01
 0.1680283601180E-01 -0.1601606004928E-01  0.0000000000000E+00  0.7905947351249E-02
 0.2728699542150E-01 -0.2414200677553E-01  0.0000000000000E+00 -0.2632332163555E-01
 0.3960708276545E-01 -0.3412092089591E-01  0.0000000000000E+00 -0.5742751955467E-01
 0.5354560320898E-01 -0.4573338374118E-01  0.0000000000000E+00 -0.8531591243793E-01
 0.1291220922132E+00 -0.1588136969634E+00  0.0000000000000E+00  0.5261484511022E+00
 0.1131701719900E+00 -0.1413759298623E+00  0.0000000000000E+00  0.5069166222726E+00
 0.9718919633637E-01 -0.1237948943150E+00  0.0000000000000E+00  0.4836783549879E+00
 0.8136025653907E-01 -0.1062823882908E+00  0.0000000000000E+00  0.4574067571983E+00
 0.6607859202921E-01 -0.8925171679545E-01  0.0000000000000E+00  0.4286783654467E+00
 0.5175390910436E-01 -0.7311912336061E-01  0.0000000000000E+00  0.3977489944945E+00
 0.3873624017208E-01 -0.5823495870123E-01  0.0000000000000E+00  0.3647506407697E+00
 0.2731088401866E-01 -0.4488356234912E-01  0.0000000000000E+00  0.3298310625070E+00
 0.1771141002316E-01 -0.3329935543900E-01  0.0000000000000E+00  0.2932178065147E+00
 0.1012889199723E-01 -0.2367683341518E-01  0.0000000000000E+00  0.2552381039109E+00
 0.4713841064070E-02 -0.1617269573234E-01  0.0000000000000E+00  0.2163174041104E+00
 0.1572407384413E-02 -0.1090178482038E-01  0.0000000000000E+00  0.1769658595468E+00
 0.7595180448852E-03 -0.7929680869563E-02  0.0000000000000E+00  0.1377560294851E+00
 0.2272055179054E-02 -0.7265049226439E-02  0.0000000000000E+00  0.9929224563460E-01
 0.6045424088997E-02 -0.8855124364697E-02  0.0000000000000E+00  0.6217214970727E-01
 0.1195690734436E-01 -0.1258781595819E-01  0.0000000000000E+00  0.2694316772856E-01
 0.1983802527737E-01 -0.1830311910096E-01  0.0000000000000E+00 -0.5939556068783E-02
 0.2949614126532E-01 -0.2581437864015E-01  0.0000000000000E+00 -0.3614119109890E-01
 0.4074377694305E-01 -0.3493861600439E-01  0.0000000000000E+00 -0.6344112704761E-01
 0.5342306633892E-01 -0.4552614911914E-01  0.0000000000000E+00 -0.8767032511622E-01
 0.1181896724727E+00 -0.1462805569198E+00  0.0000000000000E+00  0.4971707438562E+00
 0.1032745996004E+00 -0.1297633993582E+00  0.0000000000000E+00  0.4749576571936E+00
 0.8809246710888E-01 -0.1128785908961E+00  0.0000000000000E+00  0.4491420981449E+00
 0.7307983946362E-01 -0.9611439334019E-01  0.0000000000000E+00  0.4211302233982E+00
 0.5879701261972E-01 -0.8005326652466E-01  0.0000000000000E+00  0.3914224400148E+00
 0.4567693223747E-01 -0.6512832682164E-01  0.0000000000000E+00  0.3601044920074E+00
 0.3401667919414E-01 -0.5162962925664E-01  0.0000000000000E+00  0.3272177719898E+00
 0.2402651004202E-01 -0.3976340011165E-01  0.0000000000000E+00  0.2928919733063E+00
 0.1586253613790E-01 -0.2968507291498E-01  0.0000000000000E+00  0.2573681263949E+00
 0.9640972352197E-02 -0.2151370109556E-01  0.0000000000000E+00  0.2209891164825E+00
 0.5441317950271E-02 -0.1533448865662E-01  0.0000000000000E+00  0.1841787806881E+00
 0.3303950914781E-02 -0.1119564634609E-01  0.0000000000000E+00  0.1474174727725E+00
 0.3226424322337E-02 -0.9103855836939E-02  0.0000000000000E+00  0.1112154904317E+00
 0.5161638787690E-02 -0.9021556537927E-02  0.0000000000000E+00  0.7608464601002E-01
 0.9020383822152E-02 -0.1086856810355E-01  0.0000000000000E+00  0.4250908138129E-01
 0.1467975300894E-01 -0.1452973580157E-01  0.0000000000000E+00  0.1091809802378E-01
 0.2199769201061E-01 -0.1986879462775E-01  0.0000000000000E+00 -0.1833501908541E-01
 0.3082883411007E-01 -0.2674511485092E-01  0.0000000000000E+00 -0.4498524622691E-01
 0.4103110023590E-01 -0.3502319326185E-01  0.0000000000000E+00 -0.6884654553672E-01
 0.5245971701229E-01 -0.4456664825637E-01  0.0000000000000E+00 -0.8977097868384E-01
 0.1085797196470E+00 -0.1351705920592E+00  0.0000000000000E+00  0.4687015540975E+00
 0.9451562651050E-01 -0.1193506903576E+00  0.0000000000000E+00  0.4432824309509E+00
 0.7988972363574E-01 -0.1029006556879E+00  0.0000000000000E+00  0.4154353266398E+00
 0.6563589265324E-01 -0.8684691252442E-01  0.0000000000000E+00  0.3865514574633E+00
 0.5241671955605E-01 -0.7185644022136E-01  0.0000000000000E+00  0.3565976166875E+00
 0.4056664958126E-01 -0.5823599824076E-01  0.0000000000000E+00  0.3254029415595E+00
 0.3026875749320E-01 -0.4615406701360E-01  0.0000000000000E+00  0.2929651428621E+00
 0.2164144744842E-01 -0.3572088471978E-01  0.0000000000000E+00  0.2594409126865E+00
 0.1476802034784E-01 -0.2701795695355E-01  0.0000000000000E+00  0.2251099162001E+00
 0.9704744062900E-02 -0.2010406864797E-01  0.0000000000000E+00  0.1903364135044E+00
 0.6479615264493E-02 -0.1501265723465E-01  0.0000000000000E+00  0.1555378742016E+00
 0.5088899833593E-02 -0.1174717754474E-01  0.0000000000000E+00  0.1211587049425E+00
 0.5494845095106E-02 -0.1027787815479E-01  0.0000000000000E+00  0.8764723356778E-01
 0.7626559730342E-02 -0.1054189607201E-01  0.0000000000000E+00  0.5543519560839E-01
 0.1138513507691E-01 -0.1244775223193E-01  0.0000000000000E+00  0.2492057855714E-01
 0.1665344758553E-01 -0.1588458972647E-01  0.0000000000000E+00 -0.3544407657932E-02
 0.2330955788675E-01 -0.2073547539992E-01  0.0000000000000E+00 -0.2965894609654E-01
 0.3124455346552E-01 -0.2689325614734E-01  0.0000000000000E+00 -0.5317714997495E-01
 0.4036711176768E-01 -0.3426809976396E-01  0.0000000000000E+00 -0.7394054691239E-01
 0.5056300541154E-01 -0.4275695307026E-01  0.0000000000000E+00 -0.9191258730353E-01
 0.1000714388928E+00 -0.1252850284449E+00  0.0000000000000E+00  0.4403824034070E+00
 0.8624307758662E-01 -0.1093872042514E+00  0.0000000000000E+00  0.4120501519816E+00
 0.7207075554486E-01 -0.9327123454096E-01  0.0000000000000E+00  0.3836136229767E+00
 0.5886423709574E-01 -0.7829603558932E-01  0.0000000000000E+00  0.3548450743600E+00
 0.4698361441225E-01 -0.6470137069773E-01  0.0000000000000E+00  0.3250560143160E+00
 0.3653698563839E-01 -0.5255724875383E-01  0.0000000000000E+00  0.2941139339703E+00
 0.2759595901844E-01 -0.4191238599678E-01  0.0000000000000E+00  0.2621311933384E+00
 0.2021825478744E-01 -0.3281613642241E-01  0.0000000000000E+00  0.2293640134916E+00
 0.1444887110738E-01 -0.2531260684433E-01  0.0000000000000E+00  0.1961469854181E+00
 0.1031346709594E-01 -0.1943104902058E-01  0.0000000000000E+00  0.1628570662481E+00
 0.7812655238808E-02 -0.1517805143991E-01  0.0000000000000E+00  0.1298896588065E+00
 0.6918567861911E-02 -0.1253285312466E-01  0.0000000000000E+00  0.9764080629502E-01
 0.7574388929983E-02 -0.1144606696366E-01  0.0000000000000E+00  0.6649282997640E-01
 0.9697020680214E-02 -0.1184183887032E-01  0.0000000000000E+00  0.3680326636044E-01
 0.1318283251742E-01 -0.1362327692029E-01  0.0000000000000E+00  0.8898309240190E-02
 0.1791612032213E-01 -0.1668084162109E-01  0.0000000000000E+00 -0.1692733808862E-01
 0.2378097420939E-01 -0.2090356794030E-01  0.0000000000000E+00 -0.4040370088772E-01
 0.3067576829251E-01 -0.2619470187118E-01  0.0000000000000E+00 -0.6127147381687E-01
 0.3856479586783E-01 -0.3250627073412E-01  0.0000000000000E+00 -0.7928487859383E-01
 0.4749953609436E-01 -0.3986970348285E-01  0.0000000000000E+00 -0.9443647286302E-01
 0.9174371895085E-01 -0.1153660013789E+00  0.0000000000000E+00  0.4095078449566E+00
 0.7733184906562E-01 -0.9844361262810E-01  0.0000000000000E+00  0.3837155411969E+00
 0.6467873203323E-01 -0.8402683956022E-01  0.0000000000000E+00  0.3562794045069E+00
 0.5330801074264E-01 -0.7101821228276E-01  0.0000000000000E+00  0.3274304153876E+00
 0.4306115413888E-01 -0.5918000851312E-01  0.0000000000000E+00  0.2973028490175E+00
 0.3401191173803E-01 -0.4853947475757E-01  0.0000000000000E+00  0.2661769136969E+00
 0.2625867126507E-01 -0.3918095547695E-01  0.0000000000000E+00  0.2343559433242E+00
 0.1988526622629E-01 -0.3118580519260E-01  0.0000000000000E+00  0.2021608127227E+00
 0.1494527812179E-01 -0.2461128412695E-01  0.0000000000000E+00  0.1699236169468E+00
 0.1145920541392E-01 -0.1948417556708E-01  0.0000000000000E+00  0.1379826072525E+00
 0.9415033978143E-02 -0.1579972053099E-01  0.0000000000000E+00  0.1066743341025E+00
 0.8770474737447E-02 -0.1352301803333E-01  0.0000000000000E+00  0.7632452153162E-01
 0.9456236380384E-02 -0.1259193646119E-01  0.0000000000000E+00  0.4723937681586E-01
 0.1138015991126E-01 -0.1292114775055E-01  0.0000000000000E+00  0.1969933266634E-01
 0.1443192021075E-01 -0.1440694022798E-01  0.0000000000000E+00 -0.6042653254938E-02
 0.1848809368720E-01 -0.1693246360641E-01  0.0000000000000E+00 -0.2975621707129E-01
 0.2341700905535E-01 -0.2037352371263E-01  0.0000000000000E+00 -0.5121826028897E-01
 0.2909008798009E-01 -0.2460794091556E-01  0.0000000000000E+00 -0.7018492604370E-01
 0.3538930296669E-01 -0.2954043942577E-01  0.0000000000000E+00 -0.8629615621707E-01
 0.4252101405718E-01 -0.3529905059506E-01  0.0000000000000E+00 -0.9893294479330E-01
</DataArray>
<DataArray type="Float64" Name="S_Centroid" NumberOfComponents="4" ComponentName0="S11" ComponentName1="S22" ComponentName2="S33" ComponentName3="S12" format="ascii">
 0.1927709884848E+00  0.1602226412585E+01  0.3589994855636E+00  0.1734450725578E+00
-0.2895546042061E-01  0.1304382623639E+01  0.2550854364447E+00  0.1484945995465E-01
 0.5667981013246E-02  0.1173080512079E+01  0.2357497021314E+00  0.2485897063934E-01
-0.7934057311502E-03  0.1057220114379E+01  0.2112853448780E+00  0.2247266646762E-01
 0.4556825477010E-03  0.9438450182266E+00  0.1888601429691E+00  0.2286541617069E-01
 0.1383048973054E-03  0.8289835618427E+00  0.1658243758190E+00  0.2332919726628E-01
 0.1761433919862E-03  0.7111096759621E+00  0.1422571659906E+00  0.2400605483648E-01
 0.1365509439571E-03  0.5893869017932E+00  0.1179046923043E+00  0.2479328147514E-01
 0.1167057320345E-03  0.4632366645991E+00  0.9267067544713E-01  0.2568591261336E-01
 0.9206581192109E-04  0.3321208079776E+00  0.6644257574798E-01  0.2668596454765E-01
 0.6711162319677E-04  0.1954618906170E+00  0.3910580103077E-01  0.2780921940652E-01
 0.3968100043296E-04  0.5258424106576E-01  0.1052478457007E-01  0.2907982699268E-01
 0.9132049133935E-05 -0.9733677250482E-01 -0.1946552838120E-01  0.3053181048924E-01
-0.2685156156787E-04 -0.2553314032049E+00 -0.5107165171432E-01  0.3221210291860E-01
-0.6860710546874E-04 -0.4227032211162E+00 -0.8455436690429E-01  0.3418356988592E-01
-0.1202990823579E-03 -0.6011693745270E+00 -0.1202579365138E+00  0.3654246850993E-01
-0.1895618553500E-03 -0.7930713320568E+00 -0.1586521811465E+00  0.3944334459117E-01
-0.2783130060800E-03 -0.1001860545149E+01 -0.2004277746176E+00  0.4317128774296E-01
-0.7007613236863E-03 -0.1233479882436E+01 -0.2468361324302E+00  0.4867475517453E-01
-0.2762667393441E-02 -0.1497712017106E+01 -0.3000949413716E+00  0.5982386426900E-01
-0.7324837175663E-02 -0.1798454238840E+01 -0.3611558205848E+00  0.8364414602476E-01
-0.1424831939468E-01 -0.2126311408959E+01 -0.4281119520501E+00  0.1259378437970E+00
-0.2398463906501E-01 -0.2467873400527E+01 -0.4983716153448E+00  0.1881736163498E+00
-0.3755228677569E-01 -0.2813406561119E+01 -0.5701917780754E+00  0.2688168947395E+00
-0.5601398228911E-01 -0.3157824836213E+01 -0.6427677732784E+00  0.3656270513700E+00
-0.8036172496253E-01 -0.3499011492391E+01 -0.7158746541380E+00  0.4769648031299E+00
-0.1116289982118E+00 -0.3835923401823E+01 -0.7895104917716E+00  0.6021577870963E+00
-0.1510813900965E+00 -0.4167254038777E+01 -0.8636670986444E+00  0.7413988582901E+00
-0.2003163254967E+00 -0.4490222128488E+01 -0.9381077047759E+00  0.8954028565132E+00
-0.2603026445964E+00 -0.4798501117117E+01 -0.1011760767419E+01  0.1063737327355E+01
-0.3300133223824E+00 -0.5084969954505E+01 -0.1082996671515E+01  0.1242711093911E+01
-0.4090275788767E+00 -0.5353004179687E+01 -0.1152406368885E+01  0.1429122598618E+01
-0.4995360291580E+00 -0.5613635497217E+01 -0.1222634323494E+01  0.1625018665133E+01
-0.6057132827477E+00 -0.5876969255528E+01 -0.1296536526975E+01  0.1836522235287E+01
-0.7337404463161E+00 -0.6155360009329E+01 -0.1377820111660E+01  0.2073803104860E+01
-0.8990918345673E+00 -0.6467667723052E+01 -0.1473351933479E+01  0.2353128901204E+01
-0.1110961530952E+01 -0.6842687491990E+01 -0.1590729828292E+01  0.2706854898183E+01
-0.1486653439373E+01 -0.7330902153602E+01 -0.1763511144873E+01  0.3184841467966E+01
-0.1801545638982E+01 -0.8010524904439E+01 -0.1962414137926E+01  0.3946342718299E+01
-0.4496499629844E+01 -0.8809332344210E+01 -0.2661166434465E+01  0.5351384706172E+01
 0.4880028344395E+01 -0.7704748082592E+01 -0.5649439560577E+00  0.6045764904974E+01
 0.1839203655471E+00  0.1268628186753E+01  0.2905097147890E+00  0.1846248910507E+00
 0.1969704018423E-01  0.1171732305822E+01  0.2382858727520E+00  0.1053108725367E+00
-0.2165241716992E-02  0.1026276287330E+01  0.2048222121746E+00  0.6699056701225E-01
 0.1496636115827E-02  0.9153259756267E+00  0.1833645250809E+00  0.6706098134248E-01
-0.2842179633616E-03  0.8059693605099E+00  0.1611370309104E+00  0.6656708741461E-01
-0.2409002959401E-03  0.6954846790194E+00  0.1390487578167E+00  0.6812104603497E-01
-0.4441366302322E-03  0.5818182400143E+00  0.1162748224094E+00  0.7016142943273E-01
-0.5403245689642E-03  0.4641406211640E+00  0.9272006070065E-01  0.7260511761852E-01
-0.6480904621454E-03  0.3418536658346E+00  0.6824111609136E-01  0.7535829161866E-01
-0.7596695362945E-03  0.2144447431500E+00  0.4273701535957E-01  0.7842976603105E-01
-0.8891330094059E-03  0.8136327247011E-01  0.1609482813197E-01  0.8186182938607E-01
-0.1043530119971E-02 -0.5803587324544E-01 -0.1181588084915E-01  0.8572765081432E-01
-0.1232852561106E-02 -0.2045451002846E+00 -0.4115559118240E-01  0.9013021332123E-01
-0.1470203310997E-02 -0.3591593024129E+00 -0.7212590221953E-01  0.9520964955096E-01
-0.1775412238592E-02 -0.5231456519167E+00 -0.1049842143954E+00  0.1011613211017E+00
-0.2186191979310E-02 -0.6981665242707E+00 -0.1400705453372E+00  0.1082757086625E+00
-0.2775907655660E-02 -0.8864815599849E+00 -0.1778514961783E+00  0.1170193581832E+00
-0.3759872061600E-02 -0.1091345360594E+01 -0.2190210497947E+00  0.1282998746604E+00
-0.6284829985611E-02 -0.1317476231404E+01 -0.2647522162231E+00  0.1442373276986E+00
-0.1263662446235E-01 -0.1569597970669E+01 -0.3164469237418E+00  0.1684488165236E+00
-0.2410848056901E-01 -0.1847796529946E+01 -0.3743810076816E+00  0.2046178829271E+00
-0.4003220034981E-01 -0.2145634975868E+01 -0.4371334417574E+00  0.2551616434708E+00
-0.5953016370104E-01 -0.2454195514528E+01 -0.5027451431373E+00  0.3208977746304E+00
-0.8263103372818E-01 -0.2766127720450E+01 -0.5697517593255E+00  0.4012863275733E+00
-0.1100592324859E+00 -0.3076677290033E+01 -0.6373473140011E+00  0.4951887636933E+00
-0.1428568339476E+00 -0.3382943744511E+01 -0.7051601261995E+00  0.6015221119022E+00
-0.1822050141654E+00 -0.3682745476982E+01 -0.7729901097479E+00  0.7195402564993E+00
-0.2294036614151E+00 -0.3973615708956E+01 -0.8406038866002E+00  0.8487823322983E+00
-0.2854666099912E+00 -0.4251962104220E+01 -0.9074857563649E+00  0.9885623582423E+00
-0.3500053252133E+00 -0.4513056191167E+01 -0.9726123177692E+00  0.1137349897081E+01
-0.4219934098216E+00 -0.4753141267735E+01 -0.1035026950934E+01  0.1293460947193E+01
-0.5025131690783E+00 -0.4971843571835E+01 -0.1094871364498E+01  0.1456310705932E+01
-0.5951107152754E+00 -0.5171590598403E+01 -0.1153340279922E+01  0.1626914119050E+01
-0.7046709486312E+00 -0.5354772946785E+01 -0.1211888797142E+01  0.1808456713361E+01
-0.8395687731825E+00 -0.5521861738363E+01 -0.1272286121268E+01  0.2006605458750E+01
-0.1010223414406E+01 -0.5669256737857E+01 -0.1335896050359E+01  0.2229376947968E+01
-0.1251315877214E+01 -0.5783918474938E+01 -0.1407046891397E+01  0.2487353084422E+01
-0.1546965787605E+01 -0.5821361731406E+01 -0.1473665525761E+01  0.2777220084837E+01
-0.2198510483776E+01 -0.5631304635702E+01 -0.1565963047230E+01  0.3120735673580E+01
-0.2173248104904E+01 -0.4614318989865E+01 -0.1357513439182E+01  0.2467837816728E+01
 0.7064574884948E+01 -0.3798686420028E+01  0.6531777027171E+00  0.1846561176979E+01
 0.1707112092401E+00  0.1024627655984E+01  0.2390677766071E+00  0.1771285069904E+00
 0.4690590748612E-01  0.9856903755376E+00  0.2065192596821E+00  0.1524737435377E+00
 0.4600927669243E-02  0.8798779161338E+00  0.1768957713966E+00  0.1153042188796E+00
 0.8866034275244E-03  0.7721868724367E+00  0.1546146974768E+00  0.1079721432627E+00
-0.4904184971576E-03  0.6688819298624E+00  0.1336783042650E+00  0.1086441274825E+00
-0.1303212610700E-02  0.5631306366420E+00  0.1123654864806E+00  0.1110216003082E+00
-0.1645524415225E-02  0.4539788504481E+00  0.9046666655463E-01  0.1145905861132E+00
-0.1938183809213E-02  0.3405359964149E+00  0.6771956353024E-01  0.1187631837176E+00
-0.2199356677248E-02  0.2222955195867E+00  0.4401923323783E-01  0.1234533447077E+00
-0.2485420984820E-02  0.9878829846753E-01  0.1926057578355E-01  0.1286562715596E+00
-0.2818852187233E-02 -0.3048771474910E-01 -0.6661313486528E-02  0.1344452952282E+00
-0.3224005183910E-02 -0.1661314868231E+00 -0.3387109890611E-01  0.1409420912315E+00
-0.3727419159732E-02 -0.3088851450514E+00 -0.6252251377389E-01  0.1483182958887E+00
-0.4365748135551E-02 -0.4596851945675E+00 -0.9281018992360E-01  0.1568068425073E+00
-0.5196645603701E-02 -0.6197221399417E+00 -0.1249837589715E+00  0.1667313300020E+00
-0.6324258729966E-02 -0.7905411232835E+00 -0.1593730787775E+00  0.1785659707884E+00
-0.7957765350303E-02 -0.9741912671732E+00 -0.1964298094317E+00  0.1930670633875E+00
-0.1070597854825E-01 -0.1173383802626E+01 -0.2368179597637E+00  0.2116114972112E+00
-0.1627694398584E-01 -0.1391155480827E+01 -0.2814864891570E+00  0.2365564018657E+00
-0.2719568058000E-01 -0.1629323384921E+01 -0.3313038180369E+00  0.2706758686307E+00
-0.4471386569889E-01 -0.1886381818173E+01 -0.3862191425294E+00  0.3157420962711E+00
-0.6791946613864E-01 -0.2157385773197E+01 -0.4450610544990E+00  0.3723414698445E+00
-0.9534799461060E-01 -0.2436100011044E+01 -0.5062896086751E+00  0.4406224043444E+00
-0.1263973641070E+00 -0.2716919510041E+01 -0.5686633833033E+00  0.5203739352376E+00
-0.1614182238829E+00 -0.2995538512019E+01 -0.6313913565888E+00  0.6110096965708E+00
-0.2013039376733E+00 -0.3268672901668E+01 -0.6939953782097E+00  0.7117306804206E+00
-0.2471546952080E+00 -0.3533420338709E+01 -0.7561150180504E+00  0.8216535659702E+00
-0.3000131000966E+00 -0.3786612753944E+01 -0.8173251829871E+00  0.9397335094762E+00
-0.3602649420953E+00 -0.4024493470897E+01 -0.8769516956660E+00  0.1064480469444E+01
-0.4270837218577E+00 -0.4243181997396E+01 -0.9340531577692E+00  0.1194135427709E+01
-0.4997138493582E+00 -0.4439381641650E+01 -0.9878191129214E+00  0.1327611423618E+01
-0.5796458099752E+00 -0.4610251456182E+01 -0.1037979468698E+01  0.1464609643698E+01
-0.6704553809800E+00 -0.4753001969465E+01 -0.1084691486252E+01  0.1604883781171E+01
-0.7769461693413E+00 -0.4863515644073E+01 -0.1128092379493E+01  0.1748282688708E+01
-0.9048470637949E+00 -0.4933205201205E+01 -0.1167610470399E+01  0.1894143417455E+01
-0.1063895827490E+01 -0.4944522888379E+01 -0.1201683761080E+01  0.2038953311560E+01
-0.1255778152263E+01 -0.4860181172655E+01 -0.1223191883211E+01  0.2164665297922E+01
-0.1487043333931E+01 -0.4606428944741E+01 -0.1218694473894E+01  0.2230032494191E+01
-0.1629989093199E+01 -0.3982368245578E+01 -0.1122471484482E+01  0.1981842990905E+01
 0.1824764527345E-01 -0.3093612540899E+01 -0.6150729882904E+00  0.8615058248046E+00
 0.7320000872451E+01 -0.2726962236643E+01  0.9186077408501E+00  0.8049309270074E+00
 0.1507103666296E+00  0.8199199617547E+00  0.1941260685696E+00  0.1697809546471E+00
 0.5958636146232E-01  0.8002792772569E+00  0.1719731303064E+00  0.1786427671699E+00
 0.1268851003409E-01  0.7249429195813E+00  0.1475262881214E+00  0.1559743673640E+00
 0.1417011487245E-02  0.6296629941909E+00  0.1262160030164E+00  0.1472795584719E+00
-0.1421123986053E-02  0.5323495849812E+00  0.1061856937813E+00  0.1482326489768E+00
-0.2802615188171E-02  0.4320617381288E+00  0.8585182586742E-01  0.1520330044359E+00
-0.3539156774564E-02  0.3276388648109E+00  0.6481994257317E-01  0.1571943978112E+00
-0.4067611729644E-02  0.2186258726333E+00  0.4291165282017E-01  0.1632132911104E+00
-0.4562448532981E-02  0.1045993144880E+00  0.2000737348914E-01  0.1699081617803E+00
-0.5098916024866E-02 -0.1482096550879E-01 -0.3983976366097E-02  0.1772930907892E+00
-0.5731413876602E-02 -0.1400731705821E+00 -0.2916091732627E-01  0.1854694849616E+00
-0.6505195553754E-02 -0.2716934244441E+00 -0.5563972482866E-01  0.1946090803779E+00
-0.7472379735544E-02 -0.4103564905366E+00 -0.8356577529965E-01  0.2049501972992E+00
-0.8704083100094E-02 -0.5569168272200E+00 -0.1131241837497E+00  0.2168138663423E+00
-0.1031252523925E-01 -0.7124520717944E+00 -0.1445529215607E+00  0.2306405782906E+00
-0.1249519165838E-01 -0.8783308186838E+00 -0.1781652047233E+00  0.2470639006848E+00
-0.1565668697475E-01 -0.1056275246017E+01 -0.2143863897929E+00  0.2670643644099E+00
-0.2076797095787E-01 -0.1248257197089E+01 -0.2538050373913E+00  0.2922133412574E+00
-0.2981569327688E-01 -0.1455887789881E+01 -0.2971407010594E+00  0.3246522340662E+00
-0.4522613752445E-01 -0.1679304301965E+01 -0.3449060930374E+00  0.3663076552611E+00
-0.6804363433333E-01 -0.1916306293364E+01 -0.3968699914534E+00  0.4177820545628E+00
-0.9723994670328E-01 -0.2162843341702E+01 -0.4520166644166E+00  0.4786204616885E+00
-0.1311106761027E+00 -0.2414300896621E+01 -0.5090823221306E+00  0.5484311601243E+00
-0.1686688244194E+00 -0.2666300195083E+01 -0.5669938123493E+00  0.6269934504468E+00
-0.2099116127073E+00 -0.2914990614690E+01 -0.6249804547923E+00  0.7139133452533E+00
-0.2554704700023E+00 -0.3156958841127E+01 -0.6824858723958E+00  0.8084694646216E+00
-0.3061945526067E+00 -0.3388908670796E+01 -0.7390206556928E+00  0.9095898078167E+00
-0.3627327615094E+00 -0.3607335250737E+01 -0.7940136142809E+00  0.1015783875490E+01
-0.4249862578297E+00 -0.3808494211150E+01 -0.8466961064127E+00  0.1125121544380E+01
-0.4919690511463E+00 -0.3988739737658E+01 -0.8961417711145E+00  0.1235685778248E+01
-0.5630537925865E+00 -0.4144448471088E+01 -0.9415004667643E+00  0.1346233613042E+01
-0.6394778882420E+00 -0.4271065533868E+01 -0.9821086990566E+00  0.1455776222760E+01
-0.7240032092779E+00 -0.4362580044125E+01 -0.1017316665840E+01  0.1562366319722E+01
-0.8195255926759E+00 -0.4410553598191E+01 -0.1046015853760E+01  0.1662301327821E+01
-0.9282799940780E+00 -0.4401290065080E+01 -0.1065914027715E+01  0.1748597128613E+01
-0.1048054677667E+01 -0.4311031419373E+01 -0.1071817235379E+01  0.1805402837483E+01
-0.1161677316597E+01 -0.4100485671139E+01 -0.1052432613230E+01  0.1797563038949E+01
-0.1200559739674E+01 -0.3700796622426E+01 -0.9802712870273E+00  0.1633850758800E+01
-0.7738164862722E+00 -0.3069712656166E+01 -0.7687058399423E+00  0.1081951538725E+01
 0.1482205304401E+01 -0.2535879886550E+01 -0.2107349195700E+00  0.1187948860366E+00
 0.7008834045570E+01 -0.2327733446896E+01  0.9362201336855E+00  0.4765912133507E+00
 0.1264556806229E+00  0.6377310761640E+00  0.1528373536348E+00  0.1653447137774E+00
 0.6181872671449E-01  0.6241743645930E+00  0.1371986203059E+00  0.1949174061759E+00
 0.1798911275186E-01  0.5682853028137E+00  0.1172548848603E+00  0.1883078783421E+00
 0.2090385259091E-02  0.4868125582866E+00  0.9778059016618E-01  0.1833290812630E+00
-0.2864293481930E-02  0.3969230670931E+00  0.7881175589662E-01  0.1854766922386E+00
-0.4959693979164E-02  0.3023192845798E+00  0.5947191900632E-01  0.1909477747764E+00
-0.6130519011740E-02  0.2028897478466E+00  0.3935184635335E-01  0.1979327747445E+00
-0.6969414579053E-02  0.9845704402696E-01  0.1829752616224E-01  0.2058965741416E+00
-0.7752238097415E-02 -0.1120138073615E-01 -0.3790723823200E-02  0.2146674427861E+00
-0.8609787326831E-02 -0.1263651008728E+00 -0.2699497804218E-01  0.2242716962873E+00
-0.9627398071739E-02 -0.2473880072927E+00 -0.5140308183885E-01  0.2348483913946E+00
-0.1087964394796E-01 -0.3747296737377E+00 -0.7712186468634E-01  0.2466185288689E+00
-0.1245057819206E-01 -0.5089812775716E+00 -0.1042863727067E+00  0.2598841234913E+00
-0.1445508682342E-01 -0.6508938776016E+00 -0.1330697948679E+00  0.2750458953032E+00
-0.1707220046372E-01 -0.8014009827417E+00 -0.1636946390803E+00  0.2926436215878E+00
-0.2061273574113E-01 -0.9616456222732E+00 -0.1964516745302E+00  0.3134336369665E+00
-0.2568384454649E-01 -0.1132945101492E+01 -0.2317257926606E+00  0.3385196998551E+00
-0.3351591626842E-01 -0.1316529483514E+01 -0.2700090839799E+00  0.3694518116040E+00
-0.4616585870662E-01 -0.1512941712942E+01 -0.3118215189762E+00  0.4079817955047E+00
-0.6581534000842E-01 -0.1721340660536E+01 -0.3574312054351E+00  0.4553188913263E+00
-0.9325875279772E-01 -0.1939240582928E+01 -0.4064998732024E+00  0.5113166690344E+00
-0.1274060209118E+00 -0.2163181100480E+01 -0.4581174311049E+00  0.5749015965242E+00
-0.1664721304383E+00 -0.2389560926814E+01 -0.5112066190680E+00  0.6452669021571E+00
-0.2092324547075E+00 -0.2614853214543E+01 -0.5648171422666E+00  0.7220257943587E+00
-0.2553664144956E+00 -0.2835622954875E+01 -0.6181978830860E+00  0.8047567254623E+00
-0.3051820580715E+00 -0.3048489427422E+01 -0.6707343070934E+00  0.8926729769113E+00
-0.3591758937957E+00 -0.3250006885110E+01 -0.7218365665374E+00  0.9844912589712E+00
-0.4175659531507E+00 -0.3436564080477E+01 -0.7708260182118E+00  0.1078392859865E+01
-0.4798623519847E+00 -0.3604453879921E+01 -0.8168632585534E+00  0.1172156162984E+01
-0.5449388250078E+00 -0.3750008519942E+01 -0.8589894817900E+00  0.1263611661950E+01
-0.6120349231779E+00 -0.3869171705311E+01 -0.8962413390529E+00  0.1350980124927E+01
-0.6816834594870E+00 -0.3956326528785E+01 -0.9276020114768E+00  0.1432182528814E+01
-0.7550478434958E+00 -0.4003725162661E+01 -0.9517546154137E+00  0.1503385513006E+01
-0.8321691133802E+00 -0.4000900170909E+01 -0.9666138712615E+00  0.1557653775671E+01
-0.9092110958035E+00 -0.3932647619220E+01 -0.9683717574345E+00  0.1582450389968E+01
-0.9716180971414E+00 -0.3776792971003E+01 -0.9496822277802E+00  0.1554052634289E+01
-0.9761125879479E+00 -0.3503052371953E+01 -0.8958330053291E+00  0.1426014095661E+01
-0.7832751806360E+00 -0.3085437963684E+01 -0.7737426403937E+00  0.1104903697926E+01
 0.4296880472058E-01 -0.2593613287523E+01 -0.5101289041619E+00  0.4800607191673E+00
 0.2386412211435E+01 -0.2312277857056E+01  0.1482687109666E-01 -0.2012912339081E+00
 0.6601544689024E+01 -0.2154641750947E+01  0.8893806008681E+00  0.3393397204000E+00
 0.9983149322068E-01  0.4705401189527E+00  0.1140743241345E+00  0.1638556561522E+00
 0.5659265326114E-01  0.4580022865326E+00  0.1029189894924E+00  0.2065413692270E+00
 0.1933313945850E-01  0.4140419066351E+00  0.8667501051028E-01  0.2141461549527E+00
 0.1753179683101E-02  0.3446178507387E+00  0.6927420711663E-01  0.2154796141545E+00
-0.4972972365937E-02  0.2627633436330E+00  0.5155807502169E-01  0.2201973269328E+00
-0.7866041606529E-02  0.1741002107052E+00  0.3324683431515E-01  0.2277192557512E+00
-0.9484072765380E-02  0.7980454626744E-01  0.1406409490998E-01  0.2367444258510E+00
-0.1066855391160E-01 -0.1991721950552E-01 -0.6117154774576E-02  0.2467725538269E+00
-0.1178430516593E-01 -0.1250803677748E+00 -0.2737293499603E-01  0.2576804773501E+00
-0.1302037338672E-01 -0.2358353078630E+00 -0.4977113699158E-01  0.2695298274661E+00
-0.1449937649167E-01 -0.3524401868533E+00 -0.7338791376256E-01  0.2825013337580E+00
-0.1632892021245E-01 -0.4752651200263E+00 -0.9831880951282E-01  0.2968661575031E+00
-0.1863043216327E-01 -0.6048040623827E+00 -0.1246869007672E+00  0.3129851283989E+00
-0.2156867961233E-01 -0.7416868281251E+00 -0.1526511038222E+00  0.3313274716720E+00
-0.2539688974184E-01 -0.8866785425795E+00 -0.1824150891825E+00  0.3525100802491E+00
-0.3054380817551E-01 -0.1040663237763E+01 -0.2142414123801E+00  0.3773655708270E+00
-0.3778928125746E-01 -0.1204531754825E+01 -0.2484642109189E+00  0.4070224691200E+00
-0.4851238081335E-01 -0.1378863962200E+01 -0.2854752728565E+00  0.4428769465817E+00
-0.6470493040475E-01 -0.1563443016157E+01 -0.3256295941646E+00  0.4862532800863E+00
-0.8825109087656E-01 -0.1756860586815E+01 -0.3690223410372E+00  0.5377853570366E+00
-0.1196982298640E+00 -0.1956544729887E+01 -0.4152485981378E+00  0.5968297065934E+00
-0.1579145030862E+00 -0.2159451509756E+01 -0.4634732094747E+00  0.6619310745563E+00
-0.2011002817198E+00 -0.2362639078924E+01 -0.5127478797692E+00  0.7319642444722E+00
-0.2478743096755E+00 -0.2563180453028E+01 -0.5622109609184E+00  0.8063135240161E+00
-0.2976306769262E+00 -0.2758007192921E+01 -0.6111275830760E+00  0.8844060008913E+00
-0.3503266005180E+00 -0.2943873667484E+01 -0.6588400634179E+00  0.9653019064053E+00
-0.4060587486009E+00 -0.3117353994396E+01 -0.7046825590999E+00  0.1047502736296E+01
-0.4646123758408E+00 -0.3274870004391E+01 -0.7478964871909E+00  0.1128933751805E+01
-0.5251375359313E+00 -0.3412773124224E+01 -0.7875821437670E+00  0.1207126831638E+01
-0.5862818419638E+00 -0.3527338659467E+01 -0.8227241125457E+00  0.1279571833395E+01
-0.6468961527806E+00 -0.3614230977821E+01 -0.8522254388195E+00  0.1343799849280E+01
-0.7064459385475E+00 -0.3667374048871E+01 -0.8747640105186E+00  0.1396555144992E+01
-0.7640172555081E+00 -0.3678502909586E+01 -0.8885040462585E+00  0.1432268028395E+01
-0.8159895409305E+00 -0.3637033179603E+01 -0.8906045573778E+00  0.1441412052544E+01
-0.8517814548738E+00 -0.3529396442764E+01 -0.8762355925844E+00  0.1407909577708E+01
-0.8445262300066E+00 -0.3339405954849E+01 -0.8367864494402E+00  0.1304440506304E+01
-0.7271005764103E+00 -0.3053588283591E+01 -0.7561377832675E+00  0.1084995378894E+01
-0.3292859036391E+00 -0.2687144689504E+01 -0.6032861276182E+00  0.6859585205767E+00
 0.7220965129677E+00 -0.2346871792047E+01 -0.3249550606581E+00  0.1055228122241E+00
 0.2933944384841E+01 -0.2211820811180E+01  0.1444247168844E+00 -0.3278488063402E+00
 0.6219359470224E+01 -0.2075898919586E+01  0.8286921224761E+00  0.2604927915628E+00
 0.7197117506028E-01  0.3143148199294E+00  0.7725720014915E-01  0.1648705810303E+00
 0.4604716874528E-01  0.3008021697903E+00  0.6936986874081E-01  0.2160524238434E+00
 0.1669096948020E-01  0.2640661524616E+00  0.5615142522508E-01  0.2353576817788E+00
-0.3180022128107E-03  0.2042683674655E+00  0.4079007365835E-01  0.2438908859944E+00
-0.8038682126918E-02  0.1301918130912E+00  0.2443062655690E-01  0.2522782260431E+00
-0.1161700147368E-01  0.4757166928696E-01  0.7190933669810E-02  0.2623208603925E+00
-0.1365898741096E-01 -0.4152201560058E-01 -0.1103620076676E-01  0.2735994217618E+00
-0.1519260574318E-01 -0.1364504492264E+00 -0.3032861144584E-01  0.2858080294564E+00
-0.1666817134541E-01 -0.2370170262163E+00 -0.5073704026838E-01  0.2989060791903E+00
-0.1832722969761E-01 -0.3432329759923E+00 -0.7231204221552E-01  0.3130118288059E+00
-0.2033155929099E-01 -0.4552505320876E+00 -0.9511641969307E-01  0.3283545130646E+00
-0.2282417985502E-01 -0.5733412217328E+00 -0.1192330820943E+00  0.3452552083856E+00
-0.2596676791668E-01 -0.6978909368589E+00 -0.1447715431124E+00  0.3641277235385E+00
-0.2997685480058E-01 -0.8293950566997E+00 -0.1718743848612E+00  0.3854965984057E+00
-0.3518282855157E-01 -0.9684343675717E+00 -0.2007234422157E+00  0.4100307227973E+00
-0.4212107693920E-01 -0.1115620564870E+01 -0.2315483318123E+00  0.4385911270643E+00
-0.5169702303198E-01 -0.1271439217861E+01 -0.2646272521218E+00  0.4722539845079E+00
-0.6534350983271E-01 -0.1435940098739E+01 -0.3002567261885E+00  0.5121944530690E+00
-0.8490622794642E-01 -0.1608382670395E+01 -0.3386577847147E+00  0.5593313316967E+00
-0.1119628338350E+00 -0.1787038944222E+01 -0.3798003612709E+00  0.6138451045232E+00
-0.1468307930676E+00 -0.1969351857735E+01 -0.4232365364672E+00  0.6747519088272E+00
-0.1883397975363E+00 -0.2152589239566E+01 -0.4681858143970E+00  0.7403528451128E+00
-0.2346950948842E+00 -0.2334258970165E+01 -0.5137908206659E+00  0.8092754395622E+00
-0.2843987075108E+00 -0.2511870149866E+01 -0.5592537798088E+00  0.8806594830565E+00
-0.3365842650588E+00 -0.2682678418006E+01 -0.6038525456110E+00  0.9537196972580E+00
-0.3908524243698E+00 -0.2843637002437E+01 -0.6468978950008E+00  0.1027317659171E+01
-0.4468859180474E+00 -0.2991452113686E+01 -0.6876676165936E+00  0.1099744476004E+01
-0.5040429734939E+00 -0.3122671790694E+01 -0.7253429636461E+00  0.1168708932028E+01
-0.5611039273033E+00 -0.3233754789528E+01 -0.7589717546758E+00  0.1231507124764E+01
-0.6163773411288E+00 -0.3320999881400E+01 -0.7874754562400E+00  0.1285249384959E+01
-0.6681101256147E+00 -0.3380037298115E+01 -0.8096294968103E+00  0.1326769393606E+01
-0.7144612241275E+00 -0.3404874779456E+01 -0.8238672129932E+00  0.1351754671187E+01
-0.7521652874513E+00 -0.3387686381243E+01 -0.8279703460766E+00  0.1353272567536E+01
-0.7736961041709E+00 -0.3319246482322E+01 -0.8185885294965E+00  0.1320186565975E+01
-0.7620349672146E+00 -0.3189575718870E+01 -0.7903221489936E+00  0.1235069497620E+01
-0.6799048339018E+00 -0.2990697797281E+01 -0.7341205371758E+00  0.1071476182083E+01
-0.4462833904361E+00 -0.2726134828612E+01 -0.6344836532642E+00  0.7935686609051E+00
 0.1059627848768E+00 -0.2435078242991E+01 -0.4658230985641E+00  0.3752647858344E+00
 0.1256710490138E+01 -0.2217696752172E+01 -0.1921972552707E+00 -0.1172231543926E+00
 0.3263281073293E+01 -0.2162032860301E+01  0.2202496458805E+00 -0.3672544429949E+00
 0.5888544273912E+01 -0.2041684884808E+01  0.7693718892853E+00  0.2040743241624E+00
 0.4353875917379E-01  0.1666255675096E+00  0.4203286596302E-01  0.1679230738213E+00
 0.3168928438697E-01  0.1514173588181E+00  0.3662132918672E-01  0.2247064640560E+00
 0.1045390731715E-01  0.1190152958313E+00  0.2589384101554E-01  0.2533743907596E+00
-0.4460290917507E-02  0.6662869512529E-01  0.1243368102683E-01  0.2690502093926E+00
-0.1232229174536E-01 -0.3999925739062E-03 -0.2544456901769E-02  0.2817646116050E+00
-0.1632028508787E-01 -0.7709850046317E-01 -0.1868375738862E-01  0.2947546000093E+00
-0.1870736220931E-01 -0.1609984058771E+00 -0.3594115415284E-01  0.3084917707349E+00
-0.2056580574728E-01 -0.2510994771811E+00 -0.5433305739529E-01  0.3229832073207E+00
-0.2240830179103E-01 -0.3469989141974E+00 -0.7388144429861E-01  0.3383120106773E+00
-0.2452027952610E-01 -0.4485693982414E+00 -0.9461793696341E-01  0.3546700632003E+00
-0.2710022961239E-01 -0.5558524734091E+00 -0.1165905423416E+00  0.3723419685317E+00
-0.3032674729343E-01 -0.6690150940648E+00 -0.1398683703558E+00  0.3916979556219E+00
-0.3440216965637E-01 -0.7883278933476E+00 -0.1645460150527E+00  0.4131980493111E+00
-0.3959607127615E-01 -0.9141437234970E+00 -0.1907479617970E+00  0.4374078993132E+00
-0.4630646610630E-01 -0.1046852332496E+01 -0.2186317629784E+00  0.4650228028894E+00
-0.5515678333834E-01 -0.1186798176504E+01 -0.2483909956698E+00  0.4968899804460E+00
-0.6712718994792E-01 -0.1334106919157E+01 -0.2802468259970E+00  0.5339811207703E+00
-0.8363104864914E-01 -0.1488415668421E+01 -0.3144093480991E+00  0.5772260554391E+00
-0.1063232471238E+00 -0.1648633381741E+01 -0.3509913310032E+00  0.6271829452042E+00
-0.1364853398036E+00 -0.1812865407661E+01 -0.3898701553024E+00  0.6836760562328E+00
-0.1742240356267E+00 -0.1978622953301E+01 -0.4305694042014E+00  0.7454819829218E+00
-0.2183256366102E+00 -0.2143420914365E+01 -0.4723493172336E+00  0.8107419833844E+00
-0.2669971914552E+00 -0.2305091445531E+01 -0.5144177350627E+00  0.8778891749569E+00
-0.3186398936544E+00 -0.2461475905265E+01 -0.5560231680693E+00  0.9458269593532E+00
-0.3721449615787E+00 -0.2610122215368E+01 -0.5964534442771E+00  0.1013536204043E+01
-0.4267632163773E+00 -0.2748221477601E+01 -0.6349969482578E+00  0.1079663286490E+01
-0.4817667458062E+00 -0.2872686195652E+01 -0.6708905982888E+00  0.1142298864672E+01
-0.5360918541574E+00 -0.2980261879369E+01 -0.7032707571847E+00  0.1198959533251E+01
-0.5881222074933E+00 -0.3067585492403E+01 -0.7311415508740E+00  0.1246716061593E+01
-0.6357236091352E+00 -0.3131108331934E+01 -0.7533663994398E+00  0.1282312375198E+01
-0.6763879612413E+00 -0.3166684691386E+01 -0.7686145419788E+00  0.1301975178799E+01
-0.7068462263939E+00 -0.3168854650838E+01 -0.7751401869968E+00  0.1300579448874E+01
-0.7214429551792E+00 -0.3130931417816E+01 -0.7704748860799E+00  0.1270350071781E+01
-0.7089796002200E+00 -0.3045978023319E+01 -0.7509915358984E+00  0.1199617223049E+01
-0.6470721789658E+00 -0.2908503618731E+01 -0.7111151701359E+00  0.1071649610219E+01
-0.4916401566445E+00 -0.2718752828972E+01 -0.6420786066909E+00  0.8645199687915E+00
-0.1585565815603E+00 -0.2492655127971E+01 -0.5302423498075E+00  0.5569804433458E+00
 0.4973479821129E+00 -0.2277318876232E+01 -0.3559941841285E+00  0.1548316725100E+00
 0.1668189943118E+01 -0.2149678600266E+01 -0.9629773286472E-01 -0.2433246266261E+00
 0.3459831445950E+01 -0.2136393724197E+01  0.2646875482946E+00 -0.3676026619288E+00
 0.5607547412453E+01 -0.2031039205525E+01  0.7153016520444E+00  0.1601733223345E+00
 0.1492594390672E-01  0.2588116149746E-01  0.8161421202450E-02  0.1726139199934E+00
 0.1458038331013E-01  0.8810398407301E-02  0.4678156413197E-02  0.2331277793891E+00
 0.1130211598466E-02 -0.2102765278621E-01 -0.3979488296847E-02  0.2692065386876E+00
-0.1075236480126E-01 -0.6779161621926E-01 -0.1570879643818E-01  0.2915103668748E+00
-0.1799638391034E-01 -0.1286675505324E+00 -0.2933278732563E-01  0.3088226672238E+00
-0.2207296085172E-01 -0.1997452317964E+00 -0.4436363919069E-01  0.3250665346246E+00
-0.2467412165928E-01 -0.2785423478190E+00 -0.6064329479930E-01  0.3414361368946E+00
-0.2680587096665E-01 -0.3638283487172E+00 -0.7812684510094E-01  0.3582925099999E+00
-0.2900330549393E-01 -0.4550222421121E+00 -0.9680511096372E-01  0.3758758464789E+00
-0.3158275897403E-01 -0.5518661280279E+00 -0.1166897791392E+00  0.3944654946975E+00
-0.3477403269900E-01 -0.6542915384296E+00 -0.1378131162793E+00  0.4144065394043E+00
-0.3878899173311E-01 -0.7623584397608E+00 -0.1602294886864E+00  0.4361169494647E+00
-0.4386858095943E-01 -0.8762187899256E+00 -0.1840174769191E+00  0.4600956426311E+00
-0.5033018813284E-01 -0.9960801416791E+00 -0.2092820690809E+00  0.4869351071379E+00
-0.5863056898206E-01 -0.1122143373696E+01 -0.2361547920546E+00  0.5173334413585E+00
-0.6945425723721E-01 -0.1254504385682E+01 -0.2647917325295E+00  0.5520909542617E+00
-0.8380900657489E-01 -0.1392984265787E+01 -0.2953586588735E+00  0.5920444945889E+00
-0.1030356578893E+00 -0.1536910261379E+01 -0.3279891887410E+00  0.6378797810666E+00
-0.1285766345451E+00 -0.1684966017520E+01 -0.3627085358178E+00  0.6898445665634E+00
-0.1614351128122E+00 -0.1835187364548E+01 -0.3993245014224E+00  0.7474824511060E+00
-0.2015239495955E+00 -0.1985183338815E+01 -0.4373414641990E+00  0.8093977485604E+00
-0.2475773866101E+00 -0.2132675772294E+01 -0.4760506388744E+00  0.8736250997979E+00
-0.2977911266265E+00 -0.2275746108438E+01 -0.5147074546826E+00  0.9384437166590E+00
-0.3504683336795E+00 -0.2412503670476E+01 -0.5525944090654E+00  0.1002540515664E+01
-0.4042709445925E+00 -0.2540766796054E+01 -0.5890075569063E+00  0.1064665000828E+01
-0.4581129414764E+00 -0.2657988376708E+01 -0.6232202729236E+00  0.1123250869939E+01
-0.5108673795039E+00 -0.2761337766540E+01 -0.6544410389607E+00  0.1176203021143E+01
-0.5610531048834E+00 -0.2847817609761E+01 -0.6817741530882E+00  0.1220867416517E+01
-0.6066293463042E+00 -0.2914322982590E+01 -0.7041904762720E+00  0.1254113020902E+01
-0.6449435237724E+00 -0.2957595709632E+01 -0.7205078574173E+00  0.1272373557184E+01
-0.6726514968587E+00 -0.2973942335326E+01 -0.7293187773046E+00  0.1271420313124E+01
-0.6850519799064E+00 -0.2958770545283E+01 -0.7287645158973E+00  0.1245626766588E+01
-0.6742728208613E+00 -0.2906971840464E+01 -0.7162489429380E+00  0.1186944151972E+01
-0.6260302619053E+00 -0.2814323906660E+01 -0.6880708439661E+00  0.1084171611289E+01
-0.5141882177124E+00 -0.2679836637090E+01 -0.6388049804793E+00  0.9229060913921E+00
-0.2919383523017E+00 -0.2510422684428E+01 -0.5604722156975E+00  0.6878348371712E+00
 0.1198351764203E+00 -0.2328753417747E+01 -0.4417836548485E+00  0.3723245848708E+00
 0.8373718259785E+00 -0.2179616910361E+01 -0.2684490208767E+00  0.4292204267076E-02
 0.1982535723603E+01 -0.2114670210749E+01 -0.2642689782297E-01 -0.3087961404930E+00
 0.3574827419154E+01 -0.2124366235325E+01  0.2900922410886E+00 -0.3503879734286E+00
 0.5368698350275E+01 -0.2034120306270E+01  0.6669156187388E+00  0.1257657313075E+00
-0.1363364130649E-01 -0.1090289913941E+00 -0.2453252690569E-01  0.1786180255124E+00
-0.4526249686679E-02 -0.1278867683693E+00 -0.2648260400581E-01  0.2416188356063E+00
-0.1077950356932E-01 -0.1562417768784E+00 -0.3340425658731E-01  0.2835441186428E+00
-0.1912088429460E-01 -0.1987517922287E+00 -0.4357453595396E-01  0.3117780943956E+00
-0.2514251231420E-01 -0.2543621964810E+00 -0.5590094259203E-01  0.3336795871288E+00
-0.2894424736093E-01 -0.3202259089364E+00 -0.6983403230007E-01  0.3533436709354E+00
-0.3159316963223E-01 -0.3940844616367E+00 -0.8513552752240E-01  0.3724673847984E+00
-0.3392244227905E-01 -0.4746114880976E+00 -0.1017067875909E+00  0.3917437819465E+00
-0.3644502212642E-01 -0.5610928700252E+00 -0.1195075802111E+00  0.4115853533344E+00
-0.3949120648294E-01 -0.6531550849568E+00 -0.1385292603522E+00  0.4323681435223E+00
-0.4331442452985E-01 -0.7506248357129E+00 -0.1587878544147E+00  0.4545005682677E+00
-0.4815533799388E-01 -0.8534563002734E+00 -0.1803223303405E+00  0.4784460076402E+00
-0.5428911564330E-01 -0.9616830878989E+00 -0.2031944437363E+00  0.5047347505157E+00
-0.6207369604161E-01 -0.1075369754071E+01 -0.2274886934124E+00  0.5339726996632E+00
-0.7201005627266E-01 -0.1194537878686E+01 -0.2533095907664E+00  0.5668408009448E+00
-0.8481645801913E-01 -0.1319061844219E+01 -0.2807756646315E+00  0.6040691571576E+00
-0.1014879636194E+00 -0.1448514658740E+01 -0.3100005290912E+00  0.6463460319976E+00
-0.1232563119120E+00 -0.1581999089456E+01 -0.3410510853556E+00  0.6941281731780E+00
-0.1513437419250E+00 -0.1718063828334E+01 -0.3738815196231E+00  0.7474010255864E+00
-0.1864943448197E+00 -0.1854738626415E+01 -0.4082466003302E+00  0.8054861076164E+00
-0.2284407739698E+00 -0.1989747772385E+01 -0.4436377158818E+00  0.8668621146190E+00
-0.2758552836394E+00 -0.2120995473978E+01 -0.4793701586666E+00  0.9294927502624E+00
-0.3269055893078E+00 -0.2246768205780E+01 -0.5147347666878E+00  0.9915356996568E+00
-0.3797932303407E+00 -0.2365404534342E+01 -0.5490395611178E+00  0.1051486819361E+01
-0.4329608388062E+00 -0.2474979123853E+01 -0.5815880011981E+00  0.1107880743047E+01
-0.4850012777617E+00 -0.2573221688315E+01 -0.6116446023296E+00  0.1158953269443E+01
-0.5344042202606E+00 -0.2657594286063E+01 -0.6383997107777E+00  0.1202443343500E+01
-0.5792773697820E+00 -0.2725407673912E+01 -0.6609370185876E+00  0.1235551823786E+01
-0.6171373438697E+00 -0.2773892165799E+01 -0.6782059120398E+00  0.1254985215106E+01
-0.6447732213752E+00 -0.2800203546904E+01 -0.6889953639226E+00  0.1256953497833E+01
-0.6579919514199E+00 -0.2801277201283E+01 -0.6918538408499E+00  0.1236956120661E+01
-0.6507608579715E+00 -0.2773602846648E+01 -0.6848727511293E+00  0.1189194833824E+01
-0.6133272487795E+00 -0.2713850333201E+01 -0.6654355263119E+00  0.1105883707515E+01
-0.5291357833170E+00 -0.2620526741373E+01 -0.6299325143248E+00  0.9771059399674E+00
-0.3701062595990E+00 -0.2496524275515E+01 -0.5733261155660E+00  0.7918350966012E+00
-0.9024864543983E-01 -0.2353229956868E+01 -0.4886957277438E+00  0.5419571478877E+00
 0.3797724407197E+00 -0.2215337126992E+01 -0.3671129427249E+00  0.2330645108659E+00
 0.1127364853675E+01 -0.2120336676631E+01 -0.1985943675507E+00 -0.9403541523628E-01
 0.2222695643855E+01 -0.2098454045577E+01  0.2484832002589E-01 -0.3361949576698E+00
 0.3639081523384E+01 -0.2121208382921E+01  0.3035746326162E+00 -0.3251725466811E+00
 0.5164302426713E+01 -0.2045832656977E+01  0.6236939632411E+00  0.9955477202631E-01
-0.4199986078880E-01 -0.2389204459666E+00 -0.5618406218829E-01  0.1856733341291E+00
-0.2508987744117E-01 -0.2593887757239E+00 -0.5689573148082E-01  0.2503141865033E+00
-0.2482787755849E-01 -0.2869155887229E+00 -0.6234869418534E-01  0.2968513608619E+00
-0.2941260090611E-01 -0.3261913291345E+00 -0.7112078706791E-01  0.3302782577178E+00
-0.3376818902645E-01 -0.3773356269952E+00 -0.8222076442951E-01  0.3565789911038E+00
-0.3696903325478E-01 -0.4384350535298E+00 -0.9508081877373E-01  0.3797012929844E+00
-0.3948341471326E-01 -0.5075728964180E+00 -0.1094112638566E+00  0.4016384682692E+00
-0.4191581588130E-01 -0.5834357474048E+00 -0.1250703145209E+00  0.4233572131440E+00
-0.4471793882234E-01 -0.6652271943328E+00 -0.1419890287468E+00  0.4454382699985E+00
-0.4821550053636E-01 -0.7524784806370E+00 -0.1601387986209E+00  0.4683572883905E+00
-0.5267622648363E-01 -0.8449203274041E+00 -0.1795193134526E+00  0.4925863245030E+00
-0.5836337164892E-01 -0.9424055834535E+00 -0.2001537940030E+00  0.5186308473341E+00
-0.6557995855516E-01 -0.1044853331225E+01 -0.2220866612654E+00  0.5470450996526E+00
-0.7471490278697E-01 -0.1152191868047E+01 -0.2453813578233E+00  0.5784365317412E+00
-0.8629695495110E-01 -0.1264278500351E+01 -0.2701150950855E+00  0.6134534072970E+00
-0.1010518509409E+00 -0.1380797192581E+01 -0.2963698131207E+00  0.6527412327685E+00
-0.1199293455661E+00 -0.1501125824916E+01 -0.3242110389275E+00  0.6968376100637E+00
-0.1440280110624E+00 -0.1624211710828E+01 -0.3536479496479E+00  0.7459921933416E+00
-0.1743502826363E+00 -0.1748534162132E+01 -0.3845768946843E+00  0.7999713154041E+00
-0.2113994929758E+00 -0.1872159494484E+01 -0.4167118037015E+00  0.8579202877399E+00
-0.2547387222537E+00 -0.1992938349707E+01 -0.4495354210908E+00  0.9182260250300E+00
-0.3029684695499E+00 -0.2108942733955E+01 -0.4823822478890E+00  0.9788067605426E+00
-0.3542117531947E+00 -0.2218638734671E+01 -0.5145701052408E+00  0.1037725666822E+01
-0.4065624613121E+00 -0.2320571691685E+01 -0.5454268387269E+00  0.1093315147335E+01
-0.4582521359242E+00 -0.2413064057631E+01 -0.5742632472683E+00  0.1143919241446E+01
-0.5075692915912E+00 -0.2494132113523E+01 -0.6003402899687E+00  0.1187598440933E+01
-0.5526383594453E+00 -0.2561556605723E+01 -0.6228390023147E+00  0.1221950627197E+01
-0.5911666865804E+00 -0.2612998545271E+01 -0.6408330559195E+00  0.1244063396216E+01
-0.6202251482993E+00 -0.2646089302682E+01 -0.6532628999307E+00  0.1250533449841E+01
-0.6360411385145E+00 -0.2658494795032E+01 -0.6589071965278E+00  0.1237450748703E+01
-0.6336202565789E+00 -0.2647895667661E+01 -0.6563031946276E+00  0.1200234834447E+01
-0.6057824716866E+00 -0.2611963115830E+01 -0.6435491270930E+00  0.1133226548941E+01
-0.5413361477833E+00 -0.2549147588711E+01 -0.6180967565092E+00  0.1029352380918E+01
-0.4223598458707E+00 -0.2460404788966E+01 -0.5765529355586E+00  0.8805453288079E+00
-0.2205178612990E+00 -0.2351561650049E+01 -0.5144159099351E+00  0.6796106179803E+00
 0.1067882758254E+00 -0.2236340434045E+01 -0.4259104379904E+00  0.4251360080975E+00
 0.6170905334084E+00 -0.2138267960572E+01 -0.3042354899662E+00  0.1317223938490E+00
 0.1372427919753E+01 -0.2086011560008E+01 -0.1427167301776E+00 -0.1540146963053E+00
 0.2406916187098E+01 -0.2093644351432E+01  0.6265436806687E-01 -0.3394692961535E+00
 0.3671410711494E+01 -0.2124425694161E+01  0.3093970080769E+00 -0.2961955543767E+00
 0.4988039726033E+01 -0.2063276264973E+01  0.5849527009284E+00  0.8064623956462E-01
-0.7008918580238E-01 -0.3644176156214E+00 -0.8690136157968E-01  0.1935679919792E+00
-0.4671731678764E-01 -0.3862853946862E+00 -0.8660054358522E-01  0.2592597572408E+00
-0.4063219347780E-01 -0.4133732756959E+00 -0.9080109518778E-01  0.3094378259858E+00
-0.4143901154990E-01 -0.4501632905719E+00 -0.9832046188945E-01  0.3473512190425E+00
-0.4382750593383E-01 -0.4975257967762E+00 -0.1082706621554E+00  0.3777545786987E+00
-0.4614887701181E-01 -0.5543099613398E+00 -0.1200917694598E+00  0.4042692397194E+00
-0.4834661907553E-01 -0.6189771959458E+00 -0.1334647649931E+00  0.4290164183758E+00
-0.5077597498806E-01 -0.6903019248196E+00 -0.1482155821701E+00  0.4531638997872E+00
-0.5379889232112E-01 -0.7674527139467E+00 -0.1642503237011E+00  0.4774417441297E+00
-0.5771902298369E-01 -0.8498886255373E+00 -0.1815215324091E+00  0.5024214029697E+00
-0.6280825534911E-01 -0.9372559840514E+00 -0.2000128508605E+00  0.5286361848967E+00
-0.6934499554981E-01 -0.1029313495317E+01 -0.2197317014476E+00  0.5566293907913E+00
-0.7765224669528E-01 -0.1125872569813E+01 -0.2407049668884E+00  0.5869721614836E+00
-0.8813882904710E-01 -0.1226735541922E+01 -0.2629748781125E+00  0.6202636069130E+00
-0.1013443077050E+00 -0.1331613990686E+01 -0.2865916639488E+00  0.6571082667772E+00
-0.1179782070038E+00 -0.1440033559050E+01 -0.3116023578540E+00  0.6980599980987E+00
-0.1389195785781E+00 -0.1551224308961E+01 -0.3380287825448E+00  0.7435113406579E+00
-0.1651188964400E+00 -0.1664033156009E+01 -0.3658304159411E+00  0.7935292431945E+00
-0.1973636425850E+00 -0.1776918055998E+01 -0.3948563456003E+00  0.8476986336330E+00
-0.2359328255624E+00 -0.1888011381866E+01 -0.4247888478156E+00  0.9050251638031E+00
-0.2802282028489E+00 -0.1995297797158E+01 -0.4551052067830E+00  0.9638297096815E+00
-0.3287697092360E+00 -0.2097008894120E+01 -0.4851557279006E+00  0.1022004469137E+01
-0.3796205992938E+00 -0.2191776457976E+01 -0.5142794191173E+00  0.1077541486667E+01
-0.4307609140361E+00 -0.2278340224075E+01 -0.5418202356960E+00  0.1128637697562E+01
-0.4802186067276E+00 -0.2355265519501E+01 -0.5670968336961E+00  0.1173474798315E+01
-0.5259951234315E+00 -0.2420861446158E+01 -0.5893713227003E+00  0.1209965420904E+01
-0.5658700405251E+00 -0.2473245840618E+01 -0.6078231852859E+00  0.1235595678972E+01
-0.5971674274667E+00 -0.2510462249271E+01 -0.6215259446090E+00  0.1247377642113E+01
-0.6165261623831E+00 -0.2530592469433E+01 -0.6294237357423E+00  0.1241859454039E+01
-0.6196420082565E+00 -0.2531876042655E+01 -0.6303036195746E+00  0.1215120359508E+01
-0.6008153329752E+00 -0.2512795547343E+01 -0.6227221853429E+00  0.1162681792006E+01
-0.5519593977212E+00 -0.2472204188097E+01 -0.6048327261763E+00  0.1079289526466E+01
-0.4609329407470E+00 -0.2410188258187E+01 -0.5742242483434E+00  0.9589151790394E+00
-0.3093266762898E+00 -0.2329696928825E+01 -0.5278047288879E+00  0.7956477772823E+00
-0.6992589708118E-01 -0.2238471428625E+01 -0.4616794720208E+00  0.5860952204398E+00
 0.2949103327273E+00 -0.2150839794285E+01 -0.3711858978427E+00  0.3344546621971E+00
 0.8307383565347E+00 -0.2087369900477E+01 -0.2513263125334E+00  0.6121574031262E-01
 0.1578807569390E+01 -0.2068251665235E+01 -0.9788882062750E-01 -0.1860114438648E+00
 0.2549102533363E+01 -0.2096247397700E+01  0.9057102848229E-01 -0.3272593963356E+00
 0.3683546227276E+01 -0.2132489215712E+01  0.3102114069354E+00 -0.2653310612818E+00
 0.4834989129386E+01 -0.2084655075098E+01  0.5500668190542E+00  0.6825341163349E-01
-0.9785316752109E-01 -0.4860155327823E+00 -0.1167737418007E+00  0.2021294922488E+00
-0.6911888271843E-01 -0.5090682161090E+00 -0.1156374214886E+00  0.2684549138165E+00
-0.5787174113068E-01 -0.5359399131740E+00 -0.1187623326306E+00  0.3215082992774E+00
-0.5500238110449E-01 -0.5707888753733E+00 -0.1251582531606E+00  0.3632627749718E+00
-0.5523928157235E-01 -0.6149380678791E+00 -0.1340354718876E+00  0.3974171733995E+00
-0.5645678007124E-01 -0.6678295879627E+00 -0.1448572757653E+00  0.4271808810575E+00
-0.5816726387976E-01 -0.7282901727203E+00 -0.1572914896638E+00  0.4546776073430E+00
-0.6048216230765E-01 -0.7952257027986E+00 -0.1711415755715E+00  0.4812040045924E+00
-0.6365701937673E-01 -0.8678082269330E+00 -0.1862930520379E+00  0.5076115273018E+00
-0.6795895620355E-01 -0.9454475379516E+00 -0.2026813018512E+00  0.5345578505696E+00
-0.7365400713090E-01 -0.1027718807484E+01 -0.2202745662053E+00  0.5626325637911E+00
-0.8102758079304E-01 -0.1114295888270E+01 -0.2390646973749E+00  0.5924117441003E+00
-0.9041382417889E-01 -0.1204891803816E+01 -0.2590611294593E+00  0.6244769355604E+00
-0.1022296701748E+00 -0.1299195808449E+01 -0.2802850999014E+00  0.6594111523751E+00
-0.1170090684107E+00 -0.1396794164254E+01 -0.3027606510444E+00  0.6977682731473E+00
-0.1354248644204E+00 -0.1497085317987E+01 -0.3265020413468E+00  0.7400091056783E+00
-0.1582662791069E+00 -0.1599192582663E+01 -0.3514917775915E+00  0.7863914458890E+00
-0.1863272438330E+00 -0.1701906125506E+01 -0.3776466794953E+00  0.8368240843012E+00
-0.2201874224471E+00 -0.1803698096776E+01 -0.4047771098763E+00  0.8907431071620E+00
-0.2599158907174E+00 -0.1902787853802E+01 -0.4325407553492E+00  0.9470442537669E+00
-0.3047596388455E+00 -0.1997299730765E+01 -0.4604118807829E+00  0.1004002906927E+01
-0.3531506122493E+00 -0.2085620652508E+01 -0.4877542602195E+00  0.1059501028823E+01
-0.4030796492719E+00 -0.2166541078078E+01 -0.5139241531280E+00  0.1111480353756E+01
-0.4524078118256E+00 -0.2238988791207E+01 -0.5382793286275E+00  0.1158029734345E+01
-0.4989670236912E+00 -0.2301769131902E+01 -0.5601472394656E+00  0.1197198424642E+01
-0.5404894771796E+00 -0.2353487490765E+01 -0.5787954022136E+00  0.1226781424160E+01
-0.5744327223568E+00 -0.2392610551099E+01 -0.5934086635337E+00  0.1244185584889E+01
-0.5977617183345E+00 -0.2417585953607E+01 -0.6030695433748E+00  0.1246389187016E+01
-0.6067132981761E+00 -0.2426976560135E+01 -0.6067379807033E+00  0.1229956394665E+01
-0.5965092722809E+00 -0.2419625913414E+01 -0.6032270461277E+00  0.1191060986997E+01
-0.5608755420856E+00 -0.2394821877060E+01 -0.5911394926377E+00  0.1125484792936E+01
-0.4910888617981E+00 -0.2352523087399E+01 -0.5687223983141E+00  0.1028584463661E+01
-0.3745443837526E+00 -0.2294212391851E+01 -0.5337513630743E+00  0.8955843592728E+00
-0.1931120849509E+00 -0.2224309164737E+01 -0.4834842571420E+00  0.7228068735032E+00
 0.7830836216916E-01 -0.2151543407559E+01 -0.4146470152566E+00  0.5103044346848E+00
 0.4716733794042E+00 -0.2089628407412E+01 -0.3235910104235E+00  0.2665767695940E+00
 0.1021460513844E+01 -0.2055409742454E+01 -0.2067898488034E+00  0.1539462883075E-01
 0.1752652593207E+01 -0.2061773798458E+01 -0.6182424197139E-01 -0.1976001323106E+00
 0.2659678500781E+01 -0.2103996303041E+01  0.1111364412041E+00 -0.3049705759206E+00
 0.3682961788008E+01 -0.2144350389361E+01  0.3077222843146E+00 -0.2334117505402E+00
 0.4701342072444E+01 -0.2108774661889E+01  0.5185134898374E+00  0.6164960424303E-01
-0.1252655540706E+00 -0.6041183890881E+00 -0.1458767908055E+00  0.2112162217192E+00
-0.9207837485304E-01 -0.6281523409189E+00 -0.1440461453008E+00  0.2778753095007E+00
-0.7628020090731E-01 -0.6549260082485E+00 -0.1462412440103E+00  0.3331968975867E+00
-0.6991000188298E-01 -0.6882279056796E+00 -0.1516275837719E+00  0.3782174209270E+00
-0.6790112263672E-01 -0.7296275657026E+00 -0.1595057400447E+00  0.4157500862947E+00
-0.6784321965520E-01 -0.7790098175291E+00 -0.1693706099607E+00  0.4485656050822E+00
-0.6891390435707E-01 -0.8355278129804E+00 -0.1808883461629E+00  0.4787033257165E+00
-0.7100307665346E-01 -0.8982379383800E+00 -0.1938482058953E+00  0.5075247221914E+00
-0.7425396205479E-01 -0.9663437417059E+00 -0.2081195438534E+00  0.5359710120273E+00
-0.7888670830064E-01 -0.1039226424463E+01 -0.2236226298850E+00  0.5647724084358E+00
-0.8515238470944E-01 -0.1116403822231E+01 -0.2403112449691E+00  0.5945676439611E+00
-0.9333507939218E-01 -0.1197475660652E+01 -0.2581621518558E+00  0.6259599139413E+00
-0.1037708162548E+00 -0.1282067629002E+01 -0.2771676931814E+00  0.6595353665250E+00
-0.1168727977821E+00 -0.1369770438652E+01 -0.2973286517174E+00  0.6958552470670E+00
-0.1331541458100E+00 -0.1460066018615E+01 -0.3186440376332E+00  0.7354193344601E+00
-0.1532339226723E+00 -0.1552254632186E+01 -0.3410977160543E+00  0.7785981122833E+00
-0.1777975814874E+00 -0.1645387859201E+01 -0.3646370935712E+00  0.8255275938965E+00
-0.2074785887536E+00 -0.1738233659496E+01 -0.3891424554487E+00  0.8759818985088E+00
-0.2426569395265E+00 -0.1829304968858E+01 -0.4143923878518E+00  0.9292763587009E+00
-0.2832043173863E+00 -0.1916923275187E+01 -0.4400255250716E+00  0.9842215747600E+00
-0.3282184020911E+00 -0.1999356877540E+01 -0.4655150628630E+00  0.1039064567126E+01
-0.3760373005295E+00 -0.2075146114284E+01 -0.4902366902677E+00  0.1091690594336E+01
-0.4245694526427E+00 -0.2143237046362E+01 -0.5135613074536E+00  0.1140009968358E+01
-0.4715534927528E+00 -0.2202742505930E+01 -0.5348592077065E+00  0.1182029711840E+01
-0.5146334733195E+00 -0.2252705797185E+01 -0.5534678623482E+00  0.1215696737630E+01
-0.5512909003721E+00 -0.2292029416443E+01 -0.5686640718369E+00  0.1238719859356E+01
-0.5786867369660E+00 -0.2319534365657E+01 -0.5796442291619E+00  0.1248460898232E+01
-0.5934579410306E+00 -0.2334082925128E+01 -0.5855081819565E+00  0.1241907599927E+01
-0.5914831617561E+00 -0.2334730851615E+01 -0.5852428113950E+00  0.1215703207976E+01
-0.5675884805008E+00 -0.2320925823935E+01 -0.5777028694956E+00  0.1166209994367E+01
-0.5150766137329E+00 -0.2292720944576E+01 -0.5615595200297E+00  0.1089597342269E+01
-0.4248631393065E+00 -0.2251050214899E+01 -0.5351826788159E+00  0.9819735493733E+00
-0.2843235868112E+00 -0.2198506652867E+01 -0.4965660553351E+00  0.8399068960786E+00
-0.7621878267075E-01 -0.2140467134431E+01 -0.4433371900266E+00  0.6618542978574E+00
 0.2218135103597E+00 -0.2085902235770E+01 -0.3728177506376E+00  0.4507729212782E+00
 0.6359293844750E+00 -0.2047157017056E+01 -0.2822455307221E+00  0.2181877889783E+00
 0.1190933661971E+01 -0.2037255748217E+01 -0.1692644197713E+00 -0.1083580236226E-01
 0.1899498399714E+01 -0.2063191383956E+01 -0.3273859733621E-01 -0.1942562707189E+00
 0.2746432084122E+01 -0.2115537191278E+01  0.1261789804489E+00 -0.2760307586315E+00
 0.3674516813446E+01 -0.2159246990233E+01  0.3030539691585E+00 -0.2008240868587E+00
 0.4584106753521E+01 -0.2134796430225E+01  0.4898620719587E+00  0.6016337802477E-01
-0.1523144000167E+00 -0.7190645780171E+00 -0.1742757982037E+00  0.2207110572843E+00
-0.1154324443883E+00 -0.7438931838824E+00 -0.1718651282151E+00  0.2874855067809E+00
-0.9563699378288E-01 -0.7706215959865E+00 -0.1732517205355E+00  0.3445901865283E+00
-0.8598134356026E-01 -0.8026601743783E+00 -0.1777283062361E+00  0.3923711433825E+00
-0.8169957169451E-01 -0.8416846575051E+00 -0.1846768485918E+00  0.4329091283835E+00
-0.8024205862615E-01 -0.8878973530818E+00 -0.1936278852269E+00  0.4685443789809E+00
-0.8054137635200E-01 -0.9407277201260E+00 -0.2042538223392E+00  0.5011762048373E+00
-0.8229761149265E-01 -0.9993842876516E+00 -0.2163363830525E+00  0.5321782920817E+00
-0.8554431944639E-01 -0.1063120104707E+01 -0.2297328882539E+00  0.5625501834727E+00
-0.9044844916500E-01 -0.1131305037694E+01 -0.2443507010128E+00  0.5930786650178E+00
-0.9723844843448E-01 -0.1203413049651E+01 -0.2601303034933E+00  0.6244429381134E+00
-0.1061890654976E+00 -0.1278981243453E+01 -0.2770340659183E+00  0.6572673005089E+00
-0.1176289859565E+00 -0.1357560138811E+01 -0.2950378293499E+00  0.6921374775389E+00
-0.1319563152562E+00 -0.1438657272142E+01 -0.3141227221605E+00  0.7295891748985E+00
-0.1496497560409E+00 -0.1521670859954E+01 -0.3342641281800E+00  0.7700674588385E+00
-0.1712606991302E+00 -0.1605829310594E+01 -0.3554180072409E+00  0.8138580686970E+00
-0.1973610684026E+00 -0.1690141977562E+01 -0.3775006148180E+00  0.8609894411002E+00
-0.2284230537896E+00 -0.1773381946040E+01 -0.4003610059318E+00  0.9111228904746E+00
-0.2646354406309E+00 -0.1854122991215E+01 -0.4237516926836E+00  0.9634773242492E+00
-0.3056835252837E+00 -0.1930799809120E+01 -0.4472966735460E+00  0.1016799296616E+01
-0.3505205054577E+00 -0.2001827896433E+01 -0.4704696873886E+00  0.1069322272220E+01
-0.3973864210120E+00 -0.2065900317437E+01 -0.4926573550310E+00  0.1118946838364E+01
-0.4440999803681E+00 -0.2122117725915E+01 -0.5132435489045E+00  0.1163569212573E+01
-0.4882758792114E+00 -0.2169776575038E+01 -0.5316104987715E+00  0.1201139408259E+01
-0.5273793971532E+00 -0.2208155954614E+01 -0.5471070785060E+00  0.1229531361254E+01
-0.5586608687032E+00 -0.2236453547306E+01 -0.5590228915318E+00  0.1246399123498E+01
-0.5790126648581E+00 -0.2253844095805E+01 -0.5665713605753E+00  0.1249093886685E+01
-0.5847809078805E+00 -0.2259604413595E+01 -0.5688770727721E+00  0.1234655135076E+01
-0.5715406028315E+00 -0.2253277682817E+01 -0.5649636655483E+00  0.1199862765063E+01
-0.5338134701074E+00 -0.2234890479286E+01 -0.5537407981301E+00  0.1141345408856E+01
-0.4646378779641E+00 -0.2205189065949E+01 -0.5339653967394E+00  0.1055752290434E+01
-0.3548290260600E+00 -0.2165921627903E+01 -0.5041501383051E+00  0.9400212540712E+00
-0.1921201691397E+00 -0.2120495802671E+01 -0.4625232012544E+00  0.7920584874624E+00
 0.3939245386332E-01 -0.2074792530572E+01 -0.4070800214077E+00  0.6122382812754E+00
 0.3590209380631E+00 -0.2037472850771E+01 -0.3356903875438E+00  0.4058164142942E+00
 0.7874031467699E+00 -0.2019128446375E+01 -0.2463450635919E+00  0.1862249032038E+00
 0.1341232140214E+01 -0.2029243823559E+01 -0.1376023387195E+00 -0.2158320505389E-01
 0.2024110391110E+01 -0.2070277591171E+01 -0.9233440149692E-02 -0.1799174770824E+00
 0.2815207159970E+01 -0.2130023103547E+01  0.1370368133266E+00 -0.2426397663717E+00
 0.3661432518083E+01 -0.2176624585414E+01  0.2969615909590E+00 -0.1677770670076E+00
 0.4480869940721E+01 -0.2162114053052E+01  0.4637511844442E+00  0.6316791423260E-01
-0.1789971135726E+00 -0.8311435273090E+00 -0.2020281311868E+00  0.2305165329974E+00
-0.1390562456909E+00 -0.8565992606128E+00 -0.1991311042280E+00  0.2972460152666E+00
-0.1157591899169E+00 -0.8832949495444E+00 -0.1998108308697E+00  0.3557428318415E+00
-0.1030510473928E+00 -0.9142738716999E+00 -0.2034649868504E+00  0.4058424051652E+00
-0.9651706472402E-01 -0.9512237029516E+00 -0.2095481566576E+00  0.4490249281843E+00
-0.9357569563727E-01 -0.9945634884542E+00 -0.2176278400612E+00  0.4872275861841E+00
-0.9299333192355E-01 -0.1043946637762E+01 -0.2273879973254E+00  0.5221776046399E+00
-0.9431596760266E-01 -0.1098724208806E+01 -0.2386080388374E+00  0.5552202170024E+00
-0.9747630074639E-01 -0.1158208297144E+01 -0.2511369233204E+00  0.5873845374581E+00
-0.1025857267494E+00 -0.1221770854600E+01 -0.2648713202167E+00  0.6194973040912E+00
-0.1098441588148E+00 -0.1288854406232E+01 -0.2797397171779E+00  0.6522686854576E+00
-0.1195096719308E+00 -0.1358945122315E+01 -0.2956909632552E+00  0.6863379798016E+00
-0.1318948512913E+00 -0.1431531028772E+01 -0.3126851806721E+00  0.7222862683175E+00
-0.1473721993007E+00 -0.1506052006756E+01 -0.3306848461390E+00  0.7606216022705E+00
-0.1663742205037E+00 -0.1581842180879E+01 -0.3496432854866E+00  0.8017359032305E+00
-0.1893736691051E+00 -0.1658081543427E+01 -0.3694910480122E+00  0.8458376040202E+00
-0.2168224779983E+00 -0.1733761884510E+01 -0.3901168783148E+00  0.8928621060063E+00
-0.2490328687363E+00 -0.1807683046599E+01 -0.4113431891966E+00  0.9423779735509E+00
-0.2860108218362E+00 -0.1878494831656E+01 -0.4329011371492E+00  0.9935289054122E+00
-0.3272650463167E+00 -0.1944753221643E+01 -0.4544036603630E+00  0.1045015724239E+01
-0.3716088040273E+00 -0.2005023198241E+01 -0.4753264075365E+00  0.1095071481862E+01
-0.4171814126570E+00 -0.2058150348493E+01 -0.4950663596070E+00  0.1141623044576E+01
-0.4617069988099E+00 -0.2103389755877E+01 -0.5130193585821E+00  0.1182568508076E+01
-0.5026767794872E+00 -0.2140220473160E+01 -0.5285794584059E+00  0.1215824086693E+01
-0.5373874674583E+00 -0.2168154388693E+01 -0.5411083792933E+00  0.1239218727228E+01
-0.5628787560417E+00 -0.2186679616838E+01 -0.5499116827703E+00  0.1250382109203E+01
-0.5758046489163E+00 -0.2195318344419E+01 -0.5542246069257E+00  0.1246687915047E+01
-0.5722622690665E+00 -0.2193752097852E+01 -0.5532028816271E+00  0.1225266480495E+01
-0.5475845817307E+00 -0.2181991242478E+01 -0.5459151729765E+00  0.1183083566673E+01
-0.4960864682531E+00 -0.2160596455065E+01 -0.5313365925812E+00  0.1117093392233E+01
-0.4106974834940E+00 -0.2130914312830E+01 -0.5083223668394E+00  0.1024482573459E+01
-0.2823647914047E+00 -0.2095333941644E+01 -0.4755397536957E+00  0.9030410157164E+00
-0.9947875482649E-01 -0.2057799645271E+01 -0.4314556864486E+00  0.7519334262236E+00
 0.1522407072645E+00 -0.2024325469674E+01 -0.3744169580611E+00  0.5731680955463E+00
 0.4889820042548E+00 -0.2002895662148E+01 -0.3027827360904E+00  0.3737050058798E+00
 0.9263742215753E+00 -0.2002224562595E+01 -0.2151700714103E+00  0.1679739464139E+00
 0.1474512345112E+01 -0.2028721504359E+01 -0.1108418335010E+00 -0.2010897825316E-01
 0.2130488649948E+01 -0.2081509474326E+01  0.9795835270328E-02 -0.1574046793789E+00
 0.2870430535607E+01 -0.2146899417416E+01  0.1447062257946E+00 -0.2062061989869E+00
 0.3645895478017E+01 -0.2196111955633E+01  0.2899567087975E+00 -0.1344188518350E+00
 0.4389614036350E+01 -0.2190300065533E+01  0.4398628007178E+00  0.7005271665309E-01
-0.2053172851258E+00 -0.9406073462762E+00 -0.2291849296955E+00  0.2405511822500E+00
-0.1628533395477E+00 -0.9665418957224E+00 -0.2258790504199E+00  0.3071172236037E+00
-0.1364945202935E+00 -0.9931934440250E+00 -0.2259375962304E+00  0.3666882313752E+00
-0.1209695895596E+00 -0.1023258572284E+01 -0.2288456357788E+00  0.4187210797126E+00
-0.1122364958429E+00 -0.1058374681661E+01 -0.2341222389894E+00  0.4642061975150E+00
-0.1077592630227E+00 -0.1099098459588E+01 -0.2413715481188E+00  0.5047144096765E+00
-0.1062047653572E+00 -0.1145257601028E+01 -0.2502924770068E+00  0.5417859034901E+00
-0.1070009775705E+00 -0.1196329574814E+01 -0.2606661143610E+00  0.5767077981788E+00
-0.1099925295447E+00 -0.1251688517510E+01 -0.2723362134691E+00  0.6105140525570E+00
-0.1152361449905E+00 -0.1310718174279E+01 -0.2851908681035E+00  0.6440553426312E+00
-0.1228991010285E+00 -0.1372840625141E+01 -0.2991479496915E+00  0.6780631514707E+00
-0.1332164196327E+00 -0.1437502495803E+01 -0.3141437877682E+00  0.7131858605299E+00
-0.1464765829841E+00 -0.1504141990762E+01 -0.3301237196684E+00  0.7499964958058E+00
-0.1630171003012E+00 -0.1572146477705E+01 -0.3470327207725E+00  0.7889747296035E+00
-0.1832143564017E+00 -0.1640804208274E+01 -0.3648037183712E+00  0.8304625191016E+00
-0.2074540783562E+00 -0.1709267322779E+01 -0.3833442859394E+00  0.8745995337962E+00
-0.2360643269140E+00 -0.1776530529449E+01 -0.4025189772705E+00  0.9212424481917E+00
-0.2692001002709E+00 -0.1841437527831E+01 -0.4221275319106E+00  0.9698853228233E+00
-0.3066927594448E+00 -0.1902725625573E+01 -0.4418836835882E+00  0.1019615293829E+01
-0.3478833180661E+00 -0.1959077849313E+01 -0.4613922403511E+00  0.1069103611155E+01
-0.3914496054395E+00 -0.2009210047167E+01 -0.4801319376759E+00  0.1116594786164E+01
-0.4354290314497E+00 -0.2052120110560E+01 -0.4975098358155E+00  0.1160052045200E+01
-0.4774485350119E+00 -0.2087217457798E+01 -0.5129332062053E+00  0.1197390082529E+01
-0.5148781831931E+00 -0.2114162375215E+01 -0.5258081195167E+00  0.1226512795771E+01
-0.5448574533079E+00 -0.2132695308214E+01 -0.5355105602842E+00  0.1245230298986E+01
-0.5642368547758E+00 -0.2142587207668E+01 -0.5413648205557E+00  0.1251176434106E+01
-0.5694639170227E+00 -0.2143696198152E+01 -0.5426320311207E+00  0.1241777979639E+01
-0.5564316139402E+00 -0.2136090351777E+01 -0.5385044011678E+00  0.1214290390146E+01
-0.5202959547962E+00 -0.2120215272407E+01 -0.5281022533099E+00  0.1165904371371E+01
-0.4552625714264E+00 -0.2097107360589E+01 -0.5104739940098E+00  0.1093939666753E+01
-0.3542961562677E+00 -0.2068609992776E+01 -0.4845812370295E+00  0.9961459176270E+00
-0.2086714852780E+00 -0.2037582646362E+01 -0.4492508330224E+00  0.8711425350355E+00
-0.7656369597634E-02 -0.2008262129470E+01 -0.4031837058215E+00  0.7192238152345E+00
 0.2612506117087E+00 -0.1986512264534E+01 -0.3450523357068E+00  0.5437234401549E+00
 0.6112085465304E+00 -0.1979423808778E+01 -0.2736430565271E+00  0.3527689877364E+00
 0.1053450937661E+01 -0.1993879876303E+01 -0.1880857905309E+00  0.1610895284983E+00
 0.1592836993704E+01 -0.2033730875964E+01 -0.8817877776600E-01 -0.8987172335620E-02
 0.2221931709655E+01 -0.2095774138739E+01  0.2523151455921E-01 -0.1287336243693E+00
 0.2915496534193E+01 -0.2165763343627E+01  0.1499466403476E+00 -0.1675893134340E+00
 0.3629459966187E+01 -0.2217527009701E+01  0.2823865955051E+00 -0.1008660064159E+00
 0.4308572957807E+01 -0.2219108324541E+01  0.4178929328803E+00  0.8016658456566E-01
-0.2312826177924E+00 -0.1047679077235E+01 -0.2557923428171E+00  0.2507467514609E+00
-0.1867485002686E+00 -0.1073962625664E+01 -0.2521422289437E+00  0.3170615792665E+00
-0.1577155680417E+00 -0.1100545314356E+01 -0.2516521802295E+00  0.3774457653129E+00
-0.1396027067458E+00 -0.1129801095697E+01 -0.2538807642718E+00  0.4310755035190E+00
-0.1287440686068E+00 -0.1163277102493E+01 -0.2584042380704E+00  0.4785431929314E+00
-0.1227038934005E+00 -0.1201606611206E+01 -0.2648621048680E+00  0.5210931724091E+00
-0.1201043312112E+00 -0.1244747041463E+01 -0.2729702786024E+00  0.5600755175408E+00
-0.1202895003431E+00 -0.1292283050825E+01 -0.2825145144434E+00  0.5966990036108E+00
-0.1230309354852E+00 -0.1343649096958E+01 -0.2933360108596E+00  0.6319822553799E+00
-0.1283340737852E+00 -0.1398247147489E+01 -0.3053162488043E+00  0.6667853521621E+00
-0.1363311741105E+00 -0.1455488202135E+01 -0.3183638799931E+00  0.7018518598607E+00
-0.1472289341205E+00 -0.1514790061969E+01 -0.3324038041710E+00  0.7378337548047E+00
-0.1612846996077E+00 -0.1575553366286E+01 -0.3473676183549E+00  0.7752933935165E+00
-0.1787928591289E+00 -0.1637127342895E+01 -0.3631840458166E+00  0.8146824796567E+00
-0.2000655625894E+00 -0.1698770960447E+01 -0.3797673102663E+00  0.8562973242276E+00
-0.2253953416336E+00 -0.1759626333845E+01 -0.3970043410115E+00  0.9002179325435E+00
-0.2549845117898E+00 -0.1818707992940E+01 -0.4147385071261E+00  0.9462359881764E+00
-0.2888345650403E+00 -0.1874916957323E+01 -0.4327503109212E+00  0.9937875828128E+00
-0.3266101537408E+00 -0.1927086620911E+01 -0.4507393616470E+00  0.1041919799385E+01
-0.3674928258008E+00 -0.1974030940711E+01 -0.4683047602806E+00  0.1089288744231E+01
-0.4100295915366E+00 -0.2014617120024E+01 -0.4849293495380E+00  0.1134161217317E+01
-0.4521560995791E+00 -0.2047994795823E+01 -0.5000301865315E+00  0.1174546112633E+01
-0.4914014689258E+00 -0.2073727210266E+01 -0.5130257434831E+00  0.1208388233639E+01
-0.5250186271357E+00 -0.2091653713579E+01 -0.5233344759413E+00  0.1233598832635E+01
-0.5500021685349E+00 -0.2101737566796E+01 -0.5303479549690E+00  0.1247993185545E+01
-0.5630355699638E+00 -0.2104022249310E+01 -0.5334115718032E+00  0.1249235338802E+01
-0.5603927231383E+00 -0.2098685793265E+01 -0.5318157112054E+00  0.1234832304183E+01
-0.5378085841307E+00 -0.2086157930923E+01 -0.5247933108308E+00  0.1202192942353E+01
-0.4903275045259E+00 -0.2067279088542E+01 -0.5115213262359E+00  0.1148761083510E+01
-0.4121386179158E+00 -0.2043495006861E+01 -0.4911267322738E+00  0.1072243478677E+01
-0.2963684984952E+00 -0.2017040007311E+01 -0.4626817080557E+00  0.9709510130258E+00
-0.1347751053736E+00 -0.1991086196386E+01 -0.4251722666875E+00  0.8442761974484E+00
 0.8234904086212E-01 -0.1969960167670E+01 -0.3775222309871E+00  0.6934853813271E+00
 0.3656777716343E+00 -0.1959173619093E+01 -0.3186991742406E+00  0.5229330425388E+00
 0.7255420806679E+00 -0.1964822127831E+01 -0.2478560131260E+00  0.3414566247725E+00
 0.1169417485527E+01 -0.1992100502791E+01 -0.1645366059046E+00  0.1635768823714E+00
 0.1698088950438E+01 -0.2042803720456E+01 -0.6894295503090E-01  0.9744909546681E-02
 0.2301110751361E+01 -0.2112174094561E+01  0.3778733192294E-01 -0.9536133836609E-01
 0.2953020334655E+01 -0.2186217222522E+01  0.1533606247119E+00 -0.1272259895517E+00
 0.3613362249287E+01 -0.2240876010614E+01  0.2744972518250E+00 -0.6713632918301E-01
 0.4236096785744E+01 -0.2248558562169E+01  0.3975076506384E+00  0.9270068670431E-01
-0.2569035480207E+00 -0.1152558623032E+01 -0.2818924384111E+00  0.2610460795314E+00
-0.2106825297852E+00 -0.1179078943085E+01 -0.2779522987159E+00  0.3270447804797E+00
-0.1793150270059E+00 -0.1205561662913E+01 -0.2769753421110E+00  0.3880257392958E+00
-0.1588302333494E+00 -0.1234083155770E+01 -0.2785826819751E+00  0.4429579572437E+00
-0.1459309600104E+00 -0.1266075654802E+01 -0.2824013271706E+00  0.4921109924190E+00
-0.1383191712296E+00 -0.1302202408015E+01 -0.2881043201421E+00  0.5364422133645E+00
-0.1346163621078E+00 -0.1342512052527E+01 -0.2954256873292E+00  0.5771164660746E+00
-0.1341137828654E+00 -0.1386676379570E+01 -0.3041580370195E+00  0.6152516445864E+00
-0.1365256756539E+00 -0.1434185315588E+01 -0.3141422029295E+00  0.6518354026988E+00
-0.1418113634140E+00 -0.1484462770270E+01 -0.3252548315835E+00  0.6877246932134E+00
-0.1500672328904E+00 -0.1536916383457E+01 -0.3373967282970E+00  0.7236667901569E+00
-0.1614675512899E+00 -0.1590944937513E+01 -0.3504825029831E+00  0.7603124049893E+00
-0.1762325847451E+00 -0.1645923038410E+01 -0.3644311300615E+00  0.7982113817082E+00
-0.1946067966765E+00 -0.1701175110344E+01 -0.3791563870540E+00  0.8377887716092E+00
-0.2168316843725E+00 -0.1755945697330E+01 -0.3945554822199E+00  0.8793003154697E+00
-0.2431023089599E+00 -0.1809382175472E+01 -0.4104969030032E+00  0.9227756194876E+00
-0.2734949286480E+00 -0.1860532746145E+01 -0.4268055413184E+00  0.9679543509953E+00
-0.3078619053647E+00 -0.1908366258078E+01 -0.4432456392934E+00  0.1014229591080E+01
-0.3457088212065E+00 -0.1951818448419E+01 -0.4595054607723E+00  0.1060623080935E+01
-0.3860655171573E+00 -0.1989836521503E+01 -0.4751804148128E+00  0.1105788772104E+01
-0.4273529948135E+00 -0.2021438642643E+01 -0.4897583347893E+00  0.1148025665344E+01
-0.4674064646092E+00 -0.2045925094790E+01 -0.5026663193702E+00  0.1185396887671E+01
-0.5036582854438E+00 -0.2063011732566E+01 -0.5133340112513E+00  0.1215889661318E+01
-0.5332496978874E+00 -0.2072713745748E+01 -0.5211926964934E+00  0.1237440394500E+01
-0.5530435894599E+00 -0.2075209891027E+01 -0.5256507039302E+00  0.1247891126133E+01
-0.5595789070044E+00 -0.2070803414334E+01 -0.5260764721068E+00  0.1244959194280E+01
-0.5489888777879E+00 -0.2059972521123E+01 -0.5217922875575E+00  0.1226254862236E+01
-0.5168961978236E+00 -0.2043478733398E+01 -0.5120749938749E+00  0.1189362101795E+01
-0.4582963090050E+00 -0.2022511517551E+01 -0.4961615727046E+00  0.1131995211826E+01
-0.3674461326190E+00 -0.1998856389539E+01 -0.4732605114837E+00  0.1052252845075E+01
-0.2377404569540E+00 -0.1975036751561E+01 -0.4425554482977E+00  0.9489832643251E+00
-0.6153631144895E-01 -0.1954398672360E+01 -0.4031870027696E+00  0.8222725278940E+00
 0.1697651278340E+00 -0.1941198648458E+01 -0.3542867094040E+00  0.6741897352064E+00
 0.4650398517064E+00 -0.1940464141335E+01 -0.2950848623228E+00  0.5098279433004E+00
 0.8320530775359E+00 -0.1957275213503E+01 -0.2250444305468E+00  0.3383615621746E+00
 0.1275128966740E+01 -0.1995329551408E+01 -0.1440401190799E+00  0.1737516444166E+00
 0.1791953987554E+01 -0.2054810355670E+01 -0.5257127440653E-01  0.3447597994476E-01
 0.2370138342375E+01 -0.2129997697129E+01  0.4802812976488E-01 -0.5841856146461E-01
 0.2984953956234E+01 -0.2207570714698E+01  0.1554766506240E+00 -0.8524508019837E-01
 0.3598797029758E+01 -0.2266321827875E+01  0.2664950443477E+00 -0.3289757168806E-01
 0.4170584767145E+01 -0.2279047712385E+01  0.3783074165892E+00  0.1064638831083E+00
-0.2821922420538E+00 -0.1255426870480E+01 -0.3075238270893E+00  0.2714015988306E+00
-0.2346084956380E+00 -0.1282089157464E+01 -0.3033395351405E+00  0.3370364114026E+00
-0.2012018218282E+00 -0.1308438172936E+01 -0.3019280034519E+00  0.3984326718527E+00
-0.1785447671586E+00 -0.1336280220866E+01 -0.3029650021195E+00  0.4544089518043E+00
-0.1636941541582E+00 -0.1366917114149E+01 -0.3061222582231E+00  0.5049723880771E+00
-0.1545149278012E+00 -0.1401007231047E+01 -0.3111044364055E+00  0.5508310278281E+00
-0.1496625546304E+00 -0.1438657920348E+01 -0.3176640997292E+00  0.5929743141418E+00
-0.1484027238687E+00 -0.1479608682243E+01 -0.3256022860742E+00  0.6324228141577E+00
-0.1504080378384E+00 -0.1523398181343E+01 -0.3347612488247E+00  0.6701217863484E+00
-0.1555980388965E+00 -0.1569473872700E+01 -0.3450143874603E+00  0.7069147846683E+00
-0.1640336738274E+00 -0.1617246209531E+01 -0.3562559819802E+00  0.7435455693326E+00
-0.1758538187494E+00 -0.1666103707672E+01 -0.3683915107737E+00  0.7806595019382E+00
-0.1912368521224E+00 -0.1715405536510E+01 -0.3813284834087E+00  0.8187928074527E+00
-0.2103718252341E+00 -0.1764463447469E+01 -0.3949670604260E+00  0.8583459109130E+00
-0.2334247215426E+00 -0.1812520669928E+01 -0.4091890843915E+00  0.8995395212242E+00
-0.2604904558219E+00 -0.1858742807928E+01 -0.4238466590657E+00  0.9423620074342E+00
-0.2915201323696E+00 -0.1902222974993E+01 -0.4387486280105E+00  0.9865131418074E+00
-0.3262218087316E+00 -0.1942005926052E+01 -0.4536455537165E+00  0.1031356517503E+01
-0.3639493896057E+00 -0.1977134088982E+01 -0.4682167026945E+00  0.1075901709108E+01
-0.4035884389971E+00 -0.2006688886106E+01 -0.4820554722037E+00  0.1118812256991E+01
-0.4434389931087E+00 -0.2029838183125E+01 -0.4946554426176E+00  0.1158428424631E+01
-0.4812381602319E+00 -0.2046031162745E+01 -0.5054538721272E+00  0.1192875395499E+01
-0.5143240099214E+00 -0.2055134233340E+01 -0.5138916563099E+00  0.1220193911202E+01
-0.5397327214519E+00 -0.2057334044004E+01 -0.5194133608310E+00  0.1238361430975E+01
-0.5542092141742E+00 -0.2053016002710E+01 -0.5214450511469E+00  0.1245265818278E+01
-0.5541703486035E+00 -0.2042728271068E+01 -0.5193797316737E+00  0.1238697541894E+01
-0.5356409842852E+00 -0.2027226683132E+01 -0.5125735411214E+00  0.1216388658435E+01
-0.4941754725214E+00 -0.2007571401762E+01 -0.5003493823126E+00  0.1176113239714E+01
-0.4247783706081E+00 -0.1985252571455E+01 -0.4820061955951E+00  0.1115863257958E+01
-0.3218478069013E+00 -0.1962326630977E+01 -0.4568348943830E+00  0.1034120067862E+01
-0.1791315312245E+00 -0.1941512595807E+01 -0.4241288317262E+00  0.9302288177047E+00
 0.1033525350064E-01 -0.1926213775479E+01 -0.3831757101054E+00  0.8048757834077E+00
 0.2540105408631E+00 -0.1920496994792E+01 -0.3332972957523E+00  0.6607641465852E+00
 0.5590573583548E+00 -0.1928829425208E+01 -0.2739544174529E+00  0.5034758956016E+00
 0.9309624862485E+00 -0.1955309606673E+01 -0.2048694271378E+00  0.3422295608311E+00
 0.1371454502424E+01 -0.2002342692659E+01 -0.1261776399273E+00  0.1901998883587E+00
 0.1875892879025E+01 -0.2068876090789E+01 -0.3859664292790E-01  0.6391052154257E-01
 0.2430791734666E+01 -0.2148643501473E+01  0.5642964747954E-01 -0.1876257295381E-01
 0.3012333570537E+01 -0.2229185372826E+01  0.1566296418762E+00 -0.4201480113992E-01
 0.3587507565173E+01 -0.2292496426910E+01  0.2590022315121E+00  0.3296108433405E-02
 0.4109695037021E+01 -0.2312955540298E+01  0.3593479046993E+00  0.1193936589103E+00
-0.3071688777228E+00 -0.1356443813141E+01 -0.3327225431307E+00  0.2817796474278E+00
-0.2584834308751E+00 -0.1383137951900E+01 -0.3283242814474E+00  0.3470075537715E+00
-0.2232898542282E+00 -0.1409297247075E+01 -0.3265174251262E+00  0.4086643385667E+00
-0.1986363800311E+00 -0.1436477051677E+01 -0.3270226912147E+00  0.4654530287646E+00
-0.1819195297417E+00 -0.1465841499222E+01 -0.3295522107035E+00  0.5171691456928E+00
-0.1711820402357E+00 -0.1498018596822E+01 -0.3338401323861E+00  0.5643055932271E+00
-0.1651400430908E+00 -0.1533147977754E+01 -0.3396576092303E+00  0.6076893697600E+00
-0.1630568057563E+00 -0.1571019273281E+01 -0.3468152209754E+00  0.6482420870013E+00
-0.1645779315676E+00 -0.1611212584725E+01 -0.3551581085509E+00  0.6868591064616E+00
-0.1695899600960E+00 -0.1653199293903E+01 -0.3645578562321E+00  0.7243627953792E+00
-0.1781197153910E+00 -0.1696397805983E+01 -0.3749035098613E+00  0.7614876764816E+00
-0.1902686996436E+00 -0.1740194369348E+01 -0.3860926195515E+00  0.7988707286879E+00
-0.2061696970293E+00 -0.1783942605110E+01 -0.3980224663589E+00  0.8370343606053E+00
-0.2259522015167E+00 -0.1826952758410E+01 -0.4105809981034E+00  0.8763572030791E+00
-0.2497034414508E+00 -0.1868478424959E+01 -0.4236363795946E+00  0.9170310180350E+00
-0.2774172402713E+00 -0.1907714493345E+01 -0.4370263532355E+00  0.9590121699511E+00
-0.3089219804112E+00 -0.1943808046244E+01 -0.4505460120448E+00  0.1001972137039E+01
-0.3437873294262E+00 -0.1975885680971E+01 -0.4639346089926E+00  0.1045257590870E+01
-0.3812236442406E+00 -0.2003098950965E+01 -0.4768645261470E+00  0.1087878052668E+01
-0.4199804667643E+00 -0.2024662760890E+01 -0.4889286528165E+00  0.1128517476152E+01
-0.4582432106802E+00 -0.2039891960836E+01 -0.4996270417482E+00  0.1165565615575E+01
-0.4936551003448E+00 -0.2048381302229E+01 -0.5084072880906E+00  0.1197216505885E+01
-0.5234646403045E+00 -0.2050143701023E+01 -0.5147216759354E+00  0.1221573995578E+01
-0.5446116505947E+00 -0.2045530424285E+01 -0.5180284226951E+00  0.1236670262377E+01
-0.5537383081861E+00 -0.2035121697108E+01 -0.5177720087741E+00  0.1240455012697E+01
-0.5471625210292E+00 -0.2019692147537E+01 -0.5133709413631E+00  0.1230807608716E+01
-0.5208326458029E+00 -0.2000248556916E+01 -0.5042162480572E+00  0.1205594780525E+01
-0.4702761390060E+00 -0.1978112470268E+01 -0.4896777291516E+00  0.1162787591148E+01
-0.3905582523087E+00 -0.1955023743468E+01 -0.4691164061457E+00  0.1100651580150E+01
-0.2762782131361E+00 -0.1933242455062E+01 -0.4419041402244E+00  0.1018027228215E+01
-0.1215970739074E+00 -0.1915599479592E+01 -0.4074393167712E+00  0.9147009395499E+00
 0.7973079912176E-01 -0.1905461287827E+01 -0.3651461031821E+00  0.7918556021030E+00
 0.3340401353314E+00 -0.1906622935752E+01 -0.3145165647708E+00  0.6526648198417E+00
 0.6469137428248E+00 -0.1922962680124E+01 -0.2552097912628E+00  0.5029838601429E+00
 0.1021867206524E+01 -0.1957671061213E+01 -0.1871607737269E+00  0.3518546292108E+00
 0.1458534635461E+01 -0.2012068134430E+01 -0.1107067014433E+00  0.2115387988044E+00
 0.1950593974124E+01 -0.2084174643868E+01 -0.2671613434686E-01  0.9671081214165E-01
 0.2483979230396E+01 -0.2167462180555E+01  0.6330341091158E-01  0.2254009807577E-01
 0.3036246906935E+01 -0.2250385734226E+01  0.1571722368838E+00  0.1683120366796E-02
 0.3577294476787E+01 -0.2317325729870E+01  0.2519937531383E+00  0.4114644793792E-01
 0.4068192424135E+01 -0.2349254479390E+01  0.3437875940718E+00  0.1352480548538E+00
-0.3318279910255E+00 -0.1455760213380E+01 -0.3575176462086E+00  0.2921320047437E+00
-0.2822702127711E+00 -0.1482392414702E+01 -0.3529325307537E+00  0.3569278299500E+00
-0.2455048355057E+00 -0.1508310059601E+01 -0.3507629842481E+00  0.4187126022499E+00
-0.2190127584935E+00 -0.1534836692816E+01 -0.3507698954888E+00  0.4761084319571E+00
-0.2005111903866E+00 -0.1562995962202E+01 -0.3527014357734E+00  0.5287400242148E+00
-0.1882296953648E+00 -0.1593367005113E+01 -0.3563193454051E+00  0.5769160003893E+00
-0.1809653113069E+00 -0.1626100327207E+01 -0.3614131330883E+00  0.6213153678764E+00
-0.1779984668071E+00 -0.1661020041983E+01 -0.3678037072387E+00  0.6627625816521E+00
-0.1789612699172E+00 -0.1697740164817E+01 -0.3753402925398E+00  0.7020987845908E+00
-0.1837142926347E+00 -0.1735755304174E+01 -0.3838939250822E+00  0.7401195869184E+00
-0.1922523603819E+00 -0.1774495759269E+01 -0.3933496297916E+00  0.7775459473927E+00
-0.2046386074398E+00 -0.1813352385406E+01 -0.4035982045833E+00  0.8150043396085E+00
-0.2209576135885E+00 -0.1851681978637E+01 -0.4145279246220E+00  0.8530037894418E+00
-0.2412763902597E+00 -0.1888803057686E+01 -0.4260158959372E+00  0.8919043364652E+00
-0.2656014352796E+00 -0.1923989550349E+01 -0.4379182036511E+00  0.9318748728506E+00
-0.2938256578477E+00 -0.1956474703972E+01 -0.4500600790703E+00  0.9728484612805E+00
-0.3256578521281E+00 -0.1985466598604E+01 -0.4622248970341E+00  0.1014478829055E+01
-0.3605353119130E+00 -0.2010177800810E+01 -0.4741426296099E+00  0.1056106897027E+01
-0.3975326372095E+00 -0.2029869978438E+01 -0.4854805303637E+00  0.1096752820331E+01
-0.4352712297043E+00 -0.2043889650791E+01 -0.4958321834874E+00  0.1135130492661E+01
-0.4718282307958E+00 -0.2051695008030E+01 -0.5047046552858E+00  0.1169686363668E+01
-0.5047577373145E+00 -0.2053022335713E+01 -0.5115560222283E+00  0.1198689244957E+01
-0.5312241110510E+00 -0.2048026240291E+01 -0.5158500779551E+00  0.1220314289942E+01
-0.5480798634862E+00 -0.2037214871487E+01 -0.5170589546995E+00  0.1232659860793E+01
-0.5518792717315E+00 -0.2021350521891E+01 -0.5146459663934E+00  0.1233750557962E+01
-0.5388630625659E+00 -0.2001414987593E+01 -0.5080556176025E+00  0.1221566662950E+01
-0.5049322932767E+00 -0.1978638737905E+01 -0.4967142136379E+00  0.1194117734651E+01
-0.4456242877201E+00 -0.1954567735860E+01 -0.4800384118691E+00  0.1149572663060E+01
-0.3561084875148E+00 -0.1931143025687E+01 -0.4574503094570E+00  0.1086459005140E+01
-0.2312317286651E+00 -0.1910767673812E+01 -0.4283998868792E+00  0.1003944826831E+01
-0.6560825931694E-01 -0.1896314017367E+01 -0.3923844611837E+00  0.9021962692828E+00
 0.1462747284110E+00 -0.1891039770915E+01 -0.3489530137005E+00  0.7827909722483E+00
 0.4096748654102E+00 -0.1898416287657E+01 -0.2977482888862E+00  0.6492267336352E+00
 0.7287441367135E+00 -0.1921734992349E+01 -0.2385981746824E+00  0.5074568710799E+00
 0.1105314580868E+01 -0.1963368032704E+01 -0.1716106929244E+00  0.3661894167413E+00
 0.1537354521639E+01 -0.2023738123474E+01 -0.9727672181663E-01  0.2367154095174E+00
 0.2017339948489E+01 -0.2100185224966E+01 -0.1656905554239E-01  0.1320029596014E+00
 0.2531054762442E+01 -0.2186098161516E+01  0.6899132121323E-01  0.6490352222144E-01
 0.3057340142038E+01 -0.2270809469484E+01  0.1573061368547E+00  0.4565306234924E-01
 0.3569147689398E+01 -0.2340447747640E+01  0.2457399920134E+00  0.7900948256097E-01
 0.4036087249629E+01 -0.2380750962814E+01  0.3310672622963E+00  0.1605455289839E+00
-0.3561965291650E+00 -0.1553529720021E+01 -0.3819452555285E+00  0.3024408232628E+00
-0.3059563464239E+00 -0.1580046317212E+01 -0.3772005383480E+00  0.3667872693002E+00
-0.2678053719926E+00 -0.1605699911428E+01 -0.3747010622676E+00  0.4285895937007E+00
-0.2396153317179E+00 -0.1631601587264E+01 -0.3742433893730E+00  0.4864129165126E+00
-0.2194060258062E+00 -0.1658634369738E+01 -0.3756080847058E+00  0.5397450555887E+00
-0.2055981330250E+00 -0.1687314790991E+01 -0.3785825904444E+00  0.5887378557829E+00
-0.1970850020992E+00 -0.1717786669790E+01 -0.3829743400845E+00  0.6339372489129E+00
-0.1931806864353E+00 -0.1749894588676E+01 -0.3886150608131E+00  0.6760746892189E+00
-0.1935161504436E+00 -0.1783278808535E+01 -0.3953589976871E+00  0.7159352632704E+00
-0.1979331341742E+00 -0.1817455407018E+01 -0.4030777142449E+00  0.7542841239268E+00
-0.2063972826535E+00 -0.1851869165681E+01 -0.4116532958011E+00  0.7918255400473E+00
-0.2189332839812E+00 -0.1885920992722E+01 -0.4209708616136E+00  0.8291740694509E+00
-0.2355758960004E+00 -0.1918978060137E+01 -0.4309107976486E+00  0.8668261503600E+00
-0.2563277149911E+00 -0.1950375241425E+01 -0.4413405978598E+00  0.9051264588144E+00
-0.2811134130099E+00 -0.1979414873148E+01 -0.4521056639686E+00  0.9442267112280E+00
-0.3097257209867E+00 -0.2005375671241E+01 -0.4630202853450E+00  0.9840445188298E+00
-0.3417569927165E+00 -0.2027531932458E+01 -0.4738577920959E+00  0.1024225136267E+01
-0.3765175529030E+00 -0.2045184904247E+01 -0.4843404986472E+00  0.1064113440160E+01
-0.4129529606499E+00 -0.2057706453380E+01 -0.4941318901691E+00  0.1102749511634E+01
-0.4495632082662E+00 -0.2064572455899E+01 -0.5028271403258E+00  0.1138885568408E+01
-0.4843226292459E+00 -0.2065380843269E+01 -0.5099407021017E+00  0.1171031124120E+01
-0.5147004040265E+00 -0.2060005630353E+01 -0.5149412145491E+00  0.1197534951606E+01
-0.5377816919648E+00 -0.2048738507187E+01 -0.5173040475387E+00  0.1216650639653E+01
-0.5503398600912E+00 -0.2032237138193E+01 -0.5165154073536E+00  0.1226552561808E+01
-0.5488544614536E+00 -0.2011433924476E+01 -0.5120576848162E+00  0.1225351087125E+01
-0.5295081531630E+00 -0.1987499940814E+01 -0.5034016262966E+00  0.1211136816698E+01
-0.4881800221155E+00 -0.1961864362904E+01 -0.4900088843056E+00  0.1182067216726E+01
-0.4204484810578E+00 -0.1936264280377E+01 -0.4713425593105E+00  0.1136506307588E+01
-0.3216226709326E+00 -0.1912799427697E+01 -0.4468844263850E+00  0.1073228448006E+01
-0.1868322804973E+00 -0.1893964912431E+01 -0.4161594447868E+00  0.9916951571466E+00
-0.1117001403442E-01 -0.1882618850344E+01 -0.3787577785196E+00  0.8923919078854E+00
 0.2101464889352E+00 -0.1881858360253E+01 -0.3343423792456E+00  0.7771980859400E+00
 0.4813550920622E+00 -0.1894801889160E+01 -0.2826893636319E+00  0.6498109954442E+00
 0.8053200704960E+00 -0.1924173522594E+01 -0.2237706937540E+00  0.5161437554408E+00
 0.1182439442467E+01 -0.1971616135732E+01 -0.1578353410050E+00  0.3844604594663E+00
 0.1609355489178E+01 -0.2036813570864E+01 -0.8549161761130E-01  0.2650641486021E+00
 0.2077714065382E+01 -0.2116608130833E+01 -0.7778813206035E-02  0.1693550671500E+00
 0.2573384822891E+01 -0.2204430946382E+01  0.7379077640142E-01  0.1082047858254E+00
 0.3076574316634E+01 -0.2290381134867E+01  0.1572386386964E+00  0.8982229819568E-01
 0.3563057051199E+01 -0.2362188341134E+01  0.2401737455919E+00  0.1174302642347E+00
 0.4008017040530E+01 -0.2407631229962E+01  0.3200771668831E+00  0.1867515203260E+00
-0.3802892631436E+00 -0.1649886728456E+01 -0.4060352043703E+00  0.3126850852383E+00
-0.3295219406388E+00 -0.1676244652784E+01 -0.4011533246622E+00  0.3765708799151E+00
-0.2901414214949E+00 -0.1701617245521E+01 -0.3983517393391E+00  0.4382952077677E+00
-0.2603742295123E+00 -0.1726919294532E+01 -0.3974587107314E+00  0.4963850628169E+00
-0.2385254405263E+00 -0.1752895302396E+01 -0.3982841545193E+00  0.5502190407909E+00
-0.2232077155027E+00 -0.1779989552924E+01 -0.4006394596553E+00  0.5998165732580E+00
-0.2134220111572E+00 -0.1808325243193E+01 -0.4043494568954E+00  0.6456054271499E+00
-0.2085295095197E+00 -0.1837755420292E+01 -0.4092569920607E+00  0.6882300017794E+00
-0.2081709682230E+00 -0.1867939408234E+01 -0.4152220814786E+00  0.7284196683208E+00
-0.2121761622790E+00 -0.1898412580367E+01 -0.4221177548192E+00  0.7669072399030E+00
-0.2204847469525E+00 -0.1928635985038E+01 -0.4298241528030E+00  0.8043784606775E+00
-0.2330835731222E+00 -0.1958025076854E+01 -0.4382217365253E+00  0.8414354105294E+00
-0.2499568075174E+00 -0.1985963537158E+01 -0.4471840755987E+00  0.8785632423464E+00
-0.2710416277152E+00 -0.2011809453754E+01 -0.4565702230973E+00  0.9160946923997E+00
-0.2961806959183E+00 -0.2034900264931E+01 -0.4662161991170E+00  0.9541698497685E+00
-0.3250680478409E+00 -0.2054565796051E+01 -0.4759267758703E+00  0.9926982153982E+00
-0.3571831810244E+00 -0.2070150369305E+01 -0.4854667172998E+00  0.1031325034359E+01
-0.3917149360099E+00 -0.2081045406119E+01 -0.4945520757952E+00  0.1069407877334E+01
-0.4274864054134E+00 -0.2086732075972E+01 -0.5028437037700E+00  0.1106015093178E+01
-0.4628827797322E+00 -0.2086812567794E+01 -0.5099390771039E+00  0.1139944742087E+01
-0.4957811463720E+00 -0.2081020362486E+01 -0.5153603094511E+00  0.1169775023243E+01
-0.5235703398881E+00 -0.2069362835236E+01 -0.5185866427524E+00  0.1193939098339E+01
-0.5432616669503E+00 -0.2052263478851E+01 -0.5191050368955E+00  0.1210774994133E+01
-0.5515575894453E+00 -0.2030521398813E+01 -0.5164158053468E+00  0.1218541222129E+01
-0.5448755059242E+00 -0.2005226583823E+01 -0.5100204255493E+00  0.1215442498703E+01
-0.5193575384157E+00 -0.1977721278558E+01 -0.4994157708367E+00  0.1199686248403E+01
-0.4708832264813E+00 -0.1949608820526E+01 -0.4840984166151E+00  0.1169579376287E+01
-0.3950984803133E+00 -0.1922785811278E+01 -0.4635768652260E+00  0.1123674154954E+01
-0.2874801140635E+00 -0.1899472036246E+01 -0.4373904365796E+00  0.1060972097347E+01
-0.1434648932149E+00 -0.1882210895838E+01 -0.4051351638475E+00  0.9811905290286E+00
 0.4136535121667E-01 -0.1873802142737E+01 -0.3664873637652E+00  0.8850735220941E+00
 0.2710813250527E+00 -0.1877146493728E+01 -0.3212130385215E+00  0.7747155631763E+00
 0.5489713500173E+00 -0.1894998202930E+01 -0.2692053745939E+00  0.6539056814549E+00
 0.8767553608443E+00 -0.1929547036104E+01 -0.2105583381896E+00  0.5284075815570E+00
 0.1253621797626E+01 -0.1981796096468E+01 -0.1456348619386E+00  0.4059683956384E+00
 0.1675172872594E+01 -0.2050827634533E+01 -0.7513095350732E-01  0.2959159949114E+00
 0.2132502708300E+01 -0.2133132589876E+01 -0.1259763169791E-03  0.2082280903250E+00
 0.2611754425525E+01 -0.2222260248509E+01  0.7789883656401E-01  0.1520721748230E+00
 0.3094466070302E+01 -0.2309039893966E+01  0.1570852376080E+00  0.1340003231142E+00
 0.3559061624037E+01 -0.2382551957801E+01  0.2353019367537E+00  0.1560467983677E+00
 0.3984414708251E+01 -0.2432318635485E+01  0.3104192191787E+00  0.2143022211984E+00
-0.4041209721930E+00 -0.1744957528522E+01 -0.4298157065478E+00  0.3228485158373E+00
-0.3529507914497E+00 -0.1771124009541E+01 -0.4248149665284E+00  0.3862671525686E+00
-0.3124690447547E+00 -0.1796204301350E+01 -0.4217346755053E+00  0.4478303071162E+00
-0.2812261370479E+00 -0.1820931153506E+01 -0.4204314643756E+00  0.5060416469628E+00
-0.2577960822107E+00 -0.1845913782094E+01 -0.4207419791304E+00  0.5601934009480E+00
-0.2409821495021E+00 -0.1871517702081E+01 -0.4224999766124E+00  0.6101940207776E+00
-0.2299009545785E+00 -0.1897834580519E+01 -0.4255471133606E+00  0.6563676354902E+00
-0.2239717504072E+00 -0.1924715820056E+01 -0.4297375204963E+00  0.6992787597761E+00
-0.2228546283317E+00 -0.1951833290082E+01 -0.4349375901637E+00  0.7396031392076E+00
-0.2263738537223E+00 -0.1978739304194E+01 -0.4410226381549E+00  0.7780409527677E+00
-0.2344464935371E+00 -0.2004912333423E+01 -0.4478717720659E+00  0.8152587737740E+00
-0.2470227232643E+00 -0.2029786022697E+01 -0.4553617559777E+00  0.8518464318936E+00
-0.2640360818836E+00 -0.2052765696002E+01 -0.4633603624816E+00  0.8882795424230E+00
-0.2853581335709E+00 -0.2073238370051E+01 -0.4717193077535E+00  0.9248824503394E+00
-0.3107501240349E+00 -0.2090582010594E+01 -0.4802664340824E+00  0.9617889617677E+00
-0.3398094929906E+00 -0.2104181882562E+01 -0.4887982823942E+00  0.9989072836292E+00
-0.3719068081327E+00 -0.2113454906220E+01 -0.4970723502776E+00  0.1035890339270E+01
-0.4061149597018E+00 -0.2117883107404E+01 -0.5047996209432E+00  0.1072116240726E+01
-0.4411410193835E+00 -0.2117055197166E+01 -0.5116392509339E+00  0.1106689068310E+01
-0.4752618657159E+00 -0.2110695938938E+01 -0.5171915686376E+00  0.1138459424331E+01
-0.5062629474040E+00 -0.2098669633313E+01 -0.5209865239068E+00  0.1166079084742E+01
-0.5314575576431E+00 -0.2081112148241E+01 -0.5225139489629E+00  0.1188069278193E+01
-0.5477887249033E+00 -0.2058572924819E+01 -0.5212723377121E+00  0.1202857387500E+01
-0.5518961111744E+00 -0.2031983891401E+01 -0.5167760082157E+00  0.1208792586270E+01
-0.5401467014742E+00 -0.2002579793161E+01 -0.5085453065049E+00  0.1204180386485E+01
-0.5086577983076E+00 -0.1971856096063E+01 -0.4961027862667E+00  0.1187348916169E+01
-0.4533286641938E+00 -0.1941566720850E+01 -0.4789790841460E+00  0.1156752976663E+01
-0.3698941547372E+00 -0.1913738475545E+01 -0.4567265328621E+00  0.1111122852082E+01
-0.2540194082479E+00 -0.1890676967345E+01 -0.4289392815103E+00  0.1049664439752E+01
-0.1014624782535E+00 -0.1874937440416E+01 -0.3952799896241E+00  0.9723115299584E+00
 0.9170724151771E-01 -0.1869227791665E+01 -0.3555041153269E+00  0.8800078086111E+00
 0.3288798856706E+00 -0.1876230012317E+01 -0.3094700299407E+00  0.7749841186818E+00
 0.6124719062706E+00 -0.1898336394129E+01 -0.2571729014039E+00  0.6610299260081E+00
 0.9431970351112E+00 -0.1937243565547E+01 -0.1988093090495E+00  0.5436754449801E+00
 0.1319233280170E+01 -0.1993400436493E+01 -0.1348334332739E+00  0.4301062816602E+00
 0.1735377598274E+01 -0.2065405700363E+01 -0.6600562140124E-01  0.3287090014837E+00
 0.2182388803657E+01 -0.2149512441508E+01  0.6575272527781E-02  0.2481787200527E+00
 0.2646800150110E+01 -0.2239447553501E+01  0.8147052053578E-01  0.1962237864634E+00
 0.3111449879514E+01 -0.2326731739514E+01  0.1569436303386E+00  0.1780399522724E+00
 0.3557046992148E+01 -0.2401668876145E+01  0.2310756266438E+00  0.1948375372533E+00
 0.3965032660898E+01 -0.2455175679894E+01  0.3019714007004E+00  0.2431237938460E+00
-0.4277063788528E+00 -0.1838861470190E+01 -0.4533135765634E+00  0.3329191953571E+00
-0.3762296643601E+00 -0.1864813436386E+01 -0.4482086268281E+00  0.3958679311443E+00
-0.3347494354467E+00 -0.1889596025685E+01 -0.4448690988554E+00  0.4571970279967E+00
-0.3021134339977E+00 -0.1913772602047E+01 -0.4431772138127E+00  0.5153984546852E+00
-0.2771494475921E+00 -0.1937821009355E+01 -0.4429940979905E+00  0.5696970774819E+00
-0.2588485220643E+00 -0.1962023778249E+01 -0.4441744666815E+00  0.6199092253667E+00
-0.2464484801573E+00 -0.1986432638609E+01 -0.4465762304077E+00  0.6662692988738E+00
-0.2394354057212E+00 -0.2010888971050E+01 -0.4500648820608E+00  0.7092699010772E+00
-0.2374969425223E+00 -0.2035071427480E+01 -0.4545136807733E+00  0.7495366222724E+00
-0.2404578017769E+00 -0.2058546898890E+01 -0.4598009469850E+00  0.7877380706357E+00
-0.2482159415678E+00 -0.2080811961343E+01 -0.4658055875232E+00  0.8245220669561E+00
-0.2606864492195E+00 -0.2101321354581E+01 -0.4724015677994E+00  0.8604671322254E+00
-0.2777528139359E+00 -0.2119506263208E+01 -0.4794518225731E+00  0.8960414722149E+00
-0.2992214815451E+00 -0.2134787292946E+01 -0.4868017621522E+00  0.9315646526791E+00
-0.3247735292032E+00 -0.2146587212367E+01 -0.4942721556793E+00  0.9671692949557E+00
-0.3539124042320E+00 -0.2154349888166E+01 -0.5016524659549E+00  0.1002768599479E+01
-0.3859039379193E+00 -0.2157566323895E+01 -0.5086940599429E+00  0.1038030120527E+01
-0.4197106281477E+00 -0.2155808647012E+01 -0.5151038627075E+00  0.1072359533271E+01
-0.4539298499015E+00 -0.2148770585042E+01 -0.5205400947454E+00  0.1104903296420E+01
-0.4867365378129E+00 -0.2136295123128E+01 -0.5246063400055E+00  0.1134570476341E+01
-0.5158301030213E+00 -0.2118372177511E+01 -0.5268404639569E+00  0.1160090608523E+01
-0.5384532234665E+00 -0.2095260812430E+01 -0.5267428150284E+00  0.1180075937712E+01
-0.5514862881831E+00 -0.2067630096229E+01 -0.5238232846880E+00  0.1193047093082E+01
-0.5515139502175E+00 -0.2036535779643E+01 -0.5176099536850E+00  0.1197448951111E+01
-0.5348635115807E+00 -0.2003344457759E+01 -0.5076416014323E+00  0.1191692336795E+01
-0.4976411782966E+00 -0.1969687355105E+01 -0.4934657140336E+00  0.1174227655989E+01
-0.4357819248526E+00 -0.1937446775848E+01 -0.4746457472130E+00  0.1143653501906E+01
-0.3451260705838E+00 -0.1908753167462E+01 -0.4507758543262E+00  0.1098865375113E+01
-0.2215408301804E+00 -0.1885968399347E+01 -0.4215018521864E+00  0.1039248840791E+01
-0.6111090771119E-01 -0.1871630179414E+01 -0.3865482231850E+00  0.9649145998622E+00
 0.1396182640826E+00 -0.1868330558719E+01 -0.3457424640793E+00  0.8769501774264E+00
 0.3833961184303E+00 -0.1878521512154E+01 -0.2990250832006E+00  0.7776526481635E+00
 0.6718480858241E+00 -0.1904245439634E+01 -0.2464794744347E+00  0.6707360239532E+00
 0.1004811472616E+01 -0.1946751126032E+01 -0.1883879334905E+00  0.5614340482361E+00
 0.1379627488586E+01 -0.2006012767242E+01 -0.1252770575980E+00  0.4563480336323E+00
 0.1790479967259E+01 -0.2080245184705E+01 -0.5795304435296E-01  0.3629696996635E+00
 0.2227954673407E+01 -0.2165553169754E+01  0.1248030091661E-01  0.2888455103536E+00
 0.2679048431494E+01 -0.2255881474043E+01  0.8463339275127E-01  0.2404382084070E+00
 0.3127820665633E+01 -0.2343409218650E+01  0.1568822917344E+00  0.2218566027958E+00
 0.3556883420585E+01 -0.2419506264023E+01  0.2274754347022E+00  0.2337590304589E+00
 0.3949632660276E+01 -0.2476195600209E+01  0.2946874164046E+00  0.2730099599101E+00
-0.4510600801884E+00 -0.1931711825957E+01 -0.4765543883304E+00  0.3428891761838E+00
-0.3993477375723E+00 -0.1957435289591E+01 -0.4713566124564E+00  0.4053682559437E+00
-0.3569481115782E+00 -0.1981920790164E+01 -0.4677737873189E+00  0.4663990073269E+00
-0.3229834662600E+00 -0.2005573523238E+01 -0.4657114048392E+00  0.5244708735479E+00
-0.2965214798695E+00 -0.2028744230505E+01 -0.4650531490047E+00  0.5787572481139E+00
-0.2767372560700E+00 -0.2051629951671E+01 -0.4656734484873E+00  0.6289989604411E+00
-0.2629934698155E+00 -0.2074236108340E+01 -0.4674459225966E+00  0.6753538661828E+00
-0.2548499683979E+00 -0.2096387229301E+01 -0.4702474465470E+00  0.7182511198057E+00
-0.2520289488254E+00 -0.2117763771917E+01 -0.4739585512110E+00  0.7582706996652E+00
-0.2543609757236E+00 -0.2137944960982E+01 -0.4784611944707E+00  0.7960518456440E+00
-0.2617283482812E+00 -0.2156445820810E+01 -0.4836348410249E+00  0.8322249741113E+00
-0.2740129606327E+00 -0.2172744462060E+01 -0.4893514918304E+00  0.8673588655652E+00
-0.2910493295101E+00 -0.2186301327194E+01 -0.4954701387240E+00  0.9019167573698E+00
-0.3125798526113E+00 -0.2196574314235E+01 -0.5018308408471E+00  0.9362170577801E+00
-0.3382072292909E+00 -0.2203034233793E+01 -0.5082483001902E+00  0.9703960240020E+00
-0.3673439267769E+00 -0.2205185677302E+01 -0.5145059284825E+00  0.1004377611925E+01
-0.3991554390233E+00 -0.2202594257103E+01 -0.5203499469791E+00  0.1037850262118E+01
-0.4324994332713E+00 -0.2194920876340E+01 -0.5254840697525E+00  0.1070253465540E+01
-0.4658697936635E+00 -0.2181961077918E+01 -0.5295661822074E+00  0.1100781942142E+01
-0.4973457476526E+00 -0.2163671175419E+01 -0.5322033925449E+00  0.1128408405795E+01
-0.5245462146305E+00 -0.2140161086935E+01 -0.5329414682546E+00  0.1151943653852E+01
-0.5446482069709E+00 -0.2111807419430E+01 -0.5312911331971E+00  0.1170093199053E+01
-0.5544750412800E+00 -0.2079392187456E+01 -0.5267734535968E+00  0.1181473849123E+01
-0.5505636899536E+00 -0.2044085735418E+01 -0.5189298928069E+00  0.1184629876916E+01
-0.5292113540643E+00 -0.2007373734646E+01 -0.5073170253017E+00  0.1178080230545E+01
-0.4865247681301E+00 -0.1971006456813E+01 -0.4915062523126E+00  0.1160397207271E+01
-0.4184873024858E+00 -0.1936974068604E+01 -0.4710922812378E+00  0.1130317048613E+01
-0.3210564999478E+00 -0.1907487080531E+01 -0.4457087227374E+00  0.1086885884985E+01
-0.1903090698243E+00 -0.1884938764708E+01 -0.4150495730912E+00  0.1029643304723E+01
-0.2265409839231E-01 -0.1871826525584E+01 -0.3788961304412E+00  0.9588383105599E+00
 0.1849063435136E+00 -0.1870610833695E+01 -0.3371409030600E+00  0.8756506560458E+00
 0.4345267257630E+00 -0.1883511160035E+01 -0.2897968911726E+00  0.7823822740283E+00
 0.7271223885572E+00 -0.1912238916329E+01 -0.2370233090864E+00  0.6826097078704E+00
 0.1061773679354E+01 -0.1957641608955E+01 -0.1791735885900E+00  0.5812246296158E+00
 0.1435134674606E+01 -0.2019290763412E+01 -0.1168312195021E+00  0.4842373549771E+00
 0.1840931140772E+01 -0.2095100769670E+01 -0.5083392653713E-01  0.3982986260100E+00
 0.2269695390267E+01 -0.2181097070979E+01  0.1771966412161E-01  0.3299314566540E+00
 0.2708922687987E+01 -0.2271467145345E+01  0.8749110983224E-01  0.2845417299617E+00
 0.3143782268200E+01 -0.2359000753782E+01  0.1569563052224E+00  0.2653780424415E+00
 0.3558469075351E+01 -0.2435972127618E+01  0.2244993928918E+00  0.2727259659731E+00
 0.3937958922380E+01 -0.2495308280526E+01  0.2885301326703E+00  0.3037484575115E+00
-0.4741965016265E+00 -0.2023616480652E+01 -0.4995626038998E+00  0.3527541488635E+00
-0.4222961651892E+00 -0.2049105963659E+01 -0.4942804331350E+00  0.4147661999602E+00
-0.3790342507517E+00 -0.2073301012411E+01 -0.4904670599410E+00  0.4754415333042E+00
-0.3437879194952E+00 -0.2096458581737E+01 -0.4880493075190E+00  0.5332743340558E+00
-0.3158521796376E+00 -0.2118806699883E+01 -0.4869317831600E+00  0.5873998887777E+00
-0.2945820085804E+00 -0.2140455668435E+01 -0.4870075426600E+00  0.6374982300820E+00
-0.2794671564908E+00 -0.2161359874751E+01 -0.4881654135226E+00  0.6836630971935E+00
-0.2701466571762E+00 -0.2181321526331E+01 -0.4902936440074E+00  0.7262689256716E+00
-0.2663831614564E+00 -0.2200018688235E+01 -0.4932803772887E+00  0.7658554457380E+00
-0.2680179267376E+00 -0.2217040884685E+01 -0.4970117696906E+00  0.8030356706444E+00
-0.2749209278697E+00 -0.2231921707510E+01 -0.5013685345468E+00  0.8384247535450E+00
-0.2869429619382E+00 -0.2244164393758E+01 -0.5062214786825E+00  0.8725838361196E+00
-0.3038710403050E+00 -0.2253261318933E+01 -0.5114264794684E+00  0.9059738731316E+00
-0.3253850500746E+00 -0.2258710520112E+01 -0.5168191217385E+00  0.9389156976404E+00
-0.3510115455576E+00 -0.2260033162618E+01 -0.5222089494165E+00  0.9715537214675E+00
-0.3800753527262E+00 -0.2256795762386E+01 -0.5273742308809E+00  0.1003827898888E+01
-0.4116461822211E+00 -0.2248638217260E+01 -0.5320568878246E+00  0.1035453149654E+01
-0.4444824190826E+00 -0.2235308151824E+01 -0.5359581221677E+00  0.1065908312988E+01
-0.4769805439469E+00 -0.2216699125058E+01 -0.5387359418288E+00  0.1094441535554E+01
-0.5071301705953E+00 -0.2192875413567E+01 -0.5400011248791E+00  0.1120093662796E+01
-0.5324751731763E+00 -0.2164060976361E+01 -0.5393072379437E+00  0.1141759609813E+01
-0.5501317889722E+00 -0.2130744022906E+01 -0.5361751703653E+00  0.1158239753440E+01
-0.5568716460300E+00 -0.2093812573895E+01 -0.5301368518847E+00  0.1168249134667E+01
-0.5491907862993E+00 -0.2054542249635E+01 -0.5207466149466E+00  0.1170433917634E+01
-0.5233646499781E+00 -0.2014525332654E+01 -0.5075780040899E+00  0.1163422514499E+01
-0.4755099851351E+00 -0.1975615384807E+01 -0.4902250812934E+00  0.1145907121970E+01
-0.4016680011690E+00 -0.1939891789608E+01 -0.4683119651337E+00  0.1116753957707E+01
-0.2979207403281E+00 -0.1909624638970E+01 -0.4415090824386E+00  0.1075144099054E+01
-0.1605561362775E+00 -0.1887218306937E+01 -0.4095548947457E+00  0.1020745438564E+01
 0.1370104741535E-01 -0.1875113146314E+01 -0.3722824253271E+00  0.9539084812274E+00
 0.2274175381460E+00 -0.1875629324210E+01 -0.3296423621248E+00  0.8758583090701E+00
 0.4822021156237E+00 -0.1890758165496E+01 -0.2817112141722E+00  0.7888488051420E+00
 0.7783388408744E+00 -0.1921903465043E+01 -0.2287129282418E+00  0.6962692160932E+00
 0.1114259410322E+01 -0.1969557289037E+01 -0.1710595782920E+00  0.6026375253476E+00
 0.1486058316526E+01 -0.2032952642775E+01 -0.1093788668798E+00  0.5133779032738E+00
 0.1887126824570E+01 -0.2109772303881E+01 -0.4452909652577E-01  0.4343572652827E+00
 0.2308028590126E+01 -0.2196013981485E+01  0.2240292206214E-01  0.3711905472136E+00
 0.2736761472633E+01 -0.2286117228341E+01  0.9012885020158E-01  0.3283909697252E+00
 0.3159483955407E+01 -0.2373422850157E+01  0.1572122233927E+00  0.3085278511855E+00
 0.3561717379623E+01 -0.2450966921873E+01  0.2221500948603E+00  0.3116336654468E+00
 0.3929759070189E+01 -0.2512431176109E+01  0.2834655830400E+00  0.3351329335984E+00
-0.4971298634192E+00 -0.2114678498863E+01 -0.5223616802403E+00  0.3625131501925E+00
-0.4450677277390E+00 -0.2139936505704E+01 -0.5170008543924E+00  0.4240627052037E+00
-0.4009801369662E+00 -0.2163853689043E+01 -0.5129667728457E+00  0.4843316306029E+00
-0.3644822713431E+00 -0.2186547531871E+01 -0.5102059682455E+00  0.5418246306270E+00
-0.3350852290452E+00 -0.2208127686327E+01 -0.5086425906537E+00  0.5956502046728E+00
-0.3123195238589E+00 -0.2228617383006E+01 -0.5081873889455E+00  0.6454406545712E+00
-0.2958031666106E+00 -0.2247916571281E+01 -0.5087439551591E+00  0.6912372961695E+00
-0.2852585679611E+00 -0.2265800850609E+01 -0.5102118913167E+00  0.7333686888246E+00
-0.2804937522790E+00 -0.2281942446608E+01 -0.5124872474141E+00  0.7723402955348E+00
-0.2813649386902E+00 -0.2295939420989E+01 -0.5154608796169E+00  0.8087428053262E+00
-0.2877329279842E+00 -0.2307343926715E+01 -0.5190153786739E+00  0.8431789094017E+00
-0.2994196220729E+00 -0.2315685664235E+01 -0.5230210650552E+00  0.8762046506480E+00
-0.3161662818820E+00 -0.2320490993948E+01 -0.5273314630239E+00  0.9082815631991E+00
-0.3375921890312E+00 -0.2321300181657E+01 -0.5317784820617E+00  0.9397364019674E+00
-0.3631503374020E+00 -0.2317686237179E+01 -0.5361673229056E+00  0.9707259298911E+00
-0.3920815065731E+00 -0.2309277982113E+01 -0.5402719057880E+00  0.1001210831276E+01
-0.4233642907997E+00 -0.2295788524771E+01 -0.5438305712179E+00  0.1030937466841E+01
-0.4556633137792E+00 -0.2277049511292E+01 -0.5465425731583E+00  0.1059428879295E+01
-0.4872836197838E+00 -0.2253048188421E+01 -0.5480663698079E+00  0.1085991132664E+01
-0.5161311474976E+00 -0.2223951020771E+01 -0.5480164418197E+00  0.1109737028449E+01
-0.5396800358865E+00 -0.2190089758857E+01 -0.5459539670840E+00  0.1129647848208E+01
-0.5549905112919E+00 -0.2152058053724E+01 -0.5414097210709E+00  0.1144619822443E+01
-0.5587876271023E+00 -0.2110842824478E+01 -0.5339260982722E+00  0.1153467491544E+01
-0.5475325843692E+00 -0.2067815680121E+01 -0.5230696606923E+00  0.1154940363638E+01
-0.5174861100291E+00 -0.2024663497622E+01 -0.5084299291064E+00  0.1147776430485E+01
-0.4647823262228E+00 -0.1983328468656E+01 -0.4896221662718E+00  0.1130784542822E+01
-0.3855266196088E+00 -0.1945962527147E+01 -0.4662978362996E+00  0.1102952175569E+01
-0.2759286698153E+00 -0.1914877944365E+01 -0.4381613293653E+00  0.1063579188755E+01
-0.1324843535516E+00 -0.1892474191376E+01 -0.4049917150204E+00  0.1012436679538E+01
 0.4777991020272E-01 -0.1881123178303E+01 -0.3666686590839E+00  0.9499422761601E+00
 0.2670295455112E+00 -0.1883001882765E+01 -0.3231944722668E+00  0.8773244328274E+00
 0.5263786373617E+00 -0.1899883025598E+01 -0.2747008817407E+00  0.7967439888659E+00
 0.8255552019551E+00 -0.1932888801083E+01 -0.2214667231256E+00  0.7113635246818E+00
 0.1162439286073E+01 -0.1982199641711E+01 -0.1639520735706E+00  0.6253067290104E+00
 0.1532673401995E+01 -0.2046766270368E+01 -0.1028185752067E+00  0.5434243847821E+00
 0.1929411279597E+01 -0.2124095710695E+01 -0.3893688679988E-01  0.4708570176675E+00
 0.2343304597184E+01 -0.2210194642596E+01  0.2662199131418E-01  0.4124159262344E+00
 0.2762836783948E+01 -0.2299750895665E+01  0.9261717903684E-01  0.3718612490760E+00
 0.3175038036299E+01 -0.2386592985426E+01  0.1576890125244E+00  0.3512245949583E+00
 0.3566549820813E+01 -0.2464398707259E+01  0.2204302259956E+00  0.3503693630872E+00
 0.3924792248176E+01 -0.2527487033963E+01  0.2794610470068E+00  0.3669640811643E+00
-0.5198741599018E+00 -0.2204996603536E+01 -0.5449741608083E+00  0.3721683102448E+00
-0.4676565516979E+00 -0.2230033140131E+01 -0.5395379464055E+00  0.4332614263102E+00
-0.4227606994760E+00 -0.2253690864719E+01 -0.5352903208154E+00  0.4930780991751E+00
-0.3850253127251E+00 -0.2275955512422E+01 -0.5321961729598E+00  0.5501381517199E+00
-0.3541676355523E+00 -0.2296822524879E+01 -0.5301980399868E+00  0.6035329579823E+00
-0.3298894586126E+00 -0.2316228376661E+01 -0.5292235749408E+00  0.6528587730552E+00
-0.3119375078341E+00 -0.2334016233252E+01 -0.5291907561028E+00  0.6981154979285E+00
-0.3001207643315E+00 -0.2349931821809E+01 -0.5300105251258E+00  0.7395946710245E+00
-0.2942966780338E+00 -0.2363638792484E+01 -0.5315871020247E+00  0.7777739254971E+00
-0.2943401363803E+00 -0.2374742299564E+01 -0.5338164951434E+00  0.8132261333335E+00
-0.3001056763141E+00 -0.2382813009400E+01 -0.5365837451385E+00  0.8465448592908E+00
-0.3113885272097E+00 -0.2387408099728E+01 -0.5397593334306E+00  0.8782839314929E+00
-0.3278861487784E+00 -0.2388089440372E+01 -0.5431951259244E+00  0.9089084335918E+00
-0.3491593988662E+00 -0.2384440954614E+01 -0.5467200788429E+00  0.9387544103397E+00
-0.3745905674244E+00 -0.2376088260552E+01 -0.5501357737930E+00  0.9679948317247E+00
-0.4033401781494E+00 -0.2362722142227E+01 -0.5532124723188E+00  0.9966153398003E+00
-0.4343004538939E+00 -0.2344127177058E+01 -0.5556855344708E+00  0.1024398094679E+01
-0.4660477385299E+00 -0.2320215759808E+01 -0.5572527079713E+00  0.1050914558535E+01
-0.4968014850568E+00 -0.2291064029399E+01 -0.5575731111997E+00  0.1075532568138E+01
-0.5243897309682E+00 -0.2256934510361E+01 -0.5562648565548E+00  0.1097440086577E+01
-0.5462220244768E+00 -0.2218260260090E+01 -0.5528964651521E+00  0.1115706446877E+01
-0.5593071673544E+00 -0.2175734048900E+01 -0.5470082514019E+00  0.1129324171424E+01
-0.5603284192140E+00 -0.2130434498072E+01 -0.5381525914763E+00  0.1137207871841E+01
-0.5457175181028E+00 -0.2083820046157E+01 -0.5259075206886E+00  0.1138210970170E+01
-0.5117262224572E+00 -0.2037660698856E+01 -0.5098773918605E+00  0.1131180169970E+01
-0.4545113292005E+00 -0.1993973799017E+01 -0.4896970329406E+00  0.1115036815530E+01
-0.3702458256022E+00 -0.1954969169079E+01 -0.4650430058659E+00  0.1088880315887E+01
-0.2552664174350E+00 -0.1922986829837E+01 -0.4356506559461E+00  0.1052113198364E+01
-0.1062693050781E+00 -0.1900409298577E+01 -0.4013357267114E+00  0.1004585830524E+01
 0.7943576341051E-01 -0.1889533329852E+01 -0.3620195186828E+00  0.9467514075213E+00
 0.3036459642003E+00 -0.1892394596777E+01 -0.3177497312502E+00  0.8798047457768E+00
 0.5670320501183E+00 -0.1910560570378E+01 -0.2687057080559E+00  0.8057758527997E+00
 0.8688367729691E+00 -0.1944899147273E+01 -0.2152124780677E+00  0.7275700687506E+00
 0.1206474575960E+01 -0.1995320103281E+01 -0.1577691078150E+00  0.6489046290755E+00
 0.1575225917205E+01 -0.2060540519478E+01 -0.9706292190100E-01  0.5740746886844E+00
 0.1968081690487E+01 -0.2137936149016E+01 -0.3397089221209E-01  0.5075498685220E+00
 0.2375816275833E+01 -0.2223546841179E+01  0.3045388738468E-01  0.4534305382520E+00
 0.2787368192863E+01 -0.2312295480647E+01  0.9501454385886E-01  0.4148403747345E+00
 0.3190529654882E+01 -0.2398436320174E+01  0.1584186693023E+00  0.3933837854240E+00
 0.3572892434481E+01 -0.2476188048978E+01  0.2193408803690E+00  0.3888173919517E+00
 0.3922834651170E+01 -0.2540409209516E+01  0.2764850924507E+00  0.3990481678705E+00
-0.5424431468586E+00 -0.2294665587222E+01 -0.5674217552713E+00  0.3817246308731E+00
-0.4900578810395E+00 -0.2319497721584E+01 -0.5619111288978E+00  0.4423685827459E+00
-0.4443531234789E+00 -0.2342920047302E+01 -0.5574546424630E+00  0.5016915183994E+00
-0.4053787252181E+00 -0.2364793326263E+01 -0.5540344185520E+00  0.5582320377820E+00
-0.3730493939169E+00 -0.2385002698553E+01 -0.5516104267136E+00  0.6110727097076E+00
-0.3472341871247E+00 -0.2403398639638E+01 -0.5501265735500E+00  0.6597842725378E+00
-0.3278085127129E+00 -0.2419766028497E+01 -0.5495149164305E+00  0.7043356069310E+00
-0.3146703167264E+00 -0.2433818338895E+01 -0.5496977393154E+00  0.7449900383837E+00
-0.3077297606129E+00 -0.2445208578505E+01 -0.5505876760279E+00  0.7822041397605E+00
-0.3068835567978E+00 -0.2453547898889E+01 -0.5520862993640E+00  0.8165379438055E+00
-0.3119826021289E+00 -0.2458425463690E+01 -0.5540816214202E+00  0.8485796419140E+00
-0.3227976211636E+00 -0.2459426706917E+01 -0.5564448739077E+00  0.8788839837634E+00
-0.3389843309857E+00 -0.2456150096446E+01 -0.5590268938164E+00  0.9079226138586E+00
-0.3600475419904E+00 -0.2448224072131E+01 -0.5616543311936E+00  0.9360440630783E+00
-0.3853018982668E+00 -0.2435326987742E+01 -0.5641257856079E+00  0.9634410061313E+00
-0.4138316024201E+00 -0.2417210606854E+01 -0.5662084502919E+00  0.9901277726417E+00
-0.4444473003333E+00 -0.2393728643748E+01 -0.5676351972748E+00  0.1015926101434E+01
-0.4756424890839E+00 -0.2364870459820E+01 -0.5681025982461E+00  0.1040459484792E+01
-0.5055567525153E+00 -0.2330795878215E+01 -0.5672705345990E+00  0.1063160789612E+01
-0.5319458297460E+00 -0.2291857052471E+01 -0.5647605848589E+00  0.1083295768388E+01
-0.5521596364112E+00 -0.2248581673907E+01 -0.5601482704105E+00  0.1100022973292E+01
-0.5631599221227E+00 -0.2201755199583E+01 -0.5529830325812E+00  0.1112431164469E+01
-0.5615925601293E+00 -0.2152540733528E+01 -0.5428266668201E+00  0.1119534999024E+01
-0.5438644702441E+00 -0.2102474587035E+01 -0.5292678193426E+00  0.1120291658233E+01
-0.5062229099544E+00 -0.2053399046605E+01 -0.5119243989402E+00  0.1113654940188E+01
-0.4448506976567E+00 -0.2007394343043E+01 -0.4904490154483E+00  0.1098653924267E+01
-0.3559891593212E+00 -0.1966715489871E+01 -0.4645409367606E+00  0.1074490423040E+01
-0.2360980755977E+00 -0.1933718624380E+01 -0.4339633464620E+00  0.1040654011175E+01
-0.8206265555575E-01 -0.1910760826548E+01 -0.3985647023598E+00  0.9970519740401E+00
 0.1085457657972E+00 -0.1900061000336E+01 -0.3583030522468E+00  0.9441445757585E+00
 0.3371912789760E+00 -0.1903519233403E+01 -0.3132655955534E+00  0.8830607734568E+00
 0.6041520681749E+00 -0.1922513809984E+01 -0.2636723522908E+00  0.8156683793810E+00
 0.9082515183089E+00 -0.1957685942464E+01 -0.2098868879586E+00  0.7445921729294E+00
 0.1246514244935E+01 -0.2008712484726E+01 -0.1524396502298E+00  0.6731370508464E+00
 0.1613933152642E+01 -0.2074118453362E+01 -0.9203706151538E-01  0.6050630071741E+00
 0.2003392625436E+01 -0.2151183000440E+01 -0.2955807544135E-01  0.5442206529046E+00
 0.2405807655913E+01 -0.2235993302675E+01  0.3396287115360E-01  0.4940802383214E+00
 0.2810533313366E+01 -0.2323687995465E+01  0.9736906503124E-01  0.4572253025521E+00
 0.3206022963035E+01 -0.2408888720659E+01  0.1594268508509E+00  0.4349197126462E+00
 0.3580674932132E+01 -0.2486269291302E+01  0.2188811314276E+00  0.4268613274988E+00
 0.3923682759328E+01 -0.2551143624162E+01  0.2745078311237E+00  0.4311959686055E+00
-0.5648503358190E+00 -0.2383776673388E+01 -0.5897254106291E+00  0.3911897914439E+00
-0.5122678895443E+00 -0.2408428135555E+01 -0.5841392137242E+00  0.4513928211255E+00
-0.4657365184651E+00 -0.2431644585110E+01 -0.5794762293500E+00  0.5101842270792E+00
-0.4255067056935E+00 -0.2453167713543E+01 -0.5757348924265E+00  0.5661242834083E+00
-0.3916831667627E+00 -0.2472775951004E+01 -0.5728918320901E+00  0.6182939917286E+00
-0.3642985943405E+00 -0.2490234813793E+01 -0.5709066901340E+00  0.6662481537573E+00
-0.3433567498435E+00 -0.2505270062843E+01 -0.5697253710268E+00  0.7099344932770E+00
-0.3288463019831E+00 -0.2517561303437E+01 -0.5692815295670E+00  0.7495968549015E+00
-0.3207327308039E+00 -0.2526749463705E+01 -0.5694964473879E+00  0.7856777590892E+00
-0.3189371926788E+00 -0.2532450972547E+01 -0.5702776415430E+00  0.8187297337744E+00
-0.3233092414173E+00 -0.2534273570905E+01 -0.5715165709806E+00  0.8493396608542E+00
-0.3335971418197E+00 -0.2531831574358E+01 -0.5730857517751E+00  0.8780665120766E+00
-0.3494169597302E+00 -0.2524760787351E+01 -0.5748355579820E+00  0.9053914795638E+00
-0.3702199559065E+00 -0.2512734540959E+01 -0.5765909079651E+00  0.9316785628109E+00
-0.3952563270212E+00 -0.2495483497663E+01 -0.5781479735519E+00  0.9571432626519E+00
-0.4235379904221E+00 -0.2472818853851E+01 -0.5792713774865E+00  0.9818318323808E+00
-0.4537988359121E+00 -0.2444660604185E+01 -0.5796918966574E+00  0.1005608810681E+01
-0.4844548919293E+00 -0.2411070842107E+01 -0.5791051554367E+00  0.1028152755741E+01
-0.5135714731633E+00 -0.2372287503237E+01 -0.5771718038805E+00  0.1048964259325E+01
-0.5388374498053E+00 -0.2328745680251E+01 -0.5735166345573E+00  0.1067388954817E+01
-0.5575478649352E+00 -0.2281060877068E+01 -0.5677217568603E+00  0.1082675311868E+01
-0.5666215528080E+00 -0.2230104736938E+01 -0.5593452662841E+00  0.1094007842772E+01
-0.5626710147816E+00 -0.2177117654827E+01 -0.5479577420869E+00  0.1100500723212E+01
-0.5420822695296E+00 -0.2123705111515E+01 -0.5331574841535E+00  0.1101214167494E+01
-0.5011013210893E+00 -0.2071771477135E+01 -0.5145745673125E+00  0.1095206922384E+01
-0.4359385407945E+00 -0.2023448811412E+01 -0.4918774777708E+00  0.1081610736545E+01
-0.3429019020996E+00 -0.1981026493564E+01 -0.4647856860585E+00  0.1059720436739E+01
-0.2185673812652E+00 -0.1946867718248E+01 -0.4330870263561E+00  0.1029097888889E+01
-0.5999478045915E-01 -0.1923298805911E+01 -0.3966587231847E+00  0.9896868312410E+00
 0.1350073768776E+00 -0.1912461514395E+01 -0.3554908328007E+00  0.9419292661416E+00
 0.3676065469007E+00 -0.1916129096897E+01 -0.3097045146143E+00  0.8868605971456E+00
 0.6377378669684E+00 -0.1935508559513E+01 -0.2595541423766E+00  0.8261607081588E+00
 0.9438662805224E+00 -0.1971041688627E+01 -0.2054350846821E+00  0.7621563615125E+00
 0.1282692977467E+01 -0.2022206782181E+01 -0.1479027631469E+00  0.6977386864224E+00
 0.1648984559300E+01 -0.2087371983237E+01 -0.8767748609393E-01  0.6361539010680E+00
 0.2035560291617E+01 -0.2163746235192E+01 -0.2563718909701E-01  0.5806808051138E+00
 0.2433481139326E+01 -0.2247470430433E+01  0.3720214233280E-01  0.5342288204937E+00
 0.2832475604534E+01 -0.2333876020732E+01  0.9971991824647E-01  0.4989202459688E+00
 0.3221565570761E+01 -0.2417897908665E+01  0.1607335348145E+00  0.4757466945516E+00
 0.3589831127313E+01 -0.2494590707541E+01  0.2190480872186E+00  0.4643849728659E+00
 0.3927154885882E+01 -0.2559649526650E+01  0.2735010759220E+00  0.4632223194044E+00
-0.5871089941317E+00 -0.2472417840350E+01 -0.6119053760145E+00  0.4005739784195E+00
-0.5342835238530E+00 -0.2496918657279E+01 -0.6062404452602E+00  0.4603450877532E+00
-0.4868916306947E+00 -0.2519964011188E+01 -0.6013711373376E+00  0.5185702861245E+00
-0.4453756275990E+00 -0.2541181614197E+01 -0.5973114572597E+00  0.5738337950467E+00
-0.4100239795896E+00 -0.2560246416153E+01 -0.5940540880007E+00  0.6252214202887E+00
-0.3810298587654E+00 -0.2576840174703E+01 -0.5915740155087E+00  0.6722808409777E+00
-0.3585249075553E+00 -0.2590629236140E+01 -0.5898308375283E+00  0.7149480472632E+00
-0.3425897687790E+00 -0.2601258393246E+01 -0.5887696411783E+00  0.7534560542750E+00
-0.3332472401867E+00 -0.2608355655324E+01 -0.5883205878688E+00  0.7882405077112E+00
-0.3304450118952E+00 -0.2611542407122E+01 -0.5883974925713E+00  0.8198520258656E+00
-0.3340332281997E+00 -0.2610445201184E+01 -0.5888956946519E+00  0.8488804586982E+00
-0.3437395552901E+00 -0.2604707781025E+01 -0.5896894760501E+00  0.8758923806719E+00
-0.3591424632370E+00 -0.2594003755609E+01 -0.5906292525702E+00  0.9013814292176E+00
-0.3796422179225E+00 -0.2578051315945E+01 -0.5915387155882E+00  0.9257297991255E+00
-0.4044278548698E+00 -0.2556632526279E+01 -0.5922120850544E+00  0.9491785435902E+00
-0.4324431073213E+00 -0.2529615972863E+01 -0.5924118248645E+00  0.9718085840024E+00
-0.4623499386083E+00 -0.2496984608771E+01 -0.5918669182954E+00  0.9935299397586E+00
-0.4924922283998E+00 -0.2458868622003E+01 -0.5902721788764E+00  0.1014078723424E+01
-0.5208665034296E+00 -0.2415578167651E+01 -0.5872889429675E+00  0.1033025417355E+01
-0.5451000234388E+00 -0.2367624366195E+01 -0.5825448866074E+00  0.1049797131876E+01
-0.5624375175252E+00 -0.2315703597184E+01 -0.5756282315193E+00  0.1063732531314E+01
-0.5697587977215E+00 -0.2260767154348E+01 -0.5661051988495E+00  0.1074111023755E+01
-0.5636466147352E+00 -0.2204125595661E+01 -0.5535544503278E+00  0.1080145368924E+01
-0.5404693050037E+00 -0.2147445150768E+01 -0.5375828991650E+00  0.1080997661149E+01
-0.4964737306385E+00 -0.2092682729308E+01 -0.5178312997055E+00  0.1075829125435E+01
-0.4278976965687E+00 -0.2042012315439E+01 -0.4939820097625E+00  0.1063869067619E+01
-0.3311119748269E+00 -0.1997748567579E+01 -0.4657721154216E+00  0.1044496381308E+01
-0.2027993322271E+00 -0.1962254998770E+01 -0.4330108726517E+00  0.1017331629366E+01
-0.4017718560876E-01 -0.1937824602640E+01 -0.3956003635447E+00  0.9823366417391E+00
 0.1587351754321E+00 -0.1926525531861E+01 -0.3535580765543E+00  0.9399130120215E+00
 0.3948457012836E+00 -0.1930015317631E+01 -0.3070339278447E+00  0.8909791040374E+00
 0.6677943842416E+00 -0.1949348787857E+01 -0.2563108845425E+00  0.8370060051793E+00
 0.9757438429209E+00 -0.1984794788887E+01 -0.2018101922005E+00  0.7800096466786E+00
 0.1315129889961E+01 -0.2035664143054E+01 -0.1441068527660E+00  0.7224689222117E+00
 0.1680542873633E+01 -0.2100197688037E+01 -0.8393096413157E-01  0.6671372103946E+00
 0.2064766358202E+01 -0.2175553728795E+01 -0.2215747444878E-01  0.6167633358806E+00
 0.2459003358748E+01 -0.2257927407139E+01  0.4021519092105E-01  0.5737543720698E+00
 0.2853310275650E+01 -0.2342818053345E+01  0.1020984459825E+00  0.5398354733734E+00
 0.3237192015397E+01 -0.2425423741741E+01  0.1623536571504E+00  0.5157798598761E+00
 0.3600299796421E+01 -0.2501114297906E+01  0.2198371029788E+00  0.5012729530590E+00
 0.3933091824699E+01 -0.2565899739810E+01  0.2734384210525E+00  0.4949460396326E+00
-0.6092321485304E+00 -0.2560674118150E+01 -0.6339812627831E+00  0.4098897345961E+00
-0.5561023692571E+00 -0.2585060279786E+01 -0.6282325391701E+00  0.4692385107616E+00
-0.5078005886753E+00 -0.2607974362655E+01 -0.6231549995518E+00  0.5268654284340E+00
-0.4649537299632E+00 -0.2628934421965E+01 -0.6187776396062E+00  0.5813804125879E+00
-0.4280289265907E+00 -0.2647514760332E+01 -0.6151087465504E+00  0.6318797595608E+00
-0.3973772268715E+00 -0.2663314643800E+01 -0.6121383832558E+00  0.6779122415157E+00
-0.3732576552479E+00 -0.2675941137198E+01 -0.6098397675766E+00  0.7194111943106E+00
-0.3558436753779E+00 -0.2685003874594E+01 -0.6081695190568E+00  0.7566073884830E+00
-0.3452168475406E+00 -0.2690117682377E+01 -0.6070669150296E+00  0.7899368946305E+00
-0.3413529585071E+00 -0.2690909001599E+01 -0.6064524010580E+00  0.8199541970905E+00
-0.3441042772559E+00 -0.2687023639057E+01 -0.6062255922961E+00  0.8472565170022E+00
-0.3531794924360E+00 -0.2678135302523E+01 -0.6062629680258E+00  0.8724214121110E+00
-0.3681214363613E+00 -0.2663955675917E+01 -0.6064154314919E+00  0.8959577103653E+00
-0.3882819353995E+00 -0.2644247444391E+01 -0.6065058849957E+00  0.9182682304125E+00
-0.4127921936589E+00 -0.2618842753656E+01 -0.6063269984980E+00  0.9396218887107E+00
-0.4405318980803E+00 -0.2587665100376E+01 -0.6056394087159E+00  0.9601365273533E+00
-0.4700959111495E+00 -0.2550756660111E+01 -0.6041705232549E+00  0.9797698021082E+00
-0.4997612251281E+00 -0.2508310718458E+01 -0.6016143976819E+00  0.9983173460229E+00
-0.5274609473865E+00 -0.2460703472607E+01 -0.5976328929042E+00  0.1015421200595E+01
-0.5507658219782E+00 -0.2408514969257E+01 -0.5918561670665E+00  0.1030591093443E+01
-0.5668746260346E+00 -0.2352515436554E+01 -0.5838780212181E+00  0.1043255786768E+01
-0.5726318031700E+00 -0.2293729271455E+01 -0.5732722234674E+00  0.1052788416100E+01
-0.5645935983006E+00 -0.2233530153207E+01 -0.5596247586406E+00  0.1058499071341E+01
-0.5391132368498E+00 -0.2173636930927E+01 -0.5425500416400E+00  0.1059650280568E+01
-0.4924395210905E+00 -0.2116050137684E+01 -0.5216979395287E+00  0.1055503136427E+01
-0.4208361030270E+00 -0.2062976850576E+01 -0.4967625981229E+00  0.1045379573376E+01
-0.3207308256031E+00 -0.2016749495728E+01 -0.4674960712324E+00  0.1028734301373E+01
-0.1889016992925E+00 -0.1979727214135E+01 -0.4337257891486E+00  0.1005234384209E+01
-0.2270469095283E-01 -0.1954169466190E+01 -0.3953748373202E+00  0.9748436312910E+00
 0.1796580759601E+00 -0.1942076675162E+01 -0.3524837250927E+00  0.9379042184463E+00
 0.4188724182688E+00 -0.1945003576193E+01 -0.3052262361330E+00  0.8951978500536E+00
 0.6943292990408E+00 -0.1963872633444E+01 -0.2539086706641E+00  0.8479701054496E+00
 0.1003940666833E+01 -0.1998805245818E+01 -0.1989729187620E+00  0.7979168613706E+00
 0.1343927732891E+01 -0.2048972787653E+01 -0.1410090130537E+00  0.7471080570670E+00
 0.1708745331598E+01 -0.2112513536609E+01 -0.8075364220551E-01  0.6978237033117E+00
 0.2091161267797E+01 -0.2186549225808E+01 -0.1907759188654E-01  0.6523187853246E+00
 0.2482509883673E+01 -0.2267325454237E+01  0.4303688652850E-01  0.6125465338980E+00
 0.2873128829757E+01 -0.2350483506954E+01  0.1045290661181E+00  0.5798864672777E+00
 0.3252926538241E+01 -0.2431438112003E+01  0.1642976876957E+00  0.5549356656269E+00
 0.3612025587995E+01 -0.2505815473115E+01  0.2212420262729E+00  0.5374112063389E+00
 0.3941356879649E+01 -0.2569880685415E+01  0.2742952429341E+00  0.5261901075915E+00
-0.6312325922923E+00 -0.2648627867888E+01 -0.6559721018109E+00  0.4191518264041E+00
-0.5777225331414E+00 -0.2672941023076E+01 -0.6501327209313E+00  0.4780882923093E+00
-0.5284466740871E+00 -0.2695768486714E+01 -0.6448430417692E+00  0.5350870005339E+00
-0.4842108280786E+00 -0.2716522238600E+01 -0.6401466228747E+00  0.5887849025298E+00
-0.4456568854357E+00 -0.2734678341726E+01 -0.6360670549104E+00  0.6382939434484E+00
-0.4132917817693E+00 -0.2749754832424E+01 -0.6326093322652E+00  0.6831717611161E+00
-0.3875014884347E+00 -0.2761299978495E+01 -0.6297603027701E+00  0.7233578732194E+00
-0.3685528073421E+00 -0.2768888454641E+01 -0.6274882617469E+00  0.7590893532322E+00
-0.3565869877790E+00 -0.2772122204119E+01 -0.6257418477038E+00  0.7908100875799E+00
-0.3516089432179E+00 -0.2770633273073E+01 -0.6244484525632E+00  0.8190843157870E+00
-0.3534741654936E+00 -0.2764087425107E+01 -0.6235123274112E+00  0.8445210784041E+00
-0.3618736943572E+00 -0.2752188922182E+01 -0.6228125325886E+00  0.8677122200883E+00
-0.3763165299247E+00 -0.2734687662610E+01 -0.6222008477785E+00  0.8891842893677E+00
-0.3961085664475E+00 -0.2711390189466E+01 -0.6214997604438E+00  0.9093628162868E+00
-0.4203265132910E+00 -0.2682177055219E+01 -0.6205007229482E+00  0.9285464545056E+00
-0.4477901635966E+00 -0.2647023803194E+01 -0.6189628025813E+00  0.9468917253182E+00
-0.4770320928393E+00 -0.2606027726349E+01 -0.6166119730259E+00  0.9644055639524E+00
-0.5062676118004E+00 -0.2559439889145E+01 -0.6131415093256E+00  0.9809445903403E+00
-0.5333716737537E+00 -0.2507696100638E+01 -0.6082135639415E+00  0.9962236065009E+00
-0.5558634501041E+00 -0.2451438067242E+01 -0.6014603124318E+00  0.1009835679952E+01
-0.5708999438383E+00 -0.2391502767356E+01 -0.5924805510675E+00  0.1021299244826E+01
-0.5752936599704E+00 -0.2328981157291E+01 -0.5808549721077E+00  0.1030079738946E+01
-0.5655772379303E+00 -0.2265303091440E+01 -0.5661760743108E+00  0.1035583090252E+01
-0.5380907841509E+00 -0.2202232190407E+01 -0.5480646030783E+00  0.1037170641247E+01
-0.4890852185969E+00 -0.2141804274205E+01 -0.5261779064011E+00  0.1034200764415E+01
-0.4148471841248E+00 -0.2086251646835E+01 -0.5002197736457E+00  0.1026083476297E+01
-0.3118542683668E+00 -0.2037918379405E+01 -0.4699545365572E+00  0.1012341961889E+01
-0.1769663976560E+00 -0.1999156319141E+01 -0.4352245498448E+00  0.9926791728045E+00
-0.7657353977436E-02 -0.1972193173612E+01 -0.3959701114183E+00  0.9670471265040E+00
 0.1977169412909E+00 -0.1958969407563E+01 -0.3522504985033E+00  0.9357126266863E+00
 0.4396575039524E+00 -0.1960951261322E+01 -0.3042587560078E+00  0.8993046276616E+00
 0.7173505993817E+00 -0.1978949035163E+01 -0.2523196909162E+00  0.8588300128824E+00
 0.1028505175587E+01 -0.2012961110541E+01 -0.1968911899248E+00  0.8156580861226E+00
 0.1369172442522E+01 -0.2062044724201E+01 -0.1385744584007E+00  0.7714538984297E+00
 0.1733704864884E+01 -0.2124256312644E+01 -0.7811029071587E-01  0.7280413652293E+00
 0.2114867039346E+01 -0.2196690756961E+01 -0.1636474376679E-01  0.6872119496803E+00
 0.2504108979446E+01 -0.2275637178652E+01  0.4569436083975E-01  0.6505044069534E+00
 0.2892002595057E+01 -0.2356852521149E+01  0.1070300163765E+00  0.6189933245237E+00
 0.3268785310209E+01 -0.2435924684052E+01  0.1665721277136E+00  0.5931323084925E+00
 0.3624959789244E+01 -0.2508682705898E+01  0.2232554199961E+00  0.5726874944125E+00
 0.3951835523753E+01 -0.2571592253638E+01  0.2760486581364E+00  0.5567819919467E+00
-0.6531228955707E+00 -0.2736359050752E+01 -0.6778963993660E+00  0.4283771278475E+00
-0.5991425408038E+00 -0.2760646230451E+01 -0.6719577642639E+00  0.4869116105935E+00
-0.5488141100904E+00 -0.2783436336657E+01 -0.6664500992804E+00  0.5432538985232E+00
-0.5031180381238E+00 -0.2804038126616E+01 -0.6614312428040E+00  0.5960689273920E+00
-0.4628682361846E+00 -0.2821831379597E+01 -0.6569399329454E+00  0.6444890605467E+00
-0.4287262049414E+00 -0.2836254104930E+01 -0.6529960717047E+00  0.6880882784762E+00
-0.4012045592112E+00 -0.2846796554089E+01 -0.6496002323399E+00  0.7268209785722E+00
-0.3806636785704E+00 -0.2852999155334E+01 -0.6467325764179E+00  0.7609390888411E+00
-0.3673049272917E+00 -0.2854451833697E+01 -0.6443513617994E+00  0.7909017767200E+00
-0.3611628269196E+00 -0.2850793268611E+01 -0.6423912286784E+00  0.8172889830965E+00
-0.3620967150631E+00 -0.2841710193355E+01 -0.6407613912317E+00  0.8407259870056E+00
-0.3697809691371E+00 -0.2826938126655E+01 -0.6393438286853E+00  0.8618220723502E+00
-0.3836923610455E+00 -0.2806265249588E+01 -0.6379915316335E+00  0.8811237607701E+00
-0.4030932712170E+00 -0.2779541113136E+01 -0.6365268863556E+00  0.8990809964310E+00
-0.4270092288866E+00 -0.2746692698675E+01 -0.6347403949706E+00  0.9160235839832E+00
-0.4542042851358E+00 -0.2707744393119E+01 -0.6323897450743E+00  0.9321479840316E+00
-0.4831535274743E+00 -0.2662844171041E+01 -0.6291995490788E+00  0.9475115522429E+00
-0.5120157421468E+00 -0.2612295267600E+01 -0.6248622112605E+00  0.9620328827581E+00
-0.5386129026548E+00 -0.2556586447209E+01 -0.6190398791971E+00  0.9755003004090E+00
-0.5604174154569E+00 -0.2496413664474E+01 -0.6113662250962E+00  0.9875905529765E+00
-0.5745485219844E+00 -0.2432673490935E+01 -0.6014444115460E+00  0.9979110329505E+00
-0.5777900193173E+00 -0.2366516908765E+01 -0.5888613943911E+00  0.1006017848630E+01
-0.5666535417494E+00 -0.2299423094899E+01 -0.5732153358712E+00  0.1011411107667E+01
-0.5374675730892E+00 -0.2233192848994E+01 -0.5541320926739E+00  0.1013549279745E+01
-0.4864845635275E+00 -0.2169889452834E+01 -0.5312748111889E+00  0.1011885592485E+01
-0.4100102279603E+00 -0.2111763408546E+01 -0.5043547348167E+00  0.1005914147507E+01
-0.3045632514115E+00 -0.2061165496324E+01 -0.4731457565975E+00  0.9952203464033E+00
-0.1670707034915E+00 -0.2020438835161E+01 -0.4375019142498E+00  0.9795341402694E+00
 0.4897864672641E-02 -0.1991782796765E+01 -0.3973769923399E+00  0.9587843780726E+00
 0.2128625609427E+00 -0.1977087172243E+01 -0.3528449275179E+00  0.9331494911284E+00
 0.4571767341425E+00 -0.1977745040837E+01 -0.3041136658706E+00  0.9030928091594E+00
 0.7368646308441E+00 -0.1994474915622E+01 -0.2515220607036E+00  0.8693723089806E+00
 0.1049476448125E+01 -0.2027175574273E+01 -0.1955398281434E+00  0.8330261795590E+00
 0.1390932902078E+01 -0.2074813110639E+01 -0.1367760437505E+00  0.7953186837136E+00
 0.1755511179940E+01 -0.2135379578477E+01 -0.7597368083952E-01  0.7576321982560E+00
 0.2135979564003E+01 -0.2205949375782E+01 -0.1399396256426E-01  0.7213191802224E+00
 0.2523884560701E+01 -0.2282845975528E+01  0.4820771775301E-01  0.6875348953622E+00
 0.2909985448015E+01 -0.2361915667320E+01  0.1096139577723E+00  0.6570803036851E+00
 0.3284778164534E+01 -0.2438878561706E+01  0.1691799230864E+00  0.6302900811243E+00
 0.3639060880675E+01 -0.2509717157372E+01  0.2258687480264E+00  0.6069919307089E+00
 0.3964434806423E+01 -0.2571047568511E+01  0.2786774517351E+00  0.5865540300703E+00
-0.6749154176156E+00 -0.2823945493775E+01 -0.6997721927056E+00  0.4375845187188E+00
-0.6203612398114E+00 -0.2848258861932E+01 -0.6937240306859E+00  0.4957275313416E+00
-0.5688878609554E+00 -0.2871065268516E+01 -0.6879906361461E+00  0.5513865000087E+00
-0.5216475103022E+00 -0.2891572370193E+01 -0.6826439862712E+00  0.6032549947957E+00
-0.4796245816184E+00 -0.2909065140743E+01 -0.6777379545713E+00  0.6504903059054E+00
-0.4436345318610E+00 -0.2922902666389E+01 -0.6733074496831E+00  0.6926900813245E+00
-0.4143164960530E+00 -0.2932518225343E+01 -0.6693669542536E+00  0.7298322677002E+00
-0.3921244215806E+00 -0.2937419213713E+01 -0.6659087369814E+00  0.7621922550242E+00
-0.3773197125524E+00 -0.2937184983108E+01 -0.6629009490102E+00  0.7902520250526E+00
-0.3699664043326E+00 -0.2931462390971E+01 -0.6602857688997E+00  0.8146131748974E+00
-0.3699277848859E+00 -0.2919960513777E+01 -0.6579776695372E+00  0.8359215421015E+00
-0.3768621658898E+00 -0.2902446997003E+01 -0.6558618423517E+00  0.8548067779356E+00
-0.3902154497147E+00 -0.2878748355200E+01 -0.6537927707253E+00  0.8718372894688E+00
-0.4092087981419E+00 -0.2848756132516E+01 -0.6515929958410E+00  0.8874887079565E+00
-0.4328198311544E+00 -0.2812441501850E+01 -0.6490522762724E+00  0.9021229179377E+00
-0.4597609996182E+00 -0.2769874189273E+01 -0.6459270474034E+00  0.9159770750009E+00
-0.4884546890777E+00 -0.2721248116993E+01 -0.6419405707799E+00  0.9291596027704E+00
-0.5170082789938E+00 -0.2666912820670E+01 -0.6367842294215E+00  0.9416515966937E+00
-0.5431958617946E+00 -0.2607403159400E+01 -0.6301198136284E+00  0.9533152537030E+00
-0.5644477715621E+00 -0.2543461794562E+01 -0.6215819224871E+00  0.9639109925652E+00
-0.5778493599845E+00 -0.2476037682103E+01 -0.6107774175188E+00  0.9731342001996E+00
-0.5801587803971E+00 -0.2406335307162E+01 -0.5972988264122E+00  0.9806298608050E+00
-0.5678690174786E+00 -0.2335876398216E+01 -0.5807490917928E+00  0.9859904989641E+00
-0.5372980289427E+00 -0.2266491557728E+01 -0.5607579256900E+00  0.9887700451063E+00
-0.4846985938361E+00 -0.2200264130895E+01 -0.5369925529481E+00  0.9885144374614E+00
-0.4063907312958E+00 -0.2139456482234E+01 -0.5091694502932E+00  0.9847985529340E+00
-0.2989245279854E+00 -0.2086422139386E+01 -0.4770693405831E+00  0.9772649732909E+00
-0.1592782914408E+00 -0.2043495266965E+01 -0.4405547182459E+00  0.9656635930963E+00
 0.1490570662237E-01 -0.2012851628415E+01 -0.3995891903128E+00  0.9498911404571E+00
 0.2250539886969E+00 -0.1996340811592E+01 -0.3542573698578E+00  0.9300275265779E+00
 0.4714091136407E+00 -0.1995298838254E+01 -0.3047779494641E+00  0.9063605240790E+00
 0.7528745658760E+00 -0.2010372875230E+01 -0.2514996656184E+00  0.8793915148227E+00
 0.1066883244856E+01 -0.2041384625799E+01 -0.1949002790929E+00  0.8498244259052E+00
 0.1409260840528E+01 -0.2087230160415E+01 -0.1355938659980E+00  0.8185262941652E+00
 0.1774231689045E+01 -0.2145852070587E+01 -0.7432407741589E-01  0.7864494460201E+00
 0.2154570443163E+01 -0.2214308141444E+01 -0.1194753983421E-01  0.7545261334882E+00
 0.2541898477295E+01 -0.2288945485559E+01  0.5059059910098E-01  0.7235513837025E+00
 0.2927115883922E+01 -0.2365673609237E+01  0.1122884566103E+00  0.6940755050075E+00
 0.3300909901472E+01 -0.2440305924649E+01  0.1721207979294E+00  0.6663317341862E+00
 0.3654294860650E+01 -0.2508932284436E+01  0.2290725186564E+00  0.6402175401164E+00
 0.3979082678277E+01 -0.2568272670576E+01  0.2821620057448E+00  0.6153438486270E+00
-0.6966223223766E+00 -0.2911463158808E+01 -0.7216171069899E+00  0.4467947983151E+00
-0.6413777100406E+00 -0.2935859791270E+01 -0.7154475109231E+00  0.5045569296977E+00
-0.5886534379327E+00 -0.2958740343914E+01 -0.7094787669413E+00  0.5595065944106E+00
-0.5397721650671E+00 -0.2979212747132E+01 -0.7037969929272E+00  0.6103663895202E+00
-0.4958884653316E+00 -0.2996468142425E+01 -0.6984713319593E+00  0.6563229028410E+00
-0.4579719006012E+00 -0.3009787670425E+01 -0.6935519245400E+00  0.6970047662244E+00
-0.4267882146767E+00 -0.3018548927189E+01 -0.6890674386410E+00  0.7324222328245E+00
-0.4028846705846E+00 -0.3022227999718E+01 -0.6850225442682E+00  0.7628828787270E+00
-0.3865821163748E+00 -0.3020395719947E+01 -0.6813955774180E+00  0.7888991036341E+00
-0.3779733921530E+00 -0.3012709228802E+01 -0.6781365342960E+00  0.8111000815999E+00
-0.3769252744829E+00 -0.2998901731032E+01 -0.6751654111638E+00  0.8301563621877E+00
-0.3830801691349E+00 -0.2978774087038E+01 -0.6723708612537E+00  0.8467205952356E+00
-0.3958541836037E+00 -0.2952191224653E+01 -0.6696090916292E+00  0.8613845817118E+00
-0.4144294060198E+00 -0.2919085543095E+01 -0.6667029997575E+00  0.8746504368598E+00
-0.4377387597920E+00 -0.2879469945885E+01 -0.6634417510214E+00  0.8869125428923E+00
-0.4644472246437E+00 -0.2833455723566E+01 -0.6595805994706E+00  0.8984489940914E+00
-0.4929292635411E+00 -0.2781277740662E+01 -0.6548414105985E+00  0.9094194433156E+00
-0.5212459407705E+00 -0.2723325723956E+01 -0.6489143426149E+00  0.9198675715530E+00
-0.5471285086971E+00 -0.2660173580606E+01 -0.6414604274190E+00  0.9297294082234E+00
-0.5679698297525E+00 -0.2592603018557E+01 -0.6321145790811E+00  0.9388487134759E+00
-0.5808251256464E+00 -0.2521608120566E+01 -0.6204866584885E+00  0.9470076867092E+00
-0.5824298424681E+00 -0.2448440357139E+01 -0.6061740489541E+00  0.9539382673878E+00
-0.5692604894153E+00 -0.2374657299020E+01 -0.5887835664606E+00  0.9593235800420E+00
-0.5376253003146E+00 -0.2302112141137E+01 -0.5679474967534E+00  0.9628114415972E+00
-0.4837757277615E+00 -0.2232901223256E+01 -0.5433353982998E+00  0.9640387300934E+00
-0.4040406962850E+00 -0.2169292973196E+01 -0.5146667415654E+00  0.9626585842090E+00
-0.2949912170917E+00 -0.2113640459191E+01 -0.4817263424349E+00  0.9583670599768E+00
-0.1536400879800E+00 -0.2068269599246E+01 -0.4443819440670E+00  0.9509288523605E+00
 0.2232148411201E-01 -0.2035338283448E+01 -0.4026033658665E+00  0.9402020558682E+00
 0.2342572115492E+00 -0.2016667268583E+01 -0.3564820167188E+00  0.9261606763198E+00
 0.4823355032687E+00 -0.2013552194816E+01 -0.3062433428729E+00  0.9089097138443E+00
 0.7653792196027E+00 -0.2026589349791E+01 -0.2522420297963E+00  0.8886884292021E+00
 0.1080743279511E+01 -0.2055545201528E+01 -0.1949603873086E+00  0.8658642884486E+00
 0.1424190791435E+01 -0.2099265502476E+01 -0.1350149442200E+00  0.8409097065353E+00
 0.1789912253155E+01 -0.2155656440514E+01 -0.7314883856190E-01  0.8143551465419E+00
 0.2170688391122E+01 -0.2221761292627E+01 -0.1021458045322E-01  0.7867258536392E+00
 0.2558192214515E+01 -0.2293939100607E+01  0.5285062356898E-01  0.7584726509634E+00
 0.2943418525602E+01 -0.2368136741955E+01  0.1150563584438E+00  0.7299106454412E+00
 0.3317181197020E+01 -0.2440223645571E+01  0.1753915129033E+00  0.7011828470070E+00
 0.3670635366995E+01 -0.2506353420162E+01  0.2328563928363E+00  0.6722608283617E+00
 0.3995727192363E+01 -0.2563306125242E+01  0.2864842176932E+00  0.6429948046857E+00
-0.7182555957792E+00 -0.2998986419763E+01 -0.7434484141867E+00  0.4560306127314E+00
-0.6621911751206E+00 -0.3023528110655E+01 -0.7371438681394E+00  0.5134224216660E+00
-0.6080967044499E+00 -0.3046544641270E+01 -0.7309282800357E+00  0.5676373112843E+00
-0.5574654250200E+00 -0.3067044810590E+01 -0.7249020579240E+00  0.6174270885183E+00
-0.5116230816446E+00 -0.3084126366045E+01 -0.7191499002541E+00  0.6620119944391E+00
-0.4716942901347E+00 -0.3096993336912E+01 -0.7137375360449E+00  0.7010591008426E+00
-0.4385717194148E+00 -0.3104969180818E+01 -0.7087081906072E+00  0.7346199360573E+00
-0.4128954389134E+00 -0.3107500934685E+01 -0.7040792852113E+00  0.7630431718750E+00
-0.3950445845657E+00 -0.3104153617591E+01 -0.6998396508598E+00  0.7868793080411E+00
-0.3851394247893E+00 -0.3094597372253E+01 -0.6959473697789E+00  0.8067909421963E+00
-0.3830491428931E+00 -0.3078591780232E+01 -0.6923281949415E+00  0.8234772557862E+00
-0.3883999156049E+00 -0.3055972269984E+01 -0.6888744473828E+00  0.8376161576281E+00
-0.4005788123084E+00 -0.3026642331465E+01 -0.6854442389685E+00  0.8498238819372E+00
-0.4187308221532E+00 -0.2990573991054E+01 -0.6818609728020E+00  0.8606293008847E+00
-0.4417473191862E+00 -0.2947819226815E+01 -0.6779133193019E+00  0.8704591734591E+00
-0.4682499316534E+00 -0.2898526873289E+01 -0.6733553710222E+00  0.8796322557207E+00
-0.4965699838108E+00 -0.2842967482140E+01 -0.6679075031427E+00  0.8883591109823E+00
-0.5247273063979E+00 -0.2781564641473E+01 -0.6612583994276E+00  0.8967456633295E+00
-0.5504153151811E+00 -0.2714924088809E+01 -0.6530678905296E+00  0.9048013683341E+00
-0.5709939353297E+00 -0.2643858807672E+01 -0.6429705581814E+00  0.9124527033606E+00
-0.5834919379601E+00 -0.2569400700642E+01 -0.6305785371168E+00  0.9195673071323E+00
-0.5846249138523E+00 -0.2492841701921E+01 -0.6154933323262E+00  0.9259620563585E+00
-0.5708549590429E+00 -0.2415768551073E+01 -0.5973247109240E+00  0.9314088421584E+00
-0.5384812042029E+00 -0.2340049932488E+01 -0.5757062359169E+00  0.9356479391273E+00
-0.4837518328934E+00 -0.2267788334110E+01 -0.5503080416010E+00  0.9384058379097E+00
-0.4029988660786E+00 -0.2201252819376E+01 -0.5208503448521E+00  0.9394123034012E+00
-0.2928032432813E+00 -0.2142793321152E+01 -0.4871193201452E+00  0.9384145716102E+00
-0.1501949355012E+00 -0.2094728883016E+01 -0.4489847703938E+00  0.9351889674647E+00
 0.2711020535199E-01 -0.2059205979703E+01 -0.4064191609263E+00  0.9295508888984E+00
 0.2404441281095E+00 -0.2038028563014E+01 -0.3595168923380E+00  0.9213637444527E+00
 0.4899375739302E+00 -0.2032468992397E+01 -0.3085062882906E+00  0.9105450950414E+00
 0.7743721547377E+00 -0.2043093186793E+01 -0.2537442101922E+00  0.8970684509249E+00
 0.1091062672068E+01 -0.2069633765220E+01 -0.1957142215467E+00  0.8809632433082E+00
 0.1435740056220E+01 -0.2110904923689E+01 -0.1350329755060E+00  0.8623086181496E+00
 0.1802577711283E+01 -0.2164788277017E+01 -0.7244211422626E-01  0.8412179154977E+00
 0.2184360222306E+01 -0.2228313574346E+01 -0.8790670538971E-02  0.8178170770531E+00
 0.2572788065346E+01 -0.2297839512755E+01  0.5498971133761E-01  0.7922219315544E+00
 0.2958905128293E+01 -0.2369324821515E+01  0.1179160631126E+00  0.7645208810860E+00
 0.3333589146454E+01 -0.2438658892448E+01  0.1789860534681E+00  0.7347721835228E+00
 0.3688063587926E+01 -0.2502017330147E+01  0.2372092550906E+00  0.7030223306741E+00
 0.4014335692841E+01 -0.2556198552512E+01  0.2916274324114E+00  0.6693563792437E+00
-0.7398270654067E+00 -0.3086588354498E+01 -0.7652830953845E+00  0.4653163965298E+00
-0.6828009131559E+00 -0.3111341451720E+01 -0.7588284842825E+00  0.5223483059704E+00
-0.6272036765044E+00 -0.3134559584944E+01 -0.7523526635005E+00  0.5758030479190E+00
-0.5747009380109E+00 -0.3155152189788E+01 -0.7459706366756E+00  0.6244616601155E+00
-0.5267919743837E+00 -0.3172123489222E+01 -0.7397831037447E+00  0.6675825054554E+00
-0.4847582480280E+00 -0.3184601085320E+01 -0.7338718776051E+00  0.7048788485366E+00
-0.4496198975964E+00 -0.3191856117229E+01 -0.7282952138175E+00  0.7364528062241E+00
-0.4221089954390E+00 -0.3193309414542E+01 -0.7230836927710E+00  0.7627033172856E+00
-0.4026611888182E+00 -0.3188523603392E+01 -0.7182369691446E+00  0.7842267538155E+00
-0.3914220638301E+00 -0.3177185219834E+01 -0.7137214673681E+00  0.8017248698489E+00
-0.3882614484632E+00 -0.3159082987182E+01 -0.7094688977009E+00  0.8159290958472E+00
-0.3927884385167E+00 -0.3134088562523E+01 -0.7053754107188E+00  0.8275444127531E+00
-0.4043614751511E+00 -0.3102144248564E+01 -0.7013011551932E+00  0.8372119906445E+00
-0.4220902397477E+00 -0.3063260406546E+01 -0.6970701396459E+00  0.8454871579991E+00
-0.4448276387558E+00 -0.3017525258498E+01 -0.6924705897693E+00  0.8528283622969E+00
-0.4711560688456E+00 -0.2965120934636E+01 -0.6872554109373E+00  0.8595942144336E+00
-0.4993685196210E+00 -0.2906348185171E+01 -0.6811433511083E+00  0.8660453949641E+00
-0.5274486789880E+00 -0.2841657924378E+01 -0.6738213307139E+00  0.8723493173448E+00
-0.5530571138354E+00 -0.2771680343634E+01 -0.6649475014023E+00  0.8785881106836E+00
-0.5735253068366E+00 -0.2697251826093E+01 -0.6541554363336E+00  0.8847700729633E+00
-0.5858592106651E+00 -0.2619434735264E+01 -0.6410587987383E+00  0.8908467388364E+00
-0.5867573737684E+00 -0.2539554931443E+01 -0.6252624703595E+00  0.8967178269349E+00
-0.5726695030699E+00 -0.2459221655570E+01 -0.6063782407638E+00  0.9022421699610E+00
-0.5398861832807E+00 -0.2380312021551E+01 -0.5840396496692E+00  0.9072512513225E+00
-0.4846502706148E+00 -0.2304927927780E+01 -0.5579156479925E+00  0.9115603368297E+00
-0.4032908867099E+00 -0.2235333845592E+01 -0.5277249543242E+00  0.9149751152601E+00
-0.2923876429474E+00 -0.2173874200749E+01 -0.4932523760892E+00  0.9172931763186E+00
-0.1489700575335E+00 -0.2122862933568E+01 -0.4543666049910E+00  0.9183013205105E+00
 0.2924595993555E-01 -0.2084442014605E+01 -0.4110392170588E+00  0.9177706471891E+00
 0.2435918295121E+00 -0.2060411048954E+01 -0.3633638493029E+00  0.9154519278740E+00
 0.4941970690702E+00 -0.2052036529883E+01 -0.3115678968052E+00  0.9110730589559E+00
 0.7798410472317E+00 -0.2059874617592E+01 -0.2560067178868E+00  0.9043398964340E+00
 0.1097835551914E+01 -0.2083645281567E+01 -0.1971619488686E+00  0.8949426810252E+00
 0.1443908650915E+01 -0.2122149452451E+01 -0.1356481623285E+00  0.8825672072957E+00
 0.1812232199484E+01 -0.2173255374821E+01 -0.7220463614332E-01  0.8669109033959E+00
 0.2195591457858E+01 -0.2233979701038E+01 -0.7677648750483E-02  0.8477027021055E+00
 0.2585689832457E+01 -0.2300668309732E+01  0.5700430539449E-01  0.8247260881098E+00
 0.2973575137894E+01 -0.2369266595631E+01  0.1208617102537E+00  0.7978446735674E+00
 0.3350127475980E+01 -0.2435648721089E+01  0.1828957537035E+00  0.7670320483310E+00
 0.3706568000653E+01 -0.2495971743770E+01  0.2421192549846E+00  0.7324071420028E+00
 0.4034893987035E+01 -0.2547012106182E+01  0.2975763806047E+00  0.6942845457704E+00
-0.7613484224345E+00 -0.3174341057079E+01 -0.7871379076319E+00  0.4746783291058E+00
-0.7032061636170E+00 -0.3199376328678E+01 -0.7805165100895E+00  0.5313605166519E+00
-0.6459603126660E+00 -0.3222865297390E+01 -0.7737651335413E+00  0.5840293961910E+00
-0.5914522850953E+00 -0.3243616912570E+01 -0.7670138509624E+00  0.6314951466859E+00
-0.5413587193972E+00 -0.3260541135851E+01 -0.7603799823802E+00  0.6730589729995E+00
-0.4971206049210E+00 -0.3272689679676E+01 -0.7539620681544E+00  0.7084885528172E+00
-0.4598863071289E+00 -0.3279283504510E+01 -0.7478339734713E+00  0.7379463945504E+00
-0.4304787424281E+00 -0.3279720728612E+01 -0.7420399052652E+00  0.7618912196366E+00
-0.4093875895495E+00 -0.3273565794929E+01 -0.7365906878718E+00  0.7809731478910E+00
-0.3967808252595E+00 -0.3260525766667E+01 -0.7314613292849E+00  0.7959386661851E+00
-0.3925264131270E+00 -0.3240421843880E+01 -0.7265896622284E+00  0.8075546949688E+00
-0.3962149421196E+00 -0.3213163917916E+01 -0.7218757827639E+00  0.8165545725931E+00
-0.4071762643711E+00 -0.3178733481645E+01 -0.7171819598901E+00  0.8236043002743E+00
-0.4244863554125E+00 -0.3137177891481E+01 -0.7123328599934E+00  0.8292847372414E+00
-0.4469626778931E+00 -0.3088618621285E+01 -0.7071162703724E+00  0.8340847342495E+00
-0.4731525330507E+00 -0.3033266632358E+01 -0.7012838435317E+00  0.8384014103899E+00
-0.5013154203826E+00 -0.2971447163139E+01 -0.6945525270540E+00  0.8425443013805E+00
-0.5294040064830E+00 -0.2903631725474E+01 -0.6866071566226E+00  0.8467411600924E+00
-0.5550510041991E+00 -0.2830467439600E+01 -0.6771036988495E+00  0.8511457092808E+00
-0.5755639356757E+00 -0.2752806112148E+01 -0.6656740194841E+00  0.8558469171007E+00
-0.5879295531282E+00 -0.2671733153545E+01 -0.6519325510491E+00  0.8608785154529E+00
-0.5888321828558E+00 -0.2588601783958E+01 -0.6354868028322E+00  0.8662209033963E+00
-0.5747112037885E+00 -0.2505037052647E+01 -0.6159496604655E+00  0.8718180496931E+00
-0.5418492692739E+00 -0.2422917418782E+01 -0.5929533464468E+00  0.8775915931009E+00
-0.4864819090507E+00 -0.2344337444328E+01 -0.5661638791122E+00  0.8834452493247E+00
-0.4049293883778E+00 -0.2271551805559E+01 -0.5352962467638E+00  0.8892608914475E+00
-0.2937587316582E+00 -0.2206897125064E+01 -0.5001311787969E+00  0.8948871380642E+00
-0.1499813232407E+00 -0.2152684146965E+01 -0.4605331009036E+00  0.9001221571976E+00
 0.2871155991921E-01 -0.2111057440726E+01 -0.4164691823672E+00  0.9046936251737E+00
 0.2436821697894E+00 -0.2083824949551E+01 -0.3680285614363E+00  0.9082402800569E+00
 0.4950953528803E+00 -0.2072264939558E+01 -0.3154339220359E+00  0.9103005268593E+00
 0.7817672823116E+00 -0.2076944601545E+01 -0.2590354677067E+00  0.9103123117075E+00
 0.1101043778941E+01 -0.2097592551458E+01 -0.1993097574734E+00  0.9076258490079E+00
 0.1448679211462E+01 -0.2133014749137E+01 -0.1368671095745E+00  0.9015319763726E+00
 0.1818859251559E+01 -0.2181077221983E+01 -0.7244359516441E-01  0.8913098570699E+00
 0.2204366565149E+01 -0.2238783941274E+01 -0.6883475327608E-02  0.8762883537781E+00
 0.2596883088640E+01 -0.2302455615191E+01  0.5888549556731E-01  0.8559148423339E+00
 0.2987415830742E+01 -0.2367999439138E+01  0.1238832801668E+00  0.8298236705187E+00
 0.3366786442773E+01 -0.2431239659170E+01  0.1871093595087E+00  0.7978986262432E+00
 0.3726143949213E+01 -0.2488274866282E+01  0.2475738202752E+00  0.7603254156831E+00
 0.4057405529109E+01 -0.2535819901231E+01  0.3043171301104E+00  0.7176420891965E+00
-0.7828312458068E+00 -0.3262315976644E+01 -0.8090294565456E+00  0.4841443064882E+00
-0.7234060274132E+00 -0.3287708510612E+01 -0.8022229195592E+00  0.5404865869836E+00
-0.6643522881434E+00 -0.3311540981159E+01 -0.7951786657096E+00  0.5923430684669E+00
-0.6076926670178E+00 -0.3332519754973E+01 -0.7880424961409E+00  0.6385529293889E+00
-0.5552865857686E+00 -0.3349459146413E+01 -0.7809491580733E+00  0.6784653433643E+00
-0.5087381734496E+00 -0.3361335384126E+01 -0.7740147230489E+00  0.7119112782291E+00
-0.4693249579342E+00 -0.3367321775128E+01 -0.7673293580465E+00  0.7391240855209E+00
-0.4379590978455E+00 -0.3366797968681E+01 -0.7609514246443E+00  0.7606322180462E+00
-0.4151810130068E+00 -0.3359335318675E+01 -0.7549032775853E+00  0.7771475329861E+00
-0.4011772290196E+00 -0.3344666369091E+01 -0.7491687307855E+00  0.7894666216171E+00
-0.3958105153099E+00 -0.3322648755373E+01 -0.7436918652185E+00  0.7983946788235E+00
-0.3986509097868E+00 -0.3293232985577E+01 -0.7383767900755E+00  0.8046940715364E+00
-0.4089993259737E+00 -0.3256440263391E+01 -0.7330879287967E+00  0.8090548458650E+00
-0.4258994480665E+00 -0.3212353561472E+01 -0.7276506127505E+00  0.8120817882189E+00
-0.4481362759599E+00 -0.3161124456960E+01 -0.7218521573404E+00  0.8142922404884E+00
-0.4742261903366E+00 -0.3102988066801E+01 -0.7154428620885E+00  0.8161199342121E+00
-0.5024001104799E+00 -0.3038288192921E+01 -0.7081376712323E+00  0.8179215353976E+00
-0.5305848581218E+00 -0.2967510031904E+01 -0.6996189884304E+00  0.8199836053861E+00
-0.5563903172551E+00 -0.2891309968514E+01 -0.6895400674288E+00  0.8225300714160E+00
-0.5771045444162E+00 -0.2810547161198E+01 -0.6775303512187E+00  0.8257291828075E+00
-0.5896987265391E+00 -0.2726322595709E+01 -0.6632042743321E+00  0.8296950237416E+00
-0.5908458399110E+00 -0.2640010245467E+01 -0.6461712267043E+00  0.8344864480370E+00
-0.5769771086343E+00 -0.2553244218160E+01 -0.6260442746877E+00  0.8401307716843E+00
-0.5443680485807E+00 -0.2467897141804E+01 -0.6024530470542E+00  0.8466389266933E+00
-0.4892451000083E+00 -0.2386049366785E+01 -0.5750589019277E+00  0.8540032640328E+00
-0.4079139813404E+00 -0.2309940419191E+01 -0.5435708882062E+00  0.8621830683153E+00
-0.2969181282999E+00 -0.2241896668215E+01 -0.5077629668691E+00  0.8710801750661E+00
-0.1532333088199E+00 -0.2184227441705E+01 -0.4674921570711E+00  0.8805070768498E+00
 0.2549843549960E-01 -0.2139086944319E+01 -0.4227177080628E+00  0.8901514043343E+00
 0.2407016197397E+00 -0.2108304168740E+01 -0.3735205153660E+00  0.8995431350564E+00
 0.4926132328086E+00 -0.2093186937016E+01 -0.3201147456115E+00  0.9080337773336E+00
 0.7801257652271E+00 -0.2094334529164E+01 -0.2628417567040E+00  0.9147947758216E+00
 0.1100656766333E+01 -0.2111505891194E+01 -0.2021698279847E+00  0.9188358094915E+00
 0.1450016846373E+01 -0.2143530784858E+01 -0.1387027897637E+00  0.9190496314778E+00
 0.1822421681111E+01 -0.2188284691885E+01 -0.7317260324524E-01  0.9142912269687E+00
 0.2210648842556E+01 -0.2242759818378E+01 -0.6422195260066E-02  0.9034809865199E+00
 0.2606335016066E+01 -0.2303239775564E+01  0.6061904900368E-01  0.8857200227469E+00
 0.3000402054965E+01 -0.2365568998313E+01  0.1269666132222E+00  0.8604025788399E+00
 0.3383552438237E+01 -0.2425487285578E+01  0.1916130333870E+00  0.8273122973329E+00
 0.3746793076955E+01 -0.2478994875752E+01  0.2535596440189E+00  0.7866928238621E+00
 0.4081890633714E+01 -0.2522705400773E+01  0.3118370512348E+00  0.7392988663665E+00
-0.8042870287640E+00 -0.3350584289663E+01 -0.8309742760678E+00  0.4937439298396E+00
-0.7433993569336E+00 -0.3376413430488E+01 -0.8239625697624E+00  0.5497556255185E+00
-0.6823647468872E+00 -0.3400665337967E+01 -0.8166060291393E+00  0.6007718220630E+00
-0.6233945623070E+00 -0.3421940623145E+01 -0.8090670491465E+00  0.6456605726619E+00
-0.5685381702175E+00 -0.3438955870624E+01 -0.8014988201115E+00  0.6838247311052E+00
-0.5195674290421E+00 -0.3450612127576E+01 -0.7940359231557E+00  0.7151683029580E+00
-0.4778900879021E+00 -0.3456038048765E+01 -0.7867856390575E+00  0.7400067583408E+00
-0.4445053852708E+00 -0.3454599922286E+01 -0.7798210731316E+00  0.7589487564234E+00
-0.4200002471110E+00 -0.3445882104753E+01 -0.7731764818940E+00  0.7727760019982E+00
-0.4045748755668E+00 -0.3429648480082E+01 -0.7668446825567E+00  0.7823402993501E+00
-0.3980826155078E+00 -0.3405797753748E+01 -0.7607760851876E+00  0.7884873556644E+00
-0.4000702487225E+00 -0.3374323834284E+01 -0.7548788278499E+00  0.7920085301112E+00
-0.4098090002467E+00 -0.3335288306986E+01 -0.7490194726079E+00  0.7936163677409E+00
-0.4263115002811E+00 -0.3288808341390E+01 -0.7430239794062E+00  0.7939372459907E+00
-0.4483332475471E+00 -0.3235062310231E+01 -0.7366791225331E+00  0.7935144289013E+00
-0.4743639449167E+00 -0.3174304599290E+01 -0.7297337197152E+00  0.7928158070487E+00
-0.5026109361088E+00 -0.3106891438104E+01 -0.7219004855997E+00  0.7922429962467E+00
-0.5309804556105E+00 -0.3033314617967E+01 -0.7128590253379E+00  0.7921394704046E+00
-0.5570646370293E+00 -0.2954231993204E+01 -0.7022593365112E+00  0.7927976803444E+00
-0.5781366026101E+00 -0.2870501912700E+01 -0.6897277133398E+00  0.7944635414241E+00
-0.5911556543013E+00 -0.2783233408040E+01 -0.6748778225247E+00  0.7973295021460E+00
-0.5927863837357E+00 -0.2693814549760E+01 -0.6573201964940E+00  0.8015305741668E+00
-0.5794542177782E+00 -0.2603881668656E+01 -0.6366671867739E+00  0.8071756317021E+00
-0.5474286288100E+00 -0.2515294227263E+01 -0.6125445803422E+00  0.8143642055416E+00
-0.4929256183921E+00 -0.2430111243204E+01 -0.5846073810305E+00  0.8231779521835E+00
-0.4122311647918E+00 -0.2350551408554E+01 -0.5525565229029E+00  0.8336557400953E+00
-0.3018546345411E+00 -0.2278928003972E+01 -0.5161565353940E+00  0.8457563117687E+00
-0.1587191549142E+00 -0.2217550328411E+01 -0.4752539037470E+00  0.8593115136894E+00
 0.1960678491006E-01 -0.2168588928601E+01 -0.4297964351426E+00  0.8739748422834E+00
 0.2346414019896E+00 -0.2133906379830E+01 -0.3798530012283E+00  0.8891735183704E+00
 0.4867310518309E+00 -0.2114857902028E+01 -0.3256253748916E+00  0.9040772596527E+00
 0.7748849403346E+00 -0.2112096279049E+01 -0.2674422717281E+00  0.9175941913927E+00
 0.1096631398384E+01 -0.2125433148569E+01 -0.2057603531030E+00  0.9283933864331E+00
 0.1447868932456E+01 -0.2153741801589E+01 -0.1411745759301E+00  0.9349649526004E+00
 0.1822861245395E+01 -0.2194919935641E+01 -0.7441173915798E-01  0.9357302640170E+00
 0.2214379955267E+01 -0.2245949927106E+01 -0.6313994461934E-02  0.9291874716412E+00
 0.2613993833015E+01 -0.2303067097134E+01  0.6218534810287E-01  0.9140747895067E+00
 0.3012495581274E+01 -0.2362028848647E+01  0.1300933484639E+00  0.8895290087268E+00
 0.3400407301251E+01 -0.2418455809367E+01  0.1963903013033E+00  0.8552179181302E+00
 0.3768522624225E+01 -0.2468209411295E+01  0.2600626464613E+00  0.8114309744262E+00
 0.4108385734711E+01 -0.2507761772483E+01  0.3201247972158E+00  0.7591319999089E+00
-0.8257272077294E+00 -0.3439217313045E+01 -0.8529889168654E+00  0.5035085122449E+00
-0.7631846323016E+00 -0.3465566638858E+01 -0.8457502668346E+00  0.5591983051744E+00
-0.6999820247668E+00 -0.3490317032192E+01 -0.8380598238798E+00  0.6093443812453E+00
-0.6385293490465E+00 -0.3511958972457E+01 -0.8300976766701E+00  0.6528436449595E+00
-0.5810749984104E+00 -0.3529108483333E+01 -0.8220367085980E+00  0.6891591348785E+00
-0.5295641696719E+00 -0.3540591674019E+01 -0.8140311808682E+00  0.7182787569506E+00
-0.4855359340480E+00 -0.3545496143868E+01 -0.8062064275966E+00  0.7406123933605E+00
-0.4500737348007E+00 -0.3543180941505E+01 -0.7986509471619E+00  0.7568600073079E+00
-0.4238056607054E+00 -0.3533250648838E+01 -0.7914112737017E+00  0.7678813795629E+00
-0.4069395541448E+00 -0.3515507347422E+01 -0.7844893920031E+00  0.7745883012766E+00
-0.3993141185229E+00 -0.3489896172540E+01 -0.7778420698034E+00  0.7778685805428E+00
-0.4004494741924E+00 -0.3456457633708E+01 -0.7713814330746E+00  0.7785417229521E+00
-0.4095860037573E+00 -0.3415294514776E+01 -0.7649761151056E+00  0.7773403844326E+00
-0.4257063629098E+00 -0.3366556711240E+01 -0.7584526261318E+00  0.7749094091036E+00
-0.4475395230674E+00 -0.3310445914097E+01 -0.7515970986325E+00  0.7718147281302E+00
-0.4735528558375E+00 -0.3247230673643E+01 -0.7441567169849E+00  0.7685553730174E+00
-0.5019352627434E+00 -0.3177273299718E+01 -0.7358417234572E+00  0.7655752822293E+00
-0.5305777579311E+00 -0.3101064916484E+01 -0.7263285457061E+00  0.7632725988535E+00
-0.5570598783011E+00 -0.3019256931231E+01 -0.7152633725647E+00  0.7620063424258E+00
-0.5786443993829E+00 -0.2932698640090E+01 -0.7022686183593E+00  0.7620982633059E+00
-0.5922824862736E+00 -0.2842499536310E+01 -0.6869564147531E+00  0.7638170414335E+00
-0.5946334401796E+00 -0.2750055077240E+01 -0.6689377134519E+00  0.7673714621936E+00
-0.5821195002248E+00 -0.2656996872290E+01 -0.6478232841563E+00  0.7729501379290E+00
-0.5510056069862E+00 -0.2565163665337E+01 -0.6232338637516E+00  0.7807406277191E+00
-0.4974965649399E+00 -0.2476585660370E+01 -0.5948164539255E+00  0.7909149983825E+00
-0.4178541493992E+00 -0.2393454528910E+01 -0.5622617440402E+00  0.8035947714844E+00
-0.3085439697981E+00 -0.2318067011965E+01 -0.5253222041806E+00  0.8188007542742E+00
-0.1664202193740E+00 -0.2252733104274E+01 -0.4838306719392E+00  0.8363912431222E+00
 0.1104598034666E-01 -0.2199645799303E+01 -0.4377199703138E+00  0.8559940841711E+00
 0.2254979102739E+00 -0.2160713389604E+01 -0.3870431016335E+00  0.8769425718850E+00
 0.4774290544595E+00 -0.2137356290348E+01 -0.3319854521247E+00  0.8982324071701E+00
 0.7660070229269E+00 -0.2130302629831E+01 -0.2728591254467E+00  0.9185135564429E+00
 0.1088912047530E+01 -0.2139440058118E+01 -0.2101056052485E+00  0.9361150737326E+00
 0.1442164856905E+01 -0.2163706557070E+01 -0.1443083421833E+00  0.9491186075179E+00
 0.1820098093005E+01 -0.2201036479588E+01 -0.7618767845199E-01  0.9554990487497E+00
 0.2215479122356E+01 -0.2248405872274E+01 -0.6585350081623E-02  0.9533131139887E+00
 0.2619787805874E+01 -0.2301991639802E+01  0.6355923416152E-01  0.9409127938533E+00
 0.3023644058942E+01 -0.2357440172465E+01  0.1332407792809E+00  0.9171532628548E+00
 0.3417327338220E+01 -0.2410217655111E+01  0.2014219396233E+00  0.8815650565828E+00
 0.3791344593928E+01 -0.2456005061691E+01  0.2670679104270E+00  0.8344677779163E+00
 0.4136942702845E+01 -0.2491091226410E+01  0.3291703001921E+00  0.7770259956758E+00
-0.8471631935292E+00 -0.3528286966712E+01 -0.8750900450882E+00  0.5134711057671E+00
-0.7827598195727E+00 -0.3555244311816E+01 -0.8676008392060E+00  0.5688468664553E+00
-0.7171873359287E+00 -0.3580575207782E+01 -0.8595525215505E+00  0.6180903552684E+00
-0.6530668814859E+00 -0.3602654270128E+01 -0.8511442430059E+00  0.6601275109930E+00
-0.5928570864516E+00 -0.3619993325638E+01 -0.8425700949732E+00  0.6944891028860E+00
-0.5386831518098E+00 -0.3631343795909E+01 -0.8340054019714E+00  0.7212591977680E+00
-0.4922165001960E+00 -0.3635756571838E+01 -0.8255946267091E+00  0.7409556167706E+00
-0.4546209991214E+00 -0.3632590779682E+01 -0.8174423679415E+00  0.7543814444878E+00
-0.4265592516052E+00 -0.3621479733931E+01 -0.8096078091713E+00  0.7624828680047E+00
-0.4082393879905E+00 -0.3602271668789E+01 -0.8021022233082E+00  0.7662360142480E+00
-0.3994791765898E+00 -0.3574964277675E+01 -0.7948887026977E+00  0.7665716131582E+00
-0.3997679362633E+00 -0.3539648292128E+01 -0.7878832574187E+00  0.7643355496779E+00
-0.4083136546441E+00 -0.3496468641256E+01 -0.7809564708172E+00  0.7602772739107E+00
-0.4240699638575E+00 -0.3445606402483E+01 -0.7739352848006E+00  0.7550561281845E+00
-0.4457423347906E+00 -0.3387282919834E+01 -0.7666050623482E+00  0.7492567420738E+00
-0.4717803010208E+00 -0.3321775574999E+01 -0.7587111865095E+00  0.7434057004035E+00
-0.5003596224935E+00 -0.3249446195982E+01 -0.7499611748704E+00  0.7379862017929E+00
-0.5293615989854E+00 -0.3170777810402E+01 -0.7400278929048E+00  0.7334484872437E+00
-0.5563584198489E+00 -0.3086407350243E+01 -0.7285531648747E+00  0.7302159349419E+00
-0.5786071727390E+00 -0.2997166744919E+01 -0.7151547941882E+00  0.7286840921093E+00
-0.5930547175338E+00 -0.2904158318658E+01 -0.6994426176609E+00  0.7291955858400E+00
-0.5963583159032E+00 -0.2808778152694E+01 -0.6810273038676E+00  0.7320304796302E+00
-0.5849399408004E+00 -0.2712646064775E+01 -0.6595172109427E+00  0.7374552279767E+00
-0.5550620425420E+00 -0.2617572254668E+01 -0.6345268688971E+00  0.7457449081150E+00
-0.5029182358020E+00 -0.2525550165553E+01 -0.6056936892965E+00  0.7571634609866E+00
-0.4247425968176E+00 -0.2438737590158E+01 -0.5726960459290E+00  0.7719189515570E+00
-0.3169483638647E+00 -0.2359410432319E+01 -0.5352717672130E+00  0.7901008176086E+00
-0.1763055251424E+00 -0.2289879167807E+01 -0.4932369459396E+00  0.8116029459580E+00
-0.1647662127466E-03 -0.2232364450260E+01 -0.4465058499480E+00  0.8360386299401E+00
 0.2132734212961E+00 -0.2188831779423E+01 -0.3951116775131E+00  0.8626590210078E+00
 0.4646880392645E+00 -0.2160784382599E+01 -0.3392192737216E+00  0.8902964662389E+00
 0.7534484594772E+00 -0.2149048037933E+01 -0.2791199198503E+00  0.9173502142336E+00
 0.1077430706243E+01 -0.2153610949888E+01 -0.2152360519365E+00  0.9418108793313E+00
 0.1432815717769E+01 -0.2173498870295E+01 -0.1481366327128E+00  0.9613448646459E+00
 0.1814030000501E+01 -0.2206699542962E+01 -0.7853390966244E-01  0.9734643975537E+00
 0.2213841951895E+01 -0.2250188342203E+01 -0.7269278169995E-02  0.9757600447561E+00
 0.2623623836100E+01 -0.2300075077926E+01  0.6470975259917E-01  0.9661672318530E+00
 0.3033779563552E+01 -0.2351871464979E+01  0.1363816217468E+00  0.9432280475356E+00
 0.3434282039484E+01 -0.2400853063061E+01  0.2066857983644E+00  0.9063081717769E+00
 0.3815274784405E+01 -0.2442476864462E+01  0.2745595880798E+00  0.8557377620572E+00
 0.4167628236989E+01 -0.2472804347300E+01  0.3389647829888E+00  0.7928727785872E+00
-0.8686064050057E+00 -0.3617866295682E+01 -0.8972945535082E+00  0.5236665514454E+00
-0.8021222058782E+00 -0.3645523824347E+01 -0.8895292193001E+00  0.5787351361912E+00
-0.7339624131539E+00 -0.3671520069037E+01 -0.8810965095676E+00  0.6270401504127E+00
-0.6669750114061E+00 -0.3694106508533E+01 -0.8722163169848E+00  0.6675370892828E+00
-0.6038424551924E+00 -0.3711686273190E+01 -0.8631057585378E+00  0.6998333388794E+00
-0.5468776999849E+00 -0.3722936447260E+01 -0.8539628421740E+00  0.7241231147041E+00
-0.4978853232380E+00 -0.3726876506849E+01 -0.8449523786081E+00  0.7410471758542E+00
-0.4581046898263E+00 -0.3722874387743E+01 -0.8361958279742E+00  0.7515243594570E+00
-0.4282247295409E+00 -0.3710602104461E+01 -0.8277653791351E+00  0.7565956552768E+00
-0.4084450220417E+00 -0.3689963198341E+01 -0.8196816562908E+00  0.7573053358718E+00
-0.3985549376429E+00 -0.3661014851837E+01 -0.8119139699945E+00  0.7546269689123E+00
-0.3980080918397E+00 -0.3623902049261E+01 -0.8043820402064E+00  0.7494300078462E+00
-0.4059781427327E+00 -0.3578812910805E+01 -0.7969582225832E+00  0.7424763614875E+00
-0.4213905615591E+00 -0.3525958046078E+01 -0.7894697332914E+00  0.7344350025901E+00
-0.4429304481962E+00 -0.3465574573405E+01 -0.7817010159686E+00  0.7259045516416E+00
-0.4690341880505E+00 -0.3397943128074E+01 -0.7733954747493E+00  0.7174349878672E+00
-0.4978699104773E+00 -0.3323418273415E+01 -0.7642576481668E+00  0.7095452865676E+00
-0.5273148772338E+00 -0.3242467347122E+01 -0.7539564561059E+00  0.7027349099748E+00
-0.5549392927950E+00 -0.3155704677404E+01 -0.7421288050985E+00  0.6974891503596E+00
-0.5779992959383E+00 -0.3063936457306E+01 -0.7283871615027E+00  0.6942751149710E+00
-0.5934413631554E+00 -0.2968250179191E+01 -0.7123383190838E+00  0.6935069322999E+00
-0.5979241417220E+00 -0.2870035742050E+01 -0.6935919870897E+00  0.6955333048218E+00
-0.5878726223645E+00 -0.2770893968686E+01 -0.6717533282200E+00  0.7006964991247E+00
-0.5595494407930E+00 -0.2672598373941E+01 -0.6464295725793E+00  0.7093585772780E+00
-0.5091379656008E+00 -0.2577097130309E+01 -0.6172470283796E+00  0.7218770759875E+00
-0.4328422828512E+00 -0.2486506460783E+01 -0.5838697574272E+00  0.7385512098983E+00
-0.3270160123857E+00 -0.2403076060031E+01 -0.5460184226197E+00  0.7595469327149E+00
-0.1883310048597E+00 -0.2329115446304E+01 -0.5034892977353E+00  0.7848048638820E+00
-0.1399547299454E-01 -0.2266876945064E+01 -0.4561744904092E+00  0.8139374923708E+00
 0.1979771111248E+00 -0.2218393825688E+01 -0.4040833489339E+00  0.8461287144505E+00
 0.4484903176831E+00 -0.2185269380895E+01 -0.3473558178183E+00  0.8800613590169E+00
 0.7371606415565E+00 -0.2168449800313E+01 -0.2862578360170E+00  0.9138940801113E+00
 0.1062107259414E+01 -0.2168049837181E+01 -0.2211885188494E+00  0.9452820810187E+00
 0.1419714001890E+01 -0.2183208495188E+01 -0.1526989009349E+00  0.9714691595883E+00
 0.1804531404439E+01 -0.2211986600844E+01 -0.8149104049536E-01  0.9894855886661E+00
 0.2209338915440E+01 -0.2251367336602E+01 -0.8405684357631E-02  0.9964254342385E+00
 0.2625385601403E+01 -0.2297386642215E+01  0.6559979281518E-01  0.9897697493180E+00
 0.3042816711348E+01 -0.2345398279465E+01  0.1394836884551E+00  0.9677080808558E+00
 0.3451232471846E+01 -0.2390449713903E+01  0.2121565547499E+00  0.9294067288354E+00
 0.3840331683400E+01 -0.2427727826233E+01  0.2825207756433E+00  0.8751823323328E+00
 0.4200523341421E+01 -0.2453019433967E+01  0.3495007866989E+00  0.8065716437950E+00
-0.8900683049767E+00 -0.3708030063369E+01 -0.9196196873725E+00  0.5341315555394E+00
-0.8212682052507E+00 -0.3736484401288E+01 -0.9115505348908E+00  0.5888985633027E+00
-0.7502870909994E+00 -0.3763233535886E+01 -0.9027041388284E+00  0.6362248730477E+00
-0.6802190421908E+00 -0.3786396774998E+01 -0.8933231767493E+00  0.6750965667871E+00
-0.6139865889107E+00 -0.3804263130555E+01 -0.8836499570605E+00  0.7052082371645E+00
-0.5540992873598E+00 -0.3815435928508E+01 -0.8739070561957E+00  0.7268803495845E+00
-0.5024952407871E+00 -0.3818909718734E+01 -0.8642810047831E+00  0.7408933359761E+00
-0.4604829400473E+00 -0.3814071656012E+01 -0.8549109319509E+00  0.7482953167820E+00
-0.4287676408868E+00 -0.3800644079605E+01 -0.8458823567030E+00  0.7502304833733E+00
-0.4075298591363E+00 -0.3778596293903E+01 -0.8372252430834E+00  0.7478143803692E+00
-0.3965218430764E+00 -0.3748052723847E+01 -0.8289149257365E+00  0.7420622643457E+00
-0.3951558247100E+00 -0.3709217017659E+01 -0.8208745807057E+00  0.7338631688332E+00
-0.4025688459141E+00 -0.3662321584653E+01 -0.8129780982278E+00  0.7239860145098E+00
-0.4176590437317E+00 -0.3607604767190E+01 -0.8050527741805E+00  0.7131035845495E+00
-0.4390944386179E+00 -0.3545315333246E+01 -0.7968819662473E+00  0.7018230227685E+00
-0.4653032112742E+00 -0.3475731329716E+01 -0.7882069199432E+00  0.6907129745136E+00
-0.4944516295633E+00 -0.3399193044053E+01 -0.7787289463273E+00  0.6803243052404E+00
-0.5244187967491E+00 -0.3316144370104E+01 -0.7681126448164E+00  0.6712025422755E+00
-0.5527784239435E+00 -0.3227168817142E+01 -0.7559894594822E+00  0.6638922364805E+00
-0.5767905217715E+00 -0.3133038436314E+01 -0.7419658026733E+00  0.6589296288103E+00
-0.5934051911830E+00 -0.3034818214790E+01 -0.7256446920075E+00  0.6567977294151E+00
-0.5992860693885E+00 -0.2933885038952E+01 -0.7066342321977E+00  0.6579110583636E+00
-0.5908648489191E+00 -0.2831813404698E+01 -0.6845356609238E+00  0.6626854591842E+00
-0.5644077542883E+00 -0.2730331655934E+01 -0.6589478918635E+00  0.6715693190753E+00
-0.5160899525489E+00 -0.2631333539171E+01 -0.6294847077240E+00  0.6850156226897E+00
-0.4420846928104E+00 -0.2536885034646E+01 -0.5957939543692E+00  0.7034199204960E+00
-0.3386804015639E+00 -0.2449202958423E+01 -0.5575766803059E+00  0.7270337662615E+00
-0.2024385433896E+00 -0.2370592917103E+01 -0.5146062997667E+00  0.7558575854882E+00
-0.3040418678391E-01 -0.2303341381507E+01 -0.4667491206132E+00  0.7895194877334E+00
 0.1796263950070E+00 -0.2249558696214E+01 -0.4139864664102E+00  0.8271542745371E+00
 0.4288210100217E+00 -0.2210964862798E+01 -0.3564287758664E+00  0.8673126055406E+00
 0.7170909131284E+00 -0.2188649625479E+01 -0.2943117468557E+00  0.9079258495902E+00
 0.1042849938069E+01 -0.2182881917282E+01 -0.2280063992402E+00  0.9463188714544E+00
 0.1402733271616E+01 -0.2192942360793E+01 -0.1580418201903E+00  0.9793054671947E+00
 0.1791452240483E+01 -0.2216988227573E+01 -0.8510719868617E-01  0.1003411843246E+01
 0.2201813449678E+01 -0.2252022575939E+01 -0.1004182540181E-01  0.1015199458435E+01
 0.2624931219442E+01 -0.2294003161813E+01  0.6618561251205E-01  0.1011649144771E+01
 0.3050650300631E+01 -0.2338103026579E+01  0.1425094569340E+00  0.9905495644503E+00
 0.3468129312050E+01 -0.2379102392843E+01  0.2178053870868E+00  0.9508252325227E+00
 0.3866535203192E+01 -0.2411868478933E+01  0.2909333491870E+00  0.8927499729410E+00
 0.4235722894605E+01 -0.2431861863263E+01  0.3607722116442E+00  0.8180291163299E+00
-0.9115604381641E+00 -0.3798855430600E+01 -0.9420831877909E+00  0.5449047953960E+00
-0.8401931279101E+00 -0.3828207863463E+01 -0.9336802121876E+00  0.5993742732491E+00
-0.7661388187631E+00 -0.3855799991009E+01 -0.9243877757288E+00  0.6456762195882E+00
-0.6927611022641E+00 -0.3879607891363E+01 -0.9144738123522E+00  0.6828290599878E+00
-0.6232418298368E+00 -0.3897800058312E+01 -0.9042083911035E+00  0.7106273321167E+00
-0.5602970859578E+00 -0.3908907043798E+01 -0.8938408392705E+00  0.7295364201124E+00
-0.5059981649558E+00 -0.3911906466612E+01 -0.8835809394799E+00  0.7404951888016E+00
-0.4617145012681E+00 -0.3906217099919E+01 -0.8735863332548E+00  0.7446955425063E+00
-0.4281555431959E+00 -0.3891625107794E+01 -0.8639561430720E+00  0.7433931749298E+00
-0.4054703509769E+00 -0.3868177411588E+01 -0.8547295652494E+00  0.7377771637999E+00
-0.3933639788835E+00 -0.3836074254495E+01 -0.8458876592805E+00  0.7289020559165E+00
-0.3912008153625E+00 -0.3795582687752E+01 -0.8373567131006E+00  0.7176711539931E+00
-0.3980786930187E+00 -0.3746980494652E+01 -0.8290118498873E+00  0.7048537390875E+00
-0.4128692706713E+00 -0.3690531745630E+01 -0.8206802154894E+00  0.6911195839890E+00
-0.4342270118511E+00 -0.3626492449515E+01 -0.8121439043750E+00  0.6770781121017E+00
-0.4605771535065E+00 -0.3555131936635E+01 -0.8031418299959E+00  0.6633113437208E+00
-0.4900901816055E+00 -0.3476768970422E+01 -0.7933718422277E+00  0.6503977667981E+00
-0.5206531580125E+00 -0.3391816090120E+01 -0.7824938612866E+00  0.6389255682265E+00
-0.5498489331952E+00 -0.3300817699938E+01 -0.7701333381026E+00  0.6294957185307E+00
-0.5749462852574E+00 -0.3204503292827E+01 -0.7558899268806E+00  0.6227109879913E+00
-0.5929030164369E+00 -0.3103907696870E+01 -0.7393621536787E+00  0.6191204612485E+00
-0.6003915271268E+00 -0.3000387961073E+01 -0.7201559083711E+00  0.6192014281253E+00
-0.5938543180352E+00 -0.2895484811823E+01 -0.6978678363708E+00  0.6234407860794E+00
-0.5695654137124E+00 -0.2790872577195E+01 -0.6720876081964E+00  0.6323723391263E+00
-0.5236950802046E+00 -0.2688380711805E+01 -0.6424151679746E+00  0.6465463490120E+00
-0.4523865653021E+00 -0.2590015164643E+01 -0.6084803550561E+00  0.6664602991176E+00
-0.3518595175025E+00 -0.2497951692496E+01 -0.5699622504928E+00  0.6924614683598E+00
-0.2185548289624E+00 -0.2414487223326E+01 -0.5266084183048E+00  0.7246249873322E+00
-0.4933551087580E-01 -0.2341942944008E+01 -0.4782556981034E+00  0.7626136903361E+00
 0.1582486031429E+00 -0.2282513937653E+01 -0.4248530732327E+00  0.8055348903746E+00
 0.4056697067296E+00 -0.2238052622163E+01 -0.3664765885476E+00  0.8518283296739E+00
 0.6931839117299E+00 -0.2209815658049E+01 -0.3033263537838E+00  0.8992151945885E+00
 0.1019555998157E+01 -0.2198255542446E+01 -0.2357399123705E+00  0.9446978740799E+00
 0.1381727893401E+01 -0.2202826238477E+01 -0.1642196714623E+00  0.9846534348194E+00
 0.1774616598814E+01 -0.2221809273526E+01 -0.8943853627505E-01  0.1015079500186E+01
 0.2191079665002E+01 -0.2252244130363E+01 -0.1223289325454E-01  0.1031962957909E+01
 0.2622090391981E+01 -0.2290009230075E+01  0.6641623337084E-01  0.1031729825402E+01
 0.3057152433432E+01 -0.2330074843121E+01  0.1454155202291E+00  0.1011709497174E+01
 0.3484910488564E+01 -0.2366912704203E+01  0.2235995602040E+00  0.9705331762883E+00
 0.3893905245313E+01 -0.2395016480068E+01  0.2997777575162E+00  0.9083963909276E+00
 0.4273335346775E+01 -0.2409463477108E+01  0.3727743794883E+00  0.8271587261489E+00
-0.9330944716358E+00 -0.3890422737265E+01 -0.9647034561553E+00  0.5560270613561E+00
-0.8588909036126E+00 -0.3920779485411E+01 -0.9559340920492E+00  0.6102011436271E+00
-0.7814920869573E+00 -0.3949307131349E+01 -0.9461598577601E+00  0.6554263484000E+00
-0.7045594213206E+00 -0.3973825126891E+01 -0.9356769235849E+00  0.6907562092749E+00
-0.6315566983681E+00 -0.3992374024739E+01 -0.9247861584017E+00  0.7161006448103E+00
-0.5654174853535E+00 -0.4003413231958E+01 -0.9137661570786E+00  0.7320917298833E+00
-0.5083448683132E+00 -0.4005913328164E+01 -0.9028516527490E+00  0.7398478615890E+00
-0.4617587837609E+00 -0.3999339463092E+01 -0.8922196626657E+00  0.7407202422606E+00
-0.4263582387724E+00 -0.3983557237896E+01 -0.8819831084762E+00  0.7360841200692E+00
-0.4022463508318E+00 -0.3958704526625E+01 -0.8721901884880E+00  0.7272032735970E+00
-0.3890694844406E+00 -0.3925066760466E+01 -0.8628272618384E+00  0.7151676777600E+00
-0.3861369626602E+00 -0.3882979379770E+01 -0.8538232812090E+00  0.7008881161618E+00
-0.3925045739478E+00 -0.3832766527298E+01 -0.8450542328415E+00  0.6851262830530E+00
-0.4070184632033E+00 -0.3774715724770E+01 -0.8363468500571E+00  0.6685410777088E+00
-0.4283233685272E+00 -0.3709085486382E+01 -0.8274817833122E+00  0.6517371740979E+00
-0.4548472319238E+00 -0.3636129988752E+01 -0.8181954563272E+00  0.6353041250348E+00
-0.4847712046097E+00 -0.3556138977808E+01 -0.8081820485265E+00  0.6198434182581E+00
-0.5159966979829E+00 -0.3469485574953E+01 -0.7970964664649E+00  0.6059822798467E+00
-0.5461214851587E+00 -0.3376666740306E+01 -0.7845576567838E+00  0.5943751100471E+00
-0.5724280661198E+00 -0.3278361012085E+01 -0.7701578271173E+00  0.5856884412411E+00
-0.5918860584205E+00 -0.3175565463624E+01 -0.7534903156368E+00  0.5805344252828E+00
-0.6011805396759E+00 -0.3069610529341E+01 -0.7341582247432E+00  0.5794497993471E+00
-0.5967693512297E+00 -0.2961995646476E+01 -0.7117530101471E+00  0.5829896106807E+00
-0.5749393999528E+00 -0.2854331928915E+01 -0.6858542759936E+00  0.5917717829028E+00
-0.5318607499707E+00 -0.2748373919334E+01 -0.6560469436367E+00  0.6064454812831E+00
-0.4636493995121E+00 -0.2646056519522E+01 -0.6219411930745E+00  0.6276159267883E+00
-0.3664549530673E+00 -0.2549504536134E+01 -0.5831919065305E+00  0.6557370898856E+00
-0.2365900187208E+00 -0.2460999340043E+01 -0.5395178797922E+00  0.6909753806564E+00
-0.7071885510193E-01 -0.2382895108547E+01 -0.4907228000422E+00  0.7330501076874E+00
 0.1338830191086E+00 -0.2317477234952E+01 -0.4367188496763E+00  0.7810663098714E+00
 0.3790325434630E+00 -0.2266744901325E+01 -0.3775424771982E+00  0.8333783933510E+00
 0.6653833100934E+00 -0.2232144987807E+01 -0.3133523402119E+00  0.8875189675504E+00
 0.9921126965305E+00 -0.2214344714716E+01 -0.2444464072796E+00  0.9401795137012E+00
 0.1356532866075E+01 -0.2213006901037E+01 -0.1712948095449E+00  0.9872952210882E+00
 0.1753821218423E+01 -0.2226570436181E+01 -0.9454984496049E-01  0.1024308798674E+01
 0.2176919637652E+01 -0.2252133313602E+01 -0.1504273541407E-01  0.1046584693984E+01
 0.2616660967770E+01 -0.2285497523966E+01  0.6623268974779E-01  0.1049929936075E+01
 0.3062169041222E+01 -0.2321409554183E+01  0.1481518996154E+00  0.1031144777605E+01
 0.3501498359678E+01 -0.2353988861508E+01  0.2295019030538E+00  0.9885048741399E+00
 0.3922460049862E+01 -0.2377296277680E+01  0.3090327590413E+00  0.9220845848066E+00
 0.4313482490662E+01 -0.2385962016227E+01  0.3855041006313E+00  0.8338806831419E+00
-0.9546822360713E+00 -0.3982816407161E+01 -0.9874997433613E+00  0.5675414387255E+00
-0.8773537465173E+00 -0.4014288986568E+01 -0.9783285611953E+00  0.6214199019438E+00
-0.7963177463089E+00 -0.4043846942184E+01 -0.9680329521233E+00  0.6655077247684E+00
-0.7155674891099E+00 -0.4069136992705E+01 -0.9569409106225E+00  0.6988976875684E+00
-0.6388751275508E+00 -0.4088063277081E+01 -0.9453876950137E+00  0.7216339029943E+00
-0.5694035797831E+00 -0.4099016655136E+01 -0.9336840608969E+00  0.7345406440145E+00
-0.5094847904766E+00 -0.4100972943354E+01 -0.9220915605064E+00  0.7389396141607E+00
-0.4605759524409E+00 -0.4093461217460E+01 -0.9108074475522E+00  0.7363578440974E+00
-0.4233480780641E+00 -0.4076444491459E+01 -0.8999585273150E+00  0.7282977245381E+00
-0.3978415355641E+00 -0.4050166470596E+01 -0.8896016144881E+00  0.7160975260788E+00
-0.3836310231587E+00 -0.4015007871369E+01 -0.8797277920146E+00  0.7008770819033E+00
-0.3799628591819E+00 -0.3971377640419E+01 -0.8702681128882E+00  0.6835462282920E+00
-0.3858477976189E+00 -0.3919647056928E+01 -0.8610989837407E+00  0.6648497449793E+00
-0.4001076354304E+00 -0.3860124467586E+01 -0.8520464332998E+00  0.6454267212893E+00
-0.4213816123254E+00 -0.3793065785229E+01 -0.8428894920708E+00  0.6258692672131E+00
-0.4481064881373E+00 -0.3718703265275E+01 -0.8333619631005E+00  0.6067680917190E+00
-0.4784809556629E+00 -0.3637289890479E+01 -0.8231541814944E+00  0.5887427346533E+00
-0.5104274792704E+00 -0.3549151154039E+01 -0.8119157387604E+00  0.5724556651591E+00
-0.5415646952708E+00 -0.3454728200176E+01 -0.7992585909992E+00  0.5586116105374E+00
-0.5691938125565E+00 -0.3354640271440E+01 -0.7847668284932E+00  0.5479379559301E+00
-0.5903003667834E+00 -0.3249839196923E+01 -0.7680279241858E+00  0.5411067031476E+00
-0.6015861188874E+00 -0.3141622121710E+01 -0.7486416592751E+00  0.5387103896017E+00
-0.5995291914375E+00 -0.3031439648120E+01 -0.7261937787327E+00  0.5413688249704E+00
-0.5804353698155E+00 -0.2920830151402E+01 -0.7002531146782E+00  0.5497822094652E+00
-0.5404807398120E+00 -0.2811461870775E+01 -0.6703885321070E+00  0.5646998306003E+00
-0.4757589428829E+00 -0.2705186333173E+01 -0.6361890646912E+00  0.5868404202699E+00
-0.3823509271120E+00 -0.2604065617699E+01 -0.5972833178623E+00  0.6167762018322E+00
-0.2564362255410E+00 -0.2510356255276E+01 -0.5533585044092E+00  0.6547829092429E+00
-0.9446639890718E-01 -0.2426440972191E+01 -0.5041814817326E+00  0.7006606333380E+00
 0.1065833139455E+00 -0.2354698432571E+01 -0.4496230304250E+00  0.7535410931816E+00
 0.3489147517709E+00 -0.2297287031532E+01 -0.3896744617589E+00  0.8117237155651E+00
 0.6336340458808E+00 -0.2255866692510E+01 -0.3244465341604E+00  0.8725794478945E+00
 0.9603986632559E+00 -0.2231352182920E+01 -0.2541907077206E+00  0.9325052384765E+00
 0.1326963834074E+01 -0.2223654867316E+01 -0.1793382093208E+00  0.9869919912094E+00
 0.1728833863221E+01 -0.2231410313551E+01 -0.1005152915637E+00  0.1030900181405E+01
 0.2159080269132E+01 -0.2251803907273E+01 -0.1854472790469E-01  0.1058918102162E+01
 0.2608404858398E+01 -0.2280569318920E+01  0.6556710887261E-01  0.1066159079831E+01
 0.3065515731854E+01 -0.2312209762488E+01  0.1506611961183E+00  0.1048811047741E+01
 0.3517796361499E+01 -0.2340445588628E+01  0.2354701580829E+00  0.1004719149392E+01
 0.3952214265307E+01 -0.2358838869145E+01  0.3186750839810E+00  0.9337848186614E+00
 0.4356299352782E+01 -0.2361500612795E+01  0.3989597539423E+00  0.8381214371285E+00
-0.9763357681882E+00 -0.4076126002781E+01 -0.1010492369251E+01  0.5794935385547E+00
-0.8955717477139E+00 -0.4108831686465E+01 -0.1000880701750E+01  0.6330732486065E+00
-0.8105821958996E+00 -0.4139516821185E+01 -0.9900198181693E+00  0.6759529296842E+00
-0.7257330753811E+00 -0.4165636134055E+01 -0.9782738564647E+00  0.7072706014239E+00
-0.6451356021745E+00 -0.4184947834104E+01 -0.9660167016506E+00  0.7272276076926E+00
-0.5721946278834E+00 -0.4195778235728E+01 -0.9535945869320E+00  0.7368704081465E+00
-0.5093658787737E+00 -0.4197123659948E+01 -0.9412979217708E+00  0.7377508113645E+00
-0.4581270939159E+00 -0.4188597952090E+01 -0.9293450230495E+00  0.7315891639042E+00
-0.4191003457336E+00 -0.4170282136356E+01 -0.9178765100954E+00  0.7200218232642E+00
-0.3922439047314E+00 -0.4142542194586E+01 -0.9069572333782E+00  0.7044596176850E+00
-0.3770463179407E+00 -0.4105864836680E+01 -0.8965822442842E+00  0.6860446847671E+00
-0.3726823198952E+00 -0.4060737605727E+01 -0.8866839983370E+00  0.6656756793786E+00
-0.3781145957731E+00 -0.4007579351634E+01 -0.8771388025518E+00  0.6440696855171E+00
-0.3921420698499E+00 -0.3946716183984E+01 -0.8677716636975E+00  0.6218359567652E+00
-0.4134031995829E+00 -0.3878395892795E+01 -0.8583598312662E+00  0.5995454499363E+00
-0.4403502199910E+00 -0.3802821697502E+01 -0.8486343961442E+00  0.5777831431230E+00
-0.4712067370980E+00 -0.3720201816236E+01 -0.8382817231583E+00  0.5571813890725E+00
-0.5039233260532E+00 -0.3630805763130E+01 -0.8269458301591E+00  0.5384339715073E+00
-0.5361455889522E+00 -0.3535010483491E+01 -0.8142312266216E+00  0.5222927743624E+00
-0.5651984267908E+00 -0.3433367679294E+01 -0.7997132331336E+00  0.5095430122481E+00
-0.5880873180001E+00 -0.3326776608906E+01 -0.7829727970485E+00  0.5009131049994E+00
-0.6015347328673E+00 -0.3216494624073E+01 -0.7636058827668E+00  0.4970473685449E+00
-0.6020443809712E+00 -0.3103915989704E+01 -0.7411920851796E+00  0.4986263956757E+00
-0.5859478550868E+00 -0.2990496543723E+01 -0.7152888904206E+00  0.5064301030445E+00
-0.5494351155241E+00 -0.2877806072406E+01 -0.6854482478001E+00  0.5213084828823E+00
-0.4885846911651E+00 -0.2767599039370E+01 -0.6512367558111E+00  0.5440992454637E+00
-0.3994132502989E+00 -0.2661860988231E+01 -0.6122548568294E+00  0.5755047258714E+00
-0.2779658560233E+00 -0.2562811645809E+01 -0.5681555088326E+00  0.6159292246040E+00
-0.1204707832623E+00 -0.2472854691541E+01 -0.5186651026894E+00  0.6652803216171E+00
 0.7642038535351E-01 -0.2394461818192E+01 -0.4636082934760E+00  0.7227491853728E+00
 0.3153337283942E+00 -0.2329960511454E+01 -0.4029253626161E+00  0.7866158357858E+00
 0.5978851157716E+00 -0.2281245481658E+01 -0.3366720781940E+00  0.8541226738795E+00
 0.9242857653265E+00 -0.2249513244504E+01 -0.2650454997850E+00  0.9213945990796E+00
 0.1292817369688E+01 -0.2234967854576E+01 -0.1884300997854E+00  0.9834800233286E+00
 0.1699391615759E+01 -0.2236488054118E+01 -0.1074192892726E+00  0.1034630026117E+01
 0.2137269676056E+01 -0.2251383795371E+01 -0.2282282420308E-01  0.1068797433141E+01
 0.2597043209504E+01 -0.2275335240575E+01  0.6434159474460E-01  0.1080315545972E+01
 0.3066972851102E+01 -0.2302585092115E+01  0.1528775540754E+00  0.1064661241629E+01
 0.3533685049253E+01 -0.2326404164554E+01  0.2414561805380E+00  0.1019158867147E+01
 0.3983176703662E+01 -0.2339781664066E+01  0.3286790128169E+00  0.9434744772650E+00
 0.4401934132501E+01 -0.2336227337469E+01  0.4131413651626E+00  0.8398131456714E+00
-0.9980673528578E+00 -0.4170447461945E+01 -0.1033702978364E+01  0.5919317859082E+00
-0.9135323756115E+00 -0.4204509855829E+01 -0.1023608461541E+01  0.6452060067122E+00
-0.8242464087308E+00 -0.4236420875903E+01 -0.1012133472009E+01  0.6867944174958E+00
-0.7349970829200E+00 -0.4263420324955E+01 -0.9996834964714E+00  0.7158887539980E+00
-0.6502701903880E+00 -0.4283109981981E+01 -0.9866760491764E+00  0.7328759109429E+00
-0.5737254906785E+00 -0.4293757606818E+01 -0.9734966340054E+00  0.7390598829614E+00
-0.5079344795409E+00 -0.4294399040039E+01 -0.9604667182280E+00  0.7362527574798E+00
-0.4543744733499E+00 -0.4284757613520E+01 -0.9478264314977E+00  0.7263864933981E+00
-0.4135937439321E+00 -0.4265055832952E+01 -0.9357299293202E+00  0.7112370676992E+00
-0.3854463651240E+00 -0.4235799937843E+01 -0.9242492743659E+00  0.6922837809087E+00
-0.3693187545972E+00 -0.4197593767938E+01 -0.9133825181176E+00  0.6706812295607E+00
-0.3643049642945E+00 -0.4151008317749E+01 -0.9030626698654E+00  0.6473046842873E+00
-0.3693166718344E+00 -0.4096509939148E+01 -0.8931653355057E+00  0.6228312448952E+00
-0.3831318343517E+00 -0.4034438914410E+01 -0.8835141629178E+00  0.5978292183750E+00
-0.4043934304770E+00 -0.3965028936559E+01 -0.8738844864291E+00  0.5728390688974E+00
-0.4315764556015E+00 -0.3888446718261E+01 -0.8640046476472E+00  0.5484326751137E+00
-0.4629373662772E+00 -0.3804847457665E+01 -0.8535569775075E+00  0.5252497074437E+00
-0.4964623068786E+00 -0.3714436206636E+01 -0.8421797152523E+00  0.5040112500675E+00
-0.5298301141491E+00 -0.3617517339320E+01 -0.8294695030538E+00  0.4855131575713E+00
-0.5603943138677E+00 -0.3514566911969E+01 -0.8149922573116E+00  0.4705953744046E+00
-0.5851841868751E+00 -0.3406424513657E+01 -0.7983217520024E+00  0.4600390949992E+00
-0.6009468604079E+00 -0.3294301450988E+01 -0.7790496738879E+00  0.4545359704696E+00
-0.6042172307838E+00 -0.3179528280866E+01 -0.7567491136064E+00  0.4548226926180E+00
-0.5913605506571E+00 -0.3063468309503E+01 -0.7309657829242E+00  0.4617554343285E+00
-0.5585902155519E+00 -0.2947580011790E+01 -0.7012340559176E+00  0.4762845895277E+00
-0.5019794261256E+00 -0.2833505733166E+01 -0.6670970417988E+00  0.4993716995015E+00
-0.4174882634553E+00 -0.2723138544088E+01 -0.6281253708684E+00  0.5318610155744E+00
-0.3010298186601E+00 -0.2618646475553E+01 -0.5839352675440E+00  0.5743054962458E+00
-0.1486025316929E+00 -0.2522442964449E+01 -0.5342091071887E+00  0.6267490621214E+00
 0.4348563465407E-01 -0.2437088625543E+01 -0.4787206053112E+00  0.6884789019708E+00
 0.2783227005958E+00 -0.2365086520287E+01 -0.4173527701572E+00  0.7577968176726E+00
 0.5580930578543E+00 -0.2308585991136E+01 -0.3500985918732E+00  0.8318569346314E+00
 0.8836416159181E+00 -0.2269100357033E+01 -0.2770917523520E+00  0.9065422100710E+00
 0.1253871670286E+01 -0.2247175081435E+01 -0.1986606851901E+00  0.9764663781528E+00
 0.1665199173003E+01 -0.2241986748265E+01 -0.1153575167714E+00  0.1035245683526E+01
 0.2111153090469E+01 -0.2251017115310E+01 -0.2797280538495E-01  0.1076033120654E+01
 0.2582250710470E+01 -0.2269916308769E+01  0.6246688127118E-01  0.1092282910353E+01
 0.3066279616069E+01 -0.2292652629575E+01  0.1547253996045E+00  0.1078643770584E+01
 0.3549017437110E+01 -0.2311992679869E+01  0.2474049551347E+00  0.1031810269893E+01
 0.4015347675163E+01 -0.2320268506355E+01  0.3390158388133E+00  0.9511377347439E+00
 0.4450548114529E+01 -0.2310294776249E+01  0.4280506740343E+00  0.8388930023963E+00
-0.1019889563076E+01 -0.4265884557498E+01 -0.1057154839868E+01  0.6049077762360E+00
-0.9312198598150E+00 -0.4301434308751E+01 -0.1046530849308E+01  0.6578653001945E+00
-0.8372647563507E+00 -0.4334671431376E+01 -0.1034387252959E+01  0.6980642025742E+00
-0.7432922019648E+00 -0.4362593580320E+01 -0.1021177171674E+01  0.7247617307685E+00
-0.6542034575280E+00 -0.4382634763478E+01 -0.1007367659212E+01  0.7385652611397E+00
-0.5739260592642E+00 -0.4393012949759E+01 -0.9933878166073E+00  0.7410780620760E+00
-0.5051353031366E+00 -0.4392827199360E+01 -0.9795925150963E+00  0.7344063789251E+00
-0.4492819042288E+00 -0.4381939579210E+01 -0.9662443110858E+00  0.7207126128964E+00
-0.4068109887378E+00 -0.4360740649146E+01 -0.9535103417853E+00  0.7019162973032E+00
-0.3774474079157E+00 -0.4329896311882E+01 -0.9414687579885E+00  0.6795584558813E+00
-0.3604580535055E+00 -0.4290138835602E+01 -0.9301193916813E+00  0.6547936713244E+00
-0.3548468485007E+00 -0.4242127019408E+01 -0.9193947872817E+00  0.6284595082943E+00
-0.3594717902448E+00 -0.4186373958256E+01 -0.9091691632479E+00  0.6011792618800E+00
-0.3730923370504E+00 -0.4123229894605E+01 -0.8992644597311E+00  0.5734681277289E+00
-0.3943619786551E+00 -0.4052907970774E+01 -0.8894540031396E+00  0.5458260281938E+00
-0.4217864670106E+00 -0.3975530570481E+01 -0.8794634206033E+00  0.5188039267890E+00
-0.4536636862527E+00 -0.3891191372731E+01 -0.8689710247454E+00  0.4930430957706E+00
-0.4880232613328E+00 -0.3800022361479E+01 -0.8576091373416E+00  0.4692878683707E+00
-0.5225837046089E+00 -0.3702246999014E+01 -0.8449661533156E+00  0.4483749278402E+00
-0.5547319926700E+00 -0.3598257775430E+01 -0.8305979659969E+00  0.4311958216738E+00
-0.5815247949915E+00 -0.3488827811171E+01 -0.8140705333630E+00  0.4185806780808E+00
-0.5997376374984E+00 -0.3375116461787E+01 -0.7949708317030E+00  0.4112635773622E+00
-0.6059423940867E+00 -0.3258383445214E+01 -0.7728651793767E+00  0.4100318076613E+00
-0.5965467127540E+00 -0.3139889452421E+01 -0.7472872441705E+00  0.4158132470798E+00
-0.5677987398771E+00 -0.3020968168446E+01 -0.7177533923600E+00  0.4296572371546E+00
-0.5157788311116E+00 -0.2903133446301E+01 -0.6837824656717E+00  0.4526530480009E+00
-0.4364017955236E+00 -0.2788167776123E+01 -0.6449139239392E+00  0.4857981899435E+00
-0.3254556484208E+00 -0.2678169477390E+01 -0.6007250341137E+00  0.5298147817997E+00
-0.1787072321610E+00 -0.2575546515423E+01 -0.5508507577251E+00  0.5849137077824E+00
 0.7894682670487E-02 -0.2482939734203E+01 -0.4950090176827E+00  0.6505184095421E+00
 0.2379350394467E+00 -0.2403029883157E+01 -0.4330189751946E+00  0.7249995914072E+00
 0.5142262328952E+00 -0.2338237805832E+01 -0.3648023200233E+00  0.8054715107505E+00
 0.8383328851858E+00 -0.2290428702216E+01 -0.2904191677336E+00  0.8876146359098E+00
 0.1209887829892E+01 -0.2260542614197E+01 -0.2101309599923E+00  0.9656240938324E+00
 0.1625927239217E+01 -0.2248117760599E+01 -0.1244381061307E+00  0.1032459690374E+01
 0.2080348236693E+01 -0.2250867070198E+01 -0.3410376720905E-01  0.1080406187276E+01
 0.2563648878977E+01 -0.2264445331913E+01  0.5984071030449E-01  0.1101925851730E+01
 0.3063127139576E+01 -0.2282537590688E+01  0.1561179121040E+00  0.1090700295584E+01
 0.3563613560458E+01 -0.2297346589898E+01  0.2532533978858E+00  0.1042662107639E+01
 0.4048715852529E+01 -0.2300449906911E+01  0.3496531943339E+00  0.9567649333007E+00
 0.4502315372245E+01 -0.2283859604572E+01  0.4436911601463E+00  0.8353023659208E+00
-0.1041815295943E+01 -0.4362550632232E+01 -0.1080873201741E+01  0.6184767148689E+00
-0.9486144266397E+00 -0.4399726289598E+01 -0.1069668159187E+01  0.6711007616421E+00
-0.8495835841428E+00 -0.4434390786807E+01 -0.1056794889937E+01  0.7097934482077E+00
-0.7505413283827E+00 -0.4463267392962E+01 -0.1042761759807E+01  0.7338937574138E+00
-0.6568512534800E+00 -0.4483610433176E+01 -0.1028092352651E+01  0.7442727624379E+00
-0.5727206906664E+00 -0.4493600670355E+01 -0.1013264287303E+01  0.7428823372573E+00
-0.5009114937242E+00 -0.4492429929178E+01 -0.9986682994617E+00  0.7321607442802E+00
-0.4428152597895E+00 -0.4480133526622E+01 -0.9845897719538E+00  0.7145197377900E+00
-0.3987395382245E+00 -0.4457299924236E+01 -0.9712079069642E+00  0.6920239134498E+00
-0.3682518857227E+00 -0.4424775294721E+01 -0.9586054503730E+00  0.6662659959049E+00
-0.3504810088305E+00 -0.4383431424189E+01 -0.9467825007121E+00  0.6383850976491E+00
-0.3443311428528E+00 -0.4334018434383E+01 -0.9356699293898E+00  0.6091645126668E+00
-0.3486044013694E+00 -0.4277094501834E+01 -0.9251397944264E+00  0.5791583949033E+00
-0.3620449154401E+00 -0.4213014904404E+01 -0.9150119776035E+00  0.5488156757223E+00
-0.3833234575187E+00 -0.4141965292359E+01 -0.9050577634619E+00  0.5185850362594E+00
-0.4109853226017E+00 -0.4064015571105E+01 -0.8950001920779E+00  0.4889883005402E+00
-0.4433791163238E+00 -0.3979189179512E+01 -0.8845136723475E+00  0.4606624382757E+00
-0.4785863689311E+00 -0.3887536317452E+01 -0.8732245502888E+00  0.4343709902206E+00
-0.5143718920024E+00 -0.3789191243610E+01 -0.8607126399480E+00  0.4109884367583E+00
-0.5481607682788E+00 -0.3684455189344E+01 -0.8465232041388E+00  0.3914548373162E+00
-0.5770402378079E+00 -0.3574028381449E+01 -0.8302137362226E+00  0.3766452441204E+00
-0.5978176017882E+00 -0.3459012768422E+01 -0.8113660861324E+00  0.3673307663178E+00
-0.6071075561051E+00 -0.3340590463582E+01 -0.7895396157025E+00  0.3643428559572E+00
-0.6013696870321E+00 -0.3219909504999E+01 -0.7642558497946E+00  0.3686752606465E+00
-0.5768999728090E+00 -0.3098164821910E+01 -0.7350129698963E+00  0.3814733885885E+00
-0.5298012254181E+00 -0.2976724190427E+01 -0.7013050936194E+00  0.4039568165916E+00
-0.4559581910640E+00 -0.2857239280630E+01 -0.6626395042129E+00  0.4372867335234E+00
-0.3510455988550E+00 -0.2741717438604E+01 -0.6185526167089E+00  0.4823747965961E+00
-0.2106025164664E+00 -0.2632541501532E+01 -0.5686288120729E+00  0.5396307303410E+00
-0.3020847488834E-01 -0.2532418501377E+01 -0.5125254028903E+00  0.6086578116161E+00
 0.1942492836212E+00 -0.2444203471262E+01 -0.4499908442335E+00  0.6879488699545E+00
 0.4662700438279E+00 -0.2370601268935E+01 -0.3808662506967E+00  0.7746357934727E+00
 0.7882296182840E+00 -0.2313862851690E+01 -0.3051266512279E+00  0.8642472799492E+00
 0.1160611910031E+01 -0.2275379983938E+01 -0.2229536181037E+00  0.9505868840072E+00
 0.1581211172278E+01 -0.2255126261708E+01 -0.1347830198944E+00  0.1025943004131E+01
 0.2044420168482E+01 -0.2251119602086E+01 -0.4133988733687E-01  0.1081661431499E+01
 0.2540798099983E+01 -0.2259068717171E+01  0.5634587740213E-01  0.1109084951443E+01
 0.3057150078985E+01 -0.2272374214533E+01  0.1569551752291E+00  0.1100763027830E+01
 0.3577254202600E+01 -0.2282609691560E+01  0.2589289060662E+00  0.1051704590590E+01
 0.4083254607903E+01 -0.2280483610784E+01  0.3605542047964E+00  0.9603514794685E+00
 0.4557421905759E+01 -0.2257082009697E+01  0.4600679860679E+00  0.8289855978172E+00
-0.1063857800244E+01 -0.4460570675205E+01 -0.1104885711554E+01  0.6326979561123E+00
-0.9656913430576E+00 -0.4499519719597E+01 -0.1093042228819E+01  0.6849647681279E+00
-0.8611394743656E+00 -0.4535713263255E+01 -0.1079370563608E+01  0.7220119186460E+00
-0.7566556999373E+00 -0.4565562092761E+01 -0.1064443574401E+01  0.7432822613778E+00
-0.6581193672857E+00 -0.4586128829699E+01 -0.1048849655026E+01  0.7499641796118E+00
-0.5700276796589E+00 -0.4595574838486E+01 -0.1033120519024E+01  0.7444164685301E+00
-0.4952048449141E+00 -0.4593221525997E+01 -0.1017685289347E+01  0.7294514127665E+00
-0.4349431616908E+00 -0.4579318040718E+01 -0.1002852255426E+01  0.7077484144171E+00
-0.3893724736265E+00 -0.4554683945810E+01 -0.9888112986218E+00  0.6815152815931E+00
-0.3578718973951E+00 -0.4520367115906E+01 -0.9756478171985E+00  0.6523824315462E+00
-0.3394122943791E+00 -0.4477389234859E+01 -0.9633603202028E+00  0.6214547028109E+00
-0.3327888507474E+00 -0.4426594022650E+01 -0.9518765888636E+00  0.5894422312427E+00
-0.3367462984542E+00 -0.4368581938721E+01 -0.9410656614580E+00  0.5568132493806E+00
-0.3500174591537E+00 -0.4303707581872E+01 -0.9307450220743E+00  0.5239363923000E+00
-0.3712980254026E+00 -0.4232121701287E+01 -0.9206839590572E+00  0.4911978315897E+00
-0.3991824822513E+00 -0.4153833299368E+01 -0.9106031698929E+00  0.4590816593550E+00
-0.4320802464615E+00 -0.4068786670483E+01 -0.9001733968026E+00  0.4282144739293E+00
-0.4681337630269E+00 -0.3976941418136E+01 -0.8890150494799E+00  0.3993750336419E+00
-0.5051609685409E+00 -0.3878334365751E+01 -0.8766990799221E+00  0.3734727669355E+00
-0.5406294672120E+00 -0.3773168058450E+01 -0.8627595179886E+00  0.3514932682667E+00
-0.5716596932245E+00 -0.3662063853733E+01 -0.8467447220090E+00  0.3343523817213E+00
-0.5950935405055E+00 -0.3546061398222E+01 -0.8282310000872E+00  0.3228523321061E+00
-0.6075942497279E+00 -0.3426258941561E+01 -0.8067706502796E+00  0.3178612685143E+00
-0.6056835826931E+00 -0.3303682039642E+01 -0.7818731361179E+00  0.3204314961892E+00
-0.5857201648535E+00 -0.3179372591451E+01 -0.7530185624818E+00  0.3317999042355E+00
-0.5438474534601E+00 -0.3054533682441E+01 -0.7196762379042E+00  0.3533172528111E+00
-0.4759394527968E+00 -0.2930663923293E+01 -0.6813206853703E+00  0.3863173956993E+00
-0.3775747488737E+00 -0.2809655160713E+01 -0.6374459914160E+00  0.4319211446356E+00
-0.2440748683937E+00 -0.2693840701395E+01 -0.5875831227135E+00  0.4907695075962E+00
-0.7064685990045E-01 -0.2585973605492E+01 -0.5313241009958E+00  0.5626919932326E+00
 0.1473749638118E+00 -0.2489072971093E+01 -0.4683396084350E+00  0.6463628322546E+00
 0.4142332861325E+00 -0.2406134108656E+01 -0.3983801704410E+00  0.7389989807042E+00
 0.7332108505251E+00 -0.2339824687833E+01 -0.3213227722497E+00  0.8360414204077E+00
 0.1105778145617E+01 -0.2292048342598E+01 -0.2372540429315E+00  0.9309433622152E+00
 0.1530650160882E+01 -0.2263298299588E+01 -0.1465296299246E+00  0.1015317107592E+01
 0.2002875620829E+01 -0.2251988229078E+01 -0.4982252239222E-01  0.1079499062249E+01
 0.2513188149917E+01 -0.2253948781447E+01  0.5184787446662E-01  0.1113570128154E+01
 0.3047916507611E+01 -0.2262306821984E+01  0.1571219394668E+00  0.1108751482606E+01
 0.3589673785310E+01 -0.2267935683709E+01  0.2643476242592E+00  0.1058928322847E+01
 0.4118917923417E+01 -0.2260535806430E+01  0.3716764289358E+00  0.9618959362375E+00
 0.4616063215712E+01 -0.2230124567206E+01  0.4771877368117E+00  0.8198882875932E+00
-0.1086030689869E+01 -0.4560083827241E+01 -0.1129222920249E+01  0.6476356627733E+00
-0.9824197135675E+00 -0.4600963892816E+01 -0.1116676737916E+01  0.6995127009919E+00
-0.8718571189182E+00 -0.4638787603881E+01 -0.1102128960983E+01  0.7347472413468E+00
-0.7615326992836E+00 -0.4669608334441E+01 -0.1086228222931E+01  0.7529160483194E+00
-0.6579020502800E+00 -0.4690285616609E+01 -0.1069637549317E+01  0.7555915041792E+00
-0.5657588088768E+00 -0.4698986318346E+01 -0.1052949041135E+01  0.7456082126851E+00
-0.4879562150428E+00 -0.4695207267029E+01 -0.1036632711861E+01  0.7261986076422E+00
-0.4256378875916E+00 -0.4679458928315E+01 -0.1021019378396E+01  0.7003263893429E+00
-0.3787095545172E+00 -0.4652828440285E+01 -0.1006307613956E+01  0.6703361935010E+00
-0.3463277833922E+00 -0.4616587056362E+01 -0.9925829827415E+00  0.6378773189851E+00
-0.3272853280825E+00 -0.4571915372109E+01 -0.9798401546391E+00  0.6039978289447E+00
-0.3202595568544E+00 -0.4519751252461E+01 -0.9680021762874E+00  0.5693134792627E+00
-0.3239372957622E+00 -0.4460733253898E+01 -0.9569341241914E+00  0.5341885026574E+00
-0.3370450588816E+00 -0.4395208738037E+01 -0.9464507734870E+00  0.4988964893095E+00
-0.3583120258637E+00 -0.4323285735857E+01 -0.9363195662965E+00  0.4637493699984E+00
-0.3863924336244E+00 -0.4244903736073E+01 -0.9262592477419E+00  0.4291845842831E+00
-0.4197674740778E+00 -0.4159918861821E+01 -0.9159372808282E+00  0.3958121357141E+00
-0.4566501868516E+00 -0.4068191229569E+01 -0.9049682967692E+00  0.3644220919750E+00
-0.4949186959682E+00 -0.3969652057219E+01 -0.8929141639430E+00  0.3359562379544E+00
-0.5320872317327E+00 -0.3864398066906E+01 -0.8792970728303E+00  0.3114429364683E+00
-0.5653113102393E+00 -0.3752966290251E+01 -0.8636555329675E+00  0.2918346377176E+00
-0.5914694450494E+00 -0.3636329852280E+01 -0.8455598720657E+00  0.2779582549947E+00
-0.6072788074501E+00 -0.3515497539240E+01 -0.8245552816249E+00  0.2707100393862E+00
-0.6093341138028E+00 -0.3391362991108E+01 -0.8001394329052E+00  0.2711918833472E+00
-0.5940731102477E+00 -0.3264800720090E+01 -0.7717747775679E+00  0.2807255965864E+00
-0.5577009852734E+00 -0.3136829739575E+01 -0.7389061559802E+00  0.3007919137597E+00
-0.4961045772468E+00 -0.3008771611819E+01 -0.7009752482584E+00  0.3329043592304E+00
-0.4047892180890E+00 -0.2882375015707E+01 -0.6574328565557E+00  0.3784110132692E+00
-0.2788763525420E+00 -0.2759894385022E+01 -0.6077541565691E+00  0.4382162973050E+00
-0.1132055084101E+00 -0.2644101800806E+01 -0.5514614700606E+00  0.5124243475853E+00
 0.9745925102624E-01 -0.2538161968865E+01 -0.4881405508415E+00  0.5999557629875E+00
 0.3581557768521E+00 -0.2445358927648E+01 -0.4174406363795E+00  0.6981905752961E+00
 0.6731717974222E+00 -0.2368802776888E+01 -0.3391262009466E+00  0.8025615782558E+00
 0.1045113647330E+01 -0.2310970491183E+01 -0.2531713725431E+00  0.9062308538204E+00
 0.1473807269468E+01 -0.2272969859884E+01 -0.1598325204650E+00  0.1000144847028E+01
 0.1955156994128E+01 -0.2253720510205E+01 -0.5971270410520E-01  0.1073564377316E+01
 0.2480226795031E+01 -0.2249266737475E+01  0.4619201219933E-01  0.1115152143686E+01
 0.3034915373820E+01 -0.2252490691933E+01  0.1564849387092E+00  0.1114568620813E+01
 0.3600552418028E+01 -0.2253490569557E+01  0.2694123737088E+00  0.1064323623600E+01
 0.4155636739039E+01 -0.2240783320658E+01  0.3829706893829E+00  0.9613969904114E+00
 0.4678437836394E+01 -0.2203149953869E+01  0.4950575838820E+00  0.8079538739685E+00
-0.1108347935415E+01 -0.4661246431480E+01 -0.1153918890574E+01  0.6633596138818E+00
-0.9987609555674E+00 -0.4704226730269E+01 -0.1140597554164E+01  0.7148032204843E+00
-0.8816467022990E+00 -0.4743779792039E+01 -0.1125085315633E+01  0.7480239065335E+00
-0.7650532643664E+00 -0.4775548700856E+01 -0.1108120409557E+01  0.7627729762715E+00
-0.6560804198357E+00 -0.4796180303846E+01 -0.1090452160985E+01  0.7610899777506E+00
-0.5598190394139E+00 -0.4803881472429E+01 -0.1072740118354E+01  0.7463665615867E+00
-0.4791062127955E+00 -0.4798381432801E+01 -0.1055497544847E+01  0.7223052222915E+00
-0.4148765482768E+00 -0.4780507180509E+01 -0.1039076761241E+01  0.6921674922163E+00
-0.3667584710044E+00 -0.4751652856139E+01 -0.1023682280683E+01  0.6584224362360E+00
-0.3336492331030E+00 -0.4713334166535E+01 -0.1009396694969E+01  0.6227137098096E+00
-0.3141431849258E+00 -0.4666897428513E+01 -0.9962081375323E+00  0.5860060966118E+00
-0.3067921915890E+00 -0.4613372903241E+01 -0.9840330336292E+00  0.5487975030686E+00
-0.3102259173968E+00 -0.4553431416144E+01 -0.9727314812031E+00  0.5113290252274E+00
-0.3231706762616E+00 -0.4487405673060E+01 -0.9621152842010E+00  0.4737639697027E+00
-0.3443986633044E+00 -0.4415352874488E+01 -0.9519503217437E+00  0.4363279658793E+00
-0.3726353732444E+00 -0.4337134337664E+01 -0.9419539562178E+00  0.3994025874950E+00
-0.4064456871421E+00 -0.4252508956846E+01 -0.9317909426823E+00  0.3635748528710E+00
-0.4441236936686E+00 -0.4161228415109E+01 -0.9210704354805E+00  0.3296423226404E+00
-0.4836150604142E+00 -0.4063110203001E+01 -0.9093450662334E+00  0.2985768777053E+00
-0.5224843715449E+00 -0.3958138380571E+01 -0.8961245637765E+00  0.2714472077293E+00
-0.5579231768550E+00 -0.3846760773145E+01 -0.8809368031270E+00  0.2492382253311E+00
-0.5868475742640E+00 -0.3729880549621E+01 -0.8633456376418E+00  0.2327946118355E+00
-0.6060334568869E+00 -0.3608412250478E+01 -0.8428891540331E+00  0.2230309188078E+00
-0.6121596241732E+00 -0.3483108768278E+01 -0.8190536906950E+00  0.2210878311645E+00
-0.6017609511394E+00 -0.3354663062580E+01 -0.7912848145350E+00  0.2283632957794E+00
-0.5711282800810E+00 -0.3223890275542E+01 -0.7590037224346E+00  0.2464643576436E+00
-0.5161891597822E+00 -0.3091909570718E+01 -0.7216197568529E+00  0.2770886690129E+00
-0.4324045880627E+00 -0.2960295949765E+01 -0.6785401176765E+00  0.3218273557409E+00
-0.3147213638730E+00 -0.2831190680211E+01 -0.6291824181924E+00  0.3818789815296E+00
-0.1576261373376E+00 -0.2707350391766E+01 -0.5729953143590E+00  0.4576715519600E+00
 0.4469445893674E-01 -0.2592057203727E+01 -0.5094725565497E+00  0.5484419087994E+00
 0.2981174363044E+00 -0.2488871535477E+01 -0.4381508263634E+00  0.6518219988219E+00
 0.6080330055708E+00 -0.2401363347271E+01 -0.3586660736845E+00  0.7633335241704E+00
 0.9783450588650E+00 -0.2332643208357E+01 -0.2708596339346E+00  0.8759289015109E+00
 0.1410210905400E+01 -0.2284538329075E+01 -0.1748654873405E+00  0.9799199657507E+00
 0.1900636244589E+01 -0.2256607002910E+01 -0.7119415272492E-01  0.1063434995205E+01
 0.2441226165848E+01 -0.2245226600610E+01  0.3919991363154E-01  0.1113551309009E+01
 0.3017539963714E+01 -0.2243092341355E+01  0.1548895267797E+00  0.1118095828985E+01
 0.3609507833116E+01 -0.2239455018546E+01  0.2740105669971E+00  0.1067881895297E+01
 0.4193316526173E+01 -0.2221420097721E+01  0.3943792915670E+00  0.9588477451442E+00
 0.4744734129942E+01 -0.2176310468368E+01  0.5136847399694E+00  0.7931183311270E+00
-0.1130823820864E+01 -0.4764235788045E+01 -0.1179011939350E+01  0.6799461886264E+00
-0.1014666852844E+01 -0.4809498733795E+01 -0.1164833134685E+01  0.7308985348864E+00
-0.8904006670699E+00 -0.4850876378696E+01 -0.1148255426264E+01  0.7618619026851E+00
-0.7670788372079E+00 -0.4883539412621E+01 -0.1130123666806E+01  0.7728169693416E+00
-0.6525207708607E+00 -0.4903915946406E+01 -0.1111287360013E+01  0.7663744416018E+00
-0.5521064276684E+00 -0.4910300316095E+01 -0.1092481365032E+01  0.7465785388775E+00
-0.4685962393583E+00 -0.4902724792582E+01 -0.1074264222396E+01  0.7176546776988E+00
-0.4026425878789E+00 -0.4882396559504E+01 -0.1057007845227E+01  0.6831705848103E+00
-0.3535363089898E+00 -0.4851058468367E+01 -0.1040918970982E+01  0.6456995205953E+00
-0.3198764936191E+00 -0.4810489962991E+01 -0.1026073306612E+01  0.6068482771136E+00
-0.3000395349765E+00 -0.4762206641655E+01 -0.1012449250413E+01  0.5674676377741E+00
-0.2924457858605E+00 -0.4707326476631E+01 -0.9999544673987E+00  0.5279121646709E+00
-0.2956700743131E+00 -0.4646544847707E+01 -0.9884429991330E+00  0.4882799781073E+00
-0.3084458185837E+00 -0.4580171562816E+01 -0.9777234908491E+00  0.4486086740742E+00
-0.3295987042385E+00 -0.4508204766704E+01 -0.9675607086063E+00  0.4090253547479E+00
-0.3579379267636E+00 -0.4430419103085E+01 -0.9576714202401E+00  0.3698462489303E+00
-0.3921249883845E+00 -0.4346467281082E+01 -0.9477184680155E+00  0.3316287871803E+00
-0.4305463829857E+00 -0.4255983578860E+01 -0.9373060063360E+00  0.2951742769474E+00
-0.4712230616236E+00 -0.4158663653865E+01 -0.9259773568958E+00  0.2614828316326E+00
-0.5117732597811E+00 -0.4054372341199E+01 -0.9132291338042E+00  0.2316614859337E+00
-0.5494243553367E+00 -0.3943463990632E+01 -0.8985776825837E+00  0.2067236406448E+00
-0.5811296185396E+00 -0.3826769262816E+01 -0.8815797894077E+00  0.1875243786856E+00
-0.6037275596273E+00 -0.3705104641703E+01 -0.8617664531074E+00  0.1749854861151E+00
-0.6139923087994E+00 -0.3579074261239E+01 -0.8386133265039E+00  0.1702736805525E+00
-0.6085752429961E+00 -0.3449175867903E+01 -0.8115502342729E+00  0.1748518274305E+00
-0.5838794794155E+00 -0.3316000958576E+01 -0.7799760992209E+00  0.1904468300349E+00
-0.5359053767246E+00 -0.3180440134177E+01 -0.7432691132560E+00  0.2189418152795E+00
-0.4601046804114E+00 -0.3043861893258E+01 -0.7007933251765E+00  0.2621834836454E+00
-0.3512835792797E+00 -0.2908255336241E+01 -0.6519077928183E+00  0.3216925662550E+00
-0.2036016495600E+00 -0.2776319291534E+01 -0.5959841970998E+00  0.3982694807936E+00
-0.1067369513104E-01 -0.2651413879742E+01 -0.5324175229082E+00  0.4915407617401E+00
 0.2342489263271E+00 -0.2537350119298E+01 -0.4606202454579E+00  0.5994896514015E+00
 0.5377517072130E+00 -0.2438163125643E+01 -0.3800822893496E+00  0.7178432253961E+00
 0.9052079085477E+00 -0.2357652266121E+01 -0.2904888758432E+00  0.8394527788620E+00
 0.1339357684674E+01 -0.2298477457407E+01 -0.1918239574048E+00  0.9540548331501E+00
 0.1838610312664E+01 -0.2260992254846E+01 -0.8447638969510E-01  0.1048606226688E+01
 0.2395385002605E+01 -0.2242064357824E+01  0.3066412941321E-01  0.1108420430954E+01
 0.2995067528198E+01 -0.2234282702632E+01  0.1521569673806E+00  0.1119187371832E+01
 0.3616081527076E+01 -0.2226032750073E+01  0.2780097595433E+00  0.1069598733577E+01
 0.4231853843164E+01 -0.2202660347176E+01  0.4058387052452E+00  0.9542331101342E+00
 0.4815069645488E+01 -0.2149740450832E+01  0.5330658468746E+00  0.7752850804861E+00
-0.1153472856546E+01 -0.4869254846395E+01 -0.1204545558537E+01  0.6974795580594E+00
-0.1030077050508E+01 -0.4916997772922E+01 -0.1189414982410E+01  0.7478646288447E+00
-0.8979897035797E+00 -0.4960288419950E+01 -0.1171655642165E+01  0.7762748591160E+00
-0.7674477736263E+00 -0.4993752073679E+01 -0.1152239986631E+01  0.7829941555590E+00
-0.6470728552835E+00 -0.5013598313271E+01 -0.1132134250581E+01  0.7713348568817E+00
-0.5425123958890E+00 -0.5018273901046E+01 -0.1112157275959E+01  0.7461055148211E+00
-0.4563700034457E+00 -0.5008201379657E+01 -0.1092914292906E+01  0.7121086801452E+00
-0.3889276768060E+00 -0.4985040711473E+01 -0.1074793693672E+01  0.6732186641769E+00
-0.3390712506124E+00 -0.4950926259755E+01 -0.1057999517839E+01  0.6320826522257E+00
-0.3050616730691E+00 -0.4907917084614E+01 -0.1042595767072E+01  0.5902316587200E+00
-0.2850395882056E+00 -0.4857697108316E+01 -0.1028547354631E+01  0.5483674685206E+00
-0.2772901981645E+00 -0.4801463693031E+01 -0.1015750793375E+01  0.5066741808131E+00
-0.2803377183847E+00 -0.4739926960031E+01 -0.1004052950645E+01  0.4650868948334E+00
-0.2929312170172E+00 -0.4673364863369E+01 -0.9932592308779E+00  0.4235022681223E+00
-0.3139612128792E+00 -0.4601708422508E+01 -0.9831339417274E+00  0.3819366822609E+00
-0.3423339241041E+00 -0.4524637545338E+01 -0.9733943083930E+00  0.3406312895298E+00
-0.3768214779327E+00 -0.4441690087774E+01 -0.9637023275015E+00  0.3001070281715E+00
-0.4159151866724E+00 -0.4352373970304E+01 -0.9536578456060E+00  0.2611652080410E+00
-0.4577195446040E+00 -0.4256254870430E+01 -0.9427948970556E+00  0.2248327558584E+00
-0.4999092762573E+00 -0.4153072049472E+01 -0.9305962790128E+00  0.1922536831023E+00
-0.5397459845733E+00 -0.4043082724752E+01 -0.9165657555230E+00  0.1644662385224E+00
-0.5742179627623E+00 -0.3927043450986E+01 -0.9002522961645E+00  0.1423281726813E+00
-0.6002289917602E+00 -0.3805669954589E+01 -0.8811798024005E+00  0.1267561427446E+00
-0.6146596347376E+00 -0.3679410638283E+01 -0.8588140674015E+00  0.1189280678180E+00
-0.6142982961963E+00 -0.3548555229793E+01 -0.8325707176041E+00  0.1203579204999E+00
-0.5956894673122E+00 -0.3413452369600E+01 -0.8018283793307E+00  0.1328829548652E+00
-0.5549424150489E+00 -0.3274737843748E+01 -0.7659360631728E+00  0.1585694862528E+00
-0.4875408006476E+00 -0.3133539298234E+01 -0.7242160305680E+00  0.1995281141004E+00
-0.3881932454364E+00 -0.2991650535059E+01 -0.6759687661718E+00  0.2576255513729E+00
-0.2507705995008E+00 -0.2851662267383E+01 -0.6204865826226E+00  0.3340804907684E+00
-0.6833707454321E-01 -0.2716960655597E+01 -0.5570595543289E+00  0.4289841707307E+00
 0.1667440001460E+00 -0.2591565029101E+01 -0.4849642130176E+00  0.5407799517870E+00
 0.4623360775434E+00 -0.2479964039300E+01 -0.4035255983644E+00  0.6655373957486E+00
 0.8254589045277E+00 -0.2386690783043E+01 -0.3122463803560E+00  0.7961472169350E+00
 0.1260719642389E+01 -0.2315355931784E+01 -0.2109272610219E+00  0.9218672940777E+00
 0.1768292623755E+01 -0.2267291525393E+01 -0.9979978181478E-01  0.1028470905159E+01
 0.2341783705319E+01 -0.2240053345660E+01  0.2034607223504E-01  0.1099331771489E+01
 0.2966598994113E+01 -0.2226258925570E+01  0.1480680159149E+00  0.1117634052519E+01
 0.3619769443785E+01 -0.2213372454839E+01  0.2812794019806E+00  0.1069530668073E+01
 0.4271102455581E+01 -0.2184914551265E+01  0.4172375870804E+00  0.9474611189092E+00
 0.4889490077805E+01 -0.2123239494917E+01  0.5532501248217E+00  0.7543686866681E+00
-0.1176309675083E+01 -0.4976538270600E+01 -0.1230569607473E+01  0.7160530273708E+00
-0.1044915781918E+01 -0.5026974660481E+01 -0.1214378106575E+01  0.7657713958557E+00
-0.9042577805271E+00 -0.5072256340264E+01 -0.1195302841970E+01  0.7912675448874E+00
-0.7659710943109E+00 -0.5106375256100E+01 -0.1174469287583E+01  0.7932277861517E+00
-0.6395682498859E+00 -0.5125334297922E+01 -0.1152980526742E+01  0.7758308248168E+00
-0.5309225151436E+00 -0.5127820661811E+01 -0.1131748652255E+01  0.7447789945597E+00
-0.4423756518599E+00 -0.5114754393334E+01 -0.1111426025600E+01  0.7055049559616E+00
-0.3737340655593E+00 -0.5088329745689E+01 -0.1092412778528E+01  0.6621782276611E+00
-0.3234045200370E+00 -0.5051114589847E+01 -0.1074903837994E+01  0.6174770354074E+00
-0.2892701162216E+00 -0.5005457948743E+01 -0.1058945628773E+01  0.5728090719184E+00
-0.2692210141429E+00 -0.4953205100469E+01 -0.1044485238486E+01  0.5286880241796E+00
-0.2614067848686E+00 -0.4895620111262E+01 -0.1031405394595E+01  0.4850994162234E+00
-0.2643074534506E+00 -0.4833415781746E+01 -0.1019544662232E+01  0.4417957324275E+00
-0.2766975004652E+00 -0.4766828745055E+01 -0.1008705264135E+01  0.3985181464177E+00
-0.2975443258515E+00 -0.4695715355030E+01 -0.9986519510573E+00  0.3551603930813E+00
-0.3258652437767E+00 -0.4619653546082E+01 -0.9891037727105E+00  0.3118785599328E+00
-0.3605581119294E+00 -0.4538058200707E+01 -0.9797232771263E+00  0.2691497370897E+00
-0.4002327184930E+00 -0.4450302013453E+01 -0.9701069608450E+00  0.2277713592923E+00
-0.4430860800800E+00 -0.4355812409418E+01 -0.9597797122015E+00  0.1887962043510E+00
-0.4868517976581E+00 -0.4254196817622E+01 -0.9482097371855E+00  0.1534046777938E+00
-0.5288224448290E+00 -0.4145612236112E+01 -0.9348869501191E+00  0.1226567778674E+00
-0.5660170405081E+00 -0.4030740497201E+01 -0.9193515212412E+00  0.9740493435888E-01
-0.5954056583836E+00 -0.3910195084976E+01 -0.9011201620997E+00  0.7854701278116E-01
-0.6139859589196E+00 -0.3784262940438E+01 -0.8796497929793E+00  0.6725516843579E-01
-0.6187048061577E+00 -0.3653014194175E+01 -0.8543438127973E+00  0.6507799418433E-01
-0.6062793389371E+00 -0.3516536612982E+01 -0.8245632026707E+00  0.7395036222539E-01
-0.5729674367287E+00 -0.3375185744497E+01 -0.7896306480116E+00  0.9611541821358E-01
-0.5143315916505E+00 -0.3229813614614E+01 -0.7488290524114E+00  0.1339508240524E+00
-0.4250350053048E+00 -0.3081972463056E+01 -0.7014015041239E+00  0.1896871939599E+00
-0.2987118285364E+00 -0.2934086986633E+01 -0.6465597726684E+00  0.2650022479853E+00
-0.1279155070814E+00 -0.2789503913293E+01 -0.5834838927695E+00  0.3605256589226E+00
 0.9587375453595E-01 -0.2652388866109E+01 -0.5113030299337E+00  0.4752769962435E+00
 0.3818626034233E+00 -0.2527649890526E+01 -0.4291574638155E+00  0.6058263394906E+00
 0.7388933518012E+00 -0.2420581201354E+01 -0.3363375749224E+00  0.7452813160063E+00
 0.1173752626079E+01 -0.2335861688541E+01 -0.2324218159558E+00  0.8825654741351E+00
 0.1688817646737E+01 -0.2276010392549E+01 -0.1174385509123E+00  0.1002298638162E+01
 0.2279336833007E+01 -0.2239523712420E+01  0.7962624236168E-02  0.1085744931224E+01
 0.2931136497846E+01 -0.2219228561237E+01  0.1423815894435E+00  0.1113180258668E+01
 0.3619611816345E+01 -0.2201674979657E+01  0.2835873715632E+00  0.1067619616226E+01
 0.4311872634620E+01 -0.2168271723620E+01  0.4287201885885E+00  0.9389342747094E+00
 0.4965758397274E+01 -0.2097657147674E+01  0.5736202584676E+00  0.7290985191498E+00
-0.1199346759204E+01 -0.5086365692363E+01 -0.1257142509046E+01  0.7357650334517E+00
-0.1059092066338E+01 -0.5139761460787E+01 -0.1239770723899E+01  0.7846957188793E+00
-0.9090164992193E+00 -0.5187123363595E+01 -0.1219227990731E+01  0.8068360244335E+00
-0.7624239688865E+00 -0.5221713531599E+01 -0.1196827517931E+01  0.8034158038324E+00
-0.6298081722761E+00 -0.5239354646522E+01 -0.1173832581251E+01  0.7796850405580E+00
-0.5172003793205E+00 -0.5239092161079E+01 -0.1151258525235E+01  0.7423893126227E+00
-0.4265448449590E+00 -0.5222474242259E+01 -0.1129803834279E+01  0.6976398676679E+00
-0.3570485242592E+00 -0.5192319589094E+01 -0.1109873639209E+01  0.6498744066697E+00
-0.3065592949994E+00 -0.5151668805939E+01 -0.1091645636455E+01  0.6017444974041E+00
-0.2725445571142E+00 -0.5103163947375E+01 -0.1075141716919E+01  0.5544779475536E+00
-0.2526334583133E+00 -0.5048797870036E+01 -0.1060286281469E+01  0.5083576988718E+00
-0.2448431383317E+00 -0.4989884349030E+01 -0.1046945513073E+01  0.4631423160651E+00
-0.2476181356186E+00 -0.4927125127863E+01 -0.1034948668118E+01  0.4183830191572E+00
-0.2597692321345E+00 -0.4860706349837E+01 -0.1024095131655E+01  0.3736517664706E+00
-0.2803534470337E+00 -0.4790403520954E+01 -0.1014151408710E+01  0.3287077463538E+00
-0.3085142903430E+00 -0.4715686835751E+01 -0.1004840240192E+01  0.2836111860708E+00
-0.3432922481777E+00 -0.4635840899854E+01 -0.9958266444453E+00  0.2387868421171E+00
-0.3834315293841E+00 -0.4550094184838E+01 -0.9867051575475E+00  0.1950237237450E+00
-0.4272324528115E+00 -0.4457726850637E+01 -0.9769918752480E+00  0.1533997670012E+00
-0.4724901233706E+00 -0.4358207544765E+01 -0.9661395480237E+00  0.1151320617688E+00
-0.5165233875763E+00 -0.4251589812015E+01 -0.9536226541284E+00  0.8129988931933E-01
-0.5563756656991E+00 -0.4138480613613E+01 -0.9389712698542E+00  0.5274205221369E-01
-0.5890830627589E+00 -0.4019390260148E+01 -0.9216946783157E+00  0.3032234435748E-01
-0.6117714394908E+00 -0.3894438677559E+01 -0.9012420368395E+00  0.1518768735444E-01
-0.6215698482130E+00 -0.3763464603633E+01 -0.8770069034376E+00  0.8901987243764E-02
-0.6154031620831E+00 -0.3626276439238E+01 -0.8483359329054E+00  0.1348201417502E-01
-0.5897227585420E+00 -0.3482923155671E+01 -0.8145291949800E+00  0.3133792710972E-01
-0.5402239183006E+00 -0.3333944196637E+01 -0.7748336345335E+00  0.6511332507411E-01
-0.4615866629037E+00 -0.3180598929145E+01 -0.7284371292643E+00  0.1174157362540E+00
-0.3472749693030E+00 -0.3025078143104E+01 -0.6744706325318E+00  0.1904187438804E+00
-0.1893905442829E+00 -0.2870606795896E+01 -0.6119994771553E+00  0.2853648918478E+00
 0.2144307763512E-01 -0.2721410565714E+01 -0.5399935056623E+00  0.4019766626507E+00
 0.2958253785743E+00 -0.2582754359138E+01 -0.4573858029283E+00  0.5375097914731E+00
 0.6446027545397E+00 -0.2460698811330E+01 -0.3632192167704E+00  0.6855138112061E+00
 0.1077103176869E+01 -0.2361108090897E+01 -0.2568009866323E+00  0.8347839548775E+00
 0.1598444456865E+01 -0.2287934911705E+01 -0.1378980930227E+00  0.9688705829564E+00
 0.2206159397862E+01 -0.2240940957907E+01 -0.6956312112758E-02  0.1066763644186E+01
 0.2886934641788E+01 -0.2213441778344E+01  0.1346985746959E+00  0.1105354778648E+01
 0.3614944723915E+01 -0.2191070613401E+01  0.2847748263463E+00  0.1063713781647E+01
 0.4352622670551E+01 -0.2152845975905E+01  0.4399553454850E+00  0.9287628739478E+00
 0.5055197245946E+01 -0.2072652664527E+01  0.5965089251725E+00  0.6974822051034E+00
-0.1222609043113E+01 -0.5199061823411E+01 -0.1284334192443E+01  0.7567500075933E+00
-0.1072494480376E+01 -0.5255706291602E+01 -0.1265640173255E+01  0.8047259355411E+00
-0.9120457144578E+00 -0.5305212263650E+01 -0.1243451614150E+01  0.8229662284126E+00
-0.7565556761342E+00 -0.5340000192752E+01 -0.1219311191946E+01  0.8134256112867E+00
-0.6175890225878E+00 -0.5355765077550E+01 -0.1194670837830E+01  0.7826845693821E+00
-0.5012276809714E+00 -0.5352069448509E+01 -0.1170659443340E+01  0.7387013233319E+00
-0.4088442404808E+00 -0.5331248010232E+01 -0.1148018467249E+01  0.6883028321575E+00
-0.3389021544930E+00 -0.5296840544431E+01 -0.1127148556581E+01  0.6361453298368E+00
-0.2886071093360E+00 -0.5252392136799E+01 -0.1108199865741E+01  0.5847774951112E+00
-0.2549777088608E+00 -0.5200829474938E+01 -0.1091161453019E+01  0.5351809397782E+00
-0.2353778635865E+00 -0.5144269731511E+01 -0.1075929535052E+01  0.4873624977102E+00
-0.2277002046600E+00 -0.5084053710366E+01 -0.1062350798836E+01  0.4408264119623E+00
-0.2303649830053E+00 -0.5020856152403E+01 -0.1050244242732E+01  0.3949061751625E+00
-0.2422309483482E+00 -0.4954803841894E+01 -0.1039406973537E+01  0.3489926149057E+00
-0.2624574733217E+00 -0.4885586993879E+01 -0.1029608908783E+01  0.3026991573196E+00
-0.2903296036035E+00 -0.4812564390134E+01 -0.1020578813955E+01  0.2559788232397E+00
-0.3250485381759E+00 -0.4734884539931E+01 -0.1011986630701E+01  0.2091942995966E+00
-0.3655108313292E+00 -0.4651623098703E+01 -0.1003426800959E+01  0.1631206788367E+00
-0.4101325298076E+00 -0.4561903582573E+01 -0.9944072372940E+00  0.1188604975295E+00
-0.4567729043893E+00 -0.4465048585811E+01 -0.9843643127081E+00  0.7766891787461E-01
-0.5027702941664E+00 -0.4361005178973E+01 -0.9727551091231E+00  0.4064315767130E-01
-0.5451828023715E+00 -0.4250306110458E+01 -0.9590977968575E+00  0.8600053846114E-02
-0.5811095734564E+00 -0.4133358811278E+01 -0.9428936909971E+00 -0.1764755766585E-01
-0.6078147858306E+00 -0.4010112099558E+01 -0.9235853908401E+00 -0.3700011695936E-01
-0.6226341459059E+00 -0.3880163385997E+01 -0.9005595197999E+00 -0.4790086114381E-01
-0.6227373500817E+00 -0.3743025727463E+01 -0.8731526285200E+00 -0.4827056885627E-01
-0.6048173513657E+00 -0.3598418153407E+01 -0.8406471134812E+00 -0.3554692305895E-01
-0.5647614728309E+00 -0.3446532954635E+01 -0.8022588974478E+00 -0.6828763048205E-02
-0.4973382656759E+00 -0.3288285053520E+01 -0.7571246751212E+00  0.4087160723781E-01
-0.3959245367925E+00 -0.3125557479964E+01 -0.7042964138461E+00  0.1102493018827E+00
-0.2522553207514E+00 -0.2961355924665E+01 -0.6427222586605E+00  0.2032250875224E+00
-0.5615939535746E-01 -0.2799852860290E+01 -0.5712024596411E+00  0.3203517245531E+00
 0.2043670931765E+00 -0.2646569471375E+01 -0.4884404829180E+00  0.4597767103498E+00
 0.5423333569433E+00 -0.2508298172743E+01 -0.3931929690189E+00  0.6157671616376E+00
 0.9699896484454E+00 -0.2392183684791E+01 -0.2844388115075E+00  0.7772775162631E+00
 0.1495833391836E+01 -0.2303878768176E+01 -0.1616090776763E+00  0.9269623493058E+00
 0.2120475922191E+01 -0.2244817600853E+01 -0.2486833610294E-01  0.1041429869669E+01
 0.2832242413716E+01 -0.2209173376742E+01  0.1246138092517E+00  0.1093629116698E+01
 0.3604120261585E+01 -0.2181828847183E+01  0.2844582871192E+00  0.1057864763717E+01
 0.4394333371519E+01 -0.2138593442058E+01  0.4511479926148E+00  0.9163307433565E+00
 0.5152773668489E+01 -0.2051066274927E+01  0.6203414879564E+00  0.6642363508804E+00
-0.1246100288931E+01 -0.5314996721621E+01 -0.1312219421664E+01  0.7791336340144E+00
-0.1084956753200E+01 -0.5375174841936E+01 -0.1292026338280E+01  0.8259340290525E+00
-0.9130494747149E+00 -0.5426821356597E+01 -0.1267974185157E+01  0.8395930089162E+00
-0.7480526839165E+00 -0.5461386634668E+01 -0.1241887882222E+01  0.8230484770157E+00
-0.6026776582510E+00 -0.5474531686537E+01 -0.1215441887069E+01  0.7845378710607E+00
-0.4828911948921E+00 -0.5466549575242E+01 -0.1189888171758E+01  0.7334187917501E+00
-0.3892705852560E+00 -0.5440750951126E+01 -0.1166004324651E+01  0.6772482479659E+00
-0.3193704769524E+00 -0.5401495012984E+01 -0.1144173115037E+01  0.6208191208447E+00
-0.2696712143698E+00 -0.5352848902157E+01 -0.1124504040062E+01  0.5664782370842E+00
-0.2367182942249E+00 -0.5297999091727E+01 -0.1106943493685E+01  0.5148847877352E+00
-0.2176151768185E+00 -0.5239151631735E+01 -0.1091353377973E+01  0.4657229676431E+00
-0.2101439778288E+00 -0.5177644859562E+01 -0.1077557783535E+01  0.4182182069460E+00
-0.2127147303150E+00 -0.5114108058332E+01 -0.1065364573605E+01  0.3714736574906E+00
-0.2242462910241E+00 -0.5048600249799E+01 -0.1054569323879E+01  0.3246903091559E+00
-0.2440123313898E+00 -0.4980724173935E+01 -0.1044947316636E+01  0.2773263691334E+00
-0.2714539618509E+00 -0.4909726389908E+01 -0.1036236085793E+01  0.2292163958531E+00
-0.3059513465456E+00 -0.4834615776337E+01 -0.1028113439897E+01  0.1806502148772E+00
-0.3465725664835E+00 -0.4754307570651E+01 -0.1020176042629E+01  0.1323824804293E+00
-0.3918629877741E+00 -0.4667759195489E+01 -0.1011924451732E+01  0.8553989695476E-01
-0.4397480286256E+00 -0.4574139707626E+01 -0.1002777562193E+01  0.4141837607274E-01
-0.4875756305847E+00 -0.4473287069695E+01 -0.9921725548405E+00  0.1133176692627E-02
-0.5324045104286E+00 -0.4365661733941E+01 -0.9796132634712E+00 -0.3452867514973E-01
-0.5713898853241E+00 -0.4251570622628E+01 -0.9645921159641E+00 -0.6482307495507E-01
-0.6019417796920E+00 -0.4130790317363E+01 -0.9465464335157E+00 -0.8872179259894E-01
-0.6216256156453E+00 -0.4002671247982E+01 -0.9248593865070E+00 -0.1047000639644E+00
-0.6278921161453E+00 -0.3866421182147E+01 -0.8988626730525E+00 -0.1106390759256E+00
-0.6177234658686E+00 -0.3721413492653E+01 -0.8678274046360E+00 -0.1038449334266E+00
-0.5872596239936E+00 -0.3567466891669E+01 -0.8309453155146E+00 -0.8117695963866E-01
-0.5314354669276E+00 -0.3405106498332E+01 -0.7873084047838E+00 -0.3927888563391E-01
-0.4436389993212E+00 -0.3235834185328E+01 -0.7358946478955E+00  0.2507188103543E-01
-0.3153535816619E+00 -0.3062328235191E+01 -0.6755363734368E+00  0.1145183634603E+00
-0.1357235206907E+00 -0.2888566604547E+01 -0.6048580340606E+00  0.2305553596220E+00
 0.1086068337915E+00 -0.2720178310793E+01 -0.5223143031834E+00  0.3724318848481E+00
 0.4329044352958E+00 -0.2564591192152E+01 -0.4263373577242E+00  0.5354494243764E+00
 0.8526965395221E+00 -0.2430271658656E+01 -0.3155150285283E+00  0.7090990059423E+00
 0.1380552265429E+01 -0.2324831892073E+01 -0.1888559281429E+00  0.8754424023730E+00
 0.2021156787202E+01 -0.2251850056987E+01 -0.4613865464451E-01  0.1008700992451E+01
 0.2765441445800E+01 -0.2206899463725E+01  0.1117083980796E+00  0.1077370542590E+01
 0.3585823074393E+01 -0.2174255737930E+01  0.2823134714994E+00  0.1049776821773E+01
 0.4435761774303E+01 -0.2126705750929E+01  0.4618112115562E+00  0.9024132111239E+00
 0.5257218948714E+01 -0.2030757884416E+01  0.6452922224753E+00  0.6280862760072E+00
-0.1269830263057E+01 -0.5434626391328E+01 -0.1340891350858E+01  0.8030704344054E+00
-0.1096282520948E+01 -0.5498652173628E+01 -0.1318986958570E+01  0.8484034182802E+00
-0.9116807226297E+00 -0.5552374573641E+01 -0.1292811078519E+01  0.8566295532881E+00
-0.7365600035581E+00 -0.5586136793549E+01 -0.1264539378265E+01  0.8320258743640E+00
-0.5848241579210E+00 -0.5595719578696E+01 -0.1236108765743E+01  0.7848976065754E+00
-0.4620805852051E+00 -0.5582430184215E+01 -0.1208902171898E+01  0.7262000478533E+00
-0.3678298544877E+00 -0.5550777020207E+01 -0.1183721392578E+01  0.6641984185813E+00
-0.2985337635380E+00 -0.5506031640654E+01 -0.1160913098137E+01  0.6036993746854E+00
-0.2498700241391E+00 -0.5452779365393E+01 -0.1140529894902E+01  0.5467243279978E+00
-0.2178997512406E+00 -0.5394421238693E+01 -0.1122464214713E+01  0.4935257526532E+00
-0.1994816964456E+00 -0.5333203601010E+01 -0.1106537075980E+01  0.4434200028104E+00
-0.1923079394120E+00 -0.5270426518308E+01 -0.1092546907824E+01  0.3953339336705E+00
-0.1947949640417E+00 -0.5206653835149E+01 -0.1080289775936E+01  0.3481326754190E+00
-0.2059338546899E+00 -0.5141869965164E+01 -0.1069560779909E+01  0.3008223769041E+00
-0.2251232574845E+00 -0.5075591382047E+01 -0.1060142943704E+01  0.2526983356294E+00
-0.2519738447155E+00 -0.5006955567939E+01 -0.1051785898204E+01  0.2034649896113E+00
-0.2860635288981E+00 -0.4934831305193E+01 -0.1044178982378E+01  0.1533265206384E+00
-0.3266534638739E+00 -0.4857966919690E+01 -0.1036924092164E+01  0.1030085835284E+00
-0.3724346157346E+00 -0.4775143556677E+01 -0.1029515649823E+01  0.5366116812171E-01
-0.4214010997278E+00 -0.4685367921731E+01 -0.1021353819511E+01  0.6625020352941E-02
-0.4708979092336E+00 -0.4588365460367E+01 -0.1011852688998E+01 -0.3696452286174E-01
-0.5179658070825E+00 -0.4484526349835E+01 -0.1000498446292E+01 -0.7635731672275E-01
-0.5598053057088E+00 -0.4374060199033E+01 -0.9867731156524E+00 -0.1108966938341E+00
-0.5939780593630E+00 -0.4256571714349E+01 -0.9701099691982E+00 -0.1396514933385E+00
-0.6183021554067E+00 -0.4131161426881E+01 -0.9498927306121E+00 -0.1611556212461E+00
-0.6305458508304E+00 -0.3996726567033E+01 -0.9254544973629E+00 -0.1732757289159E+00
-0.6280283017065E+00 -0.3852285936027E+01 -0.8960628608990E+00 -0.1732109309082E+00
-0.6072033920838E+00 -0.3697266295675E+01 -0.8608939503801E+00 -0.1576068633252E+00
-0.5632541991250E+00 -0.3531764760132E+01 -0.8190038040555E+00 -0.1227636097663E+00
-0.4896905657124E+00 -0.3356831042481E+01 -0.7693043331021E+00 -0.6494456723279E-01
-0.3778859130208E+00 -0.3174699614552E+01 -0.7105171161022E+00  0.1923623778407E-01
-0.2164574147142E+00 -0.2988986197806E+01 -0.6410887320570E+00  0.1323073512243E+00
 0.9182342842907E-02 -0.2805228281823E+01 -0.5592091961290E+00  0.2748273495336E+00
 0.3165805982469E+00 -0.2631320078712E+01 -0.4629479029914E+00  0.4434879038258E+00
 0.7248583138045E+00 -0.2477019115288E+01 -0.3504321655186E+00  0.6287950717302E+00
 0.1251416674003E+01 -0.2352130645774E+01 -0.2201427976345E+00  0.8126760408930E+00
 0.1906225107954E+01 -0.2262932798836E+01 -0.7134153923943E-01  0.9671195553763E+00
 0.2684210036825E+01 -0.2207093910227E+01  0.9542322674145E-01  0.1055642892242E+01
 0.3558078900177E+01 -0.2168789966373E+01  0.2778577909012E+00  0.1039295902708E+01
 0.4476054649910E+01 -0.2117302179030E+01  0.4717505012055E+00  0.8871927171224E+00
 0.5369143224889E+01 -0.2012614630374E+01  0.6713057289062E+00  0.5886218428289E+00
-0.1293804359265E+01 -0.5558504283392E+01 -0.1370461748953E+01  0.8287397880693E+00
-0.1106218377722E+01 -0.5626721300361E+01 -0.1346587955682E+01  0.8722165794953E+00
-0.9075116286706E+00 -0.5682363430067E+01 -0.1317975031387E+01  0.8739378988605E+00
-0.7216645355547E+00 -0.5714526654200E+01 -0.1287238257132E+01  0.8400148370808E+00
-0.5637632102539E+00 -0.5719356341563E+01 -0.1256623929089E+01  0.7833342984259E+00
-0.4387031326809E+00 -0.5699547593610E+01 -0.1227650163552E+01  0.7166467722422E+00
-0.3445595566403E+00 -0.5661059079397E+01 -0.1201123745106E+01  0.6488472058066E+00
-0.2765038051999E+00 -0.5610150283736E+01 -0.1177330835331E+01  0.5845809238688E+00
-0.2293476417722E+00 -0.5551889161108E+01 -0.1156247377806E+01  0.5253944002583E+00
-0.1986748979277E+00 -0.5489820843602E+01 -0.1137699165259E+01  0.4710440042683E+00
-0.1811285357466E+00 -0.5426169055472E+01 -0.1121459534955E+01  0.4204376553965E+00
-0.1743380109410E+00 -0.5362153835623E+01 -0.1107298385813E+01  0.3721909158899E+00
-0.1767452170072E+00 -0.5298252811193E+01 -0.1094999621957E+01  0.3249296240539E+00
-0.1874249090449E+00 -0.5234371321960E+01 -0.1084359262359E+01  0.2774647725064E+00
-0.2059092203021E+00 -0.5169945197920E+01 -0.1075170899666E+01  0.2289234159620E+00
-0.2319899155092E+00 -0.5104011216633E+01 -0.1067200242331E+01  0.1788678557342E+00
-0.2654614336389E+00 -0.5035301914318E+01 -0.1060152685389E+01  0.1274012240668E+00
-0.3058021902812E+00 -0.4962394027134E+01 -0.1053639259183E+01  0.7520854187505E-01
-0.3518686475843E+00 -0.4883881375264E+01 -0.1047150020173E+01  0.2346099784201E-01
-0.4017274797510E+00 -0.4798597427203E+01 -0.1040064996889E+01 -0.2645035307820E-01
-0.4527054135436E+00 -0.4706150026617E+01 -0.1031771103407E+01 -0.7336565914845E-01
-0.5018014638810E+00 -0.4606860432417E+01 -0.1021732394485E+01 -0.1165775323101E+00
-0.5462462227285E+00 -0.4500844346668E+01 -0.1009418128921E+01 -0.1555361278532E+00
-0.5837568126478E+00 -0.4387536121492E+01 -0.9942586016436E+00 -0.1894344735435E+00
-0.6124267336870E+00 -0.4265786426785E+01 -0.9756426466326E+00 -0.2168928705655E+00
-0.6303780715562E+00 -0.4134182407898E+01 -0.9529121100904E+00 -0.2357896672865E+00
-0.6353134107753E+00 -0.3991388106551E+01 -0.9253403172539E+00 -0.2432446449418E+00
-0.6240601200231E+00 -0.3836431029534E+01 -0.8920982432047E+00 -0.2357230049308E+00
-0.5921320688188E+00 -0.3668953527104E+01 -0.8522171318836E+00 -0.2092204271797E+00
-0.5332802930765E+00 -0.3489490088600E+01 -0.8045540883240E+00 -0.1595226779933E+00
-0.4389348856903E+00 -0.3299712788763E+01 -0.7477295460327E+00 -0.8251088025655E-01
-0.2973938145498E+00 -0.3102685047644E+01 -0.6800157825717E+00  0.2543644166855E-01
-0.9303982350165E-01 -0.2903599567249E+01 -0.5993278870808E+00  0.1663771343555E+00
 0.1938736673077E+00 -0.2710558078569E+01 -0.5033368897526E+00  0.3387742565141E+00
 0.5862972930845E+00 -0.2534471077522E+01 -0.3896347626935E+00  0.5347318669700E+00
 0.1107252603561E+01 -0.2387505307538E+01 -0.2560505446107E+00  0.7367000869969E+00
 0.1773456748915E+01 -0.2279249149421E+01 -0.1011584816087E+00  0.9148146430377E+00
 0.2585698290105E+01 -0.2210413266042E+01  0.7505700593105E-01  0.1027201743676E+01
 0.3518380910394E+01 -0.2165785181169E+01  0.2705191498761E+00  0.1026082765874E+01
 0.4514059778680E+01 -0.2110783008622E+01  0.4806553611739E+00  0.8709080017348E+00
 0.5489832438956E+01 -0.1996790170909E+01  0.6986084640194E+00  0.5453722492036E+00
-0.1318020613580E+01 -0.5687309828643E+01 -0.1401066109322E+01  0.8563517210162E+00
-0.1114434524118E+01 -0.5760089847129E+01 -0.1374904894737E+01  0.8974496889698E+00
-0.9000126453360E+00 -0.5817357375335E+01 -0.1343474024154E+01  0.8913069231306E+00
-0.7028886680042E+00 -0.5846833934890E+01 -0.1309944540099E+01  0.8465616745459E+00
-0.5392219076490E+00 -0.5845410411553E+01 -0.1276926482868E+01  0.7793198726309E+00
-0.4126964226698E+00 -0.5817656524207E+01 -0.1246070607943E+01  0.7043002031261E+00
-0.3195390200401E+00 -0.5771256140096E+01 -0.1218159050179E+01  0.6308639817887E+00
-0.2534297160749E+00 -0.5713496479397E+01 -0.1193385256877E+01  0.5632559737603E+00
-0.2082761010305E+00 -0.5649848319814E+01 -0.1171624901628E+01  0.5023733948393E+00
-0.1792161354797E+00 -0.5583900556921E+01 -0.1152623355655E+01  0.4473871530373E+00
-0.1627209310727E+00 -0.5517776847974E+01 -0.1136099572739E+01  0.3967649740551E+00
-0.1563916788709E+00 -0.5452570503660E+01 -0.1121792453222E+01  0.3488079877016E+00
-0.1587163813342E+00 -0.5388652348959E+01 -0.1109473762591E+01  0.3019093582274E+00
-0.1688634491424E+00 -0.5325847436222E+01 -0.1098942193448E+01  0.2546903177061E+00
-0.1865038055062E+00 -0.5263522051563E+01 -0.1090005187656E+01  0.2061074355088E+00
-0.2116186627120E+00 -0.5200627352886E+01 -0.1082449219249E+01  0.1555686879626E+00
-0.2442369107501E+00 -0.5135769457427E+01 -0.1076001289669E+01  0.1030574411576E+00
-0.2840812347981E+00 -0.5067351766006E+01 -0.1070286616109E+01  0.4920200662210E-01
-0.3301982683989E+00 -0.4993768866282E+01 -0.1064793442803E+01 -0.4809689774864E-02
-0.3807335106458E+00 -0.4913667088201E+01 -0.1058880135548E+01 -0.5752965358380E-01
-0.4329773681682E+00 -0.4826528628617E+01 -0.1051901215032E+01 -0.1077661966105E+00
-0.4838572988293E+00 -0.4732605309918E+01 -0.1043292537296E+01 -0.1548588715778E+00
-0.5306136758560E+00 -0.4631921542343E+01 -0.1032507059025E+01 -0.1983843864984E+00
-0.5711209004510E+00 -0.4523743408611E+01 -0.1018972876996E+01 -0.2376878761307E+00
-0.6037704875882E+00 -0.4406674855436E+01 -0.1002089083537E+01 -0.2715037372775E+00
-0.6270739694918E+00 -0.4279000176316E+01 -0.9812148437829E+00 -0.2977480171438E+00
-0.6391610593586E+00 -0.4139039256684E+01 -0.9556400774487E+00 -0.3134905011254E+00
-0.6372876379004E+00 -0.3985427331417E+01 -0.9245430076402E+00 -0.3150556840475E+00
-0.6173774318608E+00 -0.3817341467707E+01 -0.8869437931301E+00 -0.2981886415341E+00
-0.5735455225079E+00 -0.3634752593438E+01 -0.8416596357309E+00 -0.2582595552886E+00
-0.4974656631575E+00 -0.3438658192820E+01 -0.7872247829260E+00 -0.1904647055784E+00
-0.3773752848951E+00 -0.3231365324103E+01 -0.7217481325546E+00 -0.9007728171242E-01
-0.1969235162152E+00 -0.3017417063467E+01 -0.6428681255158E+00  0.4660901114741E-01
 0.6561682533467E-01 -0.2804759247247E+01 -0.5478284925457E+00  0.2202103751777E+00
 0.4371202595130E+00 -0.2605167964965E+01 -0.4336095475517E+00  0.4251085981218E+00
 0.9469834698380E+00 -0.2433208588806E+01 -0.2972450282228E+00  0.6451708081779E+00
 0.1620377042922E+01 -0.2302408332801E+01 -0.1364062600084E+00  0.8493959098491E+00
 0.2466442702267E+01 -0.2217723983321E+01  0.4974374453049E-01  0.9903260427886E+00
 0.3463471549970E+01 -0.2165669477864E+01  0.2595604182889E+00  0.1009574422029E+01
 0.4548329586983E+01 -0.2107519406691E+01  0.4881620433326E+00  0.8537453465166E+00
 0.5620781299597E+01 -0.1983593495836E+01  0.7274375715918E+00  0.4979026970607E+00
-0.1342465016431E+01 -0.5821888118705E+01 -0.1432870648379E+01  0.8861544685492E+00
-0.1120497599705E+01 -0.5899624925703E+01 -0.1404024526003E+01  0.9241631740145E+00
-0.8885260862218E+00 -0.5958013927221E+01 -0.1369308023093E+01  0.9084199818666E+00
-0.6796858813031E+00 -0.5983319265468E+01 -0.1332601049212E+01  0.8510674412361E+00
-0.5109334496703E+00 -0.5973760050697E+01 -0.1296938719399E+01  0.7722095524290E+00
-0.3840457108916E+00 -0.5936404538932E+01 -0.1264090068801E+01  0.6886402213933E+00
-0.2929015890621E+00 -0.5880939449400E+01 -0.1234768226092E+01  0.6099011966486E+00
-0.2295037740806E+00 -0.5815656770636E+01 -0.1209032126959E+01  0.5395227324893E+00
-0.1868569581804E+00 -0.5746291560412E+01 -0.1186629721401E+01  0.4775591254335E+00
-0.1597149327746E+00 -0.5676343077191E+01 -0.1167211619386E+01  0.4225143211282E+00
-0.1444369314556E+00 -0.5607744174082E+01 -0.1150436238250E+01  0.3723980043357E+00
-0.1386366002874E+00 -0.5541411582224E+01 -0.1136009653430E+01  0.3252058643718E+00
-0.1408696907543E+00 -0.5477590170461E+01 -0.1123691988987E+01  0.2791142378612E+00
-0.1504059462055E+00 -0.5416027575984E+01 -0.1113286721027E+01  0.2325667102349E+00
-0.1670560238579E+00 -0.5356038117324E+01 -0.1104618844697E+01  0.1843511277711E+00
-0.1909942508841E+00 -0.5296510791652E+01 -0.1097501024861E+01  0.1337092276891E+00
-0.2224997502292E+00 -0.5235943285741E+01 -0.1091688623462E+01  0.8048193554315E-01
-0.2615692514705E+00 -0.5172568594381E+01 -0.1086827585365E+01  0.2521858719736E-01
-0.3074704259324E+00 -0.5104569607651E+01 -0.1082408022846E+01 -0.3088475266166E-01
-0.3584378269865E+00 -0.5030387455259E+01 -0.1077765072509E+01 -0.8631596433940E-01
-0.4117050079741E+00 -0.4949365863975E+01 -0.1072214190367E+01 -0.1398408740388E+00
-0.4640912127245E+00 -0.4861682977155E+01 -0.1065154853848E+01 -0.1908479005898E+00
-0.5128205826308E+00 -0.4767272157527E+01 -0.1056018563768E+01 -0.2390599250036E+00
-0.5559246736065E+00 -0.4665232917830E+01 -0.1044231533848E+01 -0.2840020496193E+00
-0.5921157134606E+00 -0.4553928820938E+01 -0.1029208922216E+01 -0.3245489491718E+00
-0.6203292274949E+00 -0.4431356556628E+01 -0.1010337171880E+01 -0.3586783024177E+00
-0.6391614696009E+00 -0.4295515450622E+01 -0.9869353987511E+00 -0.3834390798322E+00
-0.6463442532323E+00 -0.4144673023922E+01 -0.9582034697092E+00 -0.3950596912257E+00
-0.6382816835168E+00 -0.3977551831050E+01 -0.9231667166696E+00 -0.3891022200865E+00
-0.6095723057471E+00 -0.3793533405756E+01 -0.8806211554230E+00 -0.3606104786965E+00
-0.5523332362078E+00 -0.3592845995489E+01 -0.8290358586929E+00 -0.3041882429917E+00
-0.4550460919353E+00 -0.3376835858655E+01 -0.7663764015379E+00 -0.2140526117063E+00
-0.3010240632495E+00 -0.3149050430782E+01 -0.6900149090883E+00 -0.8476776633421E-01
-0.6695082410680E-01 -0.2916804657215E+01 -0.5967511051567E+00  0.8677963082882E-01
 0.2778476916973E+00 -0.2692257882997E+01 -0.4828820454554E+00  0.2979962404642E+00
 0.7697593865511E+00 -0.2492191076466E+01 -0.3444863431163E+00  0.5353244052881E+00
 0.1444307277960E+01 -0.2334624174217E+01 -0.1780633819048E+00  0.7678067064277E+00
 0.2322240654759E+01 -0.2230241107291E+01  0.1839990976787E-01  0.9426242822861E+00
 0.3389120214728E+01 -0.2168967941676E+01  0.2440304582467E+00  0.9888340559397E+00
 0.4576900502368E+01 -0.2107985629164E+01  0.4937829819988E+00  0.8358783560979E+00
 0.5763809469688E+01 -0.1973472335164E+01  0.7580674382009E+00  0.4457669723518E+00
-0.1367103956284E+01 -0.5963305947127E+01 -0.1466082002529E+01  0.9184442578497E+00
-0.1123832062702E+01 -0.6046399549163E+01 -0.1434046343742E+01  0.9523851717413E+00
-0.8722331235364E+00 -0.6105086185796E+01 -0.1395463882660E+01  0.9248070781130E+00
-0.6514410440796E+00 -0.6124193671611E+01 -0.1355126963331E+01  0.8527429161803E+00
-0.4786596280941E+00 -0.6104149459336E+01 -0.1316561837104E+01  0.7612235376069E+00
-0.3528070160032E+00 -0.6055300752976E+01 -0.1281621572893E+01  0.6690896071093E+00
-0.2648484230375E+00 -0.5989578388438E+01 -0.1250885380935E+01  0.5856069121068E+00
-0.2049667016778E+00 -0.5916155814264E+01 -0.1224224521431E+01  0.5131969118183E+00
-0.1653218247036E+00 -0.5840820358046E+01 -0.1201228454450E+01  0.4508700866935E+00
-0.1403803858837E+00 -0.5766814786634E+01 -0.1181439052108E+01  0.3964006451120E+00
-0.1264653676797E+00 -0.5695780429098E+01 -0.1164449176707E+01  0.3473418809438E+00
-0.1212486167869E+00 -0.5628407098409E+01 -0.1149931160174E+01  0.3014074388526E+00
-0.1233751869525E+00 -0.5564797407159E+01 -0.1137634535774E+01  0.2565829363670E+00
-0.1322206942154E+00 -0.5504629208236E+01 -0.1127369997289E+01  0.2111540584093E+00
-0.1477309576754E+00 -0.5447189674901E+01 -0.1118984143189E+01  0.1637468293390E+00
-0.1702705823408E+00 -0.5391339211373E+01 -0.1112321975318E+01  0.1134259814593E+00
-0.2003806693714E+00 -0.5335496039540E+01 -0.1107175358280E+01  0.5986294109947E-01
-0.2383640462442E+00 -0.5277733032427E+01 -0.1103219432174E+01  0.3497467395991E-02
-0.2837481099467E+00 -0.5216009246643E+01 -0.1099951487709E+01 -0.5448155594702E-01
-0.3348728389433E+00 -0.5148537089977E+01 -0.1096682002126E+01 -0.1124913526175E+00
-0.3888925216940E+00 -0.5074501669297E+01 -0.1092678854480E+01 -0.1692410005205E+00
-0.4424738454954E+00 -0.4993996679955E+01 -0.1087294121292E+01 -0.2241668357200E+00
-0.4927924297532E+00 -0.4906859870621E+01 -0.1079930476167E+01 -0.2771567911172E+00
-0.5380352770339E+00 -0.4812024077111E+01 -0.1070011886773E+01 -0.3279424554681E+00
-0.5772585681656E+00 -0.4707622159800E+01 -0.1056976161343E+01 -0.3755613821763E+00
-0.6098549508221E+00 -0.4591388016539E+01 -0.1040248608973E+01 -0.4180724329412E+00
-0.6349207957078E+00 -0.4461039392147E+01 -0.1019192052758E+01 -0.4525305699597E+00
-0.6507004834595E+00 -0.4314521399351E+01 -0.9930443913597E+00 -0.4751154511919E+00
-0.6541349129276E+00 -0.4150139047335E+01 -0.9608548063703E+00 -0.4812856904412E+00
-0.6404135611432E+00 -0.3966689431160E+01 -0.9214206121909E+00 -0.4658748133927E+00
-0.6022982333249E+00 -0.3763567883316E+01 -0.8731732363395E+00 -0.4230348291637E+00
-0.5288544953508E+00 -0.3540974474913E+01 -0.8139658061818E+00 -0.3460513371232E+00
-0.4035568277362E+00 -0.3301095442024E+01 -0.7409304649928E+00 -0.2277771522769E+00
-0.2020926897848E+00 -0.3050035755262E+01 -0.6504256987014E+00 -0.6234932668453E-01
 0.1095780200393E+00 -0.2799620910275E+01 -0.5380085860640E+00  0.1514181390473E+00
 0.5751543690814E+00 -0.2568326607792E+01 -0.3986344536822E+00  0.4039607090535E+00
 0.1242473050976E+01 -0.2378987868085E+01 -0.2273029668087E+00  0.6661540540326E+00
 0.2148030656719E+01 -0.2249732762607E+01 -0.2034042148060E-01  0.8807540467305E+00
 0.3289783053335E+01 -0.2176401398401E+01  0.2226763343051E+00  0.9623459847327E+00
 0.4596998313697E+01 -0.2112799415338E+01  0.4968397870752E+00  0.8174719398317E+00
 0.5921190620612E+01 -0.1967038899266E+01  0.7908303560534E+00  0.3884697371078E+00
-0.1391871851075E+01 -0.6112932718615E+01 -0.1500960936304E+01  0.9535779532505E+00
-0.1123664555242E+01 -0.6201754890224E+01 -0.1465083910924E+01  0.9820825703883E+00
-0.8501134655820E+00 -0.6259422986392E+01 -0.1421907311583E+01  0.9397736564006E+00
-0.6174800932501E+00 -0.6269564047514E+01 -0.1377408848678E+01  0.8505508956840E+00
-0.4422260710687E+00 -0.6236127763860E+01 -0.1335670786889E+01  0.7454315525414E+00
-0.3191367575631E+00 -0.6173679195757E+01 -0.1298563210014E+01  0.6450268800292E+00
-0.2356630457635E+00 -0.6096527977596E+01 -0.1266438223543E+01  0.5576438003701E+00
-0.1801114914876E+00 -0.6014456508690E+01 -0.1238913618497E+01  0.4841262675789E+00
-0.1439313609518E+00 -0.5933007323973E+01 -0.1215387755096E+01  0.4222543010751E+00
-0.1214366551098E+00 -0.5854970885730E+01 -0.1195281525979E+01  0.3690420283499E+00
-0.1090030197310E+00 -0.5781592078501E+01 -0.1178119037202E+01  0.3216129162663E+00
-0.1044091196243E+00 -0.5713286460801E+01 -0.1163539133423E+01  0.2774379814835E+00
-0.1064095836728E+00 -0.5650002459972E+01 -0.1151282425884E+01  0.2343490285894E+00
-0.1144866182342E+00 -0.5591360898747E+01 -0.1141169520401E+01  0.1905019301289E+00
-0.1287101085105E+00 -0.5536654176646E+01 -0.1133072873915E+01  0.1443743006015E+00
-0.1496235321356E+00 -0.5484759378649E+01 -0.1126876598949E+01  0.9484577452961E-01
-0.1780349839105E+00 -0.5434058722617E+01 -0.1122418758031E+01  0.4138694203177E-01
-0.2145864660065E+00 -0.5382486655749E+01 -0.1119414641032E+01 -0.1571341484062E-01
-0.2591133481152E+00 -0.5327768555531E+01 -0.1117376397380E+01 -0.7529934272376E-01
-0.3100865236015E+00 -0.5267857820219E+01 -0.1115588885388E+01 -0.1357137373079E+00
-0.3645578557164E+00 -0.5201749916233E+01 -0.1113261570979E+01 -0.1955911390999E+00
-0.4189886869754E+00 -0.5129432546641E+01 -0.1109684263259E+01 -0.2544113722668E+00
-0.4704671678245E+00 -0.5050634718525E+01 -0.1104220393724E+01 -0.3122446486154E+00
-0.5173331753433E+00 -0.4964118625863E+01 -0.1096290376577E+01 -0.3690522481586E+00
-0.5590112659975E+00 -0.4867799806615E+01 -0.1085362230696E+01 -0.4240507406632E+00
-0.5953825281697E+00 -0.4759185907948E+01 -0.1070913703181E+01 -0.4753925134464E+00
-0.6260696312563E+00 -0.4635770165228E+01 -0.1052367974978E+01 -0.5201605195279E+00
-0.6498523123165E+00 -0.4495244182650E+01 -0.1029019314327E+01 -0.5545330973105E+00
-0.6642448475360E+00 -0.4335562802569E+01 -0.9999615449216E+00 -0.5739536787558E+00
-0.6651134362349E+00 -0.4154982439877E+01 -0.9640191895874E+00 -0.5731858097260E+00
-0.6460531225921E+00 -0.3952047669964E+01 -0.9196201722146E+00 -0.5461195752052E+00
-0.5970699129654E+00 -0.3725671084986E+01 -0.8645482124730E+00 -0.4853189833897E+00
-0.5023810480309E+00 -0.3476327938625E+01 -0.7957418091886E+00 -0.3820738958041E+00
-0.3374850370373E+00 -0.3208261307812E+01 -0.7091492795369E+00 -0.2276785228341E+00
-0.6581175884777E-01 -0.2931992575215E+01 -0.5995608757466E+00 -0.1650755747952E-01
 0.3634537821994E+00 -0.2666697551291E+01 -0.4606487606826E+00  0.2474800118584E+00
 0.1012222819933E+01 -0.2439864431481E+01 -0.2855283265643E+00  0.5395230193849E+00
 0.1937795665725E+01 -0.2278861580251E+01 -0.6821318392166E-01  0.8000324939492E+00
 0.3158122733036E+01 -0.2189036232479E+01  0.1938173029995E+00  0.9276798504824E+00
 0.4604586286644E+01 -0.2122763035127E+01  0.4963646576998E+00  0.7986372257997E+00
 0.6095844936063E+01 -0.1965117465726E+01  0.8261455063779E+00  0.3254366974489E+00
-0.1416650556086E+01 -0.6272560290755E+01 -0.1537842192284E+01  0.9919893106765E+00
-0.1118942692467E+01 -0.6367384053055E+01 -0.1497265371415E+01  0.1013109983488E+01
-0.8208981894744E+00 -0.6421952111529E+01 -0.1448570081786E+01  0.9522938977236E+00
-0.5770971957601E+00 -0.6419343518014E+01 -0.1399288163606E+01  0.8431345210981E+00
-0.4015754536401E+00 -0.6368966212214E+01 -0.1354108353349E+01  0.7237462846848E+00
-0.2833280070358E+00 -0.6290658947800E+01 -0.1314797410559E+01  0.6158125125212E+00
-0.2057249292792E+00 -0.6201020911817E+01 -0.1281349187313E+01  0.5257159789720E+00
-0.1552845641107E+00 -0.6109964605234E+01 -0.1253049852541E+01  0.4522079438659E+00
-0.1229722341598E+00 -0.6022403367437E+01 -0.1229075138634E+01  0.3916987917650E+00
-0.1031191225063E+00 -0.5940462137658E+01 -0.1208716270044E+01  0.3404598901155E+00
-0.9225093851702E-01 -0.5864888539847E+01 -0.1191427913426E+01  0.2952405700878E+00
-0.8830173901317E-01 -0.5795783669412E+01 -0.1176817099221E+01  0.2533252312002E+00
-0.9015345396707E-01 -0.5732935711389E+01 -0.1164617850425E+01  0.2124394151757E+00
-0.9739138341909E-01 -0.5675926242041E+01 -0.1154663542298E+01  0.1706459629005E+00
-0.1101912391900E+00 -0.5624092335079E+01 -0.1146856731943E+01  0.1262955739384E+00
-0.1292532520430E+00 -0.5576385811133E+01 -0.1141127829639E+01  0.7807980292698E-01
-0.1556471064532E+00 -0.5531215015943E+01 -0.1137372441427E+01  0.2523393554543E-01
-0.1903855499151E+00 -0.5486415099257E+01 -0.1135360146753E+01 -0.3215895402817E-01
-0.2336713068714E+00 -0.5439474065616E+01 -0.1134629091405E+01 -0.9301721451856E-01
-0.2841447691087E+00 -0.5388048299044E+01 -0.1134438630535E+01 -0.1556124178863E+00
-0.3387333937681E+00 -0.5330896839942E+01 -0.1133926063639E+01 -0.2184841162050E+00
-0.3936314260252E+00 -0.5267862590701E+01 -0.1132298820218E+01 -0.2811472448501E+00
-0.4457939591131E+00 -0.5198538346273E+01 -0.1128866477899E+01 -0.3438685019891E+00
-0.4937115657516E+00 -0.5121504938949E+01 -0.1123043317675E+01 -0.4068556400690E+00
-0.5372035397765E+00 -0.5034478568448E+01 -0.1114336438250E+01 -0.4695098215738E+00
-0.5766682494641E+00 -0.4934792207434E+01 -0.1102292107805E+01 -0.5300787080124E+00
-0.6122718107613E+00 -0.4819793054447E+01 -0.1086412989230E+01 -0.5856880943893E+00
-0.6433356074331E+00 -0.4687013994058E+01 -0.1066069936184E+01 -0.6325598576167E+00
-0.6679587208205E+00 -0.4534160287230E+01 -0.1040423817114E+01 -0.6662149904171E+00
-0.6827379129144E+00 -0.4359036876131E+01 -0.1008354972835E+01 -0.6815061555908E+00
-0.6822601786113E+00 -0.4159380492367E+01 -0.9683281486248E+00 -0.6722964586506E+00
-0.6578195217732E+00 -0.3932748369733E+01 -0.9181135919822E+00 -0.6307267501058E+00
-0.5950092815364E+00 -0.3677620603626E+01 -0.8545259897659E+00 -0.5468275336922E+00
-0.4701445148771E+00 -0.3395717864019E+01 -0.7731724873004E+00 -0.4091912504122E+00
-0.2454371237101E+00 -0.3095062553221E+01 -0.6680999453417E+00 -0.2073376308680E+00
 0.1360580591187E+00 -0.2793936104645E+01 -0.5315756170264E+00  0.6201942532021E-01
 0.7514261327876E+00 -0.2523463780237E+01 -0.3544075347709E+00  0.3818084400544E+00
 0.1684550069817E+01 -0.2321746604157E+01 -0.1274393087671E+00  0.6938989664759E+00
 0.2984347535030E+01 -0.2208552344322E+01  0.1551590404537E+00  0.8809252743707E+00
 0.4593639389580E+01 -0.2138926391827E+01  0.4909426068661E+00  0.7793000420888E+00
 0.6291608602448E+01 -0.1968838964783E+01  0.8645539404160E+00  0.2559952042638E+00
-0.1441234410354E+01 -0.6444585757172E+01 -0.1577164057007E+01  0.1034209460148E+01
-0.1108214998062E+01 -0.6545444353430E+01 -0.1530731893108E+01  0.1045118739321E+01
-0.7830193675115E+00 -0.6593627435384E+01 -0.1475329382563E+01  0.9608500972590E+00
-0.5296130840704E+00 -0.6573106458689E+01 -0.1420543929720E+01  0.8287334801824E+00
-0.3568448528236E+00 -0.6501550008519E+01 -0.1371678992708E+01  0.6949366891377E+00
-0.2458516400673E+00 -0.6405106533146E+01 -0.1330191654464E+01  0.5808346493960E+00
-0.1755191435272E+00 -0.6302168462408E+01 -0.1295537540492E+01  0.4896042953757E+00
-0.1308827890468E+00 -0.6202039343520E+01 -0.1266584445387E+01  0.4174077161008E+00
-0.1027516032296E+00 -0.6108548023902E+01 -0.1242259943937E+01  0.3592390263697E+00
-0.8566916610071E-01 -0.6022943324319E+01 -0.1221722516289E+01  0.3107055694786E+00
-0.7640990976735E-01 -0.5945389095912E+01 -0.1204359819082E+01  0.2682691380199E+00
-0.7310835460617E-01 -0.5875643337689E+01 -0.1189750356188E+01  0.2290993488384E+00
-0.7478767195455E-01 -0.5813335182948E+01 -0.1177624588528E+01  0.1908726604736E+00
-0.8112859781195E-01 -0.5758029107982E+01 -0.1167831558561E+01  0.1516041424124E+00
-0.9238737846753E-01 -0.5709151780068E+01 -0.1160307848997E+01  0.1095487774563E+00
-0.1093862839625E+00 -0.5665800506796E+01 -0.1155037375363E+01  0.6321576800264E-01
-0.1334359498971E+00 -0.5626495079848E+01 -0.1151986223115E+01  0.1157046282913E-01
-0.1659453852399E+00 -0.5589036619231E+01 -0.1150996418045E+01 -0.4557982460905E-01
-0.2075560418791E+00 -0.5550685353052E+01 -0.1151648296147E+01 -0.1072917894592E+00
-0.2571346285097E+00 -0.5508755122137E+01 -0.1153177967313E+01 -0.1717817567967E+00
-0.3114665162191E+00 -0.5461699289599E+01 -0.1154633178369E+01 -0.2374735708293E+00
-0.3664081763505E+00 -0.5409149851177E+01 -0.1155111622718E+01 -0.3039048958537E+00
-0.4187302224937E+00 -0.5350512581456E+01 -0.1153848577984E+01 -0.3715479600543E+00
-0.4670741812816E+00 -0.5284165454645E+01 -0.1150247944325E+01 -0.4408623286576E+00
-0.5116830641513E+00 -0.5207649972838E+01 -0.1143866624443E+01 -0.5114228253046E+00
-0.5534974960785E+00 -0.5118196344133E+01 -0.1134338784945E+01 -0.5815595546496E+00
-0.5932332250195E+00 -0.5013110002697E+01 -0.1121268662251E+01 -0.6484471216622E+00
-0.6307411641867E+00 -0.4889887323435E+01 -0.1104125713977E+01 -0.7083911528419E+00
-0.6646873373039E+00 -0.4746118232475E+01 -0.1082161130081E+01 -0.7570822403072E+00
-0.6924111225983E+00 -0.4579294669315E+01 -0.1054341174094E+01 -0.7896315406510E+00
-0.7096018394890E+00 -0.4386462145364E+01 -0.1019212812158E+01 -0.8001453735096E+00
-0.7091484098306E+00 -0.4163859010060E+01 -0.9746014985007E+00 -0.7807217229253E+00
-0.6786547030249E+00 -0.3907813783134E+01 -0.9172937109005E+00 -0.7206015531116E+00
-0.5963972236153E+00 -0.3616958674081E+01 -0.8426711920961E+00 -0.6061190083744E+00
-0.4251735348845E+00 -0.3295506106147E+01 -0.7441359392947E+00 -0.4219587644459E+00
-0.1039791436208E+00 -0.2958595388833E+01 -0.6125149156179E+00 -0.1562395594993E+00
 0.4591552625777E+00 -0.2638642077889E+01 -0.4358973695575E+00  0.1856378164039E+00
 0.1380536742067E+01 -0.2384896106758E+01 -0.2008718759315E+00  0.5531971558622E+00
 0.2755331847692E+01 -0.2237761152639E+01  0.1035141405531E+00  0.8157378989792E+00
 0.4554933647246E+01 -0.2162706807487E+01  0.4784453750812E+00  0.7588871624185E+00
 0.6513609624354E+01 -0.1979815212927E+01  0.9067588957970E+00  0.1793653234264E+00
-0.1465269666828E+01 -0.6632299778721E+01 -0.1619513913243E+01  0.1080891377466E+01
-0.1089451368980E+01 -0.6738704991172E+01 -0.1565631295360E+01  0.1077391711643E+01
-0.7345676799453E+00 -0.6775301646694E+01 -0.1501973887709E+01  0.9631908143942E+00
-0.4744872702540E+00 -0.6729857783603E+01 -0.1440869032242E+01  0.8050981122898E+00
-0.3084731589566E+00 -0.6632245939580E+01 -0.1388143840392E+01  0.6576800645885E+00
-0.2073971841694E+00 -0.6515611502755E+01 -0.1344601757421E+01  0.5395809855874E+00
-0.1456376331359E+00 -0.6398975531415E+01 -0.1308922652415E+01  0.4492088901613E+00
-0.1073449609408E+00 -0.6290011076322E+01 -0.1279471226518E+01  0.3797794436956E+00
-0.8358891125313E-01 -0.6190982963601E+01 -0.1254914393670E+01  0.3249675579063E+00
-0.6932755680189E-01 -0.6102083281186E+01 -0.1234282185990E+01  0.2798640330635E+00
-0.6167512975454E-01 -0.6022830641371E+01 -0.1216901172358E+01  0.2407590184337E+00
-0.5900450273607E-01 -0.5952627326207E+01 -0.1202326383705E+01  0.2047927518898E+00
-0.6048911448116E-01 -0.5890952993538E+01 -0.1190288439340E+01  0.1696574105774E+00
-0.6589392850684E-01 -0.5837380272439E+01 -0.1180654857782E+01  0.1333730201830E+00
-0.7552456826428E-01 -0.5791472759194E+01 -0.1173399482977E+01  0.9414107069776E-01
-0.9027705634215E-01 -0.5752554479871E+01 -0.1168566324656E+01  0.5030770902013E-01
-0.1116612609391E+00 -0.5719369148183E+01 -0.1166206099202E+01  0.5394445063464E-03
-0.1414943133355E+00 -0.5689787386060E+01 -0.1166256357258E+01 -0.5571773330179E-01
-0.1809388141768E+00 -0.5660877209153E+01 -0.1168363222076E+01 -0.1177547146337E+00
-0.2291691739319E+00 -0.5629559852209E+01 -0.1171745822689E+01 -0.1837722307168E+00
-0.2828201817036E+00 -0.5593882232911E+01 -0.1175340500437E+01 -0.2520627586042E+00
-0.3373321419990E+00 -0.5553156251342E+01 -0.1178097696223E+01 -0.3221712069035E+00
-0.3892362613283E+00 -0.5506512343873E+01 -0.1179149738611E+01 -0.3947756994189E+00
-0.4373309081496E+00 -0.5452087886790E+01 -0.1177883776540E+01 -0.4705732632681E+00
-0.4823146060611E+00 -0.5387285242849E+01 -0.1173919987275E+01 -0.5492761749200E+00
-0.5256884770123E+00 -0.5309332720615E+01 -0.1167004256915E+01 -0.6292649609139E+00
-0.5687104727441E+00 -0.5215630347926E+01 -0.1156868181373E+01 -0.7077597789584E+00
-0.6117297263884E+00 -0.5103788247465E+01 -0.1143103611804E+01 -0.7811851697409E+00
-0.6539301641964E+00 -0.4971445884050E+01 -0.1125075226414E+01 -0.8454873192298E+00
-0.6933559687827E+00 -0.4815969036710E+01 -0.1101865017518E+01 -0.8962038922241E+00
-0.7268426714483E+00 -0.4633910700049E+01 -0.1072150690276E+01 -0.9279733188795E+00
-0.7491054310545E+00 -0.4420359869008E+01 -0.1033893075419E+01 -0.9332936520433E+00
-0.7503277365660E+00 -0.4169533518729E+01 -0.9839722657213E+00 -0.9012414583119E+00
-0.7119217985297E+00 -0.3876642383417E+01 -0.9177128500644E+00 -0.8166776540968E+00
-0.5994717606163E+00 -0.3540880705597E+01 -0.8280705055819E+00 -0.6601077287317E+00
-0.3512864109124E+00 -0.3171474638849E+01 -0.7045522204510E+00 -0.4104899877352E+00
 0.1367937763968E+00 -0.2797973626298E+01 -0.5322359779113E+00 -0.5746025384384E-01
 0.1017886396095E+01 -0.2478756876387E+01 -0.2921741004123E+00  0.3652881096683E+00
 0.2453525208460E+01 -0.2281646056479E+01  0.3437583090845E-01  0.7217363484666E+00
 0.4473972526955E+01 -0.2196146601808E+01  0.4555651918178E+00  0.7356046072141E+00
 0.6768766622013E+01 -0.2000469436031E+01  0.9536594514071E+00  0.9465501355931E-01
-0.1488147199712E+01 -0.6840359632225E+01 -0.1665701391208E+01  0.1132834867996E+01
-0.1059772193572E+01 -0.6950731265688E+01 -0.1602100715725E+01  0.1108536810086E+01
-0.6732862934259E+00 -0.6967447316126E+01 -0.1528146744682E+01  0.9559695949469E+00
-0.4115205177581E+00 -0.6887674395320E+01 -0.1459839004369E+01  0.7694308003769E+00
-0.2573403081116E+00 -0.6758760616796E+01 -0.1403220205891E+01  0.6106831742760E+00
-0.1689018853553E+00 -0.6620494227230E+01 -0.1357879242751E+01  0.4917409635014E+00
-0.1167664611479E+00 -0.6490374743427E+01 -0.1321428260606E+01  0.4045945234653E+00
-0.8513692049742E-01 -0.6373205858513E+01 -0.1291668575049E+01  0.3394823590048E+00
-0.6580503607737E-01 -0.6269268539654E+01 -0.1267014734026E+01  0.2890410427037E+00
-0.5432656148863E-01 -0.6177576320859E+01 -0.1246380595042E+01  0.2480564637460E+00
-0.4823022478493E-01 -0.6096976047619E+01 -0.1229041272795E+01  0.2127873836561E+00
-0.4615430751693E-01 -0.6026521798186E+01 -0.1214535239239E+01  0.1804398254854E+00
-0.4742569113837E-01 -0.5965562453243E+01 -0.1202597646796E+01  0.1487910628059E+00
-0.5187997763924E-01 -0.5913705472575E+01 -0.1193117107822E+01  0.1159242587540E+00
-0.5983778415204E-01 -0.5870696528704E+01 -0.1186106880245E+01  0.8004105814409E-01
-0.7220798561222E-01 -0.5836172428724E+01 -0.1181676100476E+01  0.3936321347417E-01
-0.9063064327387E-01 -0.5809241926260E+01 -0.1179974531490E+01 -0.7754567837312E-02
-0.1173172649487E+00 -0.5788002812412E+01 -0.1181064033071E+01 -0.6232464328792E-01
-0.1540403477955E+00 -0.5769414278364E+01 -0.1184690942885E+01 -0.1240106193158E+00
-0.2003950736976E+00 -0.5749959551819E+01 -0.1190070942837E+01 -0.1910778341893E+00
-0.2528737719466E+00 -0.5727134888031E+01 -0.1196001749817E+01 -0.2616877282778E+00
-0.3064180186944E+00 -0.5699754417811E+01 -0.1201234505201E+01 -0.3353768390905E+00
-0.3572663764811E+00 -0.5666524730627E+01 -0.1204758239374E+01 -0.4130148393717E+00
-0.4043904060241E+00 -0.5625281474158E+01 -0.1205934394006E+01 -0.4954883931107E+00
-0.4489776708509E+00 -0.5573342708840E+01 -0.1204464093886E+01 -0.5825727203290E+00
-0.4930956629095E+00 -0.5508078570017E+01 -0.1200234864470E+01 -0.6726423825900E+00
-0.5385193428032E+00 -0.5427161473301E+01 -0.1193136181000E+01 -0.7629527912077E+00
-0.5860462775812E+00 -0.5328493362988E+01 -0.1182907945741E+01 -0.8500804262793E+00
-0.6352998668886E+00 -0.5209950823845E+01 -0.1169050155567E+01 -0.9303026915604E+00
-0.6849367829190E+00 -0.5069000683267E+01 -0.1150787510385E+01 -0.9997358405926E+00
-0.7329006607480E+00 -0.4901984820763E+01 -0.1126977113096E+01 -0.1053834335244E+01
-0.7758543840460E+00 -0.4703167097997E+01 -0.1095804312737E+01 -0.1085968243003E+01
-0.8069898786184E+00 -0.4464956115282E+01 -0.1054389214492E+01 -0.1085791225031E+01
-0.8119033549599E+00 -0.4179198433024E+01 -0.9982203724715E+00 -0.1037803871485E+01
-0.7613111259633E+00 -0.3839297752465E+01 -0.9201217893966E+00 -0.9197648240325E+00
-0.5974611227250E+00 -0.3445736254269E+01 -0.8086394874485E+00 -0.7023227244856E+00
-0.2102651379619E+00 -0.3019055655364E+01 -0.6458641682894E+00 -0.3563490659307E+00
 0.5902166547938E+00 -0.2620252337637E+01 -0.4060071426187E+00  0.1131435336449E+00
 0.2055822245734E+01 -0.2349498024649E+01 -0.5873515665835E-01  0.5818432053568E+00
 0.4327372618674E+01 -0.2242534014263E+01  0.4169677270954E+00  0.7047910278502E+00
 0.7066351687179E+01 -0.2034703437710E+01  0.1006329664889E+01  0.8043174083968E-03
-0.1508808491406E+01 -0.7075602481321E+01 -0.1716882220129E+01  0.1190998151574E+01
-0.1015038069292E+01 -0.7186081447833E+01 -0.1640223927866E+01  0.1135902597251E+01
-0.5966675532581E+00 -0.7169569014752E+01 -0.1553247336747E+01  0.9342188573797E+00
-0.3412027102605E+00 -0.7043171505515E+01 -0.1476874865162E+01  0.7184273662433E+00
-0.2049263394668E+00 -0.6878036442625E+01 -0.1416592577527E+01  0.5529153174320E+00
-0.1315468966651E+00 -0.6717872893794E+01 -0.1369883978505E+01  0.4373326470012E+00
-0.8965394841998E-01 -0.6575280316818E+01 -0.1332986872911E+01  0.3560296805804E+00
-0.6473088118519E-01 -0.6450975858704E+01 -0.1303141367396E+01  0.2967939933204E+00
-0.4970901858563E-01 -0.6343003237553E+01 -0.1278542470280E+01  0.2516848251306E+00
-0.4088091889720E-01 -0.6249154715936E+01 -0.1258007145712E+01  0.2154412302791E+00
-0.3624081759805E-01 -0.6167622930775E+01 -0.1240772768164E+01  0.1844480897957E+00
-0.3470509815517E-01 -0.6097144537313E+01 -0.1226369945368E+01  0.1560764827248E+00
-0.3575085178398E-01 -0.6036965604085E+01 -0.1214543309272E+01  0.1282588444775E+00
-0.3926986040270E-01 -0.5986754806644E+01 -0.1205204951368E+01  0.9920202797741E-01
-0.4556433287532E-01 -0.5946477125134E+01 -0.1198408309460E+01  0.6717146465856E-01
-0.5548686094744E-01 -0.5916162612780E+01 -0.1194329912542E+01  0.3032804019504E-01
-0.7070645310006E-01 -0.5895450061550E+01 -0.1193231320711E+01 -0.1326654097353E-01
-0.9377204317690E-01 -0.5882894671928E+01 -0.1195333360833E+01 -0.6517877275517E-01
-0.1271490864821E+00 -0.5875514702153E+01 -0.1200532775616E+01 -0.1256368316885E+00
-0.1710047212213E+00 -0.5869337063460E+01 -0.1208068374938E+01 -0.1931183961594E+00
-0.2217245641458E+00 -0.5861104713656E+01 -0.1216565873689E+01 -0.2656918859250E+00
-0.2736729242602E+00 -0.5848845788167E+01 -0.1224503760732E+01 -0.3428769939666E+00
-0.3227547187853E+00 -0.5830597363907E+01 -0.1230670434877E+01 -0.4256949881562E+00
-0.3681485436463E+00 -0.5803800281447E+01 -0.1234389783413E+01 -0.5151175141841E+00
-0.4115623848065E+00 -0.5765778295133E+01 -0.1235468154398E+01 -0.6108507027941E+00
-0.4556133036293E+00 -0.5714251842582E+01 -0.1233973047630E+01 -0.7111770068594E+00
-0.5025434039030E+00 -0.5647398908258E+01 -0.1229988480760E+01 -0.8133759446121E+00
-0.5535328800625E+00 -0.5563618571788E+01 -0.1223430308601E+01 -0.9142153622421E+00
-0.6085442144796E+00 -0.5461220452754E+01 -0.1213952951536E+01 -0.1010367921230E+01
-0.6667007202952E+00 -0.5338021502796E+01 -0.1200944462514E+01 -0.1098647568316E+01
-0.7269236813419E+00 -0.5190505850005E+01 -0.1183485923905E+01 -0.1175572794895E+01
-0.7878070613432E+00 -0.5012600431518E+01 -0.1160081515859E+01 -0.1235837916096E+01
-0.8457654764904E+00 -0.4795526614937E+01 -0.1128258435098E+01 -0.1270461117108E+01
-0.8913267858778E+00 -0.4528363829615E+01 -0.1083938139250E+01 -0.1264942739754E+01
-0.9024200599361E+00 -0.4198778324089E+01 -0.1020239692008E+01 -0.1196488671852E+01
-0.8305283519031E+00 -0.3796524419443E+01 -0.9254105680589E+00 -0.1030262539330E+01
-0.5702393840484E+00 -0.3325778446549E+01 -0.7792035777306E+00 -0.7185360966828E+00
 0.9602335244725E-01 -0.2836785370960E+01 -0.5481524118706E+00 -0.2250642224515E+00
 0.1533050236943E+01 -0.2459348606892E+01 -0.1852596767505E+00  0.3680204327694E+00
 0.4076520470329E+01 -0.2308036729108E+01  0.3536967535148E+00  0.6551737094704E+00
 0.7418279319710E+01 -0.2089343267294E+01  0.1065787226365E+01 -0.1037757167876E+00
-0.1525389118889E+01 -0.7348525849975E+01 -0.1774783020219E+01  0.1256448395854E+01
-0.9492319414817E+00 -0.7450403086404E+01 -0.1679927030610E+01  0.1154427696064E+01
-0.5023042316214E+00 -0.7378982873734E+01 -0.1576257444559E+01  0.8906340001155E+00
-0.2652797900364E+00 -0.7190780510009E+01 -0.1491212082230E+01  0.6485834627204E+00
-0.1534425586140E+00 -0.6986298210577E+01 -0.1427948175116E+01  0.4839973730487E+00
-0.9668867985628E-01 -0.6805812740156E+01 -0.1380500304573E+01  0.3768246178799E+00
-0.6506020749699E-01 -0.6652652825918E+01 -0.1343542626703E+01  0.3040082978303E+00
-0.4658111272297E-01 -0.6522734907443E+01 -0.1313863223611E+01  0.2521181874679E+00
-0.3558243658488E-01 -0.6411845525961E+01 -0.1289485611724E+01  0.2131939453619E+00
-0.2917811930344E-01 -0.6316601487298E+01 -0.1269155940232E+01  0.1822128079856E+00
-0.2584794164071E-01 -0.6234612485497E+01 -0.1252092104085E+01  0.1558507435828E+00
-0.2478193656806E-01 -0.6164352181904E+01 -0.1237826842140E+01  0.1317395491559E+00
-0.2559787046765E-01 -0.6105000793038E+01 -0.1226119750972E+01  0.1080334335960E+00
-0.2822971101262E-01 -0.6056312907704E+01 -0.1216908541877E+01  0.8312185454320E-01
-0.3293413921318E-01 -0.6018496614588E+01 -0.1210286168795E+01  0.5540346799512E-01
-0.4043955275279E-01 -0.5992034456478E+01 -0.1206494819824E+01  0.2306908669890E-01
-0.5231075269859E-01 -0.5977266765054E+01 -0.1205915521520E+01 -0.1604060743424E-01
-0.7131031755099E-01 -0.5973524559803E+01 -0.1208966993486E+01 -0.6411206641960E-01
-0.1006487650214E+00 -0.5978197107454E+01 -0.1215769192611E+01 -0.1221876890752E+00
-0.1412562087742E+00 -0.5986914134908E+01 -0.1225634087000E+01 -0.1892147040584E+00
-0.1894906047170E+00 -0.5995387554212E+01 -0.1236975650218E+01 -0.2632869868865E+00
-0.2390819570861E+00 -0.6000388468090E+01 -0.1247894103630E+01 -0.3439221906480E+00
-0.2855933089275E+00 -0.5998880131137E+01 -0.1256894706742E+01 -0.4322068470626E+00
-0.3284711467075E+00 -0.5987775573886E+01 -0.1263249362943E+01 -0.5289959472084E+00
-0.3699635062003E+00 -0.5964559098034E+01 -0.1266904539725E+01 -0.6337093268756E+00
-0.4131799058113E+00 -0.5927607826413E+01 -0.1268157565342E+01 -0.7444169890454E+00
-0.4607436224138E+00 -0.5875913986147E+01 -0.1267331540597E+01 -0.8584224291146E+00
-0.5141395743728E+00 -0.5808606980616E+01 -0.1264549329841E+01 -0.9727478347357E+00
-0.5735626757507E+00 -0.5724611644769E+01 -0.1259634882874E+01 -0.1084519250163E+01
-0.6384134328992E+00 -0.5622331685099E+01 -0.1252149042258E+01 -0.1191315950283E+01
-0.7083645886571E+00 -0.5498791951801E+01 -0.1241431326590E+01 -0.1290893280518E+01
-0.7837705093710E+00 -0.5348228597174E+01 -0.1226399839584E+01 -0.1379640198366E+01
-0.8642042080888E+00 -0.5161645570463E+01 -0.1205169973669E+01 -0.1450669628746E+01
-0.9454081344255E+00 -0.4926610364429E+01 -0.1174403717271E+01 -0.1491944280939E+01
-0.1013891654699E+01 -0.4626257516940E+01 -0.1128029851137E+01 -0.1482848135356E+01
-0.1035030869060E+01 -0.4239675958881E+01 -0.1054941381308E+01 -0.1387892278078E+01
-0.9221495153838E+00 -0.3748756111140E+01 -0.9341811392251E+00 -0.1146660248798E+01
-0.4547544621649E+00 -0.3172014973811E+01 -0.7253538980037E+00 -0.6744844250720E+00
 0.8520266705109E+00 -0.2647166825107E+01 -0.3590280362691E+00  0.3496004391427E-01
 0.3656577862804E+01 -0.2406245135133E+01  0.2500665492605E+00  0.5603962335213E+00
 0.7837830596889E+01 -0.2177517283104E+01  0.1132062679626E+01 -0.2228653865828E+00
-0.1534562642562E+01 -0.7676185701363E+01 -0.1842149696235E+01  0.1330089806741E+01
-0.8535522252927E+00 -0.7750003681872E+01 -0.1720711207074E+01  0.1154288738774E+01
-0.3888385882659E+00 -0.7588301897500E+01 -0.1595428120927E+01  0.8147816036789E+00
-0.1876045620035E+00 -0.7322013221776E+01 -0.1501923579136E+01  0.5571125318332E+00
-0.1058058142592E+00 -0.7079465576756E+01 -0.1437054299617E+01  0.4047341502728E+00
-0.6569472832955E-01 -0.6882532032569E+01 -0.1389645372887E+01  0.3111826960109E+00
-0.4370285478541E-01 -0.6721559445281E+01 -0.1353052480175E+01  0.2492530811733E+00
-0.3109677978684E-01 -0.6588002598384E+01 -0.1323819895361E+01  0.2059884001125E+00
-0.2366140526579E-01 -0.6475535627507E+01 -0.1299839425924E+01  0.1739284107187E+00
-0.1936893775579E-01 -0.6379763008960E+01 -0.1279826408414E+01  0.1485987430127E+00
-0.1716150036431E-01 -0.6297838083076E+01 -0.1262999935508E+01  0.1271187515170E+00
-0.1648232499570E-01 -0.6228047048795E+01 -0.1248905893368E+01  0.1074659338112E+00
-0.1707425796124E-01 -0.6169549962182E+01 -0.1237324862466E+01  0.8807514469400E-01
-0.1890070766404E-01 -0.6122209080019E+01 -0.1228221975839E+01  0.6757133114040E-01
-0.2215678235943E-01 -0.6086482971485E+01 -0.1221727968974E+01  0.4455466709786E-01
-0.2739529848718E-01 -0.6063326624324E+01 -0.1218144402714E+01  0.1735844242764E-01
-0.3592446020700E-01 -0.6053921307135E+01 -0.1217969171617E+01 -0.1624992674581E-01
-0.5050329363314E-01 -0.6058777359188E+01 -0.1221856148771E+01 -0.5905705118687E-01
-0.7506046020505E-01 -0.6076202411796E+01 -0.1230252592732E+01 -0.1132095358652E+00
-0.1115069477618E+00 -0.6101675308281E+01 -0.1242636469725E+01 -0.1785533511765E+00
-0.1563162356754E+00 -0.6129511639088E+01 -0.1257165593686E+01 -0.2534920691967E+00
-0.2025849493149E+00 -0.6154441539662E+01 -0.1271405316741E+01 -0.3376138998711E+00
-0.2455981517824E+00 -0.6171687032992E+01 -0.1283457056080E+01 -0.4318959615254E+00
-0.2851690555243E+00 -0.6177460035559E+01 -0.1292525837477E+01 -0.5367079748894E+00
-0.3240725099204E+00 -0.6169680243866E+01 -0.1298750570110E+01 -0.6508435507363E+00
-0.3657849980742E+00 -0.6147833339838E+01 -0.1302723686994E+01 -0.7720054773042E+00
-0.4131708349201E+00 -0.6112136511472E+01 -0.1305061488725E+01 -0.8975508155539E+00
-0.4679334578371E+00 -0.6062716243556E+01 -0.1306129959741E+01 -0.1024871372483E+01
-0.5304142197747E+00 -0.5999251848983E+01 -0.1305933233211E+01 -0.1151618102218E+01
-0.6000830583581E+00 -0.5920899365358E+01 -0.1304196504177E+01 -0.1276135102226E+01
-0.6770472323710E+00 -0.5825614881821E+01 -0.1300532442218E+01 -0.1397459920927E+01
-0.7630944855680E+00 -0.5708731414598E+01 -0.1294365199321E+01 -0.1513890964030E+01
-0.8605832072509E+00 -0.5562351595140E+01 -0.1284586979620E+01 -0.1621184671886E+01
-0.9701299172128E+00 -0.5374494936621E+01 -0.1268924989675E+01 -0.1711114270239E+01
-0.1087197292340E+01 -0.5126329506174E+01 -0.1242705378221E+01 -0.1768162208561E+01
-0.1193462071022E+01 -0.4789217482366E+01 -0.1196535928507E+01 -0.1762073656351E+01
-0.1233856098060E+01 -0.4323124543491E+01 -0.1111396144871E+01 -0.1632583598251E+01
-0.1029268901150E+01 -0.3692447920247E+01 -0.9443433783512E+00 -0.1256981333933E+01
-0.1456601811157E-01 -0.2985529695242E+01 -0.6000191516116E+00 -0.4873685033720E+00
 0.2958328477818E+01 -0.2571316270810E+01  0.7740244255484E-01  0.3600311946220E+00
 0.8332649203230E+01 -0.2327109028439E+01  0.1201108052856E+01 -0.3690257090103E+00
-0.1530386837963E+01 -0.8088446388311E+01 -0.1923766673921E+01  0.1411588585732E+01
-0.7151715159414E+00 -0.8089312126681E+01 -0.1760896754764E+01  0.1115884129303E+01
-0.2582929712095E+00 -0.7780369864099E+01 -0.1607732591019E+01  0.6929397909394E+00
-0.1151919152517E+00 -0.7425599352346E+01 -0.1508158275993E+01  0.4441032149614E+00
-0.6516751456423E-01 -0.7154156115717E+01 -0.1443864747571E+01  0.3175280279154E+00
-0.3971382397025E-01 -0.6946502103632E+01 -0.1397243206341E+01  0.2417588997669E+00
-0.2622919735793E-01 -0.6781252473659E+01 -0.1361496354491E+01  0.1927325948679E+00
-0.1860262260505E-01 -0.6646454748977E+01 -0.1333011494180E+01  0.1590558068826E+00
-0.1411998232401E-01 -0.6533912334593E+01 -0.1309606482898E+01  0.1343028230774E+00
-0.1155879559280E-01 -0.6438562320427E+01 -0.1290024242427E+01  0.1148551807798E+00
-0.1025388503783E-01 -0.6357252475407E+01 -0.1273501291066E+01  0.9838593553432E-01
-0.9871548741641E-02 -0.6288183300690E+01 -0.1259610988656E+01  0.8329176574645E-01
-0.1025656399518E-01 -0.6230545130584E+01 -0.1248160357515E+01  0.6833263776519E-01
-0.1139163785398E-01 -0.6184326454111E+01 -0.1239143636858E+01  0.5241264265632E-01
-0.1340643323607E-01 -0.6150227756383E+01 -0.1232726856293E+01  0.3439268991364E-01
-0.1666155845480E-01 -0.6129646115459E+01 -0.1229261553100E+01  0.1286453611912E-01
-0.2207319699197E-01 -0.6124646332354E+01 -0.1229343924188E+01 -0.1424578585096E-01
-0.3206963565420E-01 -0.6137346029674E+01 -0.1233883151452E+01 -0.5012620022594E-01
-0.5110745242692E-01 -0.6167876782388E+01 -0.1243796865497E+01 -0.9827976967167E-01
-0.8227181516996E-01 -0.6212239056302E+01 -0.1258902193054E+01 -0.1601365955451E+00
-0.1223825005183E+00 -0.6262911748873E+01 -0.1277058868908E+01 -0.2350349943984E+00
-0.1640382252274E+00 -0.6311237910606E+01 -0.1295055246465E+01 -0.3228373320839E+00
-0.2024572970539E+00 -0.6349587400233E+01 -0.1310408958984E+01 -0.4240580071399E+00
-0.2379634274972E+00 -0.6373285679965E+01 -0.1322249841196E+01 -0.5379227435856E+00
-0.2737681430597E+00 -0.6381183704462E+01 -0.1330990389338E+01 -0.6620912147915E+00
-0.3134800802389E+00 -0.6374536426083E+01 -0.1337603321196E+01 -0.7937217136889E+00
-0.3599847544574E+00 -0.6355327607216E+01 -0.1343062492348E+01 -0.9303092980179E+00
-0.4151075812692E+00 -0.6324999012374E+01 -0.1348021338816E+01 -0.1069823166138E+01
-0.4793126518185E+00 -0.6284053636352E+01 -0.1352673277791E+01 -0.1210570558098E+01
-0.5519628517721E+00 -0.6232393929512E+01 -0.1356871376476E+01 -0.1351584439909E+01
-0.6332174503936E+00 -0.6169193336391E+01 -0.1360482177630E+01 -0.1493030559028E+01
-0.7258008944086E+00 -0.6091784050298E+01 -0.1363517009259E+01 -0.1635070399204E+01
-0.8342157383242E+00 -0.5995048277882E+01 -0.1365852823594E+01 -0.1776382773071E+01
-0.9628804905794E+00 -0.5869976241222E+01 -0.1366571366724E+01 -0.1913474343871E+01
-0.1115316518910E+01 -0.5699861937512E+01 -0.1363035711595E+01 -0.2038617564944E+01
-0.1289482021969E+01 -0.5454084476821E+01 -0.1348713319855E+01 -0.2132382571434E+01
-0.1464603716576E+01 -0.5081018449378E+01 -0.1309124452698E+01 -0.2149999650120E+01
-0.1555149934958E+01 -0.4489052676185E+01 -0.1208840540242E+01 -0.1972984222615E+01
-0.1057454831627E+01 -0.3619126611498E+01 -0.9353163025622E+00 -0.1295523483826E+01
 0.1802845217480E+01 -0.2896920834759E+01 -0.2188151267163E+00 -0.8175985267970E-01
 0.8878035251707E+01 -0.2604323583369E+01  0.1254742352365E+01 -0.5884042967430E+00
-0.1502743968646E+01 -0.8643436095645E+01 -0.2029236043096E+01  0.1495140808467E+01
-0.5158024507480E+00 -0.8459758661462E+01 -0.1795112249191E+01  0.9986796789678E+00
-0.1216498521958E+00 -0.7919216524053E+01 -0.1608173299213E+01  0.5116270991467E+00
-0.5868856595393E-01 -0.7491571207695E+01 -0.1510051977231E+01  0.3165004454880E+00
-0.3351261071172E-01 -0.7208611158507E+01 -0.1448424775427E+01  0.2257199016707E+00
-0.1966746783838E-01 -0.6996278971505E+01 -0.1403189308778E+01  0.1701960217677E+00
-0.1318040649978E-01 -0.6831392104605E+01 -0.1368914522619E+01  0.1357064527223E+00
-0.9277815720695E-02 -0.6697917395140E+01 -0.1341439062161E+01  0.1120321927574E+00
-0.7068736267417E-02 -0.6586943702701E+01 -0.1318802507445E+01  0.9478480721011E-01
-0.5794670509557E-02 -0.6493006123334E+01 -0.1299760178137E+01  0.8125561014708E-01
-0.5156362440612E-02 -0.6412874967507E+01 -0.1283606285117E+01  0.6979347031388E-01
-0.4978234634023E-02 -0.6344771667228E+01 -0.1269949999296E+01  0.5925091024717E-01
-0.5186020634686E-02 -0.6287973684213E+01 -0.1258631959725E+01  0.4874436360288E-01
-0.5772723444602E-02 -0.6242609927102E+01 -0.1249676548731E+01  0.3748632568006E-01
-0.6808246838816E-02 -0.6209599801546E+01 -0.1243281628203E+01  0.2464442619033E-01
-0.8487285554359E-02 -0.6190711398006E+01 -0.1239839755187E+01  0.9160538090797E-02
-0.1128592210321E-01 -0.6188771702326E+01 -0.1240011543364E+01 -0.1060557952427E-01
-0.1689625491465E-01 -0.6207760733078E+01 -0.1244931416150E+01 -0.3774447468540E-01
-0.2981618451217E-01 -0.6250995189459E+01 -0.1256162293512E+01 -0.7710061468071E-01
-0.5432682282962E-01 -0.6316627930078E+01 -0.1274190969569E+01 -0.1327093437649E+00
-0.8792582803116E-01 -0.6394891046435E+01 -0.1296563394214E+01 -0.2061870077226E+00
-0.1231491559994E+00 -0.6471310550983E+01 -0.1318891961049E+01 -0.2981609225872E+00
-0.1556513052242E+00 -0.6533539703443E+01 -0.1337838221669E+01 -0.4079424035398E+00
-0.1864396805135E+00 -0.6575936515884E+01 -0.1352475259433E+01 -0.5324501630888E+00
-0.2189064362218E+00 -0.6599176588682E+01 -0.1363616625300E+01 -0.6674959568082E+00
-0.2563952661639E+00 -0.6607230796932E+01 -0.1372725233074E+01 -0.8095338628486E+00
-0.3014851133680E+00 -0.6604538704498E+01 -0.1381204784155E+01 -0.9563659366463E+00
-0.3559958311980E+00 -0.6594263566982E+01 -0.1390051900349E+01 -0.1106878437345E+01
-0.4206022655998E+00 -0.6577741901228E+01 -0.1399668854222E+01 -0.1260321319088E+01
-0.4945239761958E+00 -0.6555277680875E+01 -0.1409960352424E+01 -0.1416301118171E+01
-0.5775556210823E+00 -0.6527233464336E+01 -0.1420957838258E+01 -0.1575627888574E+01
-0.6727245798191E+00 -0.6493984916887E+01 -0.1433341920700E+01 -0.1739882970740E+01
-0.7856324463122E+00 -0.6455253413376E+01 -0.1448177193517E+01 -0.1910554723603E+01
-0.9232702850994E+00 -0.6407979488471E+01 -0.1466249976563E+01 -0.2089422631586E+01
-0.1093834206238E+01 -0.6342213832382E+01 -0.1487209629885E+01 -0.2277602772838E+01
-0.1311082993608E+01 -0.6235513293075E+01 -0.1509319279827E+01 -0.2472349818499E+01
-0.1578717609044E+01 -0.6038993084716E+01 -0.1523542161454E+01 -0.2651767505479E+01
-0.1909581331398E+01 -0.5655456957278E+01 -0.1513007680281E+01 -0.2764366363437E+01
-0.2147952868011E+01 -0.4817423633567E+01 -0.1393075321074E+01 -0.2479590437917E+01
-0.7518245921905E-01 -0.3657282522468E+01 -0.7464930074610E+00 -0.1060894463014E+01
 0.9331875110201E+01 -0.3184354392093E+01  0.1229504161943E+01 -0.1052959978239E+01
-0.1439189588678E+01 -0.9474449655675E+01 -0.2182727881396E+01  0.1550580782317E+01
-0.2301966828727E+00 -0.8788426851188E+01 -0.1803724733690E+01  0.7161624913622E+00
-0.1298173327139E-01 -0.7945517399949E+01 -0.1591699850362E+01  0.2771885999399E+00
-0.2801808058512E-01 -0.7525044264562E+01 -0.1510612491539E+01  0.1904783472570E+00
-0.9632082430204E-02 -0.7238792246669E+01 -0.1449684887422E+01  0.1305651530382E+00
-0.7215192891840E-02 -0.7031926805868E+01 -0.1407828420730E+01  0.9944951136011E-01
-0.4482814644847E-02 -0.6871794190443E+01 -0.1375255421510E+01  0.7931517842444E-01
-0.3278381268258E-02 -0.6742476337508E+01 -0.1349150963859E+01  0.6575439830478E-01
-0.2498370031907E-02 -0.6634722496720E+01 -0.1327444193131E+01  0.5585214468310E-01
-0.2070980859549E-02 -0.6543197287042E+01 -0.1309053673087E+01  0.4808717560921E-01
-0.1851803414254E-02 -0.6464795093026E+01 -0.1293329398560E+01  0.4148336004238E-01
-0.1792218477004E-02 -0.6397883395973E+01 -0.1279935141963E+01  0.3537379750655E-01
-0.1865197481207E-02 -0.6341882110184E+01 -0.1268749480439E+01  0.2924012207122E-01
-0.2069985136033E-02 -0.6297072034000E+01 -0.1259828422600E+01  0.2261692590869E-01
-0.2431668825527E-02 -0.6264556476869E+01 -0.1253397647816E+01  0.1500587808769E-01
-0.3022938627186E-02 -0.6246376708089E+01 -0.1249879947968E+01  0.5758685118037E-02
-0.4002611789217E-02 -0.6245872631422E+01 -0.1249975067268E+01 -0.6141763084292E-02
-0.6023715238126E-02 -0.6268557233987E+01 -0.1254916208545E+01 -0.2286094613731E-01
-0.1267470494885E-01 -0.6322498336604E+01 -0.1267034627191E+01 -0.4972420149790E-01
-0.2890105858528E-01 -0.6411823534337E+01 -0.1288144937779E+01 -0.9464660728356E-01
-0.5326965509513E-01 -0.6524583188438E+01 -0.1315570588310E+01 -0.1644679130370E+00
-0.7935786835655E-01 -0.6635722247992E+01 -0.1343016043282E+01 -0.2616929469007E+00
-0.1043322954036E+00 -0.6725082515895E+01 -0.1365882982613E+01 -0.3827796119735E+00
-0.1299901439336E+00 -0.6786436139329E+01 -0.1383285277265E+01 -0.5203274267896E+00
-0.1593129355495E+00 -0.6823844339655E+01 -0.1396631475852E+01 -0.6673896442802E+00
-0.1947602600588E+00 -0.6845315253722E+01 -0.1408015123737E+01 -0.8196634171509E+00
-0.2381614778635E+00 -0.6858561892879E+01 -0.1419344695298E+01 -0.9755549645721E+00
-0.2911094898171E+00 -0.6868988930577E+01 -0.1432019705418E+01 -0.1135330915738E+01
-0.3547078799792E+00 -0.6878879115350E+01 -0.1446717420624E+01 -0.1299787053768E+01
-0.4283611868079E+00 -0.6888010773524E+01 -0.1463274413871E+01 -0.1469143700452E+01
-0.5111828116045E+00 -0.6897048720782E+01 -0.1481646328555E+01 -0.1643787125154E+01
-0.6055356436520E+00 -0.6910772860509E+01 -0.1503261723233E+01 -0.1825544060886E+01
-0.7170062901475E+00 -0.6936522718349E+01 -0.1530705824509E+01 -0.2018377030624E+01
-0.8528001202074E+00 -0.6979926365213E+01 -0.1566545320427E+01 -0.2229228741860E+01
-0.1024779339604E+01 -0.7042819572762E+01 -0.1613519806517E+01 -0.2468121848018E+01
-0.1247578830297E+01 -0.7120942126231E+01 -0.1673704216246E+01 -0.2747862565036E+01
-0.1568474697275E+01 -0.7197231294599E+01 -0.1753141224499E+01 -0.3084552040672E+01
-0.1968070005546E+01 -0.7213172858992E+01 -0.1836248600270E+01 -0.3476375820219E+01
-0.2856770074412E+01 -0.6971297808471E+01 -0.1965613605866E+01 -0.3959307597791E+01
-0.2899612481117E+01 -0.5674289710652E+01 -0.1714780463906E+01 -0.3151563463042E+01
 0.9105660743487E+01 -0.4660406818092E+01  0.8890507983269E+00 -0.2445412232387E+01
-0.1370644484762E+01 -0.1098441112317E+02 -0.2471011158407E+01  0.1416417449113E+01
 0.1866933176190E+00 -0.8644058257176E+01 -0.1691473013116E+01  0.9200946202120E-01
-0.3851428683256E-01 -0.7916001242757E+01 -0.1590903129624E+01  0.9961847341503E-01
 0.5376219471065E-02 -0.7512763453092E+01 -0.1501477469098E+01  0.5601398891817E-01
-0.2596992906564E-02 -0.7246861612300E+01 -0.1449891742646E+01  0.4080652633936E-01
-0.3487933117179E-03 -0.7053313568214E+01 -0.1410732493327E+01  0.3108057261223E-01
-0.6109043414131E-03 -0.6902891165416E+01 -0.1380700434526E+01  0.2510796437993E-01
-0.3981837195270E-03 -0.6780401305551E+01 -0.1356159918062E+01  0.2100244315177E-01
-0.3547187903066E-03 -0.6677497728191E+01 -0.1335570509298E+01  0.1800376668332E-01
-0.3043432484715E-03 -0.6589334182061E+01 -0.1317927724701E+01  0.1563169315886E-01
-0.2776152169053E-03 -0.6513176671912E+01 -0.1302690876837E+01  0.1359437166169E-01
-0.2614339367990E-03 -0.6447651887104E+01 -0.1289582683424E+01  0.1168528901404E-01
-0.2565422187273E-03 -0.6392378164836E+01 -0.1278526960462E+01  0.9742838917035E-02
-0.2624049455631E-03 -0.6347795525978E+01 -0.1269611605103E+01  0.7619727014128E-02
-0.2820485852200E-03 -0.6315151413488E+01 -0.1263086711236E+01  0.5155326972168E-02
-0.3213190288620E-03 -0.6296642205899E+01 -0.1259392723752E+01  0.2139284671465E-02
-0.3966297630189E-03 -0.6295844257865E+01 -0.1259248196290E+01 -0.1767938952565E-02
-0.5151565509782E-03 -0.6318869252609E+01 -0.1263876900665E+01 -0.7227578042098E-02
-0.1886773447497E-02 -0.6378145600456E+01 -0.1276006493795E+01 -0.1713389492922E-01
-0.8045709380654E-02 -0.6492756750998E+01 -0.1300160511450E+01 -0.4374928495333E-01
-0.1887929081701E-01 -0.6651042162700E+01 -0.1333984310581E+01 -0.1060788483347E+00
-0.3160469491715E-01 -0.6806463221710E+01 -0.1367613603705E+01 -0.2109137321558E+00
-0.4715109390303E-01 -0.6926594169781E+01 -0.1394749073520E+01 -0.3478565795980E+00
-0.6774767828935E-01 -0.7006244468329E+01 -0.1414798450406E+01 -0.5019507379746E+00
-0.9478518988668E-01 -0.7055448529556E+01 -0.1430046765198E+01 -0.6624996309420E+00
-0.1289286025300E+00 -0.7088039155812E+01 -0.1443393573177E+01 -0.8246540788864E+00
-0.1707518844223E+00 -0.7115890943664E+01 -0.1457328587333E+01 -0.9879471936920E+00
-0.2212531407172E+00 -0.7147175138111E+01 -0.1473685677725E+01 -0.1154500541928E+01
-0.2820400831085E+00 -0.7185762641989E+01 -0.1493560567275E+01 -0.1327635274445E+01
-0.3539830497055E+00 -0.7229549095654E+01 -0.1516706451673E+01 -0.1509211876990E+01
-0.4356079121057E+00 -0.7275780252027E+01 -0.1542277655808E+01 -0.1696977813193E+01
-0.5269275272909E+00 -0.7336228157185E+01 -0.1572631160329E+01 -0.1890101449484E+01
-0.6317987572257E+00 -0.7430471321641E+01 -0.1612454039801E+01 -0.2095252580224E+01
-0.7567606923178E+00 -0.7573986268525E+01 -0.1666149416996E+01 -0.2324214273138E+01
-0.9110311782241E+00 -0.7783921342809E+01 -0.1738990530120E+01 -0.2593508464806E+01
-0.1116199540983E+01 -0.8085251445090E+01 -0.1840290224637E+01 -0.2927184364457E+01
-0.1385279836497E+01 -0.8515426018578E+01 -0.1980141200521E+01 -0.3370186283298E+01
-0.1875925169582E+01 -0.9140298241882E+01 -0.2203244715124E+01 -0.3990284725268E+01
-0.2288019930055E+01 -0.1006383303085E+02 -0.2470370628992E+01 -0.5001793149536E+01
-0.5902484690793E+01 -0.1120109510781E+02 -0.3420716010692E+01 -0.6896193953875E+01
 0.6458883500375E+01 -0.9892864997023E+01 -0.6867963095637E+00 -0.7978414052030E+01
-0.1643056034541E+01 -0.2507018817343E+01 -0.1950535175438E+01 -0.4950723891121E+00
-0.1333364807329E+01 -0.2600727444509E+01 -0.1849023353674E+01 -0.3425859284561E+00
-0.1053524253744E+01 -0.2681330809403E+01 -0.1755381875227E+01 -0.2202677141499E+00
-0.8037914253209E+00 -0.2750091465923E+01 -0.1670324954648E+01 -0.1223544959765E+00
-0.5835621760337E+00 -0.2809913748764E+01 -0.1594933680609E+01 -0.4490928667244E-01
-0.3908845153930E+00 -0.2863168120542E+01 -0.1529404735010E+01  0.1487410538468E-01
-0.2232792613284E+00 -0.2911940991225E+01 -0.1473553514962E+01  0.5910846828318E-01
-0.7829328087777E-01 -0.2958274089898E+01 -0.1427186660645E+01  0.8949040192835E-01
 0.4610054763681E-01 -0.3004242613843E+01 -0.1390326767591E+01  0.1074827537146E+00
 0.1516546340959E+00 -0.3051795903660E+01 -0.1363066393238E+01  0.1142316699746E+00
 0.2402311880618E+00 -0.3102628995435E+01 -0.1345326966053E+01  0.1106671847199E+00
 0.3115258472626E+00 -0.3159397594406E+01 -0.1338499717763E+01  0.9802919407360E-01
 0.3674655627125E+00 -0.3222923454055E+01 -0.1342065205527E+01  0.7611138247116E-01
 0.4105711302854E+00 -0.3294895032581E+01 -0.1355632230641E+01  0.4496383420912E-01
 0.4409643579159E+00 -0.3378081580015E+01 -0.1380445090885E+01  0.6256362564921E-02
 0.4589988720100E+00 -0.3472954587628E+01 -0.1416559182747E+01 -0.3869080494453E-01
 0.4635407107670E+00 -0.3580351658288E+01 -0.1464901141619E+01 -0.8887752075247E-01
 0.4518050752612E+00 -0.3702034800071E+01 -0.1527607966786E+01 -0.1436436937016E+00
 0.4242800794516E+00 -0.3836181209661E+01 -0.1603593527131E+01 -0.2016637337786E+00
 0.3451522853811E+00 -0.4014761647171E+01 -0.1724716395667E+01 -0.2547341589835E+00
-0.1698264620584E+01 -0.2533950286985E+01 -0.1989141001512E+01 -0.4439893761530E+00
-0.1372679428882E+01 -0.2630569428976E+01 -0.1881526958421E+01 -0.2978342317201E+00
-0.1082538943175E+01 -0.2715035386031E+01 -0.1784859930200E+01 -0.1816909455060E+00
-0.8250059408265E+00 -0.2787955948132E+01 -0.1698092083504E+01 -0.8897711616855E-01
-0.5983031239886E+00 -0.2851598067615E+01 -0.1621453555941E+01 -0.1553961165336E-01
-0.4001413895327E+00 -0.2908459196808E+01 -0.1555042271636E+01  0.4134405822667E-01
-0.2278480525023E+00 -0.2960891898532E+01 -0.1498707773185E+01  0.8370978624530E-01
-0.7883879201113E-01 -0.3011122215732E+01 -0.1452281669956E+01  0.1131996625591E+00
 0.4910402794629E-01 -0.3061245025887E+01 -0.1415706265441E+01  0.1311795720161E+00
 0.1579057307820E+00 -0.3113249463799E+01 -0.1389011550995E+01  0.1387071051835E+00
 0.2490037696140E+00 -0.3169291133894E+01 -0.1372535057730E+01  0.1367183697966E+00
 0.3232900831317E+00 -0.3231028009709E+01 -0.1366636822025E+01  0.1261276970168E+00
 0.3821350090029E+00 -0.3300365680394E+01 -0.1371568412075E+01  0.1068191307327E+00
 0.4273934093379E+00 -0.3379486318945E+01 -0.1387483663996E+01  0.7919930654496E-01
 0.4598880741983E+00 -0.3470165595043E+01 -0.1414830431208E+01  0.4469269005695E-01
 0.4793334882319E+00 -0.3573955789934E+01 -0.1454472478111E+01  0.4471644119248E-02
 0.4843579020454E+00 -0.3692387077937E+01 -0.1507773708845E+01 -0.4029154740877E-01
 0.4729197493817E+00 -0.3826944097969E+01 -0.1576391439838E+01 -0.8819840843402E-01
 0.4330593783144E+00 -0.3984725940194E+01 -0.1669283279850E+01 -0.1357837654713E+00
 0.3558876980476E+00 -0.4162837792414E+01 -0.1789266539814E+01 -0.1825215630268E+00
-0.1749192336136E+01 -0.2557767594805E+01 -0.2024271162408E+01 -0.3914823788830E+00
-0.1409976123700E+01 -0.2659374217916E+01 -0.1912594655708E+01 -0.2523821885901E+00
-0.1109619978829E+01 -0.2747341410304E+01 -0.1812771848294E+01 -0.1423308466865E+00
-0.8445840640949E+00 -0.2823716492649E+01 -0.1724101257297E+01 -0.5473316474917E-01
-0.6118948352232E+00 -0.2890702695163E+01 -0.1646220835106E+01  0.1472400830840E-01
-0.4087293676941E+00 -0.2950829991963E+01 -0.1578992895034E+01  0.6878288553576E-01
-0.2321783712187E+00 -0.3006599098780E+01 -0.1522225407038E+01  0.1094168282639E+00
-0.7950047260675E-01 -0.3060356067767E+01 -0.1475732570233E+01  0.1381831539751E+00
 0.5167035864802E-01 -0.3114276009278E+01 -0.1439424652145E+01  0.1563500506977E+00
 0.1632882250624E+00 -0.3170475472228E+01 -0.1413378002583E+01  0.1649113478896E+00
 0.2569796998561E+00 -0.3230996660976E+01 -0.1397787968181E+01  0.1647028961904E+00
 0.3338057124314E+00 -0.3297712711311E+01 -0.1393036285940E+01  0.1564861900780E+00
 0.3951179761172E+00 -0.3372693011618E+01 -0.1399460263136E+01  0.1403261908808E+00
 0.4425024126121E+00 -0.3458185863951E+01 -0.1417371218534E+01  0.1167370313638E+00
 0.4766037399215E+00 -0.3556159534428E+01 -0.1447391219747E+01  0.8702811873799E-01
 0.4969718294701E+00 -0.3668436434229E+01 -0.1490588360456E+01  0.5240378784018E-01
 0.5019977902488E+00 -0.3796858412391E+01 -0.1548584488479E+01  0.1426109033217E-01
 0.4870780566966E+00 -0.3944373156102E+01 -0.1624928692599E+01 -0.2542371773957E-01
 0.4447506410343E+00 -0.4112095513946E+01 -0.1723652085897E+01 -0.6447036725578E-01
 0.3668175703872E+00 -0.4299714218955E+01 -0.1848461420139E+01 -0.1037391712971E+00
-0.1796742951285E+01 -0.2579728848207E+01 -0.2056941740544E+01 -0.3374330401149E+00
-0.1444655989352E+01 -0.2686225087852E+01 -0.1941514101361E+01 -0.2060343250460E+00
-0.1134825674686E+01 -0.2777769012605E+01 -0.1838919498362E+01 -0.1023018332828E+00
-0.8626815383053E+00 -0.2857166690820E+01 -0.1748328663255E+01 -0.1980353324666E-01
-0.6244606421837E+00 -0.2927057689346E+01 -0.1669213611585E+01  0.4573838519908E-01
-0.4167578640905E+00 -0.2990079983871E+01 -0.1601213784481E+01  0.9706766364688E-01
-0.2363753757377E+00 -0.3048833509300E+01 -0.1544048172052E+01  0.1361010176703E+00
-0.8040564300304E-01 -0.3105757790112E+01 -0.1497496809766E+01  0.1643061242472E+00
 0.5363174458942E-01 -0.3163118660298E+01 -0.1461458846676E+01  0.1828559197221E+00
 0.1678043426130E+00 -0.3223070210101E+01 -0.1435974954077E+01  0.1926640413577E+00
 0.2638129902624E+00 -0.3287710878705E+01 -0.1421232003963E+01  0.1944881584057E+00
 0.3428769344852E+00 -0.3359035078907E+01 -0.1417594324283E+01  0.1890077427223E+00
 0.4063104085768E+00 -0.3439222338533E+01 -0.1425468603464E+01  0.1764320540238E+00
 0.4554551945060E+00 -0.3530585364741E+01 -0.1445311176345E+01  0.1573629633589E+00
 0.4907566232750E+00 -0.3635240757264E+01 -0.1477907539226E+01  0.1330463748931E+00
 0.5115385855168E+00 -0.3755190698517E+01 -0.1524516489243E+01  0.1047531636308E+00
 0.5155009638569E+00 -0.3892598017349E+01 -0.1587235611115E+01  0.7402579516324E-01
 0.4983750362489E+00 -0.4049300016809E+01 -0.1668934736630E+01  0.4261844039652E-01
 0.4533817918683E+00 -0.4226171150966E+01 -0.1773210994278E+01  0.1197010723559E-01
 0.3730501859278E+00 -0.4423812637605E+01 -0.1903858347459E+01 -0.1872153946274E-01
-0.1840800600201E+01 -0.2599843092217E+01 -0.2087102530143E+01 -0.2819357709587E+00
-0.1476699624201E+01 -0.2711004672402E+01 -0.1968221014411E+01 -0.1588166558840E+00
-0.1158078481055E+01 -0.2805912883013E+01 -0.1863075936387E+01 -0.6166656343197E-01
-0.8793908478708E+00 -0.2888050982297E+01 -0.1770697655688E+01  0.1568329508733E-01
-0.6361149403657E+00 -0.2960469634901E+01 -0.1690394746088E+01  0.7736898510977E-01
-0.4243357208862E+00 -0.3026017591968E+01 -0.1621666052928E+01  0.1260698218107E+00
-0.2405489433422E+00 -0.3087395047534E+01 -0.1564133671745E+01  0.1636311295924E+00
-0.8167618106021E-01 -0.3147121056948E+01 -0.1517534698015E+01  0.1914289744953E+00
 0.5488623219296E-01 -0.3207526451924E+01 -0.1481740899515E+01  0.2105403875787E+00
 0.1712987362305E+00 -0.3270820416313E+01 -0.1456775185944E+01  0.2218028742037E+00
 0.2693323559716E+00 -0.3339154965733E+01 -0.1442816622928E+01  0.2259138251702E+00
 0.3503053561728E+00 -0.3414627744212E+01 -0.1440231518725E+01  0.2235062676172E+00
 0.4154842637054E+00 -0.3499487376452E+01 -0.1449481459314E+01  0.2149093886275E+00
 0.4659864553807E+00 -0.3596088935900E+01 -0.1471148162113E+01  0.2007988252443E+00
 0.5020468365285E+00 -0.3706637361482E+01 -0.1506157542908E+01  0.1823848848581E+00
 0.5226903036672E+00 -0.3833244094385E+01 -0.1555960277691E+01  0.1609708828003E+00
 0.5254592434968E+00 -0.3977868493888E+01 -0.1622632343568E+01  0.1380418056760E+00
 0.5060906358398E+00 -0.4142072657465E+01 -0.1708911545829E+01  0.1150883142295E+00
 0.4582473016758E+00 -0.4326742414243E+01 -0.1818192698295E+01  0.9316675892687E-01
 0.3748056060987E+00 -0.4532871235241E+01 -0.1954290840740E+01  0.7172477248585E-01
-0.1881218034537E+01 -0.2618046962099E+01 -0.2114654543055E+01 -0.2251111443394E+00
-0.1506037298808E+01 -0.2733544818995E+01 -0.1992603590313E+01 -0.1108110117620E+00
-0.1179382655658E+01 -0.2831542463520E+01 -0.1885134801232E+01 -0.2050600096534E-01
-0.8947625728532E+00 -0.2916125328414E+01 -0.1791117309053E+01  0.5162409149333E-01
-0.6469542865144E+00 -0.2990741267174E+01 -0.1709716905897E+01  0.1094949121877E+00
-0.4315662530194E+00 -0.3058461004799E+01 -0.1640312807014E+01  0.1556623749418E+00
-0.2448044440761E+00 -0.3122101179051E+01 -0.1582445638856E+01  0.1918732409409E+00
-0.8341660202249E-01 -0.3184250746132E+01 -0.1535803649737E+01  0.2194054833043E+00
 0.5531723052699E-01 -0.3247297724240E+01 -0.1500230828240E+01  0.2392429854594E+00
 0.1736408049781E+00 -0.3313500164957E+01 -0.1475733895447E+01  0.2521535916016E+00
 0.2733790314380E+00 -0.3385059766998E+01 -0.1462489942004E+01  0.2587877319950E+00
 0.3559112562832E+00 -0.3464147260425E+01 -0.1460870918241E+01  0.2597535721087E+00
 0.4224407089261E+00 -0.3553052899158E+01 -0.1471387725677E+01  0.2554777551573E+00
 0.4738818121470E+00 -0.3654142584394E+01 -0.1494722559165E+01  0.2466945728675E+00
 0.5102568722084E+00 -0.3769655979307E+01 -0.1531917576451E+01  0.2345805056410E+00
 0.5304050569680E+00 -0.3901670826319E+01 -0.1584494907576E+01  0.2204088303201E+00
 0.5317412503150E+00 -0.4052027419190E+01 -0.1654534495175E+01  0.2055470791387E+00
 0.5100149612138E+00 -0.4222162564256E+01 -0.1744709369004E+01  0.1912597017184E+00
 0.4591197246532E+00 -0.4413038767458E+01 -0.1858341945405E+01  0.1783673748219E+00
 0.3720360357661E+00 -0.4625731748592E+01 -0.1999236979957E+01  0.1665286607037E+00
-0.1917831416827E+01 -0.2634244804431E+01 -0.2139475818565E+01 -0.1670991977247E+00
-0.1532609465592E+01 -0.2753696886798E+01 -0.2014563980514E+01 -0.6212038794634E-01
-0.1198742405575E+01 -0.2854466591001E+01 -0.1905008223559E+01  0.2108937947683E-01
-0.9088489158436E+00 -0.2941192402138E+01 -0.1809519414862E+01  0.8792131249996E-01
-0.6570583901706E+00 -0.3017688276152E+01 -0.1727130928791E+01  0.1420051834764E+00
-0.4385427070620E+00 -0.3087241733214E+01 -0.1657118682727E+01  0.1857220967629E+00
-0.2492370929113E+00 -0.3152785767961E+01 -0.1598950740555E+01  0.2206920090413E+00
-0.8572536815444E-01 -0.3216976019552E+01 -0.1552269648285E+01  0.2480855690652E+00
 0.5481956174440E-01 -0.3282248709160E+01 -0.1516891695438E+01  0.2687956551323E+00
 0.1747117652395E+00 -0.3350902004454E+01 -0.1492809408645E+01  0.2835264974808E+00
 0.2758157386349E+00 -0.3425174040507E+01 -0.1480198398125E+01  0.2928909354354E+00
 0.3595409570432E+00 -0.3507281238056E+01 -0.1479437928324E+01  0.2974843617143E+00
 0.4270188144989E+00 -0.3599527061483E+01 -0.1491078872301E+01  0.2978094953148E+00
 0.4789811198366E+00 -0.3704259385457E+01 -0.1515880780997E+01  0.2946405109670E+00
 0.5152751641286E+00 -0.3823694585323E+01 -0.1554957124018E+01  0.2891087188793E+00
 0.5345941400047E+00 -0.3959854896051E+01 -0.1609872551259E+01  0.2824233351414E+00
 0.5342648068659E+00 -0.4114491948970E+01 -0.1682706752521E+01  0.2758181332258E+00
 0.5100333743116E+00 -0.4288986644760E+01 -0.1776108032606E+01  0.2703620238351E+00
 0.4559263331229E+00 -0.4484329987571E+01 -0.1893349712789E+01  0.2666937065921E+00
 0.3649239584040E+00 -0.4701502038780E+01 -0.2038191692607E+01  0.2645758913810E+00
-0.1950485782016E+01 -0.2648343012618E+01 -0.2161449527996E+01 -0.1080533746219E+00
-0.1556360554363E+01 -0.2771325819923E+01 -0.2034012590756E+01 -0.1285808460127E-01
-0.1216164654235E+01 -0.2874525600877E+01 -0.1922624415026E+01  0.6302441614396E-01
-0.9216964055882E+00 -0.2963085221432E+01 -0.1825847360068E+01  0.1244797841296E+00
-0.6664975852894E+00 -0.3041150715468E+01 -0.1742594696936E+01  0.1747942158019E+00
-0.4453459744067E+00 -0.3112209236257E+01 -0.1672050944771E+01  0.2161293668532E+00
-0.2539315649791E+00 -0.3179302999912E+01 -0.1613620241406E+01  0.2499520439747E+00
-0.8868951811628E-01 -0.3245147701645E+01 -0.1566903489314E+01  0.2773154936717E+00
 0.5330085528279E-01 -0.3312218574750E+01 -0.1531691324265E+01  0.2990221607105E+00
 0.1744102828456E+00 -0.3382841867669E+01 -0.1507962841042E+01  0.3157169843613E+00
 0.2765285990723E+00 -0.3459276159056E+01 -0.1495891349398E+01  0.3279810328477E+00
 0.3610726101575E+00 -0.3543756877227E+01 -0.1495861601728E+01  0.3364022449807E+00
 0.4290982287101E+00 -0.3638574718852E+01 -0.1508453946541E+01  0.3415388379987E+00
 0.4811809579273E+00 -0.3746032038115E+01 -0.1534480003796E+01  0.3441852001216E+00
 0.5170219288452E+00 -0.3868293632327E+01 -0.1575097696642E+01  0.3454179873204E+00
 0.5352018966829E+00 -0.4007315572241E+01 -0.1631893423373E+01  0.3463649603204E+00
 0.5329833391714E+00 -0.4164779380944E+01 -0.1706944135303E+01  0.3481235545570E+00
 0.5061146204401E+00 -0.4342020982262E+01 -0.1802875985484E+01  0.3515835353690E+00
 0.4487079505955E+00 -0.4540015764177E+01 -0.1922914667506E+01  0.3572086985673E+00
 0.3536918373199E+00 -0.4759584063264E+01 -0.2070769340941E+01  0.3647513150260E+00
-0.1979041430010E+01 -0.2660258541235E+01 -0.2180470980955E+01 -0.4813813844759E-01
-0.1577241914652E+01 -0.2786314669636E+01 -0.2050871589414E+01  0.3685677585587E-01
-0.1231656615166E+01 -0.2891585048584E+01 -0.1937923577047E+01  0.1052019517224E+00
-0.9333466020020E+00 -0.2981664631207E+01 -0.1840055274941E+01  0.1612060292740E+00
-0.6753325969505E+00 -0.3060993565048E+01 -0.1756073291685E+01  0.2077600844289E+00
-0.4520454722426E+00 -0.3133235685701E+01 -0.1685082139960E+01  0.2467675133227E+00
-0.2589600477545E+00 -0.3201529385401E+01 -0.1626430029458E+01  0.2795183740150E+00
-0.9238272014709E-01 -0.3268640573396E+01 -0.1579680943959E+01  0.3069384639175E+00
 0.5068467030874E-01 -0.3337072323469E+01 -0.1544602193068E+01  0.3297388678319E+00
 0.1726549638170E+00 -0.3409165346547E+01 -0.1521159876025E+01  0.3485075110968E+00
 0.2754301759205E+00 -0.3487181302985E+01 -0.1509523025892E+01  0.3637963886926E+00
 0.3604178844344E+00 -0.3573350119162E+01 -0.1510078146492E+01  0.3761865319562E+00
 0.4285999206455E+00 -0.3669926338598E+01 -0.1523423412574E+01  0.3862725367517E+00
 0.4804192127937E+00 -0.3779147281697E+01 -0.1550402188452E+01  0.3948517958009E+00
 0.5154572423188E+00 -0.3903108115257E+01 -0.1592195906243E+01  0.4029397463350E+00
 0.5322093237155E+00 -0.4043692417979E+01 -0.1650397050118E+01  0.4115740862421E+00
 0.5278982442820E+00 -0.4202514180655E+01 -0.1727069485715E+01  0.4217166925864E+00
 0.4982901763349E+00 -0.4380859228863E+01 -0.1824807450060E+01  0.4340853302720E+00
 0.4375716761865E+00 -0.4579659917175E+01 -0.1946781468327E+01  0.4489617898145E+00
 0.3385952883479E+00 -0.4799589251965E+01 -0.2096667157582E+01  0.4659923358817E+00
-0.2003377408515E+01 -0.2669922552124E+01 -0.2196450975929E+01  0.1247296837014E-01
-0.1595212545634E+01 -0.2798566005888E+01 -0.2065075913977E+01  0.8690145698739E-01
-0.1245225611111E+01 -0.2905534580988E+01 -0.1950857285338E+01  0.1475243254427E+00
-0.9438354353049E+00 -0.2996817459586E+01 -0.1852106855901E+01  0.1980083356830E+00
-0.6836145739641E+00 -0.3077107370550E+01 -0.1767539309438E+01  0.2408038312445E+00
-0.4586985479420E+00 -0.3150217737979E+01 -0.1696190650081E+01  0.2775224199932E+00
-0.2643811509868E+00 -0.3219366028126E+01 -0.1637361170030E+01  0.3092566989234E+00
-0.9686328422792E-01 -0.3287355461312E+01 -0.1590582806369E+01  0.3367954386431E+00
 0.4691261581722E-01 -0.3356704013102E+01 -0.1555601952778E+01  0.3607562276694E+00
 0.1693866462799E+00 -0.3429752168698E+01 -0.1532371791650E+01  0.3816703510293E+00
 0.2724610308819E+00 -0.3508747278358E+01 -0.1521054532456E+01  0.4000608648116E+00
 0.3575225919239E+00 -0.3595891798642E+01 -0.1522033523297E+01  0.4164993030507E+00
 0.4254828338941E+00 -0.3693384684144E+01 -0.1535913865722E+01  0.4315997089054E+00
 0.4766736241518E+00 -0.3803383338299E+01 -0.1563553561683E+01  0.4461482672055E+00
 0.5105806407867E+00 -0.3927900405766E+01 -0.1606140285466E+01  0.4610948297212E+00
 0.5256388777946E+00 -0.4068739397835E+01 -0.1665257240195E+01  0.4773827496074E+00
 0.5190566478694E+00 -0.4227442170279E+01 -0.1742941191112E+01  0.4958399086967E+00
 0.4866398022967E+00 -0.4405235410879E+01 -0.1841739931362E+01  0.5170157023228E+00
 0.4226574850920E+00 -0.4602994377182E+01 -0.1964758334299E+01  0.5410030969492E+00
 0.3199139175213E+00 -0.4821267865304E+01 -0.2115636350092E+01  0.5672766946454E+00
-0.2023393872787E+01 -0.2677282123851E+01 -0.2209317712816E+01  0.7359904770559E-01
-0.1610239940132E+01 -0.2808003037214E+01 -0.2076574194086E+01  0.1371509884159E+00
-0.1256879092469E+01 -0.2916287781586E+01 -0.1961388425831E+01  0.1898943046365E+00
-0.9531930999734E+00 -0.3008456178122E+01 -0.1861975155982E+01  0.2347970223223E+00
-0.6913848801760E+00 -0.3089408599405E+01 -0.1776972930896E+01  0.2738293139237E+00
-0.4653500977273E+00 -0.3163077863912E+01 -0.1705361137645E+01  0.3082824887207E+00
-0.2702390117484E+00 -0.3232740386233E+01 -0.1646400312876E+01  0.3390338414465E+00
-0.1021728964519E+00 -0.3301221434637E+01 -0.1599595331555E+01  0.3667262499551E+00
 0.4194584886991E-01 -0.3371039555143E+01 -0.1564674037980E+01  0.3918807904562E+00
 0.1645697058573E+00 -0.3444519865149E+01 -0.1541576570957E+01  0.4149709041281E+00
 0.2675903621569E+00 -0.3523878680262E+01 -0.1530455505628E+01  0.4364888931097E+00
 0.3523658608192E+00 -0.3611271883623E+01 -0.1531685826833E+01  0.4569923295301E+00
 0.4197424804210E+00 -0.3708826667572E+01 -0.1545869564040E+01  0.4771000529029E+00
 0.4699603289129E+00 -0.3818608536263E+01 -0.1573864653463E+01  0.4975754945688E+00
 0.5024314054743E+00 -0.3942536700799E+01 -0.1616849484702E+01  0.5192998978675E+00
 0.5155543548173E+00 -0.4082325890379E+01 -0.1676382617462E+01  0.5431202860644E+00
 0.5065485779069E+00 -0.4239438044087E+01 -0.1754458044655E+01  0.5697326113258E+00
 0.4712848047863E+00 -0.4415031323028E+01 -0.1853560858872E+01  0.5995207299544E+00
 0.4041365181647E+00 -0.4609915152615E+01 -0.1976715953178E+01  0.6323827474591E+00
 0.2979400941011E+00 -0.4824520217054E+01 -0.2127492652392E+01  0.6675742697953E+00
-0.2039013487719E+01 -0.2682300798763E+01 -0.2219017709019E+01  0.1350535467895E+00
-0.1622300601231E+01 -0.2814570140899E+01 -0.2085329243512E+01  0.1874792023578E+00
-0.1266624650859E+01 -0.2923782237332E+01 -0.1969491232454E+01  0.2322157360104E+00
-0.9614438823335E+00 -0.3016518806076E+01 -0.1869642458810E+01  0.2714847310781E+00
-0.6986748496365E+00 -0.3097839912607E+01 -0.1784361933729E+01  0.3067432942196E+00
-0.4720321348421E+00 -0.3171765154199E+01 -0.1712584721506E+01  0.3389388481002E+00
-0.2765626118325E+00 -0.3241607561242E+01 -0.1653539977151E+01  0.3687183968064E+00
-0.1083357117690E+00 -0.3310197486938E+01 -0.1606710599317E+01  0.3965709484712E+00
 0.3576599988165E-01 -0.3380038846821E+01 -0.1571808234075E+01  0.4229174925929E+00
 0.1581927137147E+00 -0.3453426285904E+01 -0.1548759775001E+01  0.4481712241515E+00
 0.2608159016285E+00 -0.3532529489201E+01 -0.1537705382259E+01  0.4727904912588E+00
 0.3449592794411E+00 -0.3619441320398E+01 -0.1539006555346E+01  0.4973133915334E+00
 0.4114096581014E+00 -0.3716203640145E+01 -0.1553253167621E+01  0.5223509671850E+00
 0.4603328296865E+00 -0.3824779769110E+01 -0.1581290057518E+01  0.5486344609044E+00
 0.4910877689202E+00 -0.3946985496985E+01 -0.1624271928071E+01  0.5769742896371E+00
 0.5020597551216E+00 -0.4084437349259E+01 -0.1683717464974E+01  0.6081205467199E+00
 0.4905048290333E+00 -0.4238508147953E+01 -0.1761561555424E+01  0.6426399017738E+00
 0.4523863950132E+00 -0.4410278189197E+01 -0.1860209138548E+01  0.6807536489081E+00
 0.3822180571298E+00 -0.4600482724940E+01 -0.1982584388842E+01  0.7221607205258E+00
 0.2729550876796E+00 -0.4809448639565E+01 -0.2132151963978E+01  0.7658697141749E+00
-0.2050182473211E+01 -0.2684958756048E+01 -0.2225516372107E+01  0.1966459403051E+00
-0.1631380463315E+01 -0.2818233121351E+01 -0.2091318379489E+01  0.2377596255903E+00
-0.1274470103324E+01 -0.2927979637540E+01 -0.1975151373197E+01  0.2743940631130E+00
-0.9686061063447E+00 -0.3020968939718E+01 -0.1875100266893E+01  0.3079867298803E+00
-0.7055056505566E+00 -0.3102370371751E+01 -0.1789701725945E+01  0.3394556760368E+00
-0.4787635401366E+00 -0.3176255866967E+01 -0.1717859116982E+01  0.3693857654144E+00
-0.2833653872614E+00 -0.3245951193473E+01 -0.1658778788738E+01  0.3981815880818E+00
-0.1153578938176E+00 -0.3314273737144E+01 -0.1611926862463E+01  0.4261713536639E+00
 0.2837554332592E-01 -0.3383697207512E+01 -0.1577001178168E+01  0.4536721312614E+00
 0.1502684637305E+00 -0.3456471119276E+01 -0.1553915244165E+01  0.4810336302199E+00
 0.2521633534421E+00 -0.3534704277993E+01 -0.1542794230626E+01  0.5086761099679E+00
 0.3353457824814E+00 -0.3620412451190E+01 -0.1543981330377E+01  0.5371121432012E+00
 0.4005491186534E+00 -0.3715540654348E+01 -0.1558046017825E+01  0.5669341001779E+00
 0.4478806505621E+00 -0.3821940882185E+01 -0.1585808304841E+01  0.5988331944996E+00
 0.4766655778543E+00 -0.3941316065432E+01 -0.1628385725031E+01  0.6335472841898E+00
 0.4852977310566E+00 -0.4075174743237E+01 -0.1687242191446E+01  0.6717298459043E+00
 0.4710950372640E+00 -0.4224790708904E+01 -0.1764236961196E+01  0.7138215613604E+00
 0.4301438588101E+00 -0.4391156818837E+01 -0.1861676086491E+01  0.7598851701727E+00
 0.3571389483020E+00 -0.4574929464336E+01 -0.1982361537508E+01  0.8094207170213E+00
 0.2452348616734E+00 -0.4776350467762E+01 -0.2129624329460E+01  0.8611798069976E+00
-0.2056871284186E+01 -0.2685252708179E+01 -0.2228798270759E+01  0.2581833805339E+00
-0.1637475202502E+01 -0.2818979232361E+01 -0.2094533579073E+01  0.2878662748771E+00
-0.1280423593093E+01 -0.2928865751877E+01 -0.1978365987118E+01  0.3163367476659E+00
-0.9746921550774E+00 -0.3021795705344E+01 -0.1878349289634E+01  0.3442211887525E+00
-0.7118882657236E+00 -0.3102995490885E+01 -0.1792995361058E+01  0.3718797994331E+00
-0.4855499911514E+00 -0.3176553679638E+01 -0.1721188720905E+01  0.3995211596421E+00
-0.2906451168982E+00 -0.3245783932246E+01 -0.1662121648882E+01  0.4272982261728E+00
-0.1232275376650E+00 -0.3313472061456E+01 -0.1615248807490E+01  0.4553726827257E+00
 0.1979769943907E-01 -0.3382046058139E+01 -0.1580256724581E+01  0.4839538547073E+00
 0.1408335263365E+00 -0.3453696406106E+01 -0.1557045549542E+01  0.5133242032665E+00
 0.2416854497422E+00 -0.3530458238712E+01 -0.1545723206895E+01  0.5438611689961E+00
 0.3235982865549E+00 -0.3614258255405E+01 -0.1546610181437E+01  0.5760455141929E+00
 0.3872579899692E+00 -0.3706934831125E+01 -0.1560248111386E+01  0.6104414401169E+00
 0.4327276728704E+00 -0.3810220412260E+01 -0.1587421583487E+01  0.6476934602939E+00
 0.4593165707741E+00 -0.3925696099531E+01 -0.1629198374384E+01  0.6884654134986E+00
 0.4654477139838E+00 -0.4054752541819E+01 -0.1686973264804E+01  0.7333150890266E+00
 0.4485254748318E+00 -0.4198554138668E+01 -0.1762513467532E+01  0.7825612214289E+00
 0.4047897052725E+00 -0.4357997069232E+01 -0.1858007456348E+01  0.8361139640446E+00
 0.3291577609277E+00 -0.4533655977395E+01 -0.1976114156728E+01  0.8932806236838E+00
 0.2150541397762E+00 -0.4725704994131E+01 -0.2120005896170E+01  0.9525607949473E+00
-0.2059074983737E+01 -0.2683195622497E+01 -0.2228867179277E+01  0.3194723476544E+00
-0.1640590445149E+01 -0.2816816991253E+01 -0.2094981489795E+01  0.3376744225772E+00
-0.1284493713138E+01 -0.2926450247220E+01 -0.1979143656348E+01  0.3579536552468E+00
-0.9797085767339E+00 -0.3019013566774E+01 -0.1879399402682E+01  0.3801094519594E+00
-0.7178236059082E+00 -0.3099737093771E+01 -0.1794253524298E+01  0.4039327762894E+00
-0.4923840853148E+00 -0.3172689647981E+01 -0.1722584650280E+01  0.4292471825890E+00
-0.2983840817727E+00 -0.3241147492094E+01 -0.1663579835498E+01  0.4559477316903E+00
-0.1319149409270E+00 -0.3307846173608E+01 -0.1616687719731E+01  0.4840252009913E+00
 0.1007593738224E-01 -0.3375152884084E+01 -0.1581586160938E+01  0.5135775959748E+00
 0.1299474017565E+00 -0.3445186173066E+01 -0.1558162218564E+01  0.5448161055943E+00
 0.2294606660514E+00 -0.3519896226830E+01 -0.1546504709643E+01  0.5780702770153E+00
 0.3098180343475E+00 -0.3601110624048E+01 -0.1546907513236E+01  0.6137827193715E+00
 0.3716639000504E+00 -0.3690552846276E+01 -0.1559877800770E+01  0.6524810437149E+00
 0.4150301337683E+00 -0.3789828455933E+01 -0.1586155207394E+01  0.6947572196741E+00
 0.4392262943732E+00 -0.3900388272623E+01 -0.1626746125651E+01  0.7411997088071E+00
 0.4427237126883E+00 -0.4023495205357E+01 -0.1682962597286E+01  0.7922719313828E+00
 0.4230362220493E+00 -0.4160193667438E+01 -0.1756463994878E+01  0.8481755054832E+00
 0.3765860972029E+00 -0.4311273711956E+01 -0.1849303174243E+01  0.9086762213971E+00
 0.2985521517395E+00 -0.4477224507981E+01 -0.1963976002452E+01  0.9729003582907E+00
 0.1826897882554E+00 -0.4658163570637E+01 -0.2103472672384E+01  0.1039111931470E+01
-0.2056813287803E+01 -0.2678816274009E+01 -0.2225745888406E+01  0.3803202537877E+00
-0.1640741870343E+01 -0.2811775798839E+01 -0.2092683299208E+01  0.3870613214511E+00
-0.1286689633368E+01 -0.2920766308288E+01 -0.1977504287563E+01  0.3991574029290E+00
-0.9836562640684E+00 -0.3012661938232E+01 -0.1878269550317E+01  0.4155762914822E+00
-0.7233027485389E+00 -0.3092642938057E+01 -0.1793494468151E+01  0.4355358330942E+00
-0.4992456452243E+00 -0.3164721854835E+01 -0.1722064720660E+01  0.4584708185088E+00
-0.3065494697726E+00 -0.3232112294580E+01 -0.1663171025027E+01  0.4840151592360E+00
-0.1413731779011E+00 -0.3297481168131E+01 -0.1616261538536E+01  0.5119858266108E+00
-0.7268618143979E-03 -0.3363120528829E+01 -0.1581008269592E+01  0.5423663815294E+00
 0.1176913284913E+00 -0.3431065276562E+01 -0.1557285751643E+01  0.5752926716747E+00
 0.2155916175629E+00 -0.3503170943813E+01 -0.1545162279418E+01  0.6110411212482E+00
 0.2941326336075E+00 -0.3581157747487E+01 -0.1544901799605E+01  0.6500098931504E+00
 0.3539227740669E+00 -0.3666627506070E+01 -0.1556971220093E+01  0.6926824135932E+00
 0.3949742660227E+00 -0.3761052524636E+01 -0.1582056777535E+01  0.7395928164544E+00
 0.4166116533748E+00 -0.3865745539799E+01 -0.1621092922508E+01  0.7912527729632E+00
 0.4173717506803E+00 -0.3981832109302E+01 -0.1675296364303E+01  0.8480328117766E+00
 0.3948985219334E+00 -0.4110225810062E+01 -0.1746203820991E+01  0.9100228716365E+00
 0.3458226000277E+00 -0.4251600073572E+01 -0.1835715407910E+01  0.9768544996303E+00
 0.2656187632183E+00 -0.4406351724803E+01 -0.1946144487009E+01  0.1047488962036E+01
 0.1484244294788E+00 -0.4574543904914E+01 -0.2080276148178E+01  0.1119979052092E+01
-0.2050130454256E+01 -0.2672158785480E+01 -0.2219475937046E+01  0.4405370278072E+00
-0.1637955278461E+01 -0.2803905433646E+01 -0.2087674529395E+01  0.4359069198967E+00
-0.1287021303811E+01 -0.2911870114290E+01 -0.1973478961502E+01  0.4398636964330E+00
-0.9865307655778E+00 -0.3002804631355E+01 -0.1874987631803E+01  0.4505501525094E+00
-0.7283073517298E+00 -0.3081786132639E+01 -0.1790743933111E+01  0.4666146498545E+00
-0.5061022426749E+00 -0.3152734782161E+01 -0.1719653397311E+01  0.4871044720068E+00
-0.3150940443530E+00 -0.3218776740870E+01 -0.1660919264842E+01  0.5113921794714E+00
-0.1515389770083E+00 -0.3282492588032E+01 -0.1613994831475E+01  0.5391196357016E+00
-0.1252957021905E-01 -0.3346085902981E+01 -0.1578549268400E+01  0.5701534590641E+00
 0.1041667580470E+00 -0.3411497566409E+01 -0.1554445475987E+01  0.6045502226698E+00
 0.2002031311752E+00 -0.3480480370068E+01 -0.1541730298369E+01  0.6425279927987E+00
 0.2766937683749E+00 -0.3554640694746E+01 -0.1540635051487E+01  0.6844343131590E+00
 0.3342162758732E+00 -0.3635453428079E+01 -0.1551581457601E+01  0.7307014616605E+00
 0.3727735547889E+00 -0.3724252346628E+01 -0.1575195028169E+01  0.7818007755213E+00
 0.3917180758924E+00 -0.3822205137778E+01 -0.1612328914997E+01  0.8381655065040E+00
 0.3896670828832E+00 -0.3930290811453E+01 -0.1664093148207E+01  0.9000746424116E+00
 0.3644123689763E+00 -0.4049280940819E+01 -0.1731888224373E+01  0.9675120615110E+00
 0.3128149222916E+00 -0.4179720127574E+01 -0.1817445441873E+01  0.1039986261495E+01
 0.2306745332400E+00 -0.4321901443898E+01 -0.1922876643132E+01  0.1116312118026E+01
 0.1125519050742E+00 -0.4475825815569E+01 -0.2050738732731E+01  0.1194360152632E+01
-0.2039094835792E+01 -0.2663282001242E+01 -0.2210117107800E+01  0.4999366544682E+00
-0.1632266551503E+01 -0.2793275360810E+01 -0.2080004693512E+01  0.4840945514437E+00
-0.1285499647611E+01 -0.2899840099298E+01 -0.1967109676058E+01  0.4799916448921E+00
-0.9883226549493E+00 -0.2989529072057E+01 -0.1869590306951E+01  0.4849633734876E+00
-0.7328101746693E+00 -0.3067264294168E+01 -0.1786034995824E+01  0.4970996662112E+00
-0.5129098731965E+00 -0.3136838370025E+01 -0.1715381669963E+01  0.5150665034786E+00
-0.3239570051516E+00 -0.3201266099919E+01 -0.1656854855181E+01  0.5379779693794E+00
-0.1623338247287E+00 -0.3263025025936E+01 -0.1609918655729E+01  0.5653012140876E+00
-0.2523422822012E-01 -0.3324218143352E+01 -0.1574242610646E+01  0.5967841916654E+00
 0.8949356708659E-01 -0.3386683423973E+01 -0.1549679228806E+01  0.6324005575955E+00
 0.1834400496647E+00 -0.3452064506259E+01 -0.1536253490703E+01  0.6723049052991E+00
 0.2576746243363E+00 -0.3521849225484E+01 -0.1534162058648E+01  0.7167881619263E+00
 0.3127489275719E+00 -0.3597381839957E+01 -0.1543777464906E+01  0.7662249813647E+00
 0.3486656379545E+00 -0.3679853608392E+01 -0.1565658342135E+01  0.8210190999715E+00
 0.3648163365296E+00 -0.3770281263704E+01 -0.1600568511712E+01  0.8815233382178E+00
 0.3599112057867E+00 -0.3869488712484E+01 -0.1649501423964E+01  0.9479260299681E+00
 0.3319041990870E+00 -0.3978094140409E+01 -0.1713709268075E+01  0.1020110198114E+01
 0.2779041511199E+00 -0.4096499177673E+01 -0.1794739657928E+01  0.1097472466111E+01
 0.1940588471102E+00 -0.4224876668844E+01 -0.1894484371410E+01  0.1178700616875E+01
 0.7538433001865E-01 -0.4363146932418E+01 -0.2015248418016E+01  0.1261513130815E+01
-0.2023798248161E+01 -0.2652258829598E+01 -0.2197746820973E+01  0.5583386209186E+00
-0.1623721558712E+01 -0.2779973914507E+01 -0.2069736867163E+01  0.5315115751073E+00
-0.1282136797740E+01 -0.2884776058649E+01 -0.1958449037535E+01  0.5194640362462E+00
-0.9890179955169E+00 -0.2972945337221E+01 -0.1862122761664E+01  0.5187523626659E+00
-0.7367757305689E+00 -0.3049198491282E+01 -0.1779407879757E+01  0.5269263299702E+00
-0.5196137950597E+00 -0.3117166815854E+01 -0.1709286882794E+01  0.5422816796371E+00
-0.3330650421667E+00 -0.3179731076392E+01 -0.1651014171535E+01  0.5636799728203E+00
-0.1736652870430E+00 -0.3239250337181E+01 -0.1604070339317E+01  0.5904158160107E+00
-0.3872769454666E-01 -0.3297716315625E+01 -0.1568128680803E+01  0.6221176805927E+00
 0.7380802300962E-01 -0.3356856778813E+01 -0.1543032911314E+01  0.6586730868072E+00
 0.1654647783300E+00 -0.3418201527600E+01 -0.1528786268279E+01  0.7001682724525E+00
 0.2372670318981E+00 -0.3483116930355E+01 -0.1525549448405E+01  0.7468317803564E+00
 0.2897449042792E+00 -0.3552814580208E+01 -0.1533642743797E+01  0.7989745588292E+00
 0.3229088402672E+00 -0.3628340710318E+01 -0.1553552974984E+01  0.8569279670236E+00
 0.3361989981451E+00 -0.3710556519712E+01 -0.1585948031114E+01  0.9209618414024E+00
 0.3284285372245E+00 -0.3800123211662E+01 -0.1631696492847E+01  0.9911739388347E+00
 0.2977244007400E+00 -0.3897494342603E+01 -0.1691891868384E+01  0.1067350562789E+01
 0.2414559843745E+00 -0.4002912894443E+01 -0.1767884743248E+01  0.1148786406288E+01
 0.1561359619765E+00 -0.4116410168098E+01 -0.1861328872156E+01  0.1234060104649E+01
 0.3725967106387E-01 -0.4237797502792E+01 -0.1974252775905E+01  0.1320766432739E+01
-0.2004355119531E+01 -0.2639175515091E+01 -0.2182459392737E+01  0.6155692886304E+00
-0.1612375999823E+01 -0.2764107355362E+01 -0.2056947171720E+01  0.5780499836819E+00
-0.1276946353501E+01 -0.2866798094939E+01 -0.1947559885827E+01  0.5582075881849E+00
-0.9885988762715E+00 -0.2953185009929E+01 -0.1852638421815E+01  0.5518577380723E+00
-0.7401610451028E+00 -0.3027731980010E+01 -0.1770909717311E+01  0.5560352851669E+00
-0.5261495016821E+00 -0.3093877127344E+01 -0.1701412511327E+01  0.5686815270372E+00
-0.3423335471872E+00 -0.3154346085148E+01 -0.1643439423029E+01  0.5884145127107E+00
-0.1854285073529E+00 -0.3211365507332E+01 -0.1596493182853E+01  0.6143603077784E+00
-0.5288348731914E-01 -0.3266806718308E+01 -0.1560254392687E+01  0.6460280935144E+00
 0.5726054647863E-01 -0.3322281673373E+01 -0.1534559925748E+01  0.6832165832589E+00
 0.1464546141073E+00 -0.3379203427044E+01 -0.1519391938227E+01  0.7259391139292E+00
 0.2156783624610E+00 -0.3438815779007E+01 -0.1514874581934E+01  0.7743563661710E+00
 0.2654445342216E+00 -0.3502197384055E+01 -0.1521273835563E+01  0.8287098500393E+00
 0.2957783541631E+00 -0.3570248630542E+01 -0.1539001025995E+01  0.8892537195043E+00
 0.3061764427189E+00 -0.3643672227076E+01 -0.1568623014669E+01  0.9561716084285E+00
 0.2955626205011E+00 -0.3722960456831E+01 -0.1610876978989E+01  0.1029469662688E+01
 0.2622443169078E+00 -0.3808391740539E+01 -0.1666689284879E+01  0.1108839942266E+01
 0.2038595762260E+00 -0.3900034199444E+01 -0.1737202068506E+01  0.1193482770455E+01
 0.1172969012420E+00 -0.3997752971301E+01 -0.1823814348302E+01  0.1281882132487E+01
-0.1450558063318E-02 -0.4101212939965E+01 -0.1928251839183E+01  0.1371532331800E+01
-0.1980901449084E+01 -0.2624130862385E+01 -0.2164365180901E+01  0.6714631674435E+00
-0.1598295188810E+01 -0.2745798818529E+01 -0.2041724178271E+01  0.6236069677028E+00
-0.1269943653807E+01 -0.2846045425452E+01 -0.1934514862345E+01  0.5961531650435E+00
-0.9870440076063E+00 -0.2930399874622E+01 -0.1841198619977E+01  0.5842244197452E+00
-0.7429165032900E+00 -0.3003028756031E+01 -0.1760594267415E+01  0.5843724838373E+00
-0.5324438043535E+00 -0.3067147462067E+01 -0.1691807890926E+01  0.5942045679378E+00
-0.3516679533570E+00 -0.3125307276278E+01 -0.1634178353784E+01  0.6121072307690E+00
-0.1975078462398E+00 -0.3179590231113E+01 -0.1587236092330E+01  0.6370438707872E+00
-0.6756377725777E-01 -0.3231739858329E+01 -0.1550672704793E+01  0.6684056720327E+00
 0.4001331228604E-01 -0.3283248458210E+01 -0.1524320514718E+01  0.7059005235019E+00
 0.1265988990214E+00 -0.3335411240613E+01 -0.1508141796723E+01  0.7494647551185E+00
 0.1931282192842E+00 -0.3389350180673E+01 -0.1502224318043E+01  0.7991860676647E+00
 0.2401005404040E+00 -0.3446012575869E+01 -0.1506778652847E+01  0.8552311508722E+00
 0.2675620865810E+00 -0.3506154036408E+01 -0.1522138212558E+01  0.9177720504249E+00
 0.2750724566150E+00 -0.3570317766199E+01 -0.1548765291576E+01  0.9869022476429E+00
 0.2616717376970E+00 -0.3638822798831E+01 -0.1587260994707E+01  0.1062533932539E+01
 0.2258523576688E+00 -0.3711763511753E+01 -0.1638378238264E+01  0.1144265304377E+01
 0.1655252802572E+00 -0.3789017660271E+01 -0.1703041414287E+01  0.1231206674492E+01
 0.7796046763226E-01 -0.3870259214366E+01 -0.1782380406444E+01  0.1321756683321E+01
-0.4033756305990E-01 -0.3954964583960E+01 -0.1877792004337E+01  0.1413324493143E+01
-0.1953593595118E+01 -0.2607235423811E+01 -0.2143589633460E+01  0.7258640826316E+00
-0.1581553781994E+01 -0.2725187171522E+01 -0.2024168243019E+01  0.6680854334615E+00
-0.1261146059239E+01 -0.2822675071597E+01 -0.1919395926625E+01  0.6332359602439E+00
-0.9843293625441E+00 -0.2904760475651E+01 -0.1827872219316E+01  0.6158016711140E+00
-0.7449867650321E+00 -0.2975271950873E+01 -0.1748521592041E+01  0.6118892141475E+00
-0.5384160005720E+00 -0.3037175287752E+01 -0.1680527901250E+01  0.6187964271336E+00
-0.3609651730377E+00 -0.3092830354323E+01 -0.1623283893742E+01  0.6346933408616E+00
-0.2097786282955E+00 -0.3144164258010E+01 -0.1576353152565E+01  0.6583884488381E+00
-0.8262149376846E-01 -0.3192787166139E+01 -0.1539442066252E+01  0.6891574027875E+00
 0.2223773183272E-01 -0.3240069698645E+01 -0.1512381020566E+01  0.7266160007442E+00
 0.1060960446557E+00 -0.3287189949836E+01 -0.1495114131643E+01  0.7706199971151E+00
 0.1698449721333E+00 -0.3335150670567E+01 -0.1487693674491E+01  0.8211794359082E+00
 0.2139740720187E+00 -0.3384771305139E+01 -0.1490274695787E+01  0.8783812016873E+00
 0.2385562023732E+00 -0.3436665810676E+01 -0.1503111512090E+01  0.9423102910492E+00
 0.2432193692007E+00 -0.3491219118505E+01 -0.1526559878301E+01  0.1012965368090E+01
 0.2271238130571E+00 -0.3548575134616E+01 -0.1561082117173E+01  0.1090160957920E+01
 0.1889490676835E+00 -0.3608637838210E+01 -0.1607253718071E+01  0.1173399507148E+01
 0.1268800709466E+00 -0.3671081709530E+01 -0.1665774765909E+01  0.1261702103656E+01
 0.3857085336691E-01 -0.3735366220268E+01 -0.1737493818037E+01  0.1353385928302E+01
-0.7895955877845E-01 -0.3800742906132E+01 -0.1823460153883E+01  0.1445782354218E+01
-0.1922606911430E+01 -0.2588610661087E+01 -0.2120272253705E+01  0.7786262256455E+00
-0.1562235451810E+01 -0.2702425800822E+01 -0.2004390783653E+01  0.7113944722955E+00
-0.1250573232389E+01 -0.2796860453002E+01 -0.1902293827309E+01  0.6693956429080E+00
-0.9804288457904E+00 -0.2876454564466E+01 -0.1812735198223E+01  0.6465430864936E+00
-0.7463117267788E+00 -0.2944662101345E+01 -0.1734757694818E+01  0.6385420389007E+00
-0.5439791009907E+00 -0.3004175398688E+01 -0.1667632610619E+01  0.6424098011999E+00
-0.3701151025042E+00 -0.3057148235793E+01 -0.1610813764914E+01  0.6561176859814E+00
-0.2221089599356E+00 -0.3105344559549E+01 -0.1563903150191E+01  0.6783289294766E+00
-0.9790250296764E-01 -0.3150237517786E+01 -0.1526625805882E+01  0.7082073417797E+00
 0.4111863479832E-02 -0.3193075874307E+01 -0.1498813081287E+01  0.7452761983253E+00
 0.8515047982821E-01 -0.3234923159641E+01 -0.1480393155757E+01  0.7893077408588E+00
 0.1460621946229E+00 -0.3276667342590E+01 -0.1471384415813E+01  0.8402302089052E+00
 0.1873305879527E+00 -0.3319005477822E+01 -0.1471887194505E+01  0.8980461814494E+00
 0.2090604242123E+00 -0.3362415179470E+01 -0.1482076731212E+01  0.9627487254550E+00
 0.2109527650215E+00 -0.3407126842095E+01 -0.1502201812414E+01  0.1034236417777E+01
 0.1922906164865E+00 -0.3453110327377E+01 -0.1532585260231E+01  0.1112221173034E+01
 0.1519408679924E+00 -0.3500076501989E+01 -0.1573623743987E+01  0.1196105639856E+01
 0.8836126738210E-01 -0.3547487981122E+01 -0.1625789551334E+01  0.1284818977580E+01
-0.4107321586932E-03 -0.3594572061779E+01 -0.1689641908865E+01  0.1376595354391E+01
-0.1168372106009E+00 -0.3640321647609E+01 -0.1765864658880E+01  0.1468685940911E+01
-0.1888134259038E+01 -0.2568388098107E+01 -0.2094565502546E+01  0.8296150752520E+00
-0.1540432509959E+01 -0.2677681351041E+01 -0.1982513509642E+01  0.7534497750636E+00
-0.1238247407017E+01 -0.2768789914524E+01 -0.1883307536347E+01  0.7045764646774E+00
-0.9753149729981E+00 -0.2845685466774E+01 -0.1795870202138E+01  0.6764065201367E+00
-0.7468275062226E+00 -0.2911415327100E+01 -0.1719374127301E+01  0.6642926382993E+00
-0.5490410873861E+00 -0.2968377828611E+01 -0.1653186886326E+01  0.6650042829195E+00
-0.3790021614331E+00 -0.3018508593288E+01 -0.1596830050669E+01  0.6763345916039E+00
-0.2343615813974E+00 -0.3063402376848E+01 -0.1549949056444E+01  0.6968130529651E+00
-0.1132478154519E+00 -0.3104393635110E+01 -0.1512291477928E+01  0.7254965865022E+00
-0.1418220049909E-01 -0.3142610957670E+01 -0.1483692780576E+01  0.7618164182861E+00
 0.6396957866429E-01 -0.3179007656149E+01 -0.1464067892705E+01  0.8054590579891E+00
 0.1220150720702E+00 -0.3214363157709E+01 -0.1453403596564E+01  0.8562674136947E+00
 0.1604356733576E+00 -0.3249259546424E+01 -0.1451747216659E+01  0.9141558637212E+00
 0.1793731761198E+00 -0.3284045656200E+01 -0.1459196061936E+01  0.9790208751603E+00
 0.1786058675351E+00 -0.3318803741565E+01 -0.1475892997051E+01  0.1050655257303E+01
 0.1575412771628E+00 -0.3353334062253E+01 -0.1502022605183E+01  0.1128662447391E+01
 0.1152327214346E+00 -0.3387156166031E+01 -0.1537804015060E+01  0.1212339553567E+01
 0.5040805707574E-01 -0.3419518567588E+01 -0.1583481935924E+01  0.1300518151022E+01
-0.3851315943057E-01 -0.3449406654186E+01 -0.1639322308242E+01  0.1391342516362E+01
-0.1534655106487E+00 -0.3475530542237E+01 -0.1705628140530E+01  0.1481971801697E+01
-0.1850384420517E+01 -0.2546708481232E+01 -0.2066633658580E+01  0.8787081846811E+00
-0.1516245483828E+01 -0.2651132441230E+01 -0.1958667619809E+01  0.7941739928094E+00
-0.1224193636221E+01 -0.2738665215234E+01 -0.1862543655459E+01  0.7387273286926E+00
-0.9689595424342E+00 -0.2812670401401E+01 -0.1777366069094E+01  0.7053539576283E+00
-0.7464674272683E+00 -0.2875761450954E+01 -0.1702447568446E+01  0.6891075562973E+00
-0.5535061750174E+00 -0.2930025699046E+01 -0.1637259976657E+01  0.6865460397474E+00
-0.3875068366947E+00 -0.2977171331860E+01 -0.1581398735210E+01  0.6953075151712E+00
-0.2463957180644E+00 -0.3018620203624E+01 -0.1534557479302E+01  0.7138010505561E+00
-0.1284957836682E+00 -0.3055568431583E+01 -0.1496510177372E+01  0.7409828996788E+00
-0.3246092329767E-01 -0.3089027954044E+01 -0.1467099768629E+01  0.7761936704393E+00
 0.4276062590536E-01 -0.3119847945186E+01 -0.1446231036394E+01  0.8190327142448E+00
 0.9793685114158E-01 -0.3148707252600E+01 -0.1433862085049E+01  0.8692547900669E+00
 0.1335508800773E+00 -0.3176082319083E+01 -0.1429989772706E+01  0.9266829315271E+00
 0.1497866924316E+00 -0.3202203012521E+01 -0.1434635666803E+01  0.9911127312185E+00
 0.1465037335375E+00 -0.3227012536136E+01 -0.1447839133549E+01  0.1062225392153E+01
 0.1232353240845E+00 -0.3250149503039E+01 -0.1469649660381E+01  0.1139509555403E+01
 0.7921966952037E-01 -0.3270949034619E+01 -0.1500112797791E+01  0.1222150141755E+01
 0.1345168717855E-01 -0.3288451060317E+01 -0.1539249701471E+01  0.1308873659718E+01
-0.7526750107774E-01 -0.3301401081159E+01 -0.1587034229626E+01  0.1397723756912E+01
-0.1883314232886E+00 -0.3308219827965E+01 -0.1643379083921E+01  0.1485748965094E+01
-0.1809580439916E+01 -0.2523720959421E+01 -0.2036651652523E+01  0.9257958328122E+00
-0.1489782648315E+01 -0.2622968381829E+01 -0.1932992979265E+01  0.8334970455012E+00
-0.1208440007456E+01 -0.2706700007427E+01 -0.1840115802328E+01  0.7718018233777E+00
-0.9613342793040E+00 -0.2777638781854E+01 -0.1757317334287E+01  0.7333513314111E+00
-0.7451629812197E+00 -0.2837942095254E+01 -0.1684059381671E+01  0.7129578514386E+00
-0.5572760521721E+00 -0.2889373039565E+01 -0.1619925069008E+01  0.7070073476277E+00
-0.3955072000716E+00 -0.2933406039720E+01 -0.1564589218734E+01  0.7130084951247E+00
-0.2580688968445E+00 -0.2971288755738E+01 -0.1517798092864E+01  0.7292650187420E+00
-0.1434842496387E+00 -0.3004081367320E+01 -0.1479355836218E+01  0.7546399947250E+00
-0.5054184331608E-01 -0.3032684481966E+01 -0.1449116369207E+01  0.7883858350224E+00
 0.2172787571683E-01 -0.3057850868260E+01 -0.1426977802876E+01  0.8300141609714E+00
 0.7405540355420E-01 -0.3080168367256E+01 -0.1412873089356E+01  0.8791895533421E+00
 0.1069296905499E+00 -0.3100018937466E+01 -0.1406751942483E+01  0.9356414699420E+00
 0.1205822331594E+00 -0.3117525483286E+01 -0.1408563323987E+01  0.9990609477703E+00
 0.1149574793852E+00 -0.3132503819402E+01 -0.1418246776211E+01  0.1069011845807E+01
 0.8971550889697E-01 -0.3144442253083E+01 -0.1435721566126E+01  0.1144861792104E+01
 0.4427768237414E-01 -0.3152503514099E+01 -0.1460866137205E+01  0.1225677025820E+01
-0.2209656949395E-01 -0.3155533074698E+01 -0.1493485928982E+01  0.1310071558032E+01
-0.1102233671387E+00 -0.3152053524224E+01 -0.1533270135052E+01  0.1395976831749E+01
-0.2209378356291E+00 -0.3140214984583E+01 -0.1579741821493E+01  0.1480310012960E+01
-0.1765957920954E+01 -0.2499582302826E+01 -0.2004803900092E+01  0.9707815286905E+00
-0.1461159518469E+01 -0.2593387919247E+01 -0.1905637290894E+01  0.8713563734437E+00
-0.1191017814163E+01 -0.2673118339380E+01 -0.1816143987559E+01  0.8037582180792E+00
-0.9524114335503E+00 -0.2740830538189E+01 -0.1735823722315E+01  0.7603682779564E+00
-0.7428447397249E+00 -0.2798208793440E+01 -0.1664295156366E+01  0.7358186500761E+00
-0.5602510691998E+00 -0.2846682621076E+01 -0.1601258830368E+01  0.7263659801499E+00
-0.4028803689753E+00 -0.2887489458652E+01 -0.1546473815062E+01  0.7294174036550E+00
-0.2692386926887E+00 -0.2921703981055E+01 -0.1499743052856E+01  0.7431880392100E+00
-0.1580526031235E+00 -0.2950254880205E+01 -0.1460904513459E+01  0.7664564982083E+00
-0.6824597791504E-01 -0.2973938477581E+01 -0.1429826690457E+01  0.7983904188416E+00
 0.1069760011530E-02 -0.2993420397639E+01 -0.1406404796118E+01  0.8384140188087E+00
 0.5058997605129E-01 -0.3009208511382E+01 -0.1390550708079E+01  0.8861005254779E+00
 0.8081370600261E-01 -0.3021603168617E+01 -0.1382171043923E+01  0.9410846756783E+00
 0.9202556363631E-01 -0.3030634396891E+01 -0.1381146148127E+01  0.1002950049956E+01
 0.8425878426057E-01 -0.3036004609429E+01 -0.1387320534311E+01  0.1071137730840E+01
 0.5730083367947E-01 -0.3037066084747E+01 -0.1400489664450E+01  0.1144888751071E+01
 0.1075426165574E-01 -0.3032825798500E+01 -0.1420373618714E+01  0.1223145508764E+01
-0.5585892582058E-01 -0.3021957307992E+01 -0.1446573626223E+01  0.1304404562648E+01
-0.1429688788180E+00 -0.3002793279092E+01 -0.1478508210468E+01  0.1386477202023E+01
-0.2508333616573E+00 -0.2973262609014E+01 -0.1515325102372E+01  0.1466133578033E+01
-0.1719763313891E+01 -0.2474456181848E+01 -0.1971283157998E+01  0.1013582397842E+01
-0.1430498307175E+01 -0.2562598030963E+01 -0.1876755274165E+01  0.9076971607741E+00
-0.1171961679493E+01 -0.2638153211933E+01 -0.1790753994428E+01  0.8345594442355E+00
-0.9421643196520E+00 -0.2702494489290E+01 -0.1712989635858E+01  0.7863778531403E+00
-0.7394432059830E+00 -0.2756821146151E+01 -0.1643244241335E+01  0.7576686136328E+00
-0.5623313619053E+00 -0.2802223829886E+01 -0.1581340936131E+01  0.7446044635019E+00
-0.4095038927210E+00 -0.2839703003023E+01 -0.1527127237126E+01  0.7445210164506E+00
-0.2797643836931E+00 -0.2870164145013E+01 -0.1480466404737E+01  0.7555630633647E+00
-0.1720437229169E+00 -0.2894410941822E+01 -0.1441233688772E+01  0.7764346142273E+00
-0.8540007711025E-01 -0.2913144090652E+01 -0.1409315755274E+01  0.8062229343504E+00
-0.1902371059248E-01 -0.2926952698114E+01 -0.1384608908580E+01  0.8442660861117E+00
 0.2774818393043E-01 -0.2936276972689E+01 -0.1367008527249E+01  0.8900456718510E+00
 0.5542914487131E-01 -0.2941350127742E+01 -0.1356382858509E+01  0.9431018363726E+00
 0.6436284156238E-01 -0.2942125383329E+01 -0.1352548391200E+01  0.1002908741162E+01
 0.5467492962847E-01 -0.2938207726638E+01 -0.1355260411157E+01  0.1068779644539E+01
 0.2628022663676E-01 -0.2928829879336E+01 -0.1364198333309E+01  0.1139824420506E+01
-0.2104033783594E-01 -0.2912863106886E+01 -0.1378934615522E+01  0.1214858871527E+01
-0.8750443927161E-01 -0.2888838482467E+01 -0.1398881169669E+01  0.1292262108510E+01
-0.1731523257443E+00 -0.2854946133084E+01 -0.1423206272039E+01  0.1369725897257E+01
-0.2776442914390E+00 -0.2808972037635E+01 -0.1450709670985E+01  0.1443871205839E+01
-0.1671252151193E+01 -0.2448512454538E+01 -0.1936289359782E+01  0.1054129416402E+01
-0.1397927325618E+01 -0.2530812771362E+01 -0.1846507840897E+01  0.9424725040348E+00
-0.1151309585869E+01 -0.2602045196487E+01 -0.1764076743233E+01  0.8641730447950E+00
-0.9305677478102E+00 -0.2662886784249E+01 -0.1688923625784E+01  0.8113561950139E+00
-0.7348895518659E+00 -0.2714045042013E+01 -0.1620999255012E+01  0.7784893135696E+00
-0.5634178590535E+00 -0.2756270601495E+01 -0.1560253572500E+01  0.7617091975316E+00
-0.4152570162668E+00 -0.2790330346367E+01 -0.1506626056617E+01  0.7583119099683E+00
-0.2895084669352E+00 -0.2816967016366E+01 -0.1460043473448E+01  0.7663915849134E+00
-0.1853057517067E+00 -0.2836867776555E+01 -0.1420421554680E+01  0.7845885272039E+00
-0.1018386756939E+00 -0.2850647832636E+01 -0.1387668655395E+01  0.8119149478464E+00
-0.3837330073124E-01 -0.2858831539881E+01 -0.1361686271634E+01  0.8476249232706E+00
 0.5723302372340E-02 -0.2861804763096E+01 -0.1342358283135E+01  0.8911090989645E+00
 0.3098371948795E-01 -0.2859749521330E+01 -0.1329519923494E+01  0.9418146543908E+00
 0.3781702675262E-01 -0.2852560246784E+01 -0.1322929310059E+01  0.9991054363722E+00
 0.2644459282785E-01 -0.2839762140540E+01 -0.1322259244071E+01  0.1062162100689E+01
-0.3092691957615E-02 -0.2820486070225E+01 -0.1327082014860E+01  0.1129959905414E+01
-0.5084031467519E-01 -0.2793489169550E+01 -0.1336834854195E+01  0.1201188388426E+01
-0.1167601245323E+00 -0.2757193461125E+01 -0.1350758181833E+01  0.1274116166651E+01
-0.2005005321653E+00 -0.2709704016513E+01 -0.1367796134410E+01  0.1346328726261E+01
-0.3011020281801E+00 -0.2648763632035E+01 -0.1386436856784E+01  0.1414315783266E+01
-0.1620687412966E+01 -0.2421926602190E+01 -0.1900028582304E+01  0.1092367502442E+01
-0.1363580396479E+01 -0.2498252247079E+01 -0.1815061337869E+01  0.9756435486333E+00
-0.1129102870489E+01 -0.2565041213919E+01 -0.1736247715268E+01  0.8925711068312E+00
-0.9175983849169E+00 -0.2622269509550E+01 -0.1663737906180E+01  0.8352821368228E+00
-0.7291162683097E+00 -0.2670151031372E+01 -0.1597655626798E+01  0.7982645083119E+00
-0.5634131935009E+00 -0.2709099489350E+01 -0.1538080957039E+01  0.7776694357439E+00
-0.4200218340424E+00 -0.2739655140740E+01 -0.1485048174381E+01  0.7707871852729E+00
-0.2983380381096E+00 -0.2762407215871E+01 -0.1438550265722E+01  0.7756821114245E+00
-0.1976936934604E+00 -0.2777936815460E+01 -0.1398546335646E+01  0.7909425677846E+00
-0.1174059187703E+00 -0.2786785073686E+01 -0.1364969762992E+01  0.8155118312450E+00
-0.5681262491843E-01 -0.2789424195407E+01 -0.1337731302160E+01  0.8485630471089E+00
-0.1530811111355E-01 -0.2786199659830E+01 -0.1316708649004E+01  0.8893975373600E+00
 0.7663928992596E-02 -0.2777259549384E+01 -0.1301709938282E+01  0.9373729444462E+00
 0.1258489583245E-01 -0.2762459592695E+01 -0.1292441104247E+01  0.9917431081905E+00
-0.2254188264548E-03 -0.2741264381639E+01 -0.1288500202951E+01  0.1051551205922E+01
-0.3060335242011E-01 -0.2712720834489E+01 -0.1289362364577E+01  0.1115635153092E+01
-0.7842912136792E-01 -0.2675492574480E+01 -0.1294343193765E+01  0.1182561650194E+01
-0.1434179660184E+00 -0.2627925799674E+01 -0.1302531566572E+01  0.1250503811324E+01
-0.2248298457254E+00 -0.2568101782860E+01 -0.1312677862106E+01  0.1316969222629E+01
-0.3210599084671E+00 -0.2493832490950E+01 -0.1322999424370E+01  0.1378358848833E+01
-0.1568337882386E+01 -0.2394879172134E+01 -0.1862712010900E+01  0.1128255490401E+01
-0.1327596224064E+01 -0.2465141679932E+01 -0.1782586810356E+01  0.1007179618967E+01
-0.1105386112208E+01 -0.2527393449041E+01 -0.1707406389456E+01  0.9197302033750E+00
-0.9032349776613E+00 -0.2580909456744E+01 -0.1637547880017E+01  0.8581367868985E+00
-0.7220576671078E+00 -0.2625412845395E+01 -0.1573311136886E+01  0.8169793306060E+00
-0.5622224646056E+00 -0.2660987852174E+01 -0.1514908845044E+01  0.7924761338224E+00
-0.4236842919798E+00 -0.2687958848676E+01 -0.1462472272399E+01  0.7819470389252E+00
-0.3061259970216E+00 -0.2706773710253E+01 -0.1416062858828E+01  0.7834484737987E+00
-0.2090707903356E+00 -0.2717919880541E+01 -0.1375685611823E+01  0.7955292042834E+00
-0.1319571037157E+00 -0.2721876915767E+01 -0.1341301985755E+01  0.8170703025356E+00
-0.7418988350852E-01 -0.2719077913043E+01 -0.1312835861049E+01  0.8471678282661E+00
-0.3518822372469E-01 -0.2709841994492E+01 -0.1290164199289E+01  0.8850363839697E+00
-0.1436723181528E-01 -0.2694301615885E+01 -0.1273074355190E+01  0.9299497618843E+00
-0.1116533256818E-01 -0.2672296242707E+01 -0.1261226937180E+01  0.9810535566954E+00
-0.2516237810767E-01 -0.2643250923186E+01 -0.1254154248427E+01  0.1037247875739E+01
-0.5607823464153E-01 -0.2606146094343E+01 -0.1251245431449E+01  0.1097230262016E+01
-0.1036413532498E+00 -0.2559568468857E+01 -0.1251708613215E+01  0.1159450126698E+01
-0.1673369879331E+00 -0.2501815948848E+01 -0.1254501877105E+01  0.1222008096568E+01
-0.2460491240858E+00 -0.2431003518241E+01 -0.1258214738702E+01  0.1282378651470E+01
-0.3374986855090E+00 -0.2345129736035E+01 -0.1260835354928E+01  0.1336944871694E+01
-0.1514476579865E+01 -0.2367555262872E+01 -0.1824554961458E+01  0.1161765973832E+01
-0.1290117747256E+01 -0.2431710577626E+01 -0.1749259308258E+01  0.1037058360018E+01
-0.1080206930109E+01 -0.2489358479641E+01 -0.1677695738327E+01  0.9456313602800E+00
-0.8874584385558E+00 -0.2539077140410E+01 -0.1610471718029E+01  0.8799030736135E+00
-0.7136502253096E+00 -0.2580106125922E+01 -0.1548065481152E+01  0.8346193698987E+00
-0.5597538447138E+00 -0.2612212194371E+01 -0.1490824034589E+01  0.8061206537690E+00
-0.4261350367620E+00 -0.2635518702308E+01 -0.1438977253713E+01  0.7917931830644E+00
-0.3127520860719E+00 -0.2650347460580E+01 -0.1392656783394E+01  0.7897079965613E+00
-0.2193096721135E+00 -0.2657106594637E+01 -0.1351915641944E+01  0.7983869106927E+00
-0.1453599072726E+00 -0.2656227447836E+01 -0.1316746053561E+01  0.8166558409704E+00
-0.9036919402436E-01 -0.2648117027775E+01 -0.1287088520981E+01  0.8435381999943E+00
-0.5377954293202E-01 -0.2633081383493E+01 -0.1262824632217E+01  0.8781653769388E+00
-0.3497220755774E-01 -0.2611256063647E+01 -0.1243727284312E+01  0.9197359545649E+00
-0.3329591031970E-01 -0.2582489473103E+01 -0.1229419127090E+01  0.9672910811930E+00
-0.4822886474032E-01 -0.2546191165637E+01 -0.1219377411185E+01  0.1019580776024E+01
-0.7938490484011E-01 -0.2501292751504E+01 -0.1212918495405E+01  0.1075157039487E+01
-0.1263617202250E+00 -0.2446313924494E+01 -0.1209157549951E+01  0.1132357117673E+01
-0.1884405124541E+00 -0.2379517998160E+01 -0.1206940496927E+01  0.1189238931099E+01
-0.2641556648004E+00 -0.2299099115288E+01 -0.1204729743586E+01  0.1243305821762E+01
-0.3505234690792E+00 -0.2203359746461E+01 -0.1200325108260E+01  0.1291026895825E+01
-0.1459379227608E+01 -0.2340143941622E+01 -0.1785775885009E+01  0.1192885051491E+01
-0.1251291466936E+01 -0.2398191986523E+01 -0.1715257218775E+01  0.1065265972813E+01
-0.1053615680726E+01 -0.2451196681785E+01 -0.1647261806202E+01  0.9702601164837E+00
-0.8702517709217E+00 -0.2497046143848E+01 -0.1582630015928E+01  0.9005652773399E+00
-0.7038327483009E+00 -0.2534507398172E+01 -0.1522019864982E+01  0.8511696388772E+00
-0.5559190044611E+00 -0.2563046625178E+01 -0.1465913842212E+01  0.8185933139129E+00
-0.4272701138180E+00 -0.2582605746633E+01 -0.1414641650824E+01  0.8003271242669E+00
-0.3181037777827E+00 -0.2593399181074E+01 -0.1368406387192E+01  0.7944795561712E+00
-0.2282933093370E+00 -0.2595771969460E+01 -0.1327310677668E+01  0.7995579588276E+00
-0.1574952594611E+00 -0.2590121268323E+01 -0.1291379764783E+01  0.8143400753351E+00
-0.1052314388754E+00 -0.2576840671422E+01 -0.1260573888643E+01  0.8377813376753E+00
-0.7096600786225E-01 -0.2556234518606E+01 -0.1234784244308E+01  0.8689340490393E+00
-0.5404059863882E-01 -0.2528459407359E+01 -0.1213774999740E+01  0.9069341102802E+00
-0.5370127847300E-01 -0.2493400271829E+01 -0.1197137725606E+01  0.9507253413842E+00
-0.6932340524824E-01 -0.2450480553067E+01 -0.1184307857404E+01  0.9988989093515E+00
-0.1004301476744E+00 -0.2398603808574E+01 -0.1174545956458E+01  0.1049851444719E+01
-0.1465203334671E+00 -0.2336225635979E+01 -0.1166890602680E+01  0.1101807785681E+01
-0.2067105085456E+00 -0.2261565563563E+01 -0.1160089750948E+01  0.1152815673162E+01
-0.2792250802043E+00 -0.2172910550712E+01 -0.1152503743607E+01  0.1200488269819E+01
-0.3603533137869E+00 -0.2068988423355E+01 -0.1141790613561E+01  0.1241525809854E+01
-0.1403322723935E+01 -0.2312837432949E+01 -0.1746595269305E+01  0.1221611979225E+01
-0.1211266789473E+01 -0.2364821819535E+01 -0.1680761641971E+01  0.1091797622188E+01
-0.1025665083678E+01 -0.2413172086988E+01 -0.1616253466114E+01  0.9936067301399E+00
-0.8515998793651E+00 -0.2455093052689E+01 -0.1554145674124E+01  0.9201085087338E+00
-0.6925463211064E+00 -0.2488893374351E+01 -0.1495276653072E+01  0.8666133311445E+00
-0.5506333576223E+00 -0.2513761466379E+01 -0.1440265563627E+01  0.8298817147256E+00
-0.4269915041278E+00 -0.2529482972004E+01 -0.1389543000258E+01  0.8075482772958E+00
-0.3220770599554E+00 -0.2536187309491E+01 -0.1343384250233E+01  0.7977815255319E+00
-0.2359158038197E+00 -0.2534174251807E+01 -0.1301942322842E+01  0.7990861378601E+00
-0.1682579261005E+00 -0.2523821329310E+01 -0.1265277246834E+01  0.8101981939266E+00
-0.1186743601010E+00 -0.2505520881688E+01 -0.1233371760513E+01  0.8300095210862E+00
-0.8665339156913E-01 -0.2479584363221E+01 -0.1206131741692E+01  0.8574972631631E+00
-0.7149034136923E-01 -0.2446203730525E+01 -0.1183316210789E+01  0.8917520227814E+00
-0.7231043053885E-01 -0.2405329261797E+01 -0.1164490652444E+01  0.9316329613936E+00
-0.8838099035341E-01 -0.2356433432027E+01 -0.1149062775604E+01  0.9755632054140E+00
-0.1191568608522E+00 -0.2298425533739E+01 -0.1136263722576E+01  0.1021767186036E+01
-0.1640839442146E+00 -0.2229697042775E+01 -0.1125077061032E+01  0.1068343490070E+01
-0.2221748610765E+00 -0.2148384351635E+01 -0.1114162827148E+01  0.1113355189931E+01
-0.2914065975324E+00 -0.2052823401717E+01 -0.1101788096853E+01  0.1154623687144E+01
-0.3672906286148E+00 -0.1942246783460E+01 -0.1085482580922E+01  0.1189287501140E+01
-0.1346583301731E+01 -0.2285829483576E+01 -0.1707234004764E+01  0.1247958747463E+01
-0.1170195158603E+01 -0.2331837910928E+01 -0.1645955538505E+01  0.1116658282752E+01
-0.9964098597202E+00 -0.2375553110422E+01 -0.1584822591947E+01  0.1015666721072E+01
-0.8314890591348E+00 -0.2413498116815E+01 -0.1525143968828E+01  0.9385181209219E+00
-0.6797340156313E+00 -0.2443540667840E+01 -0.1467939097508E+01  0.8809302755127E+00
-0.5438158972116E+00 -0.2464621642004E+01 -0.1413965639845E+01  0.8399688221475E+00
-0.4252075036841E+00 -0.2476403421614E+01 -0.1363757131431E+01  0.8134520049591E+00
-0.3245770746660E+00 -0.2478956098863E+01 -0.1317660588217E+01  0.7996297072005E+00
-0.2420831359497E+00 -0.2472553073740E+01 -0.1275879015318E+01  0.7970144579555E+00
-0.1775568350934E+00 -0.2457566858615E+01 -0.1238508132901E+01  0.8043064301095E+00
-0.1306121816994E+00 -0.2434400863211E+01 -0.1205556128050E+01  0.8203373799106E+00
-0.1007677612270E+00 -0.2403379280099E+01 -0.1176949106438E+01  0.8440115398934E+00
-0.8726884702816E-01 -0.2364739963349E+01 -0.1152444137954E+01  0.8743962627636E+00
-0.8908910945900E-01 -0.2318518127748E+01 -0.1131575398617E+01  0.9102875427407E+00
-0.1053775968673E+00 -0.2264279498866E+01 -0.1113738832170E+01  0.9499351745979E+00
-0.1355388542934E+00 -0.2200990038338E+01 -0.1098168576752E+01  0.9913693442797E+00
-0.1790443354356E+00 -0.2127009184534E+01 -0.1083845151637E+01  0.1032522655123E+01
-0.2348863923110E+00 -0.2040307018057E+01 -0.1069340900161E+01  0.1071471276753E+01
-0.3008986873736E+00 -0.1939133387850E+01 -0.1052815072685E+01  0.1106348051376E+01
-0.3717300025929E+00 -0.1823217433614E+01 -0.1031625292400E+01  0.1135016561257E+01
-0.1289433434286E+01 -0.2259311241124E+01 -0.1667909993212E+01  0.1271949832351E+01
-0.1128229737502E+01 -0.2299479455994E+01 -0.1611023316857E+01  0.1139864607383E+01
-0.9659060368800E+00 -0.2338614418199E+01 -0.1553124609948E+01  0.1036442077994E+01
-0.8099071403972E+00 -0.2372548425705E+01 -0.1495754112274E+01  0.9557788289543E+00
-0.6653397254311E+00 -0.2398725195906E+01 -0.1440110509376E+01  0.8940946877221E+00
-0.5353890931996E+00 -0.2415885002683E+01 -0.1387098821546E+01  0.8488306809760E+00
-0.4218327660791E+00 -0.2423607864577E+01 -0.1337357093016E+01  0.8180276178105E+00
-0.3255189596110E+00 -0.2421934304661E+01 -0.1291303030933E+01  0.8000352998466E+00
-0.2467139003398E+00 -0.2411128103067E+01 -0.1249185738433E+01  0.7933827204599E+00
-0.1853155941347E+00 -0.2391571694457E+01 -0.1211137022566E+01  0.7967393957470E+00
-0.1409746509327E+00 -0.2363692730351E+01 -0.1177193666217E+01  0.8088794070939E+00
-0.1132534916445E+00 -0.2327832453045E+01 -0.1147310391094E+01  0.8286324600125E+00
-0.1013471998108E+00 -0.2284278782016E+01 -0.1121244208615E+01  0.8550680390845E+00
-0.1040489497468E+00 -0.2233167707201E+01 -0.1098491825979E+01  0.8869481421660E+00
-0.1203328329045E+00 -0.2174160739532E+01 -0.1078411976310E+01  0.9223595141937E+00
-0.1495906068009E+00 -0.2106401468813E+01 -0.1060316272849E+01  0.9591220951321E+00
-0.1913885297517E+00 -0.2028281680684E+01 -0.1043244996259E+01  0.9949294562540E+00
-0.2449006863550E+00 -0.1937590762263E+01 -0.1025770978249E+01  0.1027795454833E+01
-0.3079162875469E+00 -0.1832117487787E+01 -0.1005815871856E+01  0.1056238601522E+01
-0.3741457298087E+00 -0.1711944575304E+01 -0.9804624409160E+00  0.1079258637282E+01
-0.1232137990264E+01 -0.2233463693951E+01 -0.1628832787450E+01  0.1293622044733E+01
-0.1085520933848E+01 -0.2267981113987E+01 -0.1576145958484E+01  0.1161449600389E+01
-0.9342151148411E+00 -0.2302648055654E+01 -0.1521325686274E+01  0.1055943843450E+01
-0.7868399776887E+00 -0.2332540189712E+01 -0.1466108674960E+01  0.9718728071482E+00
-0.6493085574989E+00 -0.2354723709371E+01 -0.1411895161848E+01  0.9060716887028E+00
-0.5252761872785E+00 -0.2367796675148E+01 -0.1359744241892E+01  0.8564337387175E+00
-0.4167894071063E+00 -0.2371323305934E+01 -0.1310412971805E+01  0.8212568866467E+00
-0.3248281474474E+00 -0.2365333934615E+01 -0.1264376175363E+01  0.7990031316438E+00
-0.2497402179560E+00 -0.2350098673887E+01 -0.1221924276067E+01  0.7882250636443E+00
-0.1914731151340E+00 -0.2326022969191E+01 -0.1183223156632E+01  0.7875671141879E+00
-0.1497068494556E+00 -0.2293575167498E+01 -0.1148342545056E+01  0.7957474240034E+00
-0.1240690905634E+00 -0.2253117952504E+01 -0.1117277907408E+01  0.8115133120729E+00
-0.1137166210685E+00 -0.2204994117656E+01 -0.1089794044436E+01  0.8339623765792E+00
-0.1172240639626E+00 -0.2149437686557E+01 -0.1065331020042E+01  0.8618555732827E+00
-0.1333711716219E+00 -0.2086213484977E+01 -0.1043204785956E+01  0.8931336724955E+00
-0.1613399097462E+00 -0.2014562167900E+01 -0.1022673973900E+01  0.9254577886244E+00
-0.2011259016598E+00 -0.1933433844214E+01 -0.1003243078016E+01  0.9561810088715E+00
-0.2521592460411E+00 -0.1840299218223E+01 -0.9834554757097E+00  0.9830386868932E+00
-0.3127173171430E+00 -0.1732219773825E+01 -0.9611204303171E+00  0.1004858872949E+01
-0.3751253839887E+00 -0.1608604994599E+01 -0.9323532755715E+00  0.1022371914751E+01
-0.1174917228176E+01 -0.2208407399182E+01 -0.1590162570825E+01  0.1313030085374E+01
-0.1042235339721E+01 -0.2237594640373E+01 -0.1541520086734E+01  0.1181474824201E+01
-0.9013892694535E+00 -0.2267962509111E+01 -0.1489595332147E+01  0.1074197063792E+01
-0.7622876182133E+00 -0.2293809783204E+01 -0.1436365775023E+01  0.9867747336298E+00
-0.6315698623601E+00 -0.2311793524519E+01 -0.1383380788324E+01  0.9168100927718E+00
-0.5134062199120E+00 -0.2320588783597E+01 -0.1331977648271E+01  0.8627332808632E+00
-0.4100057839265E+00 -0.2319758981159E+01 -0.1282989436336E+01  0.8231130937720E+00
-0.3224418112741E+00 -0.2309351215793E+01 -0.1236942719584E+01  0.7965303447940E+00
-0.2511078854186E+00 -0.2289644020482E+01 -0.1194153392745E+01  0.7815673309651E+00
-0.1959851297317E+00 -0.2261081551960E+01 -0.1154821337466E+01  0.7768513395150E+00
-0.1567696900737E+00 -0.2224190930307E+01 -0.1119051488741E+01  0.7810470276501E+00
-0.1331860768004E+00 -0.2179365906080E+01 -0.1086899429197E+01  0.7928036951439E+00
-0.1243753153570E+00 -0.2127013695266E+01 -0.1058152832309E+01  0.8112709613615E+00
-0.1286725315551E+00 -0.2067469218208E+01 -0.1032186619771E+01  0.8352375892288E+00
-0.1446055970115E+00 -0.2000528607299E+01 -0.1008213073469E+01  0.8625075491633E+00
-0.1712071535078E+00 -0.1925585190425E+01 -0.9854923991490E+00  0.8906618074107E+00
-0.2079231334243E+00 -0.1841555156266E+01 -0.9632547937115E+00  0.9169007437060E+00
-0.2566589513914E+00 -0.1748387727324E+01 -0.9423719366061E+00  0.9381285585937E+00
-0.3152765683974E+00 -0.1639913728471E+01 -0.9189394371972E+00  0.9529163405630E+00
-0.3757400221794E+00 -0.1514239520678E+01 -0.8882903828900E+00  0.9644904549095E+00
-0.1117994533994E+01 -0.2184219381130E+01 -0.1552040536172E+01  0.1330241831819E+01
-0.9984147289082E+00 -0.2208424217050E+01 -0.1507214300778E+01  0.1200073342782E+01
-0.8676401208441E+00 -0.2235132272178E+01 -0.1458303021022E+01  0.1091251016472E+01
-0.7361571599172E+00 -0.2256630343836E+01 -0.1406610123196E+01  0.1000423157140E+01
-0.6120626648992E+00 -0.2270184168276E+01 -0.1354656008156E+01  0.9262405058843E+00
-0.4997090667198E+00 -0.2274470045600E+01 -0.1303864179483E+01  0.8676726374856E+00
-0.4014217959866E+00 -0.2269108784384E+01 -0.1255149369591E+01  0.8235605628853E+00
-0.3183018560590E+00 -0.2254159132016E+01 -0.1209056661329E+01  0.7926066520716E+00
-0.2507829979114E+00 -0.2229934545725E+01 -0.1165937242552E+01  0.7734249701304E+00
-0.1988231944332E+00 -0.2196881351121E+01 -0.1125981133555E+01  0.7646401078190E+00
-0.1621397483318E+00 -0.2155642945589E+01 -0.1089357863380E+01  0.7648733086433E+00
-0.1405937712317E+00 -0.2106661002498E+01 -0.1056209740974E+01  0.7726461634296E+00
-0.1333251862511E+00 -0.2050405943441E+01 -0.1026353628352E+01  0.7871856346861E+00
-0.1384313575844E+00 -0.1987355371132E+01 -0.9991197599627E+00  0.8073250370085E+00
-0.1542009691973E+00 -0.1917264299872E+01 -0.9735886739931E+00  0.8307077841071E+00
-0.1793480501781E+00 -0.1839424542340E+01 -0.9488231160769E+00  0.8548993452049E+00
-0.2134332069992E+00 -0.1753208393663E+01 -0.9243215499669E+00  0.8771830123463E+00
-0.2552917688772E+00 -0.1657199306760E+01 -0.8988708032698E+00  0.8944912419768E+00
-0.3169817018786E+00 -0.1558120079322E+01 -0.8812978349288E+00  0.9019887119895E+00
-0.3771762734359E+00 -0.1431453344971E+01 -0.8500559184954E+00  0.9052579721629E+00
-0.1059793939256E+01 -0.2158813670664E+01 -0.1512745572826E+01  0.1345650060568E+01
-0.9553308057767E+00 -0.2182195415850E+01 -0.1474637320424E+01  0.1217672677294E+01
-0.8326608475128E+00 -0.2204403480491E+01 -0.1427420230542E+01  0.1107047872006E+01
-0.7084146703448E+00 -0.2221316476612E+01 -0.1376973635577E+01  0.1012717923285E+01
-0.5906987293267E+00 -0.2230085562099E+01 -0.1325768613607E+01  0.9342739230322E+00
-0.4841316454647E+00 -0.2229636149343E+01 -0.1275470860324E+01  0.8711864821012E+00
-0.3909873770507E+00 -0.2219550476348E+01 -0.1226952787985E+01  0.8225537463665E+00
-0.3123652495539E+00 -0.2199913057627E+01 -0.1180770801380E+01  0.7872119829017E+00
-0.2487095591559E+00 -0.2171091624623E+01 -0.1137306553491E+01  0.7638102265485E+00
-0.2000342126041E+00 -0.2133612841625E+01 -0.1096814112706E+01  0.7509582549590E+00
-0.1657858864398E+00 -0.2087951201817E+01 -0.1059256428794E+01  0.7472940359312E+00
-0.1462650953592E+00 -0.2034991427251E+01 -0.1025190563027E+01  0.7511848300666E+00
-0.1406547098147E+00 -0.1975268250385E+01 -0.9944837887714E+00  0.7618907209143E+00
-0.1464675712725E+00 -0.1909045738323E+01 -0.9660912530596E+00  0.7783624927217E+00
-0.1622022213705E+00 -0.1836523009482E+01 -0.9394008561178E+00  0.7979951490462E+00
-0.1861794210960E+00 -0.1756471694875E+01 -0.9130460221907E+00  0.8183123997970E+00
-0.2173769051803E+00 -0.1667797655112E+01 -0.8860320410901E+00  0.8368013258762E+00
-0.2562375575536E+00 -0.1571100876549E+01 -0.8588490618499E+00  0.8512698270757E+00
-0.2968270335609E+00 -0.1461666233281E+01 -0.8264918333193E+00  0.8577806549080E+00
-0.3982700718442E+00 -0.1390062013612E+01 -0.8405160780327E+00  0.8471862159176E+00
-0.2928144874983E+01 -0.5121254640678E+01 -0.3783217762765E+01 -0.4689886369790E+00
 0.1197784651593E+00 -0.7182285312589E+00 -0.2812715303534E+00  0.3908064165000E+00
 0.3337531340724E-01 -0.1585074461800E+00 -0.5881210225403E-01  0.1668266283949E+00
 0.7771163897349E-01  0.4799325567053E-01  0.5908130033284E-01  0.2914403192185E-01
 0.6816274946414E-01  0.1355655440284E+00  0.9575229769864E-01 -0.3702037471909E-01
 0.5319198570150E-01  0.1871441841400E+00  0.1129579995390E+00 -0.6718607027566E-01
 0.3935572672694E-01  0.2290959540113E+00  0.1261722896269E+00 -0.7707577532480E-01
 0.2787918503146E-01  0.2674383883860E+00  0.1387992591542E+00 -0.7437951112909E-01
 0.1682964838602E-01  0.3001192228165E+00  0.1489659690874E+00 -0.6343261317751E-01
 0.7897713431366E-02  0.3268472565852E+00  0.1573301355087E+00 -0.4444427443451E-01
 0.5898737274659E-02  0.3475167563198E+00  0.1661052815681E+00 -0.1807528827407E-01
 0.1573667344955E-02  0.3468841179582E+00  0.1637751586771E+00  0.1332232832450E-01
 0.1252594577318E-01  0.3311833871194E+00  0.1615433860498E+00  0.6098658394459E-01
 0.4583741395134E-01  0.3072162389189E+00  0.1659352164282E+00  0.1166750500343E+00
 0.9970834186451E-01  0.2821577627502E+00  0.1794770687137E+00  0.1643096119333E+00
 0.1675178019083E+00  0.2575107761693E+00  0.1997634311898E+00  0.2009747633875E+00
 0.2384598180665E+00  0.2374657256670E+00  0.2236850049874E+00  0.2254024597806E+00
 0.3047020436659E+00  0.2204823867848E+00  0.2468366816858E+00  0.2365130463765E+00
 0.3644082339810E+00  0.2057148684642E+00  0.2679578574696E+00  0.2289102524186E+00
 0.3353335374972E+00  0.3344834566824E-01  0.1733274846481E+00  0.2269178431265E+00
-0.1244665510004E+01 -0.3540531924508E+01 -0.2249042788516E+01 -0.7671782326595E+00
-0.4263981172630E+00 -0.2042464290749E+01 -0.1160365328822E+01  0.9693967817556E-01
 0.4647942370972E-01 -0.6181218812460E+00 -0.2686719543606E+00  0.2040082119925E+00
 0.5794817295617E-01 -0.2410407945527E+00 -0.8605353193210E-01  0.1064824857949E+00
 0.6012361467737E-01 -0.7563587862080E-01 -0.7290764034920E-02  0.3101431063526E-01
 0.4598143449627E-01  0.9119136049981E-02  0.2589726809105E-01 -0.1433439621222E-01
 0.3307174255383E-01  0.6680650827644E-01  0.4694277777116E-01 -0.3859644070218E-01
 0.2106319175540E-01  0.1124454077542E+00  0.6274904161037E-01 -0.4822909454300E-01
 0.9468472304392E-02  0.1508831101358E+00  0.7536524355574E-01 -0.4781221760809E-01
-0.5889004860606E-03  0.1835579410788E+00  0.8599544886046E-01 -0.3849867779866E-01
-0.1005476632976E-01  0.2070782494633E+00  0.9260103683788E-01 -0.1991789450690E-01
-0.1667619361560E-01  0.2237233160684E+00  0.9731214730602E-01  0.5367951363651E-02
-0.1136149631725E-01  0.2298372334062E+00  0.1026835961714E+00  0.4250058529931E-01
 0.9697389828770E-02  0.2198933593960E+00  0.1079076518620E+00  0.8455989966122E-01
 0.4513134859438E-01  0.1997372029316E+00  0.1150882189253E+00  0.1178618289030E+00
 0.9096747148179E-01  0.1756386274463E+00  0.1253048661784E+00  0.1389004752780E+00
 0.1356813869330E+00  0.1509233172165E+00  0.1347042106086E+00  0.1453880423432E+00
 0.1720894438302E+00  0.1246396661593E+00  0.1394626813413E+00  0.1343037555373E+00
 0.1785761665791E+00  0.6704057078268E-01  0.1154398662672E+00  0.9894732526608E-01
 0.1256065134616E+00 -0.8994598209758E-01  0.1676044969859E-01  0.5554846648371E-01
-0.8596164711719E+00 -0.3000392604317E+01 -0.1814204260878E+01 -0.8737713976188E+00
-0.3273097680035E+00 -0.2196093491832E+01 -0.1185999529115E+01 -0.1581763929413E+00
-0.7715658007243E-01 -0.1206463251376E+01 -0.6033013192503E+00  0.1149740648284E+00
 0.4849556379217E-01 -0.5814110277164E+00 -0.2504702674091E+00  0.1331421505701E+00
 0.5502036164849E-01 -0.3249353606495E+00 -0.1268600492087E+00  0.7957842040293E-01
 0.4603557935644E-01 -0.1927409571987E+00 -0.6895152741099E-01  0.3095507318664E-01
 0.3291360330255E-01 -0.1127342038855E+00 -0.3751568217883E-01 -0.2907859166133E-02
 0.2022231296806E-01 -0.5525972831014E-01 -0.1646758516901E-01 -0.2326783931427E-01
 0.7479587426146E-02 -0.9401194662971E-02 -0.9031553990171E-03 -0.3318161505511E-01
-0.5457056605829E-02  0.2897008192250E-01  0.1105112187081E-01 -0.3375818728634E-01
-0.1858377692037E-01  0.6022786930469E-01  0.1957272337099E-01 -0.2500432322656E-01
-0.2985393528844E-01  0.8806223761855E-01  0.2735790202576E-01 -0.9257293842718E-02
-0.3141670637027E-01  0.1086044961795E+00  0.3627826111834E-01  0.1605792818358E-01
-0.2135918697453E-01  0.1100174854528E+00  0.4166940017909E-01  0.4420265682737E-01
-0.2067302925838E-02  0.9468806966478E-01  0.4353176025689E-01  0.6258835577466E-01
 0.2308766056437E-01  0.6943159574607E-01  0.4348405035561E-01  0.6697260223332E-01
 0.4448369758475E-01  0.3728121203709E-01  0.3842950742479E-01  0.5423673922774E-01
 0.5110942234147E-01 -0.9673689534303E-02  0.1947479436997E-01  0.2043006028226E-01
 0.2900380493086E-01 -0.9463208072328E-01 -0.3084528954420E-01 -0.4197818176174E-01
-0.7191292601827E-01 -0.3191919222975E+00 -0.1838192782422E+00 -0.1305075518798E+00
-0.7229622073806E+00 -0.2702290654841E+01 -0.1609868841161E+01 -0.9224391917106E+00
-0.2985076149643E+00 -0.2230592173204E+01 -0.1188676897424E+01 -0.3351338022064E+00
-0.9705691284138E-01 -0.1522592680219E+01 -0.7612353068078E+00 -0.7801882159699E-02
 0.1282678492278E-01 -0.9435334469466E+00 -0.4374321300417E+00  0.1013210927854E+00
 0.5114280631588E-01 -0.5989196826753E+00 -0.2574551312359E+00  0.9744962906521E-01
 0.4879816069196E-01 -0.4171863516306E+00 -0.1731424493020E+00  0.6166401556439E-01
 0.3787352494998E-01 -0.3089643443957E+00 -0.1274126848163E+00  0.2603366263781E-01
 0.2473552168494E-01 -0.2362838334302E+00 -0.9942770626810E-01 -0.1536646595650E-02
 0.1070386508563E-01 -0.1812491249398E+00 -0.8015627192816E-01 -0.2041130641683E-01
-0.4528794840317E-02 -0.1359425419770E+00 -0.6602152813669E-01 -0.3082029150361E-01
-0.2099733433919E-01 -0.9764003202241E-01 -0.5575956204853E-01 -0.3276157411950E-01
-0.3656257295293E-01 -0.6104782238907E-01 -0.4587688569438E-01 -0.2805971497489E-01
-0.4538278646384E-01 -0.3074103802071E-01 -0.3577819741699E-01 -0.1576147058338E-01
-0.4573307248600E-01 -0.2138399088414E-01 -0.3154501970396E-01 -0.2369442058115E-02
-0.4065633456830E-01 -0.3395951587030E-01 -0.3506944961719E-01  0.4638062091146E-03
-0.3335607859740E-01 -0.6260787391156E-01 -0.4510305756481E-01 -0.1222891806347E-01
-0.3257710409400E-01 -0.1069351770288E+00 -0.6557077196140E-01 -0.4406006832732E-01
-0.4764936327572E-01 -0.1762089879309E+00 -0.1052134248003E+00 -0.9947107360172E-01
-0.9534133090176E-01 -0.3049539783669E+00 -0.1881387948791E+00 -0.1861742722487E+00
-0.2132492211704E+00 -0.5935484056909E+00 -0.3791948836630E+00 -0.3043482215357E+00
-0.6888436576304E+00 -0.2523529245426E+01 -0.1509815260607E+01 -0.9426018367546E+00
-0.3114550925080E+00 -0.2229324788299E+01 -0.1194166540950E+01 -0.4570671021608E+00
-0.1169603173779E+00 -0.1719028121647E+01 -0.8629145641532E+00 -0.1225946074438E+00
-0.9159945081848E-02 -0.1228259334610E+01 -0.5815870599802E+00  0.4006694892968E-01
 0.3936780954825E-01 -0.8753721565282E+00 -0.3929220420840E+00  0.8411314462318E-01
 0.5111657602574E-01 -0.6546158495671E+00 -0.2836446578450E+00  0.7317502481243E-01
 0.4509987344015E-01 -0.5192238545847E+00 -0.2228382705727E+00  0.4451293702740E-01
 0.3334212827341E-01 -0.4296256042905E+00 -0.1862532332556E+00  0.1471977704984E-01
 0.1889427359068E-01 -0.3642017092629E+00 -0.1622944943543E+00 -0.1065493070733E-01
 0.2082338216864E-02 -0.3116761885326E+00 -0.1455091092794E+00 -0.2992344899764E-01
-0.1698659067460E-01 -0.2671725219960E+00 -0.1335547826164E+00 -0.4248924216047E-01
-0.3634933900052E-01 -0.2242529029725E+00 -0.1224830534167E+00 -0.4939031118418E-01
-0.5186400154422E-01 -0.1876009672491E+00 -0.1125485350474E+00 -0.5074708977997E-01
-0.6178214831256E-01 -0.1736603567963E+00 -0.1106579771205E+00 -0.5269281019154E-01
-0.6886784536439E-01 -0.1862164248690E+00 -0.1198896067056E+00 -0.6568390025549E-01
-0.7637737640902E-01 -0.2212820241248E+00 -0.1398999178960E+00 -0.9508592439380E-01
-0.9152351672775E-01 -0.2806680320387E+00 -0.1749300274765E+00 -0.1446784911389E+00
-0.1230890948386E+00 -0.3774219416033E+00 -0.2352401865310E+00 -0.2186531335924E+00
-0.1852684645875E+00 -0.5504004724441E+00 -0.3457643995279E+00 -0.3225929281331E+00
-0.3028883392070E+00 -0.8907820858393E+00 -0.5610250983488E+00 -0.4548816188959E+00
-0.7012915622697E+00 -0.2411638788909E+01 -0.1463077261343E+01 -0.9471041492129E+00
-0.3518841829261E+00 -0.2222856676779E+01 -0.1210128200992E+01 -0.5396846088249E+00
-0.1484956411108E+00 -0.1850240656456E+01 -0.9394060574736E+00 -0.2190120457454E+00
-0.3289559625088E-01 -0.1450173937670E+01 -0.6970426791748E+00 -0.2934382634029E-01
 0.2595141753923E-01 -0.1123556110620E+01 -0.5158742044394E+00  0.5077387325127E-01
 0.4945109817529E-01 -0.8919940423309E+00 -0.3959951827487E+00  0.6631946647450E-01
 0.5204290830405E-01 -0.7371631932692E+00 -0.3220065331169E+00  0.5074472136345E-01
 0.4413246226405E-01 -0.6325862253587E+00 -0.2765732679530E+00  0.2376022546259E-01
 0.3100634247757E-01 -0.5570303521264E+00 -0.2472312839079E+00 -0.4919965372339E-02
 0.1388029964001E-01 -0.4977168812563E+00 -0.2274031927829E+00 -0.3125495602395E-01
-0.6740275201892E-02 -0.4482302138753E+00 -0.2138361293239E+00 -0.5355257131450E-01
-0.2893239985119E-01 -0.4012192068845E+00 -0.2021712546530E+00 -0.7180755271013E-01
-0.5011657951643E-01 -0.3613086659159E+00 -0.1933698648627E+00 -0.8681856607899E-01
-0.6826459526267E-01 -0.3459287927726E+00 -0.1946708918828E+00 -0.1040987715802E+00
-0.8527549736856E-01 -0.3613439437616E+00 -0.2099111367988E+00 -0.1325239042115E+00
-0.1041361068212E+00 -0.4054497476716E+00 -0.2395053510041E+00 -0.1774166651390E+00
-0.1308215533830E+00 -0.4824486948673E+00 -0.2882370159465E+00 -0.2422472991004E+00
-0.1727397050160E+00 -0.6073947108992E+00 -0.3666631745502E+00 -0.3301281474182E+00
-0.2406522096265E+00 -0.8189808531069E+00 -0.4980275382215E+00 -0.4436250184197E+00
-0.3492997116354E+00 -0.1195935265842E+01 -0.7262604375724E+00 -0.5777754564946E+00
-0.7380267234217E+00 -0.2342167061750E+01 -0.1447691075359E+01 -0.9420531362228E+00
-0.4077971314663E+00 -0.2219654019376E+01 -0.1234902037764E+01 -0.5939183672596E+00
-0.1925495966724E+00 -0.1945942623059E+01 -0.1005091340725E+01 -0.2954235580792E+00
-0.6321859365640E-01 -0.1625724420748E+01 -0.7938032147568E+00 -0.9588904808882E-01
 0.8313759332703E-02 -0.1339599806277E+01 -0.6257044404768E+00  0.8111378324210E-02
 0.4403830566119E-01 -0.1116646980034E+01 -0.5041260756766E+00  0.4633563676006E-01
 0.5663874381105E-01 -0.9551638596047E+00 -0.4223068033519E+00  0.4569141334093E-01
 0.5523918723499E-01 -0.8408406221843E+00 -0.3692326734897E+00  0.2511786969085E-01
 0.4559741393410E-01 -0.7574047235181E+00 -0.3345494346559E+00 -0.3718502828138E-02
 0.2990561722377E-01 -0.6927006642051E+00 -0.3115136712911E+00 -0.3484233882474E-01
 0.9189987758584E-02 -0.6398219038799E+00 -0.2963969998252E+00 -0.6532649992376E-01
-0.1448571280594E-01 -0.5909586511230E+00 -0.2845588503249E+00 -0.9397398392675E-01
-0.3988603687639E-01 -0.5506312276953E+00 -0.2775431136447E+00 -0.1219460935336E+00
-0.6453964099225E-01 -0.5367226462045E+00 -0.2825932742657E+00 -0.1538438100028E+00
-0.8899717215602E-01 -0.5575215005293E+00 -0.3038637753914E+00 -0.1965640493134E+00
-0.1158373601744E+00 -0.6126664160585E+00 -0.3423967739610E+00 -0.2549190627698E+00
-0.1498094820416E+00 -0.7079337976794E+00 -0.4031393404464E+00 -0.3316417993451E+00
-0.1968859587305E+00 -0.8585972204275E+00 -0.4960770929460E+00 -0.4283861569724E+00
-0.2647259431324E+00 -0.1100223173758E+01 -0.6415260833115E+00 -0.5447028252090E+00
-0.3615718570022E+00 -0.1499048363396E+01 -0.8744915013693E+00 -0.6722937230980E+00
-0.7882789756163E+00 -0.2301249059840E+01 -0.1452078172982E+01 -0.9306435560376E+00
-0.4721864056345E+00 -0.2222495837480E+01 -0.1266500651052E+01 -0.6272532643578E+00
-0.2461311774331E+00 -0.2021635061586E+01 -0.1065850129635E+01 -0.3532302737774E+00
-0.1012559278430E+00 -0.1768815774847E+01 -0.8789336980350E+00 -0.1542747658039E+00
-0.1491405337262E-01 -0.1526608695574E+01 -0.7245156901671E+00 -0.3636828672852E-01
 0.3412337729912E-01 -0.1323749567048E+01 -0.6061243076448E+00  0.1903622453272E-01
 0.5805696642747E-01 -0.1166564798086E+01 -0.5209986795580E+00  0.3229768247147E-01
 0.6515046695320E-01 -0.1049586209902E+01 -0.4626847980122E+00  0.1976657292206E-01
 0.6120306098049E-01 -0.9621416443916E+00 -0.4234411331292E+00 -0.6789172016367E-02
 0.4893721324090E-01 -0.8944627458574E+00 -0.3973969993218E+00 -0.4038819071249E-01
 0.2989348281144E-01 -0.8402312945238E+00 -0.3808587705388E+00 -0.7711237394187E-01
 0.6389030504864E-02 -0.7918043199508E+00 -0.3691451851033E+00 -0.1146148204576E+00
-0.2144844051205E-01 -0.7536864465065E+00 -0.3643133959747E+00 -0.1541925424202E+00
-0.5058242838221E-01 -0.7437874756139E+00 -0.3733538539312E+00 -0.1992763170705E+00
-0.7994016086934E-01 -0.7719171674973E+00 -0.4003729433168E+00 -0.2544643329650E+00
-0.1115941420880E+00 -0.8390067771725E+00 -0.4467824309192E+00 -0.3236744731303E+00
-0.1492271832729E+00 -0.9514362657661E+00 -0.5173118197363E+00 -0.4086693565998E+00
-0.1976371168900E+00 -0.1123293825536E+01 -0.6208375413655E+00 -0.5096347146165E+00
-0.2622810822780E+00 -0.1385624378240E+01 -0.7745155644792E+00 -0.6235930792849E+00
-0.3477189717269E+00 -0.1793134266909E+01 -0.1006201019607E+01 -0.7395953634200E+00
-0.8464401760251E+00 -0.2280327317549E+01 -0.1469580718253E+01 -0.9146012547346E+00
-0.5408864164576E+00 -0.2231883743095E+01 -0.1303201971684E+01 -0.6449055614516E+00
-0.3061382665053E+00 -0.2086007466834E+01 -0.1124308491818E+01 -0.3946766027224E+00
-0.1461051804630E+00 -0.1889312313602E+01 -0.9566462197840E+00 -0.2023232800459E+00
-0.4404465950877E-01 -0.1689688020243E+01 -0.8148543574167E+00 -0.7791693876034E-01
 0.1930332909984E-01 -0.1512603235668E+01 -0.7018509543068E+00 -0.1071814628593E-01
 0.5569885719717E-01 -0.1367577613369E+01 -0.6165830138368E+00  0.1406066582459E-01
 0.7288884706918E-01 -0.1254612800736E+01 -0.5554102568147E+00  0.9677335691610E-02
 0.7654974317729E-01 -0.1167802790155E+01 -0.5128889307785E+00 -0.1311163825621E-01
 0.6969281763388E-01 -0.1100288357135E+01 -0.4843799023369E+00 -0.4718274813810E-01
 0.5421666415027E-01 -0.1047134986885E+01 -0.4666716105018E+00 -0.8807366742202E-01
 0.3271325556015E-01 -0.1001472809709E+01 -0.4553169892952E+00 -0.1325055775400E+00
 0.4429466300055E-02 -0.9679344647401E+00 -0.4528473481182E+00 -0.1817833568562E+00
-0.2699444159092E-01 -0.9641161878160E+00 -0.4658219946398E+00 -0.2380083645010E+00
-0.5876562062306E-01 -0.1000781497690E+01 -0.4979871443439E+00 -0.3033180814570E+00
-0.9245545360554E-01 -0.1079621824474E+01 -0.5508763193003E+00 -0.3804978758135E+00
-0.1309262405020E+00 -0.1206773918291E+01 -0.6287190730382E+00 -0.4702966279786E+00
-0.1782114599051E+00 -0.1394324921553E+01 -0.7390920974109E+00 -0.5716538625899E+00
-0.2384517041274E+00 -0.1668355379595E+01 -0.8961993270764E+00 -0.6797316782379E+00
-0.3144677799199E+00 -0.2073356315660E+01 -0.1122277322076E+01 -0.7818372772977E+00
-0.9093734333484E+00 -0.2273748958325E+01 -0.1496067520292E+01 -0.8948720704315E+00
-0.6114667515425E+00 -0.2247444033814E+01 -0.1343688065710E+01 -0.6505594183789E+00
-0.3700447270972E+00 -0.2144038599478E+01 -0.1181619160493E+01 -0.4220764499366E+00
-0.1962572002295E+00 -0.1994026837348E+01 -0.1029433495050E+01 -0.2394854448763E+00
-0.7858618521343E-01 -0.1833697266236E+01 -0.8987732199017E+00 -0.1137568590180E+00
-0.4237191741350E-03 -0.1684488173632E+01 -0.7919085876103E+00 -0.3932377830038E-01
 0.4926382137225E-01 -0.1556564097510E+01 -0.7084311279879E+00 -0.5784832914688E-02
 0.7778370036998E-01 -0.1452946876411E+01 -0.6463266910999E+00 -0.2813721438206E-02
 0.9063213716141E-01 -0.1371227461597E+01 -0.6018798009580E+00 -0.2116225799663E-01
 0.9095983870370E-01 -0.1307260706537E+01 -0.5716614064315E+00 -0.5415890970694E-01
 0.8088988404819E-01 -0.1257799792467E+01 -0.5531476555540E+00 -0.9723266697454E-01
 0.6323444861724E-01 -0.1217181704820E+01 -0.5423552090395E+00 -0.1464832095812E+00
 0.3656542733899E-01 -0.1190278015122E+01 -0.5422449148828E+00 -0.2031755222846E+00
 0.5073019280474E-02 -0.1194081108475E+01 -0.5588338005040E+00 -0.2680553203556E+00
-0.2681135268057E-01 -0.1239740584222E+01 -0.5952794088341E+00 -0.3408358530630E+00
-0.6023722652524E-01 -0.1329223709317E+01 -0.6530466381894E+00 -0.4230878810113E+00
-0.9752260805501E-01 -0.1467846716117E+01 -0.7357235804949E+00 -0.5146435492415E+00
-0.1423194402121E+00 -0.1665367361688E+01 -0.8496127947380E+00 -0.6135246293256E+00
-0.1981500639416E+00 -0.1943026094668E+01 -0.1006352791994E+01 -0.7137131527979E+00
-0.2673048710027E+00 -0.2336473322103E+01 -0.1223775747656E+01 -0.8016554507328E+00
-0.9752209499681E+00 -0.2277597437780E+01 -0.1528824638364E+01 -0.8719699883349E+00
-0.6825166503928E+00 -0.2268448335241E+01 -0.1386953539730E+01 -0.6468477743781E+00
-0.4359928360154E+00 -0.2198609669900E+01 -0.1238263174640E+01 -0.4375368964180E+00
-0.2501728832384E+00 -0.2087590299465E+01 -0.1098748693084E+01 -0.2660433848736E+00
-0.1176742706985E+00 -0.1962660288973E+01 -0.9777572405656E+00 -0.1424151034546E+00
-0.2472167875088E-01 -0.1841339707228E+01 -0.8770488491856E+00 -0.6430388868555E-01
 0.3869946628071E-01 -0.1733213811553E+01 -0.7964217402580E+00 -0.2459129883620E-01
 0.7940938347803E-01 -0.1642732406435E+01 -0.7347618189261E+00 -0.1544828068439E-01
 0.1026627188576E+00 -0.1569829093156E+01 -0.6895681941713E+00 -0.2923436277195E-01
 0.1116534994170E+00 -0.1512559946712E+01 -0.6584260285589E+00 -0.6004842602020E-01
 0.1086264114691E+00 -0.1469312738597E+01 -0.6395225721278E+00 -0.1035340336679E+00
 0.9653788254655E-01 -0.1435824002676E+01 -0.6294644748644E+00 -0.1554827039970E+00
 0.7347133459906E-01 -0.1417226783149E+01 -0.6315650592167E+00 -0.2171147683583E+00
 0.4403007289499E-01 -0.1429647928807E+01 -0.6512403906267E+00 -0.2879232119932E+00
 0.1405216728356E-01 -0.1484102781361E+01 -0.6909237868638E+00 -0.3654290410807E+00
-0.1730508667076E-01 -0.1582473279196E+01 -0.7518958300501E+00 -0.4500437699220E+00
-0.5205771948746E-01 -0.1728959558974E+01 -0.8370781187537E+00 -0.5408645100280E+00
-0.9375924562299E-01 -0.1931016283030E+01 -0.9516444960532E+00 -0.6353478858291E+00
-0.1457953276344E+00 -0.2205472284999E+01 -0.1105095775135E+01 -0.7269052346632E+00
-0.2106270869589E+00 -0.2580462819476E+01 -0.1311812252697E+01 -0.8018569343533E+00
-0.1042812639261E+01 -0.2289052477939E+01 -0.1565976601112E+01 -0.8461651501392E+00
-0.7532259754059E+00 -0.2294039020822E+01 -0.1432214544595E+01 -0.6356690476182E+00
-0.5026840078220E+00 -0.2251350562234E+01 -0.1294396244643E+01 -0.4428799860324E+00
-0.3065174304645E+00 -0.2173118160829E+01 -0.1165428724952E+01 -0.2826799142161E+00
-0.1603431606182E+00 -0.2079690888458E+01 -0.1052816000395E+01 -0.1632553026297E+00
-0.5306238567929E-01 -0.1985115840903E+01 -0.9579437640638E+00 -0.8407074086908E-01
 0.2414311889076E-01 -0.1897887214175E+01 -0.8806597225501E+00 -0.4035871718821E-01
 0.7752608485034E-01 -0.1822925803656E+01 -0.8203378657580E+00 -0.2628262653788E-01
 0.1120328315739E+00 -0.1761615798337E+01 -0.7753039924120E+00 -0.3569043863590E-01
 0.1308228599415E+00 -0.1713645310136E+01 -0.7439265497045E+00 -0.6356161979575E-01
 0.1361860094310E+00 -0.1678785174758E+01 -0.7250216058646E+00 -0.1059464628712E+00
 0.1311453222692E+00 -0.1654163176406E+01 -0.7158183896289E+00 -0.1585920511879E+00
 0.1134695187963E+00 -0.1645098359667E+01 -0.7198655533834E+00 -0.2226782649368E+00
 0.8798201356250E-01 -0.1666609612718E+01 -0.7419549697213E+00 -0.2966481258375E+00
 0.6158968954661E-01 -0.1729135598249E+01 -0.7837465751022E+00 -0.3762206457102E+00
 0.3364691401820E-01 -0.1834254760377E+01 -0.8462856856422E+00 -0.4608066698255E+00
 0.2268656281245E-02 -0.1984998835555E+01 -0.9318831818951E+00 -0.5489884071075E+00
-0.3616507725170E-01 -0.2186776046658E+01 -0.1044782325588E+01 -0.6379883454022E+00
-0.8520766708540E-01 -0.2452575757450E+01 -0.1192758206507E+01 -0.7211571197973E+00
-0.1479003713306E+00 -0.2804235742847E+01 -0.1387503970144E+01 -0.7852309225647E+00
-0.1111357067995E+01 -0.2306016983711E+01 -0.1606165800228E+01 -0.8175896289755E+00
-0.8231324864537E+00 -0.2323327126516E+01 -0.1478836014345E+01 -0.6184007427642E+00
-0.5692432697214E+00 -0.2303113320323E+01 -0.1350007593897E+01 -0.4396407125402E+00
-0.3642227614739E+00 -0.2252666862246E+01 -0.1229938120029E+01 -0.2902456336223E+00
-0.2056783567277E+00 -0.2187097749359E+01 -0.1124604767009E+01 -0.1761660369194E+00
-0.8484498197667E-01 -0.2117522035595E+01 -0.1035112495633E+01 -0.9769922257498E-01
 0.5850117381874E-02 -0.2051201839733E+01 -0.9613153070670E+00 -0.5167901646388E-01
 0.7203151557228E-01 -0.1992990705667E+01 -0.9028508170547E+00 -0.3378022485437E-01
 0.1182775022892E+00 -0.1945092015158E+01 -0.8586028188706E+00 -0.3911989315667E-01
 0.1476460691909E+00 -0.1908318263611E+01 -0.8275159292786E+00 -0.6353504848414E-01
 0.1624121253678E+00 -0.1883499091715E+01 -0.8089108721316E+00 -0.1035656371702E+00
 0.1655930723116E+00 -0.1869013401248E+01 -0.8006075525694E+00 -0.1551098532914E+00
 0.1548023796205E+00 -0.1870219780055E+01 -0.8062461761595E+00 -0.2193019125096E+00
 0.1348666129038E+00 -0.1900809746752E+01 -0.8299932708036E+00 -0.2937994567146E+00
 0.1133701294426E+00 -0.1970295424003E+01 -0.8727548862298E+00 -0.3730107302697E+00
 0.8978974147468E-01 -0.2079866330445E+01 -0.9353359944435E+00 -0.4555658356997E+00
 0.6229052108167E-01 -0.2231517998346E+01 -0.1019536911729E+01 -0.5397545157259E+00
 0.2713087128963E-01 -0.2429006222524E+01 -0.1128881412217E+01 -0.6228545788697E+00
-0.1958998438919E-01 -0.2682100774824E+01 -0.1269794653609E+01 -0.6985748736816E+00
-0.8180082403858E-01 -0.3007409875959E+01 -0.1451929025316E+01 -0.7544292219448E+00
-0.1180272164294E+01 -0.2326887018020E+01 -0.1648364811507E+01 -0.7862992216095E+00
-0.8919688798216E+00 -0.2355435882031E+01 -0.1526280234200E+01 -0.5960464857651E+00
-0.6350991706081E+00 -0.2354248220232E+01 -0.1404993270131E+01 -0.4290926035955E+00
-0.4224779819728E+00 -0.2327543452864E+01 -0.1292510071095E+01 -0.2896324043761E+00
-0.2528869888546E+00 -0.2286526621796E+01 -0.1193524393979E+01 -0.1813574684769E+00
-0.1194769173583E+00 -0.2239920347398E+01 -0.1108916711623E+01 -0.1047434739659E+00
-0.1586656740786E-01 -0.2193797527402E+01 -0.1038542121927E+01 -0.5764246383236E-01
 0.6291856065427E-01 -0.2152667555360E+01 -0.9821820250207E+00 -0.3682138372393E-01
 0.1210479667784E+00 -0.2119130590977E+01 -0.9390988309913E+00 -0.3841742929542E-01
 0.1614233460340E+00 -0.2094716602080E+01 -0.9086478280368E+00 -0.5902912937656E-01
 0.1862563056814E+00 -0.2080992807893E+01 -0.8905261537807E+00 -0.9569335946556E-01
 0.1984926572737E+00 -0.2077382526134E+01 -0.8830782361244E+00 -0.1445896851563E+00
 0.1957298829344E+00 -0.2089105187553E+01 -0.8898863909138E+00 -0.2067890219141E+00
 0.1825858503330E+00 -0.2128338194180E+01 -0.9145035992884E+00 -0.2794554805538E+00
 0.1669217820226E+00 -0.2203416063727E+01 -0.9571523099735E+00 -0.3562159813951E+00
 0.1483170312022E+00 -0.2315154164861E+01 -0.1018413450237E+01 -0.4351558251433E+00
 0.1249982449627E+00 -0.2464772119072E+01 -0.1099693718042E+01 -0.5144660116479E+00
 0.9315310039109E-01 -0.2654838608778E+01 -0.1203992185888E+01 -0.5917199035839E+00
 0.4843747671459E-01 -0.2892533621975E+01 -0.1336725184882E+01 -0.6613464532540E+00
-0.1432554456545E-01 -0.3190118239066E+01 -0.1506088574487E+01 -0.7118856198778E+00
-0.1249089086546E+01 -0.2350402721780E+01 -0.1691761145622E+01 -0.7523108123917E+00
-0.9595692250372E+00 -0.2389518643760E+01 -0.1574071294342E+01 -0.5693391362502E+00
-0.6998890164875E+00 -0.2404772449064E+01 -0.1459190885108E+01 -0.4122804969701E+00
-0.4806920028310E+00 -0.2398516718743E+01 -0.1353228095707E+01 -0.2817042769608E+00
-0.3013201829986E+00 -0.2379094822829E+01 -0.1259795049544E+01 -0.1792281807257E+00
-0.1564196861581E+00 -0.2353325218836E+01 -0.1179580102355E+01 -0.1050969763364E+00
-0.4067958638942E-01 -0.2326218957806E+01 -0.1112442312950E+01 -0.5774055043938E-01
 0.5024234139894E-01 -0.2301821539880E+01 -0.1058242220602E+01 -0.3467120929435E-01
 0.1200904052655E+00 -0.2282860611055E+01 -0.1016501994143E+01 -0.3280629850095E-01
 0.1715710343146E+00 -0.2271278527631E+01 -0.9868625193556E+00 -0.4937830667146E-01
 0.2067954734952E+00 -0.2269100468806E+01 -0.9692833453378E+00 -0.8188371239184E-01
 0.2285781647696E+00 -0.2276570369562E+01 -0.9625563338112E+00 -0.1268612277345E+00
 0.2346165231278E+00 -0.2298592325887E+01 -0.9700686248365E+00 -0.1852955703106E+00
 0.2291269367490E+00 -0.2345693149972E+01 -0.9947861176916E+00 -0.2541531294889E+00
 0.2198759723837E+00 -0.2424862370861E+01 -0.1036343604656E+01 -0.3267914653922E+00
 0.2065659774973E+00 -0.2536624221063E+01 -0.1095127371698E+01 -0.4009595176142E+00
 0.1876084187811E+00 -0.2681727145427E+01 -0.1172235798551E+01 -0.4748776449750E+00
 0.1592657623308E+00 -0.2862079839054E+01 -0.1270322612838E+01 -0.5465941010937E+00
 0.1167662502965E+00 -0.3082904117393E+01 -0.1394084793999E+01 -0.6116086660986E+00
 0.5313248260344E-01 -0.3352831283384E+01 -0.1550858432434E+01 -0.6597531106160E+00
-0.1317395329062E+01 -0.2375545703763E+01 -0.1735682281026E+01 -0.7156258189803E+00
-0.1025812110871E+01 -0.2424764062800E+01 -0.1621770797512E+01 -0.5388138915144E+00
-0.7633869530755E+00 -0.2454477396875E+01 -0.1512396240641E+01 -0.3900520110776E+00
-0.5384491438636E+00 -0.2465965974183E+01 -0.1412075101900E+01 -0.2672594780604E+00
-0.3504680595217E+00 -0.2465506285181E+01 -0.1323507938654E+01 -0.1702768140822E+00
-0.1952085252579E+00 -0.2458438066082E+01 -0.1247213894766E+01 -0.9888813275981E-01
-0.6827299719082E-01 -0.2448868637585E+01 -0.1183056565344E+01 -0.5177872814242E-01
 0.3409751387541E-01 -0.2440353203977E+01 -0.1130940171479E+01 -0.2693004914806E-01
 0.1152303232686E+00 -0.2435584827102E+01 -0.1090566614035E+01 -0.2182760992315E-01
 0.1776165878913E+00 -0.2436700544883E+01 -0.1061769457093E+01 -0.3420463905244E-01
 0.2232427579514E+00 -0.2445961460233E+01 -0.1044677787423E+01 -0.6195830110920E-01
 0.2547415669257E+00 -0.2464222574626E+01 -0.1038456070985E+01 -0.1020261237797E+00
 0.2700014113789E+00 -0.2495931049547E+01 -0.1046186927285E+01 -0.1552889912898E+00
 0.2726842341485E+00 -0.2549887251053E+01 -0.1070285415231E+01 -0.2188047920421E+00
 0.2700930092539E+00 -0.2631671591752E+01 -0.1109941930959E+01 -0.2861282667480E+00
 0.2621406538572E+00 -0.2741542747958E+01 -0.1165318981272E+01 -0.3548153867401E+00
 0.2475734491127E+00 -0.2880116884111E+01 -0.1237295411311E+01 -0.4231338796144E+00
 0.2231140496360E+00 -0.3049095072346E+01 -0.1328211077305E+01 -0.4896681194708E+00
 0.1836713367251E+00 -0.3252587633123E+01 -0.1442390655648E+01 -0.5513642542666E+00
 0.1197675800970E+00 -0.3496141117299E+01 -0.1586895558460E+01 -0.5998445490259E+00
-0.1384801014947E+01 -0.2401464204231E+01 -0.1779544648500E+01 -0.6762457218563E+00
-0.1090584145687E+01 -0.2460389542525E+01 -0.1668957629226E+01 -0.5048592519019E+00
-0.8254544241352E+00 -0.2503004778686E+01 -0.1564375821358E+01 -0.3630832767279E+00
-0.5954635573890E+00 -0.2529989130099E+01 -0.1468962759393E+01 -0.2470087703432E+00
-0.3999421020788E+00 -0.2546151620651E+01 -0.1384664046171E+01 -0.1550421109934E+00
-0.2354529444839E+00 -0.2555696967356E+01 -0.1311840455238E+01 -0.8640297742563E-01
-0.9835340452786E-01 -0.2562000583087E+01 -0.1250366371008E+01 -0.3980252079743E-01
 0.1460491187609E-01 -0.2568154025498E+01 -0.1200168080358E+01 -0.1347920686413E-01
 0.1063629565044E+00 -0.2576725809964E+01 -0.1161070538181E+01 -0.5310654016190E-02
 0.1791932809070E+00 -0.2589902455439E+01 -0.1133033309156E+01 -0.1340677689014E-01
 0.2349519962743E+00 -0.2610013019459E+01 -0.1116278678066E+01 -0.3599888189059E-01
 0.2760499321639E+00 -0.2638349251971E+01 -0.1110280677493E+01 -0.7043515869938E-01
 0.3006470821593E+00 -0.2678812382445E+01 -0.1117737688299E+01 -0.1174852944723E+00
 0.3117437725029E+00 -0.2738496191643E+01 -0.1140573634103E+01 -0.1745774655572E+00
 0.3158604101733E+00 -0.2821581924374E+01 -0.1177689108687E+01 -0.2358888149771E+00
 0.3129745798085E+00 -0.2928165843720E+01 -0.1229139890921E+01 -0.2989022677680E+00
 0.3026821221065E+00 -0.3058511378387E+01 -0.1295239747167E+01 -0.3617521137921E+00
 0.2824023455376E+00 -0.3214887666845E+01 -0.1378268097519E+01 -0.4233864904104E+00
 0.2476971106919E+00 -0.3400952110540E+01 -0.1482029846170E+01 -0.4824885352586E+00
 0.1853847905090E+00 -0.3620481812651E+01 -0.1614495596312E+01 -0.5335555098283E+00
-0.1450901482661E+01 -0.2427391614069E+01 -0.1822797750839E+01 -0.6341803716847E+00
-0.1153773562648E+01 -0.2495645015202E+01 -0.1715226727239E+01 -0.4677483835562E+00
-0.8859907018193E+00 -0.2549887976565E+01 -0.1614862974745E+01 -0.3318958434108E+00
-0.6515508096716E+00 -0.2590506958124E+01 -0.1523767146999E+01 -0.2215611551752E+00
-0.4494409834534E+00 -0.2621188104424E+01 -0.1443195667642E+01 -0.1340630962313E+00
-0.2768280978512E+00 -0.2645335957200E+01 -0.1373417102390E+01 -0.6802843226979E-01
-0.1306500852530E+00 -0.2665736764710E+01 -0.1314301816149E+01 -0.2203786132760E-01
-0.8090312767429E-02 -0.2685086422202E+01 -0.1265793062225E+01  0.5572066598426E-02
 0.9344540232207E-01 -0.2705799840537E+01 -0.1227806582847E+01  0.1666656500934E-01
 0.1760393386928E+00 -0.2730000104426E+01 -0.1200361556850E+01  0.1286603034433E-01
 0.2414142174064E+00 -0.2759981683998E+01 -0.1183726706296E+01 -0.4327226084624E-02
 0.2917446294524E+00 -0.2797319882623E+01 -0.1177620366003E+01 -0.3266107677524E-01
 0.3255394387699E+00 -0.2845352342646E+01 -0.1184312061818E+01 -0.7278618154796E-01
 0.3451261874408E+00 -0.2909594110289E+01 -0.1205299920682E+01 -0.1227549217172E+00
 0.3559428153207E+00 -0.2993001762282E+01 -0.1239417701928E+01 -0.1777627210455E+00
 0.3579220549429E+00 -0.3095491416076E+01 -0.1286657596469E+01 -0.2354177679485E+00
 0.3506623530320E+00 -0.3217329805684E+01 -0.1347333699329E+01 -0.2936207704491E+00
 0.3351161575370E+00 -0.3358952383423E+01 -0.1421203022562E+01 -0.3507058259843E+00
 0.3069878613585E+00 -0.3527451606770E+01 -0.1513617956504E+01 -0.4069748799375E+00
 0.2508992498601E+00 -0.3725126229117E+01 -0.1632886676109E+01 -0.4618350932374E+00
-0.1515314019209E+01 -0.2452637481909E+01 -0.1864937200795E+01 -0.5894627120958E+00
-0.1215176163912E+01 -0.2529690580081E+01 -0.1760087365212E+01 -0.4276460568262E+00
-0.9449925461964E+00 -0.2594711647988E+01 -0.1663660967047E+01 -0.2968547250807E+00
-0.7065384972646E+00 -0.2647296333837E+01 -0.1576302366620E+01 -0.1914216817410E+00
-0.4987382767478E+00 -0.2690641627061E+01 -0.1499008550988E+01 -0.1078519968209E+00
-0.3190495536499E+00 -0.2727439926674E+01 -0.1431850052121E+01 -0.4421479125592E-01
-0.1649058953325E+00 -0.2760092927538E+01 -0.1374749443262E+01  0.1154594830157E-02
-0.3382504916801E-01 -0.2790988720112E+01 -0.1327662468194E+01  0.2993312506427E-01
 0.7651573384291E-01 -0.2822378569235E+01 -0.1290555529361E+01  0.4382452156072E-01
 0.1679791385170E+00 -0.2856319347736E+01 -0.1263519895128E+01  0.4425101510788E-01
 0.2422654020029E+00 -0.2894870855959E+01 -0.1246724560197E+01  0.3251864858387E-01
 0.3012320356870E+00 -0.2939854867902E+01 -0.1240152727996E+01  0.1052001100071E-01
 0.3438419754932E+00 -0.2994065398667E+01 -0.1245605005732E+01 -0.2225468316894E-01
 0.3718904833997E+00 -0.3061643122474E+01 -0.1264183737158E+01 -0.6466140545793E-01
 0.3895653903799E+00 -0.3144670438216E+01 -0.1294899369199E+01 -0.1132519210785E+00
 0.3964705253257E+00 -0.3243140463574E+01 -0.1337934867583E+01 -0.1660445161482E+00
 0.3921445983048E+00 -0.3356930003909E+01 -0.1393449137100E+01 -0.2210634511947E+00
 0.3756938175656E+00 -0.3487221631625E+01 -0.1462418068899E+01 -0.2758445598311E+00
 0.3608993965854E+00 -0.3628843589565E+01 -0.1535933766805E+01 -0.3279498934717E+00
 0.3183203852471E+00 -0.3807208160220E+01 -0.1639777250078E+01 -0.3849131555413E+00
-0.1576880450490E+01 -0.2475597362209E+01 -0.1904664567138E+01 -0.5420357670070E+00
-0.1275146722311E+01 -0.2562401332708E+01 -0.1803647581284E+01 -0.3845166088397E+00
-0.1002139591395E+01 -0.2636782671975E+01 -0.1710293459446E+01 -0.2582126359749E+00
-0.7603654919440E+00 -0.2700210573086E+01 -0.1626470746439E+01 -0.1569702848409E+00
-0.5476238139071E+00 -0.2754487866434E+01 -0.1551992485824E+01 -0.7689054328820E-01
-0.3618452684258E+00 -0.2801994504205E+01 -0.1487004689365E+01 -0.1546190376359E-01
-0.2008574927757E+00 -0.2844992939437E+01 -0.1431549699509E+01  0.2931258840602E-01
-0.6241492338083E-01 -0.2885687041839E+01 -0.1385607920139E+01  0.5917339357341E-01
 0.5564052102445E-01 -0.2926122010604E+01 -0.1349126296681E+01  0.7571938754697E-01
 0.1550663965248E+00 -0.2968223563482E+01 -0.1322183865116E+01  0.8024214220214E-01
 0.2371740033048E+00 -0.3014165790119E+01 -0.1305186136492E+01  0.7382568225475E-01
 0.3040771251322E+00 -0.3065049367906E+01 -0.1297656950813E+01  0.5810119805739E-01
 0.3549891076969E+00 -0.3123681072819E+01 -0.1301285220307E+01  0.3287320484695E-01
 0.3911097798113E+00 -0.3193567929015E+01 -0.1317155326785E+01 -0.1722663857695E-02
 0.4159491506985E+00 -0.3275509180450E+01 -0.1343993210574E+01 -0.4377659221051E-01
 0.4286180582012E+00 -0.3370149985121E+01 -0.1382520002146E+01 -0.9184748071542E-01
 0.4277225605382E+00 -0.3477988782451E+01 -0.1433625120663E+01 -0.1445018772592E+00
 0.4123662736976E+00 -0.3598689015343E+01 -0.1497571684775E+01 -0.2001163430164E+00
 0.3811866598103E+00 -0.3735976705445E+01 -0.1576751317449E+01 -0.2546513642161E+00
 0.4127662246884E+00 -0.3833895205528E+01 -0.1607930616916E+01 -0.3072684677358E+00
-0.1009742468034E+01 -0.2143612498908E+01 -0.1482076830703E+01  0.1356709085504E+01
-0.9060489127271E+00 -0.2157072998477E+01 -0.1439667294615E+01  0.1230143225309E+01
-0.7875367763529E+00 -0.2172512077743E+01 -0.1391222957896E+01  0.1118523243565E+01
-0.6682436386129E+00 -0.2182148980696E+01 -0.1339684527677E+01  0.1021442960399E+01
-0.5562704446180E+00 -0.2183114576439E+01 -0.1287510956631E+01  0.9391976450884E+00
-0.4558453270246E+00 -0.2174397263045E+01 -0.1236214014197E+01  0.8718794263944E+00
-0.3691902929247E+00 -0.2155917173972E+01 -0.1186800506431E+01  0.8189043831916E+00
-0.2972499923417E+00 -0.2128003599255E+01 -0.1139869185159E+01  0.7792221955708E+00
-0.2401869945844E+00 -0.2091163938560E+01 -0.1095734935799E+01  0.7514750647240E+00
-0.1977275481220E+00 -0.2045965490855E+01 -0.1054535725645E+01  0.7341938592179E+00
-0.1694177748660E+00 -0.1993223051135E+01 -0.1016441185642E+01  0.7259009458886E+00
-0.1537807455437E+00 -0.1932965161831E+01 -0.9807705739784E+00  0.7245479219505E+00
-0.1505077673989E+00 -0.1866331124480E+01 -0.9479142767788E+00  0.7293916765309E+00
-0.1585978888393E+00 -0.1795438529111E+01 -0.9183971141074E+00  0.7399233176382E+00
-0.1748184608306E+00 -0.1720009724165E+01 -0.8905692446892E+00  0.7539064276811E+00
-0.1982337601864E+00 -0.1639064031473E+01 -0.8635299598895E+00  0.7690979627894E+00
-0.2276961070804E+00 -0.1551233979265E+01 -0.8360971384618E+00  0.7829562232925E+00
-0.2606611044963E+00 -0.1454108992318E+01 -0.8059419434584E+00  0.7931140067050E+00
-0.2960080330010E+00 -0.1351476282665E+01 -0.7743176263991E+00  0.7963319470845E+00
-0.2536907170194E+00 -0.1184477768146E+01 -0.6759391863133E+00  0.7939066409357E+00
-0.9527003131282E+00 -0.2125431525560E+01 -0.1446721960514E+01  0.1366191767704E+01
-0.8523567047127E+00 -0.2133621758148E+01 -0.1403409873985E+01  0.1240564949771E+01
-0.7344515048820E+00 -0.2140614676511E+01 -0.1351281101827E+01  0.1126240736291E+01
-0.6168497708943E+00 -0.2139495464868E+01 -0.1295482257522E+01  0.1023788691446E+01
-0.5084286286378E+00 -0.2128003648818E+01 -0.1239123167261E+01  0.9347924892393E+00
-0.4132876213348E+00 -0.2105896467383E+01 -0.1184016518694E+01  0.8603891069229E+00
-0.3331145564747E+00 -0.2073621934825E+01 -0.1131166148042E+01  0.8005812256898E+00
-0.2684071547115E+00 -0.2032047453819E+01 -0.1081213663267E+01  0.7545891494455E+00
-0.2188879464625E+00 -0.1982127913279E+01 -0.1034477451455E+01  0.7211262057771E+00
-0.1838978739612E+00 -0.1924810250918E+01 -0.9910928161793E+00  0.6986868143732E+00
-0.1624079877323E+00 -0.1861068050985E+01 -0.9510337357851E+00  0.6856966405966E+00
-0.1526814435796E+00 -0.1791510792509E+01 -0.9137703486442E+00  0.6799760505692E+00
-0.1546624076013E+00 -0.1717961199224E+01 -0.8801330929754E+00  0.6813601186358E+00
-0.1670406005156E+00 -0.1642831767964E+01 -0.8506400110280E+00  0.6896464973712E+00
-0.1862467629925E+00 -0.1566463853465E+01 -0.8237739876457E+00  0.7020625638820E+00
-0.2110117152745E+00 -0.1487509123544E+01 -0.7983047922198E+00  0.7159814805345E+00
-0.2392951974177E+00 -0.1403936094400E+01 -0.7723187051957E+00  0.7286319816986E+00
-0.2696241084478E+00 -0.1314921914285E+01 -0.7447366287955E+00  0.7374514122499E+00
-0.2855351494360E+00 -0.1212502850309E+01 -0.7040778580943E+00  0.7410694655154E+00
-0.3136518665809E+00 -0.1116915222814E+01 -0.6723665303104E+00  0.7496990904320E+00
-0.8979295810277E+00 -0.2110678051813E+01 -0.1414045583849E+01  0.1373593476451E+01
-0.7986537112295E+00 -0.2113166845776E+01 -0.1368555658321E+01  0.1248687416963E+01
-0.6804982140230E+00 -0.2112046352191E+01 -0.1312495942792E+01  0.1130414976459E+01
-0.5638276181922E+00 -0.2099619864654E+01 -0.1251820313763E+01  0.1021218232455E+01
-0.4586848624764E+00 -0.2074658012207E+01 -0.1190671148081E+01  0.9243801530513E+00
-0.3688438748453E+00 -0.2037927114317E+01 -0.1131182362037E+01  0.8421889718515E+00
-0.2953537210725E+00 -0.1990759443064E+01 -0.1074473184419E+01  0.7751910012993E+00
-0.2381038275176E+00 -0.1934739771460E+01 -0.1021236488929E+01  0.7228208261559E+00
-0.1962684901065E+00 -0.1871353252451E+01 -0.9717822165374E+00  0.6837939274788E+00
-0.1686803070934E+00 -0.1801915129286E+01 -0.9261798527490E+00  0.6564958116907E+00
-0.1539665195042E+00 -0.1727789846858E+01 -0.8844254899472E+00  0.6392627082863E+00
-0.1500167965176E+00 -0.1649630069501E+01 -0.8458340248832E+00  0.6297344217309E+00
-0.1568349575709E+00 -0.1569656743227E+01 -0.8114510973168E+00  0.6280191034778E+00
-0.1729591432768E+00 -0.1491047299658E+01 -0.7820830261955E+00  0.6341674855540E+00
-0.1943679779892E+00 -0.1414495580246E+01 -0.7561658704524E+00  0.6450871426232E+00
-0.2195114800061E+00 -0.1338363486533E+01 -0.7322012324162E+00  0.6579411943577E+00
-0.2466201841031E+00 -0.1260824286263E+01 -0.7084988992748E+00  0.6700445468341E+00
-0.2723032844545E+00 -0.1179311619133E+01 -0.6822590029557E+00  0.6798106135004E+00
-0.2981261449946E+00 -0.1096780347381E+01 -0.6556060497536E+00  0.6887978943784E+00
-0.3359474316201E+00 -0.1009157383705E+01 -0.6321992615993E+00  0.6988931033116E+00
-0.8450373365380E+00 -0.2099211617926E+01 -0.1383797005088E+01  0.1378972743208E+01
-0.7452613822839E+00 -0.2096903429605E+01 -0.1335817458200E+01  0.1254328939987E+01
-0.6254425013672E+00 -0.2087372611031E+01 -0.1275023099593E+01  0.1130724221001E+01
-0.5090893425667E+00 -0.2062691940327E+01 -0.1208737199894E+01  0.1013245218500E+01
-0.4071020430856E+00 -0.2022847349993E+01 -0.1142076211850E+01  0.9074467143677E+00
-0.3227607525376E+00 -0.1970052058005E+01 -0.1077622018222E+01  0.8168888475039E+00
-0.2562595301327E+00 -0.1906801806292E+01 -0.1016638825541E+01  0.7425837611895E+00
-0.2067431079315E+00 -0.1835588109474E+01 -0.9598956697461E+00  0.6840663033143E+00
-0.1727308262504E+00 -0.1758486573838E+01 -0.9076721757393E+00  0.6399356314729E+00
-0.1525455317300E+00 -0.1677200906208E+01 -0.8599808236494E+00  0.6083719979651E+00
-0.1444369165916E+00 -0.1593340638764E+01 -0.8167554489456E+00  0.5875347098119E+00
-0.1459457264121E+00 -0.1507440452425E+01 -0.7770915020825E+00  0.5747836020071E+00
-0.1571073395834E+00 -0.1422039138292E+01 -0.7421988427191E+00  0.5703685167507E+00
-0.1762351348967E+00 -0.1340985789242E+01 -0.7130938325367E+00  0.5745804444145E+00
-0.1990870020837E+00 -0.1265282701836E+01 -0.6882537590965E+00  0.5842183456008E+00
-0.2242548165848E+00 -0.1193059653404E+01 -0.6661377992054E+00  0.5964397325143E+00
-0.2500704431660E+00 -0.1121933556351E+01 -0.6448418781375E+00  0.6088845804601E+00
-0.2765035008651E+00 -0.1050385197206E+01 -0.6236376865114E+00  0.6206815595572E+00
-0.3048906718631E+00 -0.9767714272478E+00 -0.6023811850543E+00  0.6321508656233E+00
-0.3442155134659E+00 -0.8977882301672E+00 -0.5837417580270E+00  0.6412381788440E+00
-0.7942358676450E+00 -0.2091736657527E+01 -0.1356407083390E+01  0.1382479151739E+01
-0.6920543890830E+00 -0.2085539260298E+01 -0.1305469011898E+01  0.1257319781719E+01
-0.5692043167489E+00 -0.2067136632626E+01 -0.1239080243064E+01  0.1126651931713E+01
-0.4526125302519E+00 -0.2028692125699E+01 -0.1166213185339E+01  0.9992046542689E+00
-0.3538794122603E+00 -0.1972111944250E+01 -0.1093215934787E+01  0.8833857773297E+00
-0.2754151830044E+00 -0.1901527056868E+01 -0.1023162850145E+01  0.7841041018524E+00
-0.2163233524028E+00 -0.1820917416006E+01 -0.9575031587233E+00  0.7026922495027E+00
-0.1748579651153E+00 -0.1733837118331E+01 -0.8970866869444E+00  0.6386093440193E+00
-0.1488104811578E+00 -0.1642980205315E+01 -0.8421416205062E+00  0.5901638565238E+00
-0.1359666212125E+00 -0.1550353972372E+01 -0.7925706769744E+00  0.5551874803020E+00
-0.1342037496506E+00 -0.1457675196239E+01 -0.7481831026702E+00  0.5315486539391E+00
-0.1407351664090E+00 -0.1365203286265E+01 -0.7077910709618E+00  0.5162463982890E+00
-0.1556082199901E+00 -0.1275663491979E+01 -0.6726977029193E+00  0.5095896275416E+00
-0.1769533262066E+00 -0.1193453415161E+01 -0.6440911668091E+00  0.5121108019160E+00
-0.2006055260996E+00 -0.1119731172009E+01 -0.6205582465370E+00  0.5206744076741E+00
-0.2254273223329E+00 -0.1052105368213E+01 -0.6004403630338E+00  0.5325293293585E+00
-0.2506829135290E+00 -0.9878593151836E+00 -0.5821148460185E+00  0.5455062603535E+00
-0.2767788251876E+00 -0.9241018210749E+00 -0.5644139023118E+00  0.5585297612973E+00
-0.3054517202402E+00 -0.8585212635118E+00 -0.5470673009759E+00  0.5708433783865E+00
-0.3415714736513E+00 -0.7883363114584E+00 -0.5310566576546E+00  0.5791264385933E+00
-0.7457285903352E+00 -0.2089097748212E+01 -0.1332368375738E+01  0.1384255946098E+01
-0.6389273530914E+00 -0.2079901160287E+01 -0.1277849398047E+01  0.1257380080373E+01
-0.5116813575625E+00 -0.2051686819082E+01 -0.1204783039967E+01  0.1117505547404E+01
-0.3945141916956E+00 -0.1997357799471E+01 -0.1124179832997E+01  0.9782642444099E+00
-0.2993728188044E+00 -0.1921655207044E+01 -0.1043883169501E+01  0.8515188119478E+00
-0.2273485386418E+00 -0.1831255931280E+01 -0.9675440984092E+00  0.7434869121226E+00
-0.1761798162049E+00 -0.1731953342971E+01 -0.8968225825381E+00  0.6555745823574E+00
-0.1431010478236E+00 -0.1628485707245E+01 -0.8326457727705E+00  0.5869101287304E+00
-0.1251141633034E+00 -0.1524112547882E+01 -0.7751365522913E+00  0.5352761421548E+00
-0.1194665069828E+00 -0.1420994339262E+01 -0.7240165958989E+00  0.4979814136848E+00
-0.1236828813677E+00 -0.1320759699087E+01 -0.6788880110917E+00  0.4724844032121E+00
-0.1346858849777E+00 -0.1223207845493E+01 -0.6382100517025E+00  0.4553695236359E+00
-0.1525370738547E+00 -0.1131083174207E+01 -0.6033015150587E+00  0.4469487308590E+00
-0.1752660903178E+00 -0.1049164393618E+01 -0.5754823259902E+00  0.4479822031235E+00
-0.1990069797269E+00 -0.9785330628309E+00 -0.5534438185984E+00  0.4555342361279E+00
-0.2230804125205E+00 -0.9161676529576E+00 -0.5354465894166E+00  0.4669676997945E+00
-0.2471839988704E+00 -0.8586024178245E+00 -0.5197196145284E+00  0.4801130251225E+00
-0.2719961630298E+00 -0.8022380414230E+00 -0.5048900748122E+00  0.4935895941009E+00
-0.2988290025742E+00 -0.7444412542726E+00 -0.4903370194743E+00  0.5060302546819E+00
-0.3300315278259E+00 -0.6834854009464E+00 -0.4763529553148E+00  0.5142356797189E+00
-0.6997493375434E+00 -0.2092349725451E+01 -0.1312286556279E+01  0.1384436105546E+01
-0.5857581452637E+00 -0.2080876402277E+01 -0.1253318234165E+01  0.1254066835610E+01
-0.4528488270864E+00 -0.2041218721107E+01 -0.1172211744678E+01  0.1102374137047E+01
-0.3350637945134E+00 -0.1968078727088E+01 -0.1082476982407E+01  0.9494325027946E+00
-0.2441347103213E+00 -0.1870263195884E+01 -0.9937670133961E+00  0.8111305249503E+00
-0.1792787723628E+00 -0.1757731314042E+01 -0.9103947383012E+00  0.6947806007892E+00
-0.1366037468427E+00 -0.1638426029719E+01 -0.8342639928680E+00  0.6014748382396E+00
-0.1122188799306E+00 -0.1518316155719E+01 -0.7663514648114E+00  0.5296595841306E+00
-0.1023032271115E+00 -0.1401068135537E+01 -0.7065845386529E+00  0.4762983669262E+00
-0.1035903933396E+00 -0.1288744129553E+01 -0.6543972240995E+00  0.4379863719551E+00
-0.1132945051535E+00 -0.1182617549101E+01 -0.6090786639550E+00  0.4116644903421E+00
-0.1281040852546E+00 -0.1081805132449E+01 -0.5686573308785E+00  0.3934906742780E+00
-0.1481015401475E+00 -0.9888751311708E+00 -0.5343790341642E+00  0.3837439437053E+00
-0.1712949618645E+00 -0.9088074011524E+00 -0.5076481093304E+00  0.3833942830642E+00
-0.1943161777459E+00 -0.8424231811685E+00 -0.4872674974539E+00  0.3898356580245E+00
-0.2168806148367E+00 -0.7859228010632E+00 -0.4713176042775E+00  0.4005789070405E+00
-0.2390204071424E+00 -0.7352101115428E+00 -0.4578883426207E+00  0.4134396306595E+00
-0.2614096716397E+00 -0.6861835430931E+00 -0.4453688097948E+00  0.4268070150459E+00
-0.2850006334740E+00 -0.6362587130294E+00 -0.4329918917584E+00  0.4391196528286E+00
-0.3107041054098E+00 -0.5844082616875E+00 -0.4207028114687E+00  0.4478634159280E+00
-0.6565780014592E+00 -0.2102812210261E+01 -0.1296913396219E+01  0.1383128481666E+01
-0.5324457858083E+00 -0.2089426799768E+01 -0.1232280112095E+01  0.1246714186278E+01
-0.3928082764731E+00 -0.2035705658614E+01 -0.1141401546596E+01  0.1080084902629E+01
-0.2747450216887E+00 -0.1939806331241E+01 -0.1040839133237E+01  0.9115648763196E+00
-0.1889398310500E+00 -0.1816203052846E+01 -0.9424171530407E+00  0.7615217758652E+00
-0.1321046711543E+00 -0.1678979927975E+01 -0.8512097594319E+00  0.6378968826112E+00
-0.9849147390330E-01 -0.1538525190942E+01 -0.7693978305257E+00  0.5409036386488E+00
-0.8302377025502E-01 -0.1401955657598E+01 -0.6979403293207E+00  0.4678453798264E+00
-0.8105863769232E-01 -0.1273026329113E+01 -0.6364199327843E+00  0.4145251059440E+00
-0.8887088535647E-01 -0.1153317581093E+01 -0.5838285777506E+00  0.3766390245597E+00
-0.1034284851638E+00 -0.1043398809670E+01 -0.5390088272049E+00  0.3505380703900E+00
-0.1212643393700E+00 -0.9414552213960E+00 -0.4994781922932E+00  0.3320033531233E+00
-0.1424798013665E+00 -0.8496782069851E+00 -0.4663142627425E+00  0.3212739785772E+00
-0.1651448897484E+00 -0.7731022284926E+00 -0.4409761444548E+00  0.3195306567288E+00
-0.1865192873739E+00 -0.7121374161242E+00 -0.4223686495728E+00  0.3246462655864E+00
-0.2066827629027E+00 -0.6621905494154E+00 -0.4083704557537E+00  0.3343573314607E+00
-0.2259153562921E+00 -0.6186238008878E+00 -0.3969334028678E+00  0.3465103671776E+00
-0.2448539289679E+00 -0.5770422441909E+00 -0.3862912004049E+00  0.3593752905981E+00
-0.2642263137827E+00 -0.5349644428519E+00 -0.3756196546656E+00  0.3714487902301E+00
-0.2843552170354E+00 -0.4917647003625E+00 -0.3647763602518E+00  0.3810485052740E+00
-0.6165862903958E+00 -0.2122166474016E+01 -0.1287213796009E+01  0.1380398638615E+01
-0.4789584689471E+00 -0.2106588036682E+01 -0.1215206854563E+01  0.1234355544751E+01
-0.3318657074622E+00 -0.2034805206971E+01 -0.1112335326962E+01  0.1049154477073E+01
-0.2143170546516E+00 -0.1910912741986E+01 -0.9988580018860E+00  0.8633837276364E+00
-0.1348085287590E+00 -0.1757103677765E+01 -0.8891987348112E+00  0.7020880938111E+00
-0.8689202476279E-01 -0.1592510773352E+01 -0.7893193131118E+00  0.5730226408397E+00
-0.6282754159009E-01 -0.1430148866918E+01 -0.7016989102191E+00  0.4747404295114E+00
-0.5635077207137E-01 -0.1277975620240E+01 -0.6271334027958E+00  0.4028242880046E+00
-0.6203591523561E-01 -0.1139285694539E+01 -0.5646211551619E+00  0.3515508502153E+00
-0.7578374128959E-01 -0.1014632488427E+01 -0.5124956266672E+00  0.3155727838265E+00
-0.9440446275611E-01 -0.9034593167426E+00 -0.4689959751748E+00  0.2906471676587E+00
-0.1143760996452E+00 -0.8027729899181E+00 -0.4310600710014E+00  0.2723120085402E+00
-0.1358080461935E+00 -0.7142170042073E+00 -0.3995117726751E+00  0.2608009723479E+00
-0.1569135249510E+00 -0.6427837793467E+00 -0.3758577320666E+00  0.2575398263687E+00
-0.1756798844637E+00 -0.5883892827823E+00 -0.3591125076948E+00  0.2610465219895E+00
-0.1925064950856E+00 -0.5456759463812E+00 -0.3469457466094E+00  0.2693699820045E+00
-0.2079005548092E+00 -0.5095723366219E+00 -0.3372122581173E+00  0.2804423966909E+00
-0.2224867430575E+00 -0.4755186119134E+00 -0.3280625160042E+00  0.2924958973089E+00
-0.2369491351658E+00 -0.4411304463410E+00 -0.3186974024998E+00  0.3042068032318E+00
-0.2515714830755E+00 -0.4059412684150E+00 -0.3090309924167E+00  0.3146771677841E+00
-0.5803147507046E+00 -0.2152595427330E+01 -0.1284467780418E+01  0.1376238263520E+01
-0.4254144499806E+00 -0.2133463845071E+01 -0.1202672795624E+01  0.1215617729282E+01
-0.2706346328296E+00 -0.2037712092540E+01 -0.1084922958172E+01  0.1007735944109E+01
-0.1548804564380E+00 -0.1878990911470E+01 -0.9559195404919E+00  0.8035234769305E+00
-0.8301083667624E-01 -0.1689804023120E+01 -0.8332229819907E+00  0.6324396738739E+00
-0.4483631516531E-01 -0.1495281188982E+01 -0.7238552251135E+00  0.5007664708471E+00
-0.3063018936926E-01 -0.1310991563510E+01 -0.6305622222541E+00  0.4043582845565E+00
-0.3299952219747E-01 -0.1145052526739E+01 -0.5536844615956E+00  0.3363931665510E+00
-0.4580843569663E-01 -0.9994320413503E+00 -0.4912630229660E+00  0.2892809691028E+00
-0.6469565271419E-01 -0.8729390247499E+00 -0.4406882972904E+00  0.2565828175606E+00
-0.8642825336171E-01 -0.7634350409572E+00 -0.3994357473168E+00  0.2335689557360E+00
-0.1075535669497E+00 -0.6665569722151E+00 -0.3638319524846E+00  0.2157708806057E+00
-0.1281674122665E+00 -0.5832973407253E+00 -0.3343884330580E+00  0.2034986029497E+00
-0.1467070581275E+00 -0.5185785867175E+00 -0.3126842522841E+00  0.1984897162787E+00
-0.1619398143640E+00 -0.4717970410851E+00 -0.2978563213056E+00  0.2000656082453E+00
-0.1745339595558E+00 -0.4369098451176E+00 -0.2873785874676E+00  0.2066552747432E+00
-0.1852258476063E+00 -0.4085185337163E+00 -0.2790598585138E+00  0.2163119671158E+00
-0.1946860120429E+00 -0.3819993165360E+00 -0.2710421037446E+00  0.2272730039304E+00
-0.2037075966643E+00 -0.3550372789283E+00 -0.2626100908625E+00  0.2384284488162E+00
-0.2128751059581E+00 -0.3271628642001E+00 -0.2538178453306E+00  0.2495380766117E+00
-0.5486060052696E+00 -0.2196993944471E+01 -0.1290431973105E+01  0.1370515332309E+01
-0.3722129627909E+00 -0.2171204887531E+01 -0.1195406386619E+01  0.1188573681908E+01
-0.2101727266051E+00 -0.2042925813164E+01 -0.1058956311006E+01  0.9535649995339E+00
-0.9793402960511E-01 -0.1840561988353E+01 -0.9110931261293E+00  0.7306206934432E+00
-0.3503459750228E-01 -0.1610168434448E+01 -0.7732454230552E+00  0.5525860394414E+00
-0.7189117786827E-02 -0.1383710237654E+01 -0.6537226953993E+00  0.4223581568799E+00
-0.2872095813789E-02 -0.1178726867688E+01 -0.5553515114371E+00  0.3317674165577E+00
-0.1366008996463E-01 -0.1002215640142E+01 -0.4774615919392E+00  0.2708420570922E+00
-0.3279928584870E-01 -0.8535510231639E+00 -0.4165846441793E+00  0.2299032858845E+00
-0.5580450334369E-01 -0.7289488052458E+00 -0.3688340541016E+00  0.2015501244994E+00
-0.7954650920021E-01 -0.6242912392157E+00 -0.3308037409164E+00  0.1808288733102E+00
-0.1007872881459E+00 -0.5337867764288E+00 -0.2982498095936E+00  0.1636075793352E+00
-0.1195745421363E+00 -0.4577820913917E+00 -0.2713576170699E+00  0.1503927795039E+00
-0.1346350129982E+00 -0.4011706828324E+00 -0.2518286764016E+00  0.1433149102342E+00
-0.1455089285420E+00 -0.3628563378095E+00 -0.2389316745792E+00  0.1426201673341E+00
-0.1530687280969E+00 -0.3362321652691E+00 -0.2299714192987E+00  0.1471472002644E+00
-0.1582942979446E+00 -0.3156860410544E+00 -0.2227707587645E+00  0.1550787301141E+00
-0.1619667235808E+00 -0.2966168786985E+00 -0.2155342925246E+00  0.1646687275555E+00
-0.1651026271126E+00 -0.2767559650214E+00 -0.2076735377762E+00  0.1750039865839E+00
-0.1687851878594E+00 -0.2555301156941E+00 -0.1994281921643E+00  0.1863461028246E+00
-0.5228394757898E+00 -0.2259295013854E+01 -0.1307603206816E+01  0.1362890659693E+01
-0.3202481622643E+00 -0.2220955371485E+01 -0.1194365657833E+01  0.1150533445799E+01
-0.1521555839571E+00 -0.2047868552833E+01 -0.1034011341669E+01  0.8839156747382E+00
-0.4539569907533E-01 -0.1790641488529E+01 -0.8629374759853E+00  0.6434851163526E+00
 0.7512099364737E-02 -0.1512883567731E+01 -0.7075245883375E+00  0.4632212210813E+00
 0.2486465054982E-01 -0.1253805393164E+01 -0.5776021475636E+00  0.3399134710058E+00
 0.1962363391577E-01 -0.1031349229308E+01 -0.4755110286283E+00  0.2597604274234E+00
 0.1175420604182E-02 -0.8492041283890E+00 -0.3985734916479E+00  0.2089570366952E+00
-0.2320246950468E-01 -0.7024664508558E+00 -0.3410643917043E+00  0.1757920684871E+00
-0.4907425743166E-01 -0.5839288738420E+00 -0.2975114709440E+00  0.1523116976253E+00
-0.7360499850340E-01 -0.4873190432718E+00 -0.2636342989657E+00  0.1337860797356E+00
-0.9392561972580E-01 -0.4055799428282E+00 -0.2347676138049E+00  0.1168415018170E+00
-0.1099785718767E+00 -0.3385477279967E+00 -0.2108073604058E+00  0.1023087449745E+00
-0.1208071056389E+00 -0.2911751569609E+00 -0.1936316629308E+00  0.9277539254973E-01
-0.1266463522894E+00 -0.2619336009269E+00 -0.1826325775484E+00  0.8947132500345E-01
-0.1284965864794E+00 -0.2438088160932E+00 -0.1749835387653E+00  0.9162940605353E-01
-0.1276046800955E+00 -0.2310976025506E+00 -0.1685900724160E+00  0.9754688622162E-01
-0.1249273767238E+00 -0.2193049161787E+00 -0.1617891772538E+00  0.1054865612675E+00
-0.1217798576805E+00 -0.2061944233186E+00 -0.1541479116786E+00  0.1146882104624E+00
-0.1198494866920E+00 -0.1910356885088E+00 -0.1461160319738E+00  0.1257470336861E+00
-0.5053588721706E+00 -0.2344997373860E+01 -0.1339667432237E+01  0.1352673927196E+01
-0.2712624285823E+00 -0.2283727672127E+01 -0.1200845344288E+01  0.1097740978954E+01
-0.9907599903236E-01 -0.2048229317545E+01 -0.1009233496232E+01  0.7955923575807E+00
 0.4727598502265E-03 -0.1722095589220E+01 -0.8091627277515E+00  0.5414186020063E+00
 0.4311188142246E-01 -0.1391296717925E+01 -0.6336468715492E+00  0.3661627449778E+00
 0.5038428053803E-01 -0.1101536311313E+01 -0.4940414532113E+00  0.2567653954653E+00
 0.3630445871767E-01 -0.8677619987749E+00 -0.3907850428357E+00  0.1920129835687E+00
 0.1131000483253E-01 -0.6869311269950E+00 -0.3175419266110E+00  0.1539161909367E+00
-0.1689333148093E-01 -0.5479422360407E+00 -0.2654727160618E+00  0.1293103689949E+00
-0.4417224327608E-01 -0.4397030095275E+00 -0.2274213682408E+00  0.1104730849035E+00
-0.6822305571647E-01 -0.3540510080219E+00 -0.1984688094536E+00  0.9350570797689E-01
-0.8667868091225E-01 -0.2831059758627E+00 -0.1737987882434E+00  0.7621577884450E-01
-0.9927545095896E-01 -0.2264308187957E+00 -0.1530819463964E+00  0.5983979266987E-01
-0.1053378497616E+00 -0.1891206826097E+00 -0.1383955098635E+00  0.4743671356924E-01
-0.1056449504626E+00 -0.1692771448459E+00 -0.1292133844673E+00  0.4120373423618E-01
-0.1012485758659E+00 -0.1596607523872E+00 -0.1226273839679E+00  0.4071278769328E-01
-0.9370441842518E-01 -0.1546146908021E+00 -0.1167099810408E+00  0.4434812613086E-01
-0.8421100472965E-01 -0.1498395966255E+00 -0.1100037823579E+00  0.5036680469187E-01
-0.7441886169965E-01 -0.1431285658301E+00 -0.1022472906797E+00  0.5810600555856E-01
-0.6665689766115E-01 -0.1335763340808E+00 -0.9410961868002E-01  0.6831403422549E-01
-0.5002879404050E+00 -0.2462066335213E+01 -0.1392306506009E+01  0.1338566597015E+01
-0.2284325753284E+00 -0.2360106499917E+01 -0.1216613362279E+01  0.1024925156057E+01
-0.5441426016795E-01 -0.2036792935955E+01 -0.9828673796849E+00  0.6850235209759E+00
 0.3737327623250E-01 -0.1624697625061E+01 -0.7460424420573E+00  0.4248076753553E+00
 0.7071445287666E-01 -0.1237486613571E+01 -0.5483829141354E+00  0.2650130428714E+00
 0.6889094609109E-01 -0.9236945725211E+00 -0.4017577034031E+00  0.1778211076967E+00
 0.4699319533668E-01 -0.6887047068721E+00 -0.3016044096567E+00  0.1330342683429E+00
 0.1695269900886E-01 -0.5179571961230E+00 -0.2354721130464E+00  0.1089930588656E+00
-0.1333555160590E-01 -0.3927251202386E+00 -0.1908485152829E+00  0.9248714953003E-01
-0.4042411567966E-01 -0.2984862545794E+00 -0.1592878736178E+00  0.7718553846677E-01
-0.6280886045389E-01 -0.2260888899175E+00 -0.1357819423301E+00  0.6065171447800E-01
-0.7865719681214E-01 -0.1674719091598E+00 -0.1156806795134E+00  0.4216704759643E-01
-0.8734284072314E-01 -0.1221784185315E+00 -0.9847499159992E-01  0.2334958225037E-01
-0.8836035358607E-01 -0.9544815089349E-01 -0.8638999688628E-01  0.7675565859812E-02
-0.8281789996566E-01 -0.8504309290107E-01 -0.7889466644726E-01 -0.1775426851728E-02
-0.7176532020787E-01 -0.8369924125764E-01 -0.7306834370346E-01 -0.5170872854766E-02
-0.5714697400040E-01 -0.8597121555619E-01 -0.6726554892099E-01 -0.4064280577199E-02
-0.4047486330133E-01 -0.8786896588100E-01 -0.6032159956270E-01 -0.2136866048572E-03
-0.2372591512776E-01 -0.8722464544122E-01 -0.5214676333516E-01  0.5755969751161E-02
-0.9841466147279E-02 -0.8296860167906E-01 -0.4362073176774E-01  0.1454370908922E-01
-0.5151695042189E+00 -0.2622567881963E+01 -0.1474736567765E+01  0.1318184803450E+01
-0.1973698829862E+00 -0.2449555049693E+01 -0.1244054715204E+01  0.9246190836418E+00
-0.2254546480962E-01 -0.2001213640839E+01 -0.9511667772424E+00  0.5486222053978E+00
 0.6374694041654E-01 -0.1483883331530E+01 -0.6674641021302E+00  0.2962228249187E+00
 0.9033996705618E-01 -0.1043022259549E+01 -0.4477606763358E+00  0.1661040519473E+00
 0.8048101232135E-01 -0.7196992970179E+00 -0.3004325930454E+00  0.1097857676101E+00
 0.5198030018175E-01 -0.4979272963166E+00 -0.2095950876518E+00  0.8776300082543E-01
 0.1883167379610E-01 -0.3467235040237E+00 -0.1541091598161E+00  0.7697811573794E-01
-0.1147667975197E-01 -0.2402108364480E+00 -0.1182931323140E+00  0.6659962775633E-01
-0.3684626897150E-01 -0.1625460776565E+00 -0.9371440267745E-01  0.5295960100343E-01
-0.5663519110216E-01 -0.1048754531028E+00 -0.7591000258381E-01  0.3544816015510E-01
-0.6944754494116E-01 -0.5961140388965E-01 -0.6065770579663E-01  0.1485346895447E-01
-0.7408886087099E-01 -0.2642090274226E-01 -0.4723958877841E-01 -0.6987197297497E-02
-0.7004338563932E-01 -0.1053382257305E-01 -0.3787128776376E-01 -0.2629023996788E-01
-0.5848345141939E-01 -0.9339612775112E-02 -0.3187684009056E-01 -0.3922171730620E-01
-0.4045652913739E-01 -0.1576539335736E-01 -0.2642430350551E-01 -0.4576649093135E-01
-0.1844807962052E-01 -0.2479928973107E-01 -0.2032626354369E-01 -0.4741840885798E-01
 0.5636199889984E-02 -0.3292827029844E-01 -0.1282727305944E-01 -0.4594260697480E-01
 0.2956674092330E-01 -0.3805510995808E-01 -0.3989533436227E-02 -0.4198652581101E-01
 0.4991247478937E-01 -0.3896977846892E-01  0.5143067257568E-02 -0.3514294343562E-01
-0.5646447432745E+00 -0.2845999600323E+01 -0.1603002837425E+01  0.1287115219364E+01
-0.1876756082140E+00 -0.2548534488853E+01 -0.1286018742360E+01  0.7861186288966E+00
-0.7850985124511E-02 -0.1919739974312E+01 -0.9059677486372E+00  0.3838196213356E+00
 0.8070079368320E-01 -0.1279309155184E+01 -0.5633459284764E+00  0.1624703720932E+00
 0.1034662904397E+00 -0.8019460229339E+00 -0.3282854734396E+00  0.7963230402171E-01
 0.8578731730009E-01 -0.4945611051546E+00 -0.1921236798043E+00  0.6081199491403E-01
 0.5196008446890E-01 -0.3032618946991E+00 -0.1181118505086E+00  0.6049634691329E-01
 0.1852390173539E-01 -0.1787664350919E+00 -0.7531399048656E-01  0.5933117505918E-01
-0.9817689617527E-02 -0.9377016061125E-01 -0.4868628948404E-01  0.5183405971521E-01
-0.3228883735688E-01 -0.3377316866033E-01 -0.3104914274934E-01  0.3761818093181E-01
-0.4897559114137E-01  0.8515027415078E-02 -0.1901646490313E-01  0.1774426489168E-01
-0.5870202377346E-01  0.3979094186593E-01 -0.8888208473997E-02 -0.5756014552290E-02
-0.5949858710829E-01  0.6032022070189E-01  0.3861677880152E-03 -0.3111009020941E-01
-0.5060640514600E-01  0.6525209753360E-01  0.6883475404713E-02 -0.5435095441308E-01
-0.3294076169697E-01  0.5770647396684E-01  0.1163988473732E-01 -0.7102730829591E-01
-0.7651054214135E-02  0.4432033898616E-01  0.1723456379914E-01 -0.8099064523886E-01
 0.2196995528878E-01  0.2935727103287E-01  0.2412379630999E-01 -0.8563151453957E-01
 0.5351429289830E-01  0.1556063554307E-01  0.3246521628510E-01 -0.8667974363422E-01
 0.8469235753258E-01  0.4897316521769E-02  0.4210714669875E-01 -0.8486777944248E-01
 0.1118505197790E+00 -0.1306442075471E-02  0.5195571638888E-01 -0.8039078109527E-01
-0.6791012574699E+00 -0.3166557507316E+01 -0.1807459614865E+01  0.1236938508282E+01
-0.2159268159326E+00 -0.2645897580464E+01 -0.1345057462895E+01  0.5938223657769E+00
-0.9720154157449E-02 -0.1751104318581E+01 -0.8275875000882E+00  0.1920108037576E+00
 0.9436398285391E-01 -0.9866516388588E+00 -0.4193751972586E+00  0.3820456952343E-01
 0.1132876638862E+00 -0.5175047974702E+00 -0.1899820523026E+00  0.2033241780787E-01
 0.8422342771995E-01 -0.2640240321565E+00 -0.8450628387084E-01  0.3850797826002E-01
 0.4936444808640E-01 -0.1142265266524E+00 -0.3048517684868E-01  0.5296130961320E-01
 0.1825686966031E-01 -0.1930949456277E-01 -0.4947337028996E-03  0.5555776122105E-01
-0.6673014110048E-02  0.4404964601643E-01  0.1756701695144E-01  0.4726567073151E-01
-0.2569669021067E-01  0.8663559595260E-01  0.2864128562606E-01  0.3044642563972E-01
-0.3924862296839E-01  0.1135124782401E+00  0.3490401188919E-01  0.7170091341140E-02
-0.4620527418571E-01  0.1303383471435E+00  0.3954254418989E-01 -0.1974822865865E-01
-0.4367327514392E-01  0.1375754752882E+00  0.4413403395587E-01 -0.4897139357194E-01
-0.3032307173294E-01  0.1314503832937E+00  0.4752983631301E-01 -0.7643578758829E-01
-0.6440997725365E-02  0.1158417337813E+00  0.5141834581586E-01 -0.9718498816362E-01
 0.2648086168528E-01  0.9670255621321E-01  0.5789620626545E-01 -0.1109290130944E+00
 0.6384327988561E-01  0.7702464487809E-01  0.6620792447101E-01 -0.1188293233240E+00
 0.1026351045456E+00  0.5833012818869E-01  0.7565365919322E-01 -0.1224812711430E+00
 0.1408114870966E+00  0.4224277082128E-01  0.8603550100319E-01 -0.1227589889373E+00
 0.1751078853227E+00  0.3029894493237E-01  0.9654120997502E-01 -0.1208894211586E+00
-0.9345333948152E+00 -0.3656721897390E+01 -0.2157889981863E+01  0.1150028967263E+01
-0.3023668930113E+00 -0.2700951674117E+01 -0.1411559722970E+01  0.3253169479605E+00
-0.1320444967656E-01 -0.1419834998947E+01 -0.6735285391445E+00 -0.1369886057463E-01
 0.1251634025892E+00 -0.5834012569158E+00 -0.2153717909872E+00 -0.4780899162079E-01
 0.1115283776056E+00 -0.2288083217239E+00 -0.5512157359577E-01  0.4103531818044E-02
 0.8017206515673E-01 -0.4511636870734E-01  0.1647617728942E-01  0.4480045212687E-01
 0.4746289458159E-01  0.6097203128673E-01  0.5096441502885E-01  0.6319109024306E-01
 0.2051730604388E-01  0.1283225126861E+00  0.6995471462568E-01  0.6339176921446E-01
-0.6862631268150E-03  0.1718666558204E+00  0.8045478436191E-01  0.5123906290210E-01
-0.1636732212723E-01  0.1982689604913E+00  0.8549376981428E-01  0.3045669279978E-01
-0.2707331060462E-01  0.2101738377371E+00  0.8605724753398E-01  0.3318940259401E-02
-0.3191659971290E-01  0.2119259277310E+00  0.8460438395393E-01 -0.2710293353483E-01
-0.2685204587207E-01  0.2048282476378E+00  0.8364881461773E-01 -0.6040570771807E-01
-0.9543314829296E-02  0.1873298472134E+00  0.8355967000861E-01 -0.9242583937007E-01
 0.2090209128035E-01  0.1645925513870E+00  0.8718248183252E-01 -0.1177464529252E+00
 0.6197511405726E-01  0.1413488321356E+00  0.9556225446824E-01 -0.1358295603228E+00
 0.1072156578167E+00  0.1188248761113E+00  0.1062390506767E+00 -0.1473864163809E+00
 0.1525823206073E+00  0.9628687241044E-01  0.1169685204217E+00 -0.1536504239650E+00
 0.1970276606992E+00  0.7480699028102E-01  0.1277622856366E+00 -0.1556856128627E+00
 0.2385261784973E+00  0.5601098602614E-01  0.1384324669749E+00 -0.1563234149046E+00
-0.1528513662969E+01 -0.4484529987480E+01 -0.2826130508543E+01  0.9861965151936E+00
-0.4866880475376E+00 -0.2601619936332E+01 -0.1451504748737E+01 -0.5231453435925E-01
 0.1188140507004E+00 -0.7184791416354E+00 -0.2818425920246E+00 -0.1782282064018E+00
 0.1216941587960E+00 -0.1964588885956E+00 -0.3513942291672E-01 -0.5544492201329E-01
 0.1095604941296E+00  0.3398298430728E-01  0.6746543469420E-01  0.3175630266032E-01
 0.7783558453394E-01  0.1492295471410E+00  0.1067206116165E+00  0.7424798312815E-01
 0.5013600653099E-01  0.2188171202845E+00  0.1264079692827E+00  0.8651124121408E-01
 0.2706463071398E-01  0.2628222694767E+00  0.1362468427440E+00  0.7980771339316E-01
 0.8709549793515E-02  0.2891616690688E+00  0.1399994725102E+00  0.6187294072955E-01
-0.3980674437812E-02  0.3015821233074E+00  0.1398726806139E+00  0.3658471467149E-01
-0.1235753048853E-01  0.2992370763522E+00  0.1348333862140E+00  0.5886786065402E-02
-0.1580919669910E-01  0.2850155697135E+00  0.1265269949959E+00 -0.2748102897336E-01
-0.9584899092930E-02  0.2611578225287E+00  0.1182392737149E+00 -0.6490423646212E-01
 0.1129938411653E-01  0.2315306705402E+00  0.1141301253992E+00 -0.1020613266001E+00
 0.4930040656698E-01  0.2031992191241E+00  0.1186748237738E+00 -0.1328311000595E+00
 0.9928453783429E-01  0.1781839286294E+00  0.1304101789072E+00 -0.1560870670051E+00
 0.1521138759761E+00  0.1548417540464E+00  0.1442691457447E+00 -0.1718976098922E+00
 0.2037715759883E+00  0.1311219066290E+00  0.1573999364309E+00 -0.1809057155208E+00
 0.2519939265593E+00  0.1035339770704E+00  0.1670981142821E+00 -0.1839005005365E+00
 0.3005672561415E+00  0.7599180183669E-01  0.1769827568009E+00 -0.1862994453900E+00
-0.3856865448063E+01 -0.6714738718804E+01 -0.4968653945825E+01  0.5662982122541E+00
 0.1688716878664E+00 -0.9568969916690E+00 -0.3703718918478E+00 -0.4907301278003E+00
 0.7821534468956E-01 -0.1585038184703E+00 -0.3773558258122E-01 -0.1769424637541E+00
 0.1293823235885E+00  0.1302969510515E+00  0.1220492587712E+00  0.8121899462725E-02
 0.1097073519461E+00  0.2517746572003E+00  0.1698965438679E+00  0.8934164028296E-01
 0.8366024363693E-01  0.3173918048909E+00  0.1884944623300E+00  0.1178789755361E+00
 0.5899541148806E-01  0.3584617213218E+00  0.1962048519230E+00  0.1178370414370E+00
 0.3879966655190E-01  0.3846429990897E+00  0.1990180523468E+00  0.1019635777456E+00
 0.2202965815148E-01  0.3965494988920E+00  0.1967322033114E+00  0.7760422725376E-01
 0.9611931929200E-02  0.3954737222619E+00  0.1903902569869E+00  0.4750086530807E-01
 0.6240710250757E-02  0.3846884764257E+00  0.1837367172719E+00  0.1444249769716E-01
 0.2107635900757E-02  0.3511500075255E+00  0.1660310919892E+00 -0.1948957189269E-01
 0.6299551062387E-02  0.3032616320099E+00  0.1454937556750E+00 -0.6110778679690E-01
 0.3221443581800E-01  0.2616159100782E+00  0.1381002622209E+00 -0.1051184038038E+00
 0.8005504827024E-01  0.2313333660774E+00  0.1463525543722E+00 -0.1428437820134E+00
 0.1386700774382E+00  0.2066654348890E+00  0.1623076903821E+00 -0.1721979930747E+00
 0.1991804849169E+00  0.1853198837699E+00  0.1807151728244E+00 -0.1930164110190E+00
 0.2556415335784E+00  0.1621687137147E+00  0.1963708157297E+00 -0.2052287370908E+00
 0.3085807395587E+00  0.1347085328229E+00  0.2083459574909E+00 -0.2088180906250E+00
 0.3540239293395E+00  0.8645679263426E-01  0.2070259388026E+00 -0.2097103047932E+00
 0.2382501623344E+00 -0.4151944296269E+01 -0.1839436238284E+01 -0.3257289543712E+00
 0.2489058068598E+00 -0.4038302697644E+01 -0.1781016534151E+01 -0.3916202405858E+00
 0.2051305361651E+00 -0.3960271972170E+01 -0.1764916470446E+01 -0.4595335591858E+00
 0.1541437048051E+00 -0.3874446552800E+01 -0.1748542334123E+01 -0.5272914630998E+00
 0.9701077637893E-01 -0.3776550650517E+01 -0.1729383736459E+01 -0.5928856073957E+00
 0.3623580093701E-01 -0.3663263160734E+01 -0.1704702854781E+01 -0.6548896110553E+00
-0.2680213001934E-01 -0.3532872355853E+01 -0.1673047004117E+01 -0.7117807920833E+00
-0.9078436870643E-01 -0.3384053315173E+01 -0.1633173707281E+01 -0.7618466762059E+00
-0.1543935459917E+00 -0.3215697515052E+01 -0.1583942794673E+01 -0.8031129953290E+00
-0.2161605935419E+00 -0.3026787243237E+01 -0.1524185479420E+01 -0.8333024202006E+00
-0.2743372680985E+00 -0.2816355846773E+01 -0.1452625760305E+01 -0.8497982331663E+00
-0.3267266160308E+00 -0.2583478979237E+01 -0.1367796626307E+01 -0.8496146322119E+00
-0.3704403222680E+00 -0.2327299417154E+01 -0.1267937674313E+01 -0.8293792469232E+00
-0.4015266599351E+00 -0.2047097523194E+01 -0.1150853363152E+01 -0.7853406327055E+00
-0.4143889004742E+00 -0.1742447289579E+01 -0.1013713006754E+01 -0.7134263630483E+00
-0.4008088664153E+00 -0.1413498148075E+01 -0.8527242946476E+00 -0.6094006961085E+00
-0.3484494849755E+00 -0.1061678029211E+01 -0.6627599299866E+00 -0.4692500509929E+00
-0.2373178222401E+00 -0.6903868274309E+00 -0.4360211842395E+00 -0.2900259449480E+00
-0.3788155626951E-01 -0.3113678162072E+00 -0.1641472046477E+00 -0.7244303938613E-01
 0.3238102801324E+00  0.6171568487702E-01  0.1811972030948E+00  0.1717719075166E+00
 0.2892012364832E+00 -0.4262685926913E+01 -0.1867537799765E+01 -0.2522539953159E+00
 0.2485778714186E+00 -0.4243482222343E+01 -0.1877605040172E+01 -0.3206657597985E+00
 0.2121699697885E+00 -0.4185807522889E+01 -0.1867609645220E+01 -0.3859858583811E+00
 0.1602174578914E+00 -0.4122883363401E+01 -0.1862452970866E+01 -0.4539949991115E+00
 0.1020682405774E+00 -0.4048743681168E+01 -0.1854937452373E+01 -0.5219485666394E+00
 0.3907017367905E-01 -0.3961763147875E+01 -0.1843665693196E+01 -0.5879850708024E+00
-0.2731362892862E-01 -0.3859800201320E+01 -0.1826943495583E+01 -0.6503997701226E+00
-0.9599718195707E-01 -0.3741098896054E+01 -0.1803435152091E+01 -0.7075261052013E+00
-0.1658279200656E+00 -0.3604017135046E+01 -0.1771827171408E+01 -0.7575881431184E+00
-0.2354685285258E+00 -0.3446967268951E+01 -0.1730744820424E+01 -0.7986133268022E+00
-0.3032411257815E+00 -0.3268338458223E+01 -0.1678642400225E+01 -0.8283606708034E+00
-0.3669449001695E+00 -0.3066444781526E+01 -0.1613693146304E+01 -0.8442493376959E+00
-0.4235956705108E+00 -0.2839485385770E+01 -0.1533648092562E+01 -0.8432721493483E+00
-0.4690355416020E+00 -0.2585518811759E+01 -0.1435640542438E+01 -0.8218777133030E+00
-0.4973116638603E+00 -0.2302445435235E+01 -0.1315885833237E+01 -0.7757960959207E+00
-0.4996776870726E+00 -0.1988025017392E+01 -0.1169220268133E+01 -0.6997660572259E+00
-0.4626666428771E+00 -0.1639748538238E+01 -0.9881351326180E+00 -0.5870626211505E+00
-0.3650530872009E+00 -0.1255102165185E+01 -0.7614729666900E+00 -0.4286428169235E+00
-0.1664577021790E+00 -0.8277895534781E+00 -0.4672962089736E+00 -0.2110980752375E+00
 0.2114255275626E+00 -0.3459209459458E+00 -0.6321284647974E-01  0.9018917362098E-01
 0.2964550533739E+00 -0.4405263738770E+01 -0.1931140077238E+01 -0.1629808918823E+00
 0.2576120517710E+00 -0.4403372160382E+01 -0.1948507246105E+01 -0.2345332088495E+00
 0.2123344045396E+00 -0.4385275086029E+01 -0.1961282115326E+01 -0.3015286316678E+00
 0.1605686412287E+00 -0.4350245595725E+01 -0.1969148163619E+01 -0.3686083779881E+00
 0.1004643873595E+00 -0.4304119930140E+01 -0.1975718100096E+01 -0.4362658247398E+00
 0.3444573854022E-01 -0.4245830742351E+01 -0.1979350946770E+01 -0.5031239680821E+00
-0.3641784765133E-01 -0.4174304143990E+01 -0.1979039331052E+01 -0.5676455914763E+00
-0.1110999173196E+00 -0.4088038651386E+01 -0.1973595122286E+01 -0.6282193952051E+00
-0.1886099565159E+00 -0.3985475528974E+01 -0.1961820173204E+01 -0.6831511562281E+00
-0.2677842727469E+00 -0.3864997927969E+01 -0.1942407629410E+01 -0.7305922460698E+00
-0.3471445913567E+00 -0.3724926252842E+01 -0.1913873291919E+01 -0.7684583549320E+00
-0.4247276086514E+00 -0.3563483049430E+01 -0.1874459004544E+01 -0.7943309481008E+00
-0.4978681834893E+00 -0.3378748112091E+01 -0.1822009654301E+01 -0.8053258304558E+00
-0.5628953300074E+00 -0.3168596827501E+01 -0.1753801309581E+01 -0.7979009145080E+00
-0.6146936689531E+00 -0.2930612459782E+01 -0.1666293876279E+01 -0.7675568172341E+00
-0.6460104999951E+00 -0.2661907562915E+01 -0.1554721485624E+01 -0.7083432674547E+00
-0.6464720913936E+00 -0.2358865175605E+01 -0.1412508511907E+01 -0.6120003920712E+00
-0.6003835028863E+00 -0.2015990492040E+01 -0.1229695774496E+01 -0.4663153847733E+00
-0.4850895485616E+00 -0.1624913396986E+01 -0.9917013818918E+00 -0.2515448594052E+00
-0.2641971842612E+00 -0.1164863231547E+01 -0.6716583937261E+00  0.6853278155155E-01
 0.3000949097169E+00 -0.4537531490358E+01 -0.1991595187850E+01 -0.6672153611129E-01
 0.2571081886275E+00 -0.4555028947863E+01 -0.2020022751717E+01 -0.1365920814500E+00
 0.2093442724644E+00 -0.4560928702457E+01 -0.2045244676909E+01 -0.2038088962199E+00
 0.1539729755477E+00 -0.4554878505407E+01 -0.2068425593788E+01 -0.2700741239070E+00
 0.9107182055957E-01 -0.4537040466104E+01 -0.2089605258106E+01 -0.3362525830175E+00
 0.2083168691050E-01 -0.4508151843663E+01 -0.2109040468324E+01 -0.4018976479724E+00
-0.5583526623641E-01 -0.4467493630994E+01 -0.2125964576306E+01 -0.4658548829009E+00
-0.1382280817434E+00 -0.4414032797152E+01 -0.2139562607654E+01 -0.5266992658865E+00
-0.2256224684389E+00 -0.4346465614802E+01 -0.2148881393673E+01 -0.5828167782050E+00
-0.3172040171902E+00 -0.4263348179041E+01 -0.2152859526768E+01 -0.6323950668612E+00
-0.4119517566375E+00 -0.4163116716145E+01 -0.2150282176754E+01 -0.6733587313299E+00
-0.5085300329543E+00 -0.4044078473968E+01 -0.2139725992826E+01 -0.7032675554329E+00
-0.6051684569701E+00 -0.3904370218613E+01 -0.2119483172148E+01 -0.7191693246648E+00
-0.6995285207753E+00 -0.3741884360701E+01 -0.2087464048999E+01 -0.7173848611727E+00
-0.7885542216213E+00 -0.3554140872576E+01 -0.2041066689096E+01 -0.6931847369284E+00
-0.8683560634957E+00 -0.3338088434351E+01 -0.1977028908974E+01 -0.6402894522792E+00
-0.9341460995114E+00 -0.3089691945370E+01 -0.1891203876297E+01 -0.5500724283843E+00
-0.9810017343206E+00 -0.2803541851151E+01 -0.1778735480660E+01 -0.4102578884851E+00
-0.1006043702382E+01 -0.2471660763041E+01 -0.1634521094603E+01 -0.2028594983010E+00
-0.1024081795157E+01 -0.2088026992675E+01 -0.1462691126571E+01  0.9815686310116E-01
 0.2983582488686E+00 -0.4656335764222E+01 -0.2048249427021E+01  0.3495761384933E-01
 0.2523994029219E+00 -0.4690825684233E+01 -0.2086060346925E+01 -0.3095276620553E-01
 0.2006044708265E+00 -0.4718161474183E+01 -0.2123251786192E+01 -0.9576909471969E-01
 0.1414510959833E+00 -0.4736461210004E+01 -0.2159654748112E+01 -0.1598110950296E+00
 0.7401094015661E-01 -0.4745381916370E+01 -0.2195544353252E+01 -0.2234489033438E+00
-0.1753939721169E-02 -0.4744621825686E+01 -0.2230796604083E+01 -0.2864480285980E+00
-0.8570394183132E-01 -0.4733772924474E+01 -0.2265154121418E+01 -0.3479876626414E+00
-0.1775462865313E+00 -0.4711988455347E+01 -0.2298081322854E+01 -0.4068466077850E+00
-0.2770087843517E+00 -0.4678185969914E+01 -0.2328941528598E+01 -0.4615239156606E+00
-0.3837930153414E+00 -0.4631085928963E+01 -0.2356993097845E+01 -0.5102564641787E+00
-0.4975432490279E+00 -0.4569245710684E+01 -0.2381390805024E+01 -0.5509803343100E+00
-0.6178144300056E+00 -0.4491049792401E+01 -0.2401166178441E+01 -0.5812472358354E+00
-0.7440652223662E+00 -0.4394667253703E+01 -0.2415204257627E+01 -0.5980972905848E+00
-0.8756933797765E+00 -0.4277968268107E+01 -0.2422220968362E+01 -0.5978781251159E+00
-0.1012158135248E+01 -0.4138390506552E+01 -0.2420757855506E+01 -0.5759924618343E+00
-0.1153262129125E+01 -0.3972723536390E+01 -0.2409213256682E+01 -0.5265512505523E+00
-0.1299847246856E+01 -0.3776847140511E+01 -0.2386046356011E+01 -0.4419176448828E+00
-0.1455178832653E+01 -0.3545307765101E+01 -0.2350228694983E+01 -0.3121994548546E+00
-0.1628692020546E+01 -0.3271646634826E+01 -0.2303159162183E+01 -0.1250702480736E+00
-0.1840613817892E+01 -0.2948333547529E+01 -0.2250805256039E+01  0.1323336361925E+00
 0.2921431236893E+00 -0.4758481560075E+01 -0.2099179059777E+01  0.1406739123579E+00
 0.2429687930444E+00 -0.4809063747625E+01 -0.2146064623210E+01  0.8020643729287E-01
 0.1870541670438E+00 -0.4855081487866E+01 -0.2193972835222E+01  0.1972225616026E-01
 0.1230793342834E+00 -0.4894962551716E+01 -0.2242785106505E+01 -0.4046616937305E-01
 0.5008341243708E-01 -0.4927740937598E+01 -0.2292499031011E+01 -0.1003009872560E+00
-0.3254604509227E-01 -0.4952838919414E+01 -0.2343130927375E+01 -0.1594779099939E+00
-0.1251433057539E+00 -0.4969628167539E+01 -0.2394542586374E+01 -0.2173019173045E+00
-0.2279793961549E+00 -0.4977333519580E+01 -0.2446497064190E+01 -0.2727136710371E+00
-0.3413231174591E+00 -0.4974961715003E+01 -0.2498653864920E+01 -0.3243418598567E+00
-0.4654998606240E+00 -0.4961330855467E+01 -0.2550610430093E+01 -0.3705249811422E+00
-0.6009127716040E+00 -0.4935070814112E+01 -0.2601912278687E+01 -0.4092916296014E+00
-0.7480831950265E+00 -0.4894606973210E+01 -0.2652064372344E+01 -0.4383077121573E+00
-0.9077284619958E+00 -0.4838113268898E+01 -0.2700545606671E+01 -0.4547943906781E+00
-0.1080909363731E+01 -0.4763430190599E+01 -0.2746839583568E+01 -0.4554191929077E+00
-0.1269289859208E+01 -0.4667936833415E+01 -0.2790496538455E+01 -0.4361643967587E+00
-0.1475591859987E+01 -0.4548376635634E+01 -0.2831265185761E+01 -0.3921877694894E+00
-0.1704324861137E+01 -0.4400606686691E+01 -0.2869317820201E+01 -0.3177237371654E+00
-0.1962998615902E+01 -0.4219371984817E+01 -0.2905714174968E+01 -0.2061545889958E+00
-0.2263100306733E+01 -0.3997661894497E+01 -0.2942558227115E+01 -0.5054763430697E-01
-0.2618847223791E+01 -0.3725365099059E+01 -0.2981779784177E+01  0.1551306370914E+00
 0.2815876298742E+00 -0.4842477913561E+01 -0.2143618427896E+01  0.2492123974146E+00
 0.2291011341142E+00 -0.4907744295120E+01 -0.2198962280096E+01  0.1951377640253E+00
 0.1687689490447E+00 -0.4970412856892E+01 -0.2256772630964E+01  0.1403490321894E+00
 0.9944981382658E-01 -0.5029178724688E+01 -0.2316972582228E+01  0.8535349066341E-01
 0.2002589403379E-01 -0.5083027327608E+01 -0.2379610667744E+01  0.3046476035352E-01
-0.7044393266499E-01 -0.5131148399737E+01 -0.2444748390028E+01 -0.2390960742240E-01
-0.1727866726120E+00 -0.5172790254833E+01 -0.2512421149527E+01 -0.7711317560172E-01
-0.2877938562795E+00 -0.5207112189280E+01 -0.2582605834863E+01 -0.1281995233489E+00
-0.4163159589569E+00 -0.5233129951676E+01 -0.2655239571263E+01 -0.1759376428123E+00
-0.5593244379972E+00 -0.5249683026009E+01 -0.2730233501158E+01 -0.2188199124078E+00
-0.7179776526577E+00 -0.5255420098444E+01 -0.2807496935897E+01 -0.2550565417095E+00
-0.8937006197432E+00 -0.5248771677875E+01 -0.2886961972558E+01 -0.2825547884420E+00
-0.1088305117550E+01 -0.5227904497260E+01 -0.2968618511431E+01 -0.2988887249337E+00
-0.1304173216376E+01 -0.5190649896601E+01 -0.3052566855357E+01 -0.3012688758799E+00
-0.1544535153106E+01 -0.5134402969027E+01 -0.3139100909440E+01 -0.2865277857130E+00
-0.1813866770718E+01 -0.5055984081293E+01 -0.3228829892255E+01 -0.2511506192225E+00
-0.2118433208777E+01 -0.4951473291829E+01 -0.3322856046857E+01 -0.1914016966637E+00
-0.2466814214901E+01 -0.4815929718708E+01 -0.3422889640115E+01 -0.1036195364869E+00
-0.2870205656792E+01 -0.4643037928336E+01 -0.3531224476053E+01  0.1530911182256E-01
-0.3341334476190E+01 -0.4423742351912E+01 -0.3649586099951E+01  0.1677823812473E+00
 0.2669606885073E+00 -0.4907373193438E+01 -0.2180993871785E+01  0.3593854737416E+00
 0.2109752449760E+00 -0.4985699024601E+01 -0.2244120170732E+01  0.3123444991027E+00
 0.1460612366693E+00 -0.5062976849984E+01 -0.2310950332396E+01  0.2641575891951E+00
 0.7106727237871E-01 -0.5138171345871E+01 -0.2381538908501E+01  0.2153267627670E+00
-0.1525848138961E-01 -0.5210314067910E+01 -0.2456019091942E+01  0.1662574175169E+00
-0.1141612893490E+00 -0.5278531447905E+01 -0.2534565580081E+01  0.1174060774144E+00
-0.2268767160555E+00 -0.5341970644680E+01 -0.2617358252907E+01  0.6939331099686E-01
-0.3546881591244E+00 -0.5399722099980E+01 -0.2704572814919E+01  0.2305824084531E-01
-0.4989919950243E+00 -0.5450756053523E+01 -0.2796381575724E+01 -0.2052586778403E-01
-0.6613683917851E+00 -0.5493886029271E+01 -0.2892969570559E+01 -0.6005214346329E-01
-0.8436548377822E+00 -0.5527739959276E+01 -0.2994555547022E+01 -0.9398437078716E-01
-0.1048037089237E+01 -0.5550731544253E+01 -0.3101421249874E+01 -0.1205630854326E+00
-0.1277169215755E+01 -0.5561022141107E+01 -0.3213949929573E+01 -0.1378186919110E+00
-0.1534336736024E+01 -0.5556469895866E+01 -0.3332679108535E+01 -0.1436027052344E+00
-0.1823671475500E+01 -0.5534563697067E+01 -0.3458370522335E+01 -0.1356544795902E+00
-0.2150420171372E+01 -0.5492345373480E+01 -0.3592099796969E+01 -0.1117283952613E+00
-0.2521228776345E+01 -0.5426311718068E+01 -0.3735344022900E+01 -0.6981197651321E-01
-0.2944418083433E+01 -0.5332331557429E+01 -0.3890072321339E+01 -0.8453551421633E-02
-0.3430157408107E+01 -0.5205513370168E+01 -0.4058765255495E+01  0.7283978381353E-01
-0.3992266222703E+01 -0.5041170908312E+01 -0.4245715440808E+01  0.1731343978707E+00
 0.2486109282293E+00 -0.4952500586607E+01 -0.2210828133830E+01  0.4701050964765E+00
 0.1890034499306E+00 -0.5041965045036E+01 -0.2280891943914E+01  0.4305522193346E+00
 0.1194916389111E+00 -0.5131680411584E+01 -0.2355728717181E+01  0.3895728381751E+00
 0.3881284681496E-01 -0.5220807710035E+01 -0.2435537579536E+01  0.3475688483668E+00
-0.5445024357717E-01 -0.5308469388871E+01 -0.2520572220857E+01  0.3049233682709E+00
-0.1618040587713E+00 -0.5393787674649E+01 -0.2611128108085E+01  0.2620647606938E+00
-0.2848394580465E+00 -0.5475862927992E+01 -0.2707530114571E+01  0.2195369553728E+00
-0.4252636202382E+00 -0.5553726296294E+01 -0.2810125253643E+01  0.1780441100149E+00
-0.5849517812983E+00 -0.5626295814879E+01 -0.2919286362799E+01  0.1384691338153E+00
-0.7660059882349E+00 -0.5692340687754E+01 -0.3035422930016E+01  0.1018740433743E+00
-0.9708217417392E+00 -0.5750454080991E+01 -0.3158999628671E+01  0.6948793436123E-01
-0.1202165298679E+01 -0.5799028416373E+01 -0.3290561037728E+01  0.4268309055915E-01
-0.1463267285232E+01 -0.5836230030463E+01 -0.3430763729675E+01  0.2293454948710E-01
-0.1757935127463E+01 -0.5859971242079E+01 -0.3580415984604E+01  0.1175409269906E-01
-0.2090682163720E+01 -0.5867881633430E+01 -0.3740524975173E+01  0.1058592360193E-01
-0.2466859094152E+01 -0.5857281527886E+01 -0.3912346082434E+01  0.2064899254655E-01
-0.2892772153436E+01 -0.5825173884846E+01 -0.4097434627600E+01  0.4271248841407E-01
-0.3375759194834E+01 -0.5768263196725E+01 -0.4297690513132E+01  0.7679707177774E-01
-0.3924418801055E+01 -0.5683173144491E+01 -0.4515568202953E+01  0.1217782606263E+00
-0.4548532275511E+01 -0.5566544812248E+01 -0.4754086219188E+01  0.1747046113942E+00
 0.2269692802682E+00 -0.4977350678722E+01 -0.2232679251610E+01  0.5803552667783E+00
 0.1637920929036E+00 -0.5075689895503E+01 -0.2308591961366E+01  0.5486434965367E+00
 0.8989298589447E-01 -0.5175395799689E+01 -0.2390186316421E+01  0.5152904457264E+00
 0.3854908935377E-02 -0.5275764950479E+01 -0.2477797713241E+01  0.4805637831747E+00
-0.9590645847906E-01 -0.5376006833702E+01 -0.2571799240802E+01  0.4447505357180E+00
-0.2111240782066E+00 -0.5475274508436E+01 -0.2672607328944E+01  0.4081813061457E+00
-0.3436793704426E+00 -0.5572657481596E+01 -0.2780678313406E+01  0.3712695729319E+00
-0.4956252760724E+00 -0.5667156108297E+01 -0.2896507243307E+01  0.3345417521493E+00
-0.6692227609984E+00 -0.5757651094170E+01 -0.3020630704268E+01  0.2986510434871E+00
-0.8669848452906E+00 -0.5842876784994E+01 -0.3153634958235E+01  0.2643754732129E+00
-0.1091724760206E+01 -0.5921399827580E+01 -0.3296168547899E+01  0.2326013085569E+00
-0.1346607977762E+01 -0.5991603129552E+01 -0.3448959211690E+01  0.2042909064173E+00
-0.1635207284522E+01 -0.6051674225777E+01 -0.3612834300677E+01  0.1804313629696E+00
-0.1961558010585E+01 -0.6099598813820E+01 -0.3788743697861E+01  0.1619581055425E+00
-0.2330205277439E+01 -0.6133161856309E+01 -0.3977782542773E+01  0.1496464497544E+00
-0.2746230699881E+01 -0.6149963100892E+01 -0.4181211075758E+01  0.1439647217448E+00
-0.3215237693506E+01 -0.6147454863752E+01 -0.4400465490750E+01  0.1448846219447E+00
-0.3743292975233E+01 -0.6123032743144E+01 -0.4637173075876E+01  0.1516441001962E+00
-0.4336695647182E+01 -0.6074131549520E+01 -0.4893088770039E+01  0.1624405429535E+00
-0.5001338504208E+01 -0.5998316503808E+01 -0.5169837840655E+01  0.1740659102195E+00
 0.2023825126900E+00 -0.4981741990893E+01 -0.2246298949058E+01  0.6890835718345E+00
 0.1358756579507E+00 -0.5086468918956E+01 -0.2326778826771E+01  0.6654533625075E+00
 0.5799326433704E-01 -0.5193515677050E+01 -0.2413695527853E+01  0.6399893226017E+00
-0.3281154997335E-01 -0.5302267982234E+01 -0.2507487373777E+01  0.6128164979126E+00
-0.1382678665391E+00 -0.5412014420931E+01 -0.2608632668494E+01  0.5840825496990E+00
-0.2602881797931E+00 -0.5521955751627E+01 -0.2717654640874E+01  0.5539683148213E+00
-0.4009762421552E+00 -0.5631200531790E+01 -0.2835123076563E+01  0.5227089521013E+00
-0.5626447851223E+00 -0.5738748726899E+01 -0.2961654943138E+01  0.4906121188013E+00
-0.7478406115068E+00 -0.5843471354162E+01 -0.3097916616007E+01  0.4580663492678E+00
-0.9593724590429E+00 -0.5944091724899E+01 -0.3244628158223E+01  0.4255372886573E+00
-0.1200338269019E+01 -0.6039171716441E+01 -0.3402569684536E+01  0.3935507337901E+00
-0.1474148866875E+01 -0.6127104623040E+01 -0.3572589131198E+01  0.3626609461629E+00
-0.1784544717904E+01 -0.6206115910556E+01 -0.3755610485850E+01  0.3334017415892E+00
-0.2135600422292E+01 -0.6274273536026E+01 -0.3952640750384E+01  0.3062173506331E+00
-0.2531708916090E+01 -0.6329510851923E+01 -0.4164773280403E+01  0.2813705863090E+00
-0.2977532957258E+01 -0.6369665931572E+01 -0.4393183466607E+01  0.2588277011601E+00
-0.3477909380875E+01 -0.6392544743054E+01 -0.4639113426480E+01  0.2381221788252E+00
-0.4037666434076E+01 -0.6396003610661E+01 -0.4903824908589E+01  0.2182024617693E+00
-0.4661298416075E+01 -0.6378055814275E+01 -0.5188496475104E+01  0.1972839299448E+00
-0.5352467382971E+01 -0.6337028176169E+01 -0.5494062898861E+01  0.1727672995644E+00
 0.1751647164834E+00 -0.4965724692645E+01 -0.2251563183085E+01  0.7952497295116E+00
 0.1056936991160E+00 -0.5074258277380E+01 -0.2335225345861E+01  0.7798047440047E+00
 0.2438007154667E-01 -0.5185879516213E+01 -0.2425904732840E+01  0.7623482865079E+00
-0.7040920401010E-01 -0.5300050892952E+01 -0.2524116239170E+01  0.7428589830737E+00
-0.1805028626485E+00 -0.5416136067568E+01 -0.2630420290530E+01  0.7213215749001E+00
-0.3079359729434E+00 -0.5533397005440E+01 -0.2745426492877E+01  0.6977336222101E+00
-0.4549614814421E+00 -0.5650986396375E+01 -0.2869795495295E+01  0.6721174959106E+00
-0.6240650892753E+00 -0.5767934805248E+01 -0.3004239942806E+01  0.6445311987761E+00
-0.8179815109619E+00 -0.5883135719945E+01 -0.3149525090538E+01  0.6150734475560E+00
-0.1039708829848E+01 -0.5995332543645E+01 -0.3306469437155E+01  0.5838804952270E+00
-0.1292517191170E+01 -0.6103110706981E+01 -0.3475945103315E+01  0.5511131375983E+00
-0.1579948050631E+01 -0.6204897452157E+01 -0.3658877377030E+01  0.5169324653612E+00
-0.1905799740213E+01 -0.6298971467706E+01 -0.3856242457941E+01  0.4814628540513E+00
-0.2274094338278E+01 -0.6383484620014E+01 -0.4069062100077E+01  0.4447410508128E+00
-0.2689019472638E+01 -0.6456497993266E+01 -0.4298393198073E+01  0.4066514872311E+00
-0.3154837415598E+01 -0.6516034671957E+01 -0.4545309869622E+01  0.3668504168033E+00
-0.3675749248026E+01 -0.6560149432732E+01 -0.4810872367754E+01  0.3246852975070E+00
-0.4255700852869E+01 -0.6587017099295E+01 -0.5096077424591E+01  0.2791232344371E+00
-0.4898127348441E+01 -0.6595044413386E+01 -0.5401790714358E+01  0.2287151825460E+00
-0.5605669245646E+01 -0.6583014202066E+01 -0.5728681205895E+01  0.1716365535883E+00
 0.1456060766932E+00 -0.4929560701227E+01 -0.2248458667828E+01  0.8978529921923E+00
 0.7361256264778E-01 -0.5039291653916E+01 -0.2333869166976E+01  0.8905499394674E+00
-0.1048637934074E-01 -0.5152674709374E+01 -0.2426685705541E+01  0.8810809577331E+00
-0.1083577524254E+00 -0.5269250034900E+01 -0.2527475653632E+01  0.8692761865990E+00
-0.2218744895412E+00 -0.5388460685425E+01 -0.2636857525546E+01  0.8549465414443E+00
-0.3531295468369E+00 -0.5509643559311E+01 -0.2755503352901E+01  0.8378887444130E+00
-0.5044494340383E+00 -0.5632019050014E+01 -0.2884140180189E+01  0.8178926989171E+00
-0.6784073585041E+00 -0.5754678595239E+01 -0.3023550390591E+01  0.7947485384626E+00
-0.8778340755660E+00 -0.5876571925866E+01 -0.3174570812621E+01  0.7682509242701E+00
-0.1105823194535E+01 -0.5996496727333E+01 -0.3338090354811E+01  0.7381989566100E+00
-0.1365727130390E+01 -0.6113093622305E+01 -0.3515045744851E+01  0.7043905762487E+00
-0.1661139612964E+01 -0.6224849257510E+01 -0.3706414759722E+01  0.6666105157542E+00
-0.1995860650482E+01 -0.6330110189454E+01 -0.3913206284845E+01  0.6246109925195E+00
-0.2373840020474E+01 -0.6427110037916E+01 -0.4136446516952E+01  0.5780847993510E+00
-0.2799095930006E+01 -0.6514011909818E+01 -0.4377160673615E+01  0.5266316328462E+00
-0.3275606049910E+01 -0.6588966805994E+01 -0.4636349230515E+01  0.4697207466668E+00
-0.3807170110869E+01 -0.6650187679531E+01 -0.4914958149022E+01  0.4066568264898E+00
-0.4397248326347E+01 -0.6696037749600E+01 -0.5213844442471E+01  0.3365613596813E+00
-0.5048791814185E+01 -0.6725130898855E+01 -0.5533743661093E+01  0.2583868628576E+00
-0.5764097898723E+01 -0.6736438047386E+01 -0.5875251879769E+01  0.1709806415226E+00
 0.1139792624178E+00 -0.4873716837786E+01 -0.2237076654749E+01  0.9959366709566E+00
 0.3994028538076E-01 -0.4982049070987E+01 -0.2322791123344E+01  0.9965852712139E+00
-0.4625313192873E-01 -0.5094382156666E+01 -0.2416098579511E+01  0.9949479202774E+00
-0.1462482243894E+00 -0.5210338508215E+01 -0.2517595757938E+01  0.9907085686154E+00
-0.2619021575760E+00 -0.5329448093931E+01 -0.2627934611543E+01  0.9835035531771E+00
-0.3952978282979E+00 -0.5451137163482E+01 -0.2747824439167E+01  0.9729246841239E+00
-0.5487587792201E+00 -0.5574716083377E+01 -0.2878033178121E+01  0.9585236849008E+00
-0.7248624025095E+00 -0.5699366246475E+01 -0.3019387457365E+01  0.9398172881734E+00
-0.9264491658743E+00 -0.5824127270257E+01 -0.3172770916935E+01  0.9162922067475E+00
-0.1156624596590E+01 -0.5947886550899E+01 -0.3339120230851E+01  0.8874094988682E+00
-0.1418750088920E+01 -0.6069373678791E+01 -0.3519418161897E+01  0.8526080812194E+00
-0.1716418316813E+01 -0.6187162516420E+01 -0.3714682982198E+01  0.8113071849348E+00
-0.2053409228747E+01 -0.6299683916845E+01 -0.3925953768470E+01  0.7629074689165E+00
-0.2433623550464E+01 -0.6405252023710E+01 -0.4154271509325E+01  0.7067904896572E+00
-0.2860992595132E+01 -0.6502106475865E+01 -0.4400656552207E+01  0.6423165730656E+00
-0.3339366331916E+01 -0.6588471494421E+01 -0.4666083766543E+01  0.5688222463240E+00
-0.3872386148069E+01 -0.6662630461625E+01 -0.4951457793997E+01  0.4856205334215E+00
-0.4463354627417E+01 -0.6723011439204E+01 -0.5257592037977E+01  0.3920101765142E+00
-0.5115120543080E+01 -0.6768275117951E+01 -0.5585195946518E+01  0.2873013697129E+00
-0.5829998781879E+01 -0.6797391861110E+01 -0.5934873587152E+01  0.1708630674746E+00
 0.8054464405511E-01 -0.4798862981388E+01 -0.2217609612922E+01  0.1088585015692E+01
 0.4940954474907E-02 -0.4903246778588E+01 -0.2302203731494E+01  0.1096849820778E+01
-0.8265382244780E-01 -0.5011756117972E+01 -0.2394372665924E+01  0.1102752095772E+01
-0.1838143725785E+00 -0.5124098172693E+01 -0.2494718889950E+01  0.1105838344858E+01
-0.3003219868548E+00 -0.5239896496471E+01 -0.2603902680559E+01  0.1105579096001E+01
-0.4341813136414E+00 -0.5358679375035E+01 -0.2722644516772E+01  0.1101369205394E+01
-0.5876370053290E+00 -0.5479866892286E+01 -0.2851726824646E+01  0.1092529450030E+01
-0.7631889565005E+00 -0.5602756946068E+01 -0.2991994566618E+01  0.1078309866853E+01
-0.9636038648181E+00 -0.5726511143557E+01 -0.3144354045961E+01  0.1057895289186E+01
-0.1191919945871E+01 -0.5850142100937E+01 -0.3309769153605E+01  0.1030413755945E+01
-0.1451440872828E+01 -0.5972504191342E+01 -0.3489254171310E+01  0.9949486369725E+00
-0.1745714483630E+01 -0.6092290297075E+01 -0.3683862237588E+01  0.9505552607165E+00
-0.2078491790488E+01 -0.6208037676130E+01 -0.3894668839432E+01  0.8962824413418E+00
-0.2453662763721E+01 -0.6318146493931E+01 -0.4122750340640E+01  0.8311985460844E+00
-0.2875167828092E+01 -0.6420914582959E+01 -0.4369158722112E+01  0.7544207405941E+00
-0.3346888328392E+01 -0.6514590919492E+01 -0.4634895234750E+01  0.6651451597486E+00
-0.3872525177370E+01 -0.6597447533633E+01 -0.4920887161690E+01  0.5626755158128E+00
-0.4455480813402E+01 -0.6667864597051E+01 -0.5227972329653E+01  0.4464484747177E+00
-0.5098762329275E+01 -0.6724416991661E+01 -0.5556894266745E+01  0.3160557947954E+00
-0.5804921110064E+01 -0.6765946422630E+01 -0.5908307725381E+01  0.1712646290682E+00
 0.4555822039104E-01 -0.4705869885170E+01 -0.2190346476891E+01  0.1174920205571E+01
-0.3115082751090E-01 -0.4803835474958E+01 -0.2272443556397E+01  0.1190320395250E+01
-0.1194866202095E+00 -0.4905820518808E+01 -0.2361894349348E+01  0.1203329360047E+01
-0.2209021349538E+00 -0.5011615067773E+01 -0.2459283079044E+01  0.1213371864162E+01
-0.3370454851947E+00 -0.5120938779800E+01 -0.2565252598041E+01  0.1219770499670E+01
-0.4697772084251E+00 -0.5233430164986E+01 -0.2680507458704E+01  0.1221742261550E+01
-0.6211889780180E+00 -0.5348633860693E+01 -0.2805816727078E+01  0.1218396528525E+01
-0.7936225206083E+00 -0.5465986118211E+01 -0.2942016052783E+01  0.1208735608659E+01
-0.9896868774133E+00 -0.5584799047598E+01 -0.3090008376918E+01  0.1191659208438E+01
-0.1212271331310E+01 -0.5704244540887E+01 -0.3250762451687E+01  0.1165974542198E+01
-0.1464550391853E+01 -0.5823339232561E+01 -0.3425308114787E+01  0.1130414117377E+01
-0.1749976240143E+01 -0.5940932452946E+01 -0.3614727076584E+01  0.1083663302259E+01
-0.2072253194325E+01 -0.6055699966880E+01 -0.3820137976077E+01  0.1024399343787E+01
-0.2435288663139E+01 -0.6166147456696E+01 -0.4042674966069E+01  0.9513422230979E+00
-0.2843116538825E+01 -0.6270628882681E+01 -0.4283460337243E+01  0.8633153544175E+00
-0.3299793108119E+01 -0.6367385370988E+01 -0.4543573873656E+01  0.7593107581116E+00
-0.3809272509040E+01 -0.6454608662324E+01 -0.4824024138306E+01  0.6385498167540E+00
-0.4375277355046E+01 -0.6530528221861E+01 -0.5125728608145E+01  0.5005287496843E+00
-0.5001186271790E+01 -0.6593512097531E+01 -0.5449508219759E+01  0.3450397159353E+00
-0.5689957876484E+01 -0.6642160759792E+01 -0.5796095744349E+01  0.1721652402323E+00
 0.9281039015253E-02 -0.4595808906734E+01 -0.2155668092360E+01  0.1254103346074E+01
-0.6811333625835E-01 -0.4685002864808E+01 -0.2233964608835E+01  0.1276010258542E+01
-0.1565893780358E+00 -0.4777874732213E+01 -0.2319198125935E+01  0.1295543369286E+01
-0.2574351753041E+00 -0.4874289567189E+01 -0.2411910622854E+01  0.1312027780487E+01
-0.3721138423249E+00 -0.4974059078259E+01 -0.2512701266301E+01  0.1324664251485E+01
-0.5022807413154E+00 -0.5076932936632E+01 -0.2622230421985E+01  0.1332521232658E+01
-0.6498039855745E+00 -0.5182587376172E+01 -0.2741223933068E+01  0.1334528123451E+01
-0.8167876513696E+00 -0.5290611100745E+01 -0.2870477406213E+01  0.1329471261949E+01
-0.1005596679014E+01 -0.5400488527350E+01 -0.3010860039354E+01  0.1315994560523E+01
-0.1218881821085E+01 -0.5511580537578E+01 -0.3163317300548E+01  0.1292607297260E+01
-0.1459602019818E+01 -0.5623103165931E+01 -0.3328871428859E+01  0.1257702224721E+01
-0.1731040109527E+01 -0.5734105092479E+01 -0.3508618236044E+01  0.1209587681862E+01
-0.2036805735976E+01 -0.5843445677919E+01 -0.3703718155137E+01  0.1146537464779E+01
-0.2380817043489E+01 -0.5949776807824E+01 -0.3915379100186E+01  0.1066861246117E+01
-0.2767251329272E+01 -0.6051534597912E+01 -0.4144829375264E+01  0.9689954311456E+00
-0.3200456102671E+01 -0.6146950219049E+01 -0.4393280960065E+01  0.8516087565307E+00
-0.3684818513387E+01 -0.6234091495780E+01 -0.4661887692484E+01  0.7137090336430E+00
-0.4224603444024E+01 -0.6310945007742E+01 -0.4951707759771E+01  0.5547296592160E+00
-0.4823787553658E+01 -0.6375540132355E+01 -0.5263683999076E+01  0.3745715252845E+00
-0.5485927729341E+01 -0.6426097231156E+01 -0.5598651717233E+01  0.1735840335218E+00
-0.2800924578902E-01 -0.4469952243625E+01 -0.2114041894663E+01  0.1325338954827E+01
-0.1057179926738E+00 -0.4548178581693E+01 -0.2187331384404E+01  0.1352971698023E+01
-0.1938104119171E+00 -0.4629505025758E+01 -0.2266958249958E+01  0.1378285017085E+01
-0.2933745030549E+00 -0.4713856599518E+01 -0.2353398612240E+01  0.1400531282485E+01
-0.4056447764242E+00 -0.4801124701697E+01 -0.2447181648510E+01  0.1418822161723E+01
-0.5320180197258E+00 -0.4891161374479E+01 -0.2548894308811E+01  0.1432115666669E+01
-0.6740744018101E+00 -0.4983770595856E+01 -0.2659187142158E+01  0.1439203732072E+01
-0.8336040282173E+00 -0.5078696135920E+01 -0.2778781070096E+01  0.1438701777648E+01
-0.1012639161692E+01 -0.5175605405597E+01 -0.2908474939249E+01  0.1429042295138E+01
-0.1213492150723E+01 -0.5274068736537E+01 -0.3049153609278E+01  0.1408475326635E+01
-0.1438798349876E+01 -0.5373533411488E+01 -0.3201795919720E+01  0.1375079734715E+01
-0.1691561818517E+01 -0.5473291831757E+01 -0.3367481207088E+01  0.1326790391652E+01
-0.1975198726534E+01 -0.5572443602012E+01 -0.3547391885419E+01  0.1261447627505E+01
-0.2293568742340E+01 -0.5669852594879E+01 -0.3742808019000E+01  0.1176875902683E+01
-0.2650977774377E+01 -0.5764102708772E+01 -0.3955087817049E+01  0.1070997447830E+01
-0.3052130505933E+01 -0.5853463353777E+01 -0.4185629103447E+01  0.9419809882436E+00
-0.3502011145771E+01 -0.5935884083153E+01 -0.4435810746344E+01  0.7884135771452E+00
-0.4005683515124E+01 -0.6009044867887E+01 -0.4706922328077E+01  0.6094663076075E+00
-0.4568028838682E+01 -0.6070486161881E+01 -0.5000102037583E+01  0.4050082755072E+00
-0.5193485232237E+01 -0.6117830098402E+01 -0.5316318191916E+01  0.1756178372081E+00
-0.6600493459119E-01 -0.4329771027303E+01 -0.2066014696850E+01  0.1387884543435E+01
-0.1437076798084E+00 -0.4395038248788E+01 -0.2133210581030E+01  0.1420305682748E+01
-0.2309760581916E+00 -0.4462596762657E+01 -0.2205979220204E+01  0.1450481418700E+01
-0.3286732836471E+00 -0.4532409688465E+01 -0.2284708991098E+01  0.1477620866647E+01
-0.4377724813020E+00 -0.4604426318973E+01 -0.2369833430118E+01  0.1500783399095E+01
-0.5593695600848E+00 -0.4678580570970E+01 -0.2461836555352E+01  0.1518861048397E+01
-0.6947026827100E+00 -0.4754786613108E+01 -0.2561259962538E+01  0.1530560092418E+01
-0.8451792516768E+00 -0.4832930395831E+01 -0.2668711527560E+01  0.1534382877400E+01
-0.1012412401031E+01 -0.4912856457289E+01 -0.2784876356347E+01  0.1528611637173E+01
-0.1198268961297E+01 -0.4994348730916E+01 -0.2910530307958E+01  0.1511296860223E+01
-0.1404931001130E+01 -0.5077103664973E+01 -0.3046556285341E+01  0.1480254026455E+01
-0.1634972399925E+01 -0.5160693455774E+01 -0.3193962944078E+01  0.1433074409414E+01
-0.1891449701021E+01 -0.5244516800985E+01 -0.3353904247436E+01  0.1367158250984E+01
-0.2178000969244E+01 -0.5327734410846E+01 -0.3527695619695E+01  0.1279781915816E+01
-0.2498935840148E+01 -0.5409187976289E+01 -0.3716818184298E+01  0.1168213817507E+01
-0.2859279479244E+01 -0.5487304078905E+01 -0.3922894262380E+01  0.1029894288800E+01
-0.3264721266391E+01 -0.5560006742511E+01 -0.4147622153664E+01  0.8626836043802E+00
-0.3721416660034E+01 -0.5624682961354E+01 -0.4392666810911E+01  0.6651541657620E+00
-0.4235616254026E+01 -0.5678258107280E+01 -0.4659520937996E+01  0.4368642479067E+00
-0.4813158598099E+01 -0.5717436179158E+01 -0.4949379532758E+01  0.1785139335151E+00
-0.1043552431316E+00 -0.4176932314547E+01 -0.2012205147005E+01  0.1441064595262E+01
-0.1817732939091E+00 -0.4227504787819E+01 -0.2072360693156E+01  0.1477178244557E+01
-0.2678557495024E+00 -0.4279345071104E+01 -0.2137184380264E+01  0.1511115138799E+01
-0.3632273367295E+00 -0.4332425938677E+01 -0.2206957033844E+01  0.1542069611115E+01
-0.4685801393230E+00 -0.4386722678807E+01 -0.2281992318733E+01  0.1569085824753E+01
-0.5846822142531E+00 -0.4442218340673E+01 -0.2362643254823E+01  0.1591036906874E+01
-0.7123913036816E+00 -0.4498904172277E+01 -0.2449308867488E+01  0.1606601008988E+01
-0.8526779740683E+00 -0.4556776536055E+01 -0.2542443613310E+01  0.1614235332187E+01
-0.1006660618356E+01 -0.4615829126888E+01 -0.2642570173562E+01  0.1612149030352E+01
-0.1175656226340E+01 -0.4676038965767E+01 -0.2750296733315E+01  0.1598276431224E+01
-0.1361252079224E+01 -0.4737343786657E+01 -0.2866340049694E+01  0.1570253138512E+01
-0.1565404792388E+01 -0.4799607453044E+01 -0.2991555747765E+01  0.1525399589319E+01
-0.1790573561744E+01 -0.4862568721574E+01 -0.3126976865228E+01  0.1460720081086E+01
-0.2039892488510E+01 -0.4925767085717E+01 -0.3273859991583E+01  0.1372930983111E+01
-0.2317377325191E+01 -0.4988436712682E+01 -0.3433732589091E+01  0.1258540797638E+01
-0.2628139920376E+01 -0.5049359455535E+01 -0.3608424697526E+01  0.1114016809317E+01
-0.2978514875721E+01 -0.5106657533776E+01 -0.3800031022826E+01  0.9360833562494E+00
-0.3375987641677E+01 -0.5157591172820E+01 -0.4010782032641E+01  0.7221709769470E+00
-0.3828815153243E+01 -0.5198476626193E+01 -0.4242827125574E+01  0.4709592366881E+00
-0.4345248436412E+01 -0.5224809768964E+01 -0.4497927345118E+01  0.1828769761728E+00
-0.1426599859553E+00 -0.4013290014223E+01 -0.1953296495130E+01  0.1484292650665E+01
-0.2195442514239E+00 -0.4047745631253E+01 -0.2005626239771E+01  0.1522851333986E+01
-0.3041463371678E+00 -0.4082265299209E+01 -0.2061613463868E+01  0.1559265054738E+01
-0.3968477542987E+00 -0.4116793221611E+01 -0.2121411253297E+01  0.1592735727585E+01
-0.4980574885366E+00 -0.4151291887308E+01 -0.2185194201104E+01  0.1622325346947E+01
-0.6082076643210E+00 -0.4185749583142E+01 -0.2253159900593E+01  0.1646932465916E+01
-0.7277587730988E+00 -0.4220186367116E+01 -0.2325534210002E+01  0.1665264280202E+01
-0.8572137785536E+00 -0.4254657018210E+01 -0.2402579268385E+01  0.1675804553025E+01
-0.9971442262093E+00 -0.4289250461009E+01 -0.2484605496691E+01  0.1676776975449E+01
-0.1148233097012E+01 -0.4324084112335E+01 -0.2571989081870E+01  0.1666103585168E+01
-0.1311341788531E+01 -0.4359290705162E+01 -0.2665197265276E+01  0.1641358350427E+01
-0.1487612072111E+01 -0.4394993847957E+01 -0.2764824775419E+01  0.1599717284494E+01
-0.1678618499029E+01 -0.4431266800844E+01 -0.2871646083657E+01  0.1537909223496E+01
-0.1886591936613E+01 -0.4468066132453E+01 -0.2986689284886E+01  0.1452177172186E+01
-0.2114739145917E+01 -0.4505127995117E+01 -0.3111337548395E+01  0.1338271828522E+01
-0.2367672292906E+01 -0.4541803566844E+01 -0.3247453645846E+01  0.1191521842567E+01
-0.2651926929758E+01 -0.4576804701452E+01 -0.3397503858051E+01  0.1007066900647E+01
-0.2976261272320E+01 -0.4607707679640E+01 -0.3564465398380E+01  0.7803992362882E+00
-0.3351502012061E+01 -0.4630469771246E+01 -0.3751526728639E+01  0.5082725833778E+00
-0.3789831625163E+01 -0.4639359028885E+01 -0.3961719597354E+01  0.1897854166999E+00
-0.1804784081764E+00 -0.3840861767595E+01 -0.1890029877819E+01  0.1517110486284E+01
-0.2566139695955E+00 -0.3858168905216E+01 -0.1933947946256E+01  0.1556743066235E+01
-0.3394963345600E+00 -0.3874197970810E+01 -0.1980436318501E+01  0.1594185989773E+01
-0.4292841217987E+00 -0.3888831506439E+01 -0.2029514340124E+01  0.1628662742268E+01
-0.5261180201746E+00 -0.3901976536006E+01 -0.2081204436126E+01  0.1659276788897E+01
-0.6301077127127E+00 -0.3913576470163E+01 -0.2135531560535E+01  0.1684986245399E+01
-0.7413257278076E+00 -0.3923620831438E+01 -0.2192524877284E+01  0.1704574613960E+01
-0.8598084168657E+00 -0.3932153654845E+01 -0.2252222167992E+01  0.1716616128866E+01
-0.9855658924500E+00 -0.3939280128294E+01 -0.2314677623879E+01  0.1719433847832E+01
-0.1118605246339E+01 -0.3945170532829E+01 -0.2379974610173E+01  0.1711048035042E+01
-0.1258974424746E+01 -0.3950059599179E+01 -0.2448245985035E+01  0.1689111832938E+01
-0.1406838995453E+01 -0.3954238178430E+01 -0.2519706265334E+01  0.1650830838866E+01
-0.1562611898975E+01 -0.3958032320473E+01 -0.2594702776559E+01  0.1592863448614E+01
-0.1727169478976E+01 -0.3961762300358E+01 -0.2673797929505E+01  0.1511200909482E+01
-0.1902208056550E+01 -0.3965669510657E+01 -0.2757902449592E+01  0.1401032986584E+01
-0.2090830788568E+01 -0.3969793968165E+01 -0.2848493628440E+01  0.1256625061732E+01
-0.2298474012778E+01 -0.3973754318192E+01 -0.2947947308079E+01  0.1071285076275E+01
-0.2534319350564E+01 -0.3976388407030E+01 -0.3060032638308E+01  0.8376407701598E+00
-0.2811877474087E+01 -0.3974288554596E+01 -0.3189498025391E+01  0.5487627536805E+00
-0.3148345659214E+01 -0.3960521334608E+01 -0.3341167478622E+01  0.2002506588763E+00
-0.2173135463063E+00 -0.3661798220084E+01 -0.1823182525579E+01  0.1539208502078E+01
-0.2924797943696E+00 -0.3661361642851E+01 -0.1858305470780E+01  0.1578455778545E+01
-0.3734223699558E+00 -0.3658234122037E+01 -0.1894878546430E+01  0.1615348329588E+01
-0.4601070613552E+00 -0.3652205779530E+01 -0.1932787030314E+01  0.1649135560411E+01
-0.5524374027700E+00 -0.3643090658757E+01 -0.1971898183916E+01  0.1678971339098E+01
-0.6502340290743E+00 -0.3630739269692E+01 -0.2012057445317E+01  0.1703889242313E+01
-0.7532176170728E+00 -0.3615049901419E+01 -0.2053085728484E+01  0.1722775020315E+01
-0.8609947059414E+00 -0.3595979730609E+01 -0.2094777979865E+01  0.1734333913470E+01
-0.9730469307219E+00 -0.3573556149505E+01 -0.2136903442287E+01  0.1737049854611E+01
-0.1088725755197E+01 -0.3547888146539E+01 -0.2179208528289E+01  0.1729132524918E+01
-0.1207257237025E+01 -0.3519176971152E+01 -0.2221424072209E+01  0.1708446627074E+01
-0.1327765468134E+01 -0.3487724403321E+01 -0.2263280233843E+01  0.1672415439882E+01
-0.1449330960271E+01 -0.3453935632814E+01 -0.2304535292905E+01  0.1617887472228E+01
-0.1571114945509E+01 -0.3418311738116E+01 -0.2345030535356E+01  0.1540950643989E+01
-0.1692610975065E+01 -0.3381424514832E+01 -0.2384796674203E+01  0.1436673303328E+01
-0.1814147600854E+01 -0.3343862807284E+01 -0.2424264885676E+01  0.1298748235714E+01
-0.1937916276760E+01 -0.3306149391443E+01 -0.2464710857804E+01  0.1119029651380E+01
-0.2070063918310E+01 -0.3268603400947E+01 -0.2509173633686E+01  0.8870319605769E+00
-0.2225411608487E+01 -0.3231489335397E+01 -0.2564743437120E+01  0.5899587195551E+00
-0.2427756933410E+01 -0.3189358806550E+01 -0.2640044391085E+01  0.2155968191806E+00
-0.2526197883747E+00 -0.3478340888249E+01 -0.1753551513565E+01  0.1550455095623E+01
-0.3265456585104E+00 -0.3460040428140E+01 -0.1779695456211E+01  0.1587815887275E+01
-0.4052924072618E+00 -0.3437648938802E+01 -0.1806182428069E+01  0.1622499937188E+01
-0.4886675083947E+00 -0.3410846639476E+01 -0.1832771644851E+01  0.1653775461484E+01
-0.5763771608285E+00 -0.3379331146950E+01 -0.1859182899940E+01  0.1680838487543E+01
-0.6680003242073E+00 -0.3342827201796E+01 -0.1885088932440E+01  0.1702790492147E+01
-0.7629627434657E+00 -0.3301095815987E+01 -0.1910107518098E+01  0.1718614996038E+01
-0.8605091179343E+00 -0.3253943858474E+01 -0.1933792894007E+01  0.1727150628279E+01
-0.9596719143455E+00 -0.3201234917895E+01 -0.1955626206193E+01  0.1727057544573E+01
-0.1059235662768E+01 -0.3142902101032E+01 -0.1975004743977E+01  0.1716772790832E+01
-0.1157696116900E+01 -0.3078963147179E+01 -0.1991229849067E+01  0.1694448061139E+01
-0.1253214841095E+01 -0.3009537820456E+01 -0.2003493745848E+01  0.1657859820113E+01
-0.1343572530594E+01 -0.2934866807922E+01 -0.2010866484002E+01  0.1604275982471E+01
-0.1426131147567E+01 -0.2855330159372E+01 -0.2012286809157E+01  0.1530253450286E+01
-0.1497831833408E+01 -0.2771461295464E+01 -0.2006567765480E+01  0.1431323243934E+01
-0.1555301002700E+01 -0.2683951393847E+01 -0.1992448621323E+01  0.1301487935490E+01
-0.1595268450143E+01 -0.2593645830394E+01 -0.1968789706859E+01  0.1132394331259E+01
-0.1615915218618E+01 -0.2501592977379E+01 -0.1935228847210E+01  0.9119393601596E+00
-0.1621566185095E+01 -0.2409718513683E+01 -0.1894703803620E+01  0.6218342673757E+00
-0.1642881918132E+01 -0.2327112703755E+01 -0.1865897467554E+01  0.2354349671287E+00
-0.2858244766608E+00 -0.3292769835196E+01 -0.1681939322307E+01  0.1550930732363E+01
-0.3581504708849E+00 -0.3256984901859E+01 -0.1699113620880E+01  0.1584923250748E+01
-0.4343575360927E+00 -0.3215818774342E+01 -0.1715582861553E+01  0.1615740990582E+01
-0.5141275172701E+00 -0.3168846718981E+01 -0.1730997886648E+01  0.1642653881908E+01
-0.5970092211863E+00 -0.3115652545211E+01 -0.1744951025781E+01  0.1664876169930E+01
-0.6823902992826E+00 -0.3055833370112E+01 -0.1756965120159E+01  0.1681546456264E+01
-0.7694660512078E+00 -0.2989003636764E+01 -0.1766480748866E+01  0.1691708328429E+01
-0.8572025114056E+00 -0.2914799041230E+01 -0.1772840725242E+01  0.1694289677451E+01
-0.9442904757029E+00 -0.2832881323054E+01 -0.1775270740913E+01  0.1688078348095E+01
-0.1029086053838E+01 -0.2742944954307E+01 -0.1772854569331E+01  0.1671690651478E+01
-0.1109531681370E+01 -0.2644726748066E+01 -0.1764501457360E+01  0.1643527406751E+01
-0.1183048834640E+01 -0.2538019354500E+01 -0.1748902044460E+01  0.1601709042541E+01
-0.1246389261538E+01 -0.2422689455021E+01 -0.1724466992409E+01  0.1543975736333E+01
-0.1295424106900E+01 -0.2298700808743E+01 -0.1689238706068E+01  0.1467528236233E+01
-0.1324837739475E+01 -0.2166140225606E+01 -0.1640759639427E+01  0.1368764747356E+01
-0.1327672664261E+01 -0.2025238972850E+01 -0.1575868465445E+01  0.1242826769002E+01
-0.1294630438484E+01 -0.1876359573710E+01 -0.1490365301951E+01  0.1082770111010E+01
-0.1213069591022E+01 -0.1719924313149E+01 -0.1378507131464E+01  0.8779248590084E+00
-0.1065239417027E+01 -0.1555750073672E+01 -0.1231865057504E+01  0.6102605615685E+00
-0.8357872877911E+00 -0.1386912017738E+01 -0.1044668670949E+01  0.2437410179777E+00
-0.3163591206594E+00 -0.3107336668438E+01 -0.1609137016794E+01  0.1540957249730E+01
-0.3866128255708E+00 -0.3054946226617E+01 -0.1617532750426E+01  0.1570196644224E+01
-0.4598125655435E+00 -0.2996098354626E+01 -0.1624278128360E+01  0.1595595906517E+01
-0.5355383839316E+00 -0.2930296882038E+01 -0.1628942570874E+01  0.1616406252120E+01
-0.6132122254463E+00 -0.2857050353085E+01 -0.1631023407773E+01  0.1631829300891E+01
-0.6920702145696E+00 -0.2775872963024E+01 -0.1629933289335E+01  0.1640997410699E+01
-0.7711298939801E+00 -0.2686283974553E+01 -0.1624984514089E+01  0.1642954752428E+01
-0.8491497768480E+00 -0.2587806008790E+01 -0.1615369215153E+01  0.1636638204305E+01
-0.9245767667218E+00 -0.2479963355132E+01 -0.1600133853213E+01  0.1620856591987E+01
-0.9954749510421E+00 -0.2362281629139E+01 -0.1578145588683E+01  0.1594265849338E+01
-0.1059426204857E+01 -0.2234290191127E+01 -0.1548046702186E+01  0.1555336458541E+01
-0.1113387747733E+01 -0.2095528998374E+01 -0.1508190866845E+01  0.1502307750158E+01
-0.1153482189657E+01 -0.1945562108131E+01 -0.1456550816266E+01  0.1433120642621E+01
-0.1174677488426E+01 -0.1784000780971E+01 -0.1390578783090E+01  0.1345314889575E+01
-0.1170278046400E+01 -0.1610539190531E+01 -0.1306984098042E+01  0.1235866180286E+01
-0.1131068778319E+01 -0.1425000846920E+01 -0.1201352720815E+01  0.1100915980102E+01
-0.1043772887514E+01 -0.1227377100619E+01 -0.1067440491715E+01  0.9352965327583E+00
-0.8878700583830E+00 -0.1017664224193E+01 -0.8956011105390E+00  0.7316147325111E+00
-0.6285553333980E+00 -0.7952108313433E+00 -0.6691700957311E+00  0.4782756932926E+00
-0.1840255767910E+00 -0.5456584553582E+00 -0.3429514942403E+00  0.1530790907621E+00
-0.3437025878765E+00 -0.2924183655499E+01 -0.1535906530491E+01  0.1521116572844E+01
-0.4112978024009E+00 -0.2856531825489E+01 -0.1535879921213E+01  0.1544406279243E+01
-0.4808939556172E+00 -0.2781656699335E+01 -0.1533398803938E+01  0.1563071022733E+01
-0.5519804771012E+00 -0.2699051336748E+01 -0.1527984948633E+01  0.1576334336727E+01
-0.6238681312252E+00 -0.2608223653734E+01 -0.1519083135078E+01  0.1583370750815E+01
-0.6956615203342E+00 -0.2508698931916E+01 -0.1506049408738E+01  0.1583285233228E+01
-0.7662261610219E+00 -0.2400020138422E+01 -0.1488135756964E+01  0.1575092547671E+01
-0.8341478021863E+00 -0.2281747345128E+01 -0.1464470715523E+01  0.1557697420135E+01
-0.8976788929208E+00 -0.2153458667745E+01 -0.1434034649876E+01  0.1529875178311E+01
-0.9546649157636E+00 -0.2014755406339E+01 -0.1395627547848E+01  0.1490251617003E+01
-0.1002440248297E+01 -0.1865274326100E+01 -0.1347825846548E+01  0.1437280531460E+01
-0.1037677915068E+01 -0.1704710913641E+01 -0.1288922746224E+01  0.1369217642711E+01
-0.1056167965888E+01 -0.1532859467815E+01 -0.1216842890754E+01  0.1284090660149E+01
-0.1052481240785E+01 -0.1349679597581E+01 -0.1129015591168E+01  0.1179667669268E+01
-0.1019440568988E+01 -0.1155405330144E+01 -0.1022177570000E+01  0.1053431856925E+01
-0.9472495166093E+00 -0.9507243709033E+00 -0.8920477248684E+00  0.9025856322307E+00
-0.8219635501920E+00 -0.7370717908389E+00 -0.7327466084260E+00  0.7241472014053E+00
-0.6226069909377E+00 -0.5171434336260E+00 -0.5356826981863E+00  0.5153412733903E+00
-0.3147124425929E+00 -0.2955132137523E+00 -0.2868060577548E+00  0.2748962093610E+00
 0.1642079282999E+00 -0.8217077481094E-01  0.3855746204201E-01  0.9897631291982E-02
-0.3674300576242E+00 -0.2745253315441E+01 -0.1462961181630E+01  0.1492240428802E+01
-0.4316978264983E+00 -0.2664072229981E+01 -0.1455011922855E+01  0.1508655503708E+01
-0.4970046263712E+00 -0.2575278233074E+01 -0.1443972940277E+01  0.1519621703389E+01
-0.5627532477324E+00 -0.2478426223618E+01 -0.1429354347909E+01  0.1524348702033E+01
-0.6281510242266E+00 -0.2373114195520E+01 -0.1410594649703E+01  0.1522003916932E+01
-0.6921798578032E+00 -0.2258993559513E+01 -0.1387051502621E+01  0.1511691988956E+01
-0.7535634388966E+00 -0.2135776071381E+01 -0.1357989566386E+01  0.1492434490571E+01
-0.8107287530472E+00 -0.2003241171643E+01 -0.1322565861250E+01  0.1463153973782E+01
-0.8617560967326E+00 -0.1861248797900E+01 -0.1279812297231E+01  0.1422663805049E+01
-0.9043105212759E+00 -0.1709762516191E+01 -0.1228614324493E+01  0.1369664309061E+01
-0.9355462155005E+00 -0.1548887973868E+01 -0.1167684066041E+01  0.1302746640766E+01
-0.9519726942681E+00 -0.1378933046566E+01 -0.1095525695413E+01  0.1220408520496E+01
-0.9492670426240E+00 -0.1200499343343E+01 -0.1010390198842E+01  0.1121091148274E+01
-0.9220093307094E+00 -0.1014621190318E+01 -0.9102163425742E+00  0.1003256288209E+01
-0.8633080572727E+00 -0.8229802418694E+00 -0.7925554985866E+00  0.8655416983490E+00
-0.7642748189302E+00 -0.6282509219590E+00 -0.6544870965579E+00  0.7070738185570E+00
-0.6133147601306E+00 -0.4346904987366E+00 -0.4925624704182E+00  0.5281124708696E+00
-0.3954054334772E+00 -0.2493109599657E+00 -0.3030167041496E+00  0.3314402986515E+00
-0.9231839045254E-01 -0.8459018136665E-01 -0.8314702854413E-01  0.1256975844331E+00
 0.3004187270665E+00  0.2728175140634E-01  0.1540192244916E+00 -0.6594921599723E-01
-0.3872520601004E+00 -0.2572206350751E+01 -0.1390945449572E+01  0.1455362844343E+01
-0.4474966330768E+00 -0.2479503010525E+01 -0.1375689829003E+01  0.1464299565788E+01
-0.5078098863183E+00 -0.2379190625967E+01 -0.1356890237333E+01  0.1467011072925E+01
-0.5675178040662E+00 -0.2270947346331E+01 -0.1334078617303E+01  0.1462727365387E+01
-0.6257389440627E+00 -0.2154537479756E+01 -0.1306729915880E+01  0.1450658238610E+01
-0.6813496067630E+00 -0.2029831899798E+01 -0.1274255304852E+01  0.1429971576633E+01
-0.7329537825696E+00 -0.1896820434511E+01 -0.1235993878893E+01  0.1399774811898E+01
-0.7788527738140E+00 -0.1755625025174E+01 -0.1191204562503E+01  0.1359107505963E+01
-0.8170074102374E+00 -0.1606521834136E+01 -0.1139058741966E+01  0.1306947586234E+01
-0.8449870002530E+00 -0.1449978479099E+01 -0.1078633772559E+01  0.1242232470812E+01
-0.8599007581768E+00 -0.1286711370292E+01 -0.1008907697821E+01  0.1163898182546E+01
-0.8583091602550E+00 -0.1117768848227E+01 -0.9287566616309E+00  0.1070943872130E+01
-0.8361153765518E+00 -0.9446485600279E+00 -0.8369590480696E+00  0.9625362208591E+00
-0.7884433950518E+00 -0.7694627135176E+00 -0.7322158691705E+00  0.8381797039899E+00
-0.7095280597232E+00 -0.5951750315036E+00 -0.6132104513212E+00  0.6979985380314E+00
-0.5926893646240E+00 -0.4259498775901E+00 -0.4787604426263E+00  0.5432119223343E+00
-0.4306223803172E+00 -0.2677083168872E+00 -0.3282154268536E+00  0.3769493781126E+00
-0.2165664670344E+00 -0.1290058689862E+00 -0.1624189975177E+00  0.2056622641028E+00
 0.5091761777545E-01 -0.2314848903359E-01  0.1305149047557E-01  0.4147788048090E-01
 0.3612327557283E+00  0.3484949538023E-01  0.1861586575488E+00 -0.9622735342569E-01
-0.4030332310342E+00 -0.2406370250444E+01 -0.1320419632946E+01  0.1411654332003E+01
-0.4585914835381E+00 -0.2304301267011E+01 -0.1298559589464E+01  0.1412842849611E+01
-0.5132605174605E+00 -0.2194989495603E+01 -0.1272877502911E+01  0.1407146545771E+01
-0.5663163529786E+00 -0.2078269008309E+01 -0.1242955116652E+01  0.1393862889892E+01
-0.6168192132605E+00 -0.1954115169536E+01 -0.1208339156850E+01  0.1372310053532E+01
-0.6635728984073E+00 -0.1822670330395E+01 -0.1168534314573E+01  0.1341796370458E+01
-0.7051036931114E+00 -0.1684252393102E+01 -0.1122997357672E+01  0.1301600947353E+01
-0.7396471610048E+00 -0.1539363438860E+01 -0.1071134979219E+01  0.1250975873174E+01
-0.7651332543332E+00 -0.1388710452588E+01 -0.1012306539685E+01  0.1189170683952E+01
-0.7791650154812E+00 -0.1233243392210E+01 -0.9458319492161E+00  0.1115478070200E+01
-0.7789918042296E+00 -0.1074212697728E+01 -0.8710061137110E+00  0.1029302612926E+01
-0.7614835369856E+00 -0.9132475415249E+00 -0.7871236049035E+00  0.9302591350554E+00
-0.7231201857192E+00 -0.7524567610067E+00 -0.6935211632022E+00  0.8183133275247E+00
-0.6600250724151E+00 -0.5945554866391E+00 -0.5896528612599E+00  0.6939848627492E+00
-0.5680980919559E+00 -0.4430195419201E+00 -0.4752252867164E+00  0.5586423965696E+00
-0.4433662658438E+00 -0.3022670313829E+00 -0.3504476488077E+00  0.4149286264545E+00
-0.2827610821835E+00 -0.1778214261809E+00 -0.2164737783822E+00  0.2673471953899E+00
-0.8581860067662E-01 -0.7637986396293E-01 -0.7623327818723E-01  0.1229692541587E+00
 0.1431565205833E+00 -0.4355740356813E-02  0.6523636654097E-01 -0.8283954607843E-02
 0.3947026027009E+00  0.3684249973916E-01  0.2028261976324E+00 -0.1152045473898E+00
-0.4147945894718E+00 -0.2248724660514E+01 -0.1251854044318E+01  0.1362355678624E+01
-0.4650816381055E+00 -0.2139479231666E+01 -0.1224143605688E+01  0.1355840050400E+01
-0.5135623782017E+00 -0.2023646544122E+01 -0.1192488190467E+01  0.1341932055803E+01
-0.5595138106122E+00 -0.1901214551704E+01 -0.1156542327355E+01  0.1320053550732E+01
-0.6019835699506E+00 -0.1772384231299E+01 -0.1115952863757E+01  0.1289703953656E+01
-0.6397468927919E+00 -0.1637585651566E+01 -0.1070346293134E+01  0.1250404469829E+01
-0.6713042652046E+00 -0.1497464293942E+01 -0.1019321220213E+01  0.1201672434597E+01
-0.6948966135086E+00 -0.1352872140778E+01 -0.9624513120737E+00  0.1143032809888E+01
-0.7085215784789E+00 -0.1204876079200E+01 -0.8992968968281E+00  0.1074059650160E+01
-0.7099475511742E+00 -0.1054785410457E+01 -0.8294244898629E+00  0.9944404837823E+00
-0.6967309417070E+00 -0.9041947912097E+00 -0.7524350925624E+00  0.9040612531323E+00
-0.6662493538437E+00 -0.7550373301850E+00 -0.6680047397992E+00  0.8031144547676E+00
-0.6157713829187E+00 -0.6096415279150E+00 -0.5759440666310E+00  0.6922367417151E+00
-0.5425954492148E+00 -0.4707822996164E+00 -0.4762875407426E+00  0.5726834790511E+00
-0.4443088966564E+00 -0.3417074025563E+00 -0.3694276596929E+00  0.4465441677965E+00
-0.3192376613772E+00 -0.2260927107788E+00 -0.2563052742632E+00  0.3169865475301E+00
-0.1671784005086E+00 -0.1278321907931E+00 -0.1386549775601E+00  0.1884705812736E+00
 0.9719397636926E-02 -0.5031642365056E-01 -0.1908060217801E-01  0.6673786637016E-01
 0.2064232159253E+00  0.5114111862846E-02  0.9942254380824E-01 -0.4179474882859E-01
 0.4153306839135E+00  0.4078567387662E-01  0.2143746876176E+00 -0.1313673069042E+00
-0.4227035442614E+00 -0.2099917693039E+01 -0.1185631978524E+01  0.1308720040855E+01
-0.4672344686319E+00 -0.1985616792599E+01 -0.1152840089854E+01  0.1294806097260E+01
-0.5091173416036E+00 -0.1865558907034E+01 -0.1116097834029E+01  0.1273137190330E+01
-0.5477068280831E+00 -0.1739857507653E+01 -0.1075155235069E+01  0.1243334308387E+01
-0.5820923252615E+00 -0.1608945802880E+01 -0.1029787917615E+01  0.1205154182330E+01
-0.6110600298939E+00 -0.1473540114751E+01 -0.9797620654980E+00  0.1158385786578E+01
-0.6331302009024E+00 -0.1334583237459E+01 -0.9248253136841E+00  0.1102816752614E+01
-0.6466117121927E+00 -0.1193206449495E+01 -0.8647145338001E+00  0.1038257387712E+01
-0.6496529944004E+00 -0.1050720983508E+01 -0.7991757675899E+00  0.9645992034738E+00
-0.6402879581964E+00 -0.9086316579672E+00 -0.7279922177504E+00  0.8818914475879E+00
-0.6164867013075E+00 -0.7686606049883E+00 -0.6510192323078E+00  0.7904282806690E+00
-0.5762263830521E+00 -0.6327690365138E+00 -0.5682278457548E+00  0.6908450920799E+00
-0.5176014494365E+00 -0.5031645561211E+00 -0.4797600213952E+00  0.5842237483121E+00
-0.4389957508630E+00 -0.3822772918034E+00 -0.3859983290742E+00  0.4722028860147E+00
-0.3393389507040E+00 -0.2726766584188E+00 -0.2876473355581E+00  0.3570786357293E+00
-0.2184595139238E+00 -0.1768816034992E+00 -0.1858103247175E+00  0.2418589307378E+00
-0.7748096313710E-01 -0.9697137309981E-01 -0.8199259782338E-01  0.1301926922341E+00
 0.8089177775797E-01 -0.3393517983280E-01  0.2206960096886E-01  0.2605239554026E-01
 0.2523489492612E+00  0.1303432288636E-01  0.1247301375930E+00 -0.6689807542922E-01
 0.4310115006046E+00  0.4666791705582E-01  0.2245093257310E+00 -0.1460668171817E+00
-0.4270538353233E+00 -0.1960314511883E+01 -0.1122063120341E+01  0.1251968416943E+01
-0.4654374600579E+00 -0.1842920435557E+01 -0.1084928208187E+01  0.1231129314384E+01
-0.5004463060313E+00 -0.1720595119104E+01 -0.1043889467166E+01  0.1202274459830E+01
-0.5316252366005E+00 -0.1593583940750E+01 -0.9988483108214E+00  0.1165336891205E+01
-0.5581410261858E+00 -0.1462577123654E+01 -0.9497375280160E+00  0.1120406188236E+01
-0.5788075454434E+00 -0.1328581596415E+01 -0.8964728943996E+00  0.1067565634728E+01
-0.5921880386911E+00 -0.1192795566487E+01 -0.8389422923057E+00  0.1006862434295E+01
-0.5966993374491E+00 -0.1056540106077E+01 -0.7770225364866E+00  0.9383572513889E+00
-0.5906940979078E+00 -0.9212410291157E+00 -0.7106095078987E+00  0.8622041324911E+00
-0.5725266563281E+00 -0.7884361270103E+00 -0.6396525065466E+00  0.7787344212109E+00
-0.5406181358334E+00 -0.6597851942708E+00 -0.5641895637180E+00  0.6885352303195E+00
-0.4935373239807E+00 -0.5370666752580E+00 -0.4843838784136E+00  0.5925200474999E+00
-0.4301106194755E+00 -0.4221473147132E+00 -0.4005612280527E+00  0.4919885447904E+00
-0.3495691124812E+00 -0.3169098245691E+00 -0.3132450996192E+00  0.3886667913095E+00
-0.2517300304135E+00 -0.2231188537127E+00 -0.2231789749732E+00  0.2847086763233E+00
-0.1371845438593E+00 -0.1421997236901E+00 -0.1313106054151E+00  0.1826249387863E+00
-0.7428133993573E-02 -0.7492183742750E-01 -0.3870448646973E-01  0.8509508181589E-01
 0.1351465705214E+00 -0.2105265966358E-01  0.5362413796716E-01 -0.5367079238870E-02
 0.2874460560375E+00  0.2086521631733E-01  0.1449062976392E+00 -0.8686505463588E-01
 0.4459857333654E+00  0.5349864065790E-01  0.2347576551955E+00 -0.1586374060348E+00
-0.4282504618436E+00 -0.1830101173273E+01 -0.1061425265813E+01  0.1193247609013E+01
-0.4601054807233E+00 -0.1711245540320E+01 -0.1020534977302E+01  0.1165972733847E+01
-0.4880976119265E+00 -0.1588102691354E+01 -0.9758141400670E+00  0.1130485592374E+01
-0.5120284219850E+00 -0.1461111639237E+01 -0.9273758264223E+00  0.1087191768882E+01
-0.5311333038899E+00 -0.1331305256329E+01 -0.8753461210827E+00  0.1036577331332E+01
-0.5442273696578E+00 -0.1200004493917E+01 -0.8197889738008E+00  0.9790018776524E+00
-0.5499086755401E+00 -0.1068612169572E+01 -0.7607047952733E+00  0.9147130739810E+00
-0.5467166084297E+00 -0.9385367878652E+00 -0.6980690944880E+00  0.8439482916379E+00
-0.5332323861281E+00 -0.8111893791597E+00 -0.6318782280826E+00  0.7670426615497E+00
-0.5081452720317E+00 -0.6880008459075E+00 -0.5621886740055E+00  0.6845152840003E+00
-0.4703108897737E+00 -0.5704300007306E+00 -0.4891482172964E+00  0.5971301840693E+00
-0.4188177562642E+00 -0.4599466136542E+00 -0.4130192528141E+00  0.5059345739909E+00
-0.3530696251006E+00 -0.3579824839978E+00 -0.3341944904286E+00  0.4122736798330E+00
-0.2728802147653E+00 -0.2658442887195E+00 -0.2532005159956E+00  0.3177750390431E+00
-0.1785645975916E+00 -0.1845840327579E+00 -0.1706798558313E+00  0.2242888796992E+00
-0.7099609512033E-01 -0.1148321611966E+00 -0.8733928024743E-01  0.1337684062412E+00
 0.4841307200872E-01 -0.5662409789877E-01 -0.3859182158532E-02  0.4808123281182E-01
 0.1778491954365E+00 -0.9281729863478E-02  0.7922670861839E-01 -0.3123466454631E-01
 0.3153778247939E+00  0.2858081318199E-01  0.1616605594386E+00 -0.1032322809032E+00
 0.4596712699784E+00  0.5910382224935E-01  0.2438242927286E+00 -0.1678207154459E+00
-0.4265771805394E+00 -0.1709196675727E+01 -0.1003813709899E+01  0.1133555822545E+01
-0.4515214471382E+00 -0.1590089401705E+01 -0.9595570965227E+00  0.1100216180644E+01
-0.4724888641166E+00 -0.1466978622587E+01 -0.9115497164386E+00  0.1058558332330E+01
-0.4895472328802E+00 -0.1340719795122E+01 -0.8602255009793E+00  0.1009670411183E+01
-0.5019113724157E+00 -0.1212862533068E+01 -0.8059437335331E+00  0.9544485819763E+00
-0.5083152230410E+00 -0.1085058328820E+01 -0.7488855674754E+00  0.8934362943441E+00
-0.5073599482845E+00 -0.9588251199662E+00 -0.6891069803300E+00  0.8269694924981E+00
-0.4977109686057E+00 -0.8355267236401E+00 -0.6266217137662E+00  0.7553636418792E+00
-0.4781876397041E+00 -0.7164251987166E+00 -0.5614680326336E+00  0.6790491673117E+00
-0.4478072441489E+00 -0.6027291945206E+00 -0.4937521249223E+00  0.5986476173935E+00
-0.4058162407813E+00 -0.4956061496525E+00 -0.4236685224293E+00  0.5150054131324E+00
-0.3517286567699E+00 -0.3961615194405E+00 -0.3515083819274E+00  0.4291979830770E+00
-0.2853705196789E+00 -0.3053869668151E+00 -0.2776560179479E+00  0.3425080900320E+00
-0.2069211911475E+00 -0.2240830209705E+00 -0.2025719791817E+00  0.2563760524680E+00
-0.1169344683625E+00 -0.1527652616100E+00 -0.1267588727656E+00  0.1723172357374E+00
-0.1631950997990E-01 -0.9157372630422E-01 -0.5070982092492E-01  0.9180574138338E-01
 0.9373842507341E-01 -0.4021625283555E-01  0.2515542088799E-01  0.1613458644421E-01
 0.2119295461863E+00  0.2015251334281E-02  0.1005540545796E+00 -0.5372106460591E-01
 0.3370694516756E+00  0.3613882424232E-01  0.1754078892365E+00 -0.1171990195944E+00
 0.4683319178758E+00  0.6311156264854E-01  0.2497784352129E+00 -0.1741141071574E+00
-0.4222944295856E+00 -0.1597542549627E+01 -0.9493233778220E+00  0.1073772350059E+01
-0.4398976411858E+00 -0.1478861323058E+01 -0.9018167109073E+00  0.1034523719763E+01
-0.4539677378619E+00 -0.1355943618803E+01 -0.8506583354748E+00  0.9870986844493E+00
-0.4647473497532E+00 -0.1230635696619E+01 -0.7968300297738E+00  0.9334831787128E+00
-0.4712008614685E+00 -0.1105202122491E+01 -0.7409094005820E+00  0.8748538077436E+00
-0.4718650160078E+00 -0.9815508632169E+00 -0.6831054615030E+00  0.8117326424837E+00
-0.4653212868378E+00 -0.8611220988865E+00 -0.6234283897092E+00  0.7443890633989E+00
-0.4503745190769E+00 -0.7450457289802E+00 -0.5618475151618E+00  0.6731246179070E+00
-0.4260986013220E+00 -0.6343058074588E+00 -0.4983900708628E+00  0.5984036872500E+00
-0.3918230395988E+00 -0.5298055924144E+00 -0.4331654559475E+00  0.5208940900365E+00
-0.3471313610010E+00 -0.4323825316677E+00 -0.3663715286250E+00  0.4414640903793E+00
-0.2918682156435E+00 -0.3427832859085E+00 -0.2982862049729E+00  0.3611548156945E+00
-0.2261500207580E+00 -0.2616161388050E+00 -0.2292500944131E+00  0.2811347542791E+00
-0.1503662444978E+00 -0.1892932012865E+00 -0.1596399391137E+00  0.2026372361533E+00
-0.6515875028518E-01 -0.1259773154516E+00 -0.8983395066845E-01  0.1268819382810E+00
 0.2863179626100E-01 -0.7155074791230E-01 -0.2017190722495E-01  0.5498605663349E-01
 0.1300467612658E+00 -0.2563137918015E-01  0.4907522945578E-01 -0.1212154300735E-01
 0.2381086285334E+00  0.1235140424638E-01  0.1177162151079E+00 -0.7375753291471E-01
 0.3519083092934E+00  0.4300058272679E-01  0.1856071787787E+00 -0.1294716879573E+00
 0.4705397906355E+00  0.6666544149957E-01  0.2524864584631E+00 -0.1789190309945E+00
-0.4157370604497E+00 -0.1495207385376E+01 -0.8981438872601E+00  0.1014634171958E+01
-0.4253917951654E+00 -0.1376567301890E+01 -0.8469207734681E+00  0.9693013419975E+00
-0.4329203854534E+00 -0.1253210418792E+01 -0.7924814759853E+00  0.9166165275697E+00
-0.4381938436556E+00 -0.1128782549537E+01 -0.7364789029327E+00  0.8594494362036E+00
-0.4396338885071E+00 -0.1006369722209E+01 -0.6796216953129E+00  0.7988213068004E+00
-0.4354788529959E+00 -0.8877452168692E+00 -0.6219153112592E+00  0.7349071271417E+00
-0.4242915260440E+00 -0.7738682955143E+00 -0.5631351147041E+00  0.6677913719493E+00
-0.4050848586646E+00 -0.6654518390948E+00 -0.5031522466708E+00  0.5977387215180E+00
-0.3771999895796E+00 -0.5631085981095E+00 -0.4419450350929E+00  0.5252410747013E+00
-0.3402533290078E+00 -0.4674152615508E+00 -0.3796042365997E+00  0.4509981972689E+00
-0.2941027865247E+00 -0.3789019972338E+00 -0.3163122475642E+00  0.3758750629337E+00
-0.2388339893798E+00 -0.2980160190640E+00 -0.2523195033286E+00  0.3008519854941E+00
-0.1747487916892E+00 -0.2250764658495E+00 -0.1879178705666E+00  0.2269703888201E+00
-0.1023444176789E+00 -0.1602350108916E+00 -0.1234123311151E+00  0.1552747879015E+00
-0.2227371064450E-01 -0.1034531063254E+00 -0.5909160382599E-01  0.8675322737911E-01
 0.6471382760472E-01 -0.5450857580018E-01  0.4796468335970E-02  0.2228183271966E-01
 0.1578532823241E+00 -0.1303033674653E-01  0.6806678424882E-01 -0.3741840632709E-01
 0.2563998653281E+00  0.2140415509269E-01  0.1305678892666E+00 -0.9180662502734E-01
 0.3595634133928E+00  0.4913772539511E-01  0.1920895347431E+00 -0.1405031542705E+00
 0.4664847064460E+00  0.7045872543641E-01  0.2523634123446E+00 -0.1832060790952E+00
-0.4070017912575E+00 -0.1401901023518E+01 -0.8501843207881E+00  0.9565337846481E+00
-0.4082681584324E+00 -0.1281191901459E+01 -0.7940462261351E+00  0.9046580230824E+00
-0.4096431424537E+00 -0.1155726323972E+01 -0.7357236473538E+00  0.8478271979116E+00
-0.4102738342673E+00 -0.1032652631415E+01 -0.6781754371508E+00  0.7888805260750E+00
-0.4075962692489E+00 -0.9148336565068E+00 -0.6215420635287E+00  0.7277502387279E+00
-0.3993601733874E+00 -0.8026362872737E+00 -0.5649383350778E+00  0.6640876363742E+00
-0.3843516812219E+00 -0.6962815774209E+00 -0.5078976302739E+00  0.5978880471421E+00
-0.3618264214432E+00 -0.5959583896666E+00 -0.4501588600798E+00  0.5294712508101E+00
-0.3313869894137E+00 -0.5019419989455E+00 -0.3916646235354E+00  0.4594079926177E+00
-0.2928841978288E+00 -0.4145528212371E+00 -0.3324953981176E+00  0.3884416605280E+00
-0.2463777308508E+00 -0.3341012921429E+00 -0.2728251401150E+00  0.3174242333219E+00
-0.1921126805596E+00 -0.2608313637922E+00 -0.2128837003054E+00  0.2472626633484E+00
-0.1304989618279E+00 -0.1948774241246E+00 -0.1529269010098E+00  0.1788719053854E+00
-0.6208261493734E-01 -0.1362395774560E+00 -0.9321143018847E-01  0.1131330523538E+00
 0.1249510632743E-01 -0.8478198480795E-01 -0.3397483279967E-01  0.5085832362724E-01
 0.9255578467479E-01 -0.4025253099210E-01  0.2458252916851E-01 -0.7233485022054E-02
 0.1774416457815E+00 -0.2334000432335E-02  0.8230059310537E-01 -0.6052846147059E-01
 0.2666518955241E+00  0.2935471323836E-01  0.1391231057655E+00 -0.1085247959553E+00
 0.3597661381580E+00  0.5513262145529E-01  0.1950024165236E+00 -0.1508990754538E+00
 0.4559608690772E+00  0.7506307904668E-01  0.2495812549852E+00 -0.1875767089348E+00
-0.3976938952183E+00 -0.1317516211628E+01 -0.8061487481732E+00  0.8987395995185E+00
-0.3879696885734E+00 -0.1186460635498E+01 -0.7399822504369E+00  0.8409186781955E+00
-0.3836720665872E+00 -0.1058537332791E+01 -0.6778384159884E+00  0.7828849454854E+00
-0.3810265771908E+00 -0.9408644253389E+00 -0.6212887696131E+00  0.7241736217301E+00
-0.3747162069311E+00 -0.8305732893823E+00 -0.5664860618305E+00  0.6633796215911E+00
-0.3630819191831E+00 -0.7267318557727E+00 -0.5122124729301E+00  0.6002325187935E+00
-0.3450995141757E+00 -0.6288070450801E+00 -0.4577360816893E+00  0.5349616194918E+00
-0.3202659071231E+00 -0.5367328101961E+00 -0.4027893961184E+00  0.4680898238318E+00
-0.2883689331645E+00 -0.4506606800378E+00 -0.3473439173241E+00  0.4002999705656E+00
-0.2494187279353E+00 -0.3708249162644E+00 -0.2915145120345E+00  0.3323613599596E+00
-0.2036038609713E+00 -0.2974434801442E+00 -0.2354922497270E+00  0.2650809365548E+00
-0.1512652987780E+00 -0.2306588538897E+00 -0.1795043512985E+00  0.1992669517841E+00
-0.9287246695325E-01 -0.1705069808678E+00 -0.1237883401619E+00  0.1356996531231E+00
-0.2899614056253E-01 -0.1169098530850E+00 -0.6857581684040E-01  0.7510870691895E-01
 0.3972524428019E-01 -0.6968744739101E-01 -0.1408223542637E-01  0.1815981479062E-01
 0.1126223255522E+00 -0.2858976412652E-01  0.3949530376988E-01 -0.3454558796397E-01
 0.1890639009608E+00  0.6678014487662E-02  0.9199870002745E-01 -0.8245653249080E-01
 0.2684794033841E+00  0.3635503518074E-01  0.1432721857621E+00 -0.1250438242175E+00
 0.3511152686210E+00  0.6102928225531E-01  0.1937079384205E+00 -0.1618058748125E+00
 0.4378226766460E+00  0.8121353522534E-01  0.2439470189608E+00 -0.1927274957951E+00
-0.3808060638996E+00 -0.1226151861849E+01 -0.7552702231863E+00  0.8357302965076E+00
-0.3593617357320E+00 -0.1076812600370E+01 -0.6750019362558E+00  0.7830929418532E+00
-0.3546181112589E+00 -0.9615796284591E+00 -0.6186129360984E+00  0.7271008261139E+00
-0.3486607980669E+00 -0.8561147700106E+00 -0.5662445155602E+00  0.6682253380676E+00
-0.3396048973709E+00 -0.7569157656766E+00 -0.5153647103252E+00  0.6067405086911E+00
-0.3256625598741E+00 -0.6626069948233E+00 -0.4644866895297E+00  0.5432181916587E+00
-0.3059832007198E+00 -0.5730837182508E+00 -0.4131614508682E+00  0.4782774357434E+00
-0.2801453822725E+00 -0.4885987351717E+00 -0.3613097342823E+00  0.4125730875237E+00
-0.2480480235393E+00 -0.4095033797876E+00 -0.3090491587798E+00  0.3467828920095E+00
-0.2098084006946E+00 -0.3361079150052E+00 -0.2565806677281E+00  0.2815971578866E+00
-0.1657075181138E+00 -0.2686248835407E+00 -0.2041362282598E+00  0.2177027228347E+00
-0.1161542021616E+00 -0.2071480502794E+00 -0.1519520582619E+00  0.1557643297827E+00
-0.6166019004024E-01 -0.1516527323237E+00 -0.1002570732568E+00  0.9640689153912E-01
-0.2820044843974E-02 -0.1020090557890E+00 -0.4926967717251E-01  0.4020271975983E-01
 0.5970447651451E-01 -0.5800515802471E-01  0.7986796881797E-03 -0.1233194542824E-01
 0.1251994374003E+00 -0.1937426595616E-01  0.4973783045259E-01 -0.6072697366413E-01
 0.1928883398795E+00  0.1415147129382E-01  0.9730871100465E-01 -0.1045270618990E+00
 0.2620417900141E+00  0.4286616169080E-01  0.1433067369378E+00 -0.1432345430625E+00
 0.3314506074816E+00  0.6643125056271E-01  0.1870044728065E+00 -0.1761146046675E+00
 0.4044614647594E+00  0.8682854755387E-01  0.2309063052016E+00 -0.2019039691297E+00
</DataArray>
<DataArray type="Float64" Name="S_Mises" NumberOfComponents="1" ComponentName0="S_Mises" format="ascii">
 0.1334130746561E+01
 0.1216448573625E+01
 0.1071069246911E+01
 0.9695296899648E+00
 0.8647201400589E+00
 0.7596763916517E+00
 0.6516159462506E+00
 0.5400836902555E+00
 0.4244793787260E+00
 0.3043274542936E+00
 0.1790954573397E+00
 0.4816568316778E-01
 0.8921720179894E-01
 0.2339957604225E+00
 0.3873644977109E+00
 0.5508942068275E+00
 0.7267253822016E+00
 0.9180199508752E+00
 0.1129998422961E+01
 0.1370687181571E+01
 0.1643041028314E+01
 0.1938552939203E+01
 0.2244612724225E+01
 0.2551576409099E+01
 0.2854034216209E+01
 0.3149356567295E+01
 0.3435878617080E+01
 0.3711543331759E+01
 0.3972728583545E+01
 0.4213035554228E+01
 0.4426758783534E+01
 0.4617387715089E+01
 0.4793629930445E+01
 0.4962042939462E+01
 0.5129994384752E+01
 0.5304809246947E+01
 0.5507536627788E+01
 0.5710855271627E+01
 0.6130128303585E+01
 0.5466667998603E+01
 0.1093163126060E+02
 0.1035535632404E+01
 0.1059785019334E+01
 0.9421577846424E+00
 0.8378327863818E+00
 0.7388878080215E+00
 0.6375957280972E+00
 0.5335651152063E+00
 0.4257811136740E+00
 0.3137809771344E+00
 0.1970893764508E+00
 0.7521264178827E-01
 0.5244262775776E-01
 0.1865821894207E+00
 0.3281172749423E+00
 0.4781934605860E+00
 0.6383070732567E+00
 0.8104763133447E+00
 0.9975292659155E+00
 0.1202966361342E+01
 0.1429478380030E+01
 0.1676228243101E+01
 0.1937811902154E+01
 0.2206696650250E+01
 0.2476136954164E+01
 0.2741275811757E+01
 0.2998739175636E+01
 0.3245726949246E+01
 0.3479112864743E+01
 0.3694963894652E+01
 0.3889304230861E+01
 0.4059496641361E+01
 0.4204563947495E+01
 0.4324472452768E+01
 0.4418382487769E+01
 0.4481629426923E+01
 0.4505034351855E+01
 0.4456778170186E+01
 0.4311513418125E+01
 0.3788878078002E+01
 0.2935219966648E+01
 0.9458740777077E+01
 0.8218729349503E+00
 0.8700288292457E+00
 0.8031124502615E+00
 0.7070826766222E+00
 0.6133936369773E+00
 0.5170567492720E+00
 0.4172645051606E+00
 0.3135040445804E+00
 0.2053247936768E+00
 0.9234152181566E-01
 0.2596177826565E-01
 0.1499514957237E+00
 0.2804216886334E+00
 0.4181719064062E+00
 0.5642502110435E+00
 0.7199976154035E+00
 0.8871419775305E+00
 0.1067731691172E+01
 0.1263327424896E+01
 0.1473796074139E+01
 0.1696887555889E+01
 0.1928751042549E+01
 0.2164735688450E+01
 0.2400146725345E+01
 0.2630808271769E+01
 0.2853108968008E+01
 0.3063658542824E+01
 0.3258884595713E+01
 0.3435153209059E+01
 0.3589565275543E+01
 0.3719711880756E+01
 0.3822105360303E+01
 0.3891996916707E+01
 0.3922801339495E+01
 0.3903614835493E+01
 0.3813600440082E+01
 0.3620806131919E+01
 0.3261849363825E+01
 0.2642940718578E+01
 0.2848501988504E+01
 0.8809355316980E+01
 0.6485924768798E+00
 0.6913846236413E+00
 0.6553234074125E+00
 0.5760758092442E+00
 0.4889304956454E+00
 0.3980125117711E+00
 0.3028412408599E+00
 0.2033161655156E+00
 0.9918609565358E-01
 0.1032476804314E-01
 0.1242943626013E+00
 0.2443544554807E+00
 0.3707411382282E+00
 0.5041788773013E+00
 0.6455733388537E+00
 0.7960369882198E+00
 0.9568587477886E+00
 0.1129152596536E+01
 0.1312981169011E+01
 0.1506757794609E+01
 0.1707759981009E+01
 0.1913048852561E+01
 0.2119631803504E+01
 0.2324210892789E+01
 0.2523279719241E+01
 0.2713299964493E+01
 0.2890706770202E+01
 0.3051903268226E+01
 0.3193604020523E+01
 0.3313225241686E+01
 0.3407967550226E+01
 0.3472971477110E+01
 0.3501147043255E+01
 0.3483309791596E+01
 0.3406279157022E+01
 0.3251160593223E+01
 0.2994925407566E+01
 0.2617343077702E+01
 0.2298455754408E+01
 0.3494091750452E+01
 0.8206751039248E+01
 0.4986082855834E+00
 0.5287113424807E+00
 0.5079901712770E+00
 0.4446673321480E+00
 0.3658522359019E+00
 0.2806658568316E+00
 0.1903979552694E+00
 0.9533809514810E-01
 0.6422928310695E-02
 0.1097240867297E+00
 0.2198697410474E+00
 0.3356674574595E+00
 0.4575775970282E+00
 0.5862019976215E+00
 0.7222669724421E+00
 0.8665979470296E+00
 0.1019969856938E+01
 0.1182636414701E+01
 0.1353642134530E+01
 0.1530694760818E+01
 0.1711003068368E+01
 0.1892219903717E+01
 0.2072339326661E+01
 0.2249010850109E+01
 0.2419333011159E+01
 0.2580027439946E+01
 0.2727642915010E+01
 0.2858784862750E+01
 0.2970463204604E+01
 0.3060154460429E+01
 0.3124742250728E+01
 0.3158871267341E+01
 0.3154926472951E+01
 0.3103693384993E+01
 0.2994294556300E+01
 0.2816206882471E+01
 0.2568020863337E+01
 0.2306943824273E+01
 0.2408151716609E+01
 0.4069245741045E+01
 0.7699535428190E+01
 0.3637963759440E+00
 0.3803682235339E+00
 0.3657178032044E+00
 0.3145865492093E+00
 0.2444239756168E+00
 0.1652901376178E+00
 0.8015229452217E-01
 0.1217979548167E-01
 0.1063619894578E+00
 0.2069021378977E+00
 0.3126835638844E+00
 0.4239300051051E+00
 0.5409990703204E+00
 0.6643477381083E+00
 0.7944960076241E+00
 0.9319493294404E+00
 0.1076971929561E+01
 0.1229122770167E+01
 0.1386809214980E+01
 0.1547447114007E+01
 0.1708354303208E+01
 0.1867599917962E+01
 0.2023792435737E+01
 0.2175238949646E+01
 0.2319571616678E+01
 0.2453879124679E+01
 0.2575003062596E+01
 0.2679868745219E+01
 0.2765767899412E+01
 0.2830252638769E+01
 0.2870183851000E+01
 0.2880459778764E+01
 0.2854279002328E+01
 0.2784486019803E+01
 0.2665472052484E+01
 0.2498758605236E+01
 0.2312105859653E+01
 0.2233499572729E+01
 0.2702131632960E+01
 0.4461625960287E+01
 0.7290653445660E+01
 0.2397443423373E+00
 0.2439313108865E+00
 0.2301957238140E+00
 0.1874441371530E+00
 0.1251945573733E+00
 0.5238148995473E-01
 0.2926270882675E-01
 0.1144430157955E+00
 0.2054440785680E+00
 0.3015594935634E+00
 0.4027678407930E+00
 0.5092042283381E+00
 0.6211029412088E+00
 0.7387617357646E+00
 0.8624796214308E+00
 0.9924382975132E+00
 0.1128445975371E+01
 0.1269546366114E+01
 0.1413784214188E+01
 0.1558514893423E+01
 0.1701243038604E+01
 0.1840353846735E+01
 0.1974862928645E+01
 0.2103554732576E+01
 0.2224534458715E+01
 0.2335313059910E+01
 0.2433127201708E+01
 0.2515290845301E+01
 0.2579415183530E+01
 0.2623261678066E+01
 0.2644009548619E+01
 0.2637413015365E+01
 0.2598448000579E+01
 0.2523403679020E+01
 0.2413521489252E+01
 0.2284167725114E+01
 0.2191819627435E+01
 0.2308873580955E+01
 0.3022704712015E+01
 0.4710060588014E+01
 0.6964068516338E+01
 0.1238466216320E+00
 0.1173398169677E+00
 0.1017240678889E+00
 0.6432787023438E-01
 0.1100786080526E-01
 0.5963161776268E-01
 0.1345047599560E+00
 0.2156420934139E+00
 0.3021603071433E+00
 0.3937086318600E+00
 0.4901726713504E+00
 0.5915735062934E+00
 0.6980133412145E+00
 0.8096239614965E+00
 0.9264818806821E+00
 0.1048465483596E+01
 0.1175006108378E+01
 0.1304792951314E+01
 0.1435698073144E+01
 0.1565146875675E+01
 0.1690863417454E+01
 0.1811491118042E+01
 0.1926338164921E+01
 0.2034557338258E+01
 0.2134680116967E+01
 0.2224662632526E+01
 0.2302191075888E+01
 0.2365016328513E+01
 0.2411136973058E+01
 0.2438692419969E+01
 0.2445488089099E+01
 0.2428581734417E+01
 0.2385350479494E+01
 0.2316278222683E+01
 0.2230099734933E+01
 0.2155833760750E+01
 0.2172237354270E+01
 0.2461550080739E+01
 0.3309524887341E+01
 0.4862708708057E+01
 0.6701658832205E+01
 0.1548813668585E-01
 0.8614587836779E-02
 0.2009626706090E-01
 0.5472961964624E-01
 0.1054609319730E+00
 0.1676421031903E+00
 0.2379315605134E+00
 0.3145181569192E+00
 0.3964900580282E+00
 0.4833820660862E+00
 0.5749647611804E+00
 0.6711407505663E+00
 0.7718779829522E+00
 0.8771430562155E+00
 0.9868004110171E+00
 0.1100461646762E+01
 0.1217266422701E+01
 0.1335681591818E+01
 0.1453535432411E+01
 0.1568397290725E+01
 0.1678223046225E+01
 0.1781881419088E+01
 0.1878911352815E+01
 0.1968769557519E+01
 0.2050378778036E+01
 0.2122144386889E+01
 0.2182228697834E+01
 0.2228857300103E+01
 0.2260492622031E+01
 0.2275811081769E+01
 0.2273486927729E+01
 0.2252180475832E+01
 0.2212009688123E+01
 0.2157942329641E+01
 0.2106106910534E+01
 0.2097151639508E+01
 0.2221672421985E+01
 0.2643636083346E+01
 0.3548505841672E+01
 0.4954790774372E+01
 0.6488608478882E+01
 0.9043978946431E-01
 0.1139796113673E+00
 0.1355732436667E+00
 0.1687382959343E+00
 0.2154931715135E+00
 0.2731419711139E+00
 0.3389071884439E+00
 0.4110106253090E+00
 0.4884425867186E+00
 0.5706275629549E+00
 0.6572264233921E+00
 0.7480264350917E+00
 0.8428646513362E+00
 0.9415501355737E+00
 0.1043754981612E+01
 0.1148868981811E+01
 0.1255821012473E+01
 0.1362959464411E+01
 0.1468155470431E+01
 0.1569164144923E+01
 0.1664176729392E+01
 0.1752269143458E+01
 0.1833179219299E+01
 0.1906630311179E+01
 0.1971910070618E+01
 0.2027866819958E+01
 0.2073149518297E+01
 0.2106487914426E+01
 0.2126878182470E+01
 0.2133662986273E+01
 0.2126556512695E+01
 0.2105993250472E+01
 0.2074959725134E+01
 0.2042858474929E+01
 0.2032442256339E+01
 0.2092406794202E+01
 0.2313910551398E+01
 0.2828323406969E+01
 0.3742411016518E+01
 0.5009297290812E+01
 0.6313855617595E+01
 0.1902255166802E+00
 0.2201261218648E+00
 0.2454873419812E+00
 0.2782787880453E+00
 0.3220861830339E+00
 0.3757952072449E+00
 0.4373387432027E+00
 0.5051026514205E+00
 0.5780447988845E+00
 0.6555072343938E+00
 0.7370544055640E+00
 0.8223663645438E+00
 0.9111574176864E+00
 0.1003092456106E+01
 0.1097677208089E+01
 0.1194127293701E+01
 0.1291232577479E+01
 0.1387302521970E+01
 0.1480309012048E+01
 0.1568216328851E+01
 0.1649450862987E+01
 0.1723286302734E+01
 0.1789644191471E+01
 0.1848493156364E+01
 0.1899465273096E+01
 0.1941840077682E+01
 0.1974753984203E+01
 0.1997461830731E+01
 0.2009548971355E+01
 0.2011118123515E+01
 0.2003030270117E+01
 0.1987566442695E+01
 0.1970552751123E+01
 0.1965489825027E+01
 0.2000353489134E+01
 0.2127401800476E+01
 0.2429456438685E+01
 0.3002737229681E+01
 0.3898732666191E+01
 0.5040751369043E+01
 0.6169333400437E+01
 0.2862928091233E+00
 0.3214872946844E+00
 0.3503609886315E+00
 0.3834608270411E+00
 0.4251556299320E+00
 0.4755211231526E+00
 0.5331916515820E+00
 0.5968021114418E+00
 0.6653399204214E+00
 0.7380969826949E+00
 0.8145585825154E+00
 0.8943093320602E+00
 0.9769528444675E+00
 0.1062027479807E+01
 0.1148902027859E+01
 0.1236664392934E+01
 0.1324026531434E+01
 0.1409318882638E+01
 0.1490652555766E+01
 0.1566213640838E+01
 0.1634661875630E+01
 0.1695464100364E+01
 0.1748719269822E+01
 0.1794628812575E+01
 0.1833152475971E+01
 0.1863986453272E+01
 0.1886749081378E+01
 0.1901232596971E+01
 0.1907650220709E+01
 0.1906925582251E+01
 0.1901121453782E+01
 0.1894361610229E+01
 0.1895151057091E+01
 0.1920474435783E+01
 0.2001630615637E+01
 0.2190039481754E+01
 0.2555119938918E+01
 0.3161857174555E+01
 0.4025284336020E+01
 0.5058282436564E+01
 0.6049123679581E+01
 0.3790564009112E+00
 0.4186330018977E+00
 0.4507183016930E+00
 0.4845328706640E+00
 0.5247565520472E+00
 0.5723160827695E+00
 0.6264701992682E+00
 0.6861394078079E+00
 0.7503871316638E+00
 0.8184857979849E+00
 0.8898605043461E+00
 0.9640147205745E+00
 0.1040456329028E+01
 0.1118617607635E+01
 0.1197761009137E+01
 0.1276889753640E+01
 0.1354688525920E+01
 0.1429553348670E+01
 0.1499759870114E+01
 0.1563722187840E+01
 0.1620330806749E+01
 0.1669243479850E+01
 0.1710734552108E+01
 0.1745230384418E+01
 0.1773003846074E+01
 0.1794151770381E+01
 0.1808764514177E+01
 0.1817176136661E+01
 0.1820250920821E+01
 0.1819767053875E+01
 0.1819003189956E+01
 0.1823857072335E+01
 0.1845222907595E+01
 0.1902701886031E+01
 0.2028799275025E+01
 0.2270638718559E+01
 0.2682640959822E+01
 0.3304691597662E+01
 0.4128830181821E+01
 0.5067665602464E+01
 0.5948797690245E+01
 0.4688870989272E+00
 0.5120716526496E+00
 0.5470309439482E+00
 0.5817794680189E+00
 0.6210121526487E+00
 0.6662303296603E+00
 0.7172126574550E+00
 0.7731666500387E+00
 0.8332610944828E+00
 0.8967748901386E+00
 0.9630918967686E+00
 0.1031650196241E+01
 0.1101878790264E+01
 0.1173125781850E+01
 0.1244577389484E+01
 0.1315190637513E+01
 0.1383664112091E+01
 0.1448492306487E+01
 0.1508131732489E+01
 0.1561226679338E+01
 0.1606895281224E+01
 0.1644984824235E+01
 0.1675944638392E+01
 0.1700420199448E+01
 0.1718984158151E+01
 0.1732117276545E+01
 0.1740369080135E+01
 0.1744613448073E+01
 0.1746376227083E+01
 0.1748302091978E+01
 0.1754864653669E+01
 0.1773602412780E+01
 0.1817380735200E+01
 0.1907373486100E+01
 0.2075306815232E+01
 0.2361875353144E+01
 0.2807199431174E+01
 0.3432141361677E+01
 0.4214840623133E+01
 0.5072597354519E+01
 0.5864952333912E+01
 0.5560948129071E+00
 0.6022307055273E+00
 0.6397183079751E+00
 0.6754945934360E+00
 0.7140871484577E+00
 0.7573551063840E+00
 0.8054871561449E+00
 0.8579564047102E+00
 0.9140511506062E+00
 0.9730766507229E+00
 0.1034393141900E+01
 0.1097389551029E+01
 0.1161433773324E+01
 0.1225811964502E+01
 0.1289662576538E+01
 0.1351929998683E+01
 0.1411359707183E+01
 0.1466568638030E+01
 0.1516204258468E+01
 0.1559140592283E+01
 0.1594719704233E+01
 0.1622976985695E+01
 0.1644536485593E+01
 0.1660257596391E+01
 0.1671000057801E+01
 0.1677611696484E+01
 0.1681086611569E+01
 0.1682831787237E+01
 0.1685035175183E+01
 0.1691201398416E+01
 0.1706943656859E+01
 0.1741240605237E+01
 0.1808400333282E+01
 0.1930075235944E+01
 0.2135634549495E+01
 0.2458456412876E+01
 0.2926206344880E+01
 0.3545871055046E+01
 0.4287625183685E+01
 0.5075490317945E+01
 0.5794896361845E+01
 0.6409413211674E+00
 0.6894712987324E+00
 0.7291523712964E+00
 0.7659682436939E+00
 0.8041710269415E+00
 0.8458123134257E+00
 0.8913871575370E+00
 0.9405997933929E+00
 0.9928601191313E+00
 0.1047513408780E+01
 0.1103911708411E+01
 0.1161410670228E+01
 0.1219334935288E+01
 0.1276930363790E+01
 0.1333313769304E+01
 0.1387445594456E+01
 0.1438144292983E+01
 0.1484166435150E+01
 0.1524356128971E+01
 0.1557814822004E+01
 0.1584104194173E+01
 0.1603445769218E+01
 0.1616637441375E+01
 0.1624747220016E+01
 0.1628909652694E+01
 0.1630323073888E+01
 0.1630410832179E+01
 0.1631103040271E+01
 0.1635242004233E+01
 0.1647167837072E+01
 0.1673541332172E+01
 0.1724515427168E+01
 0.1815244345188E+01
 0.1966851127530E+01
 0.2205303796500E+01
 0.2556694933499E+01
 0.3038441846376E+01
 0.3647726971078E+01
 0.4350553372538E+01
 0.5077987459704E+01
 0.5736443197424E+01
 0.7236515022086E+00
 0.7741023788778E+00
 0.8156637314883E+00
 0.8534795145112E+00
 0.8914666820174E+00
 0.9317459686075E+00
 0.9750268296771E+00
 0.1021204161337E+01
 0.1069802817364E+01
 0.1120216083167E+01
 0.1171800629729E+01
 0.1223893718415E+01
 0.1275793974580E+01
 0.1326727377472E+01
 0.1375812509555E+01
 0.1422049979057E+01
 0.1464351565932E+01
 0.1501625484681E+01
 0.1532914980551E+01
 0.1557545228276E+01
 0.1575292555019E+01
 0.1586561876809E+01
 0.1592323153677E+01
 0.1593847331452E+01
 0.1592531873606E+01
 0.1589909761498E+01
 0.1587818266049E+01
 0.1588698206483E+01
 0.1596030486353E+01
 0.1614947066134E+01
 0.1653026501806E+01
 0.1721277491715E+01
 0.1835094279077E+01
 0.2014253200296E+01
 0.2280792223609E+01
 0.2654103503765E+01
 0.3143483855856E+01
 0.3739434484097E+01
 0.4406244483184E+01
 0.5081324870466E+01
 0.5687784701091E+01
 0.8044216884690E+00
 0.8563918520503E+00
 0.8995475448281E+00
 0.9382933312453E+00
 0.9761826823177E+00
 0.1015315296282E+01
 0.1056536629850E+01
 0.1099890525152E+01
 0.1145004387250E+01
 0.1191322763640E+01
 0.1238217043697E+01
 0.1285019539448E+01
 0.1331018960349E+01
 0.1375440129638E+01
 0.1417423933916E+01
 0.1456031091955E+01
 0.1490282319164E+01
 0.1519245492509E+01
 0.1542163125639E+01
 0.1558579335681E+01
 0.1568479484325E+01
 0.1572448330511E+01
 0.1571625182634E+01
 0.1567477840607E+01
 0.1561655267094E+01
 0.1556010190758E+01
 0.1552778810595E+01
 0.1554897838111E+01
 0.1566462206915E+01
 0.1593331423450E+01
 0.1643837012509E+01
 0.1729495275093E+01
 0.1865383775029E+01
 0.2069355237414E+01
 0.2359399930323E+01
 0.2749056138542E+01
 0.3241358206939E+01
 0.3822437060802E+01
 0.4456651302482E+01
 0.5086611235605E+01
 0.5647441364544E+01
 0.8834257362900E+00
 0.9365751609711E+00
 0.9810688686419E+00
 0.1020659260368E+01
 0.1058528101002E+01
 0.1096689270380E+01
 0.1136059306153E+01
 0.1176790990150E+01
 0.1218598528247E+01
 0.1260977270109E+01
 0.1303320818024E+01
 0.1344968271218E+01
 0.1385213022105E+01
 0.1423295496337E+01
 0.1458396552897E+01
 0.1489653244195E+01
 0.1516206924529E+01
 0.1537290045186E+01
 0.1552342723580E+01
 0.1561122356015E+01
 0.1563817131979E+01
 0.1561187364011E+01
 0.1554538168181E+01
 0.1545527821202E+01
 0.1536045945622E+01
 0.1528251165669E+01
 0.1524763859730E+01
 0.1528998838351E+01
 0.1545630478312E+01
 0.1581160790732E+01
 0.1644482675614E+01
 0.1747270837063E+01
 0.1903823507476E+01
 0.2129731440020E+01
 0.2439101365483E+01
 0.2840529209085E+01
 0.3332328817272E+01
 0.3897897940952E+01
 0.4502901682913E+01
 0.5095047450434E+01
 0.5614297057781E+01
 0.9608193146577E+00
 0.1014862186676E+01
 0.1060467072132E+01
 0.1100811545391E+01
 0.1138709133764E+01
 0.1176042396775E+01
 0.1213746414590E+01
 0.1252046275274E+01
 0.1290725725689E+01
 0.1329327735645E+01
 0.1367273279863E+01
 0.1403918167177E+01
 0.1438573354119E+01
 0.1470509524838E+01
 0.1498962418545E+01
 0.1523158361460E+01
 0.1542367829255E+01
 0.1555990315283E+01
 0.1563660485131E+01
 0.1565342640703E+01
 0.1561421077342E+01
 0.1552826765899E+01
 0.1541026445713E+01
 0.1527862343007E+01
 0.1515454529079E+01
 0.1506254601327E+01
 0.1503252165231E+01
 0.1510318438562E+01
 0.1532661805814E+01
 0.1577323311021E+01
 0.1653551357162E+01
 0.1772856380437E+01
 0.1948411712422E+01
 0.2193410649850E+01
 0.2518404410731E+01
 0.2927917762886E+01
 0.3416760672866E+01
 0.3966810431271E+01
 0.4545364619378E+01
 0.5107031432596E+01
 0.5588235399185E+01
 0.1036734324353E+01
 0.1091411337545E+01
 0.1137910719279E+01
 0.1178902360510E+01
 0.1216841070026E+01
 0.1253448124154E+01
 0.1289635869142E+01
 0.1325669835744E+01
 0.1361386328471E+01
 0.1396371349384E+01
 0.1430076815563E+01
 0.1461883739908E+01
 0.1491132030635E+01
 0.1517135382735E+01
 0.1539196811693E+01
 0.1556641867576E+01
 0.1568875603318E+01
 0.1575464446117E+01
 0.1576232566653E+01
 0.1571343114686E+01
 0.1561368215911E+01
 0.1547402848984E+01
 0.1531069265086E+01
 0.1514385386565E+01
 0.1499690034032E+01
 0.1489712883070E+01
 0.1487793704093E+01
 0.1498229755768E+01
 0.1526703028043E+01
 0.1580672707433E+01
 0.1669535488710E+01
 0.1804366086515E+01
 0.1996997682508E+01
 0.2258261654270E+01
 0.2595583135254E+01
 0.3010214050418E+01
 0.3494441914255E+01
 0.4029385421290E+01
 0.4584424228984E+01
 0.5118865835768E+01
 0.5581545113460E+01
 0.1111310113150E+01
 0.1166397464889E+01
 0.1213604454412E+01
 0.1255142770727E+01
 0.1293124020526E+01
 0.1329088390982E+01
 0.1363893384678E+01
 0.1397817497061E+01
 0.1430733286521E+01
 0.1462264062170E+01
 0.1491894586768E+01
 0.1519037818993E+01
 0.1543072129722E+01
 0.1563364814337E+01
 0.1579296086290E+01
 0.1590298095809E+01
 0.1595913674676E+01
 0.1595874526862E+01
 0.1590188478578E+01
 0.1579209102028E+01
 0.1563687795658E+01
 0.1544876674518E+01
 0.1524547285687E+01
 0.1504885274727E+01
 0.1488437215947E+01
 0.1478196441615E+01
 0.1477832622017E+01
 0.1492034079526E+01
 0.1526888041603E+01
 0.1590146302922E+01
 0.1691163854956E+01
 0.1840371219686E+01
 0.2048154087513E+01
 0.2323116474479E+01
 0.2669994897218E+01
 0.3087446652270E+01
 0.3565968012490E+01
 0.4086484838572E+01
 0.4620342028017E+01
 0.5131117031273E+01
 0.5579289553215E+01
 0.1184668714087E+01
 0.1240003821825E+01
 0.1287778446373E+01
 0.1329793233428E+01
 0.1367832913272E+01
 0.1403244071740E+01
 0.1436804155692E+01
 0.1468780909649E+01
 0.1499067584432E+01
 0.1527318065890E+01
 0.1553050144172E+01
 0.1575713503544E+01
 0.1594732383146E+01
 0.1609536011422E+01
 0.1619589395471E+01
 0.1624436535181E+01
 0.1623759696366E+01
 0.1617453519512E+01
 0.1605703815335E+01
 0.1589046938752E+01
 0.1568406100878E+01
 0.1545184835138E+01
 0.1521299006702E+01
 0.1499095727729E+01
 0.1481320660168E+01
 0.1471218782295E+01
 0.1472770761337E+01
 0.1491020354241E+01
 0.1532390415286E+01
 0.1604805560105E+01
 0.1717416611494E+01
 0.1879861448096E+01
 0.2101046492185E+01
 0.2387523073827E+01
 0.2741733380263E+01
 0.3160277906692E+01
 0.3632408314272E+01
 0.4139190025870E+01
 0.4653900201703E+01
 0.5144043878724E+01
 0.5576819718286E+01
 0.1256922271143E+01
 0.1312373996549E+01
 0.1360601788603E+01
 0.1403034573096E+01
 0.1441147162365E+01
 0.1476085768673E+01
 0.1508528690083E+01
 0.1538713155536E+01
 0.1566539030700E+01
 0.1591683879089E+01
 0.1613697702091E+01
 0.1632070318745E+01
 0.1646277648507E+01
 0.1655817403649E+01
 0.1660245088888E+01
 0.1659219993389E+01
 0.1652563997359E+01
 0.1640331369224E+01
 0.1622879738810E+01
 0.1600920400475E+01
 0.1575540878175E+01
 0.1548290359572E+01
 0.1521223984040E+01
 0.1496844120571E+01
 0.1478086872123E+01
 0.1468436182954E+01
 0.1472162485547E+01
 0.1494625140065E+01
 0.1542509913431E+01
 0.1623801359497E+01
 0.1747313396320E+01
 0.1921799194965E+01
 0.2154716065877E+01
 0.2450765836100E+01
 0.2810456922632E+01
 0.3228778456181E+01
 0.3694148536333E+01
 0.4188009899172E+01
 0.4685501895568E+01
 0.5157679198434E+01
 0.5576527620201E+01
 0.1328175610013E+01
 0.1383641531515E+01
 0.1432231832159E+01
 0.1475037124976E+01
 0.1513238887613E+01
 0.1547780229636E+01
 0.1579226137375E+01
 0.1607767094256E+01
 0.1633297119313E+01
 0.1655510694269E+01
 0.1673988493006E+01
 0.1688262702602E+01
 0.1697865294345E+01
 0.1702367400731E+01
 0.1701419051813E+01
 0.1694796708184E+01
 0.1682460810546E+01
 0.1664621156321E+01
 0.1641800641424E+01
 0.1614877531891E+01
 0.1585096184896E+01
 0.1554145695405E+01
 0.1524215390394E+01
 0.1497956639572E+01
 0.1478487105649E+01
 0.1469516028878E+01
 0.1475580064307E+01
 0.1502311377495E+01
 0.1556586327513E+01
 0.1646348739346E+01
 0.1779975220384E+01
 0.1965290960563E+01
 0.2208377008430E+01
 0.2512296778665E+01
 0.2875945362257E+01
 0.3293063608790E+01
 0.3751549489926E+01
 0.4233378877198E+01
 0.4715483529859E+01
 0.5172026872521E+01
 0.5578483349405E+01
 0.1398527330071E+01
 0.1453931188853E+01
 0.1502815716007E+01
 0.1545961684491E+01
 0.1584273016095E+01
 0.1618489757715E+01
 0.1649053326300E+01
 0.1676094321211E+01
 0.1699490082985E+01
 0.1718945606924E+01
 0.1734070213861E+01
 0.1744439712062E+01
 0.1749645224929E+01
 0.1749334804913E+01
 0.1743255564611E+01
 0.1731301682085E+01
 0.1713570069588E+01
 0.1690421306885E+01
 0.1662536702113E+01
 0.1630953460702E+01
 0.1597065359308E+01
 0.1562695701487E+01
 0.1530162860581E+01
 0.1502260792874E+01
 0.1482279385963E+01
 0.1474138344038E+01
 0.1482615015906E+01
 0.1513570186763E+01
 0.1574002193626E+01
 0.1671729328603E+01
 0.1814622277138E+01
 0.2009574461554E+01
 0.2261390209054E+01
 0.2571700576793E+01
 0.2938066068397E+01
 0.3353273274086E+01
 0.3804935456906E+01
 0.4275659739005E+01
 0.4744064128207E+01
 0.5186940490893E+01
 0.5582458520254E+01
 0.1468070625051E+01
 0.1523360090794E+01
 0.1572491602963E+01
 0.1615960381317E+01
 0.1654407504166E+01
 0.1688371848215E+01
 0.1718164049510E+01
 0.1743844337942E+01
 0.1765264113686E+01
 0.1782132978888E+01
 0.1794086587419E+01
 0.1800744830584E+01
 0.1801759988160E+01
 0.1796859275036E+01
 0.1785888166046E+01
 0.1768857960350E+01
 0.1745999083370E+01
 0.1717817617909E+01
 0.1685146197986E+01
 0.1649172915917E+01
 0.1611433647186E+01
 0.1573880259052E+01
 0.1538954939788E+01
 0.1509587549905E+01
 0.1489230256920E+01
 0.1481997225762E+01
 0.1492879559308E+01
 0.1527922794347E+01
 0.1594185110365E+01
 0.1699292237319E+01
 0.1850569401781E+01
 0.2054004565820E+01
 0.2313239325574E+01
 0.2628665755146E+01
 0.2996748701469E+01
 0.3409556363798E+01
 0.3854590979520E+01
 0.4315140232980E+01
 0.4771361977616E+01
 0.5202248931513E+01
 0.5588157733365E+01
 0.1536893934173E+01
 0.1592038675032E+01
 0.1641389723941E+01
 0.1685177467175E+01
 0.1723793632754E+01
 0.1757578996651E+01
 0.1786708547947E+01
 0.1811163904109E+01
 0.1830762731626E+01
 0.1845213920816E+01
 0.1854177021556E+01
 0.1857315855898E+01
 0.1854344941847E+01
 0.1845071817114E+01
 0.1829440499371E+01
 0.1807577839150E+01
 0.1779844085221E+01
 0.1746885103920E+01
 0.1709677588744E+01
 0.1669552475672E+01
 0.1628180521435E+01
 0.1587636552672E+01
 0.1550481204106E+01
 0.1519773198218E+01
 0.1499116348188E+01
 0.1492802247110E+01
 0.1506008137603E+01
 0.1544922385788E+01
 0.1616609382787E+01
 0.1728453423672E+01
 0.1887219850030E+01
 0.2098039103874E+01
 0.2363509675277E+01
 0.2682961456421E+01
 0.3051966088376E+01
 0.3462060567498E+01
 0.3900760037438E+01
 0.4352040906782E+01
 0.4797437188093E+01
 0.5217788647697E+01
 0.5595279709351E+01
 0.1605081475109E+01
 0.1660071486040E+01
 0.1709633261448E+01
 0.1753750017448E+01
 0.1792576329611E+01
 0.1826258616681E+01
 0.1854833134380E+01
 0.1878196518609E+01
 0.1896126256315E+01
 0.1908325848824E+01
 0.1914476319249E+01
 0.1914284817266E+01
 0.1907528425538E+01
 0.1894095249681E+01
 0.1874027094615E+01
 0.1847563966189E+01
 0.1815191630063E+01
 0.1777689649967E+01
 0.1736171370625E+01
 0.1692102553698E+01
 0.1647281718115E+01
 0.1603901060607E+01
 0.1564634109417E+01
 0.1532660985085E+01
 0.1511725822756E+01
 0.1506279841553E+01
 0.1521658931614E+01
 0.1564155702191E+01
 0.1640796850431E+01
 0.1758693724361E+01
 0.1924058041170E+01
 0.2141225239645E+01
 0.2411869996332E+01
 0.2734418790540E+01
 0.3103719946862E+01
 0.3510925856905E+01
 0.3943648201650E+01
 0.4386530049884E+01
 0.4822318199693E+01
 0.5233410116354E+01
 0.5603539284693E+01
 0.1672713688956E+01
 0.1727557839028E+01
 0.1777339108747E+01
 0.1821808567906E+01
 0.1860894515137E+01
 0.1894553053976E+01
 0.1922679945888E+01
 0.1945082029066E+01
 0.1961491387754E+01
 0.1971602128266E+01
 0.1975114453461E+01
 0.1971777935546E+01
 0.1961431950109E+01
 0.1944044656211E+01
 0.1919754101308E+01
 0.1888910351394E+01
 0.1852119861030E+01
 0.1810289496147E+01
 0.1764661728498E+01
 0.1716829156848E+01
 0.1668711026361E+01
 0.1622611298209E+01
 0.1581310617222E+01
 0.1548102590240E+01
 0.1526859731209E+01
 0.1522174648107E+01
 0.1539515273158E+01
 0.1585244262190E+01
 0.1666316909131E+01
 0.1789555880606E+01
 0.1960641885750E+01
 0.2183186911662E+01
 0.2458057015323E+01
 0.2782916065719E+01
 0.3152030442404E+01
 0.3556280841275E+01
 0.3983427236667E+01
 0.4418737337086E+01
 0.4846016154349E+01
 0.5248978897386E+01
 0.5612676715059E+01
 0.1739867619447E+01
 0.1794592384107E+01
 0.1844618528275E+01
 0.1889477694471E+01
 0.1928881458891E+01
 0.1962599669723E+01
 0.1990386796515E+01
 0.2011956344331E+01
 0.2026990876659E+01
 0.2035171785997E+01
 0.2036216388633E+01
 0.2029915607305E+01
 0.2016170386382E+01
 0.1995027807564E+01
 0.1966719958335E+01
 0.1931703279850E+01
 0.1890699644179E+01
 0.1844736559184E+01
 0.1795177998759E+01
 0.1743735434127E+01
 0.1692441860983E+01
 0.1643707350941E+01
 0.1600413638055E+01
 0.1565959465040E+01
 0.1544333285627E+01
 0.1540250787572E+01
 0.1559286886420E+01
 0.1607845155278E+01
 0.1692785819918E+01
 0.1820640894075E+01
 0.1996595149073E+01
 0.2223613575508E+01
 0.2501862562129E+01
 0.2828367187830E+01
 0.3196928656074E+01
 0.3598241202706E+01
 0.4020240344385E+01
 0.4448764209119E+01
 0.4868532939261E+01
 0.5264375963887E+01
 0.5622462116357E+01
 0.1806617242841E+01
 0.1861265595785E+01
 0.1911577734022E+01
 0.1956876550609E+01
 0.1996665147479E+01
 0.2030530984829E+01
 0.2058087119098E+01
 0.2078951242036E+01
 0.2092753280061E+01
 0.2099159290741E+01
 0.2097901950219E+01
 0.2088812415247E+01
 0.2071852156036E+01
 0.2047145559627E+01
 0.2015016009203E+01
 0.1976022139338E+01
 0.1930995588184E+01
 0.1881077612567E+01
 0.1827745969301E+01
 0.1772823048434E+01
 0.1718448653859E+01
 0.1667133236578E+01
 0.1621853331104E+01
 0.1586104066729E+01
 0.1563977059201E+01
 0.1560293045235E+01
 0.1580710919222E+01
 0.1631651420507E+01
 0.1719865466219E+01
 0.1851604042144E+01
 0.2031600194842E+01
 0.2262250354155E+01
 0.2543122959725E+01
 0.2870712642372E+01
 0.3238451277600E+01
 0.3636909447153E+01
 0.4054207036808E+01
 0.4476691409458E+01
 0.4889866113165E+01
 0.5279498218404E+01
 0.5632697399397E+01
 0.1873033760525E+01
 0.1927664204018E+01
 0.1978318411853E+01
 0.2024119366147E+01
 0.2064368653946E+01
 0.2098474863842E+01
 0.2125909969733E+01
 0.2146194243530E+01
 0.2158902775379E+01
 0.2163684375559E+01
 0.2160285716625E+01
 0.2148577139724E+01
 0.2128579400586E+01
 0.2100492204148E+01
 0.2064727044266E+01
 0.2021940148667E+01
 0.1973066940530E+01
 0.1919355322407E+01
 0.1862389019527E+01
 0.1804093379812E+01
 0.1746708077958E+01
 0.1692838113107E+01
 0.1645548274048E+01
 0.1608420991119E+01
 0.1585638095296E+01
 0.1582107924036E+01
 0.1603552733110E+01
 0.1656392041930E+01
 0.1747261708851E+01
 0.1882150792161E+01
 0.2065391290125E+01
 0.2298889544228E+01
 0.2581710340848E+01
 0.2909912499153E+01
 0.3276636890223E+01
 0.3672375317945E+01
 0.4085427239103E+01
 0.4502584415187E+01
 0.4910012220379E+01
 0.5294259084054E+01
 0.5643216971822E+01
 0.1939185865043E+01
 0.1993871581942E+01
 0.2044938192852E+01
 0.2091315915901E+01
 0.2132110507229E+01
 0.2166554728543E+01
 0.2193980080069E+01
 0.2213808540202E+01
 0.2225559017686E+01
 0.2228861888230E+01
 0.2223476920400E+01
 0.2209312759087E+01
 0.2186448117502E+01
 0.2155155763840E+01
 0.2115931763870E+01
 0.2069524984249E+01
 0.2016968361437E+01
 0.1959609144137E+01
 0.1899129109384E+01
 0.1837548572726E+01
 0.1777200119087E+01
 0.1720777347515E+01
 0.1671426514034E+01
 0.1632808004410E+01
 0.1609180912938E+01
 0.1605524548552E+01
 0.1627606454283E+01
 0.1681831630343E+01
 0.1774722500980E+01
 0.1912032818423E+01
 0.2097748591165E+01
 0.2333363400229E+01
 0.2617525598334E+01
 0.2945941008145E+01
 0.3311523379323E+01
 0.3704716480101E+01
 0.4113984588369E+01
 0.4526497389230E+01
 0.4928969161763E+01
 0.5308589031768E+01
 0.5653887706153E+01
 0.2005139988057E+01
 0.2059968104497E+01
 0.2111531095511E+01
 0.2158571970450E+01
 0.2200005067397E+01
 0.2234889800848E+01
 0.2262417953620E+01
 0.2281912966720E+01
 0.2292837036774E+01
 0.2294801667909E+01
 0.2287579358754E+01
 0.2271116440677E+01
 0.2245548267138E+01
 0.2211218237707E+01
 0.2168703170939E+01
 0.2118839316239E+01
 0.2062750589628E+01
 0.2001876096779E+01
 0.1937987636485E+01
 0.1873192448240E+01
 0.1809909016817E+01
 0.1750913465277E+01
 0.1699426514450E+01
 0.1659176980320E+01
 0.1634488406903E+01
 0.1630395421329E+01
 0.1652695317155E+01
 0.1707769885281E+01
 0.1802035921674E+01
 0.1941044286576E+01
 0.2128492882642E+01
 0.2365538108291E+01
 0.2650492725781E+01
 0.2978782454786E+01
 0.3343146134140E+01
 0.3733999268080E+01
 0.4139949026804E+01
 0.4548476088408E+01
 0.4946737935424E+01
 0.5322435945960E+01
 0.5664608451195E+01
 0.2070960537033E+01
 0.2126031486821E+01
 0.2178187945364E+01
 0.2225989733013E+01
 0.2268162903237E+01
 0.2303595363992E+01
 0.2331339989378E+01
 0.2350622001227E+01
 0.2360847152698E+01
 0.2361608426489E+01
 0.2352691292227E+01
 0.2334079502127E+01
 0.2305963831507E+01
 0.2268755779521E+01
 0.2223108878406E+01
 0.2169941242475E+01
 0.2110460991171E+01
 0.2046191408942E+01
 0.1978986158149E+01
 0.1911031279979E+01
 0.1844824074310E+01
 0.1783216978968E+01
 0.1729497992018E+01
 0.1687454731389E+01
 0.1661462628445E+01
 0.1656597026737E+01
 0.1678671826422E+01
 0.1734040911689E+01
 0.1829028238373E+01
 0.1969018494826E+01
 0.2157481066278E+01
 0.2395308813555E+01
 0.2680554299170E+01
 0.3008427971587E+01
 0.3371536766849E+01
 0.3760279352429E+01
 0.4163378772078E+01
 0.4568559977768E+01
 0.4963323875290E+01
 0.5335765275073E+01
 0.5675309235704E+01
 0.2136710127800E+01
 0.2192137113958E+01
 0.2244996785904E+01
 0.2293668275067E+01
 0.2336691180988E+01
 0.2372783046456E+01
 0.2400858634058E+01
 0.2420045792554E+01
 0.2429694910248E+01
 0.2429381636513E+01
 0.2418905335281E+01
 0.2398287348892E+01
 0.2367772833141E+01
 0.2327838820141E+01
 0.2279211344666E+01
 0.2222884635763E+01
 0.2160144009015E+01
 0.2092589055885E+01
 0.2022146998904E+01
 0.1951074454899E+01
 0.1881940357429E+01
 0.1817667114293E+01
 0.1761602659003E+01
 0.1717583746170E+01
 0.1690025460180E+01
 0.1684030309803E+01
 0.1705417795737E+01
 0.1760512488149E+01
 0.1855562114775E+01
 0.1995824959574E+01
 0.2184602406881E+01
 0.2422595610616E+01
 0.2707667931974E+01
 0.3034873111815E+01
 0.3396722194317E+01
 0.3783602283354E+01
 0.4184321774722E+01
 0.4586783735048E+01
 0.4978737480395E+01
 0.5348559957398E+01
 0.5685950332492E+01
 0.2202449817890E+01
 0.2258358369613E+01
 0.2312043289352E+01
 0.2361703977223E+01
 0.2405694066195E+01
 0.2442561125266E+01
 0.2471082555049E+01
 0.2490290203634E+01
 0.2499481020325E+01
 0.2498215413726E+01
 0.2486308327833E+01
 0.2463819378515E+01
 0.2431047306317E+01
 0.2388532127962E+01
 0.2337068033436E+01
 0.2277719402945E+01
 0.2211841513527E+01
 0.2141102189456E+01
 0.2067493746261E+01
 0.1993335021941E+01
 0.1921259285486E+01
 0.1854252434066E+01
 0.1795714868696E+01
 0.1749522829354E+01
 0.1720119186307E+01
 0.1712621045275E+01
 0.1732844303060E+01
 0.1787085351758E+01
 0.1881535032660E+01
 0.2021366978258E+01
 0.2209775499226E+01
 0.2447340384140E+01
 0.2731803537293E+01
 0.3058116008004E+01
 0.3418723947624E+01
 0.3804003868020E+01
 0.4202816721915E+01
 0.4603178243496E+01
 0.4992994872717E+01
 0.5360820140214E+01
 0.5696521153532E+01
 0.2268239346296E+01
 0.2324766970444E+01
 0.2379411173900E+01
 0.2430190979366E+01
 0.2475273137700E+01
 0.2513034841608E+01
 0.2542116821515E+01
 0.2561456854541E+01
 0.2570301289331E+01
 0.2568198374553E+01
 0.2554981168251E+01
 0.2530748833039E+01
 0.2495853203441E+01
 0.2450894791933E+01
 0.2396731484207E+01
 0.2334491643678E+01
 0.2265593043546E+01
 0.2191763451699E+01
 0.2115051626406E+01
 0.2037830120518E+01
 0.1962789105240E+01
 0.1892971350859E+01
 0.1831822154249E+01
 0.1783247636386E+01
 0.1751706956336E+01
 0.1742320109507E+01
 0.1760891595692E+01
 0.1813692548739E+01
 0.1906877972468E+01
 0.2045579680536E+01
 0.2232945912032E+01
 0.2469504400748E+01
 0.2752941263339E+01
 0.3078155980967E+01
 0.3437557613780E+01
 0.3821510355538E+01
 0.4218893629480E+01
 0.4617771133602E+01
 0.5006117915100E+01
 0.5372562688513E+01
 0.5707039070395E+01
 0.2334137384927E+01
 0.2391433315083E+01
 0.2447182638985E+01
 0.2499221651668E+01
 0.2545527823007E+01
 0.2584306734509E+01
 0.2614063096116E+01
 0.2633643165633E+01
 0.2642246536700E+01
 0.2639413469559E+01
 0.2624998610691E+01
 0.2599142604669E+01
 0.2562250243935E+01
 0.2514980136553E+01
 0.2458249304524E+01
 0.2393243721553E+01
 0.2321435951440E+01
 0.2244605185935E+01
 0.2164847773305E+01
 0.2084581301392E+01
 0.2006545259270E+01
 0.1933832538030E+01
 0.1869925670032E+01
 0.1818751113918E+01
 0.1784773160716E+01
 0.1773103686465E+01
 0.1789528991904E+01
 0.1840298907207E+01
 0.1931554401723E+01
 0.2068428589276E+01
 0.2254084490807E+01
 0.2489066597053E+01
 0.2771070026667E+01
 0.3094992528142E+01
 0.3453232369745E+01
 0.3836138438318E+01
 0.4232574071924E+01
 0.4630586931994E+01
 0.5018134023301E+01
 0.5383820516602E+01
 0.5717548179527E+01
 0.2400201807049E+01
 0.2458426855185E+01
 0.2515438827034E+01
 0.2568887093607E+01
 0.2616555858463E+01
 0.2656476990962E+01
 0.2687019830904E+01
 0.2706942390890E+01
 0.2715402488910E+01
 0.2711937781149E+01
 0.2696429015977E+01
 0.2669060985414E+01
 0.2630291698095E+01
 0.2580835563029E+01
 0.2521664079763E+01
 0.2454014244425E+01
 0.2379405449876E+01
 0.2299659543381E+01
 0.2216911389157E+01
 0.2133614737300E+01
 0.2052550645257E+01
 0.1976855235033E+01
 0.1910040532080E+01
 0.1856043845904E+01
 0.1819323725227E+01
 0.1804973425225E+01
 0.1818754806811E+01
 0.1866900662790E+01
 0.1955559591880E+01
 0.2089908688764E+01
 0.2273186288100E+01
 0.2506022507705E+01
 0.2786186574850E+01
 0.3108624628552E+01
 0.3465750569685E+01
 0.3847895064456E+01
 0.4243871072421E+01
 0.4641646845023E+01
 0.5029075691232E+01
 0.5394641757895E+01
 0.5728118035742E+01
 0.2466489978329E+01
 0.2525816496815E+01
 0.2584260321651E+01
 0.2639277670200E+01
 0.2688453780093E+01
 0.2729643813519E+01
 0.2761082463802E+01
 0.2781443634657E+01
 0.2789849641942E+01
 0.2785842277792E+01
 0.2769334049766E+01
 0.2740557356353E+01
 0.2700024103509E+01
 0.2648502315922E+01
 0.2587013201131E+01
 0.2516837955693E+01
 0.2439534562606E+01
 0.2356958487638E+01
 0.2271273798019E+01
 0.2184961324232E+01
 0.2100835766054E+01
 0.2022069446404E+01
 0.1952196057918E+01
 0.1895154309042E+01
 0.1855386334280E+01
 0.1837956567313E+01
 0.1848596327058E+01
 0.1893525261123E+01
 0.1978920277960E+01
 0.2110043998307E+01
 0.2290270102095E+01
 0.2520383801270E+01
 0.2798295041230E+01
 0.3119050332239E+01
 0.3475107368758E+01
 0.3856777064634E+01
 0.4252788671099E+01
 0.4650968197980E+01
 0.5038979745773E+01
 0.5405088789861E+01
 0.5738842379163E+01
 0.2533059076555E+01
 0.2593671041132E+01
 0.2653727692970E+01
 0.2710483595293E+01
 0.2761317451191E+01
 0.2803903806210E+01
 0.2836343611505E+01
 0.2857231844301E+01
 0.2865663083449E+01
 0.2861191516651E+01
 0.2843768321515E+01
 0.2813677812115E+01
 0.2771486911605E+01
 0.2718015174490E+01
 0.2654328612381E+01
 0.2581745537837E+01
 0.2501853980863E+01
 0.2416533698460E+01
 0.2327968393338E+01
 0.2238656673040E+01
 0.2151438769156E+01
 0.2069516032591E+01
 0.1996435904984E+01
 0.1936129040066E+01
 0.1893010591079E+01
 0.1872106057671E+01
 0.1879109850868E+01
 0.1920231350590E+01
 0.2001694665793E+01
 0.2128887646323E+01
 0.2305378611534E+01
 0.2532178408486E+01
 0.2807406976262E+01
 0.3126266622421E+01
 0.3481290379152E+01
 0.3862770598207E+01
 0.4259321182076E+01
 0.4658563540667E+01
 0.5047886340765E+01
 0.5415237128676E+01
 0.5749837876783E+01
 0.2599966446762E+01
 0.2662059674058E+01
 0.2723922101613E+01
 0.2782595572005E+01
 0.2835242632260E+01
 0.2879352378158E+01
 0.2912893252488E+01
 0.2934387768768E+01
 0.2942912263387E+01
 0.2938043284083E+01
 0.2919778955562E+01
 0.2888460713975E+01
 0.2844712059601E+01
 0.2789402065472E+01
 0.2723636472940E+01
 0.2648763326456E+01
 0.2566391823749E+01
 0.2478416372797E+01
 0.2387030476495E+01
 0.2294740987296E+01
 0.2204405370377E+01
 0.2119246686962E+01
 0.2042818102963E+01
 0.1979032713143E+01
 0.1932268117365E+01
 0.1907500645907E+01
 0.1910380800487E+01
 0.1947108967703E+01
 0.2023972782665E+01
 0.2146522437498E+01
 0.2318579102209E+01
 0.2541451243962E+01
 0.2813541861365E+01
 0.3130269558348E+01
 0.3484279366356E+01
 0.3865850425112E+01
 0.4263452143511E+01
 0.4664439421194E+01
 0.5055837692945E+01
 0.5425174203328E+01
 0.5761242900460E+01
 0.2667269999558E+01
 0.2731052516358E+01
 0.2794925974846E+01
 0.2855705502476E+01
 0.2910325600294E+01
 0.2956084165006E+01
 0.2990818894141E+01
 0.3012987873519E+01
 0.3021660702916E+01
 0.3016448165246E+01
 0.2997405088000E+01
 0.2964936167771E+01
 0.2919723466151E+01
 0.2862683597064E+01
 0.2794956738136E+01
 0.2717912935902E+01
 0.2633173303663E+01
 0.2542636923623E+01
 0.2448496985894E+01
 0.2353258825585E+01
 0.2259788658553E+01
 0.2171323795111E+01
 0.2091414976716E+01
 0.2023948126284E+01
 0.1973252594894E+01
 0.1944244982133E+01
 0.1942523909642E+01
 0.1974279911999E+01
 0.2045877163077E+01
 0.2163061907086E+01
 0.2329964790691E+01
 0.2548265541722E+01
 0.2816728135299E+01
 0.3131054729321E+01
 0.3484046008485E+01
 0.3865979015123E+01
 0.4265152961935E+01
 0.4668594823814E+01
 0.5062876557575E+01
 0.5434998016781E+01
 0.5773216364928E+01
 0.2735028661702E+01
 0.2800721247550E+01
 0.2866823770762E+01
 0.2929907280748E+01
 0.2986663824904E+01
 0.3034193467577E+01
 0.3070205716698E+01
 0.3093104201010E+01
 0.3101965630609E+01
 0.3096449034085E+01
 0.3076677283716E+01
 0.3043125423960E+01
 0.2996536450197E+01
 0.2937872514985E+01
 0.2868302658155E+01
 0.2789210798448E+01
 0.2702220298561E+01
 0.2609224577793E+01
 0.2512406116721E+01
 0.2414258746853E+01
 0.2317648778333E+01
 0.2225820172373E+01
 0.2142312955635E+01
 0.2070976093873E+01
 0.2016079747726E+01
 0.1982469707052E+01
 0.1975683482467E+01
 0.2001898300193E+01
 0.2067563855112E+01
 0.2178651854691E+01
 0.2339656757580E+01
 0.2552704841007E+01
 0.2817004784874E+01
 0.3128618071072E+01
 0.3480553754953E+01
 0.3863105509197E+01
 0.4264381247058E+01
 0.4671019258338E+01
 0.5069044433897E+01
 0.5444815697323E+01
 0.5785936647084E+01
 0.2803302889533E+01
 0.2871139818800E+01
 0.2939702847879E+01
 0.3005297682829E+01
 0.3064356706837E+01
 0.3113774703037E+01
 0.3151136681094E+01
 0.3174804159902E+01
 0.3183877529308E+01
 0.3178080449673E+01
 0.3157616863004E+01
 0.3123040192098E+01
 0.3075157067187E+01
 0.3014973075711E+01
 0.2943680191018E+01
 0.2862667612080E+01
 0.2773550825688E+01
 0.2678206866691E+01
 0.2578796823901E+01
 0.2477792829654E+01
 0.2378052480049E+01
 0.2282818667013E+01
 0.2195612256249E+01
 0.2120235232632E+01
 0.2060887253735E+01
 0.2022331524648E+01
 0.2010033708663E+01
 0.2030151277627E+01
 0.2089223722487E+01
 0.2193472343965E+01
 0.2347806505901E+01
 0.2554875673758E+01
 0.2814423575418E+01
 0.3122957120330E+01
 0.3473757838136E+01
 0.3857164553578E+01
 0.4261078829271E+01
 0.4671690479990E+01
 0.5074379481540E+01
 0.5454741934142E+01
 0.5799600605864E+01
 0.2872155258588E+01
 0.2942385275487E+01
 0.3013654464894E+01
 0.3081977375770E+01
 0.3143506391770E+01
 0.3194922870963E+01
 0.3233692595871E+01
 0.3258150236331E+01
 0.3267439589931E+01
 0.3261367960827E+01
 0.3240235145582E+01
 0.3204681882438E+01
 0.3155581378645E+01
 0.3093980354779E+01
 0.3021087348595E+01
 0.2938287716545E+01
 0.2847178436702E+01
 0.2749609029524E+01
 0.2647708227305E+01
 0.2543916082873E+01
 0.2441072552165E+01
 0.2342411642318E+01
 0.2251426449246E+01
 0.2171861650722E+01
 0.2107834593776E+01
 0.2064013263223E+01
 0.2045779034278E+01
 0.2059259876384E+01
 0.2111084024857E+01
 0.2207740160519E+01
 0.2354599170050E+01
 0.2554911023763E+01
 0.2809052022668E+01
 0.3114072810063E+01
 0.3463605510219E+01
 0.3848075033196E+01
 0.4255169448257E+01
 0.4670571812958E+01
 0.5078914128182E+01
 0.5464897293153E+01
 0.5814422734489E+01
 0.2941651144378E+01
 0.3014538710508E+01
 0.3088774933293E+01
 0.3160052061179E+01
 0.3224218660014E+01
 0.3277734018959E+01
 0.3317952116573E+01
 0.3343199596588E+01
 0.3352687043368E+01
 0.3346327294680E+01
 0.3324532592309E+01
 0.3288040757967E+01
 0.3237794639557E+01
 0.3174879474342E+01
 0.3100513458734E+01
 0.3016068379538E+01
 0.2923111514927E+01
 0.2823453308751E+01
 0.2719178897228E+01
 0.2612685723880E+01
 0.2506787109760E+01
 0.2404700308319E+01
 0.2309881879220E+01
 0.2226008506502E+01
 0.2157102803981E+01
 0.2107723888955E+01
 0.2083154548571E+01
 0.2089479973568E+01
 0.2133410226121E+01
 0.2221711692776E+01
 0.2360257385177E+01
 0.2552974631168E+01
 0.2800977230271E+01
 0.3101971938938E+01
 0.3450036602225E+01
 0.3835738738820E+01
 0.4246556091560E+01
 0.4667609032929E+01
 0.5082672325667E+01
 0.5475406389758E+01
 0.5830634415324E+01
 0.3011859513933E+01
 0.3087686376391E+01
 0.3165166953845E+01
 0.3239633775397E+01
 0.3306603896673E+01
 0.3362305694221E+01
 0.3403991652836E+01
 0.3430003554451E+01
 0.3439646348558E+01
 0.3432963414890E+01
 0.3410497837104E+01
 0.3373094993804E+01
 0.3321770402285E+01
 0.3257644748601E+01
 0.3181938341263E+01
 0.3095998989797E+01
 0.3001352470792E+01
 0.2899758133092E+01
 0.2793246014538E+01
 0.2684160316865E+01
 0.2575278729300E+01
 0.2469793890306E+01
 0.2371116920918E+01
 0.2282845417641E+01
 0.2208894109418E+01
 0.2153698447966E+01
 0.2122426358899E+01
 0.2121103313966E+01
 0.2156507988415E+01
 0.2235686205745E+01
 0.2365045836834E+01
 0.2549266241793E+01
 0.2790310762547E+01
 0.3086670504505E+01
 0.3432984551705E+01
 0.3820039031712E+01
 0.4235117971480E+01
 0.4662726767448E+01
 0.5085666425652E+01
 0.5486395885155E+01
 0.5848483329650E+01
 0.3082853852107E+01
 0.3161920993097E+01
 0.3242941178291E+01
 0.3320842377153E+01
 0.3390778152047E+01
 0.3448737370714E+01
 0.3491885162756E+01
 0.3518606884541E+01
 0.3528334227803E+01
 0.3521269452539E+01
 0.3498106622325E+01
 0.3459809663795E+01
 0.3407469559976E+01
 0.3342238770825E+01
 0.3265331421237E+01
 0.3178060180132E+01
 0.3081896858474E+01
 0.2978537211214E+01
 0.2869944428224E+01
 0.2758398792523E+01
 0.2646633447919E+01
 0.2537808647975E+01
 0.2435281080202E+01
 0.2342557722351E+01
 0.2263431434362E+01
 0.2202197925792E+01
 0.2163891934712E+01
 0.2154458565681E+01
 0.2180725305619E+01
 0.2250009463498E+01
 0.2369276493157E+01
 0.2544027895612E+01
 0.2777194739553E+01
 0.3068198122363E+01
 0.3412378073114E+01
 0.3800839571999E+01
 0.4220707104499E+01
 0.4655824347661E+01
 0.5087893634387E+01
 0.5497992282484E+01
 0.5868232953759E+01
 0.3154713252390E+01
 0.3237343293518E+01
 0.3322218039645E+01
 0.3403807247631E+01
 0.3476864286002E+01
 0.3537130817465E+01
 0.3581703786006E+01
 0.3609046934376E+01
 0.3618756512384E+01
 0.3611225484980E+01
 0.3587320621996E+01
 0.3548135643122E+01
 0.3494839318483E+01
 0.3428611428640E+01
 0.3350650762938E+01
 0.3262222861228E+01
 0.3164732392942E+01
 0.3059798514466E+01
 0.2949305587860E+01
 0.2835459325069E+01
 0.2720939600440E+01
 0.2608866714205E+01
 0.2502533903193E+01
 0.2405345549886E+01
 0.2320957740373E+01
 0.2253508971078E+01
 0.2207880364010E+01
 0.2189912345428E+01
 0.2206454701824E+01
 0.2265077627817E+01
 0.2373314499918E+01
 0.2537551352744E+01
 0.2761809387100E+01
 0.3046603833210E+01
 0.3388143727552E+01
 0.3777983225637E+01
 0.4203144458240E+01
 0.4646771028710E+01
 0.5089332020341E+01
 0.5510319473448E+01
 0.5890162054547E+01
 0.3227523710638E+01
 0.3314063863779E+01
 0.3403129911382E+01
 0.3488669240536E+01
 0.3564993196465E+01
 0.3627590377164E+01
 0.3673515273944E+01
 0.3701352501679E+01
 0.3710906783354E+01
 0.3702797166318E+01
 0.3678086170341E+01
 0.3638008451661E+01
 0.3583812123552E+01
 0.3516698873128E+01
 0.3437842048036E+01
 0.3348447188127E+01
 0.3249837889225E+01
 0.3143543171382E+01
 0.3031356374646E+01
 0.2915398089997E+01
 0.2798286515308E+01
 0.2683094770118E+01
 0.2573043703065E+01
 0.2471422700203E+01
 0.2381735181317E+01
 0.2307943462816E+01
 0.2254752493080E+01
 0.2227870172454E+01
 0.2234135432852E+01
 0.2281341355189E+01
 0.2377584697721E+01
 0.2530186742686E+01
 0.2744382298969E+01
 0.3021963664787E+01
 0.3360209723930E+01
 0.3751291301201E+01
 0.4182215600659E+01
 0.4635400452943E+01
 0.5089936079544E+01
 0.5523496032285E+01
 0.5914563994291E+01
 0.3301379670038E+01
 0.3392205348201E+01
 0.3485823665080E+01
 0.3575582917343E+01
 0.3655305115714E+01
 0.3720223099147E+01
 0.3767383149051E+01
 0.3795542421745E+01
 0.3804764775449E+01
 0.3795934199173E+01
 0.3770332899440E+01
 0.3729347047812E+01
 0.3674304552525E+01
 0.3606422447033E+01
 0.3526837498329E+01
 0.3436681456206E+01
 0.3337182119252E+01
 0.3229764269677E+01
 0.3116117827638E+01
 0.2998267899254E+01
 0.2878763064303E+01
 0.2760622546726E+01
 0.2646986087072E+01
 0.2541015304422E+01
 0.2446044034235E+01
 0.2365837868453E+01
 0.2304900888863E+01
 0.2268777282029E+01
 0.2264255602338E+01
 0.2299309979647E+01
 0.2382578674870E+01
 0.2522352492167E+01
 0.2725199694279E+01
 0.2994390409853E+01
 0.3328511411883E+01
 0.3720563352417E+01
 0.4157665754571E+01
 0.4621504136044E+01
 0.5089631915714E+01
 0.5537632307701E+01
 0.5941745402508E+01
 0.3376385879880E+01
 0.3471905106575E+01
 0.3570463709080E+01
 0.3664719100051E+01
 0.3747950937121E+01
 0.3815138639950E+01
 0.3863365496096E+01
 0.3891623786418E+01
 0.3900294495367E+01
 0.3890568624112E+01
 0.3863972276810E+01
 0.3822052567512E+01
 0.3766216161715E+01
 0.3697687555663E+01
 0.3617554718386E+01
 0.3526860895397E+01
 0.3426722551511E+01
 0.3318445530371E+01
 0.3203603730565E+01
 0.3084116679525E+01
 0.2962456030206E+01
 0.2841581113163E+01
 0.2724542236017E+01
 0.2614360206468E+01
 0.2514181331740E+01
 0.2427552305115E+01
 0.2358749528747E+01
 0.2313119200077E+01
 0.2297354080794E+01
 0.2319555641052E+01
 0.2388862226134E+01
 0.2514546554332E+01
 0.2704619988537E+01
 0.2964046213998E+01
 0.3292999132422E+01
 0.3685577963369E+01
 0.4129194152153E+01
 0.4604823589299E+01
 0.5088312172063E+01
 0.5552827656304E+01
 0.5972022994778E+01
 0.3452659651137E+01
 0.3553318442214E+01
 0.3657235619712E+01
 0.3756267787096E+01
 0.3843093530891E+01
 0.3912448836359E+01
 0.3961513289661E+01
 0.3989589734954E+01
 0.3997442039026E+01
 0.3986612946267E+01
 0.3958896082261E+01
 0.3916007054551E+01
 0.3859428333664E+01
 0.3790382518286E+01
 0.3709895488520E+01
 0.3618906387850E+01
 0.3518403997424E+01
 0.3409559880212E+01
 0.3293819089465E+01
 0.3172985827324E+01
 0.3049448327073E+01
 0.2926100983142E+01
 0.2805896959261E+01
 0.2691703073571E+01
 0.2586459181838E+01
 0.2493469265693E+01
 0.2416753160143E+01
 0.2361422008471E+01
 0.2334022134685E+01
 0.2342717213477E+01
 0.2397083035383E+01
 0.2507358878444E+01
 0.2683089967852E+01
 0.2931158640391E+01
 0.3253649277007E+01
 0.3646095171588E+01
 0.4096447562798E+01
 0.4585040254074E+01
 0.5085830932921E+01
 0.5569168870106E+01
 0.6005715809501E+01
 0.3530333618406E+01
 0.3636622549357E+01
 0.3746350495809E+01
 0.3850441467159E+01
 0.3940908964179E+01
 0.4012266801487E+01
 0.4061868116552E+01
 0.4089416725229E+01
 0.4096133071079E+01
 0.4083958101010E+01
 0.4054974844284E+01
 0.4011072205362E+01
 0.3953803140697E+01
 0.3884377404833E+01
 0.3803744500462E+01
 0.3712723091637E+01
 0.3612157142323E+01
 0.3503067900971E+01
 0.3386758483532E+01
 0.3264908427294E+01
 0.3139817061443E+01
 0.3014310025928E+01
 0.2891236503509E+01
 0.2773296197595E+01
 0.2663202712199E+01
 0.2563991917508E+01
 0.2479396213520E+01
 0.2414252173321E+01
 0.2374904625533E+01
 0.2369503842927E+01
 0.2407978324681E+01
 0.2501484950007E+01
 0.2661163812117E+01
 0.2896041019906E+01
 0.3210479604018E+01
 0.3601861731133E+01
 0.4059013066470E+01
 0.4561761546438E+01
 0.5081998509549E+01
 0.5586733236489E+01
 0.6043124667466E+01
 0.3609559160290E+01
 0.3722021375961E+01
 0.3838050211801E+01
 0.3947478877598E+01
 0.4041587517072E+01
 0.4114705371296E+01
 0.4164459152739E+01
 0.4191061223106E+01
 0.4196269979853E+01
 0.4182471320826E+01
 0.4152056320894E+01
 0.4107088218131E+01
 0.4049182309656E+01
 0.3979522932950E+01
 0.3898968100051E+01
 0.3808199027322E+01
 0.3707897016959E+01
 0.3598916217822E+01
 0.3482404362290E+01
 0.3359907418354E+01
 0.3233631528238E+01
 0.3106331279818E+01
 0.2980746209467E+01
 0.2859396065700E+01
 0.2744747687902E+01
 0.2639541981903E+01
 0.2547191236227E+01
 0.2472215875827E+01
 0.2420700696118E+01
 0.2400697945699E+01
 0.2422382185444E+01
 0.2497740119038E+01
 0.2639525058261E+01
 0.2859118028496E+01
 0.3163570033291E+01
 0.3552620510805E+01
 0.4016412339100E+01
 0.4534497689496E+01
 0.5076576171123E+01
 0.5605605766006E+01
 0.6084471457742E+01
 0.3690510695113E+01
 0.3809751615198E+01
 0.3932613776604E+01
 0.4047649206563E+01
 0.4145334268935E+01
 0.4219874608873E+01
 0.4269299151007E+01
 0.4294455667530E+01
 0.4297728649921E+01
 0.4281993891124E+01
 0.4249964025206E+01
 0.4203872739567E+01
 0.4145386264006E+01
 0.4075649379141E+01
 0.3995412966620E+01
 0.3905203536101E+01
 0.3805521305121E+01
 0.3697035719245E+01
 0.3580725185927E+01
 0.3457993611412E+01
 0.3330951051407E+01
 0.3202280580770E+01
 0.3074607924145E+01
 0.2950260591574E+01
 0.2831437662457E+01
 0.2720557010165E+01
 0.2620676617569E+01
 0.2535957592489E+01
 0.2472163694416E+01
 0.2437157392588E+01
 0.2441232199487E+01
 0.2497074217385E+01
 0.2619011551939E+01
 0.2820957152321E+01
 0.3113091803243E+01
 0.3498123005205E+01
 0.3968104646707E+01
 0.4502628047827E+01
 0.5069238012534E+01
 0.5625994390703E+01
 0.6129639046247E+01
 0.3773391229622E+01
 0.3900089926827E+01
 0.4030365222265E+01
 0.4151256653523E+01
 0.4252368968419E+01
 0.4327878009107E+01
 0.4376379184114E+01
 0.4399503604273E+01
 0.4400354853431E+01
 0.4382338848031E+01
 0.4348495860522E+01
 0.4301219965894E+01
 0.4242213282798E+01
 0.4172565521209E+01
 0.4092904721406E+01
 0.4003585579715E+01
 0.3904908444631E+01
 0.3797339565425E+01
 0.3681673377578E+01
 0.3559163541047E+01
 0.3431822667250E+01
 0.3302264014760E+01
 0.3172997178688E+01
 0.3046146003449E+01
 0.2923620624095E+01
 0.2807486962402E+01
 0.2700413445056E+01
 0.2606157715300E+01
 0.2530100115271E+01
 0.2479816643502E+01
 0.2465574956179E+01
 0.2500585895096E+01
 0.2600642898100E+01
 0.2782307719514E+01
 0.3059344578206E+01
 0.3438157590060E+01
 0.3913466255044E+01
 0.4465457237774E+01
 0.5059296789667E+01
 0.5648695018091E+01
 0.6177314933348E+01
 0.3858445718362E+01
 0.3993396751632E+01
 0.4131744377529E+01
 0.4258736741720E+01
 0.4363046580028E+01
 0.4438956834966E+01
 0.4485836770230E+01
 0.4506271011483E+01
 0.4504177775871E+01
 0.4483525899532E+01
 0.4447680341434E+01
 0.4399178956060E+01
 0.4339741504494E+01
 0.4270386521219E+01
 0.4191604175794E+01
 0.4103560778714E+01
 0.4006337407464E+01
 0.3900176798211E+01
 0.3785672759389E+01
 0.3663919685794E+01
 0.3536832222363E+01
 0.3406957241806E+01
 0.3276687036701E+01
 0.3147929760385E+01
 0.3022282978010E+01
 0.2901428012508E+01
 0.2787604060951E+01
 0.2684116389206E+01
 0.2595894293703E+01
 0.2530122774532E+01
 0.2496880645759E+01
 0.2509684993758E+01
 0.2585608235022E+01
 0.2743904479974E+01
 0.3002391166075E+01
 0.3372053407694E+01
 0.3851316016485E+01
 0.4421674236848E+01
 0.5046268734686E+01
 0.5672420409263E+01
 0.6237410098749E+01
 0.3945952301579E+01
 0.4090060754136E+01
 0.4237194931385E+01
 0.4370479615882E+01
 0.4477613260496E+01
 0.4553185388795E+01
 0.4597599744391E+01
 0.4614586478893E+01
 0.4608970799686E+01
 0.4585303926480E+01
 0.4547259528413E+01
 0.4497494040872E+01
 0.4437722759583E+01
 0.4368876602106E+01
 0.4291294378246E+01
 0.4204939118683E+01
 0.4109653656203E+01
 0.4005435767786E+01
 0.3892660400161E+01
 0.3772253281623E+01
 0.3646032137027E+01
 0.3516483791680E+01
 0.3385884676051E+01
 0.3255916553723E+01
 0.3127840985645E+01
 0.3002921824968E+01
 0.2882929286970E+01
 0.2770667535952E+01
 0.2670547304607E+01
 0.2589256106423E+01
 0.2536508682111E+01
 0.2525866761717E+01
 0.2575397286188E+01
 0.2706956987034E+01
 0.2942820818085E+01
 0.3299564173154E+01
 0.3780639117067E+01
 0.4369993619074E+01
 0.5028913150114E+01
 0.5698008616280E+01
 0.6307720302815E+01
 0.4036243057146E+01
 0.4190522089484E+01
 0.4347189778877E+01
 0.4486845208845E+01
 0.4596209720681E+01
 0.4670467232375E+01
 0.4711381321292E+01
 0.4724038470116E+01
 0.4714251522686E+01
 0.4687152772996E+01
 0.4646691143498E+01
 0.4595605822487E+01
 0.4535581115817E+01
 0.4467443927776E+01
 0.4391370822440E+01
 0.4307109816922E+01
 0.4214248429083E+01
 0.4112517950028E+01
 0.4002055238993E+01
 0.3883608140949E+01
 0.3758900903014E+01
 0.3630370563370E+01
 0.3500183277821E+01
 0.3369787343519E+01
 0.3240088435705E+01
 0.3111904485917E+01
 0.2986502747720E+01
 0.2866144484435E+01
 0.2754661777392E+01
 0.2658144560751E+01
 0.2585766499701E+01
 0.2550838790563E+01
 0.2572031596934E+01
 0.2673518838150E+01
 0.2882255545805E+01
 0.3221436570166E+01
 0.3701179590670E+01
 0.4309432423529E+01
 0.5006316804863E+01
 0.5725324582937E+01
 0.6385362895836E+01
 0.4129724146347E+01
 0.4295349644403E+01
 0.4462352571009E+01
 0.4608327325719E+01
 0.4719081001570E+01
 0.4790796894722E+01
 0.4826996746393E+01
 0.4834345219646E+01
 0.4819701034009E+01
 0.4788748708868E+01
 0.4745659067440E+01
 0.4693207673930E+01
 0.4633017955661E+01
 0.4565797786420E+01
 0.4491554578582E+01
 0.4409813920421E+01
 0.4319893307464E+01
 0.4221235262933E+01
 0.4113716684497E+01
 0.3997896676153E+01
 0.3875410604836E+01
 0.3748659141606E+01
 0.3619706872608E+01
 0.3489763480344E+01
 0.3359360287958E+01
 0.3228843124856E+01
 0.3098946166628E+01
 0.2971351184956E+01
 0.2849257343243E+01
 0.2738062530712E+01
 0.2646224270920E+01
 0.2586488944342E+01
 0.2577651822795E+01
 0.2645715496599E+01
 0.2822289916078E+01
 0.3138185203988E+01
 0.3612182148298E+01
 0.4238411059380E+01
 0.4977095678635E+01
 0.5753694455308E+01
 0.6471609331046E+01
 0.4226892597909E+01
 0.4405239247523E+01
 0.4583425358005E+01
 0.4735474016461E+01
 0.4846451129263E+01
 0.4914101570205E+01
 0.4944183075620E+01
 0.4945157346252E+01
 0.4924949646079E+01
 0.4889731848280E+01
 0.4843820625171E+01
 0.4789970928444E+01
 0.4729712917416E+01
 0.4663623024207E+01
 0.4591538174073E+01
 0.4512760280077E+01
 0.4426326004091E+01
 0.4331366507965E+01
 0.4227473420499E+01
 0.4115003411318E+01
 0.3995508016573E+01
 0.3871367998275E+01
 0.3744558156213E+01
 0.3616046257715E+01
 0.3485972528624E+01
 0.3354187959932E+01
 0.3220869604343E+01
 0.3087091418504E+01
 0.2955374633304E+01
 0.2830339834076E+01
 0.2719560885891E+01
 0.2634898939315E+01
 0.2594729432188E+01
 0.2626180849037E+01
 0.2765136652851E+01
 0.3050821834966E+01
 0.3513024787710E+01
 0.4155080028163E+01
 0.4939328343276E+01
 0.5782406331973E+01
 0.6567743869919E+01
 0.4328364010838E+01
 0.4521051053731E+01
 0.4711293316497E+01
 0.4868883605157E+01
 0.4978498261821E+01
 0.5040213488617E+01
 0.5062579906821E+01
 0.5056048404761E+01
 0.5029574241775E+01
 0.4989707052829E+01
 0.4940808921498E+01
 0.4885547426922E+01
 0.4825325854152E+01
 0.4760580754750E+01
 0.4690984546535E+01
 0.4615622639970E+01
 0.4533246089348E+01
 0.4442652681048E+01
 0.4343119194197E+01
 0.4234781701206E+01
 0.4119112253738E+01
 0.3998490726636E+01
 0.3874816628338E+01
 0.3748813983394E+01
 0.3620217093842E+01
 0.3488364149455E+01
 0.3352859727111E+01
 0.3214153690965E+01
 0.3074058098427E+01
 0.2936344851956E+01
 0.2807549907939E+01
 0.2698335621288E+01
 0.2626074361416E+01
 0.2618120546078E+01
 0.2713793838702E+01
 0.2961092977335E+01
 0.3403387845720E+01
 0.4057293512155E+01
 0.4890501778966E+01
 0.5810458178970E+01
 0.6675365844595E+01
 0.4434911434420E+01
 0.4643859842298E+01
 0.4847013519449E+01
 0.5009191811916E+01
 0.5115317024477E+01
 0.5168833965945E+01
 0.5181707581812E+01
 0.5166506155167E+01
 0.5133097250233E+01
 0.5088246365943E+01
 0.5036236425518E+01
 0.4979573107546E+01
 0.4919499696263E+01
 0.4856309782099E+01
 0.4789526335714E+01
 0.4718036493125E+01
 0.4640309908128E+01
 0.4554791183824E+01
 0.4460407641272E+01
 0.4357049960460E+01
 0.4246112547040E+01
 0.4129994952680E+01
 0.4010537712517E+01
 0.3888219956394E+01
 0.3762357235575E+01
 0.3631763285988E+01
 0.3495466571144E+01
 0.3353293051514E+01
 0.3206333811947E+01
 0.3057460837315E+01
 0.2912037830532E+01
 0.2779233759495E+01
 0.2674829318411E+01
 0.2625357470165E+01
 0.2672225519051E+01
 0.2871802569025E+01
 0.3283531934456E+01
 0.3942661461226E+01
 0.4827343721380E+01
 0.5836469445766E+01
 0.6796480432804E+01
 0.4547520896166E+01
 0.4775023855986E+01
 0.4991846543949E+01
 0.5157043361420E+01
 0.5256862714292E+01
 0.5299487909962E+01
 0.5300943947943E+01
 0.5275925835317E+01
 0.5234988021927E+01
 0.5184893337343E+01
 0.5129699969786E+01
 0.5071672753940E+01
 0.5011864368426E+01
 0.4950428949937E+01
 0.4886765728510E+01
 0.4819595779863E+01
 0.4747124511551E+01
 0.4667428543437E+01
 0.4579045716594E+01
 0.4481587128224E+01
 0.4376366141842E+01
 0.4265822205774E+01
 0.4151753307231E+01
 0.4034391813467E+01
 0.3912623708866E+01
 0.3784734822041E+01
 0.3649189020911E+01
 0.3505209877427E+01
 0.3353181770385E+01
 0.3195053857604E+01
 0.3034911883604E+01
 0.2880167660934E+01
 0.2744448551351E+01
 0.2652349016874E+01
 0.2645533701691E+01
 0.2787229930137E+01
 0.3154755826139E+01
 0.3808697049898E+01
 0.4745623776380E+01
 0.5858451257575E+01
 0.6933635562671E+01
 0.4667472542199E+01
 0.4916280127943E+01
 0.5147287421462E+01
 0.5313037136557E+01
 0.5402870481009E+01
 0.5431468457554E+01
 0.5419501925847E+01
 0.5383607230287E+01
 0.5334667454811E+01
 0.5279169561104E+01
 0.5220787284043E+01
 0.5161465981554E+01
 0.5102041903966E+01
 0.5042540677577E+01
 0.4982275177987E+01
 0.4919849610453E+01
 0.4853240434951E+01
 0.4780151116865E+01
 0.4698685092599E+01
 0.4608126929218E+01
 0.4509696288713E+01
 0.4405889126834E+01
 0.4298474378592E+01
 0.4187432844225E+01
 0.4071212229884E+01
 0.3947577759862E+01
 0.3814459326502E+01
 0.3670525922101E+01
 0.3515502594073E+01
 0.3350431075001E+01
 0.3178054074980E+01
 0.3003807086506E+01
 0.2838658366340E+01
 0.2704168230331E+01
 0.2640086951654E+01
 0.2713633484057E+01
 0.3020118249552E+01
 0.3653165488114E+01
 0.4639892598788E+01
 0.5873437822987E+01
 0.7090133845764E+01
 0.4796462354482E+01
 0.5069877746957E+01
 0.5315087292601E+01
 0.5477627033617E+01
 0.5552741248031E+01
 0.5563773548594E+01
 0.5536411804571E+01
 0.5488757780025E+01
 0.5431516677716E+01
 0.5370583650073E+01
 0.5309085096566E+01
 0.5248574466071E+01
 0.5189652850757E+01
 0.5132235964318E+01
 0.5075599436771E+01
 0.5018299345370E+01
 0.4958143178272E+01
 0.4892473054391E+01
 0.4818910537895E+01
 0.4736350182667E+01
 0.4645890170498E+01
 0.4550090475237E+01
 0.4450696372021E+01
 0.4347425979576E+01
 0.4238282634923E+01
 0.4120532847045E+01
 0.3991626960560E+01
 0.3849758114311E+01
 0.3694079000420E+01
 0.3524788628680E+01
 0.3343278003719E+01
 0.3152850678783E+01
 0.2961393648583E+01
 0.2786444834034E+01
 0.2663564946585E+01
 0.2659781523091E+01
 0.2885530890385E+01
 0.3474816761687E+01
 0.4503201539202E+01
 0.5876894326179E+01
 0.7270351837115E+01
 0.4936790231303E+01
 0.5238765343533E+01
 0.5497246321245E+01
 0.5650949944732E+01
 0.5705386333140E+01
 0.5695040611383E+01
 0.5650514413501E+01
 0.5590504235427E+01
 0.5524890477752E+01
 0.5458642820875E+01
 0.5394188831005E+01
 0.5332630430833E+01
 0.5274324104361E+01
 0.5219101276560E+01
 0.5166259651997E+01
 0.5114396799650E+01
 0.5061243561280E+01
 0.5003820784998E+01
 0.4939224030579E+01
 0.4865874218767E+01
 0.4784696757720E+01
 0.4698304905736E+01
 0.4608408889779E+01
 0.4514441754445E+01
 0.4413960600418E+01
 0.4303775855465E+01
 0.4180942547561E+01
 0.4043291351205E+01
 0.3889533658930E+01
 0.3719150051516E+01
 0.3532246362819E+01
 0.3329928989382E+01
 0.3116699154808E+01
 0.2905263617668E+01
 0.2724888604455E+01
 0.2637379013872E+01
 0.2761299678319E+01
 0.3274851110885E+01
 0.4326932219273E+01
 0.5861746103494E+01
 0.7480218935433E+01
 0.5091660514896E+01
 0.5426854764615E+01
 0.5695935603499E+01
 0.5832536154248E+01
 0.5859027128629E+01
 0.5823493106245E+01
 0.5760473297271E+01
 0.5687914814025E+01
 0.5614135660254E+01
 0.5542866966677E+01
 0.5475713666012E+01
 0.5413286153215E+01
 0.5355698031561E+01
 0.5302727512099E+01
 0.5253760264528E+01
 0.5207544564107E+01
 0.5161867216191E+01
 0.5113512796310E+01
 0.5059022321464E+01
 0.4996237391207E+01
 0.4925823975374E+01
 0.4850404375797E+01
 0.4771611097103E+01
 0.4688551315800E+01
 0.4598342186482E+01
 0.4497411660060E+01
 0.4382541736323E+01
 0.4251351005624E+01
 0.4102285149569E+01
 0.3934297066575E+01
 0.3746368413223E+01
 0.3537468762735E+01
 0.3308576615664E+01
 0.3067007525313E+01
 0.2834032740559E+01
 0.2661199409250E+01
 0.2664022110587E+01
 0.3059731762401E+01
 0.4101102778647E+01
 0.5816771533223E+01
 0.7727931480381E+01
 0.5265680930563E+01
 0.5639386836141E+01
 0.5913257988509E+01
 0.6020836226244E+01
 0.6010961647821E+01
 0.5946924725310E+01
 0.5864814589110E+01
 0.5780032472482E+01
 0.5698614187439E+01
 0.5622804981540E+01
 0.5553306660554E+01
 0.5490224219854E+01
 0.5433442680730E+01
 0.5382721190524E+01
 0.5337599722740E+01
 0.5297100228853E+01
 0.5259244324282E+01
 0.5220733506007E+01
 0.5177564731230E+01
 0.5126875673795E+01
 0.5068934437628E+01
 0.5006268843296E+01
 0.4940335360642E+01
 0.4869846246281E+01
 0.4791501702502E+01
 0.4701468749252E+01
 0.4596428790962E+01
 0.4473976232643E+01
 0.4332504989006E+01
 0.4170697043107E+01
 0.3986680459765E+01
 0.3777513691207E+01
 0.3540754863353E+01
 0.3278110095428E+01
 0.3001733732621E+01
 0.2748776717403E+01
 0.2618309427875E+01
 0.2846265517266E+01
 0.3816136410692E+01
 0.5723979782192E+01
 0.8024990767222E+01
 0.5465728352216E+01
 0.5883416072715E+01
 0.6150656375360E+01
 0.6212479185654E+01
 0.6157349373429E+01
 0.6062761512165E+01
 0.5961999106995E+01
 0.5865917890456E+01
 0.5777730810697E+01
 0.5698052906860E+01
 0.5626659593513E+01
 0.5563168260402E+01
 0.5507262793375E+01
 0.5458717836663E+01
 0.5417286151505E+01
 0.5382387379840E+01
 0.5352502277874E+01
 0.5324500408139E+01
 0.5293926511059E+01
 0.5257086564394E+01
 0.5213638783893E+01
 0.5165809274873E+01
 0.5114683240601E+01
 0.5058467949868E+01
 0.4993503714969E+01
 0.4915893675363E+01
 0.4822459402913E+01
 0.4710995402413E+01
 0.4580080110616E+01
 0.4428434298166E+01
 0.4253717406334E+01
 0.4051503997633E+01
 0.3816364187634E+01
 0.3544658370521E+01
 0.3239055966403E+01
 0.2919711463074E+01
 0.2657226479029E+01
 0.2669660113652E+01
 0.3468668184617E+01
 0.5554584241501E+01
 0.8387606675475E+01
 0.5702531360686E+01
 0.6168368320688E+01
 0.6407562214168E+01
 0.6401193266506E+01
 0.6293152470891E+01
 0.6168246629632E+01
 0.6050518362500E+01
 0.5944699998321E+01
 0.5850964674673E+01
 0.5768272885162E+01
 0.5695521980388E+01
 0.5631893671923E+01
 0.5576911013418E+01
 0.5530396866644E+01
 0.5492358493362E+01
 0.5462717107717E+01
 0.5440666337875E+01
 0.5423624455864E+01
 0.5406930170149E+01
 0.5385971577476E+01
 0.5359484497448E+01
 0.5329003534666E+01
 0.5294879530424E+01
 0.5254649599684E+01
 0.5204419343355E+01
 0.5140543688424E+01
 0.5060320458995E+01
 0.4962003620033E+01
 0.4844585536394E+01
 0.4707154600955E+01
 0.4547387929446E+01
 0.4360026987656E+01
 0.4137508855844E+01
 0.3871786725540E+01
 0.3556670595681E+01
 0.3194736367042E+01
 0.2820610029734E+01
 0.2592573929775E+01
 0.3077871646087E+01
 0.5263940244638E+01
 0.8838207851346E+01
 0.5993751734144E+01
 0.6506357473245E+01
 0.6678422955432E+01
 0.6576498492807E+01
 0.6412525166937E+01
 0.6260747559110E+01
 0.6128989807429E+01
 0.6015636562256E+01
 0.5917902605278E+01
 0.5833211769940E+01
 0.5759713834702E+01
 0.5696237829282E+01
 0.5642198740876E+01
 0.5597496797391E+01
 0.5562412443999E+01
 0.5537424543957E+01
 0.5522678191169E+01
 0.5516667089549E+01
 0.5515043210850E+01
 0.5512342034807E+01
 0.5505937187370E+01
 0.5495953811862E+01
 0.5481353520820E+01
 0.5458774715957E+01
 0.5424347102963E+01
 0.5375175563708E+01
 0.5309503225123E+01
 0.5226341017889E+01
 0.5125273377293E+01
 0.5006036717097E+01
 0.4866870335907E+01
 0.4702563252507E+01
 0.4504757223099E+01
 0.4262828539173E+01
 0.3963666747649E+01
 0.3594219468414E+01
 0.3152282924689E+01
 0.2706641221641E+01
 0.2725806403261E+01
 0.4790220072670E+01
 0.9405786530372E+01
 0.6370485410950E+01
 0.6910873032461E+01
 0.6946368798699E+01
 0.6723039530993E+01
 0.6510068853580E+01
 0.6338015646606E+01
 0.6196250246542E+01
 0.6078189438997E+01
 0.5978266856787E+01
 0.5892719768816E+01
 0.5819137015885E+01
 0.5756109216288E+01
 0.5703005947768E+01
 0.5659829163185E+01
 0.5627127746404E+01
 0.5605923108650E+01
 0.5597449738433E+01
 0.5601906094010E+01
 0.5616223735746E+01
 0.5634558700747E+01
 0.5652349330424E+01
 0.5666981206705E+01
 0.5674860560108E+01
 0.5671455686731E+01
 0.5653436841330E+01
 0.5619427352643E+01
 0.5569262937884E+01
 0.5503065126343E+01
 0.5421083329065E+01
 0.5323809497308E+01
 0.5210549203405E+01
 0.5077251534236E+01
 0.4916618810005E+01
 0.4718220559338E+01
 0.4465841645616E+01
 0.4135304963969E+01
 0.3696607474652E+01
 0.3121498610335E+01
 0.2624873130498E+01
 0.4083329626452E+01
 0.1012056196421E+02
 0.6892543808065E+01
 0.7387847644569E+01
 0.7170811130771E+01
 0.6823956785542E+01
 0.6582695601813E+01
 0.6398042385478E+01
 0.6251587281942E+01
 0.6132063810071E+01
 0.6031944616519E+01
 0.5946766458164E+01
 0.5873784518633E+01
 0.5811495044077E+01
 0.5759289267328E+01
 0.5717290387603E+01
 0.5686290781030E+01
 0.5667770898013E+01
 0.5663979357666E+01
 0.5677347451636E+01
 0.5707685548849E+01
 0.5750245829313E+01
 0.5797911687925E+01
 0.5842789200308E+01
 0.5876663177912E+01
 0.5893634544072E+01
 0.5891913813249E+01
 0.5872791203165E+01
 0.5838557029933E+01
 0.5790901284281E+01
 0.5730679730962E+01
 0.5658844830801E+01
 0.5576022081553E+01
 0.5480680531924E+01
 0.5369095814180E+01
 0.5234384040159E+01
 0.5063165942882E+01
 0.4828365212488E+01
 0.4488117572506E+01
 0.3959087071398E+01
 0.3116253812216E+01
 0.3298089925698E+01
 0.1099514809524E+02
 0.7690496081869E+01
 0.7890036685933E+01
 0.7272842307165E+01
 0.6876658975948E+01
 0.6627528678862E+01
 0.6439672868446E+01
 0.6294875753749E+01
 0.6177221085893E+01
 0.6079024645966E+01
 0.5995448126818E+01
 0.5923749141065E+01
 0.5862466461074E+01
 0.5811087889490E+01
 0.5769871327976E+01
 0.5739809918547E+01
 0.5722722191680E+01
 0.5721554909871E+01
 0.5740890822220E+01
 0.5785542601793E+01
 0.5855744053473E+01
 0.5941595524819E+01
 0.6024760776620E+01
 0.6088795581068E+01
 0.6126706342688E+01
 0.6140096720553E+01
 0.6134578298119E+01
 0.6115961869189E+01
 0.6088136349186E+01
 0.6052506746090E+01
 0.6009404410691E+01
 0.5960187325808E+01
 0.5907753599066E+01
 0.5855226204965E+01
 0.5803266432325E+01
 0.5746334463684E+01
 0.5672317872729E+01
 0.5538732673165E+01
 0.5312240361192E+01
 0.4624952576080E+01
 0.3519969752155E+01
 0.1199611968382E+02
 0.9113541977580E+01
 0.8057546888401E+01
 0.7227433085153E+01
 0.6889433625353E+01
 0.6639988389978E+01
 0.6464217488759E+01
 0.6326164334811E+01
 0.6214053702781E+01
 0.6119772315501E+01
 0.6039005366400E+01
 0.5969225102449E+01
 0.5909182297489E+01
 0.5858526616862E+01
 0.5817661731691E+01
 0.5787728762975E+01
 0.5770736515299E+01
 0.5769950952660E+01
 0.5790968358482E+01
 0.5844308391696E+01
 0.5944917731221E+01
 0.6082194907062E+01
 0.6215493264002E+01
 0.6314430596575E+01
 0.6372658474271E+01
 0.6398394431932E+01
 0.6403868424844E+01
 0.6399592334875E+01
 0.6392396476707E+01
 0.6384760430625E+01
 0.6374241336683E+01
 0.6359470401783E+01
 0.6351343224019E+01
 0.6365255631676E+01
 0.6411087609515E+01
 0.6498589248177E+01
 0.6636698441441E+01
 0.6852108882431E+01
 0.7106369180234E+01
 0.7686260222118E+01
 0.6883630837996E+01
 0.1419845272462E+02
 0.7585015345608E+00
 0.1103895563610E+01
 0.1414167552341E+01
 0.1688913840959E+01
 0.1930762830033E+01
 0.2143284778482E+01
 0.2330348272145E+01
 0.2495799624000E+01
 0.2643164882627E+01
 0.2775633486059E+01
 0.2896275132732E+01
 0.3007121795033E+01
 0.3110547901121E+01
 0.3210194231763E+01
 0.3308564326026E+01
 0.3406371829875E+01
 0.3503361554208E+01
 0.3598652091703E+01
 0.3691087205722E+01
 0.3777400767060E+01
 0.7347777757758E+00
 0.1095964799469E+01
 0.1418366275577E+01
 0.1703416476840E+01
 0.1954153324202E+01
 0.2174533472164E+01
 0.2368817796960E+01
 0.2541123301136E+01
 0.2695156604394E+01
 0.2834290542944E+01
 0.2961626294214E+01
 0.3079365563763E+01
 0.3190340571066E+01
 0.3298043862220E+01
 0.3404724214479E+01
 0.3511478961709E+01
 0.3618447357316E+01
 0.3725150515283E+01
 0.3827397711638E+01
 0.3914997270340E+01
 0.7120676769014E+00
 0.1088875727776E+01
 0.1423020432896E+01
 0.1717508271990E+01
 0.1976300917949E+01
 0.2203829545115E+01
 0.2404682617819E+01
 0.2583214642512E+01
 0.2743328981756E+01
 0.2888533217794E+01
 0.3021993484460E+01
 0.3146243922098E+01
 0.3264242498328E+01
 0.3379306391236E+01
 0.3493697184701E+01
 0.3608603867447E+01
 0.3724230656776E+01
 0.3839150620890E+01
 0.3947877865089E+01
 0.4043057025972E+01
 0.6906796235044E+00
 0.1082348433551E+01
 0.1427664059670E+01
 0.1730876024577E+01
 0.1996951883826E+01
 0.2230904735674E+01
 0.2437653359941E+01
 0.2621774815830E+01
 0.2787348990383E+01
 0.2938013590748E+01
 0.3077047433358E+01
 0.3207226513014E+01
 0.3331571743453E+01
 0.3453244892656E+01
 0.3574463566928E+01
 0.3696377042362E+01
 0.3818869829930E+01
 0.3939842567090E+01
 0.4054191948490E+01
 0.4155982136729E+01
 0.6707134370863E+00
 0.1076296843725E+01
 0.1432012768139E+01
 0.1743218548803E+01
 0.2015839884262E+01
 0.2255499027660E+01
 0.2467461701140E+01
 0.2656519684573E+01
 0.2826914858666E+01
 0.2982412534694E+01
 0.3126398406093E+01
 0.3261823416891E+01
 0.3391727019644E+01
 0.3519113546253E+01
 0.3646095098878E+01
 0.3773656999602E+01
 0.3901371265369E+01
 0.4026905118152E+01
 0.4145547450717E+01
 0.4252003003797E+01
 0.6522320904223E+00
 0.1070634244854E+01
 0.1435863082772E+01
 0.1754280799402E+01
 0.2032710654527E+01
 0.2277365646926E+01
 0.2493858421154E+01
 0.2687189829102E+01
 0.2861751041031E+01
 0.3021421346647E+01
 0.3169675871981E+01
 0.3309581593185E+01
 0.3444159219760E+01
 0.3576246875884E+01
 0.3707802830178E+01
 0.3839622555255E+01
 0.3971064666532E+01
 0.4099698786039E+01
 0.4221080004990E+01
 0.4330074670899E+01
 0.6352836894394E+00
 0.1065282145216E+01
 0.1439045721193E+01
 0.1763846810839E+01
 0.2047335703216E+01
 0.2296278062337E+01
 0.2516617286301E+01
 0.2713552106556E+01
 0.2891607364990E+01
 0.3054757552819E+01
 0.3206543407103E+01
 0.3350097440237E+01
 0.3488389613701E+01
 0.3624084439205E+01
 0.3758968600685E+01
 0.3893663220444E+01
 0.4027373927991E+01
 0.4157619186222E+01
 0.4280093996536E+01
 0.4389581940066E+01
 0.6199095425099E+00
 0.1060170472682E+01
 0.1441416367777E+01
 0.1771731808042E+01
 0.2059515745950E+01
 0.2312035969255E+01
 0.2535538781937E+01
 0.2735402022120E+01
 0.2916264608439E+01
 0.3082174034249E+01
 0.3236710488705E+01
 0.3383029193801E+01
 0.3524023704856E+01
 0.3662183858507E+01
 0.3799125208377E+01
 0.3935314311908E+01
 0.4069840522681E+01
 0.4200185338476E+01
 0.4322104597024E+01
 0.4430199039059E+01
 0.6061463188117E+00
 0.1055238958697E+01
 0.1442852318813E+01
 0.1777779413856E+01
 0.2069081393251E+01
 0.2324468657212E+01
 0.2550453532100E+01
 0.2752567400333E+01
 0.2935539711342E+01
 0.3103466618487E+01
 0.3259941359504E+01
 0.3408106317373E+01
 0.3550759594972E+01
 0.3690219978227E+01
 0.3827939187839E+01
 0.3964247094378E+01
 0.4098140286217E+01
 0.4227072402735E+01
 0.4346826526650E+01
 0.4451810384505E+01
 0.5940265837351E+00
 0.1050437730222E+01
 0.1443251654070E+01
 0.1781860619084E+01
 0.2075893675765E+01
 0.2333437059954E+01
 0.2561225207576E+01
 0.2764911914096E+01
 0.2949290400327E+01
 0.3118479941073E+01
 0.3276061416237E+01
 0.3425135375428E+01
 0.3568390882230E+01
 0.3707981391529E+01
 0.3845204255723E+01
 0.3980267831535E+01
 0.4112093771409E+01
 0.4238118943523E+01
 0.4354148616746E+01
 0.4454441442326E+01
 0.5835787047032E+00
 0.1045727551924E+01
 0.1442533080719E+01
 0.1783873577339E+01
 0.2079844532390E+01
 0.2338835237206E+01
 0.2567752825808E+01
 0.2772338083054E+01
 0.2957418909321E+01
 0.3127111752908E+01
 0.3284961369290E+01
 0.3434002992028E+01
 0.3576807050346E+01
 0.3715367987785E+01
 0.3850838479109E+01
 0.3983318558194E+01
 0.4111670315151E+01
 0.4233327509153E+01
 0.4344128835075E+01
 0.4438258742552E+01
 0.5748266284191E+00
 0.1041079839689E+01
 0.1440635974131E+01
 0.1783743668864E+01
 0.2080857256630E+01
 0.2340591445686E+01
 0.2569972457855E+01
 0.2774789515190E+01
 0.2959874627185E+01
 0.3129315669192E+01
 0.3286599403666E+01
 0.3434676709261E+01
 0.3575992610816E+01
 0.3712388724523E+01
 0.3844882266365E+01
 0.3973476670825E+01
 0.4096988598883E+01
 0.4212864650298E+01
 0.4317000659617E+01
 0.4403594274326E+01
 0.5677896659485E+00
 0.1036476521817E+01
 0.1437520386468E+01
 0.1781423570951E+01
 0.2078886792886E+01
 0.2338668828868E+01
 0.2567858341739E+01
 0.2772252345326E+01
 0.2956655662854E+01
 0.3125102509343E+01
 0.3281001739059E+01
 0.3427204385492E+01
 0.3566025310810E+01
 0.3699159066078E+01
 0.3827495888158E+01
 0.3950953098656E+01
 0.4068315181360E+01
 0.4177059471762E+01
 0.4273170357314E+01
 0.4350944417577E+01
 0.5624823357991E+00
 0.1031909791777E+01
 0.1433166937073E+01
 0.1776893197121E+01
 0.2073919797623E+01
 0.2333065696141E+01
 0.2561423385884E+01
 0.2764755849212E+01
 0.2947809348764E+01
 0.3114540356395E+01
 0.3268261836105E+01
 0.3411712357203E+01
 0.3547073353049E+01
 0.3675897584555E+01
 0.3798955948448E+01
 0.3916088937138E+01
 0.4026061120393E+01
 0.4126398969959E+01
 0.4213208767223E+01
 0.4280962157032E+01
 0.5589142580538E+00
 0.1027381769446E+01
 0.1427576544450E+01
 0.1770159437409E+01
 0.2065974416956E+01
 0.2323815380324E+01
 0.2550719079618E+01
 0.2752372278191E+01
 0.2933431778590E+01
 0.3097753506407E+01
 0.3248538456442E+01
 0.3388402510814E+01
 0.3519391594131E+01
 0.3642921514073E+01
 0.3759650598319E+01
 0.3869350501167E+01
 0.3970776608815E+01
 0.4061521363210E+01
 0.4137843303134E+01
 0.4194451431615E+01
 0.5570900792084E+00
 0.1022904086374E+01
 0.1420769985908E+01
 0.1761255666773E+01
 0.2055099753936E+01
 0.2310985668717E+01
 0.2535834832297E+01
 0.2735215966360E+01
 0.2913666470640E+01
 0.3074920435465E+01
 0.3222052700024E+01
 0.3357548322037E+01
 0.3483316670717E+01
 0.3600641116367E+01
 0.3710073344344E+01
 0.3811322708989E+01
 0.3903143890150E+01
 0.3983208633601E+01
 0.4047951615872E+01
 0.4092365318176E+01
 0.5570093799264E+00
 0.1018497392544E+01
 0.1412787267841E+01
 0.1750240996183E+01
 0.2041375005065E+01
 0.2294677805225E+01
 0.2516896764050E+01
 0.2713441763175E+01
 0.2888702240919E+01
 0.3046270888453E+01
 0.3189084112234E+01
 0.3319489911031E+01
 0.3439261042680E+01
 0.3549552802474E+01
 0.3650815396073E+01
 0.3742700839270E+01
 0.3823968737637E+01
 0.3892378584112E+01
 0.3944556419394E+01
 0.3975807078460E+01
 0.5586665623084E+00
 0.1014190796627E+01
 0.1403686818217E+01
 0.1737199274109E+01
 0.2024908278772E+01
 0.2275025090921E+01
 0.2494065997354E+01
 0.2687242865783E+01
 0.2858770383066E+01
 0.3012082198499E+01
 0.3149965959836E+01
 0.3274628185234E+01
 0.3387705993322E+01
 0.3490231026938E+01
 0.3582556572568E+01
 0.3664280717035E+01
 0.3734170523259E+01
 0.3790076102724E+01
 0.3828820453464E+01
 0.3846032532930E+01
 0.5620506980636E+00
 0.1010021244597E+01
 0.1393544508861E+01
 0.1722237850037E+01
 0.2005835115345E+01
 0.2252191117271E+01
 0.2467536503602E+01
 0.2656848126880E+01
 0.2824141249620E+01
 0.2972674941166E+01
 0.3105079775412E+01
 0.3223418155949E+01
 0.3329193657024E+01
 0.3423319010974E+01
 0.3506054809413E+01
 0.3576947309622E+01
 0.3634770658318E+01
 0.3677462996128E+01
 0.3702040413197E+01
 0.3704452111626E+01
 0.5671453443211E+00
 0.1006032844280E+01
 0.1382452522618E+01
 0.1705486119180E+01
 0.1984316734736E+01
 0.2226367670477E+01
 0.2437532559314E+01
 0.2622518910385E+01
 0.2785120322457E+01
 0.2928408021305E+01
 0.3054849270668E+01
 0.3166361528093E+01
 0.3264318172471E+01
 0.3349518387119E+01
 0.3422134330620E+01
 0.3481661692851E+01
 0.3526879085032E+01
 0.3555805623009E+01
 0.3565638615535E+01
 0.3552631046879E+01
 0.5739283495778E+00
 0.1002276146570E+01
 0.1370518086944E+01
 0.1687093877177E+01
 0.1960538049247E+01
 0.2197772355546E+01
 0.2404305875337E+01
 0.2584545574318E+01
 0.2742043867050E+01
 0.2879673299868E+01
 0.2999733735670E+01
 0.3103998689867E+01
 0.3193716098056E+01
 0.3269577902951E+01
 0.3331672590839E+01
 0.3379446383254E+01
 0.3411678541587E+01
 0.3426459416019E+01
 0.3421150737811E+01
 0.3392284588745E+01
 0.5823716827396E+00
 0.9988073960656E+00
 0.1357862098685E+01
 0.1667229517498E+01
 0.1934705481733E+01
 0.2166645990955E+01
 0.2368132462634E+01
 0.2543243658855E+01
 0.2695274263347E+01
 0.2826889868259E+01
 0.2940221046729E+01
 0.3036900243073E+01
 0.3118056249896E+01
 0.3184281355218E+01
 0.3235586139594E+01
 0.3271369093113E+01
 0.3290406445389E+01
 0.3290849509488E+01
 0.3270206483417E+01
 0.3225259733207E+01
 0.5924413244885E+00
 0.9956877659810E+00
 0.1344617668758E+01
 0.1646078108764E+01
 0.1907044634247E+01
 0.2133249827991E+01
 0.2329309300195E+01
 0.2498949858477E+01
 0.2645195107171E+01
 0.2770498080857E+01
 0.2876820413316E+01
 0.2965658229486E+01
 0.3038029148012E+01
 0.3094434968306E+01
 0.3134815626024E+01
 0.3158525080251E+01
 0.3164334395222E+01
 0.3150447400148E+01
 0.3114502891247E+01
 0.3053508073153E+01
 0.6040972586964E+00
 0.9929825941425E+00
 0.1330928619386E+01
 0.1623839394448E+01
 0.1877797857396E+01
 0.2097862653682E+01
 0.2288150874631E+01
 0.2452017860851E+01
 0.2592206180349E+01
 0.2710953462524E+01
 0.2810055004059E+01
 0.2890877224098E+01
 0.2954336282342E+01
 0.3000854478116E+01
 0.3030310254660E+01
 0.3042018412139E+01
 0.3034745602975E+01
 0.3006743903510E+01
 0.2955773139376E+01
 0.2879051876510E+01
 0.6172935953980E+00
 0.9907606374383E+00
 0.1316947967499E+01
 0.1600725757947E+01
 0.1847221770188E+01
 0.2060777834173E+01
 0.2244985657462E+01
 0.2402814130470E+01
 0.2536718382830E+01
 0.2648720603293E+01
 0.2740454588360E+01
 0.2813165464912E+01
 0.2867679416044E+01
 0.2904352209719E+01
 0.2923012076271E+01
 0.2922942648711E+01
 0.2902910812112E+01
 0.2861219036532E+01
 0.2795749471940E+01
 0.2703938059144E+01
 0.6319788473185E+00
 0.9890933626928E+00
 0.1302836429078E+01
 0.1576960197052E+01
 0.1815584780123E+01
 0.2022300353748E+01
 0.2200152582898E+01
 0.2351713711006E+01
 0.2479148715861E+01
 0.2584267148485E+01
 0.2668548326238E+01
 0.2733126184708E+01
 0.2778750142170E+01
 0.2805724450134E+01
 0.2813840559327E+01
 0.2802361600977E+01
 0.2770063622974E+01
 0.2715309530601E+01
 0.2636119541038E+01
 0.2530178238497E+01
 0.6480963675405E+00
 0.9880542921593E+00
 0.1288760982338E+01
 0.1552774357075E+01
 0.1783164658686E+01
 0.1982743909168E+01
 0.2153997592244E+01
 0.2299096123230E+01
 0.2419915408783E+01
 0.2518057996802E+01
 0.2594857842916E+01
 0.2651349311139E+01
 0.2688219906734E+01
 0.2705739418738E+01
 0.2703677913177E+01
 0.2681290933651E+01
 0.2637376407023E+01
 0.2570375530484E+01
 0.2478477947977E+01
 0.2359676052181E+01
 0.6655849490692E+00
 0.9877184194503E+00
 0.1274893519603E+01
 0.1528406658780E+01
 0.1750246209525E+01
 0.1942428096577E+01
 0.2106870285149E+01
 0.2245341407906E+01
 0.2359433255337E+01
 0.2450549794566E+01
 0.2519890701453E+01
 0.2568403674105E+01
 0.2596730673963E+01
 0.2605126091175E+01
 0.2593355592950E+01
 0.2560681377965E+01
 0.2505938188942E+01
 0.2427669061523E+01
 0.2324277513921E+01
 0.2194148946632E+01
 0.6843795730055E+00
 0.9881617149346E+00
 0.1261409634042E+01
 0.1504100581031E+01
 0.1717119092065E+01
 0.1901675750921E+01
 0.2059120735789E+01
 0.2190826376266E+01
 0.2298109235636E+01
 0.2382185823045E+01
 0.2444134391966E+01
 0.2484829850603E+01
 0.2504886370101E+01
 0.2504564051797E+01
 0.2483642296997E+01
 0.2441404190998E+01
 0.2376735838420E+01
 0.2288307191490E+01
 0.2174787106010E+01
 0.2035059653168E+01
 0.7044122622429E+00
 0.9894607287337E+00
 0.1248487575445E+01
 0.1480103148941E+01
 0.1684075853620E+01
 0.1860810486386E+01
 0.2011096519712E+01
 0.2135921119944E+01
 0.2236338495474E+01
 0.2313391384508E+01
 0.2368050982261E+01
 0.2401133811938E+01
 0.2413245258935E+01
 0.2404674523773E+01
 0.2375233701549E+01
 0.2324239420991E+01
 0.2250639822671E+01
 0.2153252584768E+01
 0.2031062025014E+01
 0.1883570221482E+01
 0.7256130231374E+00
 0.9916923030261E+00
 0.1236307416890E+01
 0.1456663681290E+01
 0.1651410216992E+01
 0.1820154469009E+01
 0.1963139970175E+01
 0.2080985797913E+01
 0.2174500716401E+01
 0.2244569759881E+01
 0.2292072561596E+01
 0.2317781540063E+01
 0.2322313378067E+01
 0.2306012610679E+01
 0.2268743949745E+01
 0.2209867249828E+01
 0.2128395385329E+01
 0.2023303228482E+01
 0.1893929573316E+01
 0.1740521092235E+01
 0.7479108133557E+00
 0.9949333893421E+00
 0.1225050482864E+01
 0.1434032874289E+01
 0.1619415687921E+01
 0.1780026457732E+01
 0.1915585677570E+01
 0.2026367702282E+01
 0.2112956878565E+01
 0.2176098770229E+01
 0.2216597586942E+01
 0.2235194798789E+01
 0.2232539171553E+01
 0.2209060652346E+01
 0.2164698514060E+01
 0.2098862101527E+01
 0.2010619423715E+01
 0.1899091988706E+01
 0.1763989621013E+01
 0.1606431383871E+01
 0.7712344655193E+00
 0.9992609563341E+00
 0.1214899103010E+01
 0.1412462309363E+01
 0.1588384530970E+01
 0.1740740106109E+01
 0.1868758193463E+01
 0.1972398551084E+01
 0.2052046348259E+01
 0.2108327875760E+01
 0.2141988167345E+01
 0.2153748277471E+01
 0.2144309610770E+01
 0.2114222632028E+01
 0.2063527681714E+01
 0.1991688300370E+01
 0.1897802573800E+01
 0.1781096606412E+01
 0.1641628815712E+01
 0.1481515097732E+01
 0.7955134298694E+00
 0.1004751947108E+01
 0.1206036817431E+01
 0.1392204570021E+01
 0.1558607216454E+01
 0.1702602550006E+01
 0.1822969952355E+01
 0.1919392053775E+01
 0.1992084330514E+01
 0.2041575806104E+01
 0.2068568345330E+01
 0.2073768549135E+01
 0.2057948654857E+01
 0.2021820338035E+01
 0.1965559924008E+01
 0.1888695104049E+01
 0.1790314294696E+01
 0.1669661596678E+01
 0.1527051977439E+01
 0.1365710706701E+01
 0.8206780878666E+00
 0.1011483181252E+01
 0.1198649323666E+01
 0.1373514267230E+01
 0.1530372435308E+01
 0.1665913160808E+01
 0.1778519308938E+01
 0.1867641709193E+01
 0.1933359623258E+01
 0.1976128480187E+01
 0.1996622918830E+01
 0.1995534648345E+01
 0.1973719110505E+01
 0.1932092706485E+01
 0.1871014915632E+01
 0.1790106107521E+01
 0.1688404982499E+01
 0.1565029259094E+01
 0.1420343504252E+01
 0.1258748520148E+01
 0.8466589933045E+00
 0.1019531117438E+01
 0.1192926693382E+01
 0.1356650677855E+01
 0.1503967598411E+01
 0.1630962190463E+01
 0.1735688491189E+01
 0.1817418945719E+01
 0.1876132815910E+01
 0.1912237118906E+01
 0.1926396316623E+01
 0.1919279290037E+01
 0.1891828430392E+01
 0.1845203602974E+01
 0.1779998604939E+01
 0.1695998854024E+01
 0.1592189240815E+01
 0.1467374087335E+01
 0.1321557317917E+01
 0.1160256828918E+01
 0.8733837816428E+00
 0.1028970571689E+01
 0.1189069422170E+01
 0.1341882759092E+01
 0.1479679836889E+01
 0.1598028221056E+01
 0.1694741362880E+01
 0.1768971784948E+01
 0.1820635185607E+01
 0.1850116568739E+01
 0.1858090737443E+01
 0.1845189071400E+01
 0.1812434813649E+01
 0.1761261802289E+01
 0.1692521410919E+01
 0.1606264501504E+01
 0.1501588764269E+01
 0.1376801355653E+01
 0.1230854991308E+01
 0.1069881129013E+01
 0.9007655899144E+00
 0.1039877132280E+01
 0.1187300352419E+01
 0.1329502111791E+01
 0.1457793097803E+01
 0.1567373595973E+01
 0.1655921015747E+01
 0.1722524437535E+01
 0.1767068776011E+01
 0.1789944380216E+01
 0.1791863559248E+01
 0.1773401259643E+01
 0.1735650378995E+01
 0.1680339304785E+01
 0.1608564299645E+01
 0.1520637565940E+01
 0.1416102226174E+01
 0.1293274621634E+01
 0.1148668009847E+01
 0.9875984263464E+00
 0.9286768675568E+00
 0.1052305875781E+01
 0.1187935421447E+01
 0.1319825794278E+01
 0.1438576311042E+01
 0.1539239702723E+01
 0.1619447305628E+01
 0.1678276897628E+01
 0.1715610445564E+01
 0.1731861067980E+01
 0.1727824109521E+01
 0.1703998358970E+01
 0.1661532661736E+01
 0.1602484657812E+01
 0.1528121756539E+01
 0.1438943490435E+01
 0.1334788983564E+01
 0.1215442478583E+01
 0.1076328370082E+01
 0.9146415335502E+00
 0.9566643976395E+00
 0.1066657040948E+01
 0.1191452799219E+01
 0.1313156083375E+01
 0.1422270379634E+01
 0.1513841987263E+01
 0.1585517478196E+01
 0.1636400908804E+01
 0.1666413663720E+01
 0.1675991066224E+01
 0.1666016513385E+01
 0.1636993420861E+01
 0.1590089478529E+01
 0.1527682548174E+01
 0.1451243600746E+01
 0.1361161222307E+01
 0.1257373754673E+01
 0.1140023863849E+01
 0.1010158819115E+01
 0.8605909368155E+00
 0.1914578644828E+01
 0.7259573835932E+00
 0.1662177406802E+00
 0.2601169504704E-01
 0.5869162832199E-01
 0.1162298538720E+00
 0.1645170965796E+00
 0.2076534376368E+00
 0.2455201583805E+00
 0.2764008992243E+00
 0.2960398038629E+00
 0.2992302809393E+00
 0.2761580094754E+00
 0.2266083621772E+00
 0.1584205887700E+00
 0.7897237452515E-01
 0.1430369853692E-01
 0.7461869598834E-01
 0.1384926876564E+00
 0.2616742285047E+00
 0.1993454351022E+01
 0.1401512811814E+01
 0.5758170443155E+00
 0.2589902944874E+00
 0.1175720910027E+00
 0.3196645508751E-01
 0.2936841692998E-01
 0.7924060918143E-01
 0.1225631111451E+00
 0.1595702802810E+00
 0.1881355796784E+00
 0.2082847206473E+00
 0.2089870304625E+00
 0.1821653093798E+00
 0.1340939677896E+00
 0.7376228321536E-01
 0.1575326524079E-01
 0.4204586073922E-01
 0.9687330217900E-01
 0.1866770025005E+00
 0.1857579485057E+01
 0.1620183712701E+01
 0.9787661009606E+00
 0.5457493330663E+00
 0.3291509256883E+00
 0.2068333774554E+00
 0.1261574294281E+00
 0.6537781561935E-01
 0.1461929978735E-01
 0.2982311983344E-01
 0.6826432079088E-01
 0.1021333308026E+00
 0.1212840262873E+00
 0.1138066202319E+00
 0.8383866852630E-01
 0.4023088463129E-01
 0.6702521870702E-02
 0.5265439435657E-01
 0.1070899179659E+00
 0.2144710778024E+00
 0.1717225945963E+01
 0.1674953661079E+01
 0.1235506012356E+01
 0.8287027593110E+00
 0.5632104253937E+00
 0.4037057259643E+00
 0.3004804850961E+00
 0.2261384647315E+00
 0.1663148817874E+00
 0.1138856386056E+00
 0.6646987794750E-01
 0.2140608770875E-01
 0.1288413565231E-01
 0.2118283648708E-01
 0.6216615520254E-02
 0.2549585887253E-01
 0.6453184925484E-01
 0.1115382630646E+00
 0.1819266588371E+00
 0.3302369339223E+00
 0.1591804262775E+01
 0.1662671986337E+01
 0.1388524290584E+01
 0.1056423483787E+01
 0.7925849589441E+00
 0.6114503108690E+00
 0.4889256249365E+00
 0.4011180344883E+00
 0.3319325421981E+00
 0.2718815428726E+00
 0.2168350108730E+00
 0.1629169549051E+00
 0.1177709727494E+00
 0.9714648737865E-01
 0.1019145623789E+00
 0.1258084206658E+00
 0.1641840724861E+00
 0.2207699207169E+00
 0.3169828470378E+00
 0.5103887315314E+00
 0.1484145218394E+01
 0.1622149782383E+01
 0.1474973737167E+01
 0.1228205181827E+01
 0.9960471527558E+00
 0.8157071197674E+00
 0.6837815103733E+00
 0.5863214022244E+00
 0.5094991627110E+00
 0.4432938581759E+00
 0.3825850530386E+00
 0.3226679832209E+00
 0.2697827452779E+00
 0.2407850815412E+00
 0.2394574333099E+00
 0.2613926980794E+00
 0.3050733114448E+00
 0.3771491473996E+00
 0.5018551135413E+00
 0.7346718978076E+00
 0.1392296126493E+01
 0.1571092672883E+01
 0.1519837544983E+01
 0.1354118023154E+01
 0.1168010413343E+01
 0.1005697862102E+01
 0.8766612766127E+00
 0.7763856782128E+00
 0.6957480343358E+00
 0.6261112090106E+00
 0.5623791013158E+00
 0.4995705086124E+00
 0.4426729346359E+00
 0.4093201162153E+00
 0.4062172725191E+00
 0.4308212844008E+00
 0.4840343118135E+00
 0.5739329104865E+00
 0.7247195970882E+00
 0.9866637314916E+00
 0.1313544640518E+01
 0.1517966571462E+01
 0.1539135802875E+01
 0.1445238504231E+01
 0.1309982512006E+01
 0.1176588722537E+01
 0.1061074813729E+01
 0.9658419107038E+00
 0.8866545611826E+00
 0.8174020028448E+00
 0.7539421919343E+00
 0.6916571824518E+00
 0.6345629391903E+00
 0.6008059997751E+00
 0.5998143280594E+00
 0.6306029925571E+00
 0.6955177015273E+00
 0.8026210995980E+00
 0.9740991498806E+00
 0.1253412924506E+01
 0.1245320544733E+01
 0.1466807212449E+01
 0.1543081625581E+01
 0.1510896079816E+01
 0.1426117736853E+01
 0.1327426172219E+01
 0.1233221738844E+01
 0.1150196632384E+01
 0.1078138057200E+01
 0.1013705024408E+01
 0.9542635341538E+00
 0.8961028171094E+00
 0.8425878105878E+00
 0.8121157219005E+00
 0.8164286929369E+00
 0.8556339588633E+00
 0.9325752875907E+00
 0.1054241218831E+01
 0.1239653464895E+01
 0.1524925635825E+01
 0.1185436405690E+01
 0.1419391519440E+01
 0.1538173998077E+01
 0.1558300151191E+01
 0.1521053031787E+01
 0.1459318282815E+01
 0.1391422738663E+01
 0.1326293346337E+01
 0.1266590323240E+01
 0.1211444166677E+01
 0.1159876779165E+01
 0.1109413168943E+01
 0.1063041190072E+01
 0.1039110356458E+01
 0.1051114517590E+01
 0.1099764775664E+01
 0.1187664289282E+01
 0.1320112566027E+01
 0.1512471634143E+01
 0.1793654162470E+01
 0.1132104735648E+01
 0.1376307326613E+01
 0.1528515814490E+01
 0.1592794931719E+01
 0.1599023160784E+01
 0.1574233071333E+01
 0.1535363715641E+01
 0.1492155769209E+01
 0.1449089012292E+01
 0.1407237817168E+01
 0.1367144941719E+01
 0.1327672410338E+01
 0.1291611694612E+01
 0.1276919372091E+01
 0.1298189559229E+01
 0.1356324800735E+01
 0.1453222162979E+01
 0.1592270332188E+01
 0.1785126743502E+01
 0.2054045329215E+01
 0.1083894134622E+01
 0.1337511073943E+01
 0.1516641775504E+01
 0.1618234361515E+01
 0.1663561767088E+01
 0.1674324242527E+01
 0.1665475990944E+01
 0.1646672345603E+01
 0.1623381779815E+01
 0.1598061925339E+01
 0.1572492273658E+01
 0.1546797482476E+01
 0.1523657453549E+01
 0.1520258757589E+01
 0.1551620259884E+01
 0.1618551966695E+01
 0.1722051729894E+01
 0.1863677272805E+01
 0.2051614015150E+01
 0.2302158074932E+01
 0.1039672947309E+01
 0.1302631243503E+01
 0.1504046011269E+01
 0.1637323774325E+01
 0.1717460318982E+01
 0.1761589447632E+01
 0.1782515689497E+01
 0.1789289986758E+01
 0.1787770637001E+01
 0.1781300640952E+01
 0.1772563245039E+01
 0.1762761783007E+01
 0.1754475548922E+01
 0.1763743286538E+01
 0.1805366987236E+01
 0.1879925521781E+01
 0.1987562108778E+01
 0.2128297247285E+01
 0.2307226040524E+01
 0.2535346158745E+01
 0.9985561411080E+00
 0.1271138397103E+01
 0.1491525282989E+01
 0.1651896544257E+01
 0.1762830501580E+01
 0.1837721506460E+01
 0.1887308084044E+01
 0.1919777779899E+01
 0.1940977351493E+01
 0.1954735138044E+01
 0.1964317930296E+01
 0.1971771561950E+01
 0.1979540314769E+01
 0.2002170025714E+01
 0.2053681743992E+01
 0.2134418753562E+01
 0.2243905076384E+01
 0.2381071152884E+01
 0.2548384438751E+01
 0.2751996737559E+01
 0.9598591044743E+00
 0.1242441651137E+01
 0.1479407202304E+01
 0.1663129456745E+01
 0.1801201474877E+01
 0.1904065224099E+01
 0.1980608404498E+01
 0.2038066737026E+01
 0.2082027859546E+01
 0.2116507354450E+01
 0.2145081194230E+01
 0.2170392068144E+01
 0.2194696858647E+01
 0.2230763485186E+01
 0.2291365629278E+01
 0.2376700570912E+01
 0.2486043744762E+01
 0.2617818102221E+01
 0.2772424214202E+01
 0.2951311758041E+01
 0.9230577959752E+00
 0.1215942330887E+01
 0.1467705472310E+01
 0.1671710114882E+01
 0.1833623942614E+01
 0.1961630348092E+01
 0.2063038803454E+01
 0.2144152705972E+01
 0.2210167208476E+01
 0.2265079174708E+01
 0.2312560226182E+01
 0.2355624785131E+01
 0.2396298410181E+01
 0.2445373065689E+01
 0.2514000337748E+01
 0.2602329374900E+01
 0.2709810394169E+01
 0.2835084117963E+01
 0.2977311405292E+01
 0.3133106555829E+01
 0.8877529246579E+00
 0.1191059861017E+01
 0.1456228749693E+01
 0.1677970054367E+01
 0.1860772150272E+01
 0.2011134185195E+01
 0.2135073254207E+01
 0.2238046324068E+01
 0.2324804598319E+01
 0.2399197525227E+01
 0.2464842039430E+01
 0.2524938487574E+01
 0.2581273741682E+01
 0.2642588332327E+01
 0.2718144418290E+01
 0.2808006185370E+01
 0.2912052789144E+01
 0.3030019405349E+01
 0.3161238613391E+01
 0.3297587808387E+01
 0.8536315219334E+00
 0.1167240625449E+01
 0.1444659247915E+01
 0.1681999718989E+01
 0.1883042765168E+01
 0.2053060459155E+01
 0.2197051696320E+01
 0.2319754083690E+01
 0.2425483952509E+01
 0.2517870008206E+01
 0.2600383026028E+01
 0.2676264147442E+01
 0.2747113126339E+01
 0.2819720200475E+01
 0.2901349860029E+01
 0.2991871205334E+01
 0.3091168393688E+01
 0.3200443096917E+01
 0.3322127146101E+01
 0.3444916136245E+01
 0.8204277126145E+00
 0.1143933012889E+01
 0.1432639658886E+01
 0.1683754472372E+01
 0.1900653875201E+01
 0.2087728701402E+01
 0.2249210273854E+01
 0.2389277139094E+01
 0.2511867218285E+01
 0.2620360749354E+01
 0.2718004895211E+01
 0.2807979582434E+01
 0.2891805758541E+01
 0.2974622002851E+01
 0.3061853803349E+01
 0.3153152278313E+01
 0.3248011890003E+01
 0.3346684967426E+01
 0.3456609369851E+01
 0.3574345316220E+01
 0.7877495703031E+00
 0.1120724061762E+01
 0.1419845442761E+01
 0.1683159895260E+01
 0.1913765988287E+01
 0.2115361698213E+01
 0.2291710863144E+01
 0.2446624463715E+01
 0.2583717582175E+01
 0.2706164739848E+01
 0.2816975036244E+01
 0.2918924573549E+01
 0.3013761563036E+01
 0.3105560191365E+01
 0.3198047503360E+01
 0.3291012964866E+01
 0.3383682835810E+01
 0.3474990760691E+01
 0.3566988195604E+01
 0.3679148500558E+01
 0.9865065730594E+00
 0.1087308784235E+01
 0.1202706589330E+01
 0.1313866166490E+01
 0.1411283167806E+01
 0.1490399921689E+01
 0.1549204073709E+01
 0.1587147676439E+01
 0.1604518124918E+01
 0.1602035693325E+01
 0.1580793654609E+01
 0.1542090123279E+01
 0.1487177938252E+01
 0.1418757165268E+01
 0.1339381710692E+01
 0.1249012409902E+01
 0.1147459152904E+01
 0.1034835633691E+01
 0.9153975660030E+00
 0.8072390580177E+00
 0.1019804529893E+01
 0.1113218111669E+01
 0.1220823719674E+01
 0.1321239996264E+01
 0.1404821388159E+01
 0.1467789218304E+01
 0.1509051885611E+01
 0.1528915697846E+01
 0.1528437571350E+01
 0.1509000965360E+01
 0.1472334716670E+01
 0.1420465811472E+01
 0.1355021542789E+01
 0.1279225449975E+01
 0.1196459028926E+01
 0.1106652927042E+01
 0.1009812607644E+01
 0.9065017015064E+00
 0.8040345422123E+00
 0.6969690701349E+00
 0.1054142157677E+01
 0.1141748402818E+01
 0.1242584415288E+01
 0.1332433084988E+01
 0.1401535928706E+01
 0.1447270685658E+01
 0.1469865335347E+01
 0.1470775057383E+01
 0.1451991485784E+01
 0.1415657765963E+01
 0.1364139584451E+01
 0.1299824923815E+01
 0.1224635351835E+01
 0.1142588866080E+01
 0.1057763263817E+01
 0.9700807371171E+00
 0.8794899776225E+00
 0.7866985170817E+00
 0.6929196122865E+00
 0.5844117607361E+00
 0.1089732347141E+01
 0.1173657649989E+01
 0.1268681663749E+01
 0.1347669628421E+01
 0.1401174101125E+01
 0.1428253400382E+01
 0.1430883749746E+01
 0.1411951144590E+01
 0.1374526321721E+01
 0.1321530810559E+01
 0.1255869969805E+01
 0.1180131871524E+01
 0.1096486969807E+01
 0.1009730077131E+01
 0.9243970432381E+00
 0.8400863118178E+00
 0.7561766471609E+00
 0.6713823279842E+00
 0.5831348078896E+00
 0.4808538037561E+00
 0.1126999192137E+01
 0.1209666726464E+01
 0.1299656178361E+01
 0.1366953310960E+01
 0.1403166635967E+01
 0.1409767725494E+01
 0.1390962579282E+01
 0.1351329273571E+01
 0.1295104951789E+01
 0.1225939637165E+01
 0.1147154380784E+01
 0.1061382446685E+01
 0.9709462107765E+00
 0.8812743820403E+00
 0.7969710941731E+00
 0.7169493179927E+00
 0.6394938417562E+00
 0.5617545716329E+00
 0.4802434691530E+00
 0.3883917323521E+00
 0.1166496094146E+01
 0.1250582648581E+01
 0.1335899093259E+01
 0.1389956715192E+01
 0.1406516896340E+01
 0.1390396799676E+01
 0.1348554902530E+01
 0.1287478294080E+01
 0.1212577962073E+01
 0.1128103160830E+01
 0.1037604189333E+01
 0.9435674495605E+00
 0.8483202613700E+00
 0.7577090407931E+00
 0.6760130370602E+00
 0.6012034096498E+00
 0.5305420337769E+00
 0.4603324000084E+00
 0.3871786161083E+00
 0.3076064454783E+00
 0.1208932635144E+01
 0.1297279383240E+01
 0.1377602092862E+01
 0.1415919258580E+01
 0.1409696421094E+01
 0.1368214576478E+01
 0.1301705913358E+01
 0.1218698052011E+01
 0.1125667281478E+01
 0.1027222843333E+01
 0.9268766253423E+00
 0.8267265315409E+00
 0.7289297757467E+00
 0.6395259241538E+00
 0.5621382051057E+00
 0.4937224023405E+00
 0.4307056764495E+00
 0.3689617474439E+00
 0.3054513476900E+00
 0.2385509955226E+00
 0.1255208290079E+01
 0.1350677312734E+01
 0.1424654964735E+01
 0.1443515045887E+01
 0.1410534555844E+01
 0.1340734619543E+01
 0.1248072382137E+01
 0.1143096951381E+01
 0.1033073291041E+01
 0.9225908113171E+00
 0.8147649046618E+00
 0.7110212710447E+00
 0.6131746313365E+00
 0.5272583534208E+00
 0.4559963141240E+00
 0.3953415668557E+00
 0.3410379211214E+00
 0.2887382371869E+00
 0.2356887486147E+00
 0.1811246705647E+00
 0.1306456833406E+01
 0.1411701120443E+01
 0.1476496943016E+01
 0.1470677611359E+01
 0.1406094791165E+01
 0.1304877088718E+01
 0.1184981766055E+01
 0.1058715182003E+01
 0.9336215355320E+00
 0.8137246674309E+00
 0.7013012737410E+00
 0.5968037828051E+00
 0.5015655295296E+00
 0.4214593602310E+00
 0.3581510954336E+00
 0.3066543950778E+00
 0.2621405893948E+00
 0.2201302690577E+00
 0.1779924679159E+00
 0.1351355383191E+00
 0.1364101100849E+01
 0.1481204788284E+01
 0.1531900022843E+01
 0.1494369638217E+01
 0.1392539709847E+01
 0.1256971564869E+01
 0.1109555717600E+01
 0.9637143973959E+00
 0.8264573557737E+00
 0.7005242710300E+00
 0.5868591685802E+00
 0.4846678530507E+00
 0.3947315578410E+00
 0.3226680490130E+00
 0.2690168877672E+00
 0.2279633878360E+00
 0.1941957695965E+00
 0.1631380241553E+00
 0.1321229761447E+00
 0.1002932983410E+00
 0.1429920132837E+01
 0.1559840067554E+01
 0.1588649336798E+01
 0.1510280153599E+01
 0.1364998526419E+01
 0.1192832316856E+01
 0.1018936893043E+01
 0.8566565006250E+00
 0.7112890523331E+00
 0.5834352512587E+00
 0.4722350733624E+00
 0.3754714815906E+00
 0.2934080203708E+00
 0.2313856660650E+00
 0.1888452116804E+00
 0.1593019377863E+00
 0.1370449278194E+00
 0.1174191945476E+00
 0.9759900628333E-01
 0.7619416657995E-01
 0.1506129019173E+01
 0.1647825192704E+01
 0.1643061727752E+01
 0.1512430520303E+01
 0.1317475528231E+01
 0.1107974312175E+01
 0.9106751337937E+00
 0.7368895917851E+00
 0.5886625545694E+00
 0.4635867979333E+00
 0.3586818302535E+00
 0.2703162371658E+00
 0.1984035095934E+00
 0.1480598228481E+00
 0.1177407095518E+00
 0.1004859836758E+00
 0.9027119891050E-01
 0.8238316732186E-01
 0.7376431788265E-01
 0.6235055041200E-01
 0.1595466841057E+01
 0.1744530723374E+01
 0.1689245045203E+01
 0.1492681772775E+01
 0.1242892539466E+01
 0.9980907854800E+00
 0.7833417575992E+00
 0.6050341528998E+00
 0.4602139063468E+00
 0.3428471409237E+00
 0.2478582207604E+00
 0.1704723680955E+00
 0.1105524391481E+00
 0.7309382710454E-01
 0.5572087642507E-01
 0.5118840776145E-01
 0.5327327760888E-01
 0.5726810434424E-01
 0.5986118758898E-01
 0.5826441661335E-01
 0.1701272712398E+01
 0.1847716366801E+01
 0.1717936187336E+01
 0.1440183113220E+01
 0.1133475956664E+01
 0.8599867029129E+00
 0.6374238517760E+00
 0.4634893223214E+00
 0.3287867551234E+00
 0.2237195227814E+00
 0.1416700100280E+00
 0.7726940814127E-01
 0.3081634884836E-01
 0.8251343230464E-02
 0.5391956634546E-02
 0.1133870196847E-01
 0.2532907838787E-01
 0.4122469703124E-01
 0.5509215541843E-01
 0.6339113346320E-01
 0.1827486470239E+01
 0.1952065344652E+01
 0.1714652108809E+01
 0.1340964094508E+01
 0.9819365029275E+00
 0.6932417584320E+00
 0.4764218250460E+00
 0.3167328571177E+00
 0.1982334426361E+00
 0.1090234516401E+00
 0.4205733324472E-01
 0.9356967742077E-02
 0.4139163763573E-01
 0.5159345395061E-01
 0.4260842204404E-01
 0.2144956768606E-01
 0.5651256850943E-02
 0.3340784551771E-01
 0.5856279437186E-01
 0.7697498929233E-01
 0.1978358975015E+01
 0.2046210925682E+01
 0.1656753957808E+01
 0.1178351938798E+01
 0.7843900047071E+00
 0.5027460641366E+00
 0.3077236230896E+00
 0.1709260590386E+00
 0.7277135726833E-01
 0.2362244621343E-02
 0.4980313010359E-01
 0.8529929704560E-01
 0.1037661343424E+00
 0.1003373685576E+00
 0.7850632462812E-01
 0.4502198858649E-01
 0.6580301008412E-02
 0.3293409011169E-01
 0.6915677918136E-01
 0.9805290157246E-01
 0.2157287447105E+01
 0.2106167009743E+01
 0.1509007806091E+01
 0.9365696132066E+00
 0.5464168732129E+00
 0.3016393797513E+00
 0.1416873023337E+00
 0.3253344107104E-01
 0.4394142122395E-01
 0.9729978972986E-01
 0.1323137526503E+00
 0.1529120930833E+00
 0.1569912991583E+00
 0.1401327660613E+00
 0.1059507974880E+00
 0.6092595117736E-01
 0.1217253809698E-01
 0.3867191519535E-01
 0.8553947538259E-01
 0.1255595264608E+00
 0.2361504678550E+01
 0.2079188458253E+01
 0.1218936162646E+01
 0.6137889631442E+00
 0.2947612267762E+00
 0.1085080630960E+00
 0.1214310098628E-01
 0.9346876429291E-01
 0.1495234257036E+00
 0.1859605596626E+00
 0.2055354720537E+00
 0.2112428618140E+00
 0.2007120494102E+00
 0.1705805636577E+00
 0.1245639541879E+00
 0.6900975951648E-01
 0.1212705060577E-01
 0.4932165252610E-01
 0.1061598977162E+00
 0.1583095813444E+00
 0.2566333066891E+01
 0.1833926539681E+01
 0.7253403034946E+00
 0.2755377505210E+00
 0.6559355343218E-01
 0.6220310396482E-01
 0.1463047873926E+00
 0.2043572341652E+00
 0.2430429960883E+00
 0.2647757116710E+00
 0.2699860536241E+00
 0.2606470409092E+00
 0.2345915088618E+00
 0.1908649638776E+00
 0.1334953701044E+00
 0.6883404158760E-01
 0.9506870080979E-02
 0.6371357101716E-01
 0.1290117341251E+00
 0.1948158568214E+00
 0.2495227978542E+01
 0.9752308574912E+00
 0.2050189583207E+00
 0.7830543115273E-02
 0.1235108972708E+00
 0.2027747285222E+00
 0.2596476390582E+00
 0.2997783870302E+00
 0.3245866925852E+00
 0.3343870151326E+00
 0.3279551445992E+00
 0.3024652786145E+00
 0.2573443285966E+00
 0.1988629677584E+00
 0.1313434945325E+00
 0.5979011154979E-01
 0.1664763313088E-01
 0.8191449758683E-01
 0.1511638616255E+00
 0.2320964248693E+00
 0.3803832388652E+01
 0.3714571462196E+01
 0.3609103007927E+01
 0.3490646241987E+01
 0.3356418285798E+01
 0.3205707288761E+01
 0.3038223243356E+01
 0.2853959059521E+01
 0.2653094091139E+01
 0.2436017582723E+01
 0.2203404408402E+01
 0.1956353952939E+01
 0.1696621100359E+01
 0.1426998172488E+01
 0.1151950980772E+01
 0.8787020115349E+00
 0.6191210148443E+00
 0.3933550749454E+00
 0.2370776843179E+00
 0.2272750534042E+00
 0.3943851833535E+01
 0.3892083792817E+01
 0.3810625320937E+01
 0.3711178644866E+01
 0.3596657939077E+01
 0.3466821198071E+01
 0.3321078693028E+01
 0.3158848818212E+01
 0.2979706255336E+01
 0.2783432668639E+01
 0.2570084085532E+01
 0.2340103428518E+01
 0.2094510746252E+01
 0.1835217520452E+01
 0.1565546462361E+01
 0.1291105390921E+01
 0.1021332206601E+01
 0.7723360239175E+00
 0.5735063539949E+00
 0.4826930689023E+00
 0.4073673253888E+01
 0.4038446355330E+01
 0.3983614170902E+01
 0.3908501230033E+01
 0.3816565983534E+01
 0.3708980621843E+01
 0.3585740427591E+01
 0.3446433048877E+01
 0.3290565578044E+01
 0.3117744611423E+01
 0.2927794443015E+01
 0.2720873854247E+01
 0.2497624313593E+01
 0.2259378642874E+01
 0.2008462636241E+01
 0.1748636273420E+01
 0.1485714105630E+01
 0.1228461734401E+01
 0.9891439256159E+00
 0.7811769895488E+00
 0.4191435574264E+01
 0.4169427152162E+01
 0.4133239752440E+01
 0.4080121674189E+01
 0.4010281471214E+01
 0.3924524341186E+01
 0.3823017342473E+01
 0.3705473012439E+01
 0.3571389753259E+01
 0.3420222744743E+01
 0.3251502274788E+01
 0.3064919363596E+01
 0.2860393599600E+01
 0.2638124395760E+01
 0.2398609022937E+01
 0.2142570476504E+01
 0.1870656453416E+01
 0.1582444265132E+01
 0.1273542308975E+01
 0.9261216103630E+00
 0.4292882172282E+01
 0.4283028760490E+01
 0.4261931640342E+01
 0.4226644538678E+01
 0.4176068745463E+01
 0.4109911448439E+01
 0.4027941605058E+01
 0.3929680792820E+01
 0.3814429056273E+01
 0.3681339013473E+01
 0.3529472456239E+01
 0.3357819914100E+01
 0.3165270495488E+01
 0.2950510128650E+01
 0.2711802346709E+01
 0.2446562921388E+01
 0.2150544558950E+01
 0.1816310435216E+01
 0.1430414935324E+01
 0.9700117867285E+00
 0.4376021096240E+01
 0.4377332394998E+01
 0.4368862598504E+01
 0.4348109021328E+01
 0.4313405132281E+01
 0.4263722567842E+01
 0.4198230128356E+01
 0.4116024683904E+01
 0.4016016880876E+01
 0.3896906169669E+01
 0.3757163405830E+01
 0.3594982690036E+01
 0.3408174992219E+01
 0.3193972511939E+01
 0.2948699126514E+01
 0.2667239038308E+01
 0.2342220086811E+01
 0.1962858915795E+01
 0.1513870984635E+01
 0.9769905250774E+00
 0.4439679866805E+01
 0.4450852329172E+01
 0.4452992525628E+01
 0.4443984138215E+01
 0.4421983121200E+01
 0.4385475822044E+01
 0.4333098722869E+01
 0.4263442768633E+01
 0.4174924837385E+01
 0.4065706319505E+01
 0.3933624447859E+01
 0.3776101152388E+01
 0.3590002412915E+01
 0.3371422577638E+01
 0.3115366848065E+01
 0.2815309727309E+01
 0.2462635236459E+01
 0.2046091949240E+01
 0.1551774676801E+01
 0.9659046990840E+00
 0.4483266490888E+01
 0.4502730925577E+01
 0.4513570293694E+01
 0.4513893355802E+01
 0.4501780521067E+01
 0.4475400806015E+01
 0.4432950516421E+01
 0.4372536736763E+01
 0.4292066521207E+01
 0.4189154864821E+01
 0.4061037463068E+01
 0.3904469540445E+01
 0.3715593047255E+01
 0.3489759011027E+01
 0.3221299439094E+01
 0.2903260016808E+01
 0.2527148044369E+01
 0.2082847138060E+01
 0.1559177324156E+01
 0.9479417034904E+00
 0.4506504705870E+01
 0.4532490447955E+01
 0.4550133598300E+01
 0.4557617147933E+01
 0.4552957577518E+01
 0.4534095009963E+01
 0.4498878818584E+01
 0.4444999500080E+01
 0.4369906622398E+01
 0.4270728204810E+01
 0.4144191353070E+01
 0.3986537085957E+01
 0.3793422831317E+01
 0.3559811015499E+01
 0.3279852396672E+01
 0.2946792391689E+01
 0.2552966366020E+01
 0.2090049852570E+01
 0.1550157371917E+01
 0.9323869674521E+00
 0.4509325802086E+01
 0.4539916595916E+01
 0.4562425407996E+01
 0.4575019467594E+01
 0.4575646690145E+01
 0.4562078630666E+01
 0.4531904876017E+01
 0.4482491522709E+01
 0.4410924100018E+01
 0.4313947782335E+01
 0.4187909558558E+01
 0.4028703188620E+01
 0.3831718220230E+01
 0.3591799033352E+01
 0.3303229447921E+01
 0.2959775960551E+01
 0.2554861477089E+01
 0.2082061712356E+01
 0.1536736618431E+01
 0.9243197643047E+00
 0.4491872460616E+01
 0.4525120959486E+01
 0.4550548961872E+01
 0.4566288984165E+01
 0.4570232719709E+01
 0.4560038392399E+01
 0.4533120672725E+01
 0.4486621871639E+01
 0.4417373694438E+01
 0.4321858588492E+01
 0.4196176987093E+01
 0.4036025161580E+01
 0.3836689257014E+01
 0.3593064812081E+01
 0.3299718739177E+01
 0.2951026551419E+01
 0.2541457801336E+01
 0.2066226272743E+01
 0.1523194862637E+01
 0.9219543655657E+00
 0.4454459839050E+01
 0.4488445703297E+01
 0.4514873276145E+01
 0.4531867364078E+01
 0.4537298912918E+01
 0.4528773709064E+01
 0.4503616383492E+01
 0.4458847232244E+01
 0.4391156436376E+01
 0.4296882291210E+01
 0.4171999911971E+01
 0.4012126763563E+01
 0.3812552270955E+01
 0.3568301371403E+01
 0.3274247585213E+01
 0.2925304846345E+01
 0.2516767686193E+01
 0.2045014588793E+01
 0.1509479827906E+01
 0.9220140927751E+00
 0.4397565914126E+01
 0.4430410175089E+01
 0.4455958710226E+01
 0.4472374499582E+01
 0.4477559376108E+01
 0.4469134420750E+01
 0.4444419900123E+01
 0.4400414002118E+01
 0.4333773745325E+01
 0.4240803504097E+01
 0.4117457461138E+01
 0.3959362856907E+01
 0.3761871730390E+01
 0.3520150484141E+01
 0.3229320538267E+01
 0.2884674756327E+01
 0.2482031905189E+01
 0.2018434917087E+01
 0.1494104174902E+01
 0.9218031751675E+00
 0.4321831080019E+01
 0.4351696774670E+01
 0.4374527232484E+01
 0.4388573973785E+01
 0.4391828006981E+01
 0.4381996834977E+01
 0.4356481650374E+01
 0.4312355506627E+01
 0.4246345648657E+01
 0.4154824907321E+01
 0.4033818244891E+01
 0.3879031478242E+01
 0.3685910104529E+01
 0.3449737338114E+01
 0.3165783250226E+01
 0.2829526292920E+01
 0.2437003369388E+01
 0.1985486841166E+01
 0.1475392703522E+01
 0.9194525184688E+00
 0.4228061063674E+01
 0.4253154614978E+01
 0.4271462839946E+01
 0.4281373560354E+01
 0.4281024628870E+01
 0.4268279791832E+01
 0.4240703726500E+01
 0.4195537687549E+01
 0.4129678702701E+01
 0.4039666670914E+01
 0.3921685048004E+01
 0.3771582143870E+01
 0.3584921454463E+01
 0.3357071053043E+01
 0.3083344852071E+01
 0.2759217041457E+01
 0.2380663707729E+01
 0.1944823242681E+01
 0.1451851794548E+01
 0.9137293304479E+00
 0.4117231890193E+01
 0.4135810494080E+01
 0.4147827441459E+01
 0.4151847675206E+01
 0.4146207535299E+01
 0.4128990922387E+01
 0.4098002714476E+01
 0.4050740750064E+01
 0.3984368629305E+01
 0.3895692732073E+01
 0.3781148254680E+01
 0.3636800868391E+01
 0.3458372942207E+01
 0.3241306332543E+01
 0.2980878222345E+01
 0.2672396046784E+01
 0.2311528728237E+01
 0.1894959806550E+01
 0.1422188274580E+01
 0.9038201116191E+00
 0.3990497797510E+01
 0.4000885476116E+01
 0.4004887362678E+01
 0.4001275983700E+01
 0.3988627379983E+01
 0.3965299092887E+01
 0.3929403143238E+01
 0.3878774610927E+01
 0.3810936880449E+01
 0.3723065392574E+01
 0.3611953016073E+01
 0.3473982225183E+01
 0.3305112595095E+01
 0.3100897332881E+01
 0.2856550600597E+01
 0.2567100951285E+01
 0.2227698556649E+01
 0.1834261118645E+01
 0.1385220020303E+01
 0.8891826213157E+00
 0.3849201435398E+01
 0.3849816222014E+01
 0.3844148535988E+01
 0.3831195844986E+01
 0.3809800813114E+01
 0.3778633070283E+01
 0.3736163949164E+01
 0.3680633779469E+01
 0.3610011204608E+01
 0.3521944244532E+01
 0.3413703573064E+01
 0.3282120204760E+01
 0.3123523369360E+01
 0.2933691184443E+01
 0.2707839059013E+01
 0.2440692102822E+01
 0.2126727437303E+01
 0.1760783304558E+01
 0.1339736435048E+01
 0.8694603797260E+00
 0.3694883832149E+01
 0.3684277256080E+01
 0.3667395125244E+01
 0.3643462218479E+01
 0.3611597229193E+01
 0.3570800614082E+01
 0.3519934428900E+01
 0.3457692327165E+01
 0.3382557584056E+01
 0.3292746555418E+01
 0.3186134672905E+01
 0.3060162527224E+01
 0.2911721836373E+01
 0.2737027224221E+01
 0.2531493671031E+01
 0.2289668947400E+01
 0.2005327856043E+01
 0.1671954421290E+01
 0.1284277251596E+01
 0.8444480738104E+00
 0.3529293057273E+01
 0.3506202368929E+01
 0.3476728960711E+01
 0.3440312108163E+01
 0.3396335862423E+01
 0.3344126415531E+01
 0.3282941001672E+01
 0.3211945765119E+01
 0.3130179570941E+01
 0.3036499233866E+01
 0.2929499957295E+01
 0.2807403103108E+01
 0.2667902466676E+01
 0.2507961825576E+01
 0.2323565389510E+01
 0.2109449603402E+01
 0.1858918071366E+01
 0.1564008674046E+01
 0.1216684928761E+01
 0.8140322613324E+00
 0.3354381812107E+01
 0.3317790400454E+01
 0.3274592145019E+01
 0.3224411786771E+01
 0.3166866903657E+01
 0.3101578382182E+01
 0.3028171365914E+01
 0.2946266031373E+01
 0.2855455124812E+01
 0.2755262943144E+01
 0.2645077487841E+01
 0.2524043609476E+01
 0.2390899859117E+01
 0.2243735787027E+01
 0.2079641680143E+01
 0.1894228569006E+01
 0.1681039837602E+01
 0.1431075807091E+01
 0.1133207654196E+01
 0.7779580592248E+00
 0.3172279750229E+01
 0.3121479899219E+01
 0.3063750388328E+01
 0.2998855213508E+01
 0.2926595762972E+01
 0.2846832603385E+01
 0.2759499438351E+01
 0.2664609832244E+01
 0.2562254776461E+01
 0.2452586621010E+01
 0.2335781495752E+01
 0.2211967220315E+01
 0.2081095627384E+01
 0.1942725240649E+01
 0.1795659675532E+01
 0.1637356109872E+01
 0.1462986617336E+01
 0.1264050141291E+01
 0.1027057197917E+01
 0.7349859796846E+00
 0.2985280348524E+01
 0.2919947475347E+01
 0.2847300478485E+01
 0.2767190032569E+01
 0.2679542008060E+01
 0.2584386325120E+01
 0.2481881666027E+01
 0.2372337554882E+01
 0.2256233717686E+01
 0.2134234785914E+01
 0.2007195781849E+01
 0.1876149514660E+01
 0.1742259378668E+01
 0.1606706860479E+01
 0.1470455587039E+01
 0.1333778851881E+01
 0.1195322800047E+01
 0.1050249447745E+01
 0.8865349895452E+00
 0.6807531508898E+00
 0.2795797832898E+01
 0.2716062686182E+01
 0.2628627204495E+01
 0.2533383852916E+01
 0.2430328404301E+01
 0.2319590951796E+01
 0.2201466451329E+01
 0.2076447265185E+01
 0.1945259714408E+01
 0.1808906171235E+01
 0.1668713458345E+01
 0.1526386832163E+01
 0.1384065622706E+01
 0.1244369391559E+01
 0.1110406764976E+01
 0.9856789107800E+00
 0.8737049552722E+00
 0.7769023792309E+00
 0.6931913167710E+00
 0.6044117790803E+00
 0.2606303128255E+01
 0.2512805817800E+01
 0.2411303874308E+01
 0.2301707713899E+01
 0.2184050965037E+01
 0.2058519102032E+01
 0.1925480149531E+01
 0.1785520318232E+01
 0.1639488294152E+01
 0.1488552869464E+01
 0.1334279929899E+01
 0.1178736843778E+01
 0.1024635317867E+01
 0.8755278789328E+00
 0.7360778764422E+00
 0.6124270419929E+00
 0.5126950854933E+00
 0.4476812376455E+00
 0.4320105971179E+00
 0.4819234423692E+00
 0.2419238780807E+01
 0.2313149854860E+01
 0.2198933421466E+01
 0.2076526429336E+01
 0.1946007607455E+01
 0.1807622579137E+01
 0.1661812174916E+01
 0.1509246672702E+01
 0.1350870972551E+01
 0.1187967780961E+01
 0.1022248869590E+01
 0.8559897837649E+00
 0.6922330652517E+00
 0.5351023791253E+00
 0.3902973954329E+00
 0.2658518175936E+00
 0.1729889901493E+00
 0.1261064993578E+00
 0.1505155821642E+00
 0.3139473667540E+00
 0.2236911504392E+01
 0.2119902806957E+01
 0.1994921481166E+01
 0.1861974018369E+01
 0.1721235575424E+01
 0.1573076484440E+01
 0.1418091913532E+01
 0.1257138119122E+01
 0.1091382439469E+01
 0.9223771452781E+00
 0.7521724490728E+00
 0.5834966951628E+00
 0.4200700515792E+00
 0.2672797914144E+00
 0.1346171302690E+00
 0.5701868647069E-01
 0.8713489744944E-01
 0.9752460951378E-01
 0.2473045964364E-01
 0.2133844092138E+00
 0.2061371510125E+01
 0.1935522415706E+01
 0.1802196137685E+01
 0.1661528244986E+01
 0.1513862340554E+01
 0.1359785778940E+01
 0.1200165520322E+01
 0.1036190612778E+01
 0.8694323006340E+00
 0.7019364128142E+00
 0.5363732439042E+00
 0.3763125916441E+00
 0.2269308220288E+00
 0.9903636539592E-01
 0.6147325540290E-01
 0.1249883622353E+00
 0.1578558002350E+00
 0.1279913658332E+00
 0.8541714845378E-02
 0.2367477654710E+00
 0.1894307655709E+01
 0.1761958578777E+01
 0.1622975877795E+01
 0.1477668890733E+01
 0.1326603055137E+01
 0.1170648891061E+01
 0.1011020934160E+01
 0.8493198712330E+00
 0.6875942947526E+00
 0.5284422365594E+00
 0.3751967797801E+00
 0.2323873779000E+00
 0.1081138166076E+00
 0.4954355837071E-01
 0.1064870253112E+00
 0.1475988001024E+00
 0.1426346496078E+00
 0.7653510287409E-01
 0.6414853969889E-01
 0.2829058456845E+00
 0.1736986725251E+01
 0.1600579167947E+01
 0.1458684483974E+01
 0.1311790788590E+01
 0.1160697673693E+01
 0.1006575088072E+01
 0.8509919231016E+00
 0.6959411573932E+00
 0.5438855857728E+00
 0.3978507110574E+00
 0.2616437701298E+00
 0.1407070956730E+00
 0.5103989357426E-01
 0.6805347346075E-01
 0.1124882474528E+00
 0.1242260746639E+00
 0.9192481269459E-01
 0.9512876677574E-02
 0.1278172110400E+00
 0.3101862312226E+00
 0.1590238828267E+01
 0.1452174521215E+01
 0.1309984476162E+01
 0.1164289622510E+01
 0.1016096521831E+01
 0.8668501952017E+00
 0.7184277949144E+00
 0.5731255249491E+00
 0.4336713324492E+00
 0.3032947680097E+00
 0.1859774279402E+00
 0.8792342666176E-01
 0.3714370163318E-01
 0.6922490469860E-01
 0.9193116690351E-01
 0.8230815926190E-01
 0.3520541569903E-01
 0.5200680902569E-01
 0.1744542626993E+00
 0.3246539871019E+00
 0.1454480227509E+01
 0.1317014993502E+01
 0.1176871050405E+01
 0.1034711113309E+01
 0.8917071447439E+00
 0.7495431441076E+00
 0.6103375940458E+00
 0.4765719181389E+00
 0.3510609542802E+00
 0.2369926008470E+00
 0.1381826422256E+00
 0.6093690820838E-01
 0.3307695429252E-01
 0.5495250873579E-01
 0.6058054746834E-01
 0.3791051472679E-01
 0.1767193589902E-01
 0.9945303953224E-01
 0.2074054079714E+00
 0.3331596502296E+00
 0.1329772838490E+01
 0.1194943586861E+01
 0.1058778573355E+01
 0.9218904923879E+00
 0.7856070663838E+00
 0.6518398314752E+00
 0.5228906213397E+00
 0.4013103912893E+00
 0.2898332425848E+00
 0.1913887993276E+00
 0.1093044477822E+00
 0.4875483089765E-01
 0.2648150197317E-01
 0.3463735848970E-01
 0.2858116349552E-01
 0.9440023262301E-02
 0.5850344749601E-01
 0.1353157984574E+00
 0.2310509864572E+00
 0.3402339263657E+00
 0.1215927300505E+01
 0.1085475414560E+01
 0.9546663963466E+00
 0.8240589595182E+00
 0.6952180772983E+00
 0.5703252037727E+00
 0.4518269967384E+00
 0.3422391996887E+00
 0.2440733301803E+00
 0.1598396373710E+00
 0.9215587231758E-01
 0.4431355745079E-01
 0.2175173015507E-01
 0.1727222897719E-01
 0.1207743533106E-01
 0.3837029379628E-01
 0.9096519101001E-01
 0.1621390171926E+00
 0.2485877535213E+00
 0.3472505219450E+00
 0.1112627500276E+01
 0.9879291968790E+00
 0.8632165375875E+00
 0.7391792326150E+00
 0.6178471246409E+00
 0.5017563283883E+00
 0.3934467306687E+00
 0.2952784852624E+00
 0.2094092663795E+00
 0.1378182579967E+00
 0.8232846988025E-01
 0.4454340858017E-01
 0.2479089770445E-01
 0.1969985997963E-01
 0.3206787276497E-01
 0.6525239200340E-01
 0.1160192654739E+00
 0.1819043801821E+00
 0.2608539589138E+00
 0.3512930986993E+00
 0.1019596918060E+01
 0.9016083527880E+00
 0.7830188815034E+00
 0.6652259852190E+00
 0.5510941309276E+00
 0.4435492342810E+00
 0.3450756715413E+00
 0.2577003457005E+00
 0.1830974941255E+00
 0.1226533657251E+00
 0.7744481478107E-01
 0.4802876835243E-01
 0.3402217523585E-01
 0.3521807301759E-01
 0.5298162983860E-01
 0.8677018180618E-01
 0.1348576096300E+00
 0.1956558214009E+00
 0.2677841395420E+00
 0.3501365418710E+00
 0.9366048659207E+00
 0.8255140729304E+00
 0.7121906610448E+00
 0.5999120303922E+00
 0.4927209786978E+00
 0.3936806799791E+00
 0.3048687696040E+00
 0.2277601093143E+00
 0.1634541841724E+00
 0.1127595386637E+00
 0.7616312447720E-01
 0.5372403221260E-01
 0.4520542350352E-01
 0.5074981529523E-01
 0.7040452558414E-01
 0.1032500839597E+00
 0.1480533173168E+00
 0.2036828305079E+00
 0.2691159857707E+00
 0.3433466334052E+00
 0.8633152833424E+00
 0.7576712636913E+00
 0.6478313275020E+00
 0.5407313183185E+00
 0.4410683214843E+00
 0.3511040217216E+00
 0.2720775378570E+00
 0.2047900157324E+00
 0.1498057141417E+00
 0.1074842355869E+00
 0.7794118125199E-01
 0.6104371843338E-01
 0.5660143661267E-01
 0.6449682041085E-01
 0.8427233946387E-01
 0.1150260779137E+00
 0.1557788774180E+00
 0.2056971620320E+00
 0.2641138230365E+00
 0.3302516202048E+00
 0.7982496925614E+00
 0.6931246584699E+00
 0.5860497563786E+00
 0.4864529458536E+00
 0.3964362626105E+00
 0.3166226176837E+00
 0.2474290140107E+00
 0.1892206179790E+00
 0.1422867058398E+00
 0.1067746641827E+00
 0.8264592674220E-01
 0.6970496329482E-01
 0.6769616073460E-01
 0.7626123092186E-01
 0.9475843384296E-01
 0.1223192381774E+00
 0.1580599319844E+00
 0.2012335045996E+00
 0.2515259160488E+00
 0.3092248673024E+00
 0.7336765098909E+00
 0.6228227232335E+00
 0.5271250814431E+00
 0.4409517956505E+00
 0.3628958424929E+00
 0.2933047447515E+00
 0.2328142987179E+00
 0.1819930522293E+00
 0.1412091021857E+00
 0.1105979098763E+00
 0.9007645788391E-01
 0.7939762097018E-01
 0.7819811644665E-01
 0.8595775210110E-01
 0.1019395465285E+00
 0.1252447437926E+00
 0.1549152351513E+00
 0.1900319420990E+00
 0.2298236794659E+00
 0.2754727425267E+00
</DataArray>
<DataArray type="Float64" Name="S_Hyd" NumberOfComponents="1" ComponentName0="S_Hyd" format="ascii">
-0.7179989622113E+00
-0.5101708665543E+00
-0.4714993984078E+00
-0.4225706845086E+00
-0.3777202812478E+00
-0.3316487475197E+00
-0.2845143284482E+00
-0.2358093816805E+00
-0.1853413485928E+00
-0.1328851498458E+00
-0.7821160109034E-01
-0.2104956887875E-01
 0.3893105627896E-01
 0.1021433021603E+00
 0.1691087317087E+00
 0.2405158700411E+00
 0.3173043583529E+00
 0.4008555442576E+00
 0.4936722587301E+00
 0.6001898752902E+00
 0.7223116322001E+00
 0.8562238934680E+00
 0.9967432183123E+00
 0.1140383541990E+01
 0.1285535530594E+01
 0.1431749290497E+01
 0.1579020963935E+01
 0.1727334175839E+01
 0.1876215386254E+01
 0.2023521509711E+01
 0.2165993316134E+01
 0.2304812709149E+01
 0.2445268616623E+01
 0.2593073021750E+01
 0.2755640189102E+01
 0.2946703830366E+01
 0.3181459617078E+01
 0.3527022245950E+01
 0.3924828227116E+01
 0.5322332802840E+01
 0.1129887898085E+01
-0.5810194223631E+00
-0.4765717395861E+00
-0.4096444192624E+00
-0.3667290456078E+00
-0.3222740578190E+00
-0.2780975121800E+00
-0.2325496419312E+00
-0.1854401190986E+00
-0.1364822304879E+00
-0.8547402965776E-01
-0.3218965586423E-01
 0.2363176140486E-01
 0.8231118134269E-01
 0.1442518026478E+00
 0.2099684261836E+00
 0.2801410871957E+00
 0.3557029879396E+00
 0.4380420941500E+00
 0.5295044258709E+00
 0.6328938396245E+00
 0.7487620060654E+00
 0.8742668726585E+00
 0.1005490273789E+01
 0.1139503504501E+01
 0.1274694612173E+01
 0.1410320234886E+01
 0.1545980200298E+01
 0.1681207752324E+01
 0.1814971490192E+01
 0.1945224611383E+01
 0.2070053876164E+01
 0.2189742701804E+01
 0.2306680531200E+01
 0.2423777564186E+01
 0.2544572210938E+01
 0.2671792067541E+01
 0.2814093747850E+01
 0.2947331014924E+01
 0.3131926055570E+01
 0.2715026844651E+01
-0.1306355389212E+01
-0.4781355472770E+00
-0.4130385142353E+00
-0.3537915383999E+00
-0.3092293911137E+00
-0.2673566052101E+00
-0.2247309701707E+00
-0.1809333308625E+00
-0.1354391253787E+00
-0.8803846538244E-01
-0.3852115108875E-01
 0.1332262680762E-01
 0.6774219697103E-01
 0.1250450259950E+00
 0.1856203775422E+00
 0.2499675148389E+00
 0.3187461535970E+00
 0.3928596139851E+00
 0.4736359136459E+00
 0.5629729713232E+00
 0.6626076278459E+00
 0.7724382754669E+00
 0.8901220979448E+00
 0.1012579204776E+01
 0.1137326752484E+01
 0.1262782697497E+01
 0.1387990739184E+01
 0.1512230017322E+01
 0.1634650345676E+01
 0.1753903369553E+01
 0.1868106292341E+01
 0.1975638201310E+01
 0.2075958911618E+01
 0.2169382945566E+01
 0.2256184730969E+01
 0.2335220911799E+01
 0.2403367492316E+01
 0.2446383736043E+01
 0.2437388917522E+01
 0.2244942941086E+01
 0.1230145961305E+01
-0.1837215458886E+01
-0.3882521323180E+00
-0.3439462563419E+00
-0.2950525725789E+00
-0.2524320028982E+00
-0.2123713849255E+00
-0.1717036496027E+00
-0.1296398835365E+00
-0.8582330457462E-01
-0.4001474648138E-01
 0.7967952633251E-02
 0.5832183392833E-01
 0.1112794482755E+00
 0.1671315485239E+00
 0.2262483646899E+00
 0.2891058395315E+00
 0.3563304050218E+00
 0.4287727742615E+00
 0.5076100684794E+00
 0.5942813947392E+00
 0.6898121775090E+00
 0.7937399730503E+00
 0.9040333176073E+00
 0.1018164631618E+01
 0.1133987610617E+01
 0.1249960894063E+01
 0.1364971727842E+01
 0.1478041293032E+01
 0.1588027208842E+01
 0.1693392191798E+01
 0.1792283519973E+01
 0.1883000910146E+01
 0.1964217373722E+01
 0.2034633306414E+01
 0.2092031681542E+01
 0.2131828028958E+01
 0.2143634444140E+01
 0.2104865200322E+01
 0.1960542549709E+01
 0.1537411660793E+01
 0.4214698339064E+00
-0.1872440244120E+01
-0.3056747034739E+00
-0.2743972372044E+00
-0.2345097668086E+00
-0.1955611779039E+00
-0.1576235098359E+00
-0.1189438365356E+00
-0.7870369172939E-01
-0.3659505187005E-01
 0.7581447552255E-02
 0.5398995541393E-01
 0.1028061624011E+00
 0.1542437274573E+00
 0.2085727428235E+00
 0.2661395864310E+00
 0.3273892740952E+00
 0.3929033441815E+00
 0.4634515795662E+00
 0.5400181612541E+00
 0.6236430302081E+00
 0.7148624019933E+00
 0.8129997363093E+00
 0.9162348508323E+00
 0.1022413225440E+01
 0.1129634270506E+01
 0.1236395750819E+01
 0.1341468597529E+01
 0.1443673115148E+01
 0.1541652017280E+01
 0.1633726496820E+01
 0.1717978942247E+01
 0.1792482655847E+01
 0.1855203999916E+01
 0.1903509207190E+01
 0.1933227718517E+01
 0.1936743490819E+01
 0.1899364431975E+01
 0.1791665988410E+01
 0.1547485261571E+01
 0.1020257795655E+01
-0.2965374182509E-01
-0.1778761179648E+01
-0.2281486454360E+00
-0.2058379764287E+00
-0.1733500188680E+00
-0.1385484125128E+00
-0.1031161487629E+00
-0.6649366780461E-01
-0.2812818947068E-01
 0.1223430939723E-01
 0.5474586931224E-01
 0.9954227274709E-01
 0.1467758257025E+00
 0.1966376165839E+00
 0.2493737984377E+00
 0.3053022038532E+00
 0.3648301738346E+00
 0.4284828194394E+00
 0.4969284156672E+00
 0.5709505386232E+00
 0.6512591802421E+00
 0.7380446729096E+00
 0.8304971859628E+00
 0.9269464074388E+00
 0.1025495746804E+01
 0.1124421907874E+01
 0.1222255150974E+01
 0.1317680110473E+01
 0.1409365100699E+01
 0.1495792955808E+01
 0.1575164267974E+01
 0.1645448204659E+01
 0.1704450856474E+01
 0.1749527999312E+01
 0.1777008070451E+01
 0.1781209092637E+01
 0.1752471163407E+01
 0.1673572878099E+01
 0.1512275547756E+01
 0.1206572240254E+01
 0.6499101132458E+00
-0.2888494301819E+00
-0.1657384224371E+01
-0.1545143983796E+00
-0.1387397357588E+00
-0.1123028490556E+00
-0.8158014630367E-01
-0.4886125250705E-01
-0.1438186716103E-01
 0.2207240125944E-01
 0.6065722213846E-01
 0.1014740792767E+00
 0.1446240826351E+00
 0.1902328370239E+00
 0.2384661612274E+00
 0.2895430826293E+00
 0.3437487654538E+00
 0.4014468794463E+00
 0.4630966578740E+00
 0.5292544976715E+00
 0.6005134449200E+00
 0.6773155610188E+00
 0.7596007131094E+00
 0.8464730624232E+00
 0.9363716171664E+00
 0.1027581628572E+01
 0.1118507545728E+01
 0.1207705076225E+01
 0.1293795773936E+01
 0.1375335216109E+01
 0.1450685909278E+01
 0.1517943490502E+01
 0.1574950892923E+01
 0.1619258973513E+01
 0.1647734405526E+01
 0.1655940671590E+01
 0.1637177038663E+01
 0.1580644278359E+01
 0.1468241056119E+01
 0.1268967290771E+01
 0.9316461855594E+00
 0.3843945057682E+00
-0.4404992862911E+00
-0.1538743759463E+01
-0.8406573088214E-01
-0.7324265746393E-01
-0.5178768138800E-01
-0.2486736174487E-01
 0.5088913740347E-02
 0.3736751431322E-01
 0.7188230741308E-01
 0.1086661134412E+00
 0.1477628867624E+00
 0.1892358715770E+00
 0.2331810817877E+00
 0.2797367372380E+00
 0.3290920260189E+00
 0.3814959188567E+00
 0.4372635205270E+00
 0.4967819851708E+00
 0.5604936450340E+00
 0.6288186883897E+00
 0.7019826532894E+00
 0.7797403009222E+00
 0.8611387977096E+00
 0.9446986227363E+00
 0.1028835457350E+01
 0.1112046322330E+01
 0.1192906873741E+01
 0.1269993880745E+01
 0.1341781179916E+01
 0.1406541496904E+01
 0.1462283083590E+01
 0.1506732780170E+01
 0.1537229064869E+01
 0.1550280354743E+01
 0.1540949753025E+01
 0.1501983053146E+01
 0.1422230322611E+01
 0.1284157197436E+01
 0.1060484686446E+01
 0.7119883594158E+00
 0.1925954633379E+00
-0.5293750900157E+00
-0.1430603286324E+01
-0.1632284220221E-01
-0.9356312710210E-02
 0.7958976494863E-02
 0.3141759248623E-01
 0.5866557392278E-01
 0.8872727727960E-01
 0.1212865880925E+00
 0.1562536882616E+00
 0.1936102195233E+00
 0.2333795553804E+00
 0.2756262291360E+00
 0.3204589733934E+00
 0.3680349492680E+00
 0.4185641329643E+00
 0.4723095782442E+00
 0.5295834584828E+00
 0.5907173104117E+00
 0.6559783693363E+00
 0.7254170626277E+00
 0.7986489929275E+00
 0.8746829175365E+00
 0.9521012659260E+00
 0.1029414896582E+01
 0.1105188804407E+01
 0.1178015099184E+01
 0.1246440530369E+01
 0.1308882061668E+01
 0.1363548289244E+01
 0.1408380935055E+01
 0.1441015696941E+01
 0.1458637536496E+01
 0.1457529013696E+01
 0.1432497868088E+01
 0.1376141670844E+01
 0.1277609945094E+01
 0.1120944417476E+01
 0.8835672987251E+00
 0.5368980350864E+00
 0.5285379498962E-01
-0.5801844749726E+00
-0.1333831220915E+01
 0.4906505320211E-01
 0.5296520735392E-01
 0.6680851234501E-01
 0.8714907082574E-01
 0.1118018837958E+00
 0.1396680628658E+00
 0.1702710529304E+00
 0.2034135726559E+00
 0.2390151574543E+00
 0.2770585172640E+00
 0.3175757048858E+00
 0.3606446562026E+00
 0.4063888824262E+00
 0.4549773811751E+00
 0.5066191752417E+00
 0.5615513222899E+00
 0.6200010504835E+00
 0.6821021622411E+00
 0.7477630299608E+00
 0.8164931905216E+00
 0.8872754207457E+00
 0.9587403054280E+00
 0.1029469520592E+01
 0.1098079108600E+01
 0.1163175987952E+01
 0.1223289189469E+01
 0.1276799405701E+01
 0.1321874020761E+01
 0.1356411807236E+01
 0.1377990710734E+01
 0.1383707664517E+01
 0.1369745485250E+01
 0.1330871036098E+01
 0.1259865013005E+01
 0.1146652216893E+01
 0.9773914433507E+00
 0.7342258763325E+00
 0.3971887301692E+00
-0.4969663943467E-01
-0.6071492576931E+00
-0.1247387910992E+01
 0.1123681229812E+00
 0.1137914615486E+00
 0.1246973868222E+00
 0.1422415723695E+00
 0.1644415268170E+00
 0.1901616351861E+00
 0.2188225249959E+00
 0.2501406259357E+00
 0.2839780539673E+00
 0.3202775932648E+00
 0.3590386224468E+00
 0.4003075830351E+00
 0.4441733170152E+00
 0.4907627095524E+00
 0.5402301834627E+00
 0.5927396188810E+00
 0.6484220698030E+00
 0.7072958905129E+00
 0.7691537798176E+00
 0.8334235970539E+00
 0.8990708310172E+00
 0.9647644837980E+00
 0.1029140197702E+01
 0.1090853663908E+01
 0.1148526480275E+01
 0.1200680565028E+01
 0.1245677989161E+01
 0.1281666095924E+01
 0.1306525783637E+01
 0.1317814376691E+01
 0.1312606372956E+01
 0.1287098238203E+01
 0.1236193497668E+01
 0.1153105856798E+01
 0.1028831807094E+01
 0.8518208654033E+00
 0.6084709723766E+00
 0.2854334568108E+00
-0.1253087345777E+00
-0.6187940084699E+00
-0.1169905387329E+01
 0.1738027210011E+00
 0.1732010850197E+00
 0.1816021881205E+00
 0.1966409213371E+00
 0.2165413216218E+00
 0.2401835359372E+00
 0.2669295266715E+00
 0.2964311606592E+00
 0.3285006433229E+00
 0.3630430603100E+00
 0.4000256967537E+00
 0.4394633974380E+00
 0.4814099277989E+00
 0.5259497496940E+00
 0.5731833207800E+00
 0.6232047079694E+00
 0.6760575566946E+00
 0.7316608227967E+00
 0.7897126813943E+00
 0.8495776850814E+00
 0.9102104022633E+00
 0.9703114437523E+00
 0.1028558825462E+01
 0.1083640457936E+01
 0.1134193653308E+01
 0.1178742630763E+01
 0.1215646355476E+01
 0.1243051873782E+01
 0.1258847455853E+01
 0.1260607223495E+01
 0.1245444355220E+01
 0.1209665437331E+01
 0.1148448482426E+01
 0.1055609444668E+01
 0.9233589325756E+00
 0.7423717864668E+00
 0.5026526188251E+00
 0.1957776388239E+00
-0.1811420547152E+00
-0.6204228061666E+00
-0.1100133624447E+01
 0.2335474807014E+00
 0.2312748401053E+00
 0.2375246623118E+00
 0.2503165032128E+00
 0.2680709404464E+00
 0.2897145479331E+00
 0.3145829754213E+00
 0.3422831468926E+00
 0.3725860994492E+00
 0.4053625986688E+00
 0.4405491269401E+00
 0.4781293888126E+00
 0.5181222524848E+00
 0.5605701928418E+00
 0.6055212945696E+00
 0.6530040745848E+00
 0.7029835464537E+00
 0.7552933496116E+00
 0.8095542096999E+00
 0.8650814999561E+00
 0.9208237501313E+00
 0.9755085083255E+00
 0.1027848293493E+01
 0.1076558643887E+01
 0.1120294465020E+01
 0.1157590790053E+01
 0.1186817312330E+01
 0.1206139071772E+01
 0.1213475946338E+01
 0.1206454077274E+01
 0.1182278970594E+01
 0.1137444782504E+01
 0.1067502712893E+01
 0.9669685022765E+00
 0.8292940202154E+00
 0.6471820128105E+00
 0.4135796924712E+00
 0.1236484824074E+00
-0.2222728796481E+00
-0.6154445609869E+00
-0.1037026966797E+01
 0.2917535779881E+00
 0.2880922870243E+00
 0.2924824843887E+00
 0.3032551637782E+00
 0.3190114761280E+00
 0.3387412157150E+00
 0.3617766878335E+00
 0.3876964069762E+00
 0.4162390825380E+00
 0.4472452542162E+00
 0.4806224839700E+00
 0.5163242973001E+00
 0.5543353794793E+00
 0.5946572960505E+00
 0.6372880673528E+00
 0.6821954236374E+00
 0.7292741780864E+00
 0.7782849012329E+00
 0.8287847654121E+00
 0.8800510392150E+00
 0.9310301141648E+00
 0.9804733683602E+00
 0.1027122602153E+01
 0.1069718402130E+01
 0.1106935710951E+01
 0.1137328129551E+01
 0.1159288443928E+01
 0.1171016349372E+01
 0.1170485608255E+01
 0.1155405724644E+01
 0.1123119026113E+01
 0.1070365344340E+01
 0.9931320983379E+00
 0.8866743690427E+00
 0.7456354920161E+00
 0.5644910544345E+00
 0.3385288353388E+00
 0.6547719385934E-01
-0.2523579577641E+00
-0.6061079307906E+00
-0.9797241317515E+00
 0.3485515920792E+00
 0.3437302521620E+00
 0.3465034367683E+00
 0.3554566080582E+00
 0.3693536925972E+00
 0.3872557656450E+00
 0.4085076396058E+00
 0.4326727607322E+00
 0.4594657708023E+00
 0.4887013959571E+00
 0.5202606005262E+00
 0.5540681249564E+00
 0.5900756513724E+00
 0.6282454365196E+00
 0.6685282480584E+00
 0.7108360056549E+00
 0.7550012202607E+00
 0.8007220019206E+00
 0.8475033748431E+00
 0.8945933359832E+00
 0.9409393630930E+00
 0.9853146978268E+00
 0.1026487085063E+01
 0.1063220984340E+01
 0.1094214143424E+01
 0.1118045769180E+01
 0.1133142707080E+01
 0.1137754131416E+01
 0.1129927317065E+01
 0.1107481582508E+01
 0.1067930780218E+01
 0.1008300264089E+01
 0.9250463910218E+00
 0.8141600327054E+00
 0.6713807667507E+00
 0.4926901210657E+00
 0.2752046740215E+00
 0.1846688007007E-01
-0.2740736232498E+00
-0.5939231745429E+00
-0.9275023573710E+00
 0.4040562573561E+00
 0.3982622035106E+00
 0.3996216567770E+00
 0.4069299686477E+00
 0.4190963081111E+00
 0.4352556747176E+00
 0.4547759890035E+00
 0.4772160717488E+00
 0.5022738404037E+00
 0.5297426338552E+00
 0.5594794274083E+00
 0.5913819191669E+00
 0.6253703535785E+00
 0.6613696840654E+00
 0.6992865622896E+00
 0.7389820868481E+00
 0.7802337469409E+00
 0.8226863681775E+00
 0.8658022635471E+00
 0.9088073094408E+00
 0.9506528032681E+00
 0.9901327069188E+00
 0.1026038704423E+01
 0.1057158903684E+01
 0.1082216745148E+01
 0.1099823351883E+01
 0.1108449200087E+01
 0.1106405749515E+01
 0.1091830332395E+01
 0.1062673171967E+01
 0.1016644721054E+01
 0.9510794955813E+00
 0.8629113621819E+00
 0.7488339068234E+00
 0.6055654646611E+00
 0.4303401374768E+00
 0.2216836642493E+00
-0.1959167029737E-01
-0.2894124479954E+00
-0.5799134103939E+00
-0.8797255905115E+00
 0.4583698536992E+00
 0.4517580952300E+00
 0.4518751868497E+00
 0.4576912658741E+00
 0.4682444721643E+00
 0.4827430902431E+00
 0.5005849477975E+00
 0.5213322222484E+00
 0.5446724201747E+00
 0.5703817291243E+00
 0.5982958919536E+00
 0.6282875677346E+00
 0.6602474311380E+00
 0.6940654329264E+00
 0.7296074276823E+00
 0.7666885623582E+00
 0.8050379445444E+00
 0.8442550533376E+00
 0.8837673562021E+00
 0.9227844692435E+00
 0.9602638634276E+00
 0.9950196592752E+00
 0.1025866399672E+01
 0.1051616225975E+01
 0.1071021107269E+01
 0.1082729627666E+01
 0.1085264048765E+01
 0.1077008788962E+01
 0.1056204493504E+01
 0.1020947975342E+01
 0.9691624620243E+00
 0.8985016548876E+00
 0.8063674016299E+00
 0.6901046628442E+00
 0.5472861062582E+00
 0.3761715763907E+00
 0.1763575533421E+00
-0.5046302849178E-01
-0.2998932769711E+00
-0.5647731839971E+00
-0.8357858553821E+00
 0.5115846792815E+00
 0.5042844516254E+00
 0.5033043542092E+00
 0.5077615222383E+00
 0.5168084697233E+00
 0.5297242031580E+00
 0.5459405504254E+00
 0.5650290218705E+00
 0.5866720144341E+00
 0.6106324900260E+00
 0.6367277520795E+00
 0.6648076000867E+00
 0.6947352280829E+00
 0.7263680826134E+00
 0.7595346111009E+00
 0.7940086721633E+00
 0.8294770039520E+00
 0.8655006110949E+00
 0.9014787120997E+00
 0.9366095089308E+00
 0.9698586870327E+00
 0.1000060360645E+01
 0.1026051474225E+01
 0.1046668938885E+01
 0.1060695896767E+01
 0.1066823130359E+01
 0.1063631409203E+01
 0.1049586608628E+01
 0.1023042639768E+01
 0.9822534523503E+00
 0.9253634046206E+00
 0.8503445228157E+00
 0.7550444525984E+00
 0.6373983405663E+00
 0.4957120200964E+00
 0.3290732077229E+00
 0.1378859083496E+00
-0.7557466290742E-01
-0.3067212456150E+00
-0.5489944968328E+00
-0.7950152914046E+00
 0.5637848698213E+00
 0.5559045905287E+00
 0.5539506773432E+00
 0.5571653570316E+00
 0.5648026473277E+00
 0.5762086331290E+00
 0.5908513673214E+00
 0.6083160664851E+00
 0.6282843980572E+00
 0.6505096550892E+00
 0.6747934482147E+00
 0.7009649972618E+00
 0.7288622510723E+00
 0.7583127646915E+00
 0.7891109546410E+00
 0.8209937958115E+00
 0.8536110720370E+00
 0.8864912675787E+00
 0.9190109101327E+00
 0.9503608178243E+00
 0.9795166574154E+00
 0.1005332626257E+01
 0.1026668009754E+01
 0.1042385380043E+01
 0.1051301394806E+01
 0.1052152931148E+01
 0.1043584562156E+01
 0.1024149975032E+01
 0.9923231330869E+00
 0.9465210112138E+00
 0.8851108856043E+00
 0.8063739955260E+00
 0.7085734100093E+00
 0.5901697173170E+00
 0.4500888555046E+00
 0.2880802345826E+00
 0.1051425475074E+00
-0.9605625833696E-01
-0.3109532973867E+00
-0.5329900820769E+00
-0.7566148237830E+00
 0.6150476465411E+00
 0.6066790627475E+00
 0.6038559994053E+00
 0.6059299967148E+00
 0.6122445088435E+00
 0.6222088650847E+00
 0.6353281915691E+00
 0.6512045640619E+00
 0.6695224893355E+00
 0.6900287663521E+00
 0.7125119551127E+00
 0.7367830123983E+00
 0.7626569573469E+00
 0.7899341110429E+00
 0.8183781586208E+00
 0.8476933076051E+00
 0.8774972451245E+00
 0.9072910961666E+00
 0.9364333937608E+00
 0.9641109324355E+00
 0.9893108729504E+00
 0.1010907731701E+01
 0.1027783299857E+01
 0.1038826708762E+01
 0.1042890089344E+01
 0.1038759450449E+01
 0.1025147069513E+01
 0.1000698752199E+01
 0.9640123792195E+00
 0.9136697774205E+00
 0.8482576529191E+00
 0.7663514106946E+00
 0.6665945832271E+00
 0.5479088281020E+00
 0.4097388491875E+00
 0.2523552767209E+00
 0.7719328489723E-01
-0.1128592935576E+00
-0.3132592798624E+00
-0.5180044565918E+00
-0.7186958004741E+00
 0.6654450779982E+00
 0.6566485547408E+00
 0.6530348421432E+00
 0.6540453743077E+00
 0.6591044132225E+00
 0.6676802564811E+00
 0.6793152100252E+00
 0.6936304333376E+00
 0.7103162082813E+00
 0.7291157034102E+00
 0.7498070104117E+00
 0.7721852295143E+00
 0.7960449228328E+00
 0.8211619860099E+00
 0.8472727486680E+00
 0.8740526956174E+00
 0.9010920129001E+00
 0.9278692064632E+00
 0.9537290404510E+00
 0.9778572934902E+00
 0.9992540710880E+00
 0.1016814563555E+01
 0.1029443339088E+01
 0.1036056832525E+01
 0.1035544004689E+01
 0.1026741869977E+01
 0.1008432483592E+01
 0.9793554461420E+00
 0.9382328006408E+00
 0.8838082694740E+00
 0.8148786234236E+00
 0.7302921972956E+00
 0.6290331217305E+00
 0.5104195761874E+00
 0.3743215428056E+00
 0.2214134001373E+00
 0.5343226803021E-01
-0.1266068202510E+00
-0.3143444698642E+00
-0.5039875000182E+00
-0.6875751796056E+00
 0.7150352835382E+00
 0.7058650527421E+00
 0.7015259597849E+00
 0.7015397822661E+00
 0.7054028627873E+00
 0.7126386819610E+00
 0.7228262572008E+00
 0.7356074053429E+00
 0.7506805757578E+00
 0.7677878406302E+00
 0.7866992498143E+00
 0.8071963991430E+00
 0.8290558389492E+00
 0.8520317812942E+00
 0.8758363964264E+00
 0.9001201469633E+00
 0.9244497825888E+00
 0.9482852474444E+00
 0.9709610486704E+00
 0.9916643546608E+00
 0.1009409298037E+01
 0.1023112031752E+01
 0.1031700143099E+01
 0.1034117896558E+01
 0.1029291920005E+01
 0.1016111222587E+01
 0.9934284149398E+00
 0.9600768118163E+00
 0.9149006075531E+00
 0.8567997631189E+00
 0.7847689126224E+00
 0.6979060187347E+00
 0.5954965703777E+00
 0.4771963434392E+00
 0.3432213815868E+00
 0.1945534412174E+00
 0.3313811067329E-01
-0.1379826407130E+00
-0.3146122698027E+00
-0.4914799779239E+00
-0.6621345163704E+00
 0.7638905015714E+00
 0.7544010673281E+00
 0.7494021152294E+00
 0.7484867694516E+00
 0.7512161600832E+00
 0.7571651714866E+00
 0.7659486706578E+00
 0.7772301119748E+00
 0.7907179855554E+00
 0.8061554184792E+00
 0.8233065813787E+00
 0.8419417127724E+00
 0.8618215845953E+00
 0.8826811847587E+00
 0.9042113167089E+00
 0.9260405591908E+00
 0.9477155724234E+00
 0.9686809852656E+00
 0.9882637680663E+00
 0.1005654268164E+01
 0.1019881391539E+01
 0.1029882416309E+01
 0.1034608082230E+01
 0.1033030801879E+01
 0.1024115356915E+01
 0.1006803240091E+01
 0.9800177564416E+00
 0.9426851069152E+00
 0.8937688416716E+00
 0.8323188792382E+00
 0.7575155476326E+00
 0.6686847501878E+00
 0.5653787202431E+00
 0.4475413819506E+00
 0.3156706780901E+00
 0.1709832330994E+00
 0.1555762621888E-01
-0.1475815509702E+00
-0.3144772734877E+00
-0.4803474852190E+00
-0.6401543258170E+00
 0.8120703986567E+00
 0.8023066393616E+00
 0.7967034687850E+00
 0.7949174115919E+00
 0.7965682991471E+00
 0.8012789093606E+00
 0.8086989037486E+00
 0.8185139739575E+00
 0.8304441526451E+00
 0.8442354991550E+00
 0.8596482949313E+00
 0.8764434621672E+00
 0.8943681400914E+00
 0.9131404348556E+00
 0.9324323866554E+00
 0.9518535399208E+00
 0.9709334225430E+00
 0.9891041393080E+00
 0.1005687395052E+01
 0.1019878141543E+01
 0.1030720606103E+01
 0.1037173272626E+01
 0.1038210060899E+01
 0.1032831597868E+01
 0.1020040838432E+01
 0.9988315292703E+00
 0.9681968212074E+00
 0.9271537189390E+00
 0.8747808622965E+00
 0.8102703176335E+00
 0.7329747184285E+00
 0.6424260690656E+00
 0.5384107425021E+00
 0.4211166711499E+00
 0.2912697202603E+00
 0.1502619051487E+00
 0.2519526308295E-03
-0.1557976711934E+00
-0.3141704713147E+00
-0.4706038676635E+00
-0.6208384306480E+00
 0.8596314024209E+00
 0.8496299225064E+00
 0.8434693405366E+00
 0.8408629183098E+00
 0.8414839478116E+00
 0.8449999427318E+00
 0.8510942161526E+00
 0.8594750303200E+00
 0.8698751695257E+00
 0.8820452653570E+00
 0.8957435330087E+00
 0.9107235006464E+00
 0.9267207134556E+00
 0.9434386037918E+00
 0.9605328562373E+00
 0.9775965526489E+00
 0.9941446882102E+00
 0.1009599229350E+01
 0.1023278489161E+01
 0.1034383124431E+01
 0.1041973034875E+01
 0.1045027884949E+01
 0.1042544662478E+01
 0.1033552003597E+01
 0.1017090600380E+01
 0.9922055602126E+00
 0.9579581563965E+00
 0.9134530543813E+00
 0.8578785523678E+00
 0.7905599694313E+00
 0.7110082218247E+00
 0.6189400521956E+00
 0.5143457964208E+00
 0.3976186131616E+00
 0.2696668631991E+00
 0.1320112411632E+00
-0.1315054489226E-01
-0.1629410390482E+00
-0.3138872567795E+00
-0.4621512475489E+00
-0.6039427939013E+00
 0.9066271418687E+00
 0.8964172425248E+00
 0.8897381866625E+00
 0.8863544166191E+00
 0.8859881849791E+00
 0.8883489223317E+00
 0.8931524497245E+00
 0.9001297529441E+00
 0.9090273502587E+00
 0.9196018825507E+00
 0.9316111634780E+00
 0.9448031238666E+00
 0.9589036332389E+00
 0.9736035122145E+00
 0.9885442990831E+00
 0.1003304919451E+01
 0.1017388107252E+01
 0.1030207712622E+01
 0.1041080176563E+01
 0.1049212666982E+01
 0.1053680914830E+01
 0.1053485616975E+01
 0.1047646556367E+01
 0.1035219894515E+01
 0.1015283190257E+01
 0.9869314158118E+00
 0.9492914826380E+00
 0.9015516974572E+00
 0.8430036939046E+00
 0.7730964367699E+00
 0.6914849195721E+00
 0.5980501589748E+00
 0.4929589427481E+00
 0.3767758623023E+00
 0.2505541120847E+00
 0.1159060872666E+00
-0.2496060152327E-01
-0.1692667834006E+00
-0.3137645795726E+00
-0.4549508637550E+00
-0.5893748254906E+00
 0.9531087648254E+00
 0.9427132132065E+00
 0.9355475630204E+00
 0.9314227981123E+00
 0.9301062864598E+00
 0.9313468854094E+00
 0.9348918335840E+00
 0.9404948814154E+00
 0.9479170906512E+00
 0.9569223770587E+00
 0.9672696700386E+00
 0.9787029715076E+00
 0.9909402651428E+00
 0.1003661669231E+01
 0.1016496587758E+01
 0.1029011844187E+01
 0.1040699881035E+01
 0.1050968126454E+01
 0.1059132351263E+01
 0.1064406771872E+01
 0.1065882923273E+01
 0.1062582253200E+01
 0.1053546894111E+01
 0.1037859772726E+01
 0.1014634038004E+01
 0.9830124924185E+00
 0.9421845507758E+00
 0.8914174344055E+00
 0.8300991358745E+00
 0.7577922514724E+00
 0.6742817977470E+00
 0.5795937751481E+00
 0.4740466122862E+00
 0.3583471727303E+00
 0.2336624361028E+00
 0.1016678518118E+00
-0.3543932780315E-01
-0.1749822174916E+00
-0.3139126065467E+00
-0.4489987802081E+00
-0.5770602581748E+00
 0.9991251953929E+00
 0.9885608539944E+00
 0.9809341077011E+00
 0.9760986029172E+00
 0.9738635542270E+00
 0.9740150732250E+00
 0.9763308149216E+00
 0.9805872758382E+00
 0.9865607423267E+00
 0.9940235270379E+00
 0.1002737056642E+01
 0.1012442944793E+01
 0.1022852946235E+01
 0.1033638230642E+01
 0.1044417885864E+01
 0.1054748448664E+01
 0.1064113762435E+01
 0.1071916231025E+01
 0.1077471870278E+01
 0.1080002236347E+01
 0.1078614462494E+01
 0.1072350327415E+01
 0.1060273690603E+01
 0.1041493216960E+01
 0.1015155995574E+01
 0.9804501504120E+00
 0.9366239186368E+00
 0.8830181539122E+00
 0.8191097793199E+00
 0.7445648414085E+00
 0.6592847160629E+00
 0.5634224213480E+00
 0.4574258508035E+00
 0.3421191523357E+00
 0.2187577310432E+00
 0.8905819194565E-01
-0.4480584356790E-01
-0.1802576981648E+00
-0.3144244428809E+00
-0.4443001842035E+00
-0.5669311590400E+00
 0.1044723347508E+01
 0.1034001695945E+01
 0.1025933532952E+01
 0.1020411923820E+01
 0.1017285168675E+01
 0.1016374765270E+01
 0.1017487897683E+01
 0.1020423769962E+01
 0.1024974482100E+01
 0.1030921746432E+01
 0.1038030744458E+01
 0.1046042117121E+01
 0.1054662912951E+01
 0.1063556950917E+01
 0.1072334632495E+01
 0.1080543798158E+01
 0.1087661128930E+01
 0.1093085132743E+01
 0.1096132726004E+01
 0.1096032870029E+01
 0.1091907920609E+01
 0.1082819428696E+01
 0.1067852183284E+01
 0.1046139308394E+01
 0.1016859845586E+01
 0.9792443203836E+00
 0.9325956610186E+00
 0.8763226478487E+00
 0.8099834199827E+00
 0.7333373090616E+00
 0.6463889365070E+00
 0.5494017566591E+00
 0.4429334407511E+00
 0.3279041430694E+00
 0.2056371478599E+00
 0.7787377263276E-01
-0.5324398196719E-01
-0.1852343557735E+00
-0.3153780211326E+00
-0.4408604465168E+00
-0.5589220870731E+00
 0.1089948308082E+01
 0.1079075879412E+01
 0.1070580628337E+01
 0.1064392332702E+01
 0.1060396066806E+01
 0.1058447136738E+01
 0.1058381499063E+01
 0.1060021037089E+01
 0.1063174190847E+01
 0.1067632977029E+01
 0.1073167476951E+01
 0.1079518653456E+01
 0.1086390238358E+01
 0.1093440144108E+01
 0.1100271533923E+01
 0.1106424930898E+01
 0.1111371055141E+01
 0.1114505402103E+01
 0.1115146208552E+01
 0.1112529699295E+01
 0.1105792916573E+01
 0.1094016489219E+01
 0.1076305169588E+01
 0.1051815028316E+01
 0.1019754771058E+01
 0.9793940537194E+00
 0.9300860001823E+00
 0.8713013010728E+00
 0.8026714434556E+00
 0.7240390283747E+00
 0.6354994546090E+00
 0.5374114094384E+00
 0.4304249507905E+00
 0.3155382117118E+00
 0.1941258413914E+00
 0.6794178358051E-01
-0.6090777401302E-01
-0.1900290853580E+00
-0.3168373346703E+00
-0.4386817552906E+00
-0.5529701780349E+00
 0.1134843496451E+01
 0.1123822243840E+01
 0.1114909271081E+01
 0.1108068823344E+01
 0.1103220839728E+01
 0.1100253133438E+01
 0.1099029819214E+01
 0.1099395464979E+01
 0.1101175338382E+01
 0.1104172585017E+01
 0.1108163229080E+01
 0.1112889733996E+01
 0.1118053773749E+01
 0.1123308648438E+01
 0.1128251557206E+01
 0.1132416886522E+01
 0.1135270380452E+01
 0.1136205182383E+01
 0.1134541055110E+01
 0.1129521155692E+01
 0.1120296526910E+01
 0.1105966051429E+01
 0.1085653320159E+01
 0.1058535625541E+01
 0.1023848785167E+01
 0.9808980187161E+00
 0.9290818619841E+00
 0.8679266821465E+00
 0.7971293948212E+00
 0.7166060955951E+00
 0.6265311833269E+00
 0.5273446980332E+00
 0.4197737707046E+00
 0.3048792966738E+00
 0.1840741207450E+00
 0.5911615014861E-01
-0.6792574146372E-01
-0.1947381276443E+00
-0.3188536977423E+00
-0.4377622574193E+00
-0.5490156554299E+00
 0.1179450806612E+01
 0.1168278412941E+01
 0.1158952444309E+01
 0.1151469770554E+01
 0.1145783649952E+01
 0.1141813366089E+01
 0.1139450727904E+01
 0.1138563044996E+01
 0.1138992880632E+01
 0.1140555268923E+01
 0.1143033127768E+01
 0.1146171489317E+01
 0.1149671101688E+01
 0.1153181801610E+01
 0.1156295932745E+01
 0.1158542740587E+01
 0.1159383778918E+01
 0.1158210296491E+01
 0.1154343593427E+01
 0.1147033254871E+01
 0.1135443499621E+01
 0.1118690518677E+01
 0.1095915470565E+01
 0.1066314955066E+01
 0.1029149121845E+01
 0.9837549433258E+00
 0.9295713605739E+00
 0.8661740419564E+00
 0.7933174365182E+00
 0.7109816567727E+00
 0.6194090215370E+00
 0.5191082783071E+00
 0.4108701642622E+00
 0.2958055226206E+00
 0.1753549700104E+00
 0.5127437755730E-01
-0.7440428374167E-01
-0.1994398340164E+00
-0.3214670656371E+00
-0.4380961689971E+00
-0.5470021450515E+00
 0.1223810736832E+01
 0.1212480875464E+01
 0.1202742259740E+01
 0.1194622899685E+01
 0.1188108161248E+01
 0.1183148016326E+01
 0.1179661660408E+01
 0.1177539267734E+01
 0.1176641161127E+01
 0.1176794970530E+01
 0.1177791374678E+01
 0.1179378937455E+01
 0.1181258490472E+01
 0.1183077416485E+01
 0.1184424155401E+01
 0.1184823635016E+01
 0.1183733821892E+01
 0.1180544343093E+01
 0.1174577871349E+01
 0.1165089758747E+01
 0.1151256448743E+01
 0.1132210383640E+01
 0.1107108886908E+01
 0.1075165784979E+01
 0.1035662586551E+01
 0.9879640072568E+00
 0.9315442192757E+00
 0.8660217345495E+00
 0.7912007172645E+00
 0.7071161443278E+00
 0.6140678480642E+00
 0.5126217627195E+00
 0.4036203793889E+00
 0.2882137019530E+00
 0.1678619261787E+00
 0.4431494834728E-01
-0.8043038084335E-01
-0.2041968894293E+00
-0.3247073102687E+00
-0.4396742004979E+00
-0.5468768353141E+00
 0.1267962509821E+01
 0.1256465062738E+01
 0.1246309983627E+01
 0.1237555263845E+01
 0.1230217477824E+01
 0.1224276751309E+01
 0.1219679520008E+01
 0.1216339023009E+01
 0.1214133814982E+01
 0.1212904787055E+01
 0.1212451169536E+01
 0.1212525920995E+01
 0.1212830847923E+01
 0.1213011754929E+01
 0.1212653981938E+01
 0.1211278802391E+01
 0.1208341031505E+01
 0.1203228780422E+01
 0.1195265770966E+01
 0.1183712319434E+01
 0.1167756027935E+01
 0.1146544432697E+01
 0.1119249503383E+01
 0.1085100069806E+01
 0.1043395866101E+01
 0.9935251839085E+00
 0.9349921308544E+00
 0.8674515675254E+00
 0.7907496648211E+00
 0.7049674414315E+00
 0.6104524646855E+00
 0.5078173350223E+00
 0.3979458325825E+00
 0.2820180226053E+00
 0.1615072824055E+00
 0.3815518329929E-01
-0.8607377198816E-01
-0.2090581296402E+00
-0.3285953713111E+00
-0.4424840470511E+00
-0.5485904790560E+00
 0.1311944187331E+01
 0.1300265425716E+01
 0.1289686067524E+01
 0.1280293229851E+01
 0.1272134094024E+01
 0.1265218648819E+01
 0.1259520589900E+01
 0.1254976507910E+01
 0.1251483679867E+01
 0.1248896889618E+01
 0.1247024639337E+01
 0.1245625049709E+01
 0.1244401680104E+01
 0.1242999505452E+01
 0.1241001430486E+01
 0.1237925589791E+01
 0.1233223930738E+01
 0.1226283003424E+01
 0.1216427112778E+01
 0.1202920609926E+01
 0.1184961087421E+01
 0.1161709929790E+01
 0.1132352134560E+01
 0.1096129192545E+01
 0.1052355799734E+01
 0.1000439534868E+01
 0.9399090614430E+00
 0.8704490888806E+00
 0.7919402130026E+00
 0.7045009882584E+00
 0.6085175044592E+00
 0.5046393755660E+00
 0.3937823749597E+00
 0.2771489133599E+00
 0.1562205794918E+00
 0.3272948712715E-01
-0.9138872054467E-01
-0.2140600300948E+00
-0.3331442512904E+00
-0.4465108344475E+00
-0.5520973094171E+00
 0.1355792781896E+01
 0.1343915511840E+01
 0.1332900182009E+01
 0.1322862469181E+01
 0.1313879849576E+01
 0.1305992127192E+01
 0.1299200448547E+01
 0.1293465136774E+01
 0.1288702707596E+01
 0.1284782441403E+01
 0.1281522766550E+01
 0.1278687641492E+01
 0.1275983047422E+01
 0.1273053756903E+01
 0.1269480774177E+01
 0.1264779474443E+01
 0.1258399082531E+01
 0.1249724407002E+01
 0.1238079743020E+01
 0.1222732435009E+01
 0.1202888808155E+01
 0.1177722774158E+01
 0.1146430657506E+01
 0.1108264171586E+01
 0.1062549609183E+01
 0.1008709457108E+01
 0.9462915014443E+00
 0.8750038176340E+00
 0.7947539748109E+00
 0.7056898462728E+00
 0.6082273241885E+00
 0.5030441151606E+00
 0.3910796514305E+00
 0.2735520841041E+00
 0.1519473597922E+00
 0.2798792478098E-01
-0.9641543430878E-01
-0.2192279128224E+00
-0.3383598419713E+00
-0.4517374904434E+00
-0.5573548965491E+00
 0.1399544368032E+01
 0.1387448044143E+01
 0.1375981255206E+01
 0.1365287955589E+01
 0.1355475892311E+01
 0.1346614882644E+01
 0.1338733891883E+01
 0.1331817457425E+01
 0.1325801881557E+01
 0.1320571521401E+01
 0.1315955322733E+01
 0.1311723668415E+01
 0.1307585525213E+01
 0.1303185975500E+01
 0.1298104536426E+01
 0.1291854078765E+01
 0.1283881125617E+01
 0.1273568443028E+01
 0.1260239611608E+01
 0.1243163829537E+01
 0.1221554819869E+01
 0.1194597637990E+01
 0.1161498169163E+01
 0.1121515837453E+01
 0.1073985092560E+01
 0.1018338887941E+01
 0.9541386693181E+00
 0.8811094255505E+00
 0.7991783707018E+00
 0.7085147309175E+00
 0.6095558913590E+00
 0.5029993249907E+00
 0.3898005533453E+00
 0.2711877286284E+00
 0.1486481529859E+00
 0.2389507937171E-01
-0.1011811969455E+00
-0.2245769104318E+00
-0.3442415915841E+00
-0.4581450316236E+00
-0.5643240044821E+00
 0.1443234196058E+01
 0.1430895004078E+01
 0.1418957516263E+01
 0.1407593968375E+01
 0.1396942646572E+01
 0.1387103831855E+01
 0.1378134860169E+01
 0.1370045071524E+01
 0.1362791137913E+01
 0.1356273051750E+01
 0.1350330805560E+01
 0.1344741705809E+01
 0.1339218166629E+01
 0.1333405982957E+01
 0.1326883485566E+01
 0.1319161182560E+01
 0.1309682804934E+01
 0.1297828669114E+01
 0.1282920838907E+01
 0.1264229142463E+01
 0.1240973301567E+01
 0.1212348082854E+01
 0.1177567118299E+01
 0.1135894979402E+01
 0.1086670783106E+01
 0.1029333470349E+01
 0.9634526729059E+00
 0.8887638770976E+00
 0.8052067217343E+00
 0.7129640245843E+00
 0.6124866781401E+00
 0.5044840533282E+00
 0.3899207697752E+00
 0.2700298850870E+00
 0.1462976753071E+00
 0.2042916065276E-01
-0.1057012458254E+00
-0.2301127140301E+00
-0.3507830214506E+00
-0.4657127798895E+00
-0.5729684282715E+00
 0.1486896809910E+01
 0.1474287717972E+01
 0.1461856541919E+01
 0.1449804097845E+01
 0.1438299782648E+01
 0.1427475054364E+01
 0.1417416363613E+01
 0.1408158552937E+01
 0.1399679284339E+01
 0.1391894722274E+01
 0.1384656372689E+01
 0.1377748877657E+01
 0.1370888460914E+01
 0.1363721928670E+01
 0.1355826621768E+01
 0.1346710725321E+01
 0.1335814989698E+01
 0.1322516782433E+01
 0.1306135764840E+01
 0.1285941100395E+01
 0.1261157058573E+01
 0.1230986649366E+01
 0.1194649407013E+01
 0.1151412457536E+01
 0.1100616069535E+01
 0.1041700676769E+01
 0.9742386281927E+00
 0.8979695296369E+00
 0.8128383117590E+00
 0.7190337757474E+00
 0.6170125689193E+00
 0.5074884140825E+00
 0.3914284382327E+00
 0.2700659476584E+00
 0.1448842266534E+00
 0.1758134085962E-01
-0.1099794213095E+00
-0.2358321232967E+00
-0.3579721024911E+00
-0.4744185042900E+00
-0.5832548575801E+00
 0.1530566171763E+01
 0.1517656949719E+01
 0.1504705308316E+01
 0.1491941254825E+01
 0.1479566189117E+01
 0.1467743736984E+01
 0.1456590409548E+01
 0.1446167367584E+01
 0.1436473920452E+01
 0.1427442917011E+01
 0.1418937777782E+01
 0.1410750803919E+01
 0.1402602292969E+01
 0.1394140261980E+01
 0.1384941162341E+01
 0.1374510804806E+01
 0.1362286685300E+01
 0.1347642644693E+01
 0.1329894986290E+01
 0.1308310856421E+01
 0.1282117581556E+01
 0.1250524925190E+01
 0.1212756466468E+01
 0.1168079284834E+01
 0.1115831282129E+01
 0.1055449895542E+01
 0.9865047399284E+00
 0.9087331986976E+00
 0.8220784239093E+00
 0.7267276895816E+00
 0.6231357858726E+00
 0.5120134294157E+00
 0.3943238928407E+00
 0.2712963212882E+00
 0.1444092704934E+00
 0.1535529731029E-01
-0.1140086093733E+00
-0.2417234175057E+00
-0.3657915028647E+00
-0.4842385039561E+00
-0.5951527538191E+00
 0.1574275795715E+01
 0.1561033000795E+01
 0.1547530247866E+01
 0.1534027682876E+01
 0.1520759945876E+01
 0.1507924117584E+01
 0.1495667928370E+01
 0.1484079792102E+01
 0.1473181357450E+01
 0.1462922640404E+01
 0.1453179306412E+01
 0.1443751547600E+01
 0.1434363901969E+01
 0.1424665702296E+01
 0.1414232523183E+01
 0.1402567669647E+01
 0.1389105036859E+01
 0.1373214296193E+01
 0.1354207380883E+01
 0.1331348022436E+01
 0.1303865085907E+01
 0.1270973589882E+01
 0.1231899305634E+01
 0.1185906678168E+01
 0.1132327744164E+01
 0.1070592480233E+01
 0.1000262345173E+01
 0.9210661903698E+00
 0.8329383543912E+00
 0.7360571137325E+00
 0.6308678362378E+00
 0.5180709289802E+00
 0.3986195099968E+00
 0.2737342157499E+00
 0.1448871885297E+00
 0.1376695048426E-01
-0.1177709896722E+00
-0.2477665572568E+00
-0.3742187143705E+00
-0.4951476344019E+00
-0.6086342526629E+00
 0.1618058892999E+01
 0.1604445819195E+01
 0.1590357311671E+01
 0.1576084972710E+01
 0.1561898296752E+01
 0.1548029426875E+01
 0.1534658697036E+01
 0.1521902830390E+01
 0.1509806536422E+01
 0.1498337442965E+01
 0.1487383711967E+01
 0.1476753561813E+01
 0.1466175839387E+01
 0.1455301207430E+01
 0.1443704296753E+01
 0.1430885706409E+01
 0.1416275324878E+01
 0.1399237959486E+01
 0.1379080117733E+01
 0.1355060685611E+01
 0.1326408532193E+01
 0.1292342437361E+01
 0.1252088533827E+01
 0.1204906079146E+01
 0.1150117789574E+01
 0.1087141762913E+01
 0.1015525921128E+01
 0.9349843025319E+00
 0.8454354056273E+00
 0.7470410214555E+00
 0.6402294832729E+00
 0.5256835068802E+00
 0.4043396509484E+00
 0.2774055760826E+00
 0.1463452046732E+00
 0.1284439036064E-01
-0.1212380965019E+00
-0.2539332232912E+00
-0.3832260620151E+00
-0.5071192817406E+00
-0.6236740947251E+00
 0.1661948531498E+01
 0.1647925119061E+01
 0.1633212037998E+01
 0.1618134078200E+01
 0.1602997620318E+01
 0.1588071826591E+01
 0.1573571258575E+01
 0.1559642126896E+01
 0.1546352944586E+01
 0.1533689346069E+01
 0.1521552151481E+01
 0.1509757636952E+01
 0.1498038926614E+01
 0.1486047940359E+01
 0.1473358226771E+01
 0.1459467421307E+01
 0.1443800953271E+01
 0.1425718032972E+01
 0.1404518655582E+01
 0.1379455409550E+01
 0.1349755628289E+01
 0.1314640376663E+01
 0.1273334357736E+01
 0.1225089145472E+01
 0.1169214747542E+01
 0.1105113032083E+01
 0.1032313057969E+01
 0.9505077956909E+00
 0.8595928596111E+00
 0.7597059930229E+00
 0.6512507416962E+00
 0.5348845368143E+00
 0.4115207010959E+00
 0.2823491483541E+00
 0.1488234764679E+00
 0.1262798876706E-01
-0.1243706946614E+00
-0.2601866936968E+00
-0.3927805977292E+00
-0.5201252864639E+00
-0.6402495864813E+00
 0.1705977812547E+01
 0.1691500512665E+01
 0.1676119626946E+01
 0.1660195332725E+01
 0.1644073396781E+01
 0.1628062341520E+01
 0.1612412835171E+01
 0.1597301874489E+01
 0.1582822527749E+01
 0.1568978764523E+01
 0.1555684120289E+01
 0.1542762846992E+01
 0.1529952211213E+01
 0.1516905233427E+01
 0.1503194178599E+01
 0.1488313415489E+01
 0.1471683428640E+01
 0.1452657073374E+01
 0.1430526727366E+01
 0.1404537219278E+01
 0.1373912812445E+01
 0.1337875410290E+01
 0.1295646552224E+01
 0.1246467712025E+01
 0.1189632893079E+01
 0.1124523474116E+01
 0.1050644395315E+01
 0.9676613318624E+00
 0.8754399297567E+00
 0.7740861936547E+00
 0.6639708960046E+00
 0.5457182441168E+00
 0.4202112052790E+00
 0.2886166807826E+00
 0.1523753550118E+00
 0.1317069999970E-01
-0.1271184667445E+00
-0.2664815552527E+00
-0.4028438742443E+00
-0.5341358142213E+00
-0.6583405922091E+00
 0.1750180068443E+01
 0.1735201656865E+01
 0.1719105021754E+01
 0.1702288464873E+01
 0.1685140169021E+01
 0.1668010783230E+01
 0.1651189232914E+01
 0.1634884715582E+01
 0.1619215598236E+01
 0.1604204426696E+01
 0.1589777385654E+01
 0.1575766495270E+01
 0.1561912922239E+01
 0.1547870550380E+01
 0.1533210105658E+01
 0.1517422354176E+01
 0.1499922331115E+01
 0.1480055767431E+01
 0.1457106311656E+01
 0.1430309570615E+01
 0.1398885217951E+01
 0.1362054590822E+01
 0.1319034405506E+01
 0.1269053722036E+01
 0.1211387363551E+01
 0.1145392077635E+01
 0.1070543521132E+01
 0.9864738796295E+00
 0.8930116888069E+00
 0.7902233452134E+00
 0.6784385390187E+00
 0.5582398327685E+00
 0.4304720985275E+00
 0.2962732617465E+00
 0.1570678173745E+00
 0.1453855615946E-01
-0.1294195035913E+00
-0.2727632401066E+00
-0.4133715915957E+00
-0.5491191693409E+00
-0.6779295575593E+00
 0.1794589084732E+01
 0.1779058416509E+01
 0.1762192997253E+01
 0.1744432612308E+01
 0.1726211495640E+01
 0.1707925663140E+01
 0.1689904736232E+01
 0.1672391635181E+01
 0.1655530737713E+01
 0.1639363292225E+01
 0.1623827919825E+01
 0.1608764060436E+01
 0.1593916425374E+01
 0.1578939446976E+01
 0.1563402012523E+01
 0.1546790930291E+01
 0.1528515277353E+01
 0.1507912893487E+01
 0.1484257591766E+01
 0.1456774304916E+01
 0.1424676620477E+01
 0.1387183956954E+01
 0.1343506639757E+01
 0.1292859129104E+01
 0.1234494041430E+01
 0.1167739500354E+01
 0.1092036831679E+01
 0.1006978582966E+01
 0.9123489694892E+00
 0.8081666878323E+00
 0.6947116270099E+00
 0.5725156649247E+00
 0.4423770322055E+00
 0.3053977980774E+00
 0.1629820789669E+00
 0.1681136850651E-01
-0.1311995840012E+00
-0.2789673734461E+00
-0.4243131042309E+00
-0.5650415442702E+00
-0.6990015647178E+00
 0.1839239351906E+01
 0.1823101047143E+01
 0.1805408255238E+01
 0.1786646331313E+01
 0.1767299892175E+01
 0.1747814090688E+01
 0.1728561988102E+01
 0.1709821842670E+01
 0.1691764692398E+01
 0.1674450465374E+01
 0.1657829830887E+01
 0.1641749141025E+01
 0.1625956176265E+01
 0.1610105528367E+01
 0.1593763912704E+01
 0.1576413820311E+01
 0.1557457873315E+01
 0.1536225270557E+01
 0.1511978900189E+01
 0.1483931586920E+01
 0.1451289365993E+01
 0.1413268446846E+01
 0.1369071304847E+01
 0.1317895767362E+01
 0.1258969399815E+01
 0.1191587893942E+01
 0.1115153346764E+01
 0.1029212586753E+01
 0.9334982296346E+00
 0.8279729225390E+00
 0.7128575428808E+00
 0.5886234864021E+00
 0.4560127928178E+00
 0.3160836364556E+00
 0.1702143952587E+00
 0.2008365055422E-01
-0.1323712233804E+00
-0.2850189103287E+00
-0.4356107687644E+00
-0.5818666911485E+00
-0.7215444143285E+00
 0.1884166352185E+01
 0.1867360401187E+01
 0.1848775528500E+01
 0.1828947601993E+01
 0.1808416759751E+01
 0.1787681656342E+01
 0.1767161857016E+01
 0.1747172644814E+01
 0.1727912264687E+01
 0.1709459109271E+01
 0.1691775297553E+01
 0.1674713405405E+01
 0.1658023679186E+01
 0.1641360410597E+01
 0.1624287788580E+01
 0.1606283640046E+01
 0.1586743664752E+01
 0.1564987703140E+01
 0.1540266657079E+01
 0.1511779834989E+01
 0.1478724288995E+01
 0.1440311798857E+01
 0.1395735655410E+01
 0.1344175199701E+01
 0.1284830319995E+01
 0.1216960695000E+01
 0.1139924486830E+01
 0.1053216823531E+01
 0.9565113843292E+00
 0.8497061359142E+00
 0.7329531679937E+00
 0.6066527000343E+00
 0.4714798188863E+00
 0.3284393388461E+00
 0.1788770703289E+00
 0.2446578620527E-01
-0.1328324650922E+00
-0.2908310368467E+00
-0.4471991148548E+00
-0.5995555075873E+00
-0.7455487497187E+00
 0.1929406888352E+01
 0.1911868160358E+01
 0.1892319692022E+01
 0.1871353823932E+01
 0.1849572293836E+01
 0.1827532291464E+01
 0.1805703283075E+01
 0.1784439303173E+01
 0.1763966195048E+01
 0.1744380355315E+01
 0.1725654502248E+01
 0.1707646541213E+01
 0.1690108444696E+01
 0.1672693679343E+01
 0.1654963546074E+01
 0.1636390892334E+01
 0.1616364076982E+01
 0.1594192913134E+01
 0.1569115294083E+01
 0.1540315635107E+01
 0.1506980612560E+01
 0.1468316431253E+01
 0.1423506002618E+01
 0.1371708534954E+01
 0.1312093870980E+01
 0.1243882370703E+01
 0.1166383798577E+01
 0.1079035746185E+01
 0.9814455878972E+00
 0.8734376885066E+00
 0.7550849450200E+00
 0.6267046726417E+00
 0.4888928084882E+00
 0.3425896148356E+00
 0.1890996875728E+00
 0.3008547045455E-01
-0.1324653778507E+00
-0.2963037955515E+00
-0.4590038004079E+00
-0.6180655104076E+00
-0.7710081916886E+00
 0.1974999462198E+01
 0.1956657098094E+01
 0.1936065880205E+01
 0.1913881797479E+01
 0.1890775366548E+01
 0.1867368098605E+01
 0.1844183098112E+01
 0.1821614872484E+01
 0.1799917032279E+01
 0.1779203206883E+01
 0.1759455562181E+01
 0.1740536204163E+01
 0.1722197946096E+01
 0.1704092845439E+01
 0.1685778963208E+01
 0.1666723905504E+01
 0.1646308342545E+01
 0.1623831457357E+01
 0.1598517162149E+01
 0.1569533637497E+01
 0.1536055829298E+01
 0.1497283299957E+01
 0.1452387539430E+01
 0.1400506211965E+01
 0.1340777047565E+01
 0.1272378113582E+01
 0.1194566620891E+01
 0.1106716995076E+01
 0.1008362950944E+01
 0.8992460496835E+00
 0.7793489138401E+00
 0.6488930602632E+00
 0.5083814091282E+00
 0.3586764141876E+00
 0.2010305806311E+00
 0.3708945534882E-01
-0.1311342161169E+00
-0.3013223884949E+00
-0.4709403103179E+00
-0.6373501600476E+00
-0.7979194979763E+00
 0.2020984713407E+01
 0.2001761378643E+01
 0.1980039611751E+01
 0.1956547688634E+01
 0.1932033379310E+01
 0.1907189150181E+01
 0.1882595820164E+01
 0.1858690023018E+01
 0.1835752997395E+01
 0.1813914444232E+01
 0.1793164466301E+01
 0.1773367974653E+01
 0.1754277583320E+01
 0.1735543305844E+01
 0.1716719641215E+01
 0.1697268771212E+01
 0.1676563425498E+01
 0.1653891639781E+01
 0.1628462433022E+01
 0.1599426446406E+01
 0.1565945574652E+01
 0.1527211746569E+01
 0.1482384151951E+01
 0.1430577763077E+01
 0.1370896478577E+01
 0.1302473495449E+01
 0.1224509698453E+01
 0.1136311003555E+01
 0.1037330192498E+01
 0.9272165754381E+00
 0.8058507152254E+00
 0.6733441480267E+00
 0.5300909929874E+00
 0.3768601948910E+00
 0.2148385758773E+00
 0.4564564783936E-01
-0.1286831878913E+00
-0.3057551043540E+00
-0.4829123550793E+00
-0.6573580174710E+00
-0.8262827200647E+00
 0.2067405931056E+01
 0.2047216897660E+01
 0.2024266918881E+01
 0.1999366968115E+01
 0.1973352073849E+01
 0.1946993243834E+01
 0.1920933412603E+01
 0.1895652839456E+01
 0.1871459835401E+01
 0.1848498525778E+01
 0.1826765013551E+01
 0.1806125317303E+01
 0.1786330648829E+01
 0.1767028303893E+01
 0.1747768951155E+01
 0.1728009273837E+01
 0.1707113933817E+01
 0.1684359409589E+01
 0.1658938985507E+01
 0.1629984494383E+01
 0.1596643484178E+01
 0.1558099328428E+01
 0.1513498208419E+01
 0.1461931547695E+01
 0.1402468094420E+01
 0.1334194067030E+01
 0.1256250726137E+01
 0.1167870520586E+01
 0.1068418201110E+01
 0.9574411987333E+00
 0.8347055299493E+00
 0.7001971750516E+00
 0.5541834978223E+00
 0.3973213654464E+00
 0.2307150306779E+00
 0.5594561007519E-01
-0.1249337609910E+00
-0.3094507953663E+00
-0.4948099041251E+00
-0.6780316692071E+00
-0.8561013374378E+00
 0.2114309653481E+01
 0.2093061672625E+01
 0.2068774480229E+01
 0.2042354317986E+01
 0.2014735293406E+01
 0.1986775608544E+01
 0.1959185005864E+01
 0.1932488598175E+01
 0.1907020659890E+01
 0.1882937492595E+01
 0.1860238760263E+01
 0.1838789551730E+01
 0.1818338303916E+01
 0.1798528897129E+01
 0.1778907984189E+01
 0.1758926819365E+01
 0.1737942027910E+01
 0.1715218253384E+01
 0.1689932285646E+01
 0.1661195911366E+01
 0.1628141046508E+01
 0.1589941643663E+01
 0.1545730339559E+01
 0.1494574469782E+01
 0.1435506766894E+01
 0.1367564914362E+01
 0.1289827831862E+01
 0.1201450053308E+01
 0.1101701501770E+01
 0.9900180230717E+00
 0.8660379396350E+00
 0.7296046309867E+00
 0.5808383282545E+00
 0.4202619147659E+00
 0.2488762091709E+00
 0.6820753357113E-01
-0.1196814191228E+00
-0.3122358203307E+00
-0.5065067894820E+00
-0.6993063799841E+00
-0.8873823092734E+00
 0.2161746376639E+01
 0.2139336291808E+01
 0.2113589753629E+01
 0.2085523493717E+01
 0.2056184679769E+01
 0.2026528549441E+01
 0.1997336574121E+01
 0.1969179519455E+01
 0.1942415789808E+01
 0.1917210876939E+01
 0.1893564977911E+01
 0.1871339835542E+01
 0.1850279565877E+01
 0.1830023932483E+01
 0.1810115504446E+01
 0.1790000361928E+01
 0.1769027322728E+01
 0.1746449078891E+01
 0.1721425258520E+01
 0.1693046387254E+01
 0.1660427451827E+01
 0.1622732152114E+01
 0.1579079211797E+01
 0.1528511680609E+01
 0.1470025921538E+01
 0.1402610169822E+01
 0.1325278991969E+01
 0.1237105218056E+01
 0.1137257610024E+01
 0.1025050793052E+01
 0.8999816772913E+00
 0.7617324919345E+00
 0.6102532948780E+00
 0.4459072306702E+00
 0.2695660364414E+00
 0.8267977364706E-01
-0.1126917534049E+00
-0.3139103465603E+00
-0.5178578057019E+00
-0.7211084006383E+00
-0.9201359607099E+00
 0.2209771395668E+01
 0.2186084430491E+01
 0.2158741100410E+01
 0.2128887122366E+01
 0.2097699284003E+01
 0.2066241012390E+01
 0.2035370553419E+01
 0.2005704485945E+01
 0.1977622572686E+01
 0.1951295610167E+01
 0.1926720616480E+01
 0.1903753154087E+01
 0.1882131299544E+01
 0.1861490021033E+01
 0.1841367895249E+01
 0.1821206317171E+01
 0.1800346771249E+01
 0.1778030076881E+01
 0.1753398138071E+01
 0.1725519014550E+01
 0.1693489422989E+01
 0.1656461979605E+01
 0.1613541280523E+01
 0.1563746252818E+01
 0.1506037106262E+01
 0.1439352457935E+01
 0.1362641353820E+01
 0.1274891967001E+01
 0.1175166230834E+01
 0.1062648188796E+01
 0.9366792052387E+00
 0.7967603309881E+00
 0.6426455365193E+00
 0.4745080799707E+00
 0.2930592562100E+00
 0.9964504354709E-01
-0.1036957476456E+00
-0.3142438750315E+00
-0.5286952419532E+00
-0.7433528486410E+00
-0.9543754617723E+00
 0.2258445812453E+01
 0.2233353448100E+01
 0.2204257894594E+01
 0.2172456418885E+01
 0.2139275072069E+01
 0.2105898056119E+01
 0.2073265397978E+01
 0.2042038731434E+01
 0.2012615202919E+01
 0.1985165940832E+01
 0.1959680284944E+01
 0.1936004328534E+01
 0.1913868224617E+01
 0.1892901523469E+01
 0.1872639109339E+01
 0.1852518472480E+01
 0.1831874538909E+01
 0.1809936571063E+01
 0.1785828305710E+01
 0.1758594123823E+01
 0.1727311044486E+01
 0.1691119723132E+01
 0.1649110542772E+01
 0.1600278845939E+01
 0.1543549535969E+01
 0.1477812293609E+01
 0.1401950479108E+01
 0.1314865696784E+01
 0.1215508298044E+01
 0.1102922926425E+01
 0.9762810895599E+00
 0.8348812623917E+00
 0.6782523934710E+00
 0.5063427387987E+00
 0.3196650369605E+00
 0.1194254067274E+00
-0.9238402325147E-01
-0.3129698735320E+00
-0.5388247407267E+00
-0.7659413692547E+00
-0.9901151554691E+00
 0.2307837752489E+01
 0.2281195080000E+01
 0.2250170603323E+01
 0.2216240791593E+01
 0.2180904294889E+01
 0.2145480210065E+01
 0.2110995063481E+01
 0.2078153496675E+01
 0.2047364535942E+01
 0.2018793364869E+01
 0.1992416250324E+01
 0.1968066042820E+01
 0.1945462938248E+01
 0.1924230544508E+01
 0.1903900619846E+01
 0.1883907889042E+01
 0.1863581862223E+01
 0.1842140848086E+01
 0.1818690109883E+01
 0.1792249105298E+01
 0.1761873584376E+01
 0.1726691253842E+01
 0.1685778287133E+01
 0.1638107361049E+01
 0.1582569609418E+01
 0.1518007426019E+01
 0.1443239495784E+01
 0.1357080218501E+01
 0.1258364820759E+01
 0.1145990614488E+01
 0.1018945100447E+01
 0.8763016418452E+00
 0.7173321384615E+00
 0.5417192611422E+00
 0.3497309703383E+00
 0.1423883036817E+00
-0.7839982628954E-01
-0.3097790497128E+00
-0.5480211271892E+00
-0.7887585733396E+00
-0.1027369467181E+01
 0.2358023849420E+01
 0.2329666240441E+01
 0.2296510824010E+01
 0.2260247305545E+01
 0.2222574692427E+01
 0.2184962702932E+01
 0.2148528418112E+01
 0.2114015664204E+01
 0.2081837916113E+01
 0.2052146587741E+01
 0.2024898475682E+01
 0.1999908909963E+01
 0.1976885973718E+01
 0.1955446957416E+01
 0.1935121393183E+01
 0.1915342816696E+01
 0.1895436912494E+01
 0.1874611989394E+01
 0.1851954690795E+01
 0.1826458244928E+01
 0.1797155342851E+01
 0.1763159556921E+01
 0.1723532884813E+01
 0.1677226632181E+01
 0.1623100448391E+01
 0.1559952179071E+01
 0.1486538208053E+01
 0.1401586632949E+01
 0.1303815569446E+01
 0.1191968379398E+01
 0.1064835032594E+01
 0.9212404794761E+00
 0.7601645692597E+00
 0.5809777444721E+00
 0.3836479100457E+00
 0.1689527772922E+00
-0.6132825806487E-01
-0.3043139309824E+00
-0.5560195121822E+00
-0.8116774004113E+00
-0.1066131680510E+01
 0.2409091087159E+01
 0.2378829935280E+01
 0.2343311255232E+01
 0.2304479944646E+01
 0.2264268473045E+01
 0.2224314524298E+01
 0.2185828558670E+01
 0.2149587360650E+01
 0.2115999009402E+01
 0.2085191508252E+01
 0.2057094683717E+01
 0.2031501561523E+01
 0.2008105876353E+01
 0.1986518437088E+01
 0.1966267859038E+01
 0.1946788592612E+01
 0.1927404631069E+01
 0.1907315667528E+01
 0.1885589770697E+01
 0.1861192534914E+01
 0.1833131488283E+01
 0.1800504569971E+01
 0.1762359582917E+01
 0.1717628113474E+01
 0.1665141414531E+01
 0.1603656738748E+01
 0.1531872107323E+01
 0.1448432043150E+01
 0.1351937515556E+01
 0.1240973149835E+01
 0.1114119094823E+01
 0.9699284139909E+00
 0.8070511867071E+00
 0.6244927529572E+00
 0.4218545168054E+00
 0.1995995611510E+00
-0.4069214396477E-01
-0.2961360281526E+00
-0.5625587969755E+00
-0.8344751637985E+00
-0.1106500235903E+01
 0.2461139184385E+01
 0.2428756182991E+01
 0.2390605654253E+01
 0.2348938545998E+01
 0.2305961024850E+01
 0.2263497276403E+01
 0.2222852023598E+01
 0.2184825529925E+01
 0.2149807649293E+01
 0.2117891231246E+01
 0.2088970451033E+01
 0.2062810763575E+01
 0.2039089299143E+01
 0.2017410503218E+01
 0.1997303877313E+01
 0.1978207520856E+01
 0.1959446529921E+01
 0.1940213897597E+01
 0.1919559400567E+01
 0.1896419450822E+01
 0.1869773877020E+01
 0.1838703019650E+01
 0.1802240301820E+01
 0.1759299564112E+01
 0.1708687604377E+01
 0.1649126384863E+01
 0.1579261276413E+01
 0.1497658086225E+01
 0.1402802990828E+01
 0.1293119529279E+01
 0.1166967771048E+01
 0.1022606047169E+01
 0.8583149169727E+00
 0.6726751414917E+00
 0.4648436261394E+00
 0.2348770989080E+00
-0.1592524827458E-01
-0.2847631753509E+00
-0.5671747360835E+00
-0.8574403665297E+00
-0.1147240502689E+01
 0.2514284986871E+01
 0.2479541417008E+01
 0.2438455951182E+01
 0.2393655006139E+01
 0.2347665133350E+01
 0.2302517021878E+01
 0.2259607640499E+01
 0.2219747250854E+01
 0.2183291245798E+01
 0.2150283407136E+01
 0.2120572536606E+01
 0.2093891000145E+01
 0.2069897310533E+01
 0.2048190237875E+01
 0.2028302792233E+01
 0.2009680455429E+01
 0.1991653264159E+01
 0.1973410290590E+01
 0.1953983726232E+01
 0.1932279072053E+01
 0.1907245284573E+01
 0.1877942516389E+01
 0.1843389333741E+01
 0.1802484051297E+01
 0.1754013785094E+01
 0.1696671844742E+01
 0.1629058369731E+01
 0.1549667249824E+01
 0.1456874240438E+01
 0.1348941248313E+01
 0.1223998939111E+01
 0.1079986997914E+01
 0.9147715944973E+00
 0.7264384245202E+00
 0.5136019668869E+00
 0.2757961826207E+00
 0.1391262405275E-01
-0.2693971460465E+00
-0.5695496456201E+00
-0.8799106800436E+00
-0.1193017835530E+01
 0.2568668352989E+01
 0.2531280315078E+01
 0.2486903197419E+01
 0.2438622353611E+01
 0.2389341645989E+01
 0.2341318857607E+01
 0.2296036905987E+01
 0.2254297085168E+01
 0.2216399703959E+01
 0.2182322878939E+01
 0.2151859043383E+01
 0.2124701571287E+01
 0.2100488459380E+01
 0.2078813921260E+01
 0.2059217791995E+01
 0.2041157602564E+01
 0.2023973236269E+01
 0.2006853576997E+01
 0.1988814449892E+01
 0.1968728600969E+01
 0.1945510194088E+01
 0.1918195569896E+01
 0.1885787358577E+01
 0.1847170758743E+01
 0.1801119017234E+01
 0.1746305235355E+01
 0.1681294206085E+01
 0.1604517774971E+01
 0.1514249331439E+01
 0.1408592810201E+01
 0.1285444501359E+01
 0.1142404905096E+01
 0.9768809537055E+00
 0.7863859282727E+00
 0.5688776159509E+00
 0.3232181513390E+00
 0.4973667158827E-01
-0.2492276154086E+00
-0.5689165671738E+00
-0.9022959740252E+00
-0.1240682960506E+01
 0.2624438810739E+01
 0.2584052644472E+01
 0.2535948338823E+01
 0.2483775733602E+01
 0.2430883743952E+01
 0.2379776313964E+01
 0.2332008620344E+01
 0.2288346201658E+01
 0.2249008052196E+01
 0.2213886959879E+01
 0.2182706728842E+01
 0.2155115540309E+01
 0.2130729120751E+01
 0.2109138621567E+01
 0.2089894607320E+01
 0.2072472145851E+01
 0.2056226854260E+01
 0.2040352059921E+01
 0.2023848878332E+01
 0.2005555099482E+01
 0.1984345085040E+01
 0.1959226502613E+01
 0.1929184207972E+01
 0.1893092843524E+01
 0.1849718750045E+01
 0.1797725323782E+01
 0.1735654787719E+01
 0.1661890610392E+01
 0.1574616790015E+01
 0.1471789277515E+01
 0.1351072730097E+01
 0.1209716053099E+01
 0.1044628593395E+01
 0.8526747048601E+00
 0.6310300492208E+00
 0.3777118515955E+00
 0.9227730814315E-01
-0.2234167933848E+00
-0.5646269359875E+00
-0.9236224116432E+00
-0.1290584428925E+01
 0.2681782668414E+01
 0.2637973884382E+01
 0.2585622124930E+01
 0.2529078725124E+01
 0.2472217500787E+01
 0.2417804313773E+01
 0.2367442755758E+01
 0.2321826167443E+01
 0.2281059761478E+01
 0.2244928401549E+01
 0.2213074124478E+01
 0.2185093788515E+01
 0.2160579525042E+01
 0.2139121533254E+01
 0.2120285861079E+01
 0.2103571770286E+01
 0.2088357938823E+01
 0.2073848158576E+01
 0.2059031274078E+01
 0.2042707613657E+01
 0.2023705352866E+01
 0.2000996867737E+01
 0.1973546206798E+01
 0.1940219914303E+01
 0.1899785437633E+01
 0.1850908971742E+01
 0.1792125699544E+01
 0.1721787879380E+01
 0.1638007587771E+01
 0.1538608647098E+01
 0.1421034214559E+01
 0.1282177448192E+01
 0.1118418378370E+01
 0.9258957944853E+00
 0.7008643223341E+00
 0.4402855898017E+00
 0.1426830767071E+00
-0.1908464511130E+00
-0.5557155749016E+00
-0.9435009906950E+00
-0.1342611441140E+01
 0.2740923463870E+01
 0.2693175877922E+01
 0.2635950030041E+01
 0.2574476482296E+01
 0.2513247826969E+01
 0.2455300296614E+01
 0.2402247460381E+01
 0.2354661641422E+01
 0.2312494726895E+01
 0.2275398302263E+01
 0.2242919042058E+01
 0.2214596744126E+01
 0.2189999216719E+01
 0.2168718497788E+01
 0.2150341772629E+01
 0.2134400458158E+01
 0.2120305344449E+01
 0.2107278492200E+01
 0.2094300014341E+01
 0.2080129967948E+01
 0.2063542181189E+01
 0.2043464763594E+01
 0.2018836232772E+01
 0.1988517178595E+01
 0.1951285269035E+01
 0.1905824196515E+01
 0.1850680611527E+01
 0.1784196464254E+01
 0.1704434242602E+01
 0.1609108156667E+01
 0.1495459073495E+01
 0.1360031548255E+01
 0.1198655759277E+01
 0.1006673767005E+01
 0.7792695157103E+00
 0.5121010828624E+00
 0.2023169607051E+00
-0.1501140099980E+00
-0.5410382930338E+00
-0.9613107104107E+00
-0.1397216910689E+01
 0.2802132183848E+01
 0.2749809755328E+01
 0.2686948014942E+01
 0.2619889047664E+01
 0.2553852934023E+01
 0.2492141184940E+01
 0.2436318070105E+01
 0.2386770484116E+01
 0.2343249774157E+01
 0.2305246682685E+01
 0.2272199117262E+01
 0.2243584878584E+01
 0.2218947497628E+01
 0.2197884359604E+01
 0.2180010348242E+01
 0.2164898411616E+01
 0.2152002552615E+01
 0.2140573205638E+01
 0.2129586859161E+01
 0.2117760244798E+01
 0.2103802403939E+01
 0.2086585048681E+01
 0.2065014092408E+01
 0.2037945728686E+01
 0.2004178142187E+01
 0.1962429663197E+01
 0.1911280131164E+01
 0.1849085992319E+01
 0.1773887564233E+01
 0.1683319250559E+01
 0.1574449546301E+01
 0.1443496247184E+01
 0.1285736235066E+01
 0.1095656971486E+01
 0.8672190843346E+00
 0.5944900490635E+00
 0.2728125166290E+00
-0.9948748782558E-01
-0.5191208301316E+00
-0.9763240745416E+00
-0.1454875125118E+01
 0.2865741261171E+01
 0.2808049017137E+01
 0.2738616012178E+01
 0.2665202065328E+01
 0.2593877406589E+01
 0.2528180106208E+01
 0.2469536421518E+01
 0.2418064223892E+01
 0.2373259413331E+01
 0.2334423209784E+01
 0.2300872447929E+01
 0.2272019278647E+01
 0.2247383950067E+01
 0.2226573414405E+01
 0.2209237661960E+01
 0.2195002022466E+01
 0.2183377219811E+01
 0.2173655143739E+01
 0.2164816018810E+01
 0.2155530118252E+01
 0.2144428354105E+01
 0.2130309681243E+01
 0.2112037101309E+01
 0.2088463041761E+01
 0.2058417818872E+01
 0.2020674318667E+01
 0.1973870772991E+01
 0.1916406915621E+01
 0.1846333410412E+01
 0.1761242288975E+01
 0.1658071696796E+01
 0.1532752784043E+01
 0.1380029801040E+01
 0.1193502195493E+01
 0.9657640789183E+00
 0.6889726776772E+00
 0.3561267593874E+00
-0.3679981907876E-01
-0.4880609104328E+00
-0.9875659517344E+00
-0.1516134857575E+01
 0.2932163968647E+01
 0.2868092651869E+01
 0.2790927730664E+01
 0.2710253893007E+01
 0.2633123641512E+01
 0.2563243113958E+01
 0.2501770730804E+01
 0.2448449012458E+01
 0.2402456879066E+01
 0.2362878074875E+01
 0.2328898324495E+01
 0.2299862291790E+01
 0.2275269043295E+01
 0.2254739966580E+01
 0.2237968258588E+01
 0.2224643923011E+01
 0.2214350689064E+01
 0.2206438836948E+01
 0.2199902948099E+01
 0.2193363977015E+01
 0.2185357681824E+01
 0.2174588215581E+01
 0.2159860925514E+01
 0.2140023746973E+01
 0.2113952296436E+01
 0.2080497192112E+01
 0.2038384080204E+01
 0.1986088758057E+01
 0.1921709588878E+01
 0.1842841201498E+01
 0.1746346450993E+01
 0.1627931592149E+01
 0.1481860911584E+01
 0.1300851381249E+01
 0.1076017158767E+01
 0.7972688974642E+00
 0.4546059279723E+00
 0.4068084245604E-01
-0.4453526630799E+00
-0.9936795618113E+00
-0.1581660692466E+01
 0.3001921835331E+01
 0.2930167785463E+01
 0.2843814587852E+01
 0.2754817663147E+01
 0.2671341540606E+01
 0.2597126387778E+01
 0.2532876415634E+01
 0.2477827206225E+01
 0.2430775480007E+01
 0.2390563022273E+01
 0.2356238045144E+01
 0.2327078237949E+01
 0.2302564823176E+01
 0.2282339012461E+01
 0.2266145719691E+01
 0.2253753169911E+01
 0.2244837488186E+01
 0.2238829254262E+01
 0.2234752767009E+01
 0.2231177743069E+01
 0.2226523114310E+01
 0.2219368498958E+01
 0.2208440760025E+01
 0.2192580725928E+01
 0.2170724434436E+01
 0.2141827379766E+01
 0.2104735923821E+01
 0.2058038603098E+01
 0.1999923065009E+01
 0.1928038355233E+01
 0.1839240321590E+01
 0.1729096403475E+01
 0.1591483598615E+01
 0.1418298541462E+01
 0.1199121736603E+01
 0.9212975099248E+00
 0.5710566460375E+00
 0.1364263661492E+00
-0.3876346011855E+00
-0.9927293030723E+00
-0.1652290992238E+01
 0.3075684346375E+01
 0.2994530705646E+01
 0.2897140127597E+01
 0.2798576292460E+01
 0.2708216673068E+01
 0.2629594788465E+01
 0.2562698342803E+01
 0.2506099673962E+01
 0.2458150246744E+01
 0.2417432510069E+01
 0.2382855797264E+01
 0.2353634169216E+01
 0.2329235671927E+01
 0.2309327055919E+01
 0.2293713435404E+01
 0.2282255630938E+01
 0.2274744854608E+01
 0.2270720265308E+01
 0.2269258154631E+01
 0.2268877232896E+01
 0.2267852099116E+01
 0.2264597612315E+01
 0.2257732927762E+01
 0.2246086607458E+01
 0.2228672848825E+01
 0.2204584188235E+01
 0.2172825951479E+01
 0.2132139845892E+01
 0.2080847608388E+01
 0.2016709920627E+01
 0.1936656273201E+01
 0.1836227161163E+01
 0.1709051958309E+01
 0.1546344955399E+01
 0.1336199874091E+01
 0.1063151220851E+01
 0.7088150607400E+00
 0.2548786143691E+00
-0.3103180770540E+00
-0.9818852015395E+00
-0.1729107859361E+01
 0.3154328074844E+01
 0.3061463748200E+01
 0.2950658728486E+01
 0.2841087824160E+01
 0.2743357951350E+01
 0.2660383275892E+01
 0.2591075048809E+01
 0.2533168859318E+01
 0.2484519857023E+01
 0.2443445002236E+01
 0.2408719608254E+01
 0.2379500682828E+01
 0.2355249147810E+01
 0.2335663088118E+01
 0.2320615669177E+01
 0.2310074722040E+01
 0.2303972417620E+01
 0.2301992807505E+01
 0.2303296563693E+01
 0.2306355905987E+01
 0.2309266328062E+01
 0.2310223216748E+01
 0.2307697127311E+01
 0.2300495860084E+01
 0.2287733220477E+01
 0.2268677541719E+01
 0.2242537296656E+01
 0.2208251400533E+01
 0.2164322233287E+01
 0.2108682322002E+01
 0.2038425599004E+01
 0.1949202972797E+01
 0.1834587399020E+01
 0.1685342363264E+01
 0.1488271860109E+01
 0.1225029816024E+01
 0.8717947282895E+00
 0.4017437468742E+00
-0.2070282785355E+00
-0.9568907382800E+00
-0.1813517769074E+01
 0.3239027786264E+01
 0.3131262551837E+01
 0.3003947738116E+01
 0.2881738028700E+01
 0.2776287646310E+01
 0.2689203481448E+01
 0.2617845272322E+01
 0.2558942421260E+01
 0.2509828756175E+01
 0.2468564341326E+01
 0.2433802314495E+01
 0.2404652737549E+01
 0.2380576849120E+01
 0.2361309686243E+01
 0.2346798936812E+01
 0.2337132620289E+01
 0.2332412169441E+01
 0.2332512685551E+01
 0.2336726415135E+01
 0.2343491616277E+01
 0.2350680971684E+01
 0.2356195363188E+01
 0.2358299447937E+01
 0.2355767523826E+01
 0.2347839945395E+01
 0.2334008484847E+01
 0.2313736334014E+01
 0.2286207195219E+01
 0.2250150424887E+01
 0.2203730007670E+01
 0.2144301353924E+01
 0.2067786125160E+01
 0.1967944507005E+01
 0.1835425677337E+01
 0.1656140990598E+01
 0.1409104423404E+01
 0.1064471942604E+01
 0.5843481935683E+00
-0.6875166096316E-01
-0.9111303723216E+00
-0.1907318879130E+01
 0.3331402741048E+01
 0.3204201391661E+01
 0.3056293451411E+01
 0.2919677972483E+01
 0.2806440376933E+01
 0.2715758451779E+01
 0.2642856488394E+01
 0.2583337118020E+01
 0.2534029436586E+01
 0.2492761159130E+01
 0.2458082515066E+01
 0.2429070448314E+01
 0.2405195263726E+01
 0.2386234186012E+01
 0.2372213731034E+01
 0.2363352171604E+01
 0.2359949033675E+01
 0.2362128036811E+01
 0.2369381856348E+01
 0.2380141856118E+01
 0.2392003469932E+01
 0.2402468980569E+01
 0.2409516448827E+01
 0.2411868758063E+01
 0.2408928157859E+01
 0.2400469699132E+01
 0.2386272332368E+01
 0.2365815862103E+01
 0.2338100282100E+01
 0.2301574992190E+01
 0.2253954198202E+01
 0.2191608598260E+01
 0.2108778402797E+01
 0.1996440720152E+01
 0.1840243555942E+01
 0.1617278954814E+01
 0.1291728320539E+01
 0.8120142751541E+00
 0.1174703118580E+00
-0.8339354438353E+00
-0.2012659304786E+01
 0.3433764397619E+01
 0.3280447814997E+01
 0.3106494634919E+01
 0.2953749693646E+01
 0.2833185119873E+01
 0.2739767922988E+01
 0.2665973712716E+01
 0.2606282702429E+01
 0.2557084908806E+01
 0.2516014260182E+01
 0.2481545505512E+01
 0.2452739860279E+01
 0.2429086588380E+01
 0.2410409872805E+01
 0.2396816589156E+01
 0.2388659795423E+01
 0.2386462611787E+01
 0.2390666691979E+01
 0.2401065521417E+01
 0.2416136719873E+01
 0.2433131717163E+01
 0.2449007491053E+01
 0.2461340839190E+01
 0.2468779536169E+01
 0.2470936278113E+01
 0.2467946064614E+01
 0.2459976930974E+01
 0.2446860586817E+01
 0.2427905872923E+01
 0.2401888895202E+01
 0.2366971818417E+01
 0.2320163002907E+01
 0.2256516842175E+01
 0.2167876251581E+01
 0.2040479358677E+01
 0.1850821113135E+01
 0.1558407136109E+01
 0.1096304810128E+01
 0.3705193489001E+00
-0.7073934982454E+00
-0.2131574426261E+01
 0.3549565996361E+01
 0.3359854019498E+01
 0.3152514849972E+01
 0.2982424127425E+01
 0.2855896314769E+01
 0.2761000574862E+01
 0.2687085220040E+01
 0.2627726414593E+01
 0.2578971191423E+01
 0.2538311848944E+01
 0.2504184177074E+01
 0.2475653653537E+01
 0.2452239471493E+01
 0.2433817053531E+01
 0.2420572307532E+01
 0.2412989609685E+01
 0.2411831013091E+01
 0.2417933956946E+01
 0.2431538355029E+01
 0.2451268143561E+01
 0.2473951269716E+01
 0.2495788176269E+01
 0.2513789382269E+01
 0.2526498694512E+01
 0.2533809047986E+01
 0.2536315099189E+01
 0.2534663049719E+01
 0.2529098628277E+01
 0.2519269734465E+01
 0.2504298053419E+01
 0.2482862622349E+01
 0.2452799648710E+01
 0.2410339917407E+01
 0.2348807405375E+01
 0.2256059674259E+01
 0.2109882736417E+01
 0.1868362255250E+01
 0.1450707777993E+01
 0.7180560636216E+00
-0.5001330923105E+00
-0.2264125331137E+01
 0.3684299346720E+01
 0.3441422371413E+01
 0.3190856202231E+01
 0.3003847120972E+01
 0.2874108563544E+01
 0.2779290711262E+01
 0.2706104926747E+01
 0.2647639757844E+01
 0.2599678819565E+01
 0.2559652785043E+01
 0.2525999839650E+01
 0.2497811755719E+01
 0.2474649694203E+01
 0.2456443921174E+01
 0.2443455907606E+01
 0.2436288775175E+01
 0.2435938312986E+01
 0.2443712267197E+01
 0.2460505154911E+01
 0.2485272908589E+01
 0.2514331156150E+01
 0.2542810601906E+01
 0.2566914080285E+01
 0.2585051642853E+01
 0.2597501107965E+01
 0.2605447341635E+01
 0.2610122945039E+01
 0.2612259887045E+01
 0.2611866433990E+01
 0.2608392975964E+01
 0.2601064852137E+01
 0.2588730366496E+01
 0.2569173927337E+01
 0.2537849947836E+01
 0.2485410725578E+01
 0.2393071827298E+01
 0.2222792262141E+01
 0.1888686733249E+01
 0.1200038288322E+01
-0.1548048831874E+00
-0.2402216075882E+01
 0.3847533300065E+01
 0.3521793465795E+01
 0.3215465142109E+01
 0.3016316514530E+01
 0.2887729459284E+01
 0.2794486377981E+01
 0.2722992675169E+01
 0.2666022955254E+01
 0.2619212933272E+01
 0.2580048452815E+01
 0.2547002550504E+01
 0.2519221946029E+01
 0.2496320684031E+01
 0.2478287242941E+01
 0.2465453681970E+01
 0.2458523075671E+01
 0.2458687817844E+01
 0.2467766272260E+01
 0.2487593700104E+01
 0.2517804354842E+01
 0.2554117706100E+01
 0.2590110460766E+01
 0.2620817885424E+01
 0.2644499649553E+01
 0.2661980745620E+01
 0.2675206609173E+01
 0.2686124951340E+01
 0.2696042644153E+01
 0.2705346521987E+01
 0.2713742719253E+01
 0.2720964321471E+01
 0.2727033984655E+01
 0.2731705613267E+01
 0.2733142699508E+01
 0.2726071389339E+01
 0.2697426606215E+01
 0.2618248872884E+01
 0.2417681050462E+01
 0.1870632581896E+01
 0.4376302479983E+00
-0.2509484673568E+01
 0.4058472035796E+01
 0.3590224453800E+01
 0.3216346558487E+01
 0.3020103916960E+01
 0.2896849514882E+01
 0.2806378582707E+01
 0.2737829011241E+01
 0.2682878091007E+01
 0.2637604982138E+01
 0.2599520323993E+01
 0.2567212538355E+01
 0.2539899967053E+01
 0.2517263888191E+01
 0.2499353066426E+01
 0.2486563225529E+01
 0.2479679479583E+01
 0.2480023055931E+01
 0.2489862801381E+01
 0.2512324555828E+01
 0.2548381907492E+01
 0.2593126756227E+01
 0.2637783889344E+01
 0.2675676410112E+01
 0.2704950485277E+01
 0.2727233216735E+01
 0.2745450432057E+01
 0.2762409534007E+01
 0.2780103766176E+01
 0.2799337673683E+01
 0.2819920669832E+01
 0.2841915641225E+01
 0.2866683805802E+01
 0.2896354351068E+01
 0.2932499916711E+01
 0.2974419222835E+01
 0.3018638522170E+01
 0.3047084285071E+01
 0.3026015322986E+01
 0.2786150607551E+01
 0.1492985996383E+01
-0.2459008293350E+01
 0.4365455708583E+01
 0.3607449422583E+01
 0.3183399661194E+01
 0.3021224945562E+01
 0.2899369738840E+01
 0.2815656806497E+01
 0.2750510808866E+01
 0.2698301894212E+01
 0.2654888353294E+01
 0.2618107313663E+01
 0.2586658765000E+01
 0.2559870252138E+01
 0.2537498929368E+01
 0.2519656813912E+01
 0.2506795264503E+01
 0.2499759864895E+01
 0.2499950103493E+01
 0.2509832385923E+01
 0.2534069222915E+01
 0.2576289843567E+01
 0.2631141143948E+01
 0.2686032053210E+01
 0.2731765931304E+01
 0.2766570520176E+01
 0.2793262917019E+01
 0.2816030212506E+01
 0.2838689355347E+01
 0.2864039375270E+01
 0.2893434805317E+01
 0.2926548791401E+01
 0.2963292620314E+01
 0.3006523409131E+01
 0.3061411611002E+01
 0.3133090601949E+01
 0.3227039572961E+01
 0.3347408390924E+01
 0.3506282405458E+01
 0.3672497154936E+01
 0.3931227162916E+01
 0.3429560885225E+01
-0.1778101574574E+01
 0.4942022255446E+01
 0.3382945984224E+01
 0.3181806219738E+01
 0.3002954900906E+01
 0.2899783449284E+01
 0.2821464951618E+01
 0.2761400834761E+01
 0.2712319802444E+01
 0.2671140985426E+01
 0.2635855416670E+01
 0.2605381721322E+01
 0.2579165334822E+01
 0.2557053889172E+01
 0.2539223178675E+01
 0.2526173391103E+01
 0.2518785416227E+01
 0.2518496361306E+01
 0.2527753769942E+01
 0.2552012955899E+01
 0.2600320990609E+01
 0.2667968588033E+01
 0.2735227173444E+01
 0.2789498112401E+01
 0.2829596865675E+01
 0.2860093494880E+01
 0.2886787110506E+01
 0.2914657138473E+01
 0.2947371318851E+01
 0.2987121097458E+01
 0.3033412865677E+01
 0.3084555273314E+01
 0.3145262281602E+01
 0.3224908039556E+01
 0.3332298792613E+01
 0.3477981017051E+01
 0.3680580403570E+01
 0.3960282351865E+01
 0.4406489375529E+01
 0.4940741196631E+01
 0.6841431936431E+01
 0.1373592602071E+01
 0.2033536675774E+01
 0.1927705201837E+01
 0.1830078979458E+01
 0.1741402615297E+01
 0.1662803201802E+01
 0.1594485790315E+01
 0.1536257922505E+01
 0.1487918010473E+01
 0.1449489611266E+01
 0.1421069220934E+01
 0.1402574924475E+01
 0.1395457154969E+01
 0.1399174365623E+01
 0.1413318710979E+01
 0.1439187437661E+01
 0.1476838299455E+01
 0.1527237363047E+01
 0.1592612563865E+01
 0.1671831552447E+01
 0.1798108585819E+01
 0.2073785303027E+01
 0.1961591938760E+01
 0.1860811419802E+01
 0.1770351324154E+01
 0.1690451582515E+01
 0.1621214285992E+01
 0.1562482574740E+01
 0.1514080892566E+01
 0.1475949087794E+01
 0.1448118428004E+01
 0.1430940807337E+01
 0.1424791582867E+01
 0.1429933027822E+01
 0.1446525524534E+01
 0.1475035984018E+01
 0.1516364926604E+01
 0.1571934294912E+01
 0.1643471929475E+01
 0.1740316613910E+01
 0.1865405544727E+01
 0.2110410364449E+01
 0.1993981665775E+01
 0.1889911079142E+01
 0.1797467271347E+01
 0.1716272788498E+01
 0.1646184084897E+01
 0.1587000959012E+01
 0.1538529703536E+01
 0.1500676767592E+01
 0.1473521749916E+01
 0.1457268309767E+01
 0.1452314428273E+01
 0.1459011766212E+01
 0.1477684889958E+01
 0.1508982338085E+01
 0.1554017655071E+01
 0.1614481703540E+01
 0.1694074597335E+01
 0.1796998986269E+01
 0.1927119356236E+01
 0.2144471180012E+01
 0.2024131726188E+01
 0.1917171395218E+01
 0.1822725630793E+01
 0.1740243981038E+01
 0.1669350544147E+01
 0.1609752352363E+01
 0.1561220080960E+01
 0.1523648587462E+01
 0.1497080273855E+01
 0.1481709964135E+01
 0.1477917489568E+01
 0.1486126844473E+01
 0.1506813782193E+01
 0.1540797224405E+01
 0.1589389534081E+01
 0.1654777554869E+01
 0.1739953239064E+01
 0.1848666784458E+01
 0.1984873599712E+01
 0.2175915407520E+01
 0.2051975103671E+01
 0.1942355766818E+01
 0.1846046495285E+01
 0.1762326440452E+01
 0.1690673121928E+01
 0.1630692554207E+01
 0.1582110645341E+01
 0.1544793706415E+01
 0.1518765622009E+01
 0.1504213077563E+01
 0.1501517968922E+01
 0.1511161524020E+01
 0.1533750214211E+01
 0.1570249355954E+01
 0.1622171356136E+01
 0.1691680531320E+01
 0.1781631189152E+01
 0.1895562603621E+01
 0.2037452156627E+01
 0.2204639846564E+01
 0.2077395236039E+01
 0.1965353306803E+01
 0.1867335070107E+01
 0.1782470819862E+01
 0.1710113354944E+01
 0.1649783753994E+01
 0.1601156999297E+01
 0.1564070440651E+01
 0.1538531085142E+01
 0.1524723559188E+01
 0.1523035640795E+01
 0.1533999971970E+01
 0.1558327777137E+01
 0.1597105561183E+01
 0.1651920225643E+01
 0.1724940221350E+01
 0.1818952324015E+01
 0.1937420329403E+01
 0.2084310897594E+01
 0.2230517346608E+01
 0.2100290110968E+01
 0.1986072406711E+01
 0.1886520244281E+01
 0.1800625865038E+01
 0.1727634374334E+01
 0.1666991200476E+01
 0.1618323678664E+01
 0.1581440280951E+01
 0.1556333215953E+01
 0.1543185566666E+01
 0.1542392736446E+01
 0.1554529039762E+01
 0.1580386348872E+01
 0.1621125515071E+01
 0.1678377769102E+01
 0.1754311298208E+01
 0.1851687101018E+01
 0.1973917789079E+01
 0.2124923257661E+01
 0.2253426107543E+01
 0.2120566321681E+01
 0.2004438223379E+01
 0.1903542995696E+01
 0.1816747665898E+01
 0.1743202051812E+01
 0.1682284935432E+01
 0.1633580236359E+01
 0.1596869681244E+01
 0.1572131475288E+01
 0.1559546303127E+01
 0.1559515289599E+01
 0.1572643478894E+01
 0.1599777027995E+01
 0.1642123133375E+01
 0.1701335699644E+01
 0.1779580059025E+01
 0.1879594115769E+01
 0.2004740827029E+01
 0.2158887188962E+01
 0.2273256984066E+01
 0.2138142724567E+01
 0.2020388413599E+01
 0.1918355502717E+01
 0.1830799817895E+01
 0.1756787765968E+01
 0.1695639820871E+01
 0.1646901412501E+01
 0.1610329948743E+01
 0.1585890086252E+01
 0.1573758050986E+01
 0.1574336793740E+01
 0.1588249943509E+01
 0.1616376752452E+01
 0.1659948926394E+01
 0.1720626714794E+01
 0.1800561807363E+01
 0.1902458834196E+01
 0.2029623236438E+01
 0.2185887040400E+01
 0.2289916978856E+01
 0.2152951488500E+01
 0.2033872492479E+01
 0.1930919916931E+01
 0.1842753751317E+01
 0.1768368978667E+01
 0.1707036116381E+01
 0.1658267183970E+01
 0.1621797783354E+01
 0.1597579104689E+01
 0.1585780259977E+01
 0.1586800910005E+01
 0.1601271905324E+01
 0.1630087758610E+01
 0.1674486683482E+01
 0.1736119253412E+01
 0.1817108904507E+01
 0.1920111846648E+01
 0.2048365075463E+01
 0.2205663432625E+01
 0.2303331236485E+01
 0.2164939057144E+01
 0.2044851766629E+01
 0.1941208144693E+01
 0.1852588803492E+01
 0.1777929699761E+01
 0.1716459903619E+01
 0.1667663220881E+01
 0.1631255914751E+01
 0.1607175576750E+01
 0.1595581274578E+01
 0.1596863949879E+01
 0.1611651250397E+01
 0.1640837620271E+01
 0.1685651593342E+01
 0.1747718051008E+01
 0.1829115836945E+01
 0.1932435792371E+01
 0.2060831529209E+01
 0.2218024258448E+01
 0.2313443998500E+01
 0.2174066661881E+01
 0.2053299373548E+01
 0.1949201715740E+01
 0.1860292231991E+01
 0.1785460670182E+01
 0.1723903383409E+01
 0.1675081266008E+01
 0.1638693693671E+01
 0.1614664449063E+01
 0.1603139656611E+01
 0.1604496198768E+01
 0.1619349049888E+01
 0.1648578998981E+01
 0.1693389885379E+01
 0.1755365019704E+01
 0.1836521624782E+01
 0.1939366977577E+01
 0.2066949685551E+01
 0.2222881838621E+01
 0.2320219200455E+01
 0.2180310654718E+01
 0.2059200371354E+01
 0.1954891770985E+01
 0.1865859249417E+01
 0.1790959508028E+01
 0.1729365123157E+01
 0.1680519497808E+01
 0.1644107614118E+01
 0.1620039299903E+01
 0.1608445051726E+01
 0.1609682666362E+01
 0.1624345851173E+01
 0.1653289512155E+01
 0.1697678737536E+01
 0.1759039734542E+01
 0.1839310877612E+01
 0.1940896348839E+01
 0.2066717351181E+01
 0.2220246645183E+01
 0.2323640754375E+01
 0.2183662671312E+01
 0.2062551777363E+01
 0.1958279050018E+01
 0.1869293039222E+01
 0.1794430797232E+01
 0.1732850232675E+01
 0.1683982802204E+01
 0.1647501694427E+01
 0.1623302809770E+01
 0.1611498665288E+01
 0.1612423383429E+01
 0.1626641650847E+01
 0.1654971440959E+01
 0.1698525967714E+01
 0.1758759364213E+01
 0.1837514043789E+01
 0.1937071606769E+01
 0.2060204124398E+01
 0.2210218916842E+01
 0.2323712595171E+01
 0.2184129642066E+01
 0.2063362538902E+01
 0.1959373848730E+01
 0.1870604741326E+01
 0.1795886127859E+01
 0.1734370469788E+01
 0.1685482944755E+01
 0.1648887702546E+01
 0.1624466996625E+01
 0.1612313423474E+01
 0.1612733367645E+01
 0.1626255582332E+01
 0.1653651176520E+01
 0.1695969367967E+01
 0.1754578029985E+01
 0.1831207146756E+01
 0.1927996929665E+01
 0.2047549452898E+01
 0.2192982151589E+01
 0.2320458483406E+01
 0.2181733656130E+01
 0.2061653409740E+01
 0.1958195917539E+01
 0.1869813384916E+01
 0.1795344073573E+01
 0.1733944263127E+01
 0.1685038628189E+01
 0.1648285220079E+01
 0.1623553233238E+01
 0.1610913868556E+01
 0.1610642304495E+01
 0.1623225317365E+01
 0.1649378345383E+01
 0.1690075602978E+01
 0.1746585574308E+01
 0.1820510369707E+01
 0.1913830960485E+01
 0.2028959149531E+01
 0.2168798541205E+01
 0.2313921725594E+01
 0.2176511747167E+01
 0.2057456793201E+01
 0.1954774342912E+01
 0.1866945805827E+01
 0.1792830140716E+01
 0.1731596683355E+01
 0.1682675465505E+01
 0.1645721580534E+01
 0.1620592094783E+01
 0.1607335845754E+01
 0.1606193992619E+01
 0.1617606203269E+01
 0.1642224606669E+01
 0.1680938658961E+01
 0.1734905625592E+01
 0.1805585598739E+01
 0.1894783549052E+01
 0.2004701184597E+01
 0.2138004214409E+01
 0.2304164648278E+01
 0.2168515535275E+01
 0.2050816474323E+01
 0.1949147344653E+01
 0.1862036488220E+01
 0.1788376637728E+01
 0.1727359320084E+01
 0.1678425835465E+01
 0.1641231660739E+01
 0.1615623028564E+01
 0.1601625982433E+01
 0.1599445553265E+01
 0.1609470125764E+01
 0.1632282104191E+01
 0.1668677812962E+01
 0.1719692976887E+01
 0.1786633069799E+01
 0.1871111561494E+01
 0.1975100731048E+01
 0.2101003673472E+01
 0.2291267966244E+01
 0.2157810780127E+01
 0.2041787297975E+01
 0.1941362031467E+01
 0.1855127367202E+01
 0.1782022497903E+01
 0.1721270096698E+01
 0.1672328654514E+01
 0.1634857563658E+01
 0.1608693889039E+01
 0.1593841005850E+01
 0.1590466448954E+01
 0.1598904139909E+01
 0.1619661615012E+01
 0.1653435184227E+01
 0.1701130389095E+01
 0.1763887270082E+01
 0.1843113884439E+01
 0.1940534359426E+01
 0.2058263535878E+01
 0.2275330009120E+01
 0.2144476842301E+01
 0.2030434778089E+01
 0.1931474102672E+01
 0.1846267580808E+01
 0.1773813046785E+01
 0.1713373018455E+01
 0.1664429065846E+01
 0.1626648199438E+01
 0.1599860350881E+01
 0.1584046917054E+01
 0.1579337332827E+01
 0.1586008895132E+01
 0.1604490434125E+01
 0.1635372933009E+01
 0.1679424938440E+01
 0.1737612236170E+01
 0.1811125563908E+01
 0.1901423472787E+01
 0.2010305112404E+01
 0.2256465830790E+01
 0.2128606061870E+01
 0.2016834647201E+01
 0.1919547500735E+01
 0.1835513175579E+01
 0.1763799719115E+01
 0.1703717861140E+01
 0.1654778056561E+01
 0.1616658780126E+01
 0.1589185220214E+01
 0.1572318046105E+01
 0.1566148759811E+01
 0.1570896896104E+01
 0.1586910054128E+01
 0.1614670200387E+01
 0.1654804018614E+01
 0.1708096464116E+01
 0.1775511264767E+01
 0.1858226384392E+01
 0.1957698050452E+01
 0.2234806217463E+01
 0.2110303065512E+01
 0.2001072352487E+01
 0.1905654019170E+01
 0.1822926769315E+01
 0.1752039729858E+01
 0.1692359807034E+01
 0.1643432012957E+01
 0.1604950242053E+01
 0.1576737662459E+01
 0.1558736012274E+01
 0.1550999790975E+01
 0.1553690642969E+01
 0.1567073706797E+01
 0.1591519875868E+01
 0.1627511146244E+01
 0.1675647496199E+01
 0.1736658801497E+01
 0.1811429728313E+01
 0.1901054206264E+01
 0.2210496608741E+01
 0.2089684012095E+01
 0.1983242504233E+01
 0.1889872869493E+01
 0.1808577174314E+01
 0.1738595703433E+01
 0.1679359034404E+01
 0.1630452223225E+01
 0.1591588608878E+01
 0.1562592364038E+01
 0.1543388611857E+01
 0.1533996521260E+01
 0.1534520694792E+01
 0.1545143828823E+01
 0.1566125296496E+01
 0.1597801657041E+01
 0.1640586459328E+01
 0.1694972088358E+01
 0.1761541567601E+01
 0.1841007839030E+01
 0.2183695953230E+01
 0.2066875790214E+01
 0.1963448285963E+01
 0.1872290213970E+01
 0.1792538986875E+01
 0.1723535267441E+01
 0.1664780268463E+01
 0.1615904338230E+01
 0.1576644309497E+01
 0.1546828646248E+01
 0.1526368656730E+01
 0.1515250560734E+01
 0.1513523696575E+01
 0.1521289514005E+01
 0.1538696957027E+01
 0.1565938463425E+01
 0.1603242486552E+01
 0.1650864148812E+01
 0.1709080707286E+01
 0.1778208064472E+01
 0.2154575520110E+01
 0.2042015181623E+01
 0.1941800835638E+01
 0.1852998670976E+01
 0.1774892148889E+01
 0.1706930616907E+01
 0.1648692301255E+01
 0.1599857800330E+01
 0.1560191464208E+01
 0.1529529548657E+01
 0.1507772785225E+01
 0.1494877495502E+01
 0.1490840403904E+01
 0.1495683995631E+01
 0.1509449312049E+01
 0.1532187946445E+01
 0.1563947387630E+01
 0.1604749691537E+01
 0.1654567603954E+01
 0.1713310111725E+01
 0.2123317683953E+01
 0.2015248003136E+01
 0.1918418605737E+01
 0.1832096798482E+01
 0.1755721486048E+01
 0.1688858053582E+01
 0.1631167486175E+01
 0.1582385248482E+01
 0.1542307151059E+01
 0.1510780898163E+01
 0.1487700265140E+01
 0.1472995351019E+01
 0.1466613729800E+01
 0.1468502191371E+01
 0.1478597705409E+01
 0.1496816103437E+01
 0.1523030656310E+01
 0.1557038524391E+01
 0.1598515675472E+01
 0.1646964880568E+01
 0.2090114707957E+01
 0.1986728242870E+01
 0.1893426713700E+01
 0.1809688564685E+01
 0.1735116229844E+01
 0.1669397506881E+01
 0.1612281214230E+01
 0.1563561908866E+01
 0.1523070665596E+01
 0.1490670381984E+01
 0.1466251811248E+01
 0.1449723081137E+01
 0.1440986835513E+01
 0.1439918327127E+01
 0.1446355453160E+01
 0.1460084971839E+01
 0.1480815051853E+01
 0.1508129953345E+01
 0.1541423456126E+01
 0.1579807024348E+01
 0.2055167551246E+01
 0.1956617204101E+01
 0.1866956295285E+01
 0.1785882814933E+01
 0.1713169531156E+01
 0.1648632042641E+01
 0.1592111377623E+01
 0.1543464977814E+01
 0.1502562784503E+01
 0.1469286641012E+01
 0.1443528439095E+01
 0.1425179105336E+01
 0.1414101280460E+01
 0.1410103644322E+01
 0.1412931069389E+01
 0.1422249328669E+01
 0.1437612686748E+01
 0.1458408030469E+01
 0.1483768243622E+01
 0.1512442000020E+01
 0.2018684655171E+01
 0.1925082645959E+01
 0.1839143841863E+01
 0.1760792719281E+01
 0.1689977949630E+01
 0.1626647344350E+01
 0.1570737806417E+01
 0.1522172985583E+01
 0.1480865027647E+01
 0.1446718387909E+01
 0.1419630370749E+01
 0.1399479914620E+01
 0.1386095241779E+01
 0.1379224176697E+01
 0.1378525597261E+01
 0.1383553592347E+01
 0.1393721446140E+01
 0.1408237255830E+01
 0.1426000227696E+01
 0.1445434172333E+01
 0.1980880865820E+01
 0.1892297993809E+01
 0.1810130599892E+01
 0.1734535266882E+01
 0.1665640975493E+01
 0.1603531213297E+01
 0.1548241716388E+01
 0.1499765173234E+01
 0.1458058948189E+01
 0.1423053585150E+01
 0.1394656040828E+01
 0.1372738806649E+01
 0.1357101852891E+01
 0.1347438600370E+01
 0.1343330001139E+01
 0.1344228850495E+01
 0.1349421629871E+01
 0.1357958444088E+01
 0.1368536496897E+01
 0.1379297274596E+01
 0.1941976355140E+01
 0.1858441571451E+01
 0.1780061983568E+01
 0.1707230771474E+01
 0.1640260549796E+01
 0.1579373053941E+01
 0.1524705137685E+01
 0.1476320855367E+01
 0.1434225427567E+01
 0.1398378668412E+01
 0.1368701219200E+01
 0.1345064805835E+01
 0.1327247734297E+01
 0.1314896170819E+01
 0.1307522516573E+01
 0.1304489920145E+01
 0.1304972811774E+01
 0.1307884937962E+01
 0.1311755793676E+01
 0.1314487925491E+01
 0.1902195601398E+01
 0.1823695877713E+01
 0.1749087049359E+01
 0.1679002432332E+01
 0.1613940610795E+01
 0.1554263357891E+01
 0.1500210330928E+01
 0.1451918776682E+01
 0.1409443969565E+01
 0.1372777802890E+01
 0.1341858247593E+01
 0.1316561852881E+01
 0.1296651851839E+01
 0.1281734836837E+01
 0.1271265813854E+01
 0.1264532050583E+01
 0.1260611064890E+01
 0.1258299669180E+01
 0.1255994841225E+01
 0.1251402774600E+01
 0.1861766351413E+01
 0.1788246890745E+01
 0.1717358056238E+01
 0.1649975976899E+01
 0.1586786670485E+01
 0.1528293157284E+01
 0.1474839170425E+01
 0.1426636448683E+01
 0.1383791985488E+01
 0.1346332097522E+01
 0.1314215332980E+01
 0.1287328256926E+01
 0.1265425001913E+01
 0.1248079758636E+01
 0.1234703938573E+01
 0.1224526637569E+01
 0.1216545524042E+01
 0.1209455274352E+01
 0.1201546458174E+01
 0.1190377450234E+01
 0.1820918475396E+01
 0.1752283416993E+01
 0.1685030212260E+01
 0.1620279535393E+01
 0.1558905449510E+01
 0.1501553462543E+01
 0.1448672492130E+01
 0.1400549539893E+01
 0.1357344126156E+01
 0.1319118834081E+01
 0.1285855667434E+01
 0.1257456498827E+01
 0.1233670094228E+01
 0.1214043448260E+01
 0.1197959065995E+01
 0.1184615372389E+01
 0.1172952682674E+01
 0.1161574013287E+01
 0.1148672698701E+01
 0.1131673330999E+01
 0.1779882263357E+01
 0.1715996202678E+01
 0.1652261854030E+01
 0.1590043714926E+01
 0.1530404593660E+01
 0.1474134393020E+01
 0.1421789352243E+01
 0.1373731253915E+01
 0.1330171741669E+01
 0.1291210608870E+01
 0.1256856390987E+01
 0.1227032049255E+01
 0.1201484316111E+01
 0.1179727545275E+01
 0.1161131975968E+01
 0.1144899156461E+01
 0.1129966223869E+01
 0.1114844770176E+01
 0.1097615715970E+01
 0.1075524242869E+01
 0.1738884889541E+01
 0.1679577503451E+01
 0.1619215021676E+01
 0.1559403226126E+01
 0.1501391810238E+01
 0.1446124305810E+01
 0.1394265907891E+01
 0.1346252098402E+01
 0.1302342580613E+01
 0.1262674770386E+01
 0.1227287015834E+01
 0.1196132111928E+01
 0.1168956730147E+01
 0.1145236160976E+01
 0.1124301849582E+01
 0.1105436116154E+01
 0.1087638402231E+01
 0.1069420808956E+01
 0.1048616549063E+01
 0.1022184248676E+01
 0.1698144823888E+01
 0.1643216002106E+01
 0.1586062952256E+01
 0.1528496280787E+01
 0.1471975809573E+01
 0.1417605701440E+01
 0.1366175228282E+01
 0.1318179419142E+01
 0.1273921055970E+01
 0.1233573080319E+01
 0.1197208187336E+01
 0.1164821650158E+01
 0.1136168261054E+01
 0.1110664256854E+01
 0.1087596480852E+01
 0.1066192017182E+01
 0.1045934274630E+01
 0.1025304646658E+01
 0.1002019173762E+01
 0.9720278847198E+00
 0.1657829066061E+01
 0.1607116688943E+01
 0.1552982370237E+01
 0.1497487725480E+01
 0.1442248058401E+01
 0.1388657550593E+01
 0.1337584733807E+01
 0.1289578582217E+01
 0.1244968432882E+01
 0.1203962673053E+01
 0.1166670703040E+01
 0.1133150470693E+01
 0.1103180614311E+01
 0.1076109456511E+01
 0.1051115759260E+01
 0.1027428247694E+01
 0.1004244361134E+01
 0.9824728717739E+00
 0.9580432446884E+00
 0.9260899752492E+00
 0.1618084817099E+01
 0.1571351082245E+01
 0.1520358471348E+01
 0.1466465875650E+01
 0.1412300947111E+01
 0.1359347763934E+01
 0.1308559983321E+01
 0.1260505883135E+01
 0.1215551595396E+01
 0.1173895226370E+01
 0.1135713519100E+01
 0.1101154838235E+01
 0.1070028252682E+01
 0.1041635496226E+01
 0.1015017981021E+01
 0.9891985695317E+00
 0.9636543835430E+00
 0.9371206263024E+00
 0.9187998720430E+00
 0.8862285123009E+00
 0.1577117727582E+01
 0.1537387847350E+01
 0.1488161519515E+01
 0.1435568260845E+01
 0.1382184301678E+01
 0.1329746218377E+01
 0.1279163547128E+01
 0.1231016369520E+01
 0.1185702579090E+01
 0.1143487055645E+01
 0.1104331172350E+01
 0.1068815695212E+01
 0.1036802249657E+01
 0.1007201520885E+01
 0.9793753623233E+00
 0.9518990460541E+00
 0.9237355337941E+00
 0.8953958319842E+00
 0.8616617000536E+00
 0.8762827211630E+00
 0.3944205759475E+01
 0.2932405321510E+00
 0.6131474500893E-01
-0.6159539832562E-01
-0.9982686373040E-01
-0.1177647231269E+00
-0.1315413234550E+00
-0.1447056108572E+00
-0.1553049467633E+00
-0.1640250351751E+00
-0.1731735917209E+00
-0.1707443146601E+00
-0.1684175729808E+00
-0.1729962897661E+00
-0.1871143911095E+00
-0.2082640030891E+00
-0.2332035162403E+00
-0.2573403707122E+00
-0.2793603199716E+00
-0.1807031226045E+00
 0.2344746741009E+01
 0.1209742578945E+01
 0.2801048039656E+00
 0.8971538450954E-01
 0.7601009326117E-02
-0.2699927954577E-01
-0.4894034286714E-01
-0.6541921370667E-01
-0.7857227533198E-01
-0.8965482981773E-01
-0.9654150665713E-01
-0.1014530899196E+00
-0.1070531110868E+00
-0.1124994670289E+00
-0.1199855901504E+00
-0.1306369883688E+00
-0.1404363049194E+00
-0.1453972637769E+00
-0.1203522012097E+00
-0.1747366035421E-01
 0.1891404445456E+01
 0.1236467596317E+01
 0.6289737168994E+00
 0.2611285771111E+00
 0.1322583494033E+00
 0.7188563508443E-01
 0.3911209425392E-01
 0.1716833350370E-01
 0.9415875452807E-03
-0.1152138239583E-01
-0.2040560525177E-01
-0.2852206811863E-01
-0.3782201697586E-01
-0.4344256621911E-01
-0.4538417566528E-01
-0.4533443555535E-01
-0.4006480568221E-01
-0.2030350905905E-01
 0.3215785511220E-01
 0.1916413755193E+00
 0.1678373901128E+01
 0.1239258895197E+01
 0.7936282999562E+00
 0.4560462640219E+00
 0.2684106691985E+00
 0.1805102134135E+00
 0.1328345014207E+00
 0.1036586726711E+00
 0.8356717726078E-01
 0.6883095498467E-01
 0.5813230947004E-01
 0.4782909367879E-01
 0.3730067396718E-01
 0.3288736102470E-01
 0.3656176668526E-01
 0.4702233669126E-01
 0.6836101769473E-01
 0.1096905920023E+00
 0.1961447013826E+00
 0.3953308368414E+00
 0.1574062721221E+01
 0.1244982140586E+01
 0.8996343343928E+00
 0.6063354465575E+00
 0.4096421296880E+00
 0.2957146437955E+00
 0.2323207505724E+00
 0.1941789030909E+00
 0.1692006433422E+00
 0.1517009865317E+00
 0.1392379650957E+00
 0.1276950984632E+00
 0.1173378346136E+00
 0.1153668274098E+00
 0.1249912923130E+00
 0.1458531061433E+00
 0.1823738587476E+00
 0.2452504076576E+00
 0.3604777788532E+00
 0.5848985077984E+00
 0.1525335870841E+01
 0.1261623020232E+01
 0.9793807850134E+00
 0.7267040710319E+00
 0.5378262991733E+00
 0.4128460423014E+00
 0.3357089393607E+00
 0.2883423436826E+00
 0.2577517645189E+00
 0.2370799247997E+00
 0.2229355394670E+00
 0.2107742871296E+00
 0.2015983700983E+00
 0.2029547599727E+00
 0.2188435259763E+00
 0.2496970684990E+00
 0.3005024213989E+00
 0.3822658634885E+00
 0.5192202003183E+00
 0.7571651383500E+00
 0.1509294953510E+01
 0.1287451062869E+01
 0.1047861186819E+01
 0.8275820763872E+00
 0.6523301624737E+00
 0.5255782500165E+00
 0.4402773063818E+00
 0.3849447028130E+00
 0.3487855814133E+00
 0.3247695727575E+00
 0.3090096386488E+00
 0.2966677380846E+00
 0.2893534594055E+00
 0.2946185204875E+00
 0.3167941493589E+00
 0.3569668500646E+00
 0.4202942067225E+00
 0.5171867573680E+00
 0.6688250667341E+00
 0.9117039072560E+00
 0.1513868736146E+01
 0.1320394298055E+01
 0.1111205456218E+01
 0.9163351335750E+00
 0.7553461463711E+00
 0.6319168324647E+00
 0.5431688370721E+00
 0.4823735136535E+00
 0.4414599055134E+00
 0.4143075106461E+00
 0.3970655274171E+00
 0.3848534915164E+00
 0.3798160943311E+00
 0.3892412526424E+00
 0.4174100905612E+00
 0.4657944500599E+00
 0.5393250895918E+00
 0.6472561612638E+00
 0.8074736749992E+00
 0.1049018086081E+01
 0.1532116070609E+01
 0.1358657377079E+01
 0.1172151408386E+01
 0.9973545712829E+00
 0.8495290123895E+00
 0.7317169536249E+00
 0.6428205900029E+00
 0.5790447368272E+00
 0.5347139925853E+00
 0.5049918139460E+00
 0.4865299777456E+00
 0.4746921811481E+00
 0.4721174488527E+00
 0.4856442080156E+00
 0.5191780875522E+00
 0.5743178657934E+00
 0.6554730772772E+00
 0.7705428262898E+00
 0.9343354702662E+00
 0.1170033805885E+01
 0.1559729970655E+01
 0.1400866283689E+01
 0.1231900829023E+01
 0.1073239177543E+01
 0.9370188904505E+00
 0.8256068268055E+00
 0.7385771347085E+00
 0.6738299557136E+00
 0.6274917084644E+00
 0.5959874247548E+00
 0.5766858546577E+00
 0.5654341550807E+00
 0.5653191675553E+00
 0.5826139632329E+00
 0.6206104485788E+00
 0.6808358580105E+00
 0.7670309682224E+00
 0.8857665322126E+00
 0.1049176316868E+01
 0.1275851313587E+01
 0.1593881008704E+01
 0.1445972841788E+01
 0.1290955226852E+01
 0.1145503958596E+01
 0.1019363933412E+01
 0.9143700783882E+00
 0.8303120285101E+00
 0.7660282806277E+00
 0.7189115228232E+00
 0.6864441586181E+00
 0.6667362997518E+00
 0.6562501983314E+00
 0.6584401692556E+00
 0.6789527488461E+00
 0.7203248003136E+00
 0.7838913986388E+00
 0.8726984657384E+00
 0.9921400082354E+00
 0.1152121129256E+01
 0.1367634053044E+01
 0.1632613906104E+01
 0.1493159846941E+01
 0.1349476938233E+01
 0.1215021438749E+01
 0.1097616683157E+01
 0.9987073302152E+00
 0.9181346059449E+00
 0.8552458615212E+00
 0.8082956530582E+00
 0.7755829999663E+00
 0.7558735903971E+00
 0.7462787479221E+00
 0.7504981314181E+00
 0.7735275229589E+00
 0.8170974946015E+00
 0.8822978440004E+00
 0.9715377870563E+00
 0.1089241149833E+01
 0.1243513877014E+01
 0.1446546694774E+01
 0.1674513283978E+01
 0.1541765209105E+01
 0.1407454727980E+01
 0.1282275914583E+01
 0.1172460291032E+01
 0.1079159837735E+01
 0.1002222343140E+01
 0.9412700023833E+00
 0.8951391105798E+00
 0.8627293745663E+00
 0.8433326128264E+00
 0.8346759605019E+00
 0.8405545255315E+00
 0.8653121348840E+00
 0.9098933935968E+00
 0.9751375278045E+00
 0.1062921462998E+01
 0.1176918921150E+01
 0.1323828470941E+01
 0.1513713241771E+01
 0.1718507997940E+01
 0.1591228332017E+01
 0.1464780220324E+01
 0.1347510501977E+01
 0.1244312668210E+01
 0.1156104658793E+01
 0.1082735405579E+01
 0.1023977006576E+01
 0.9790604850632E+00
 0.9473136946942E+00
 0.9284208853307E+00
 0.9206560349948E+00
 0.9277538985109E+00
 0.9534186477117E+00
 0.9978821972260E+00
 0.1061750194632E+01
 0.1146489197384E+01
 0.1255225898092E+01
 0.1393607110047E+01
 0.1570177452706E+01
 0.1763750984649E+01
 0.1641053054380E+01
 0.1521284116887E+01
 0.1410812272427E+01
 0.1313403351791E+01
 0.1229775002450E+01
 0.1159780285715E+01
 0.1103273806361E+01
 0.1059757399977E+01
 0.1028856670891E+01
 0.1010529446883E+01
 0.1003516179535E+01
 0.1011348142532E+01
 0.1037117443638E+01
 0.1080443334378E+01
 0.1141728538421E+01
 0.1222118175066E+01
 0.1324378896520E+01
 0.1453407553699E+01
 0.1616852411072E+01
 0.1809541104617E+01
 0.1690782323728E+01
 0.1576753530197E+01
 0.1472163406649E+01
 0.1379827427786E+01
 0.1300286828702E+01
 0.1233399400040E+01
 0.1179065287194E+01
 0.1136973705956E+01
 0.1106951138028E+01
 0.1089132163235E+01
 0.1082645692895E+01
 0.1090705521818E+01
 0.1115829477378E+01
 0.1157173504486E+01
 0.1214907025124E+01
 0.1289946282103E+01
 0.1384730700005E+01
 0.1503768984015E+01
 0.1654423031887E+01
 0.1855269955892E+01
 0.1739977105813E+01
 0.1630945008060E+01
 0.1531471815627E+01
 0.1443585922967E+01
 0.1367663455693E+01
 0.1303573452874E+01
 0.1251239064660E+01
 0.1210477797214E+01
 0.1181247494563E+01
 0.1163779900417E+01
 0.1157526665767E+01
 0.1165300996195E+01
 0.1189108684414E+01
 0.1227803540963E+01
 0.1281443718278E+01
 0.1350356334482E+01
 0.1436917806276E+01
 0.1545094948673E+01
 0.1683197539484E+01
 0.1900363615856E+01
 0.1788215101696E+01
 0.1683580551043E+01
 0.1588608304931E+01
 0.1504608251840E+01
 0.1431860385814E+01
 0.1370229555371E+01
 0.1319656599065E+01
 0.1280053673687E+01
 0.1251440774194E+01
 0.1234098057629E+01
 0.1227731873058E+01
 0.1234708321898E+01
 0.1256589281177E+01
 0.1292158882963E+01
 0.1341408985868E+01
 0.1404667050660E+01
 0.1481679749483E+01
 0.1578027233972E+01
 0.1702371218455E+01
 0.1944296233971E+01
 0.1834984703068E+01
 0.1734455053744E+01
 0.1643379065907E+01
 0.1562796151599E+01
 0.1492779844148E+01
 0.1433249422044E+01
 0.1384158745825E+01
 0.1345472788251E+01
 0.1317286701449E+01
 0.1299776671384E+01
 0.1292925186737E+01
 0.1298609476302E+01
 0.1317978792078E+01
 0.1350001472345E+01
 0.1394868268611E+01
 0.1452744847568E+01
 0.1524648627653E+01
 0.1601292653261E+01
 0.1709555008350E+01
 0.1985714126612E+01
 0.1880398545434E+01
 0.1783071907605E+01
 0.1695682270490E+01
 0.1618034722055E+01
 0.1550281487332E+01
 0.1492466710574E+01
 0.1444569961786E+01
 0.1406535928754E+01
 0.1378447010691E+01
 0.1360725974435E+01
 0.1352876397862E+01
 0.1356659061810E+01
 0.1373204491996E+01
 0.1401184413442E+01
 0.1441350643022E+01
 0.1494630447525E+01
 0.1561298142140E+01
 0.1643847121028E+01
 0.1676353199252E+01
 0.1545143932548E+01
 0.1500929735273E+01
 0.1450423937331E+01
 0.1396692382329E+01
 0.1342298659230E+01
 0.1288818868089E+01
 0.1237302657776E+01
 0.1188374258918E+01
 0.1142361956314E+01
 0.1099409588207E+01
 0.1059694003881E+01
 0.1022505493784E+01
 0.9882510562192E+00
 0.9574778440194E+00
 0.9284658098950E+00
 0.9002759171829E+00
 0.8716757416024E+00
 0.8402373467575E+00
 0.8072673140217E+00
 0.7047025571596E+00
 0.1508284599734E+01
 0.1463129445615E+01
 0.1408782427740E+01
 0.1350609164428E+01
 0.1291851814906E+01
 0.1234400202471E+01
 0.1179300879780E+01
 0.1127222757266E+01
 0.1078497770399E+01
 0.1033266980353E+01
 0.9915032581676E+00
 0.9526541949111E+00
 0.9175855666001E+00
 0.8868374598360E+00
 0.8588282013678E+00
 0.8322752103460E+00
 0.8051833323379E+00
 0.7764275505094E+00
 0.7340386192797E+00
 0.7009778732352E+00
 0.1474217738896E+01
 0.1426792071775E+01
 0.1368346836335E+01
 0.1305089265536E+01
 0.1241338007588E+01
 0.1179317783733E+01
 0.1120195449519E+01
 0.1064693362636E+01
 0.1013134653032E+01
 0.9655917630427E+00
 0.9220606187700E+00
 0.8818269636338E+00
 0.8459809327049E+00
 0.8153631563766E+00
 0.7883431428958E+00
 0.7633587329851E+00
 0.7386477898801E+00
 0.7112913021811E+00
 0.6835041807097E+00
 0.6591013589748E+00
 0.1442681986517E+01
 0.1392660756696E+01
 0.1329279403997E+01
 0.1260172827596E+01
 0.1190675201643E+01
 0.1123478276255E+01
 0.1059900053989E+01
 0.1000742295717E+01
 0.9462965252758E+00
 0.8965757538623E+00
 0.8515110014338E+00
 0.8101592269732E+00
 0.7737817735316E+00
 0.7434382522252E+00
 0.7175411543386E+00
 0.6944840897315E+00
 0.6722819592182E+00
 0.6501754615274E+00
 0.6280144280551E+00
 0.6085818338867E+00
 0.1414126536187E+01
 0.1361020887093E+01
 0.1291807064146E+01
 0.1215839280430E+01
 0.1139735763766E+01
 0.1066701696673E+01
 0.9982479757106E+00
 0.9352605901302E+00
 0.8779774356597E+00
 0.8262970901862E+00
 0.7800206828531E+00
 0.7379098412121E+00
 0.7013231382961E+00
 0.6714993027255E+00
 0.6469649815485E+00
 0.6259910178600E+00
 0.6068856915770E+00
 0.5884315161915E+00
 0.5703467615760E+00
 0.5536548142548E+00
 0.1389064904762E+01
 0.1332225970475E+01
 0.1256050405537E+01
 0.1172017274721E+01
 0.1088303731783E+01
 0.1008716189444E+01
 0.9349852472380E+00
 0.8680775092798E+00
 0.8081210878257E+00
 0.7548258140480E+00
 0.7077768638487E+00
 0.6653679273911E+00
 0.6289739210401E+00
 0.5999709366420E+00
 0.5769946203854E+00
 0.5582315516316E+00
 0.5418353437411E+00
 0.5263747597550E+00
 0.5112024254404E+00
 0.4966232946957E+00
 0.1368128539758E+01
 0.1306650927235E+01
 0.1222093097624E+01
 0.1128539834670E+01
 0.1036054973201E+01
 0.9491349415687E+00
 0.8697645898099E+00
 0.7989621668202E+00
 0.7366519671006E+00
 0.6822439156639E+00
 0.6349969060700E+00
 0.5928555161941E+00
 0.5571185684942E+00
 0.5292501574491E+00
 0.5080022854561E+00
 0.4913736733925E+00
 0.4773729537686E+00
 0.4643206748425E+00
 0.4514170794206E+00
 0.4386050595220E+00
 0.1352101202646E+01
 0.1284717565891E+01
 0.1189971827228E+01
 0.1085130162055E+01
 0.9825200123122E+00
 0.8874314528538E+00
 0.8021381651236E+00
 0.7276399190579E+00
 0.6635016331965E+00
 0.6086723480668E+00
 0.5619453740130E+00
 0.5207325843531E+00
 0.4861574236980E+00
 0.4597410875652E+00
 0.4403417843570E+00
 0.4257479226906E+00
 0.4138241866826E+00
 0.4027291245212E+00
 0.3916034704334E+00
 0.3802987592166E+00
 0.1341988853473E+01
 0.1266917786731E+01
 0.1159668747132E+01
 0.1041362599508E+01
 0.9270369804452E+00
 0.8229073704087E+00
 0.7315584395758E+00
 0.6538199317024E+00
 0.5886475883122E+00
 0.5343039521281E+00
 0.4889532515578E+00
 0.4494030535216E+00
 0.4165122743586E+00
 0.3918516787881E+00
 0.3743938916469E+00
 0.3617093960254E+00
 0.3515617165161E+00
 0.3420226236584E+00
 0.3322589946689E+00
 0.3221812479691E+00
 0.1339125986151E+01
 0.1253850363559E+01
 0.1131089894514E+01
 0.9965969694665E+00
 0.8686792805955E+00
 0.7546575764204E+00
 0.6573946583779E+00
 0.5772455035106E+00
 0.5121678333377E+00
 0.4594409915848E+00
 0.4164330138786E+00
 0.3793141638831E+00
 0.3486177286833E+00
 0.3259899657097E+00
 0.3105310589182E+00
 0.2996074640470E+00
 0.2909347466121E+00
 0.2825758107745E+00
 0.2737849888184E+00
 0.2646186051629E+00
 0.1345343974282E+01
 0.1246274745647E+01
 0.1104018283592E+01
 0.9498630480290E+00
 0.8061494850017E+00
 0.6815406836135E+00
 0.5789834916462E+00
 0.4977791073487E+00
 0.4343116510640E+00
 0.3845291208970E+00
 0.3448804964441E+00
 0.3109412913894E+00
 0.2829047501993E+00
 0.2625447907441E+00
 0.2490989803102E+00
 0.2397574375549E+00
 0.2322503659212E+00
 0.2247059649347E+00
 0.2165107099701E+00
 0.2079144985726E+00
 0.1363245898820E+01
 0.1245189730527E+01
 0.1078011826153E+01
 0.8996582211965E+00
 0.7376320189012E+00
 0.6021809633926E+00
 0.4957455413402E+00
 0.4155340664776E+00
 0.3555777706883E+00
 0.3101715340726E+00
 0.2748527802469E+00
 0.2447577254530E+00
 0.2197778867597E+00
 0.2018713085102E+00
 0.1904041769216E+00
 0.1824296471127E+00
 0.1757641183540E+00
 0.1686738233855E+00
 0.1607073975593E+00
 0.1523337357249E+00
 0.1396674559422E+01
 0.1251945148332E+01
 0.1052179604270E+01
 0.8435951857071E+00
 0.6606105693507E+00
 0.5150644946622E+00
 0.4074141942976E+00
 0.3310543495911E+00
 0.2767694278612E+00
 0.2370988736815E+00
 0.2069142910640E+00
 0.1811944816728E+00
 0.1595960720503E+00
 0.1442846807449E+00
 0.1347118265919E+00
 0.1278455707403E+00
 0.1216763634227E+00
 0.1146847945710E+00
 0.1065982394032E+00
 0.9811428347399E-01
 0.1451553593876E+01
 0.1268384145841E+01
 0.1024691525269E+01
 0.7777889302953E+00
 0.5717183582766E+00
 0.4188537766110E+00
 0.3144386403974E+00
 0.2454922033869E+00
 0.1989697290424E+00
 0.1660660812923E+00
 0.1415598975672E+00
 0.1206032618284E+00
 0.1026654169515E+00
 0.9006616712195E-01
 0.8225188643800E-01
 0.7617763505633E-01
 0.7012791282586E-01
 0.6288847624834E-01
 0.5436577463471E-01
 0.4547693319803E-01
 0.1537491317982E+01
 0.1296993215961E+01
 0.9916419609637E+00
 0.6958668310811E+00
 0.4668143229428E+00
 0.3132169592473E+00
 0.2185140279289E+00
 0.1606669966812E+00
 0.1233268828380E+00
 0.9770224976847E-01
 0.7914021559627E-01
 0.6323888487581E-01
 0.4924978413055E-01
 0.3948283199204E-01
 0.3323330142836E-01
 0.2754874200009E-01
 0.2119121096510E-01
 0.1337311448930E-01
 0.4159300823669E-02
-0.5361921192673E-02
 0.1671215727008E+01
 0.1340742946476E+01
 0.9445195693578E+00
 0.5873180966590E+00
 0.3422550686446E+00
 0.2002991558863E+00
 0.1231378869129E+00
 0.7851884128104E-01
 0.5075804657094E-01
 0.3237038292219E-01
 0.1982567620981E-01
 0.9266430127177E-02
-0.4026004605403E-03
-0.7176389264104E-02
-0.1213519900240E-01
-0.1796794952372E-01
-0.2515034087722E-01
-0.3384671490882E-01
-0.4389894025103E-01
-0.5416659803080E-01
 0.1884372793217E+01
 0.1402293953097E+01
 0.8628039909424E+00
 0.4372209510878E+00
 0.1980663952955E+00
 0.8810229610247E-01
 0.3178241847154E-01
 0.5157862017853E-03
-0.1831454961927E-01
-0.2986006378933E-01
-0.3638928905364E-01
-0.4122520571591E-01
-0.4601207803339E-01
-0.4955238262459E-01
-0.5360636062392E-01
-0.6035987472132E-01
-0.6902528307824E-01
-0.7887296397583E-01
-0.8969658630703E-01
-0.1006493467434E+00
 0.2249715091356E+01
 0.1471626096699E+01
 0.7021893292559E+00
 0.2245365484379E+00
 0.5746717257134E-01
-0.1717729124627E-01
-0.5313311363239E-01
-0.7293151111856E-01
-0.8387839235182E-01
-0.8913180272613E-01
-0.8971925822215E-01
-0.8820457065735E-01
-0.8720833879449E-01
-0.8711540079758E-01
-0.9089237483329E-01
-0.9962873355368E-01
-0.1107598615349E+00
-0.1219459044798E+00
-0.1331989788723E+00
-0.1443232104994E+00
 0.2946391386331E+01
 0.1513270910869E+01
 0.2938358943199E+00
 0.3663471757214E-01
-0.7033630437702E-01
-0.1112619144305E+00
-0.1317870320327E+00
-0.1420445809782E+00
-0.1459568971242E+00
-0.1458247098278E+00
-0.1405709773592E+00
-0.1319111226701E+00
-0.1232707323835E+00
-0.1189867266853E+00
-0.1237248164883E+00
-0.1359595484570E+00
-0.1504082585891E+00
-0.1640978063494E+00
-0.1742086726373E+00
-0.1845139382597E+00
 0.5180086037564E+01
 0.3861323985501E+00
 0.3934135212065E-01
-0.1272428444704E+00
-0.1771261843381E+00
-0.1965155036193E+00
-0.2045539949109E+00
-0.2074869059961E+00
-0.2051037867850E+00
-0.1984919703927E+00
-0.1915553013161E+00
-0.1730962451385E+00
-0.1516849795824E+00
-0.1439768693724E+00
-0.1525803229066E+00
-0.1692144009031E+00
-0.1884051805037E+00
-0.2047270210076E+00
-0.2172117432908E+00
-0.2158355535921E+00
 0.1917710124073E+01
 0.1856804474978E+01
 0.1840019302150E+01
 0.1822948394039E+01
 0.1802974536866E+01
 0.1777243404859E+01
 0.1744240496663E+01
 0.1702670463720E+01
 0.1651344618572E+01
 0.1589044438733E+01
 0.1514439625059E+01
 0.1426000740525E+01
 0.1321892471245E+01
 0.1199825848760E+01
 0.1056849732269E+01
 0.8890104363793E+00
 0.6909624813910E+00
 0.4545752779701E+00
 0.1711321923748E+00
-0.1889077227014E+00
 0.1947007496732E+01
 0.1957503130365E+01
 0.1947082399440E+01
 0.1941706292125E+01
 0.1933870964321E+01
 0.1922119555797E+01
 0.1904685775277E+01
 0.1880177076701E+01
 0.1847224075507E+01
 0.1804393539301E+01
 0.1750073994743E+01
 0.1682360942666E+01
 0.1598909716281E+01
 0.1496731631933E+01
 0.1371880977444E+01
 0.1218974324199E+01
 0.1030183437911E+01
 0.7938760730253E+00
 0.4871811548769E+00
 0.6590275495429E-01
 0.2013316254211E+01
 0.2031422451572E+01
 0.2044740932272E+01
 0.2052941706038E+01
 0.2059791214292E+01
 0.2063578650194E+01
 0.2063253774231E+01
 0.2057577896997E+01
 0.2045301886231E+01
 0.2025063276708E+01
 0.1995314712039E+01
 0.1954223220875E+01
 0.1899541983294E+01
 0.1828431155696E+01
 0.1737200001671E+01
 0.1620879849512E+01
 0.1472615259635E+01
 0.1282023256474E+01
 0.1033901442480E+01
 0.7002396031780E+00
 0.2076343922830E+01
 0.2105981170318E+01
 0.2132276368967E+01
 0.2156443707882E+01
 0.2178524634550E+01
 0.2198786875025E+01
 0.2216431157846E+01
 0.2230607828850E+01
 0.2240323158971E+01
 0.2244470574333E+01
 0.2241783549845E+01
 0.2230778166583E+01
 0.2209673949244E+01
 0.2176292310159E+01
 0.2127920594431E+01
 0.2061157802274E+01
 0.1971680640393E+01
 0.1854426355377E+01
 0.1704075186676E+01
 0.1524933304801E+01
 0.2135408980792E+01
 0.2174828876079E+01
 0.2213602929850E+01
 0.2251554954044E+01
 0.2288971776489E+01
 0.2325724123163E+01
 0.2361543662575E+01
 0.2395872021578E+01
 0.2428045427621E+01
 0.2457290680716E+01
 0.2482726588245E+01
 0.2503343466949E+01
 0.2517978911232E+01
 0.2525294205415E+01
 0.2523768832435E+01
 0.2511732974066E+01
 0.2487580247793E+01
 0.2450238430912E+01
 0.2401165939185E+01
 0.2346584207153E+01
 0.2188505832054E+01
 0.2237386525930E+01
 0.2287333385348E+01
 0.2338222774646E+01
 0.2390052185391E+01
 0.2442838630627E+01
 0.2496438019889E+01
 0.2550603326642E+01
 0.2604979565794E+01
 0.2659147048728E+01
 0.2712631954801E+01
 0.2764918180194E+01
 0.2815462445855E+01
 0.2863726379300E+01
 0.2909241077026E+01
 0.2951744560461E+01
 0.2991416456010E+01
 0.3029361591896E+01
 0.3067773476115E+01
 0.3108664035676E+01
 0.2234836237194E+01
 0.2292535147034E+01
 0.2352805512937E+01
 0.2415567164363E+01
 0.2480870700439E+01
 0.2548780240810E+01
 0.2619332692324E+01
 0.2692503960141E+01
 0.2768228493965E+01
 0.2846413655055E+01
 0.2926964895666E+01
 0.3009811423392E+01
 0.3094942708747E+01
 0.3182463322778E+01
 0.3272679677191E+01
 0.3366226914755E+01
 0.3464254182488E+01
 0.3568544524575E+01
 0.3681489353727E+01
 0.3804887642685E+01
 0.2273802125572E+01
 0.2339614650119E+01
 0.2409288648570E+01
 0.2482880993998E+01
 0.2560530547081E+01
 0.2642419439112E+01
 0.2728735204547E+01
 0.2819661024674E+01
 0.2915376541424E+01
 0.3016074663871E+01
 0.3121983448027E+01
 0.3233396627788E+01
 0.3350713762145E+01
 0.3474495246808E+01
 0.3605535231634E+01
 0.3744955113940E+01
 0.3894294839104E+01
 0.4055607320734E+01
 0.4231478677923E+01
 0.4426384190608E+01
 0.2304905930736E+01
 0.2377951179673E+01
 0.2455972496618E+01
 0.2539177480919E+01
 0.2627830617768E+01
 0.2722239947168E+01
 0.2822744166870E+01
 0.2929705056725E+01
 0.3043511319659E+01
 0.3164589868668E+01
 0.3293425150467E+01
 0.3430584917593E+01
 0.3576753681790E+01
 0.3732774118049E+01
 0.3899696257441E+01
 0.4078828901491E+01
 0.4271793555294E+01
 0.4480570968231E+01
 0.4707720049500E+01
 0.4956387768982E+01
 0.2327686883355E+01
 0.2406829921322E+01
 0.2491896376738E+01
 0.2583235918261E+01
 0.2681237510995E+01
 0.2786335305196E+01
 0.2899005055148E+01
 0.3019762875892E+01
 0.3149168186479E+01
 0.3287832196173E+01
 0.3436431045228E+01
 0.3595723439668E+01
 0.3766571936992E+01
 0.3949966840755E+01
 0.4147049892174E+01
 0.4359134958844E+01
 0.4587719349336E+01
 0.4834499598084E+01
 0.5101305322247E+01
 0.5389830949557E+01
 0.2341886142420E+01
 0.2425790695925E+01
 0.2516405980189E+01
 0.2614188968661E+01
 0.2719638318655E+01
 0.2833299524098E+01
 0.2955766616836E+01
 0.3087682818387E+01
 0.3229742860558E+01
 0.3382697447388E+01
 0.3547359889999E+01
 0.3724614207038E+01
 0.3915423704770E+01
 0.4120838236234E+01
 0.4341997682805E+01
 0.4580127451812E+01
 0.4836522516803E+01
 0.5112498317776E+01
 0.5409283568485E+01
 0.5727852819333E+01
 0.2347374386416E+01
 0.2434596641375E+01
 0.2529134725835E+01
 0.2631525445377E+01
 0.2742353073582E+01
 0.2862253157087E+01
 0.2991914457704E+01
 0.3132079945777E+01
 0.3283547440482E+01
 0.3447170270216E+01
 0.3623857667155E+01
 0.3814574293272E+01
 0.4020337888620E+01
 0.4242213686123E+01
 0.4481303554659E+01
 0.4738727319059E+01
 0.5015590349504E+01
 0.5312931792252E+01
 0.5631654158728E+01
 0.5972454884536E+01
 0.2344137764121E+01
 0.2433182752748E+01
 0.2529948931418E+01
 0.2635027813652E+01
 0.2749064233504E+01
 0.2872758819683E+01
 0.3006869554747E+01
 0.3152212114778E+01
 0.3309658938018E+01
 0.3480136758893E+01
 0.3664622165849E+01
 0.3864134543399E+01
 0.4079725708260E+01
 0.4312465525114E+01
 0.4563422837813E+01
 0.4833640695473E+01
 0.5124105313141E+01
 0.5435710172806E+01
 0.5769222124711E+01
 0.6125262608626E+01
 0.2332271410039E+01
 0.2421633302983E+01
 0.2518911289369E+01
 0.2624727496848E+01
 0.2739761621016E+01
 0.2864753143649E+01
 0.3000502680240E+01
 0.3147872035450E+01
 0.3307782451022E+01
 0.3481210459447E+01
 0.3669180643203E+01
 0.3872754605144E+01
 0.4093015638021E+01
 0.4331049027833E+01
 0.4587918541068E+01
 0.4864640530960E+01
 0.5162158134564E+01
 0.5481319368199E+01
 0.5822863869183E+01
 0.6187421410047E+01
 0.2311975983418E+01
 0.2400169851869E+01
 0.2496260868781E+01
 0.2600877145074E+01
 0.2714707054628E+01
 0.2838501735150E+01
 0.2973076907420E+01
 0.3119313489729E+01
 0.3278156351445E+01
 0.3450610400138E+01
 0.3637733078494E+01
 0.3840622339431E+01
 0.4060399435350E+01
 0.4298186532764E+01
 0.4555080377721E+01
 0.4832124827545E+01
 0.5130286624231E+01
 0.5450439246702E+01
 0.5793357862560E+01
 0.6159725086025E+01
 0.2283552713890E+01
 0.2369143286288E+01
 0.2462400496122E+01
 0.2563933427257E+01
 0.2674412287679E+01
 0.2794571610705E+01
 0.2925213188596E+01
 0.3067208230534E+01
 0.3221498100643E+01
 0.3389092774628E+01
 0.3571065913067E+01
 0.3768545256557E+01
 0.3982697045761E+01
 0.4214703695301E+01
 0.4465735252916E+01
 0.4736917450921E+01
 0.5029301769890E+01
 0.5343844728350E+01
 0.5681402196360E+01
 0.6042738126875E+01
 0.2247398653360E+01
 0.2329026936634E+01
 0.2417887412061E+01
 0.2514545121782E+01
 0.2619624728962E+01
 0.2733814699977E+01
 0.2857871764938E+01
 0.2992625386109E+01
 0.3138981748573E+01
 0.3297926553070E+01
 0.3470525538203E+01
 0.3657921146017E+01
 0.3861323189677E+01
 0.4081990983833E+01
 0.4321205100816E+01
 0.4580229093929E+01
 0.4860265900550E+01
 0.5162418737179E+01
 0.5487670561696E+01
 0.5836892225910E+01
 0.2204001128025E+01
 0.2280409319590E+01
 0.2363424562544E+01
 0.2453543238271E+01
 0.2551317042210E+01
 0.2657357901006E+01
 0.2772344046608E+01
 0.2897027078078E+01
 0.3032239835513E+01
 0.3178904832179E+01
 0.3338042560361E+01
 0.3510778285787E+01
 0.3698344737988E+01
 0.3902076452073E+01
 0.4123389433399E+01
 0.4363740987719E+01
 0.4624568658423E+01
 0.4907216903696E+01
 0.5212872346049E+01
 0.5542544507518E+01
 0.2153930219581E+01
 0.2223985503209E+01
 0.2299850680351E+01
 0.2381930654404E+01
 0.2470677410131E+01
 0.2566595562135E+01
 0.2670249752785E+01
 0.2782273725023E+01
 0.2903381738222E+01
 0.3034382666724E+01
 0.3176196983815E+01
 0.3329876266592E+01
 0.3496623583148E+01
 0.3677810333262E+01
 0.3874980666912E+01
 0.4089825940176E+01
 0.4324116720856E+01
 0.4579588810766E+01
 0.4857798433101E+01
 0.5159991436672E+01
 0.2097830901561E+01
 0.2160546258295E+01
 0.2228128400290E+01
 0.2300870103083E+01
 0.2379098378954E+01
 0.2463181269916E+01
 0.2553534781149E+01
 0.2650632707811E+01
 0.2755019972936E+01
 0.2867330641807E+01
 0.2988311971859E+01
 0.3118855997732E+01
 0.3260039716182E+01
 0.3413173188604E+01
 0.3579848875655E+01
 0.3761974691146E+01
 0.3961734477441E+01
 0.4181453615713E+01
 0.4423372968336E+01
 0.4689328516831E+01
 0.2036415498436E+01
 0.2090972040816E+01
 0.2149341700082E+01
 0.2211684076402E+01
 0.2278181192316E+01
 0.2349039049352E+01
 0.2424493116739E+01
 0.2504816688383E+01
 0.2590333394636E+01
 0.2681435430406E+01
 0.2778609919656E+01
 0.2882476898495E+01
 0.2993843794510E+01
 0.3113782451317E+01
 0.3243734896476E+01
 0.3385643168532E+01
 0.3542078496421E+01
 0.3716144783447E+01
 0.3911166170649E+01
 0.4130303417134E+01
 0.1970456684530E+01
 0.2016243607023E+01
 0.2064710207957E+01
 0.2115876656121E+01
 0.2169766330769E+01
 0.2226405247803E+01
 0.2285823812177E+01
 0.2348061413234E+01
 0.2413174548207E+01
 0.2481250129781E+01
 0.2552426669653E+01
 0.2626927813073E+01
 0.2705115665336E+01
 0.2787576569613E+01
 0.2875260005599E+01
 0.2969706128391E+01
 0.3073391879683E+01
 0.3190246798634E+01
 0.3325221351358E+01
 0.3483344824148E+01
 0.1900764763990E+01
 0.1937382302667E+01
 0.1975511679474E+01
 0.2015033290400E+01
 0.2055808748481E+01
 0.2097676914694E+01
 0.2140451082325E+01
 0.2183917472139E+01
 0.2227835507505E+01
 0.2271940810008E+01
 0.2315952760128E+01
 0.2359590035100E+01
 0.2402600628663E+01
 0.2444819072993E+01
 0.2486277388033E+01
 0.2527425097938E+01
 0.2569592175336E+01
 0.2615946984314E+01
 0.2673881460335E+01
 0.2752386710348E+01
 0.1828170730063E+01
 0.1855427180954E+01
 0.1883041258044E+01
 0.1910761930907E+01
 0.1938297069240E+01
 0.1965305486148E+01
 0.1991388692517E+01
 0.2016081956805E+01
 0.2038844346144E+01
 0.2059047502592E+01
 0.2075963037715E+01
 0.2088748802466E+01
 0.2096435274173E+01
 0.2097916038699E+01
 0.2091953631451E+01
 0.2077233672623E+01
 0.2052567995799E+01
 0.2017579014403E+01
 0.1975329500799E+01
 0.1945297363147E+01
 0.1753511211388E+01
 0.1771416331208E+01
 0.1788586390662E+01
 0.1804657374300E+01
 0.1819204264059E+01
 0.1831729596518E+01
 0.1841650145613E+01
 0.1848280759293E+01
 0.1850814179890E+01
 0.1848295192492E+01
 0.1839586628932E+01
 0.1823323411200E+01
 0.1797848569656E+01
 0.1761121207237E+01
 0.1710579201503E+01
 0.1642926700852E+01
 0.1553785104715E+01
 0.1437167011878E+01
 0.1284284849401E+01
 0.1089122658826E+01
 0.1677610935297E+01
 0.1686363934205E+01
 0.1693396349510E+01
 0.1698259278948E+01
 0.1700428662101E+01
 0.1699292155643E+01
 0.1694132794207E+01
 0.1684108333597E+01
 0.1668224658355E+01
 0.1645300722955E+01
 0.1613921032724E+01
 0.1572369204318E+01
 0.1518531704684E+01
 0.1449752350829E+01
 0.1362600444991E+01
 0.1252474115351E+01
 0.1112863493283E+01
 0.9337117977049E+00
 0.6976454201574E+00
 0.3575451754631E+00
 0.1601264257956E+01
 0.1601236516367E+01
 0.1598649819630E+01
 0.1593005587494E+01
 0.1583724973345E+01
 0.1570136620329E+01
 0.1551460685469E+01
 0.1526788620946E+01
 0.1495057403514E+01
 0.1455015956650E+01
 0.1405180140315E+01
 0.1343770524977E+01
 0.1268623441486E+01
 0.1177058809845E+01
 0.1065674489711E+01
 0.9300072041270E+00
 0.7639273164857E+00
 0.5584777075833E+00
 0.2990105713667E+00
-0.4019820517699E-01
 0.1525214851565E+01
 0.1516927326445E+01
 0.1505418599907E+01
 0.1490177939753E+01
 0.1470619956483E+01
 0.1446074973312E+01
 0.1415776358888E+01
 0.1378845261980E+01
 0.1334272397288E+01
 0.1280895787320E+01
 0.1217372751803E+01
 0.1142143812083E+01
 0.1053385528269E+01
 0.9489489545338E+00
 0.8262812659096E+00
 0.6823376124824E+00
 0.5135225764285E+00
 0.3159110325308E+00
 0.8668520012111E-01
-0.1605732343215E+00
 0.1450134620141E+01
 0.1434229824202E+01
 0.1414630249873E+01
 0.1390847922567E+01
 0.1362335446566E+01
 0.1328478937138E+01
 0.1288589365325E+01
 0.1241894120497E+01
 0.1187529328780E+01
 0.1124533083970E+01
 0.1051839942097E+01
 0.9682782233710E+00
 0.8725743282164E+00
 0.7633739925800E+00
 0.6393045141827E+00
 0.4991332282801E+00
 0.3421820413527E+00
 0.1693304445128E+00
-0.1360687307248E-01
-0.1940803028858E+00
 0.1376607704808E+01
 0.1353817446671E+01
 0.1327042505325E+01
 0.1295846825980E+01
 0.1259757846549E+01
 0.1218259181125E+01
 0.1170784481295E+01
 0.1116715193028E+01
 0.1055383415535E+01
 0.9860801189692E+00
 0.9080702052230E+00
 0.8206182278047E+00
 0.7230327033094E+00
 0.6147444734380E+00
 0.4954476401975E+00
 0.3653603153448E+00
 0.2256854289155E+00
 0.7947724760893E-01
-0.6801238225581E-01
-0.2114571000242E+00
 0.1305124431435E+01
 0.1276234825153E+01
 0.1243232370930E+01
 0.1205756896557E+01
 0.1163440221669E+01
 0.1115892945831E+01
 0.1062696593120E+01
 0.1003406688787E+01
 0.9375648515024E+00
 0.8647191504980E+00
 0.7844536084930E+00
 0.6964304746093E+00
 0.6004523258216E+00
 0.4965550965246E+00
 0.3851479863019E+00
 0.2672118821397E+00
 0.1445551896206E+00
 0.1989254273055E-01
-0.1036532905321E+00
-0.2234970151359E+00
 0.1236084405275E+01
 0.1201897117028E+01
 0.1163591360889E+01
 0.1120906523602E+01
 0.1073608681919E+01
 0.1021454070048E+01
 0.9641795840151E+00
 0.9015108984960E+00
 0.8331832484994E+00
 0.7589706113047E+00
 0.6787221795345E+00
 0.5924077551069E+00
 0.5001753423176E+00
 0.4024237905802E+00
 0.2998876482270E+00
 0.1937171473801E+00
 0.8548164468676E-01
-0.2300873296468E-01
-0.1300378032469E+00
-0.2340629144638E+00
 0.1169810489183E+01
 0.1131095367934E+01
 0.1088310297434E+01
 0.1041352496057E+01
 0.9901518926188E+00
 0.9346206787527E+00
 0.8746419658278E+00
 0.8100873266710E+00
 0.7408482116407E+00
 0.6668717632950E+00
 0.5881976312741E+00
 0.5049959592175E+00
 0.4176063874138E+00
 0.3265746788898E+00
 0.2326759530331E+00
 0.1368982909882E+00
 0.4035148596360E-01
-0.5590601627499E-01
-0.1510725233313E+00
-0.2447473430729E+00
 0.1106592300310E+01
 0.1063961999448E+01
 0.1017338147783E+01
 0.9668386292149E+00
 0.9125948937672E+00
 0.8546736124585E+00
 0.7930752134619E+00
 0.7277741635943E+00
 0.6587666644568E+00
 0.5861115973149E+00
 0.5099630359336E+00
 0.4305945409108E+00
 0.3484155331757E+00
 0.2639750064935E+00
 0.1779428287269E+00
 0.9105584552145E-01
 0.4023402682859E-02
-0.8259805806382E-01
-0.1685397324715E+00
-0.2541997949855E+00
 0.1046529188722E+01
 0.1000389315122E+01
 0.9503390677140E+00
 0.8968308429939E+00
 0.8402392130055E+00
 0.7807530397789E+00
 0.7184306828602E+00
 0.6532864686706E+00
 0.5853602903514E+00
 0.5147628545306E+00
 0.4416969709544E+00
 0.3664661860459E+00
 0.2894711681473E+00
 0.2111920637666E+00
 0.1321528675794E+00
 0.5286768573635E-01
-0.2622586437528E-01
-0.1048329507001E+00
-0.1828720550515E+00
-0.2604073052457E+00
 0.9897201190115E+00
 0.9401918917171E+00
 0.8868565640465E+00
 0.8307376920486E+00
 0.7724374615140E+00
 0.7121737802425E+00
 0.6499572584778E+00
 0.5857559210730E+00
 0.5195981598812E+00
 0.4515980293202E+00
 0.3819618070979E+00
 0.3109792355083E+00
 0.2390054179920E+00
 0.1664331282994E+00
 0.9365667213508E-01
 0.2103028629208E-01
-0.5116353718048E-01
-0.1227254159626E+00
-0.1935053569330E+00
-0.2632305635327E+00
 0.9363627776953E+00
 0.8829599568413E+00
 0.8262040934102E+00
 0.7678184320418E+00
 0.7085417686764E+00
 0.6483797937081E+00
 0.5870983120875E+00
 0.5245629814767E+00
 0.4607512075940E+00
 0.3957576090528E+00
 0.3297723437742E+00
 0.2630565039241E+00
 0.1959143760351E+00
 0.1286639198952E+00
 0.6160614026531E-01
-0.5000573380172E-02
-0.7096324327547E-01
-0.1361239698958E+00
-0.2002635578437E+00
-0.2631022814090E+00
 0.8863623785212E+00
 0.8278354286756E+00
 0.7670310379264E+00
 0.7070339676112E+00
 0.6479906630948E+00
 0.5889782652463E+00
 0.5295102963056E+00
 0.4693145570632E+00
 0.4083312039649E+00
 0.3466441390612E+00
 0.2844347210362E+00
 0.2219425815524E+00
 0.1594344289874E+00
 0.9717787419395E-01
 0.3542057042673E-01
-0.2562859428373E-01
-0.8580274615152E-01
-0.1450432381760E+00
-0.2033003920456E+00
-0.2602017343697E+00
 0.8404529516733E+00
 0.7714708581696E+00
 0.7066826051222E+00
 0.6477265907143E+00
 0.5905918527146E+00
 0.5340087492953E+00
 0.4772142136484E+00
 0.4199293711459E+00
 0.3621245101754E+00
 0.3039193854114E+00
 0.2455131969475E+00
 0.1871428346554E+00
 0.1290559293277E+00
 0.7149393682930E-01
 0.1468147951240E-01
-0.4117595506517E-01
-0.9591353849198E-01
-0.1493688747756E+00
-0.2019508297656E+00
-0.2543277436107E+00
 0.7874093829784E+00
 0.7037254241192E+00
 0.6449368919388E+00
 0.5903400278792E+00
 0.5372951244576E+00
 0.4842520814090E+00
 0.4307427899462E+00
 0.3766846172421E+00
 0.3222001873689E+00
 0.2674989944760E+00
 0.2128228766381E+00
 0.1584181035676E+00
 0.1045233318736E+00
 0.5136625926848E-01
-0.8326660593262E-03
-0.5185433396557E-01
-0.1014495073927E+00
-0.1494048962142E+00
-0.1949621102836E+00
-0.2407321058383E+00
</DataArray>
<DataArray type="Float64" Name="S_Oct" NumberOfComponents="1" ComponentName0="S_Oct" format="ascii">
 0.6289152652553E+00
 0.5734393569166E+00
 0.5049068850743E+00
 0.4570406788905E+00
 0.4076329832428E+00
 0.3581148853628E+00
 0.3071747028821E+00
 0.2545978931919E+00
 0.2001014981140E+00
 0.1434613377548E+00
 0.8442640824307E-01
 0.2270552079228E-01
 0.4205739226035E-01
 0.1103066593091E+00
 0.1826053754149E+00
 0.2596940195761E+00
 0.3425816305434E+00
 0.4327587550189E+00
 0.5326863650704E+00
 0.6461481339827E+00
 0.7745369685923E+00
 0.9138426193328E+00
 0.1058120585625E+01
 0.1202824654393E+01
 0.1345404632013E+01
 0.1484620923406E+01
 0.1619688712981E+01
 0.1749638305703E+01
 0.1872762214159E+01
 0.1986044006517E+01
 0.2086794103010E+01
 0.2176657443138E+01
 0.2259738820211E+01
 0.2339129474022E+01
 0.2418302544605E+01
 0.2500711060945E+01
 0.2596277664761E+01
 0.2692122992628E+01
 0.2889770195339E+01
 0.2577012008205E+01
 0.5153220395865E+01
 0.4881561785552E+00
 0.4995874491805E+00
 0.4441374389789E+00
 0.3949581631673E+00
 0.3483150530587E+00
 0.3005655086621E+00
 0.2515250074446E+00
 0.2007151418533E+00
 0.1479177711594E+00
 0.9290882305879E-01
 0.3545557935963E-01
 0.2472169180717E-01
 0.8795568759200E-01
 0.1546759667574E+00
 0.2254225591330E+00
 0.3009008399861E+00
 0.3820621981047E+00
 0.4702398055739E+00
 0.5670837810962E+00
 0.6738625707192E+00
 0.7901815716753E+00
 0.9134932911180E+00
 0.1040246776942E+01
 0.1167262154291E+01
 0.1292249810397E+01
 0.1413619204068E+01
 0.1530050357128E+01
 0.1640069532782E+01
 0.1741822684099E+01
 0.1833435597160E+01
 0.1913665068873E+01
 0.1982050452804E+01
 0.2038575864271E+01
 0.2082845479318E+01
 0.2112660372362E+01
 0.2123693559784E+01
 0.2100945377588E+01
 0.2032466916755E+01
 0.1786094254696E+01
 0.1383675961794E+01
 0.4458893163305E+01
 0.3874346170513E+00
 0.4101355233250E+00
 0.3785908397568E+00
 0.3333219703327E+00
 0.2891565334956E+00
 0.2437428891123E+00
 0.1967003740983E+00
 0.1477872239015E+00
 0.9679103596974E-01
 0.4353021084062E-01
 0.1223849964220E-01
 0.7068781298354E-01
 0.1321920517497E+00
 0.1971281271477E+00
 0.2659901003432E+00
 0.3394101308600E+00
 0.4182027387914E+00
 0.5033335462104E+00
 0.5955382593353E+00
 0.6947541320733E+00
 0.7999204651203E+00
 0.9092219609379E+00
 0.1020466189853E+01
 0.1131440016890E+01
 0.1240174912646E+01
 0.1344968465829E+01
 0.1444222487247E+01
 0.1536252931155E+01
 0.1619346752360E+01
 0.1692137298565E+01
 0.1753488996628E+01
 0.1801757745786E+01
 0.1834704941441E+01
 0.1849226285603E+01
 0.1840181680878E+01
 0.1797748487945E+01
 0.1706864379494E+01
 0.1537650536247E+01
 0.1245894202921E+01
 0.1342796714863E+01
 0.4152769921679E+01
 0.3057494257522E+00
 0.3259218371899E+00
 0.3089224168344E+00
 0.2715647407961E+00
 0.2304840459998E+00
 0.1876248973803E+00
 0.1427607300233E+00
 0.9584415957394E-01
 0.4675677389071E-01
 0.4867142331656E-02
 0.5859292443907E-01
 0.1151897949890E+00
 0.1747690486040E+00
 0.2376722020472E+00
 0.3043261904378E+00
 0.3752554349637E+00
 0.4510675394660E+00
 0.5322876386699E+00
 0.6189452587851E+00
 0.7102924361157E+00
 0.8050457754735E+00
 0.9018198775916E+00
 0.9992040145843E+00
 0.1095643522133E+01
 0.1189485466871E+01
 0.1279061869524E+01
 0.1362692239754E+01
 0.1438680997659E+01
 0.1505479372891E+01
 0.1561869357330E+01
 0.1606531309886E+01
 0.1637174454888E+01
 0.1650456544144E+01
 0.1642047983074E+01
 0.1605735393697E+01
 0.1532611801463E+01
 0.1411821376559E+01
 0.1233827359290E+01
 0.1083502433466E+01
 0.1647130647222E+01
 0.3868699540908E+01
 0.2350461999279E+00
 0.2492369170389E+00
 0.2394688632574E+00
 0.2096181906227E+00
 0.1724643979457E+00
 0.1323071537421E+00
 0.8975445686335E-01
 0.4494280905642E-01
 0.3027797442378E-02
 0.5172443052403E-01
 0.1036475899149E+00
 0.1582351569289E+00
 0.2157041478518E+00
 0.2763382717755E+00
 0.3404799160273E+00
 0.4085181899380E+00
 0.4808184016311E+00
 0.5575001523419E+00
 0.6381130217508E+00
 0.7215764302008E+00
 0.8065745815161E+00
 0.8920010169430E+00
 0.9769101272009E+00
 0.1060193882049E+01
 0.1140484518759E+01
 0.1216236598955E+01
 0.1285823201240E+01
 0.1347644108269E+01
 0.1400289783494E+01
 0.1442570646965E+01
 0.1473017623300E+01
 0.1489106196021E+01
 0.1487246602112E+01
 0.1463095092835E+01
 0.1411523990420E+01
 0.1327572655880E+01
 0.1210576644463E+01
 0.1087503747973E+01
 0.1135213605960E+01
 0.1918260838538E+01
 0.3629595808839E+01
 0.1714952562674E+00
 0.1793073001391E+00
 0.1724010257643E+00
 0.1482975214773E+00
 0.1152225670955E+00
 0.7791851811519E-01
 0.3778415398953E-01
 0.5741610652371E-02
 0.5013952267076E-01
 0.9753460316628E-01
 0.1474004455922E+00
 0.1998425209055E+00
 0.2550294074928E+00
 0.3131765271215E+00
 0.3745290097444E+00
 0.4393251270464E+00
 0.5076894363602E+00
 0.5794140304640E+00
 0.6537481334162E+00
 0.7294735652279E+00
 0.8053259416449E+00
 0.8803950443561E+00
 0.9540249033493E+00
 0.1025417474664E+01
 0.1093456546400E+01
 0.1156769712848E+01
 0.1213868084759E+01
 0.1263302241623E+01
 0.1303795491241E+01
 0.1334193888897E+01
 0.1353017642863E+01
 0.1357861761666E+01
 0.1345520025296E+01
 0.1312619297815E+01
 0.1256515575583E+01
 0.1177926102874E+01
 0.1089937154788E+01
 0.1052881795769E+01
 0.1273797067550E+01
 0.2103230647758E+01
 0.3436846993805E+01
 0.1130165668119E+00
 0.1149903227144E+00
 0.1085153048727E+00
 0.8836201364969E-01
 0.5901728032420E-01
 0.2469287117043E-01
 0.1379457323152E-01
 0.5394895501895E-01
 0.9684726740671E-01
 0.1421565085532E+00
 0.1898665809790E+00
 0.2400411752445E+00
 0.2927907343624E+00
 0.3482556220269E+00
 0.4065767926326E+00
 0.4678399000539E+00
 0.5319545342582E+00
 0.5984698963400E+00
 0.6664642699913E+00
 0.7346909664796E+00
 0.8019736593622E+00
 0.8675511232063E+00
 0.9309593125060E+00
 0.9916252106679E+00
 0.1048655600494E+01
 0.1100877133904E+01
 0.1146987162545E+01
 0.1185719475579E+01
 0.1215947978513E+01
 0.1236617414258E+01
 0.1246398054234E+01
 0.1243288418636E+01
 0.1224920134513E+01
 0.1189543902071E+01
 0.1137744941060E+01
 0.1076766991864E+01
 0.1033233681131E+01
 0.1088413443997E+01
 0.1424916666260E+01
 0.2220343854390E+01
 0.3282893381700E+01
 0.5838185732203E-01
 0.5531452018737E-01
 0.4795318547609E-01
 0.3032444884135E-01
 0.5189155347837E-02
 0.2811061419541E-01
 0.6340615191116E-01
 0.1016546577082E+00
 0.1424397347910E+00
 0.1855960289333E+00
 0.2310696132428E+00
 0.2788704252469E+00
 0.3290466446210E+00
 0.3816603955902E+00
 0.4367477469845E+00
 0.4942513688604E+00
 0.5539031914466E+00
 0.6150852959459E+00
 0.6767945621709E+00
 0.7378173128950E+00
 0.7970806590282E+00
 0.8539451024178E+00
 0.9080845195159E+00
 0.9590995270632E+00
 0.1006297857581E+01
 0.1048716022208E+01
 0.1085263280899E+01
 0.1114879389005E+01
 0.1136620869346E+01
 0.1149610631592E+01
 0.1152814140742E+01
 0.1144844408715E+01
 0.1124464999704E+01
 0.1091904025582E+01
 0.1051279096862E+01
 0.1016269780891E+01
 0.1024002509034E+01
 0.1160385836214E+01
 0.1560124993563E+01
 0.2292302868268E+01
 0.3159192270301E+01
 0.7301177652340E-02
 0.4060955651009E-02
 0.9473471143533E-02
 0.2579979012241E-01
 0.4971476009889E-01
 0.7902724531882E-01
 0.1121620132649E+00
 0.1482652810426E+00
 0.1869072058032E+00
 0.2278684912223E+00
 0.2710409877160E+00
 0.3163787839040E+00
 0.3638667706627E+00
 0.4134892020804E+00
 0.4651821748719E+00
 0.5187625952409E+00
 0.5738248946684E+00
 0.6296463407203E+00
 0.6852031739685E+00
 0.7393495732441E+00
 0.7911219308860E+00
 0.8399869564717E+00
 0.8857273058824E+00
 0.9280868698103E+00
 0.9665578253003E+00
 0.1000388457751E+01
 0.1028712473559E+01
 0.1050693407467E+01
 0.1065606441240E+01
 0.1072827632412E+01
 0.1071732015691E+01
 0.1061688057944E+01
 0.1042751367015E+01
 0.1017263769799E+01
 0.9928283188950E+00
 0.9886067636482E+00
 0.1047306423441E+01
 0.1246222001015E+01
 0.1672781695817E+01
 0.2335710770613E+01
 0.3058759370588E+01
 0.4263372561287E-01
 0.5373050407654E-01
 0.6390983996280E-01
 0.7954399553401E-01
 0.1015844552511E+00
 0.1287603600009E+00
 0.1597623807610E+00
 0.1937522668638E+00
 0.2302540435260E+00
 0.2689964128649E+00
 0.3098195071704E+00
 0.3526230431734E+00
 0.3973302070548E+00
 0.4438509904608E+00
 0.4920308169301E+00
 0.5415820318222E+00
 0.5919997025840E+00
 0.6425052531783E+00
 0.6920951259853E+00
 0.7397110717799E+00
 0.7845004336305E+00
 0.8260275958688E+00
 0.8641689713977E+00
 0.8987941481669E+00
 0.9295673218828E+00
 0.9559455864903E+00
 0.9772920552012E+00
 0.9930079258521E+00
 0.1002619990388E+01
 0.1005818377574E+01
 0.1002468353802E+01
 0.9927747390279E+00
 0.9781453948876E+00
 0.9630127204179E+00
 0.9581024678848E+00
 0.9863700221209E+00
 0.1090787894635E+01
 0.1333284440304E+01
 0.1764189471845E+01
 0.2361405388875E+01
 0.2976380081756E+01
 0.8967316853284E-01
 0.1037684489913E+00
 0.1157238428069E+00
 0.1311818787248E+00
 0.1518328827665E+00
 0.1771515595869E+00
 0.2061634606628E+00
 0.2381076733432E+00
 0.2724929314139E+00
 0.3090090737045E+00
 0.3474507788518E+00
 0.3876672219925E+00
 0.4295237258496E+00
 0.4728623185797E+00
 0.5174499982624E+00
 0.5629170046507E+00
 0.6086928744164E+00
 0.6539806805616E+00
 0.6978243604472E+00
 0.7392642669988E+00
 0.7775585936349E+00
 0.8123649537262E+00
 0.8436463624670E+00
 0.8713880305614E+00
 0.8954165168230E+00
 0.9153921912727E+00
 0.9309079556034E+00
 0.9416125371139E+00
 0.9473104698479E+00
 0.9480501752698E+00
 0.9442375246144E+00
 0.9369478064589E+00
 0.9289274753367E+00
 0.9265407890864E+00
 0.9429756779580E+00
 0.1002866826283E+01
 0.1145256748261E+01
 0.1415503904819E+01
 0.1837880204198E+01
 0.2376232983550E+01
 0.2908251655233E+01
 0.1349597244907E+00
 0.1515505640911E+00
 0.1651617539497E+00
 0.1807651674134E+00
 0.2004202859897E+00
 0.2241628071858E+00
 0.2513489550038E+00
 0.2813352133513E+00
 0.3136442463494E+00
 0.3479422544246E+00
 0.3839865982469E+00
 0.4215814621188E+00
 0.4605399874816E+00
 0.5006445551854E+00
 0.5415976098787E+00
 0.5829691855302E+00
 0.6241520925653E+00
 0.6643592925117E+00
 0.7027003537166E+00
 0.7383201908156E+00
 0.7705869981366E+00
 0.7992494417505E+00
 0.8243541693884E+00
 0.8459961353898E+00
 0.8641563644719E+00
 0.8786916407657E+00
 0.8894220465599E+00
 0.8962496412875E+00
 0.8992749381303E+00
 0.8989333402853E+00
 0.8961972478855E+00
 0.8930106270750E+00
 0.8933827758945E+00
 0.9053203310917E+00
 0.9435777211649E+00
 0.1032394512410E+01
 0.1204495090369E+01
 0.1490513766181E+01
 0.1897537233469E+01
 0.2384497208034E+01
 0.2851584249379E+01
 0.1786889010243E+00
 0.1973454896469E+00
 0.2124706450214E+00
 0.2284109857029E+00
 0.2473726109498E+00
 0.2697923887389E+00
 0.2953208840759E+00
 0.3234492187335E+00
 0.3537358862097E+00
 0.3858379053733E+00
 0.4194842646221E+00
 0.4544408973879E+00
 0.4904758171895E+00
 0.5273213972758E+00
 0.5646299545344E+00
 0.6019316024174E+00
 0.6386062953824E+00
 0.6738979112750E+00
 0.7069935828727E+00
 0.7371457086090E+00
 0.7638312674785E+00
 0.7868889227023E+00
 0.8064480017371E+00
 0.8227094930365E+00
 0.8358020284193E+00
 0.8457712555427E+00
 0.8526597690296E+00
 0.8566250458954E+00
 0.8580745130490E+00
 0.8578464159833E+00
 0.8574863270786E+00
 0.8597744691753E+00
 0.8698464205073E+00
 0.8969422707928E+00
 0.9563851500243E+00
 0.1070389357012E+01
 0.1264609076119E+01
 0.1557846558958E+01
 0.1946349213289E+01
 0.2388920474859E+01
 0.2804290124453E+01
 0.2210354981749E+00
 0.2413928920280E+00
 0.2578728599898E+00
 0.2742534713275E+00
 0.2927479362248E+00
 0.3140639892899E+00
 0.3380972890929E+00
 0.3644742541531E+00
 0.3928030469385E+00
 0.4227437373432E+00
 0.4540058740739E+00
 0.4863245663832E+00
 0.5194306430944E+00
 0.5530167970204E+00
 0.5866994078770E+00
 0.6199868122257E+00
 0.6522655176958E+00
 0.6828258216092E+00
 0.7109401166438E+00
 0.7359693146195E+00
 0.7574977000067E+00
 0.7754532827771E+00
 0.7900478791335E+00
 0.8015857692642E+00
 0.8103369033205E+00
 0.8165279147036E+00
 0.8204178522208E+00
 0.8224186664542E+00
 0.8232496484489E+00
 0.8241575098668E+00
 0.8272511311159E+00
 0.8360841954706E+00
 0.8567214945717E+00
 0.8991444841847E+00
 0.9783090147286E+00
 0.1113398719017E+01
 0.1323326502618E+01
 0.1617926953889E+01
 0.1986894924159E+01
 0.2391245325073E+01
 0.2764765044430E+01
 0.2621456087929E+00
 0.2838942771448E+00
 0.3015661024123E+00
 0.3184312051156E+00
 0.3366239100217E+00
 0.3570206209936E+00
 0.3797102868458E+00
 0.4044445278220E+00
 0.4308878446300E+00
 0.4587127322270E+00
 0.4876176033668E+00
 0.5173143954237E+00
 0.5475051313443E+00
 0.5778533017061E+00
 0.6079527688752E+00
 0.6373059131723E+00
 0.6653213464282E+00
 0.6913470860178E+00
 0.7147455418842E+00
 0.7349859237510E+00
 0.7517580779702E+00
 0.7650786881967E+00
 0.7752419339142E+00
 0.7826529366164E+00
 0.7877169814895E+00
 0.7908337378546E+00
 0.7924718285348E+00
 0.7932945122345E+00
 0.7943331992731E+00
 0.7972399847815E+00
 0.8046609565790E+00
 0.8208286930938E+00
 0.8524880925090E+00
 0.9098461916909E+00
 0.1006747781390E+01
 0.1158927467197E+01
 0.1379426899744E+01
 0.1671539645491E+01
 0.2021205895047E+01
 0.2392609081110E+01
 0.2731740342489E+01
 0.3021426363601E+00
 0.3250198871781E+00
 0.3437257241746E+00
 0.3610808928597E+00
 0.3790898575894E+00
 0.3987197482896E+00
 0.4202039358380E+00
 0.4434029948605E+00
 0.4680387486716E+00
 0.4938025564883E+00
 0.5203889698989E+00
 0.5474942404404E+00
 0.5748000008530E+00
 0.6019507462258E+00
 0.6285301384830E+00
 0.6540481255783E+00
 0.6779477212620E+00
 0.6996427671361E+00
 0.7185883704924E+00
 0.7343609496478E+00
 0.7467538785370E+00
 0.7558715844528E+00
 0.7620901983443E+00
 0.7659131846583E+00
 0.7678753742401E+00
 0.7685416673809E+00
 0.7685830370359E+00
 0.7689093470597E+00
 0.7708604733828E+00
 0.7764823648971E+00
 0.7889149497163E+00
 0.8129443685410E+00
 0.8557143906621E+00
 0.9271825132404E+00
 0.1039590179388E+01
 0.1205237549935E+01
 0.1432335222543E+01
 0.1719554984777E+01
 0.2050870527757E+01
 0.2393786245025E+01
 0.2704185256527E+01
 0.3411325896183E+00
 0.3649153609581E+00
 0.3845075704689E+00
 0.4023341015431E+00
 0.4202414240376E+00
 0.4392292618304E+00
 0.4596320554023E+00
 0.4814002583047E+00
 0.5043098844602E+00
 0.5280749258676E+00
 0.5523921143202E+00
 0.5769490318284E+00
 0.6014150472149E+00
 0.6254252835975E+00
 0.6485642367649E+00
 0.6703607889181E+00
 0.6903019482079E+00
 0.7078730420139E+00
 0.7226230518201E+00
 0.7342338619458E+00
 0.7426000320044E+00
 0.7479124412426E+00
 0.7506283332034E+00
 0.7513468374972E+00
 0.7507267247218E+00
 0.7494906492200E+00
 0.7485047088102E+00
 0.7489195167089E+00
 0.7523759865872E+00
 0.7612933478138E+00
 0.7792441659385E+00
 0.8114179911302E+00
 0.8650717392345E+00
 0.9495280646375E+00
 0.1075175765194E+01
 0.1251156390322E+01
 0.1481852500684E+01
 0.1762786321005E+01
 0.2077123569083E+01
 0.2395359515545E+01
 0.2681247421380E+01
 0.3792080205667E+00
 0.4037069906251E+00
 0.4240507792985E+00
 0.4423157181771E+00
 0.4601769295625E+00
 0.4786242206957E+00
 0.4980561436926E+00
 0.5184933659318E+00
 0.5397602444752E+00
 0.5615949365014E+00
 0.5837011121193E+00
 0.6057640202008E+00
 0.6274483551672E+00
 0.6483886951889E+00
 0.6681800503254E+00
 0.6863796391601E+00
 0.7025258225087E+00
 0.7161791933600E+00
 0.7269826692233E+00
 0.7347213448517E+00
 0.7393883196788E+00
 0.7412592517131E+00
 0.7408712160826E+00
 0.7389161403018E+00
 0.7361713528254E+00
 0.7335102383203E+00
 0.7319869511031E+00
 0.7329858702539E+00
 0.7384373659880E+00
 0.7511036361329E+00
 0.7749121991403E+00
 0.8152918913656E+00
 0.8793503445591E+00
 0.9755034140393E+00
 0.1112231793508E+01
 0.1295917491617E+01
 0.1527990912254E+01
 0.1801914110901E+01
 0.2100885571579E+01
 0.2397851531970E+01
 0.2662229390149E+01
 0.4164508858703E+00
 0.4415057649424E+00
 0.4624802998851E+00
 0.4811433895246E+00
 0.4989949321969E+00
 0.5169842799602E+00
 0.5355434928074E+00
 0.5547445927827E+00
 0.5744528552448E+00
 0.5944303857439E+00
 0.6143913256576E+00
 0.6340241233725E+00
 0.6529956808788E+00
 0.6709479313947E+00
 0.6874947281417E+00
 0.7022292737247E+00
 0.7147467986777E+00
 0.7246854770676E+00
 0.7317813777125E+00
 0.7359201361332E+00
 0.7371904657053E+00
 0.7359507811968E+00
 0.7328163202227E+00
 0.7285688019229E+00
 0.7240990029088E+00
 0.7204245084006E+00
 0.7187805766156E+00
 0.7207769646827E+00
 0.7286171949487E+00
 0.7453663448486E+00
 0.7752165676469E+00
 0.8236713716380E+00
 0.8974710082126E+00
 0.1003965028896E+01
 0.1149803410356E+01
 0.1339038310602E+01
 0.1570874869224E+01
 0.1837486710947E+01
 0.2122688210003E+01
 0.2401828401779E+01
 0.2646605014102E+01
 0.4529345685930E+00
 0.4784106227789E+00
 0.4999089719531E+00
 0.5189275390364E+00
 0.5367926335226E+00
 0.5543917024817E+00
 0.5721655469317E+00
 0.5902202744037E+00
 0.6084539421910E+00
 0.6266511041958E+00
 0.6445388052841E+00
 0.6618133708281E+00
 0.6781499826213E+00
 0.6932048378749E+00
 0.7066176605980E+00
 0.7180237374727E+00
 0.7270791674335E+00
 0.7335008689314E+00
 0.7371166216732E+00
 0.7379095974144E+00
 0.7360609547174E+00
 0.7320095574500E+00
 0.7264468331675E+00
 0.7202412156400E+00
 0.7143921160609E+00
 0.7100552285276E+00
 0.7086398665786E+00
 0.7119709397721E+00
 0.7225037041042E+00
 0.7435573395644E+00
 0.7794915851264E+00
 0.8357325124512E+00
 0.9184900895977E+00
 0.1033983696291E+01
 0.1187187224399E+01
 0.1380233669929E+01
 0.1610676427650E+01
 0.1869972370422E+01
 0.2142705430218E+01
 0.2407477705147E+01
 0.2634319430420E+01
 0.4887212473594E+00
 0.5144962385614E+00
 0.5364162573249E+00
 0.5557399023154E+00
 0.5736243814946E+00
 0.5908811123032E+00
 0.6079401788877E+00
 0.6249267536461E+00
 0.6417636697842E+00
 0.6582557668029E+00
 0.6741446759347E+00
 0.6891386038638E+00
 0.7029263803376E+00
 0.7151844780733E+00
 0.7255843354194E+00
 0.7338080136280E+00
 0.7395750519629E+00
 0.7426810622451E+00
 0.7430431577383E+00
 0.7407382479767E+00
 0.7360360355999E+00
 0.7294526984961E+00
 0.7217529732059E+00
 0.7138881174465E+00
 0.7069606618280E+00
 0.7022573877599E+00
 0.7013526781140E+00
 0.7062722800527E+00
 0.7196947093247E+00
 0.7451362601747E+00
 0.7870265769992E+00
 0.8505863303453E+00
 0.9413937355435E+00
 0.1064554752952E+01
 0.1223569624048E+01
 0.1419028511916E+01
 0.1647295716021E+01
 0.1899470503606E+01
 0.2161118306767E+01
 0.2413056496304E+01
 0.2631165599484E+01
 0.5238766113397E+00
 0.5498450379877E+00
 0.5720986262618E+00
 0.5916799763591E+00
 0.6095845092194E+00
 0.6265382760398E+00
 0.6429455074141E+00
 0.6589374873555E+00
 0.6744541393120E+00
 0.6893178894970E+00
 0.7032858527463E+00
 0.7160812951258E+00
 0.7274111778574E+00
 0.7369772411241E+00
 0.7444873147445E+00
 0.7496737117699E+00
 0.7523209210344E+00
 0.7523024665780E+00
 0.7496220377113E+00
 0.7444463099702E+00
 0.7371294959788E+00
 0.7282618484324E+00
 0.7186784826323E+00
 0.7094097217783E+00
 0.7016560325110E+00
 0.6968284851945E+00
 0.6966569789912E+00
 0.7033516102628E+00
 0.7197819255535E+00
 0.7496021559166E+00
 0.7972222866249E+00
 0.8675593128935E+00
 0.9655090961302E+00
 0.1095127608394E+01
 0.1258647665038E+01
 0.1455436309581E+01
 0.1681013442084E+01
 0.1926387427047E+01
 0.2178050119608E+01
 0.2418831765250E+01
 0.2630102318188E+01
 0.5584581874603E+00
 0.5845434074063E+00
 0.6070645813974E+00
 0.6268705419551E+00
 0.6448026190034E+00
 0.6614955991915E+00
 0.6773159744844E+00
 0.6923899608599E+00
 0.7066672362727E+00
 0.7199846409462E+00
 0.7321148589777E+00
 0.7427984690423E+00
 0.7517640548671E+00
 0.7587425521602E+00
 0.7634817628500E+00
 0.7657667264223E+00
 0.7654476615453E+00
 0.7624749012671E+00
 0.7569360376004E+00
 0.7490839106769E+00
 0.7393537263901E+00
 0.7284071167420E+00
 0.7171472292341E+00
 0.7066805031498E+00
 0.6983012559446E+00
 0.6935391850465E+00
 0.6942707949833E+00
 0.7028737355805E+00
 0.7223757693825E+00
 0.7565125960242E+00
 0.8095979547399E+00
 0.8861751850930E+00
 0.9904428148084E+00
 0.1125489170495E+01
 0.1292465510260E+01
 0.1489769292170E+01
 0.1712333700707E+01
 0.1951232890608E+01
 0.2193869594393E+01
 0.2424925539578E+01
 0.2628938026837E+01
 0.5925188408995E+00
 0.6186590349417E+00
 0.6413938341440E+00
 0.6613968405834E+00
 0.6793632874641E+00
 0.6958335044276E+00
 0.7111272442480E+00
 0.7253563377203E+00
 0.7384735810673E+00
 0.7503269762727E+00
 0.7607043919556E+00
 0.7693653265052E+00
 0.7760627259837E+00
 0.7805598096845E+00
 0.7826470405229E+00
 0.7821638058705E+00
 0.7790261392516E+00
 0.7732596230475E+00
 0.7650328455751E+00
 0.7546811142107E+00
 0.7427170926630E+00
 0.7298710749993E+00
 0.7171118632120E+00
 0.7056190853565E+00
 0.6967768336408E+00
 0.6922274551377E+00
 0.6939840510258E+00
 0.7045730479144E+00
 0.7271461465563E+00
 0.7654673017333E+00
 0.8236914342642E+00
 0.9059448285590E+00
 0.1015742894475E+01
 0.1155302094538E+01
 0.1324862098817E+01
 0.1522060760877E+01
 0.1741438320501E+01
 0.1974246799587E+01
 0.2208766775746E+01
 0.2431353290932E+01
 0.2628800330479E+01
 0.6261079869646E+00
 0.6522548731106E+00
 0.6751605605004E+00
 0.6953391690483E+00
 0.7133476526574E+00
 0.7296305974415E+00
 0.7444543405101E+00
 0.7579086766112E+00
 0.7699436458393E+00
 0.7804152254962E+00
 0.7891257433550E+00
 0.7958546702893E+00
 0.8003813754483E+00
 0.8025036887517E+00
 0.8020566327846E+00
 0.7989348300596E+00
 0.7931196321453E+00
 0.7847099384941E+00
 0.7739522446049E+00
 0.7612605690572E+00
 0.7472215074484E+00
 0.7326313067817E+00
 0.7185220256909E+00
 0.7061435318433E+00
 0.6969655055342E+00
 0.6927364993880E+00
 0.6955951131035E+00
 0.7081963749867E+00
 0.7337818317913E+00
 0.7760962385263E+00
 0.8390883657849E+00
 0.9264470434790E+00
 0.1041038905385E+01
 0.1184308059032E+01
 0.1355733645316E+01
 0.1552365072436E+01
 0.1768497389522E+01
 0.1995633940933E+01
 0.2222900253691E+01
 0.2438116849359E+01
 0.2629722270067E+01
 0.6592721058455E+00
 0.6853897353445E+00
 0.7084341224413E+00
 0.7287733270387E+00
 0.7468334619542E+00
 0.7629633886409E+00
 0.7773711930431E+00
 0.7901184402910E+00
 0.8011473081587E+00
 0.8103187300978E+00
 0.8174485381833E+00
 0.8223367665135E+00
 0.8247906688121E+00
 0.8246443354133E+00
 0.8217785540519E+00
 0.8161434397878E+00
 0.8077846774960E+00
 0.7968722461071E+00
 0.7837273173569E+00
 0.7688388345745E+00
 0.7528638303766E+00
 0.7366618183019E+00
 0.7213256900242E+00
 0.7081725291677E+00
 0.6987532036184E+00
 0.6949154796509E+00
 0.6989114210908E+00
 0.7135038285744E+00
 0.7419917498101E+00
 0.7880607630425E+00
 0.8554211449711E+00
 0.9473224860428E+00
 0.1066029567820E+01
 0.1212311278021E+01
 0.1385017627025E+01
 0.1580748180852E+01
 0.1793663775704E+01
 0.2015565330331E+01
 0.2236373276959E+01
 0.2445147196481E+01
 0.2631596183576E+01
 0.6920551294897E+00
 0.7181188335932E+00
 0.7412796505429E+00
 0.7617710291718E+00
 0.7798951766947E+00
 0.7959061220251E+00
 0.8099503003997E+00
 0.8220561044616E+00
 0.8321534835816E+00
 0.8401055428984E+00
 0.8457405280000E+00
 0.8488792539282E+00
 0.8493578037991E+00
 0.8470475854774E+00
 0.8418757551015E+00
 0.8338476391461E+00
 0.8230718611978E+00
 0.8097869909768E+00
 0.7943855359246E+00
 0.7774275681293E+00
 0.7596371062383E+00
 0.7419342693008E+00
 0.7254703159096E+00
 0.7116263955552E+00
 0.7020298756107E+00
 0.6986201920242E+00
 0.7037501732541E+00
 0.7202697126749E+00
 0.7515060680040E+00
 0.8010540428172E+00
 0.8723667820369E+00
 0.9682670380529E+00
 0.1090471475747E+01
 0.1239164920624E+01
 0.1412680885547E+01
 0.1607280283786E+01
 0.1817071613546E+01
 0.2034176613674E+01
 0.2249241606579E+01
 0.2452363664596E+01
 0.2634282818402E+01
 0.7244987485453E+00
 0.7504942286844E+00
 0.7737585362457E+00
 0.7944002763616E+00
 0.8126041113911E+00
 0.8285306846687E+00
 0.8422624868384E+00
 0.8537908522906E+00
 0.8630298281844E+00
 0.8698421840993E+00
 0.8740674303083E+00
 0.8755470910072E+00
 0.8741465886927E+00
 0.8697751957717E+00
 0.8624065219217E+00
 0.8521003650570E+00
 0.8390265480762E+00
 0.8234895352904E+00
 0.8059497444289E+00
 0.7870345847295E+00
 0.7675316584685E+00
 0.7484190483026E+00
 0.7309038490169E+00
 0.7164279562168E+00
 0.7066902237277E+00
 0.7037137279348E+00
 0.7099390444140E+00
 0.7282833969316E+00
 0.7620769713991E+00
 0.8148007578955E+00
 0.8896439690305E+00
 0.9890251183628E+00
 0.1114169145859E+01
 0.1264760159665E+01
 0.1438710611361E+01
 0.1632031002771E+01
 0.1838835916169E+01
 0.2051571758124E+01
 0.2261533578678E+01
 0.2459689157057E+01
 0.2637640150078E+01
 0.7566426636045E+00
 0.7825652033555E+00
 0.8059288483414E+00
 0.8267256865625E+00
 0.8450285856415E+00
 0.8609065680372E+00
 0.8743767248597E+00
 0.8853903298063E+00
 0.8938424892174E+00
 0.8995934322779E+00
 0.9024927918416E+00
 0.9024025169410E+00
 0.8992175233361E+00
 0.8928850635086E+00
 0.8834248444863E+00
 0.8709500061121E+00
 0.8556895405136E+00
 0.8380109375580E+00
 0.8184390329808E+00
 0.7976647934553E+00
 0.7765360489360E+00
 0.7560862108718E+00
 0.7375755925632E+00
 0.7225033172090E+00
 0.7126343870438E+00
 0.7100671268844E+00
 0.7173168994650E+00
 0.7373500692337E+00
 0.7734790529927E+00
 0.8290561723508E+00
 0.9070096588721E+00
 0.1009383258001E+01
 0.1136966419831E+01
 0.1289017379596E+01
 0.1463107614220E+01
 0.1655066321107E+01
 0.1859053590667E+01
 0.2067830096101E+01
 0.2273262600028E+01
 0.2467053188003E+01
 0.2641533751235E+01
 0.7885247949631E+00
 0.8143785752456E+00
 0.8378456908421E+00
 0.8588087949267E+00
 0.8772340871506E+00
 0.8931008745226E+00
 0.9063600185259E+00
 0.9169204618113E+00
 0.9246559076799E+00
 0.9294221564659E+00
 0.9310778824410E+00
 0.9295050328126E+00
 0.9246278885053E+00
 0.9164314395576E+00
 0.9049807621637E+00
 0.8904408790160E+00
 0.8730976755363E+00
 0.8533786524243E+00
 0.8318695164810E+00
 0.8093210259642E+00
 0.7866379217205E+00
 0.7649063014624E+00
 0.7454369737331E+00
 0.7297825596876E+00
 0.7197685799056E+00
 0.7175600105511E+00
 0.7257344595934E+00
 0.7472913117543E+00
 0.7855093240351E+00
 0.8436047323258E+00
 0.9242554485947E+00
 0.1029164179889E+01
 0.1158739189386E+01
 0.1311879214362E+01
 0.1485881400220E+01
 0.1676446865780E+01
 0.1877805607607E+01
 0.2083012756890E+01
 0.2284433922986E+01
 0.2474392381764E+01
 0.2645841177217E+01
 0.8201814613853E+00
 0.8459789628450E+00
 0.8695615133637E+00
 0.8907083271073E+00
 0.9092834397914E+00
 0.9251783568102E+00
 0.9382773340000E+00
 0.9484453163518E+00
 0.9555326628593E+00
 0.9593891805051E+00
 0.9598816109105E+00
 0.9569113941080E+00
 0.9504318348255E+00
 0.9404651275893E+00
 0.9271206794893E+00
 0.9106136589483E+00
 0.8912843597238E+00
 0.8696171536679E+00
 0.8462550242398E+00
 0.8220047667111E+00
 0.7978247444436E+00
 0.7748510760911E+00
 0.7544422241149E+00
 0.7382003711953E+00
 0.7280056924527E+00
 0.7260811844136E+00
 0.7350548874685E+00
 0.7579454749300E+00
 0.7979868882403E+00
 0.8582583482042E+00
 0.9412039794624E+00
 0.1048221491987E+01
 0.1179389322185E+01
 0.1333305078800E+01
 0.1507046621120E+01
 0.1696227169852E+01
 0.1895159473010E+01
 0.2097167560112E+01
 0.2295048437188E+01
 0.2481650628520E+01
 0.2650454059627E+01
 0.8516475356141E+00
 0.8774090162458E+00
 0.9011263856613E+00
 0.9224804525872E+00
 0.9412369770274E+00
 0.9572014858545E+00
 0.9701915721247E+00
 0.9800270139999E+00
 0.9865333571208E+00
 0.9895531795158E+00
 0.9889604635095E+00
 0.9846756156317E+00
 0.9766804727658E+00
 0.9650336715256E+00
 0.9498876562047E+00
 0.9315057696672E+00
 0.9102800498973E+00
 0.8867484905229E+00
 0.8616077127861E+00
 0.8357167995944E+00
 0.8100844641764E+00
 0.7858941444840E+00
 0.7645489923424E+00
 0.7476966275009E+00
 0.7372658561208E+00
 0.7355291952826E+00
 0.7451542733850E+00
 0.7691678559823E+00
 0.8107523559278E+00
 0.8728545161818E+00
 0.9577055162886E+00
 0.1066435044110E+01
 0.1198839660142E+01
 0.1353266917506E+01
 0.1526620572622E+01
 0.1714455555096E+01
 0.1911171525374E+01
 0.2110332568605E+01
 0.2305104991809E+01
 0.2488779327664E+01
 0.2655279018323E+01
 0.8829565823058E+00
 0.9087096203410E+00
 0.9325882429116E+00
 0.9541790198223E+00
 0.9731527160495E+00
 0.9892305375816E+00
 0.1002163570527E+01
 0.1011725668896E+01
 0.1017716528262E+01
 0.1019970596203E+01
 0.1018368453017E+01
 0.1012848976934E+01
 0.1003421952299E+01
 0.9901815209216E+00
 0.9733216628663E+00
 0.9531517268503E+00
 0.9301126755890E+00
 0.9047927759870E+00
 0.8779386032764E+00
 0.8504577751725E+00
 0.8234060844517E+00
 0.7980115394862E+00
 0.7757188955663E+00
 0.7582169265488E+00
 0.7474769664612E+00
 0.7458128277699E+00
 0.7559220077147E+00
 0.7808306967681E+00
 0.8236670685574E+00
 0.8872543922353E+00
 0.9736347913674E+00
 0.1083706923948E+01
 0.1217029926049E+01
 0.1371745907207E+01
 0.1544621443042E+01
 0.1731174326921E+01
 0.1925888869876E+01
 0.2122538648562E+01
 0.2314601957826E+01
 0.2495737666462E+01
 0.2660237992321E+01
 0.9141409834355E+00
 0.9399200776044E+00
 0.9639931088487E+00
 0.9858557771579E+00
 0.1005086531934E+01
 0.1021323693577E+01
 0.1034252128270E+01
 0.1043599354017E+01
 0.1049138582225E+01
 0.1050695570330E+01
 0.1048157072151E+01
 0.1041480022475E+01
 0.1030701527066E+01
 0.1015950170083E+01
 0.9974597991738E+00
 0.9755834334652E+00
 0.9508080038740E+00
 0.9237686095297E+00
 0.8952580477292E+00
 0.8662287043561E+00
 0.8377801704878E+00
 0.8111822208935E+00
 0.7879180148855E+00
 0.7697130748626E+00
 0.7585751571294E+00
 0.7568515304282E+00
 0.7672610406176E+00
 0.7928230337532E+00
 0.8366122101116E+00
 0.9013409145055E+00
 0.9888881693582E+00
 0.1099958055516E+01
 0.1233913400341E+01
 0.1388729909223E+01
 0.1561067091718E+01
 0.1746420096969E+01
 0.1939350933422E+01
 0.2133811332632E+01
 0.2323538345694E+01
 0.2502492868597E+01
 0.2665268224725E+01
 0.9452320551890E+00
 0.9710782771451E+00
 0.9953853042150E+00
 0.1017560585323E+01
 0.1037092334534E+01
 0.1053537155590E+01
 0.1066514051255E+01
 0.1075704088563E+01
 0.1080853744572E+01
 0.1081779880571E+01
 0.1078375251385E+01
 0.1070614557378E+01
 0.1058561604783E+01
 0.1042378273711E+01
 0.1022336479034E+01
 0.9988304325047E+00
 0.9723899532152E+00
 0.9436934420854E+00
 0.9135761330761E+00
 0.8830313884120E+00
 0.8531992927479E+00
 0.8253885230453E+00
 0.8011173416640E+00
 0.7821435293152E+00
 0.7705052241948E+00
 0.7685757722913E+00
 0.7790880439971E+00
 0.8050504443924E+00
 0.8494878801052E+00
 0.9150170517473E+00
 0.1003381167349E+01
 0.1115125358352E+01
 0.1249454253257E+01
 0.1404211515639E+01
 0.1575974201299E+01
 0.1760224135603E+01
 0.1951590687080E+01
 0.2144172190785E+01
 0.2331914625927E+01
 0.2509020366546E+01
 0.2670322032404E+01
 0.9762601595373E+00
 0.1002220854232E+01
 0.1026807644577E+01
 0.1049341623377E+01
 0.1069222246477E+01
 0.1085925268659E+01
 0.1099004210494E+01
 0.1108093838049E+01
 0.1112914020678E+01
 0.1113272888585E+01
 0.1109069311181E+01
 0.1100295629188E+01
 0.1087041774953E+01
 0.1069501731037E+01
 0.1047983575491E+01
 0.1022920111553E+01
 0.9948808521913E+00
 0.9645838805792E+00
 0.9329030215342E+00
 0.9008687847550E+00
 0.8696584086940E+00
 0.8406165454369E+00
 0.8152931721365E+00
 0.7954737890068E+00
 0.7832209941744E+00
 0.7809273275327E+00
 0.7913334879000E+00
 0.8174347250068E+00
 0.8622121802235E+00
 0.9282042199820E+00
 0.1017046328165E+01
 0.1129159403401E+01
 0.1263625414854E+01
 0.1418186546281E+01
 0.1589357673906E+01
 0.1772612686172E+01
 0.1962635574923E+01
 0.2153639827025E+01
 0.2339733312962E+01
 0.2515303872549E+01
 0.2675366430598E+01
 0.1007254813865E+01
 0.1033383345714E+01
 0.1058301634036E+01
 0.1081245594062E+01
 0.1101526786410E+01
 0.1118540654956E+01
 0.1131775613875E+01
 0.1140820527131E+01
 0.1145369164834E+01
 0.1145221486179E+01
 0.1140282910417E+01
 0.1130563498424E+01
 0.1116178817749E+01
 0.1097353743487E+01
 0.1074430531714E+01
 0.1047877866496E+01
 0.1018301651409E+01
 0.9864559411022E+00
 0.9532492369875E+00
 0.9197453184392E+00
 0.8871551923510E+00
 0.8568564949711E+00
 0.8304274572914E+00
 0.8096767427815E+00
 0.7966856421807E+00
 0.7938595011902E+00
 0.8039416587478E+00
 0.8299135458225E+00
 0.8747203695133E+00
 0.9408409086507E+00
 0.1029831450735E+01
 0.1142022522893E+01
 0.1276406903934E+01
 0.1430652904937E+01
 0.1601230198272E+01
 0.1783607221248E+01
 0.1972508201048E+01
 0.2162230588593E+01
 0.2346999356090E+01
 0.2521335343639E+01
 0.2680382691730E+01
 0.1038244800969E+01
 0.1064600345002E+01
 0.1089907658865E+01
 0.1113317931633E+01
 0.1134055058445E+01
 0.1151434356759E+01
 0.1164879487698E+01
 0.1173934060075E+01
 0.1178266652612E+01
 0.1177670039940E+01
 0.1172056985821E+01
 0.1161455593445E+01
 0.1146006690455E+01
 0.1125964843176E+01
 0.1101704436358E+01
 0.1073727223642E+01
 0.1042672088750E+01
 0.1009325251585E+01
 0.9746258986945E+00
 0.9396671407940E+00
 0.9056903127898E+00
 0.8741029801063E+00
 0.8465081071550E+00
 0.8247329709847E+00
 0.8108719607245E+00
 0.8073373031444E+00
 0.8168706382895E+00
 0.8424401138579E+00
 0.8869641204228E+00
 0.9528815317284E+00
 0.1041698160268E+01
 0.1153687320998E+01
 0.1287784537393E+01
 0.1441609711276E+01
 0.1611601924246E+01
 0.1793224620491E+01
 0.1981226802767E+01
 0.2169959033991E+01
 0.2353720355285E+01
 0.2527114849245E+01
 0.2685365824557E+01
 0.1069258282080E+01
 0.1095905659653E+01
 0.1121665184197E+01
 0.1145603014059E+01
 0.1166854947304E+01
 0.1184655985239E+01
 0.1198365362041E+01
 0.1207482341042E+01
 0.1211651647586E+01
 0.1210660324052E+01
 0.1204429673249E+01
 0.1193006440881E+01
 0.1176556483333E+01
 0.1155362884901E+01
 0.1129830056777E+01
 0.1100489914579E+01
 0.1068010803000E+01
 0.1033207199635E+01
 0.9970448983942E+00
 0.9606423314163E+00
 0.9252676575694E+00
 0.8923552525228E+00
 0.8635292447982E+00
 0.8406309974822E+00
 0.8257625783178E+00
 0.8213375762866E+00
 0.8300922588320E+00
 0.8549828668004E+00
 0.8989108968183E+00
 0.9642955090430E+00
 0.1052620797614E+01
 0.1164135538626E+01
 0.1297748957010E+01
 0.1451056645128E+01
 0.1620480199616E+01
 0.1801477257850E+01
 0.1988805529673E+01
 0.2176838188359E+01
 0.2359906616791E+01
 0.2532650339598E+01
 0.2690324018115E+01
 0.1100322915402E+01
 0.1127332475900E+01
 0.1153612959219E+01
 0.1178144385055E+01
 0.1199973323565E+01
 0.1218253877758E+01
 0.1232281161142E+01
 0.1241511294430E+01
 0.1245566962445E+01
 0.1244231441787E+01
 0.1237436212150E+01
 0.1225247574022E+01
 0.1207856348389E+01
 0.1185573006071E+01
 0.1158829835384E+01
 0.1128185909695E+01
 0.1094335402235E+01
 0.1058117032041E+01
 0.1020519027160E+01
 0.9826810494324E+00
 0.9458945063916E+00
 0.9116174008801E+00
 0.8814914143965E+00
 0.8573674972945E+00
 0.8413501365480E+00
 0.8358490936309E+00
 0.8435920568700E+00
 0.8675252244643E+00
 0.9105434771260E+00
 0.9750665879181E+00
 0.1062585619211E+01
 0.1173357246401E+01
 0.1306294937999E+01
 0.1458993469581E+01
 0.1627869350440E+01
 0.1808373002203E+01
 0.1995254552088E+01
 0.2182879613658E+01
 0.2365571064520E+01
 0.2537957330654E+01
 0.2695278059669E+01
 0.1131465982654E+01
 0.1158913533568E+01
 0.1185789234837E+01
 0.1210984989328E+01
 0.1233456260582E+01
 0.1252275262917E+01
 0.1266673295743E+01
 0.1276064880587E+01
 0.1280053009039E+01
 0.1278419730137E+01
 0.1271108828124E+01
 0.1258207414791E+01
 0.1239931397481E+01
 0.1216617551830E+01
 0.1188723847117E+01
 0.1156833408907E+01
 0.1121662485867E+01
 0.1084069905030E+01
 0.1045062051042E+01
 0.1005795632789E+01
 0.9675816533269E+00
 0.9318984947440E+00
 0.9004017417168E+00
 0.8749474597453E+00
 0.8576374288543E+00
 0.8508726325586E+00
 0.8573692381411E+00
 0.8800654123069E+00
 0.9218596322886E+00
 0.9851924039237E+00
 0.1071590292811E+01
 0.1181350339336E+01
 0.1313420947152E+01
 0.1465419703342E+01
 0.1633770486484E+01
 0.1813915128914E+01
 0.2000580009193E+01
 0.2188093306659E+01
 0.2370729016247E+01
 0.2543058512720E+01
 0.2700260737673E+01
 0.1162714526270E+01
 0.1190681315287E+01
 0.1218231998527E+01
 0.1244167425355E+01
 0.1267349265874E+01
 0.1286766433842E+01
 0.1301586755713E+01
 0.1311185103703E+01
 0.1315147733539E+01
 0.1313258643962E+01
 0.1305476590640E+01
 0.1291911127272E+01
 0.1272803568639E+01
 0.1248515965051E+01
 0.1219529718359E+01
 0.1186448790412E+01
 0.1150007621438E+01
 0.1111080886389E+01
 0.1070688736340E+01
 0.1030000645997E+01
 0.9903434775573E+00
 0.9532126783883E+00
 0.9202740471729E+00
 0.8933843088790E+00
 0.8746375057935E+00
 0.8664210348489E+00
 0.8714366656926E+00
 0.8926163683255E+00
 0.9328719653152E+00
 0.9946842798697E+00
 0.1079643679960E+01
 0.1188120318047E+01
 0.1319128932943E+01
 0.1470334427192E+01
 0.1638181323867E+01
 0.1818102143951E+01
 0.2004783805525E+01
 0.2192487434583E+01
 0.2375397832332E+01
 0.2547983290817E+01
 0.2705316241645E+01
 0.1194095500119E+01
 0.1222668254235E+01
 0.1250979231414E+01
 0.1277734220351E+01
 0.1301697529831E+01
 0.1321772930111E+01
 0.1337065200980E+01
 0.1346912008352E+01
 0.1350886532602E+01
 0.1348778615798E+01
 0.1340565242844E+01
 0.1326380440681E+01
 0.1306491459444E+01
 0.1281284640833E+01
 0.1251262507541E+01
 0.1217046518069E+01
 0.1179385276938E+01
 0.1139164910098E+01
 0.1097414824878E+01
 0.1055312876170E+01
 0.1014197961985E+01
 0.9755792136128E+00
 0.9411289110788E+00
 0.9126999823219E+00
 0.8923737505399E+00
 0.8825192589863E+00
 0.8858208787620E+00
 0.9052057396330E+00
 0.9436079146981E+00
 0.1003567260733E+01
 0.1086765899612E+01
 0.1193680349210E+01
 0.1323424340310E+01
 0.1473736219007E+01
 0.1641096022919E+01
 0.1820927522774E+01
 0.2007863260732E+01
 0.2196067913463E+01
 0.2379596441476E+01
 0.2552767263613E+01
 0.2710499568931E+01
 0.1225635936908E+01
 0.1254906964966E+01
 0.1284069192983E+01
 0.1311728132176E+01
 0.1336546194387E+01
 0.1357339728014E+01
 0.1373151047805E+01
 0.1383283659951E+01
 0.1387302145252E+01
 0.1385006886396E+01
 0.1376396999362E+01
 0.1361633438695E+01
 0.1341010125245E+01
 0.1314936743968E+01
 0.1283934546335E+01
 0.1248639006597E+01
 0.1209808707836E+01
 0.1168336682539E+01
 0.1125256957886E+01
 0.1081751275456E+01
 0.1039166657252E+01
 0.9990224689051E+00
 0.9629936888904E+00
 0.9329249677691E+00
 0.9108799259061E+00
 0.8992044278924E+00
 0.9005621457822E+00
 0.9178759698478E+00
 0.9541099197065E+00
 0.1011880381016E+01
 0.1092988670593E+01
 0.1198051605774E+01
 0.1326316352882E+01
 0.1475623221100E+01
 0.1642505044999E+01
 0.1822379367100E+01
 0.2009810614627E+01
 0.2198837830107E+01
 0.2383344744840E+01
 0.2557451645528E+01
 0.2715875948652E+01
 0.1257363135962E+01
 0.1287430502729E+01
 0.1317540739819E+01
 0.1346192483915E+01
 0.1371940644953E+01
 0.1393511439223E+01
 0.1409885547565E+01
 0.1420336104666E+01
 0.1424424515651E+01
 0.1421967301829E+01
 0.1412990309125E+01
 0.1397684313344E+01
 0.1376370841403E+01
 0.1349481989250E+01
 0.1317555241773E+01
 0.1281236445101E+01
 0.1241289799373E+01
 0.1198610540526E+01
 0.1154232548294E+01
 0.1109336848972E+01
 0.1065274589674E+01
 0.1023571853117E+01
 0.9859024748738E+00
 0.9540982965767E+00
 0.9302001938958E+00
 0.9165258741026E+00
 0.9157145527499E+00
 0.9306844758234E+00
 0.9644357436576E+00
 0.1019677161751E+01
 0.1098355935616E+01
 0.1201263896544E+01
 0.1327818376819E+01
 0.1475993354246E+01
 0.1642395039044E+01
 0.1822439985012E+01
 0.2010612388121E+01
 0.2200796705688E+01
 0.2386662897448E+01
 0.2562082635601E+01
 0.2721520293932E+01
 0.1289304875619E+01
 0.1320272657571E+01
 0.1351433685848E+01
 0.1381171537643E+01
 0.1407926829143E+01
 0.1430332517570E+01
 0.1447308854610E+01
 0.1458103303634E+01
 0.1462280621607E+01
 0.1459680073067E+01
 0.1450359580559E+01
 0.1434543082189E+01
 0.1412580829338E+01
 0.1384926385072E+01
 0.1352130840051E+01
 0.1314846579828E+01
 0.1273838864915E+01
 0.1230000261731E+01
 0.1184359601485E+01
 0.1138092487626E+01
 0.1092550111712E+01
 0.1049261691725E+01
 0.1009896012236E+01
 0.9762674931019E+00
 0.9503891073535E+00
 0.9345451822355E+00
 0.9313461252872E+00
 0.9437039088751E+00
 0.9746589483237E+00
 0.1027026333531E+01
 0.1102924772623E+01
 0.1203356602296E+01
 0.1327948790679E+01
 0.1474844702532E+01
 0.1640748774941E+01
 0.1821085401328E+01
 0.2010248598240E+01
 0.2201939595082E+01
 0.2389570462230E+01
 0.2566710734592E+01
 0.2727516692446E+01
 0.1321489655272E+01
 0.1353468290405E+01
 0.1385789212272E+01
 0.1416710914009E+01
 0.1444551604919E+01
 0.1467847471736E+01
 0.1485460077098E+01
 0.1496617033604E+01
 0.1500894260961E+01
 0.1498161491414E+01
 0.1488514864146E+01
 0.1472215265167E+01
 0.1449642943614E+01
 0.1421271937953E+01
 0.1387664149809E+01
 0.1349474453856E+01
 0.1307464397873E+01
 0.1262518824572E+01
 0.1215656480988E+01
 0.1168042741483E+01
 0.1121024689773E+01
 0.1076131039776E+01
 0.1035021543500E+01
 0.9994884738030E+00
 0.9715115682511E+00
 0.9533362232573E+00
 0.9475389772060E+00
 0.9570224901631E+00
 0.9848695077243E+00
 0.1034012779175E+01
 0.1106766600825E+01
 0.1204379942668E+01
 0.1326731996873E+01
 0.1472176104760E+01
 0.1637545149031E+01
 0.1818284807992E+01
 0.2008691823565E+01
 0.2202256012004E+01
 0.2392085427807E+01
 0.2571390007503E+01
 0.2733957944387E+01
 0.1353946973312E+01
 0.1387053720774E+01
 0.1420650338853E+01
 0.1452858067914E+01
 0.1481863124216E+01
 0.1506101084951E+01
 0.1524377308542E+01
 0.1535906750823E+01
 0.1540285794105E+01
 0.1537423600697E+01
 0.1527461496053E+01
 0.1510701527078E+01
 0.1487555327617E+01
 0.1458516326482E+01
 0.1424154233832E+01
 0.1385122112964E+01
 0.1342172786560E+01
 0.1296178126926E+01
 0.1248141628087E+01
 0.1199213541979E+01
 0.1150732636669E+01
 0.1104223437742E+01
 0.1061332606403E+01
 0.1023825400683E+01
 0.9936427565858E+00
 0.9729851832561E+00
 0.9643894852981E+00
 0.9707444152111E+00
 0.9951745530874E+00
 0.1040738692401E+01
 0.1109968693412E+01
 0.1204396606821E+01
 0.1324199822623E+01
 0.1467988000736E+01
 0.1632759295754E+01
 0.1813999966991E+01
 0.2005906114640E+01
 0.2201728667308E+01
 0.2394223080734E+01
 0.2576177289651E+01
 0.2740945162828E+01
 0.1386707648050E+01
 0.1421067176233E+01
 0.1456062467260E+01
 0.1489662827575E+01
 0.1519911252349E+01
 0.1545138634488E+01
 0.1564097627521E+01
 0.1575999403738E+01
 0.1580471829041E+01
 0.1577473814759E+01
 0.1567199693532E+01
 0.1549997277851E+01
 0.1526311030480E+01
 0.1496652537172E+01
 0.1461596061221E+01
 0.1421788269129E+01
 0.1377967982913E+01
 0.1330988653988E+01
 0.1281833224993E+01
 0.1231631861643E+01
 0.1181710776202E+01
 0.1133586596489E+01
 0.1088888760357E+01
 0.1049350473284E+01
 0.1016868013608E+01
 0.9935905698326E+00
 0.9820084717026E+00
 0.9849903056425E+00
 0.1005699225295E+01
 0.1047324935869E+01
 0.1112636001603E+01
 0.1203483782597E+01
 0.1320393328982E+01
 0.1462283595382E+01
 0.1626362851183E+01
 0.1808184582053E+01
 0.2001845739354E+01
 0.2200331999408E+01
 0.2395994712019E+01
 0.2581131325300E+01
 0.2748587422464E+01
 0.1419804190856E+01
 0.1455549316616E+01
 0.1492074011101E+01
 0.1527178007429E+01
 0.1558748025357E+01
 0.1585006104537E+01
 0.1604657053882E+01
 0.1616919181897E+01
 0.1621464838633E+01
 0.1618314473489E+01
 0.1607724098559E+01
 0.1590092229137E+01
 0.1565897584667E+01
 0.1535668461622E+01
 0.1499980118950E+01
 0.1459467920155E+01
 0.1414851123219E+01
 0.1366959093140E+01
 0.1316748798935E+01
 0.1265325307898E+01
 0.1213998035289E+01
 0.1164272005312E+01
 0.1117755235845E+01
 0.1076143650143E+01
 0.1041282669128E+01
 0.1015263184792E+01
 0.1000521380631E+01
 0.9998976912682E+00
 0.1016587614861E+01
 0.1053912584458E+01
 0.1114893299362E+01
 0.1201735631081E+01
 0.1315365107876E+01
 0.1455070430016E+01
 0.1618324437480E+01
 0.1800783669147E+01
 0.1996453757839E+01
 0.2198030477388E+01
 0.2397406144288E+01
 0.2586311823111E+01
 0.2757001481368E+01
 0.1453271242821E+01
 0.1490543850530E+01
 0.1528737132106E+01
 0.1565460109424E+01
 0.1598428149875E+01
 0.1625750387576E+01
 0.1646090451806E+01
 0.1658687192259E+01
 0.1663272705848E+01
 0.1659942338850E+01
 0.1649023275973E+01
 0.1630969916589E+01
 0.1606296555030E+01
 0.1575546466130E+01
 0.1539291993852E+01
 0.1498151936260E+01
 0.1452820111696E+01
 0.1404095906711E+01
 0.1352904777884E+01
 0.1300321660940E+01
 0.1247634972226E+01
 0.1196334469558E+01
 0.1148002510604E+01
 0.1104292300530E+01
 0.1066991810659E+01
 0.1038126057895E+01
 0.1020068440527E+01
 0.1015621507719E+01
 0.1028003767672E+01
 0.1060664632916E+01
 0.1116887649878E+01
 0.1199266251010E+01
 0.1309182155342E+01
 0.1446362465564E+01
 0.1608610450314E+01
 0.1791732957042E+01
 0.1989660409996E+01
 0.2194776645496E+01
 0.2398456060554E+01
 0.2591778417237E+01
 0.2766311543457E+01
 0.1487146088976E+01
 0.1526098263917E+01
 0.1566108602942E+01
 0.1604570124434E+01
 0.1639009542598E+01
 0.1667419457982E+01
 0.1688431356857E+01
 0.1701321040612E+01
 0.1705898179580E+01
 0.1702348019215E+01
 0.1691079158736E+01
 0.1672607182548E+01
 0.1647483054171E+01
 0.1616262927497E+01
 0.1579511917241E+01
 0.1537826604611E+01
 0.1491869157127E+01
 0.1442402852429E+01
 0.1390315987312E+01
 0.1336648344357E+01
 0.1282663228447E+01
 0.1229831563218E+01
 0.1179705795398E+01
 0.1133890766281E+01
 0.1094109971377E+01
 0.1062314316609E+01
 0.1040804784960E+01
 0.1032334579771E+01
 0.1040132721361E+01
 0.1067767833696E+01
 0.1118791184520E+01
 0.1196213179423E+01
 0.1301929430642E+01
 0.1436182820035E+01
 0.1597186270258E+01
 0.1780958372038E+01
 0.1981381299152E+01
 0.2190508870015E+01
 0.2399134122195E+01
 0.2597589510786E+01
 0.2776649020705E+01
 0.1521469268155E+01
 0.1562264687576E+01
 0.1604250825065E+01
 0.1644574451533E+01
 0.1680553909403E+01
 0.1710062503373E+01
 0.1731711707332E+01
 0.1744834302333E+01
 0.1749338233907E+01
 0.1745515323775E+01
 0.1733866448558E+01
 0.1714973630789E+01
 0.1689425236708E+01
 0.1657787747053E+01
 0.1620614283210E+01
 0.1578473142113E+01
 0.1531988272819E+01
 0.1481880462291E+01
 0.1428995099137E+01
 0.1374331839530E+01
 0.1319124913785E+01
 0.1264823004344E+01
 0.1212944433818E+01
 0.1165039833661E+01
 0.1122760731800E+01
 0.1087974982102E+01
 0.1062900518503E+01
 0.1050228071030E+01
 0.1053181543106E+01
 0.1075434628304E+01
 0.1120804175069E+01
 0.1192741468948E+01
 0.1293714222513E+01
 0.1424567333247E+01
 0.1584018054667E+01
 0.1768375678190E+01
 0.1971515341073E+01
 0.2185148729194E+01
 0.2399418878434E+01
 0.2603801000190E+01
 0.2788152205417E+01
 0.1556285301303E+01
 0.1599100936594E+01
 0.1643233034399E+01
 0.1685545951699E+01
 0.1723127356418E+01
 0.1753729987289E+01
 0.1775961448014E+01
 0.1789235856465E+01
 0.1793583315693E+01
 0.1789420542116E+01
 0.1777351973683E+01
 0.1758031057937E+01
 0.1732083776823E+01
 0.1700083845413E+01
 0.1662567140808E+01
 0.1620067174974E+01
 0.1573162737718E+01
 0.1522525477815E+01
 0.1468952031266E+01
 0.1413397042251E+01
 0.1357061922799E+01
 0.1301369948724E+01
 0.1247801207917E+01
 0.1197846101904E+01
 0.1153076215792E+01
 0.1115266666648E+01
 0.1086540698985E+01
 0.1069511867416E+01
 0.1067380327169E+01
 0.1083905119106E+01
 0.1123158358474E+01
 0.1189048367836E+01
 0.1284671455941E+01
 0.1411569176218E+01
 0.1569075327066E+01
 0.1753890384219E+01
 0.1959942432643E+01
 0.2178597942586E+01
 0.2399275494230E+01
 0.2610464904329E+01
 0.2800965644132E+01
 0.1591643567710E+01
 0.1636671762997E+01
 0.1683132733780E+01
 0.1727565151193E+01
 0.1766801015462E+01
 0.1798473602317E+01
 0.1821207960328E+01
 0.1834529046135E+01
 0.1838616457533E+01
 0.1834031637854E+01
 0.1821493999499E+01
 0.1801732859026E+01
 0.1775411324909E+01
 0.1743106630212E+01
 0.1705331648456E+01
 0.1662578170291E+01
 0.1615372502279E+01
 0.1564330225016E+01
 0.1510193281411E+01
 0.1453866545375E+01
 0.1396515165284E+01
 0.1339534182939E+01
 0.1284361527145E+01
 0.1232421220305E+01
 0.1185196445871E+01
 0.1144359131088E+01
 0.1111925191265E+01
 0.1090414848045E+01
 0.1082983099544E+01
 0.1093449015418E+01
 0.1126120452946E+01
 0.1185368613452E+01
 0.1274970089618E+01
 0.1397264785112E+01
 0.1552334677985E+01
 0.1737398113660E+01
 0.1946520790549E+01
 0.2170734657441E+01
 0.2398653361106E+01
 0.2617628060355E+01
 0.2815238638006E+01
 0.1627599368299E+01
 0.1675050377470E+01
 0.1724037404730E+01
 0.1770721616139E+01
 0.1811651664285E+01
 0.1844346068823E+01
 0.1867475273920E+01
 0.1880710637159E+01
 0.1884412248797E+01
 0.1879307365514E+01
 0.1866241510520E+01
 0.1846023428965E+01
 0.1819351964158E+01
 0.1786803454647E+01
 0.1748861504951E+01
 0.1705968831552E+01
 0.1658591550355E+01
 0.1607281941440E+01
 0.1552721209441E+01
 0.1495759863407E+01
 0.1437523727301E+01
 0.1379377231744E+01
 0.1322712511470E+01
 0.1268880997509E+01
 0.1219268551160E+01
 0.1175432684301E+01
 0.1139268365328E+01
 0.1113185010289E+01
 0.1100268585917E+01
 0.1104367485368E+01
 0.1129995779591E+01
 0.1181980310544E+01
 0.1264820740535E+01
 0.1381761434236E+01
 0.1533784978249E+01
 0.1718785747121E+01
 0.1931083900286E+01
 0.2161408703779E+01
 0.2397483693758E+01
 0.2625331382417E+01
 0.2831121583185E+01
 0.1664215227617E+01
 0.1714320310177E+01
 0.1766046560192E+01
 0.1815115514660E+01
 0.1857762301740E+01
 0.1891400708841E+01
 0.1914782992999E+01
 0.1927769531672E+01
 0.1930935647468E+01
 0.1925196311537E+01
 0.1911533473289E+01
 0.1890837570827E+01
 0.1863840674842E+01
 0.1831113069097E+01
 0.1793102353452E+01
 0.1750194449843E+01
 0.1702787206699E+01
 0.1651362045156E+01
 0.1596533259964E+01
 0.1539092592595E+01
 0.1480123957221E+01
 0.1420959373288E+01
 0.1362941958430E+01
 0.1307344365039E+01
 0.1255445798313E+01
 0.1208677381185E+01
 0.1168798583885E+01
 0.1138089388833E+01
 0.1119540776924E+01
 0.1116994823588E+01
 0.1135131868222E+01
 0.1179211314124E+01
 0.1254484651598E+01
 0.1365206829180E+01
 0.1513434599241E+01
 0.1697933903320E+01
 0.1913437109484E+01
 0.2150435015761E+01
 0.2395677072055E+01
 0.2633611304135E+01
 0.2848756287947E+01
 0.1701562506224E+01
 0.1754577703109E+01
 0.1809274220866E+01
 0.1860859388627E+01
 0.1905222626720E+01
 0.1939690713752E+01
 0.1963144871251E+01
 0.1975685207484E+01
 0.1978140638962E+01
 0.1971635888716E+01
 0.1957298120248E+01
 0.1936099953315E+01
 0.1908802846279E+01
 0.1875965101184E+01
 0.1837991188784E+01
 0.1795202237552E+01
 0.1747919416422E+01
 0.1696545375030E+01
 0.1641621159606E+01
 0.1583875546451E+01
 0.1524348520984E+01
 0.1464338608381E+01
 0.1405137238473E+01
 0.1347932232103E+01
 0.1293886468508E+01
 0.1244292023087E+01
 0.1200757464077E+01
 0.1165413740236E+01
 0.1141129251632E+01
 0.1131699864656E+01
 0.1141921913302E+01
 0.1177445983876E+01
 0.1244284045205E+01
 0.1347801164108E+01
 0.1491321215532E+01
 0.1674721369448E+01
 0.1893354934013E+01
 0.2137582710345E+01
 0.2393120957208E+01
 0.2642507899868E+01
 0.2868247351804E+01
 0.1739723425704E+01
 0.1795934134495E+01
 0.1853851912816E+01
 0.1908080134550E+01
 0.1954129314566E+01
 0.1989267967794E+01
 0.2012566920394E+01
 0.2024425816010E+01
 0.2025968714706E+01
 0.2018551278275E+01
 0.2003452254682E+01
 0.1981724614262E+01
 0.1954153825277E+01
 0.1921279542486E+01
 0.1883455734892E+01
 0.1840930601527E+01
 0.1793939947201E+01
 0.1742799351578E+01
 0.1687970040356E+01
 0.1630113821286E+01
 0.1570225384167E+01
 0.1509569542616E+01
 0.1449384075102E+01
 0.1390766180380E+01
 0.1334752514420E+01
 0.1282482873661E+01
 0.1235398805053E+01
 0.1195461873634E+01
 0.1165389141683E+01
 0.1148887012745E+01
 0.1150807895139E+01
 0.1177132074826E+01
 0.1234613885588E+01
 0.1329811954562E+01
 0.1467525549686E+01
 0.1649030998937E+01
 0.1870582469430E+01
 0.2122559217186E+01
 0.2389661716074E+01
 0.2652119189722E+01
 0.2889539557218E+01
 0.1778793684357E+01
 0.1838520022998E+01
 0.1899932386215E+01
 0.1956921153435E+01
 0.2004585955784E+01
 0.2040181258925E+01
 0.2063044932087E+01
 0.2073945888291E+01
 0.2074347170992E+01
 0.2065854344600E+01
 0.2049900607291E+01
 0.2027614536839E+01
 0.1999798519671E+01
 0.1966966249995E+01
 0.1929413788838E+01
 0.1887308341651E+01
 0.1840791494074E+01
 0.1790083038120E+01
 0.1735557474266E+01
 0.1677805783484E+01
 0.1617776719895E+01
 0.1556702185403E+01
 0.1495765214491E+01
 0.1435966997016E+01
 0.1378207979276E+01
 0.1323462046138E+01
 0.1272987106004E+01
 0.1228554528887E+01
 0.1192700632393E+01
 0.1168996776480E+01
 0.1162283180692E+01
 0.1178787495575E+01
 0.1225954819127E+01
 0.1311592437211E+01
 0.1442188864824E+01
 0.1620763031146E+01
 0.1844825684591E+01
 0.2105036729285E+01
 0.2384975378673E+01
 0.2662820368098E+01
 0.2912014185930E+01
 0.1818888754862E+01
 0.1882505282032E+01
 0.1947722978320E+01
 0.2007587752906E+01
 0.2056759882247E+01
 0.2092544319599E+01
 0.2114643733017E+01
 0.2124276526723E+01
 0.2123289765992E+01
 0.2113554378123E+01
 0.2096656619985E+01
 0.2073792847656E+01
 0.2045773764283E+01
 0.2013079511628E+01
 0.1975941157836E+01
 0.1934437102427E+01
 0.1888605565693E+01
 0.1838560974561E+01
 0.1784583253011E+01
 0.1727188303699E+01
 0.1667278698901E+01
 0.1606055045929E+01
 0.1544645082318E+01
 0.1483948320178E+01
 0.1424717858943E+01
 0.1367746281846E+01
 0.1314089156508E+01
 0.1265304600201E+01
 0.1223716305547E+01
 0.1192711314071E+01
 0.1177040824286E+01
 0.1183076851819E+01
 0.1218867410984E+01
 0.1293488976478E+01
 0.1415340768871E+01
 0.1589601220736E+01
 0.1815527781166E+01
 0.2084397224715E+01
 0.2378833894657E+01
 0.2674004624754E+01
 0.2940343318578E+01
 0.1860139753790E+01
 0.1928073129809E+01
 0.1997432846128E+01
 0.2060263848952E+01
 0.2110767133351E+01
 0.2146392176278E+01
 0.2167329304294E+01
 0.2175336927731E+01
 0.2172689671166E+01
 0.2161533000143E+01
 0.2143598698904E+01
 0.2120139023098E+01
 0.2091962570885E+01
 0.2059508181011E+01
 0.2022935569950E+01
 0.1982227310198E+01
 0.1937309312419E+01
 0.1888180528672E+01
 0.1835017710540E+01
 0.1778257250526E+01
 0.1718756032344E+01
 0.1657686356686E+01
 0.1596121343168E+01
 0.1534853782743E+01
 0.1474478380948E+01
 0.1415590923872E+01
 0.1359025898998E+01
 0.1306105202057E+01
 0.1258908072378E+01
 0.1220587034054E+01
 0.1195721659773E+01
 0.1190705010389E+01
 0.1214053923542E+01
 0.1276071761275E+01
 0.1387259037523E+01
 0.1555429467865E+01
 0.1782210371265E+01
 0.2060034747860E+01
 0.2370652393629E+01
 0.2686067021221E+01
 0.2973487866632E+01
 0.1902703224150E+01
 0.1975431057457E+01
 0.2049284914499E+01
 0.2115119115539E+01
 0.2166674040833E+01
 0.2201679367548E+01
 0.2220966454028E+01
 0.2226933091203E+01
 0.2222319479940E+01
 0.2209545006829E+01
 0.2190471211764E+01
 0.2166389360494E+01
 0.2138093442411E+01
 0.2105973263934E+01
 0.2070112058168E+01
 0.2030391039240E+01
 0.1986615761206E+01
 0.1938659553478E+01
 0.1886586932117E+01
 0.1830750434624E+01
 0.1771962878886E+01
 0.1711373095719E+01
 0.1650002220762E+01
 0.1588532987839E+01
 0.1527392336354E+01
 0.1466965842931E+01
 0.1407850896630E+01
 0.1351113467203E+01
 0.1298560015113E+01
 0.1253061362854E+01
 0.1218942017669E+01
 0.1202476937681E+01
 0.1212467322412E+01
 0.1260308866724E+01
 0.1358708294367E+01
 0.1518599762618E+01
 0.1744752791301E+01
 0.2031485926495E+01
 0.2360000374324E+01
 0.2698943891392E+01
 0.3010088935988E+01
 0.1946770632208E+01
 0.2024847240750E+01
 0.2103573175337E+01
 0.2172386334629E+01
 0.2224596118119E+01
 0.2258403314364E+01
 0.2275468088093E+01
 0.2278932191606E+01
 0.2272028856293E+01
 0.2257437790293E+01
 0.2237125138524E+01
 0.2212399314502E+01
 0.2184025609205E+01
 0.2152337717536E+01
 0.2117339133723E+01
 0.2078806217934E+01
 0.2036417234474E+01
 0.1989909386269E+01
 0.1939224642325E+01
 0.1884626566794E+01
 0.1826886079041E+01
 0.1767134866258E+01
 0.1706346183686E+01
 0.1645090281126E+01
 0.1583617626709E+01
 0.1522091245982E+01
 0.1460857232636E+01
 0.1400708381446E+01
 0.1343152792502E+01
 0.1290735055186E+01
 0.1247442084338E+01
 0.1219282581339E+01
 0.1215116722291E+01
 0.1247202245824E+01
 0.1330440225422E+01
 0.1479354692239E+01
 0.1702798994629E+01
 0.1998006134362E+01
 0.2346225403318E+01
 0.2712317577483E+01
 0.3050745895448E+01
 0.1992576279552E+01
 0.2076649696448E+01
 0.2160647434472E+01
 0.2232323859448E+01
 0.2284638972127E+01
 0.2316529695821E+01
 0.2330710253466E+01
 0.2331169529046E+01
 0.2321643527830E+01
 0.2305041698735E+01
 0.2283398940607E+01
 0.2258013950126E+01
 0.2229608051314E+01
 0.2198452976876E+01
 0.2164471852642E+01
 0.2127335597274E+01
 0.2086590088823E+01
 0.2041825753058E+01
 0.1992850081947E+01
 0.1939831211166E+01
 0.1883500541869E+01
 0.1824980376032E+01
 0.1765201643204E+01
 0.1704620553276E+01
 0.1643303209347E+01
 0.1581179367895E+01
 0.1518332492366E+01
 0.1455268850778E+01
 0.1393176962771E+01
 0.1334234993158E+01
 0.1282013296176E+01
 0.1242103271821E+01
 0.1223167184563E+01
 0.1237993524651E+01
 0.1303497918759E+01
 0.1438171205131E+01
 0.1656055766577E+01
 0.1958723509524E+01
 0.2328421710692E+01
 0.2725852485943E+01
 0.3096064151677E+01
 0.2040410362338E+01
 0.2131243905456E+01
 0.2220924968169E+01
 0.2295213742676E+01
 0.2346886587373E+01
 0.2375979424286E+01
 0.2386523054941E+01
 0.2383444075343E+01
 0.2370964035227E+01
 0.2352170462127E+01
 0.2329119661959E+01
 0.2303069143590E+01
 0.2274680421937E+01
 0.2244159289380E+01
 0.2211351322197E+01
 0.2175825378747E+01
 0.2136992700377E+01
 0.2094286558150E+01
 0.2047366022479E+01
 0.1996295238512E+01
 0.1941768138058E+01
 0.1884906604877E+01
 0.1826606075835E+01
 0.1767207859377E+01
 0.1706586704282E+01
 0.1644430630219E+01
 0.1580553232938E+01
 0.1515166580438E+01
 0.1449124884773E+01
 0.1384206237813E+01
 0.1323491718949E+01
 0.1272007610487E+01
 0.1237943325905E+01
 0.1234193861397E+01
 0.1279294684059E+01
 0.1395872615998E+01
 0.1604372416478E+01
 0.1912626503806E+01
 0.2305404647541E+01
 0.2739076253434E+01
 0.3146797637076E+01
 0.2090637299493E+01
 0.2189136523579E+01
 0.2284904085403E+01
 0.2361355665647E+01
 0.2411383570618E+01
 0.2436611698765E+01
 0.2442680379483E+01
 0.2435514358240E+01
 0.2419765249420E+01
 0.2398622339804E+01
 0.2374104618762E+01
 0.2347393274507E+01
 0.2319074396848E+01
 0.2289286385643E+01
 0.2257804367104E+01
 0.2224103732116E+01
 0.2187463068563E+01
 0.2147149155314E+01
 0.2102656326667E+01
 0.2053933048673E+01
 0.2001636650462E+01
 0.1946898291538E+01
 0.1890585608484E+01
 0.1832924465274E+01
 0.1773592209681E+01
 0.1712029631458E+01
 0.1647778743911E+01
 0.1580757504021E+01
 0.1511480254117E+01
 0.1441300860852E+01
 0.1372747798027E+01
 0.1310143358561E+01
 0.1260926633043E+01
 0.1237605380128E+01
 0.1259699190254E+01
 0.1353780713858E+01
 0.1547871798064E+01
 0.1858588436771E+01
 0.2275631653671E+01
 0.2751338082193E+01
 0.3203891601491E+01
 0.2143721908844E+01
 0.2250967832597E+01
 0.2353179027913E+01
 0.2431053554489E+01
 0.2478108848695E+01
 0.2498202558633E+01
 0.2498888941520E+01
 0.2487095290127E+01
 0.2467797019823E+01
 0.2444182159043E+01
 0.2418163756059E+01
 0.2390809464180E+01
 0.2362615520867E+01
 0.2333654586855E+01
 0.2303643456466E+01
 0.2271979239013E+01
 0.2237815955503E+01
 0.2200246915845E+01
 0.2158582851711E+01
 0.2112640432564E+01
 0.2063038783901E+01
 0.2010927872692E+01
 0.1957155278238E+01
 0.1901830539511E+01
 0.1844428504513E+01
 0.1784141105106E+01
 0.1720244201678E+01
 0.1652371782540E+01
 0.1580705045594E+01
 0.1506162832645E+01
 0.1430671182133E+01
 0.1357724056000E+01
 0.1293745454185E+01
 0.1250329317270E+01
 0.1247116546882E+01
 0.1313912789551E+01
 0.1487166158434E+01
 0.1795437007646E+01
 0.2237108502159E+01
 0.2761700407655E+01
 0.3268547149760E+01
 0.2200267657061E+01
 0.2317556677787E+01
 0.2426454560288E+01
 0.2504589725304E+01
 0.2546937569996E+01
 0.2560418785425E+01
 0.2554777708280E+01
 0.2537856786521E+01
 0.2514786355115E+01
 0.2488624397127E+01
 0.2461102727786E+01
 0.2433138397614E+01
 0.2405125618795E+01
 0.2377076471683E+01
 0.2348667042728E+01
 0.2319239347980E+01
 0.2287839481522E+01
 0.2253384846554E+01
 0.2214981394425E+01
 0.2172291866812E+01
 0.2125891217894E+01
 0.2076956052494E+01
 0.2026320254573E+01
 0.1973974773276E+01
 0.1919187850267E+01
 0.1860906002173E+01
 0.1798153370887E+01
 0.1730302513359E+01
 0.1657223815699E+01
 0.1579408355354E+01
 0.1498149058264E+01
 0.1416008240163E+01
 0.1338156386874E+01
 0.1274757128757E+01
 0.1244548924291E+01
 0.1279219092154E+01
 0.1423697396162E+01
 0.1722118726295E+01
 0.2187266347054E+01
 0.2768765142341E+01
 0.3342321147907E+01
 0.2261074037707E+01
 0.2389963289774E+01
 0.2505556178131E+01
 0.2582178146854E+01
 0.2617587327104E+01
 0.2622788003465E+01
 0.2609889553636E+01
 0.2587425231031E+01
 0.2560441516627E+01
 0.2531717411931E+01
 0.2502726715786E+01
 0.2474201731014E+01
 0.2446425815183E+01
 0.2419359235346E+01
 0.2392660520218E+01
 0.2365648998090E+01
 0.2337291108967E+01
 0.2306333915688E+01
 0.2271656212851E+01
 0.2232736888159E+01
 0.2190093629472E+01
 0.2144933220035E+01
 0.2098078390439E+01
 0.2049396260577E+01
 0.1997945594493E+01
 0.1942437812165E+01
 0.1881670994519E+01
 0.1814793379038E+01
 0.1741405540957E+01
 0.1661601294392E+01
 0.1576036365214E+01
 0.1486268063358E+01
 0.1396014353784E+01
 0.1313542691699E+01
 0.1255616557240E+01
 0.1253833034301E+01
 0.1360252306610E+01
 0.1638044330380E+01
 0.2122829563613E+01
 0.2770394553572E+01
 0.3427276723757E+01
 0.2327225233233E+01
 0.2469577666305E+01
 0.2591426767737E+01
 0.2663883350711E+01
 0.2689544910301E+01
 0.2684667890294E+01
 0.2663678039319E+01
 0.2635388970082E+01
 0.2604458348088E+01
 0.2573228903144E+01
 0.2542845000936E+01
 0.2513826092802E+01
 0.2486340226913E+01
 0.2460307936237E+01
 0.2435398155531E+01
 0.2410949772474E+01
 0.2385893095612E+01
 0.2358823739276E+01
 0.2328372537215E+01
 0.2293795104327E+01
 0.2255527682203E+01
 0.2214802172619E+01
 0.2172424784295E+01
 0.2128128251893E+01
 0.2080760981630E+01
 0.2028819394738E+01
 0.1970915218088E+01
 0.1906025821833E+01
 0.1833543750588E+01
 0.1753224147785E+01
 0.1665116903981E+01
 0.1569743579508E+01
 0.1469226071522E+01
 0.1369554403459E+01
 0.1284524806792E+01
 0.1243272390179E+01
 0.1301689151619E+01
 0.1543779618589E+01
 0.2039735409321E+01
 0.2763253612916E+01
 0.3526209022670E+01
 0.2400231785055E+01
 0.2558243869716E+01
 0.2685089793624E+01
 0.2749483910789E+01
 0.2761971875873E+01
 0.2745220977079E+01
 0.2715513154230E+01
 0.2681308757206E+01
 0.2646528930578E+01
 0.2612932546235E+01
 0.2581276176715E+01
 0.2551847564961E+01
 0.2524700264069E+01
 0.2499729721726E+01
 0.2476646339851E+01
 0.2454860049741E+01
 0.2433327541435E+01
 0.2410533049303E+01
 0.2384845993121E+01
 0.2355248893160E+01
 0.2322055690612E+01
 0.2286502550415E+01
 0.2249359042631E+01
 0.2210204286229E+01
 0.2167679294852E+01
 0.2120100188410E+01
 0.2065949987058E+01
 0.2004106083521E+01
 0.1933835765081E+01
 0.1854645423318E+01
 0.1766055006542E+01
 0.1667578766910E+01
 0.1559677974008E+01
 0.1445801212733E+01
 0.1335975845969E+01
 0.1254501432247E+01
 0.1255832066418E+01
 0.1442371385204E+01
 0.1933278390083E+01
 0.2742052397170E+01
 0.3642981836215E+01
 0.2482265795710E+01
 0.2658432449046E+01
 0.2787536548387E+01
 0.2838249415994E+01
 0.2833594495084E+01
 0.2803407200315E+01
 0.2764700110908E+01
 0.2724733437847E+01
 0.2686352490203E+01
 0.2650615687824E+01
 0.2617853865124E+01
 0.2588116517396E+01
 0.2561349443155E+01
 0.2537439103371E+01
 0.2516168639473E+01
 0.2497076994964E+01
 0.2479231550411E+01
 0.2461077376577E+01
 0.2440727420990E+01
 0.2416832370161E+01
 0.2389518609491E+01
 0.2359977765025E+01
 0.2328896423230E+01
 0.2295667536054E+01
 0.2258735563937E+01
 0.2216293622755E+01
 0.2166777311554E+01
 0.2109052621979E+01
 0.2042362438167E+01
 0.1966085440970E+01
 0.1879339191682E+01
 0.1780737031385E+01
 0.1669127849598E+01
 0.1545315918635E+01
 0.1415030851768E+01
 0.1295785771229E+01
 0.1234282901130E+01
 0.1341742432211E+01
 0.1798943955956E+01
 0.2698309946242E+01
 0.3783016926975E+01
 0.2576569054651E+01
 0.2773468934373E+01
 0.2899447221177E+01
 0.2928590773438E+01
 0.2902602330724E+01
 0.2858013185312E+01
 0.2810513331990E+01
 0.2765220212150E+01
 0.2723648424076E+01
 0.2686087900000E+01
 0.2652432769334E+01
 0.2622502667874E+01
 0.2596148577981E+01
 0.2573264265925E+01
 0.2553733182238E+01
 0.2537281743505E+01
 0.2523193771334E+01
 0.2509993563350E+01
 0.2495580890049E+01
 0.2478214372645E+01
 0.2457732892498E+01
 0.2435185845719E+01
 0.2411084802033E+01
 0.2384584659844E+01
 0.2353960225823E+01
 0.2317374502294E+01
 0.2273329163865E+01
 0.2220784530123E+01
 0.2159070469730E+01
 0.2087583948182E+01
 0.2005221615513E+01
 0.1909897300487E+01
 0.1799051331036E+01
 0.1670967980523E+01
 0.1526905625657E+01
 0.1376365183099E+01
 0.1252628574980E+01
 0.1258489846551E+01
 0.1635145863352E+01
 0.2618456122558E+01
 0.3953955705436E+01
 0.2688199063380E+01
 0.2907796712276E+01
 0.3020553795009E+01
 0.3017551444288E+01
 0.2966620524805E+01
 0.2907739346563E+01
 0.2852241709212E+01
 0.2802358453955E+01
 0.2758171198630E+01
 0.2719189915222E+01
 0.2684894809820E+01
 0.2654900137559E+01
 0.2628981063775E+01
 0.2607054084705E+01
 0.2589122623576E+01
 0.2575149540380E+01
 0.2564754707790E+01
 0.2556721087567E+01
 0.2548851325809E+01
 0.2538971350474E+01
 0.2526485221206E+01
 0.2512116357553E+01
 0.2496030147686E+01
 0.2477065576464E+01
 0.2453386806550E+01
 0.2423275534047E+01
 0.2385457941022E+01
 0.2339110938665E+01
 0.2283759523215E+01
 0.2218973958953E+01
 0.2143659227731E+01
 0.2055336432752E+01
 0.1950440379458E+01
 0.1825177765958E+01
 0.1676630597769E+01
 0.1506013166159E+01
 0.1329648319405E+01
 0.1222151070981E+01
 0.1450922608380E+01
 0.2481445228496E+01
 0.4166371136815E+01
 0.2825481663974E+01
 0.3067126326770E+01
 0.3148238772945E+01
 0.3100191120485E+01
 0.3022893353381E+01
 0.2951344702896E+01
 0.2889233503104E+01
 0.2835798270883E+01
 0.2789726041729E+01
 0.2749802399081E+01
 0.2715155140141E+01
 0.2685232264224E+01
 0.2659757993650E+01
 0.2638685295403E+01
 0.2622146372606E+01
 0.2610366963561E+01
 0.2603415466191E+01
 0.2600581805713E+01
 0.2599816301953E+01
 0.2598542955355E+01
 0.2595523681318E+01
 0.2590817472971E+01
 0.2583934829768E+01
 0.2573291079082E+01
 0.2557061746677E+01
 0.2533882060777E+01
 0.2502923823477E+01
 0.2463720783029E+01
 0.2416077040346E+01
 0.2359868339686E+01
 0.2294264678450E+01
 0.2216809576538E+01
 0.2123562920035E+01
 0.2009516644723E+01
 0.1868490423751E+01
 0.1694331306125E+01
 0.1486000421511E+01
 0.1275922908041E+01
 0.1284957461299E+01
 0.2258131397841E+01
 0.4433930292013E+01
 0.3003075622355E+01
 0.3257816790115E+01
 0.3274549654788E+01
 0.3169271228367E+01
 0.3068875888238E+01
 0.2987769228654E+01
 0.2920940378172E+01
 0.2865285979767E+01
 0.2818182022785E+01
 0.2777854738775E+01
 0.2743167496391E+01
 0.2713455906725E+01
 0.2688422785876E+01
 0.2668069054430E+01
 0.2652653458723E+01
 0.2642657496625E+01
 0.2638663111598E+01
 0.2640763857763E+01
 0.2647513258805E+01
 0.2656156444195E+01
 0.2664543027452E+01
 0.2671440560078E+01
 0.2675154922894E+01
 0.2673549850191E+01
 0.2665055685009E+01
 0.2649023458293E+01
 0.2625375726393E+01
 0.2594169778766E+01
 0.2555523188906E+01
 0.2509667864861E+01
 0.2456276450289E+01
 0.2393439326432E+01
 0.2317716334043E+01
 0.2224190501761E+01
 0.2105217940880E+01
 0.1949401454865E+01
 0.1742597475141E+01
 0.1471488556555E+01
 0.1237377060220E+01
 0.1924900045789E+01
 0.4770878662876E+01
 0.3249176310872E+01
 0.3482664778565E+01
 0.3380352784784E+01
 0.3216844078387E+01
 0.3103112465686E+01
 0.3016066104727E+01
 0.2947026506827E+01
 0.2890682601847E+01
 0.2843485961388E+01
 0.2803332592467E+01
 0.2768928576236E+01
 0.2739565036333E+01
 0.2714954997162E+01
 0.2695156535391E+01
 0.2680543180710E+01
 0.2671812824131E+01
 0.2670025474871E+01
 0.2676327254803E+01
 0.2690628770981E+01
 0.2710691879598E+01
 0.2733161780835E+01
 0.2754317243054E+01
 0.2770285589234E+01
 0.2778285967966E+01
 0.2777474807677E+01
 0.2768460322834E+01
 0.2752322178806E+01
 0.2729857044865E+01
 0.2701468332381E+01
 0.2667605035694E+01
 0.2628562017275E+01
 0.2583617579760E+01
 0.2531016039365E+01
 0.2467512300088E+01
 0.2386799314990E+01
 0.2276113189197E+01
 0.2115718913521E+01
 0.1866331543662E+01
 0.1469016135011E+01
 0.1554734500949E+01
 0.5183162518861E+01
 0.3625334620119E+01
 0.3719398962956E+01
 0.3428450742598E+01
 0.3241688129200E+01
 0.3124246980888E+01
 0.3035690902601E+01
 0.2967432888135E+01
 0.2911969945816E+01
 0.2865679700108E+01
 0.2826281351150E+01
 0.2792482125130E+01
 0.2763593192736E+01
 0.2739373101820E+01
 0.2719943428391E+01
 0.2705772344084E+01
 0.2697717112389E+01
 0.2697166850467E+01
 0.2706281886962E+01
 0.2727330937714E+01
 0.2760424219403E+01
 0.2800894991112E+01
 0.2840099466783E+01
 0.2870285763088E+01
 0.2888157067502E+01
 0.2894469352163E+01
 0.2891867942880E+01
 0.2883092074121E+01
 0.2869974998198E+01
 0.2853179042225E+01
 0.2832860406461E+01
 0.2809659250147E+01
 0.2784941754319E+01
 0.2760180103275E+01
 0.2735686031553E+01
 0.2708848044158E+01
 0.2673956288568E+01
 0.2610983621583E+01
 0.2504214121795E+01
 0.2180223552808E+01
 0.1659329654214E+01
 0.5655025050905E+01
 0.4296164888650E+01
 0.3798364029678E+01
 0.3407044630056E+01
 0.3247710156681E+01
 0.3130120545036E+01
 0.3047261347578E+01
 0.2982182466697E+01
 0.2929333007929E+01
 0.2884888335739E+01
 0.2846814430802E+01
 0.2813919698914E+01
 0.2785615249215E+01
 0.2761735932363E+01
 0.2742472040752E+01
 0.2728361503979E+01
 0.2720351281606E+01
 0.2719980963826E+01
 0.2729888663946E+01
 0.2755033396743E+01
 0.2802461094228E+01
 0.2867174175521E+01
 0.2930011623597E+01
 0.2976651129447E+01
 0.3004100014229E+01
 0.3016232061017E+01
 0.3018812526022E+01
 0.3016796757880E+01
 0.3013404597809E+01
 0.3009804931164E+01
 0.3004846182726E+01
 0.2997883097237E+01
 0.2994051908898E+01
 0.3000610280763E+01
 0.3022215682313E+01
 0.3063464350355E+01
 0.3128569648422E+01
 0.3230115104130E+01
 0.3349974557972E+01
 0.3623337816683E+01
 0.3244974696488E+01
 0.6693214802624E+01
 0.3575610524189E+00
 0.5203813591668E+00
 0.6666449773293E+00
 0.7961616198546E+00
 0.9101703266530E+00
 0.1010354133919E+01
 0.1098536710507E+01
 0.1176531225742E+01
 0.1245999874866E+01
 0.1308446173387E+01
 0.1365317191024E+01
 0.1417570808748E+01
 0.1466326342726E+01
 0.1513300073470E+01
 0.1559672180617E+01
 0.1605779080098E+01
 0.1651500474619E+01
 0.1696420864783E+01
 0.1739995195411E+01
 0.1780683798432E+01
 0.3463775652775E+00
 0.5166427610976E+00
 0.6686242744443E+00
 0.8029982279723E+00
 0.9211967113477E+00
 0.1025084909389E+01
 0.1116671418417E+01
 0.1197897012043E+01
 0.1270509007551E+01
 0.1336097375179E+01
 0.1396124023986E+01
 0.1451626847926E+01
 0.1503940968064E+01
 0.1554712786417E+01
 0.1605002386752E+01
 0.1655327057212E+01
 0.1705752442483E+01
 0.1756052793532E+01
 0.1804252584132E+01
 0.1845547412123E+01
 0.3356719220005E+00
 0.5133009406530E+00
 0.6708182652453E+00
 0.8096411639122E+00
 0.9316371871645E+00
 0.1038895210620E+01
 0.1133578257108E+01
 0.1217739060654E+01
 0.1293217684017E+01
 0.1361667617323E+01
 0.1424581390376E+01
 0.1483153608388E+01
 0.1538778670670E+01
 0.1593020309967E+01
 0.1646944647143E+01
 0.1701112176858E+01
 0.1755619168073E+01
 0.1809792958685E+01
 0.1861047473134E+01
 0.1905915359859E+01
 0.3255894969382E+00
 0.5102239446471E+00
 0.6730072918993E+00
 0.8159427829143E+00
 0.9413721458376E+00
 0.1051658577851E+01
 0.1149120813997E+01
 0.1235916500678E+01
 0.1313968915089E+01
 0.1384992888824E+01
 0.1450534070773E+01
 0.1511901077436E+01
 0.1570517981204E+01
 0.1627875253797E+01
 0.1685018284852E+01
 0.1742488848318E+01
 0.1800232502142E+01
 0.1857259597331E+01
 0.1911164412673E+01
 0.1959148767581E+01
 0.3161773463978E+00
 0.5073711978452E+00
 0.6750572927311E+00
 0.8217611046325E+00
 0.9502760346317E+00
 0.1063252438279E+01
 0.1163172600796E+01
 0.1252295388878E+01
 0.1332620444266E+01
 0.1405922751719E+01
 0.1473798342426E+01
 0.1537638304745E+01
 0.1598875450349E+01
 0.1658926034881E+01
 0.1718785712845E+01
 0.1778918969527E+01
 0.1839124051779E+01
 0.1898301277493E+01
 0.1954229809422E+01
 0.2004413438407E+01
 0.3074651560300E+00
 0.5047018231378E+00
 0.6768723484556E+00
 0.8269758995751E+00
 0.9582289920040E+00
 0.1073560461455E+01
 0.1175616133945E+01
 0.1266753433662E+01
 0.1349042378120E+01
 0.1424311682024E+01
 0.1494199535494E+01
 0.1560151724954E+01
 0.1623592226519E+01
 0.1685858944757E+01
 0.1747875016347E+01
 0.1810015430679E+01
 0.1871977836157E+01
 0.1932616541620E+01
 0.1989836196973E+01
 0.2041216775225E+01
 0.2994756031865E+00
 0.5021788191726E+00
 0.6783726585952E+00
 0.8314853606123E+00
 0.9651233060728E+00
 0.1082475859579E+01
 0.1186344765863E+01
 0.1279180730433E+01
 0.1363116784209E+01
 0.1440026520319E+01
 0.1511579058221E+01
 0.1579251078418E+01
 0.1644442634179E+01
 0.1708409788370E+01
 0.1771994791874E+01
 0.1835490444555E+01
 0.1898522276571E+01
 0.1959920480113E+01
 0.2017655659378E+01
 0.2069268770930E+01
 0.2922281608207E+00
 0.4997691536316E+00
 0.6794901921123E+00
 0.8352023839404E+00
 0.9708650332809E+00
 0.1089904208138E+01
 0.1195264444446E+01
 0.1289480879408E+01
 0.1374740320241E+01
 0.1452950773610E+01
 0.1525799956867E+01
 0.1594775255926E+01
 0.1661240705844E+01
 0.1726370026868E+01
 0.1790924798280E+01
 0.1855124957367E+01
 0.1918541221291E+01
 0.1979986356718E+01
 0.2037459646369E+01
 0.2088415855017E+01
 0.2857401149487E+00
 0.4974444156448E+00
 0.6801671059223E+00
 0.8380532526612E+00
 0.9753743226632E+00
 0.1095765033447E+01
 0.1202295325100E+01
 0.1297572716299E+01
 0.1383826690888E+01
 0.1462988194079E+01
 0.1536751094384E+01
 0.1606596725346E+01
 0.1673844125312E+01
 0.1739586380449E+01
 0.1804507838460E+01
 0.1868764001823E+01
 0.1931881857759E+01
 0.1992661040360E+01
 0.2049113675757E+01
 0.2098603540960E+01
 0.2800268170428E+00
 0.4951810948362E+00
 0.6803553543679E+00
 0.8399771512557E+00
 0.9785856634371E+00
 0.1099992779044E+01
 0.1207373141615E+01
 0.1303391975894E+01
 0.1390308827840E+01
 0.1470065542218E+01
 0.1544350162003E+01
 0.1614624300298E+01
 0.1682155593833E+01
 0.1747959190976E+01
 0.1812646669513E+01
 0.1876316249745E+01
 0.1938459593759E+01
 0.1997868429627E+01
 0.2052565342130E+01
 0.2099843833512E+01
 0.2751016396345E+00
 0.4929606954925E+00
 0.6800166156415E+00
 0.8409260688771E+00
 0.9804481151111E+00
 0.1102537504204E+01
 0.1210450290360E+01
 0.1306892705513E+01
 0.1394140643727E+01
 0.1474134617340E+01
 0.1548545640107E+01
 0.1618804534852E+01
 0.1686123013530E+01
 0.1751441265844E+01
 0.1815302667888E+01
 0.1877754376083E+01
 0.1938259974565E+01
 0.1995609725804E+01
 0.2047841971753E+01
 0.2092215235679E+01
 0.2709758713078E+00
 0.4907697429338E+00
 0.6791223110196E+00
 0.8408648294350E+00
 0.9809255178964E+00
 0.1103365388821E+01
 0.1211496634941E+01
 0.1308048321704E+01
 0.1395298280230E+01
 0.1475173553439E+01
 0.1549317816917E+01
 0.1619122128201E+01
 0.1685739083054E+01
 0.1750036827674E+01
 0.1812494882274E+01
 0.1873114865885E+01
 0.1931338947143E+01
 0.1985963441631E+01
 0.2035053627201E+01
 0.2075874248647E+01
 0.2676586153865E+00
 0.4885997180784E+00
 0.6776536089104E+00
 0.8397711247900E+00
 0.9799966323793E+00
 0.1102459058561E+01
 0.1210500031047E+01
 0.1306852288360E+01
 0.1393780845892E+01
 0.1473187450840E+01
 0.1546679052516E+01
 0.1615599640996E+01
 0.1681040452771E+01
 0.1743800306874E+01
 0.1804298864987E+01
 0.1862497152140E+01
 0.1917822168496E+01
 0.1969084718602E+01
 0.2014391824548E+01
 0.2051054868156E+01
 0.2651567159608E+00
 0.4864469408924E+00
 0.6756013731844E+00
 0.8376354860856E+00
 0.9776551683575E+00
 0.1099817716463E+01
 0.1207466563766E+01
 0.1303318406202E+01
 0.1389610653437E+01
 0.1468208404191E+01
 0.1540673404669E+01
 0.1608296628824E+01
 0.1672106414205E+01
 0.1732834739324E+01
 0.1790845008384E+01
 0.1846062028787E+01
 0.1897903413134E+01
 0.1945203129026E+01
 0.1986125659905E+01
 0.2018064914160E+01
 0.2634747079811E+00
 0.4843124106950E+00
 0.6729660368288E+00
 0.8344611613154E+00
 0.9739096799916E+00
 0.1095457075769E+01
 0.1202420505400E+01
 0.1297480734839E+01
 0.1382833001860E+01
 0.1460295007216E+01
 0.1531375714330E+01
 0.1597308261857E+01
 0.1659057107907E+01
 0.1717289670621E+01
 0.1772316288642E+01
 0.1824029318775E+01
 0.1871842044447E+01
 0.1914619531907E+01
 0.1950598039422E+01
 0.1977283367102E+01
 0.2626147818267E+00
 0.4822016106521E+00
 0.6697573943612E+00
 0.8302638835856E+00
 0.9687833146817E+00
 0.1089409091717E+01
 0.1195404003924E+01
 0.1289393171882E+01
 0.1373515546337E+01
 0.1449531394351E+01
 0.1518890209018E+01
 0.1582763457783E+01
 0.1642051225923E+01
 0.1697358500001E+01
 0.1748945346990E+01
 0.1796674755211E+01
 0.1839959675114E+01
 0.1877702557134E+01
 0.1908222691666E+01
 0.1929159511717E+01
 0.2625767398203E+00
 0.4801242752591E+00
 0.6659943049764E+00
 0.8250715180744E+00
 0.9623134060174E+00
 0.1081721491142E+01
 0.1186476512938E+01
 0.1279128714064E+01
 0.1361747295588E+01
 0.1436025868371E+01
 0.1503348667690E+01
 0.1564822550780E+01
 0.1621283203700E+01
 0.1673275237872E+01
 0.1721010882282E+01
 0.1764326095600E+01
 0.1802636150285E+01
 0.1834884861180E+01
 0.1859481728617E+01
 0.1874213430579E+01
 0.2633579430869E+00
 0.4780941264746E+00
 0.6617043118821E+00
 0.8189235913297E+00
 0.9545509168003E+00
 0.1072457112773E+01
 0.1175713986304E+01
 0.1266778435394E+01
 0.1347637282481E+01
 0.1419909165366E+01
 0.1484908193805E+01
 0.1543674530429E+01
 0.1596979920363E+01
 0.1645310684703E+01
 0.1688833364298E+01
 0.1727358495458E+01
 0.1760304866069E+01
 0.1786659008966E+01
 0.1804923271060E+01
 0.1813037123133E+01
 0.2649532399809E+00
 0.4761285807982E+00
 0.6569231814005E+00
 0.8118707083848E+00
 0.9455597413350E+00
 0.1061693074367E+01
 0.1163207863015E+01
 0.1252450218067E+01
 0.1331312952423E+01
 0.1401332406108E+01
 0.1463748643546E+01
 0.1519533891114E+01
 0.1569396940510E+01
 0.1613768057883E+01
 0.1652770087299E+01
 0.1686189132387E+01
 0.1713447320370E+01
 0.1733572681417E+01
 0.1745158586932E+01
 0.1746295472475E+01
 0.2673548792585E+00
 0.4742484308580E+00
 0.6516943689412E+00
 0.8039738667277E+00
 0.9354158794359E+00
 0.1049519784806E+01
 0.1149063868036E+01
 0.1236267270216E+01
 0.1312918310953E+01
 0.1380464779964E+01
 0.1440069756528E+01
 0.1492637138802E+01
 0.1538814343803E+01
 0.1578978110161E+01
 0.1613209594208E+01
 0.1641271061875E+01
 0.1662586744967E+01
 0.1676222845741E+01
 0.1680858162870E+01
 0.1674726336201E+01
 0.2705524186011E+00
 0.4724775065741E+00
 0.6460684220112E+00
 0.7953036807002E+00
 0.9242064995977E+00
 0.1036039824074E+01
 0.1133400658998E+01
 0.1218366467924E+01
 0.1292611875135E+01
 0.1357491011959E+01
 0.1414088044164E+01
 0.1463239014933E+01
 0.1505532206747E+01
 0.1541293804530E+01
 0.1570565521117E+01
 0.1593086302837E+01
 0.1608280687990E+01
 0.1615248459019E+01
 0.1612745924111E+01
 0.1599138290944E+01
 0.2745326440241E+00
 0.4708423219049E+00
 0.6401023319310E+00
 0.7859395317447E+00
 0.9120289104881E+00
 0.1021366715090E+01
 0.1116348348718E+01
 0.1198896558257E+01
 0.1270564472514E+01
 0.1332608663676E+01
 0.1386033493553E+01
 0.1431608503776E+01
 0.1469865812282E+01
 0.1501084626321E+01
 0.1525269933613E+01
 0.1542138179670E+01
 0.1551112473596E+01
 0.1551321336015E+01
 0.1541590120203E+01
 0.1520402018959E+01
 0.2792795186673E+00
 0.4693717141798E+00
 0.6338588477882E+00
 0.7759686620464E+00
 0.8989894619345E+00
 0.1005623612891E+01
 0.1098046934432E+01
 0.1178016260516E+01
 0.1246956931895E+01
 0.1306025320159E+01
 0.1356146148341E+01
 0.1398024696501E+01
 0.1432140674668E+01
 0.1458730633353E+01
 0.1477766257954E+01
 0.1488943001862E+01
 0.1491681539202E+01
 0.1485135146944E+01
 0.1468190742951E+01
 0.1439437509956E+01
 0.2847741787469E+00
 0.4680964839456E+00
 0.6274057680286E+00
 0.7654852315812E+00
 0.8852023991082E+00
 0.9889419389445E+00
 0.1078644666553E+01
 0.1155892304665E+01
 0.1221977712239E+01
 0.1277955717888E+01
 0.1324672632585E+01
 0.1362772592491E+01
 0.1392687479433E+01
 0.1414616367220E+01
 0.1428501953446E+01
 0.1434021231812E+01
 0.1430592796693E+01
 0.1417392668975E+01
 0.1393364820335E+01
 0.1357198070178E+01
 0.2909949915260E+00
 0.4670490435102E+00
 0.6208152255257E+00
 0.7545893588429E+00
 0.8707886933702E+00
 0.9714599873752E+00
 0.1058296388039E+01
 0.1132697443724E+01
 0.1195820513640E+01
 0.1248618866705E+01
 0.1291862681976E+01
 0.1326138917893E+01
 0.1351837040903E+01
 0.1369124761631E+01
 0.1377921107081E+01
 0.1377888378615E+01
 0.1368445280283E+01
 0.1348791588794E+01
 0.1317928940072E+01
 0.1274648625019E+01
 0.2979176856702E+00
 0.4662630826578E+00
 0.6141629825187E+00
 0.7433861659976E+00
 0.8558748732292E+00
 0.9533215291542E+00
 0.1037161874008E+01
 0.1108608474974E+01
 0.1168681912370E+01
 0.1218235216728E+01
 0.1257965744938E+01
 0.1288408039364E+01
 0.1309915379167E+01
 0.1322631189887E+01
 0.1326457160452E+01
 0.1321045927592E+01
 0.1305820514749E+01
 0.1280009188072E+01
 0.1242678668991E+01
 0.1192737460034E+01
 0.3055155575668E+00
 0.4657732601109E+00
 0.6075277532930E+00
 0.7319848516936E+00
 0.8405918814193E+00
 0.9346744423527E+00
 0.1015404202757E+01
 0.1083804306224E+01
 0.1140759063632E+01
 0.1187023923307E+01
 0.1223227717961E+01
 0.1249858051467E+01
 0.1267239016915E+01
 0.1275497794076E+01
 0.1274525991034E+01
 0.1263972667679E+01
 0.1243271161298E+01
 0.1211686645201E+01
 0.1168365709357E+01
 0.1112361958601E+01
 0.3137597539617E+00
 0.4656149281974E+00
 0.6009905686679E+00
 0.7204978085562E+00
 0.8250739756676E+00
 0.9156693860381E+00
 0.9931881771396E+00
 0.1058464090406E+01
 0.1112247503070E+01
 0.1155200251582E+01
 0.1187887868564E+01
 0.1210757103189E+01
 0.1224110578983E+01
 0.1228068216611E+01
 0.1222519550535E+01
 0.1207116777878E+01
 0.1181310591090E+01
 0.1144414170586E+01
 0.1095674927635E+01
 0.1034331732731E+01
 0.3226196246518E+00
 0.4658238996928E+00
 0.5946342040569E+00
 0.7090398136223E+00
 0.8094577027361E+00
 0.8964585460628E+00
 0.9706788237055E+00
 0.1032765458040E+01
 0.1083339082951E+01
 0.1122973166348E+01
 0.1152176001794E+01
 0.1171360024971E+01
 0.1180814758933E+01
 0.1180662816628E+01
 0.1170800206832E+01
 0.1150888972715E+01
 0.1120404018957E+01
 0.1078718355027E+01
 0.1025204473531E+01
 0.9593363205830E+00
 0.3320631249219E+00
 0.4664362606703E+00
 0.5885426872162E+00
 0.6977273156478E+00
 0.7938809707514E+00
 0.8771944756179E+00
 0.9480399911392E+00
 0.1006882871995E+01
 0.1054220076785E+01
 0.1090543157016E+01
 0.1116309938502E+01
 0.1131905333972E+01
 0.1137614724839E+01
 0.1133574441538E+01
 0.1119695904845E+01
 0.1095656970456E+01
 0.1060961787080E+01
 0.1015053002865E+01
 0.9574518205985E+00
 0.8879235176342E+00
 0.3420572594518E+00
 0.4674882348802E+00
 0.5828009054093E+00
 0.6866778446320E+00
 0.7784822419706E+00
 0.8580290452290E+00
 0.9254330568861E+00
 0.9809861128380E+00
 0.1025069468175E+01
 0.1058100332039E+01
 0.1080493367518E+01
 0.1092612696192E+01
 0.1094749025114E+01
 0.1087064769675E+01
 0.1069496154427E+01
 0.1041741411917E+01
 0.1003335206675E+01
 0.9537942888374E+00
 0.8928069629210E+00
 0.8204895114119E+00
 0.3525685385644E+00
 0.4690160976218E+00
 0.5774943358192E+00
 0.6760095799029E+00
 0.7633998763259E+00
 0.8391125193024E+00
 0.9030157483691E+00
 0.9552388956405E+00
 0.9960574247920E+00
 0.1025822797974E+01
 0.1044914123259E+01
 0.1053680932998E+01
 0.1052429058313E+01
 0.1041361178218E+01
 0.1020448665677E+01
 0.9894130831766E+00
 0.9478150859295E+00
 0.8952405488741E+00
 0.8315526819741E+00
 0.7572790166972E+00
 0.3635634136357E+00
 0.4710561322659E+00
 0.5727089294640E+00
 0.6658411180807E+00
 0.7487716486536E+00
 0.8205927555423E+00
 0.8809410606638E+00
 0.9297975937825E+00
 0.9673439254419E+00
 0.9938752919431E+00
 0.1009742905567E+01
 0.1015286674646E+01
 0.1010837244493E+01
 0.9966541066967E+00
 0.9727562779373E+00
 0.9388908688009E+00
 0.8946327128580E+00
 0.8396169922284E+00
 0.7738712451874E+00
 0.6983929146908E+00
 0.3750086271904E+00
 0.4736446101403E+00
 0.5685312079773E+00
 0.6562915281737E+00
 0.7347344879738E+00
 0.8026145391832E+00
 0.8593562768064E+00
 0.9048100913198E+00
 0.9390775592014E+00
 0.9624080645350E+00
 0.9751324695539E+00
 0.9775838691364E+00
 0.9701262994552E+00
 0.9530952475770E+00
 0.9265738340630E+00
 0.8903394104445E+00
 0.8439622521563E+00
 0.7870860248654E+00
 0.7198592056478E+00
 0.6438022012316E+00
 0.3868713607345E+00
 0.4768177443465E+00
 0.5650487100192E+00
 0.6474808349432E+00
 0.7214244844984E+00
 0.7853189952500E+00
 0.8384020425477E+00
 0.8804147449316E+00
 0.9113944667185E+00
 0.9315558992243E+00
 0.9412170702513E+00
 0.9407040546247E+00
 0.9304201114637E+00
 0.9107972364246E+00
 0.8820048896965E+00
 0.8438641117811E+00
 0.7959217416760E+00
 0.7377618679072E+00
 0.6695563489807E+00
 0.5933797429370E+00
 0.3991188770121E+00
 0.4806115778473E+00
 0.5623510362324E+00
 0.6395312626749E+00
 0.7089771250142E+00
 0.7688429498234E+00
 0.8182114014316E+00
 0.8567395071831E+00
 0.8844174910245E+00
 0.9014372226767E+00
 0.9081119324914E+00
 0.9047569339840E+00
 0.8918164746480E+00
 0.8698373202219E+00
 0.8390993893702E+00
 0.7995015270432E+00
 0.7505652060751E+00
 0.6917267784611E+00
 0.6229880941508E+00
 0.5469503144308E+00
 0.4117170630520E+00
 0.4850613792551E+00
 0.5605327011455E+00
 0.6325695990077E+00
 0.6975277644329E+00
 0.7533177277576E+00
 0.7989087400333E+00
 0.8339012965762E+00
 0.8582556572063E+00
 0.8721533144942E+00
 0.8759123736704E+00
 0.8698304699723E+00
 0.8543899647931E+00
 0.8302667758957E+00
 0.7978622446429E+00
 0.7572003475950E+00
 0.7078557318456E+00
 0.6490303832858E+00
 0.5802306073409E+00
 0.5043468009259E+00
 0.4246249712587E+00
 0.4902027812240E+00
 0.5596987536673E+00
 0.6267333058994E+00
 0.6872102566823E+00
 0.7388669989100E+00
 0.7806086528961E+00
 0.8120058070268E+00
 0.8330042095604E+00
 0.8437878727985E+00
 0.8446925824700E+00
 0.8359893709721E+00
 0.8181934351711E+00
 0.7921195447383E+00
 0.7582844828359E+00
 0.7168354230689E+00
 0.6675569913208E+00
 0.6096555032626E+00
 0.5414872927299E+00
 0.4655583629058E+00
 0.4377824737203E+00
 0.4960617470982E+00
 0.5599981280780E+00
 0.6221718460792E+00
 0.6781513765281E+00
 0.7256045544448E+00
 0.7634147810558E+00
 0.7911473166811E+00
 0.8087465199552E+00
 0.8164071368275E+00
 0.8145040963601E+00
 0.8032725298389E+00
 0.7832540081842E+00
 0.7554185121909E+00
 0.7203635043517E+00
 0.6783244665539E+00
 0.6292255611540E+00
 0.5729650791656E+00
 0.5073860595123E+00
 0.4311661538188E+00
 0.4509759219271E+00
 0.5028269512365E+00
 0.5616562358610E+00
 0.6190277142070E+00
 0.6704646867468E+00
 0.7136319565590E+00
 0.7474201070150E+00
 0.7714067862370E+00
 0.7855549345856E+00
 0.7900697654232E+00
 0.7853677161221E+00
 0.7716860990991E+00
 0.7495753686409E+00
 0.7201564595426E+00
 0.6841227941605E+00
 0.6416575537207E+00
 0.5927316722766E+00
 0.5374124032283E+00
 0.4761934340479E+00
 0.4056864581666E+00
 0.9025410285817E+00
 0.3422195925275E+00
 0.7835579439231E-01
 0.1226203063861E-01
 0.2766749892357E-01
 0.5479127856613E-01
 0.7755410307504E-01
 0.9788876925981E-01
 0.1157393126059E+00
 0.1302966334450E+00
 0.1395545018751E+00
 0.1410585071924E+00
 0.1301821341193E+00
 0.1068242063794E+00
 0.7468018173256E-01
 0.3722793436876E-01
 0.6742828154336E-02
 0.3517559062444E-01
 0.6528607905774E-01
 0.1233544142916E+00
 0.9397233930624E+00
 0.6606794754359E+00
 0.2714427578389E+00
 0.1220891956624E+00
 0.5542401521753E-01
 0.1506913144192E-01
 0.1384440450927E-01
 0.3735438139836E-01
 0.5777680467603E-01
 0.7522215150836E-01
 0.8868796278204E-01
 0.9818635892485E-01
 0.9851743094669E-01
 0.8587355037292E-01
 0.6321250262685E-01
 0.3477187377159E-01
 0.7426160451731E-02
 0.1982060883302E-01
 0.4566651259113E-01
 0.8800038290647E-01
 0.8756713669844E+00
 0.7637619266793E+00
 0.4613947647898E+00
 0.2572687028261E+00
 0.1551632343920E+00
 0.9750218918294E-01
 0.5947118256380E-01
 0.3081939784240E-01
 0.6891604010556E-02
 0.1405875351358E-01
 0.3218010942955E-01
 0.4814611386378E-01
 0.5717383829156E-01
 0.5364895527329E-01
 0.3952192736040E-01
 0.1896502089061E-01
 0.3159599110550E-02
 0.2482151953920E-01
 0.5048267146027E-01
 0.1011026356550E+00
 0.8095080741465E+00
 0.7895807279482E+00
 0.5824231196890E+00
 0.3906542271312E+00
 0.2654999406873E+00
 0.1903087042888E+00
 0.1416478590838E+00
 0.1066026945992E+00
 0.7840158714940E-01
 0.5368620489187E-01
 0.3133420096088E-01
 0.1009092651835E-01
 0.6073639792986E-02
 0.9985684883188E-02
 0.2930540660267E-02
 0.1201886313396E-01
 0.3042060547374E-01
 0.5257964144982E-01
 0.8576104942820E-01
 0.1556751835832E+00
 0.7503837256866E+00
 0.7837910909518E+00
 0.6545566278095E+00
 0.4980028061272E+00
 0.3736281327572E+00
 0.2882404407827E+00
 0.2304817499256E+00
 0.1890888548286E+00
 0.1564745009898E+00
 0.1281661884298E+00
 0.1022170043913E+00
 0.7679978905579E-01
 0.5551776897202E-01
 0.4579529332927E-01
 0.4804298543987E-01
 0.5930665825542E-01
 0.7739711401185E-01
 0.1040719386806E+00
 0.1494271471068E+00
 0.2405995554047E+00
 0.6996327654613E+00
 0.7646887408154E+00
 0.6953092877487E+00
 0.5789814751723E+00
 0.4695411307301E+00
 0.3845280238998E+00
 0.3223376952233E+00
 0.2763945596451E+00
 0.2401802086412E+00
 0.2089707287830E+00
 0.1803523235895E+00
 0.1521071460048E+00
 0.1271768057554E+00
 0.1135071759776E+00
 0.1128813165993E+00
 0.1232216995764E+00
 0.1438129381878E+00
 0.1777898130966E+00
 0.2365767693055E+00
 0.3463276539246E+00
 0.6563346883086E+00
 0.7406201885788E+00
 0.7164582895729E+00
 0.6383373577996E+00
 0.5506053891809E+00
 0.4740905187446E+00
 0.4132620889977E+00
 0.3659917185869E+00
 0.3279787687174E+00
 0.2951516544455E+00
 0.2651080507587E+00
 0.2354997962137E+00
 0.2086780226192E+00
 0.1929553532346E+00
 0.1914926586889E+00
 0.2030911011195E+00
 0.2281759628068E+00
 0.2705545686341E+00
 0.3416360943732E+00
 0.4651177435257E+00
 0.6192108818011E+00
 0.7155763041971E+00
 0.7255555755866E+00
 0.6812919645156E+00
 0.6175316783168E+00
 0.5546492429156E+00
 0.5001954640892E+00
 0.4553022430752E+00
 0.4179729685214E+00
 0.3853269994447E+00
 0.3554117576929E+00
 0.3260503226453E+00
 0.2991358382607E+00
 0.2832226644123E+00
 0.2827551858824E+00
 0.2972691015158E+00
 0.3278701887902E+00
 0.3783592148328E+00
 0.4591947429524E+00
 0.5908645190300E+00
 0.5870497346211E+00
 0.6914595510775E+00
 0.7274156542487E+00
 0.7122432424707E+00
 0.6722783483327E+00
 0.6257546986005E+00
 0.5813463028288E+00
 0.5422078923042E+00
 0.5082391542011E+00
 0.4778651312546E+00
 0.4498441440261E+00
 0.4224269190790E+00
 0.3971997030745E+00
 0.3828350227094E+00
 0.3848681767540E+00
 0.4033497163505E+00
 0.4396202065483E+00
 0.4969740765612E+00
 0.5843782475657E+00
 0.7188568385979E+00
 0.5588200807526E+00
 0.6691075790363E+00
 0.7251021764568E+00
 0.7345897360206E+00
 0.7170312755471E+00
 0.6879292357919E+00
 0.6559229693372E+00
 0.6252206793585E+00
 0.5970764043654E+00
 0.5710802568575E+00
 0.5467711572587E+00
 0.5229823832650E+00
 0.5011224227870E+00
 0.4898413196351E+00
 0.4955001354608E+00
 0.5184340870549E+00
 0.5598703151498E+00
 0.6223070315784E+00
 0.7129859659034E+00
 0.8455366809241E+00
 0.5336792903935E+00
 0.6487974957634E+00
 0.7205492650510E+00
 0.7508507315054E+00
 0.7537867468430E+00
 0.7421005866049E+00
 0.7237773966118E+00
 0.7034089753297E+00
 0.6831071114232E+00
 0.6633782688411E+00
 0.6444783061029E+00
 0.6258707763626E+00
 0.6088715919465E+00
 0.6019455646891E+00
 0.6119724270644E+00
 0.6393776427276E+00
 0.6850554973420E+00
 0.7506034329149E+00
 0.8415168170719E+00
 0.9682862541019E+00
 0.5109525951197E+00
 0.6305087668647E+00
 0.7149517893932E+00
 0.7628429937176E+00
 0.7842105376206E+00
 0.7892840171971E+00
 0.7851129114001E+00
 0.7762487879789E+00
 0.7652695099748E+00
 0.7533336161089E+00
 0.7412799667112E+00
 0.7291673259874E+00
 0.7182590117400E+00
 0.7166568510996E+00
 0.7314408050604E+00
 0.7629927142354E+00
 0.8117829705080E+00
 0.8785458916957E+00
 0.9671401216597E+00
 0.1085247724098E+01
 0.4901065275058E+00
 0.6140662571108E+00
 0.7090140891898E+00
 0.7718418292153E+00
 0.8096185586472E+00
 0.8304212293916E+00
 0.8402859544100E+00
 0.8434793887639E+00
 0.8427631604199E+00
 0.8397131750327E+00
 0.8355943270994E+00
 0.8309738735872E+00
 0.8270677053793E+00
 0.8314365587887E+00
 0.8510581594701E+00
 0.8862053897178E+00
 0.9369457634310E+00
 0.1003288943957E+01
 0.1087636785990E+01
 0.1195173641003E+01
 0.4707238791819E+00
 0.5992203869454E+00
 0.7031117612754E+00
 0.7787114988419E+00
 0.8310062678332E+00
 0.8663102261001E+00
 0.8896855629436E+00
 0.9049919243587E+00
 0.9149854982470E+00
 0.9214709810233E+00
 0.9259883526123E+00
 0.9295020282705E+00
 0.9331642534700E+00
 0.9438320015137E+00
 0.9681148583838E+00
 0.1006174649691E+01
 0.1057786997233E+01
 0.1122447705794E+01
 0.1201319945141E+01
 0.1297303703287E+01
 0.4524819211716E+00
 0.5856926111651E+00
 0.6973992432569E+00
 0.7840067445701E+00
 0.8490945181126E+00
 0.8975849545213E+00
 0.9336677557971E+00
 0.9607538735080E+00
 0.9814773454029E+00
 0.9977311351750E+00
 0.1011200972424E+01
 0.1023132632812E+01
 0.1034590020932E+01
 0.1051591991732E+01
 0.1080160116427E+01
 0.1120387393695E+01
 0.1171932260165E+01
 0.1234051287996E+01
 0.1306933308125E+01
 0.1391261705004E+01
 0.4351336179741E+00
 0.5732007118015E+00
 0.6918829948369E+00
 0.7880517056076E+00
 0.8643786159789E+00
 0.9247214142115E+00
 0.9725258185158E+00
 0.1010763278861E+01
 0.1041882813780E+01
 0.1067768562907E+01
 0.1090151345224E+01
 0.1110452172998E+01
 0.1129625903724E+01
 0.1152759918187E+01
 0.1185111124485E+01
 0.1226749831915E+01
 0.1277416870298E+01
 0.1336471470030E+01
 0.1403518056257E+01
 0.1476960594538E+01
 0.4184907420292E+00
 0.5614710030163E+00
 0.6864728159110E+00
 0.7910026693804E+00
 0.8771764038003E+00
 0.9480577468184E+00
 0.1006483184253E+01
 0.1055025154905E+01
 0.1095923397603E+01
 0.1130992559662E+01
 0.1161937680423E+01
 0.1190267417762E+01
 0.1216824111228E+01
 0.1245728086449E+01
 0.1281345566945E+01
 0.1323706810193E+01
 0.1372754849585E+01
 0.1428364845766E+01
 0.1490222173652E+01
 0.1554497800579E+01
 0.4024057585291E+00
 0.5502425076875E+00
 0.6810189004699E+00
 0.7929022715007E+00
 0.8876748723432E+00
 0.9678219819029E+00
 0.1035700102057E+01
 0.1093542562175E+01
 0.1143384100319E+01
 0.1186935304632E+01
 0.1225832314258E+01
 0.1261603017935E+01
 0.1295001546881E+01
 0.1329228849870E+01
 0.1367709440414E+01
 0.1410381611819E+01
 0.1457190755311E+01
 0.1508703344421E+01
 0.1566065755315E+01
 0.1623949040372E+01
 0.3867533327087E+00
 0.5392551937582E+00
 0.6753528118635E+00
 0.7937294701784E+00
 0.8959768292289E+00
 0.9841647480263E+00
 0.1060287891304E+01
 0.1126316044792E+01
 0.1184105562326E+01
 0.1235249903349E+01
 0.1281279795135E+01
 0.1323694269448E+01
 0.1363210307826E+01
 0.1402250259789E+01
 0.1443371724900E+01
 0.1486410238739E+01
 0.1531127488531E+01
 0.1577642423308E+01
 0.1629461283556E+01
 0.1684962540934E+01
 0.3713487086921E+00
 0.5283143892737E+00
 0.6693215605421E+00
 0.7934491838397E+00
 0.9021579386148E+00
 0.9971910676459E+00
 0.1080322861232E+01
 0.1153349832873E+01
 0.1217976148685E+01
 0.1275698292370E+01
 0.1327934767041E+01
 0.1375994239819E+01
 0.1420700825402E+01
 0.1463975113798E+01
 0.1507574050788E+01
 0.1551398389620E+01
 0.1595083385724E+01
 0.1638126354297E+01
 0.1681494361016E+01
 0.1734367235824E+01
 0.4650436583303E+00
 0.5125622763843E+00
 0.5669613233955E+00
 0.6193624505977E+00
 0.6652852654199E+00
 0.7025812608707E+00
 0.7303018039741E+00
 0.7481885898362E+00
 0.7563770977777E+00
 0.7552068683020E+00
 0.7451932752205E+00
 0.7269482555808E+00
 0.7010624033128E+00
 0.6688085416118E+00
 0.6313905934851E+00
 0.5887900965521E+00
 0.5409174321021E+00
 0.4878261959974E+00
 0.4315225509349E+00
 0.3805361413086E+00
 0.4807404657150E+00
 0.5247760504670E+00
 0.5755018205432E+00
 0.6228385072889E+00
 0.6622391532820E+00
 0.6919224730768E+00
 0.7113738809853E+00
 0.7207377718732E+00
 0.7205123808813E+00
 0.7113498769489E+00
 0.6940652415559E+00
 0.6696140051571E+00
 0.6387632810399E+00
 0.6030326602294E+00
 0.5640161951770E+00
 0.5216811927542E+00
 0.4760302283953E+00
 0.4273290001949E+00
 0.3790255180710E+00
 0.3285543705131E+00
 0.4969273786851E+00
 0.5382253586944E+00
 0.5857599108312E+00
 0.6281149799150E+00
 0.6606903728432E+00
 0.6822499440273E+00
 0.6929011640366E+00
 0.6933300111171E+00
 0.6844753505487E+00
 0.6673474707677E+00
 0.6430615671003E+00
 0.6127433453231E+00
 0.5772986411757E+00
 0.5386215568755E+00
 0.4986343844899E+00
 0.4573004450093E+00
 0.4145955514416E+00
 0.3708532374519E+00
 0.3266454377766E+00
 0.2754943460144E+00
 0.5137047548945E+00
 0.5532675220659E+00
 0.5980622717358E+00
 0.6352975553704E+00
 0.6605198056858E+00
 0.6732851097752E+00
 0.6745250683568E+00
 0.6656001526956E+00
 0.6479579220054E+00
 0.6229755984621E+00
 0.5920227812919E+00
 0.5563194993661E+00
 0.5168889145553E+00
 0.4759913231383E+00
 0.4357649451883E+00
 0.3960204852456E+00
 0.3564650899883E+00
 0.3164926645909E+00
 0.2748923846698E+00
 0.2266766569302E+00
 0.5312725141014E+00
 0.5702423635057E+00
 0.6126637979532E+00
 0.6443879704968E+00
 0.6614590956180E+00
 0.6645708790631E+00
 0.6557060481246E+00
 0.6370227286388E+00
 0.6105183291722E+00
 0.5779134871766E+00
 0.5407737611469E+00
 0.5003404836557E+00
 0.4577084332050E+00
 0.4154367277511E+00
 0.3756957767330E+00
 0.3379731496798E+00
 0.3014602880219E+00
 0.2648136446428E+00
 0.2263889424391E+00
 0.1830896184686E+00
 0.5498915322655E+00
 0.5895303141641E+00
 0.6297488718831E+00
 0.6552318792456E+00
 0.6630384235035E+00
 0.6554393370608E+00
 0.6357148775876E+00
 0.6069230882494E+00
 0.5716147331329E+00
 0.5317929299341E+00
 0.4891313056432E+00
 0.4448019613941E+00
 0.3999020062884E+00
 0.3571874672741E+00
 0.3186756017839E+00
 0.2834100052239E+00
 0.2500999131921E+00
 0.2170027744305E+00
 0.1825177499871E+00
 0.1450070690229E+00
 0.5698963095389E+00
 0.6115433659882E+00
 0.6494078544265E+00
 0.6674707395695E+00
 0.6645372658465E+00
 0.6449825367638E+00
 0.6136300522972E+00
 0.5744997711974E+00
 0.5306446453951E+00
 0.4842374922069E+00
 0.4369338314019E+00
 0.3897226244263E+00
 0.3436207916262E+00
 0.3014754118092E+00
 0.2649944911962E+00
 0.2327429724791E+00
 0.2030366030086E+00
 0.1739302357440E+00
 0.1439911461828E+00
 0.1124540177286E+00
 0.5917108624774E+00
 0.6367153913528E+00
 0.6715887909436E+00
 0.6804795184609E+00
 0.6649323663570E+00
 0.6320283608336E+00
 0.5883469632137E+00
 0.5388610705834E+00
 0.4869954197051E+00
 0.4349134792952E+00
 0.3840838594394E+00
 0.3351786415491E+00
 0.2890532932464E+00
 0.2485519714274E+00
 0.2149587239421E+00
 0.1863658018724E+00
 0.1607668177778E+00
 0.1361125103352E+00
 0.1111047415965E+00
 0.8538298853097E-01
 0.6158696574857E+00
 0.6654822901827E+00
 0.6960273338719E+00
 0.6932840746209E+00
 0.6628394412158E+00
 0.6151249586983E+00
 0.5586057615733E+00
 0.4990831230264E+00
 0.4401134125576E+00
 0.3835934869061E+00
 0.3305965908780E+00
 0.2813360012395E+00
 0.2364402580932E+00
 0.1986778477426E+00
 0.1688340455137E+00
 0.1445582681601E+00
 0.1235742589235E+00
 0.1037704039967E+00
 0.8390645404230E-01
 0.6370350368314E-01
 0.6430434257562E+00
 0.6982466334146E+00
 0.7221445961682E+00
 0.7044526031883E+00
 0.6564495146028E+00
 0.5925420781852E+00
 0.5230495813460E+00
 0.4542993236838E+00
 0.3895957337527E+00
 0.3302303082874E+00
 0.2766480651364E+00
 0.2284746170102E+00
 0.1860782408652E+00
 0.1521071770195E+00
 0.1268157770626E+00
 0.1074629716007E+00
 0.9154476370629E-01
 0.7690400209971E-01
 0.6228336825496E-01
 0.4727871424301E-01
 0.6740708149896E+00
 0.7353156595561E+00
 0.7488964793181E+00
 0.7119528920676E+00
 0.6434664762270E+00
 0.5623065467113E+00
 0.4803314577810E+00
 0.4038317471596E+00
 0.3353048748590E+00
 0.2750340150322E+00
 0.2226137484591E+00
 0.1769989538499E+00
 0.1383138672391E+00
 0.1090762490293E+00
 0.8902248651588E-01
 0.7509565364325E-01
 0.6460359852553E-01
 0.5535193913738E-01
 0.4600861278667E-01
 0.3591827458370E-01
 0.7099960285329E+00
 0.7767922453140E+00
 0.7745467264008E+00
 0.7129665846532E+00
 0.6210639200394E+00
 0.5223040996798E+00
 0.4292963750423E+00
 0.3473730848913E+00
 0.2774981894444E+00
 0.2185369123248E+00
 0.1690842363071E+00
 0.1274282962432E+00
 0.9352831136311E-01
 0.6979606983810E-01
 0.5550350276385E-01
 0.4736954698092E-01
 0.4255425126363E-01
 0.3883579751261E-01
 0.3477283292295E-01
 0.2939233133803E-01
 0.7521102816463E+00
 0.8223796696574E+00
 0.7963177510324E+00
 0.7036569357887E+00
 0.5859051619617E+00
 0.4705045084351E+00
 0.3692708458567E+00
 0.2852158349099E+00
 0.2169469159828E+00
 0.1616196921717E+00
 0.1168414857817E+00
 0.8036144499015E-01
 0.5211491959890E-01
 0.3445676053900E-01
 0.2626707304921E-01
 0.2413044683084E-01
 0.2511326390218E-01
 0.2699644328501E-01
 0.2821883444937E-01
 0.2746610939279E-01
 0.8019876477226E+00
 0.8710218484497E+00
 0.8098428851406E+00
 0.6789088303390E+00
 0.5343256901794E+00
 0.4054016195733E+00
 0.3004844853872E+00
 0.2184909618807E+00
 0.1549915627414E+00
 0.1054623944283E+00
 0.6678388318772E-01
 0.3642514831664E-01
 0.1452696616139E-01
 0.3889720501439E-02
 0.2541792733434E-02
 0.5345115367840E-02
 0.1194024205951E-01
 0.1943350854877E-01
 0.2597069112437E-01
 0.2988286689262E-01
 0.8614853837553E+00
 0.9202124283485E+00
 0.8082947556764E+00
 0.6321365363696E+00
 0.4628893066098E+00
 0.3267972989260E+00
 0.2245874021302E+00
 0.1493093007283E+00
 0.9344814103062E-01
 0.5139414797539E-01
 0.1982601702398E-01
 0.4410916894511E-02
 0.1951220510443E-01
 0.2432138743554E-01
 0.2008580277533E-01
 0.1011142317622E-01
 0.2664028027686E-02
 0.1574860940694E-01
 0.2760676601705E-01
 0.3628635794024E-01
 0.9326073645694E+00
 0.9645930808586E+00
 0.7810013055493E+00
 0.5554804310323E+00
 0.3697649942822E+00
 0.2369967674439E+00
 0.1450623070786E+00
 0.8057531695179E-01
 0.3430474680039E-01
 0.1113572793715E-02
 0.2347742068038E-01
 0.4021047424759E-01
 0.4891582483401E-01
 0.4729948914232E-01
 0.3700823634039E-01
 0.2122356895467E-01
 0.3101983643531E-02
 0.1552527896679E-01
 0.3260081834944E-01
 0.4622258107793E-01
 0.1016955055211E+01
 0.9928566499338E+00
 0.7113531017002E+00
 0.4415031497011E+00
 0.2575833842691E+00
 0.1421941672634E+00
 0.6679203485878E-01
 0.1533641119778E-01
 0.2071418461495E-01
 0.4586756075067E-01
 0.6237330116218E-01
 0.7208345196308E-01
 0.7400640814807E-01
 0.6605921943227E-01
 0.4994568491726E-01
 0.2872076881850E-01
 0.5738189488418E-02
 0.1823011565073E-01
 0.4032369540145E-01
 0.5918932840202E-01
 0.1113223981338E+01
 0.9801388387970E+00
 0.5746120176271E+00
 0.2893428920378E+00
 0.1389517748562E+00
 0.5115119148572E-01
 0.5724312701352E-02
 0.4406159804043E-01
 0.7048601884086E-01
 0.8766264851379E-01
 0.9689035070902E-01
 0.9958084004394E-01
 0.9461656746919E-01
 0.8041244886732E-01
 0.5872001113177E-01
 0.3253151261477E-01
 0.5716746479421E-02
 0.2325044997369E-01
 0.5004425571011E-01
 0.7462785233030E-01
 0.1209781009588E+01
 0.8645212616042E+00
 0.3419286981793E+00
 0.1298897412442E+00
 0.3092109762268E-01
 0.2932282441625E-01
 0.6896873819026E-01
 0.9633492404183E-01
 0.1145715671026E+00
 0.1248164674774E+00
 0.1272726462289E+00
 0.1228701934154E+00
 0.1105874978166E+00
 0.8997460683252E-01
 0.6293032097186E-01
 0.3244867838871E-01
 0.4481581534747E-02
 0.3003486541323E-01
 0.6081671470167E-01
 0.9183707562736E-01
 0.1176261749489E+01
 0.4597282350363E+00
 0.9664686380024E-01
 0.3691353424789E-02
 0.5822359534040E-01
 0.9558892372753E-01
 0.1223990708647E+00
 0.1413168868815E+00
 0.1530116342733E+00
 0.1576315506273E+00
 0.1545995377808E+00
 0.1425834997212E+00
 0.1213132799004E+00
 0.9374490201924E-01
 0.6191591709909E-01
 0.2818532888317E-01
 0.7847769518366E-02
 0.3861486448076E-01
 0.7125932775051E-01
 0.1094113039428E+00
 0.1793143784342E+01
 0.1751065780080E+01
 0.1701347473937E+01
 0.1645506418955E+01
 0.1582230753591E+01
 0.1511184908255E+01
 0.1432232172090E+01
 0.1345369202811E+01
 0.1250680548647E+01
 0.1148349701222E+01
 0.1038694799252E+01
 0.9222340976829E+00
 0.7997948567785E+00
 0.6726933896715E+00
 0.5430349000658E+00
 0.4142241006657E+00
 0.2918564453143E+00
 0.1854293606053E+00
 0.1117594921661E+00
 0.1071384876378E+00
 0.1859149583658E+01
 0.1834745895231E+01
 0.1796346003331E+01
 0.1749466390653E+01
 0.1695480812220E+01
 0.1634275185545E+01
 0.1565571509796E+01
 0.1489095613401E+01
 0.1404646999395E+01
 0.1312122743314E+01
 0.1211549256733E+01
 0.1103135335322E+01
 0.9873618346285E+00
 0.8651298357762E+00
 0.7380056798653E+00
 0.6086329180980E+00
 0.4814606194213E+00
 0.3640826932445E+00
 0.2703534879756E+00
 0.2275436948350E+00
 0.1920347988108E+01
 0.1903741868874E+01
 0.1877893729250E+01
 0.1842485149355E+01
 0.1799146458535E+01
 0.1748430232663E+01
 0.1690334247949E+01
 0.1624664119844E+01
 0.1551187489449E+01
 0.1469718904496E+01
 0.1380175536384E+01
 0.1282632235394E+01
 0.1177391392666E+01
 0.1065081306430E+01
 0.9467983665639E+00
 0.8243150445093E+00
 0.7003723459970E+00
 0.5791024152155E+00
 0.4662869182483E+00
 0.3682503644112E+00
 0.1975861678313E+01
 0.1965486808638E+01
 0.1948427904813E+01
 0.1923387802590E+01
 0.1890464815175E+01
 0.1850038516390E+01
 0.1802187658304E+01
 0.1746776729733E+01
 0.1683569275193E+01
 0.1612308463984E+01
 0.1532772871697E+01
 0.1444816843859E+01
 0.1348402474093E+01
 0.1243623766570E+01
 0.1130715137023E+01
 0.1010017408737E+01
 0.8818359089871E+00
 0.7459713804833E+00
 0.6003536018696E+00
 0.4365779139274E+00
 0.2023684063237E+01
 0.2019039120373E+01
 0.2009093842560E+01
 0.1992459343310E+01
 0.1968617685746E+01
 0.1937430836845E+01
 0.1898789882106E+01
 0.1852469291001E+01
 0.1798139101364E+01
 0.1735399853515E+01
 0.1663809271879E+01
 0.1582891487509E+01
 0.1492122821099E+01
 0.1390883813285E+01
 0.1278355885731E+01
 0.1153320821542E+01
 0.1013776427252E+01
 0.8562169503207E+00
 0.6743040671189E+00
 0.4572679414844E+00
 0.2062876127845E+01
 0.2063494280007E+01
 0.2059501579650E+01
 0.2049718249546E+01
 0.2033358679361E+01
 0.2009938093879E+01
 0.1979064661828E+01
 0.1940312643680E+01
 0.1893168513218E+01
 0.1837019185480E+01
 0.1771143814859E+01
 0.1694691092248E+01
 0.1606629098979E+01
 0.1505653081410E+01
 0.1390030098691E+01
 0.1257348540689E+01
 0.1104133137610E+01
 0.9253005665810E+00
 0.7136456260515E+00
 0.4605577502915E+00
 0.2092885160077E+01
 0.2098151909345E+01
 0.2099160807630E+01
 0.2094914213078E+01
 0.2084542834195E+01
 0.2067333128331E+01
 0.2042642326994E+01
 0.2009806195268E+01
 0.1968078442306E+01
 0.1916592339223E+01
 0.1854328347815E+01
 0.1780071154200E+01
 0.1692343367099E+01
 0.1589303844595E+01
 0.1468598016101E+01
 0.1327149732880E+01
 0.1160897383526E+01
 0.9645369948258E+00
 0.7315135978932E+00
 0.4553318418015E+00
 0.2113432091715E+01
 0.2122607714222E+01
 0.2127717441355E+01
 0.2127869734294E+01
 0.2122159689240E+01
 0.2109724172307E+01
 0.2089712913884E+01
 0.2061233585035E+01
 0.2023299561633E+01
 0.1974786541570E+01
 0.1914391419192E+01
 0.1840584592657E+01
 0.1751547359896E+01
 0.1645088174270E+01
 0.1518535118411E+01
 0.1368609896955E+01
 0.1191309012824E+01
 0.9818635569981E+00
 0.7350032393222E+00
 0.4468640044717E+00
 0.2124386691313E+01
 0.2136636487608E+01
 0.2144953548442E+01
 0.2148481327571E+01
 0.2146284785012E+01
 0.2137392885393E+01
 0.2120791813571E+01
 0.2095392859252E+01
 0.2059993737233E+01
 0.2013240582817E+01
 0.1953590538860E+01
 0.1879271604621E+01
 0.1788236671955E+01
 0.1678111005868E+01
 0.1546137247319E+01
 0.1389131255275E+01
 0.1203479886369E+01
 0.9852589491802E+00
 0.7307511930593E+00
 0.4395314315836E+00
 0.2125716568823E+01
 0.2140137207329E+01
 0.2150747963101E+01
 0.2156684859731E+01
 0.2156980535277E+01
 0.2150584490700E+01
 0.2136360446350E+01
 0.2113066768212E+01
 0.2079329561615E+01
 0.2033614487049E+01
 0.1974199498568E+01
 0.1899148896041E+01
 0.1806289291414E+01
 0.1693190302095E+01
 0.1557157294960E+01
 0.1395251768332E+01
 0.1204373250295E+01
 0.9814933037704E+00
 0.7244245891937E+00
 0.4357285155497E+00
 0.2117488984751E+01
 0.2133162477428E+01
 0.2145149352707E+01
 0.2152569270374E+01
 0.2154428365138E+01
 0.2149622713157E+01
 0.2136933578414E+01
 0.2115013833371E+01
 0.2082369929581E+01
 0.2037343676835E+01
 0.1978096801755E+01
 0.1902600507195E+01
 0.1808632660627E+01
 0.1693786995910E+01
 0.1555502330987E+01
 0.1391127257313E+01
 0.1198054696949E+01
 0.9740284059484E+00
 0.7180409442927E+00
 0.4346134558907E+00
 0.2099852505810E+01
 0.2115873595859E+01
 0.2128331673174E+01
 0.2136342763051E+01
 0.2138903219730E+01
 0.2134884400093E+01
 0.2123025123087E+01
 0.2101920742796E+01
 0.2070010995608E+01
 0.2025569737383E+01
 0.1966699619243E+01
 0.1891334694330E+01
 0.1797254376280E+01
 0.1682113398024E+01
 0.1543495113859E+01
 0.1379001929259E+01
 0.1186415665052E+01
 0.9640291222406E+00
 0.7115756149178E+00
 0.4346416115672E+00
 0.2073032452395E+01
 0.2088515385495E+01
 0.2100559080459E+01
 0.2108297557773E+01
 0.2110741732008E+01
 0.2106770169965E+01
 0.2095119633212E+01
 0.2074375053951E+01
 0.2042960535632E+01
 0.1999133943618E+01
 0.1940988061345E+01
 0.1866461550198E+01
 0.1773363340342E+01
 0.1659414852089E+01
 0.1522316300823E+01
 0.1359848721144E+01
 0.1170041060853E+01
 0.9514993448371E+00
 0.7043274625813E+00
 0.4345421840535E+00
 0.2037330709216E+01
 0.2051409532691E+01
 0.2062171913716E+01
 0.2068793611068E+01
 0.2070327577028E+01
 0.2065693118100E+01
 0.2053665144729E+01
 0.2032863881082E+01
 0.2001746535618E+01
 0.1958603244406E+01
 0.1901560156691E+01
 0.1828592975134E+01
 0.1737554686504E+01
 0.1626221776729E+01
 0.1492364536001E+01
 0.1333851486180E+01
 0.1148814405512E+01
 0.9359674728967E+00
 0.6955067903826E+00
 0.4334340738589E+00
 0.1993127099596E+01
 0.2004956313124E+01
 0.2013586893142E+01
 0.2018258851546E+01
 0.2018094363667E+01
 0.2012086389871E+01
 0.1999086908007E+01
 0.1977795433060E+01
 0.1946749209868E+01
 0.1904317131158E+01
 0.1848700060748E+01
 0.1777940873155E+01
 0.1689948180315E+01
 0.1582538471021E+01
 0.1453502702424E+01
 0.1300707387186E+01
 0.1122255634307E+01
 0.9167984687395E+00
 0.6844094994684E+00
 0.4307361371525E+00
 0.1940881726182E+01
 0.1949639764044E+01
 0.1955304607365E+01
 0.1957199763728E+01
 0.1954540976278E+01
 0.1946424987118E+01
 0.1931817005818E+01
 0.1909537502133E+01
 0.1878249384352E+01
 0.1836447165512E+01
 0.1782450381037E+01
 0.1714404370576E+01
 0.1630292639538E+01
 0.1527966458429E+01
 0.1405199469941E+01
 0.1259779577798E+01
 0.1089665092429E+01
 0.8932926195251E+00
 0.6704259820532E+00
 0.4260648865991E+00
 0.1881138701953E+01
 0.1886035500608E+01
 0.1887922008025E+01
 0.1886219587649E+01
 0.1880256978675E+01
 0.1869259918676E+01
 0.1852338405733E+01
 0.1828471886720E+01
 0.1796492873893E+01
 0.1755069857260E+01
 0.1702690980662E+01
 0.1637650926099E+01
 0.1558045019051E+01
 0.1461777021229E+01
 0.1346590866990E+01
 0.1210142993763E+01
 0.1050147170564E+01
 0.8646789836406E+00
 0.6529989798609E+00
 0.4191647074971E+00
 0.1814530958082E+01
 0.1814820771272E+01
 0.1812148998457E+01
 0.1806043041362E+01
 0.1795957326615E+01
 0.1781264711742E+01
 0.1761244576053E+01
 0.1735067403018E+01
 0.1701775601959E+01
 0.1660260438847E+01
 0.1609235296983E+01
 0.1547206302304E+01
 0.1472443037113E+01
 0.1382955286951E+01
 0.1276487573993E+01
 0.1150553291129E+01
 0.1002548928435E+01
 0.8300412099019E+00
 0.6315578121502E+00
 0.4098675536515E+00
 0.1741784942273E+01
 0.1736784954364E+01
 0.1728826641567E+01
 0.1717544561122E+01
 0.1702523261118E+01
 0.1683291552322E+01
 0.1659313002671E+01
 0.1629971794530E+01
 0.1594552936960E+01
 0.1552215612043E+01
 0.1501958288656E+01
 0.1442574449689E+01
 0.1372598836952E+01
 0.1290247007026E+01
 0.1193357560878E+01
 0.1079360292919E+01
 0.9453206170071E+00
 0.7881668727529E+00
 0.6054141023514E+00
 0.3980766395675E+00
 0.1663724702395E+01
 0.1652839647521E+01
 0.1638945749644E+01
 0.1621778680720E+01
 0.1601048079671E+01
 0.1576436310378E+01
 0.1547593229678E+01
 0.1514125754213E+01
 0.1475580800629E+01
 0.1431419466223E+01
 0.1380979523526E+01
 0.1323422514488E+01
 0.1257661283821E+01
 0.1182264542548E+01
 0.1095339228968E+01
 0.9944040794245E+00
 0.8763023826223E+00
 0.7372807595016E+00
 0.5735507757963E+00
 0.3837384880618E+00
 0.1581270750686E+01
 0.1564021393811E+01
 0.1543657540909E+01
 0.1520002293176E+01
 0.1492875375127E+01
 0.1462098070948E+01
 0.1427493671622E+01
 0.1388883126642E+01
 0.1346074454752E+01
 0.1298843407366E+01
 0.1246901485611E+01
 0.1189845568181E+01
 0.1127081002346E+01
 0.1057707193465E+01
 0.9803524896449E+00
 0.8929479108410E+00
 0.7924497790755E+00
 0.6746156050573E+00
 0.5341992111830E+00
 0.3667329461044E+00
 0.1495427015472E+01
 0.1471479736050E+01
 0.1444265783633E+01
 0.1413673904845E+01
 0.1379610473193E+01
 0.1342009759171E+01
 0.1300840510359E+01
 0.1256109121064E+01
 0.1207858485042E+01
 0.1156160420776E+01
 0.1101097956677E+01
 0.1042731347498E+01
 0.9810378869470E+00
 0.9158094610969E+00
 0.8464820888478E+00
 0.7718570723383E+00
 0.6896585052691E+00
 0.5958789511113E+00
 0.4841594062093E+00
 0.3464757135414E+00
 0.1407274652123E+01
 0.1376476440351E+01
 0.1342230317608E+01
 0.1304465891241E+01
 0.1263148216249E+01
 0.1218291397132E+01
 0.1169970237434E+01
 0.1118330648214E+01
 0.1063598774478E+01
 0.1006087926509E+01
 0.9462011656764E+00
 0.8844253628907E+00
 0.8213089474948E+00
 0.7574088776159E+00
 0.6931794113527E+00
 0.6287493805120E+00
 0.5634805717468E+00
 0.4950923376253E+00
 0.4179166019110E+00
 0.3209101128722E+00
 0.1317951737646E+01
 0.1280364229018E+01
 0.1239146747673E+01
 0.1194248601164E+01
 0.1145667796794E+01
 0.1093465661062E+01
 0.1037781237526E+01
 0.9788466279922E+00
 0.9170042234846E+00
 0.8527265468070E+00
 0.7866390681686E+00
 0.7195456531578E+00
 0.6524547916149E+00
 0.5866013567151E+00
 0.5234507689267E+00
 0.4646534945901E+00
 0.4118684657529E+00
 0.3662352937828E+00
 0.3267735204989E+00
 0.2849224450778E+00
 0.1228623077211E+01
 0.1184548022381E+01
 0.1136699547350E+01
 0.1085035421872E+01
 0.1029571498556E+01
 0.9703952108327E+00
 0.9076800471824E+00
 0.8417023499787E+00
 0.7728621936472E+00
 0.7017105521018E+00
 0.6289855909552E+00
 0.5556618769798E+00
 0.4830177210045E+00
 0.4127278002075E+00
 0.3469904386091E+00
 0.2887008762501E+00
 0.2416867810889E+00
 0.2110389592994E+00
 0.2036517485110E+00
 0.2271808894080E+00
 0.1140440098146E+01
 0.1090429298848E+01
 0.1036587155798E+01
 0.9788839463309E+00
 0.9173567836481E+00
 0.8521214556890E+00
 0.7833857719609E+00
 0.7114657045007E+00
 0.6368066834658E+00
 0.5600133824991E+00
 0.4818927384984E+00
 0.4035174538177E+00
 0.3263217964007E+00
 0.2522496806057E+00
 0.1839879566600E+00
 0.1253237486742E+00
 0.8154779200348E-01
 0.5944717389839E-01
 0.7095372588169E-01
 0.1479962079783E+00
 0.1054490195780E+01
 0.9993317668369E+00
 0.9404150048449E+00
 0.8777429698547E+00
 0.8113982316012E+00
 0.7415553663152E+00
 0.6684949389362E+00
 0.5926205926129E+00
 0.5144826158776E+00
 0.4348127561584E+00
 0.3545774929074E+00
 0.2750629799664E+00
 0.1980229213634E+00
 0.1259969019888E+00
 0.6345912378474E-01
 0.2687886657185E-01
 0.4107578457633E-01
 0.4597354181317E-01
 0.1165805047725E-01
 0.1005903751697E+00
 0.9717398489029E+00
 0.9124140168560E+00
 0.8495634066567E+00
 0.7832519261083E+00
 0.7136415511925E+00
 0.6410091634997E+00
 0.5657634519775E+00
 0.4884649392646E+00
 0.4098543170406E+00
 0.3308959983084E+00
 0.2528487720078E+00
 0.1773954569316E+00
 0.1069762154112E+00
 0.4668619037035E-01
 0.2897877050467E-01
 0.5892007900397E-01
 0.7441393786387E-01
 0.6033570847601E-01
 0.4026602993419E-02
 0.1116039669302E+00
 0.8929851926704E+00
 0.8305952394822E+00
 0.7650781659273E+00
 0.6965797953237E+00
 0.6253666774869E+00
 0.5518491795053E+00
 0.4765998389775E+00
 0.4003732268969E+00
 0.3241350590165E+00
 0.2491100592910E+00
 0.1768694581746E+00
 0.1095484605169E+00
 0.5096534190877E-01
 0.2335505739203E-01
 0.5019846513729E-01
 0.6957874163160E-01
 0.6723861864655E-01
 0.3607899349405E-01
 0.3023991161620E-01
 0.1333630946139E+00
 0.8188233948372E+00
 0.7545202556544E+00
 0.6876304601532E+00
 0.6183841080733E+00
 0.5471581306505E+00
 0.4745040470325E+00
 0.4011614397068E+00
 0.3280698077997E+00
 0.2563901239264E+00
 0.1875486237924E+00
 0.1233400560760E+00
 0.6632996100765E-01
 0.2406043657160E-01
 0.3208071504493E-01
 0.5302746838509E-01
 0.5856073319668E-01
 0.4333377227710E-01
 0.4484413071536E-02
 0.6025361111917E-01
 0.1462231916855E+00
 0.7496457727825E+00
 0.6845616342785E+00
 0.6175326042289E+00
 0.5488513915612E+00
 0.4789924939512E+00
 0.4086371008667E+00
 0.3386701103846E+00
 0.2701739634417E+00
 0.2044346266540E+00
 0.1429745247721E+00
 0.8767060029610E-01
 0.4144750081179E-01
 0.1750970886879E-01
 0.3263293302625E-01
 0.4333676767991E-01
 0.3880043837405E-01
 0.1659599211685E-01
 0.2451624488662E-01
 0.8223852810772E-01
 0.1530433572127E+00
 0.6856485546491E+00
 0.6208468218865E+00
 0.5547823335490E+00
 0.4877674965265E+00
 0.4203547792539E+00
 0.3533380266603E+00
 0.2877159010419E+00
 0.2246581566927E+00
 0.1654917209209E+00
 0.1117193834333E+00
 0.6513992224001E-01
 0.2872593401246E-01
 0.1559262578749E-01
 0.2590486104686E-01
 0.2855794394857E-01
 0.1787118802772E-01
 0.8330630473929E-02
 0.4688261244191E-01
 0.9777184695421E-01
 0.1570529652634E+00
 0.6268609276891E+00
 0.5633018089367E+00
 0.4991130059964E+00
 0.4345833457859E+00
 0.3703387226587E+00
 0.3072802433891E+00
 0.2464930027788E+00
 0.1891795326942E+00
 0.1366287008300E+00
 0.9022154523180E-01
 0.5152661082709E-01
 0.2298324769555E-01
 0.1248349974749E-01
 0.1632820738031E-01
 0.1347328968125E-01
 0.4450069642221E-02
 0.2757878963148E-01
 0.6378847912726E-01
 0.1089184795491E+00
 0.1603878110153E+00
 0.5731936264113E+00
 0.5116980176309E+00
 0.4500340550850E+00
 0.3884651189152E+00
 0.3277289445741E+00
 0.2688538793795E+00
 0.2129932888779E+00
 0.1613331059251E+00
 0.1150572712515E+00
 0.7534912765831E-01
 0.4344269482795E-01
 0.2088961131464E-01
 0.1025386393013E-01
 0.8142206823983E-02
 0.5693357614625E-02
 0.1808792995965E-01
 0.4288140227674E-01
 0.7643306570119E-01
 0.1171853908232E+00
 0.1636954658919E+00
 0.5244976335866E+00
 0.4657142896302E+00
 0.4069241782403E+00
 0.3484524319296E+00
 0.2912559277135E+00
 0.2365302015377E+00
 0.1854725675277E+00
 0.1391956128450E+00
 0.9871647486682E-01
 0.6496814986717E-01
 0.3881001289136E-01
 0.2099796417613E-01
 0.1168654125234E-01
 0.9286603053347E-02
 0.1511694019356E-01
 0.3076027258283E-01
 0.5469200624325E-01
 0.8575054716953E-01
 0.1229677354982E+00
 0.1656011548495E+00
 0.4806425965581E+00
 0.4250222534872E+00
 0.3691186406055E+00
 0.3135905367799E+00
 0.2597882647007E+00
 0.2090911142334E+00
 0.1626702315796E+00
 0.1214811079726E+00
 0.8631298647629E-01
 0.5781935109305E-01
 0.3650783579962E-01
 0.2264097852936E-01
 0.1603820721332E-01
 0.1660195883404E-01
 0.2497577982479E-01
 0.4090385597329E-01
 0.6357248684267E-01
 0.9223303872745E-01
 0.1262346539762E+00
 0.1650559487321E+00
 0.4415197679899E+00
 0.3891510659560E+00
 0.3357298972817E+00
 0.2828012432038E+00
 0.2322708968467E+00
 0.1855828522902E+00
 0.1437165162393E+00
 0.1073671451866E+00
 0.7705304136106E-01
 0.5315535628840E-01
 0.3590364119612E-01
 0.2532575166014E-01
 0.2131004100383E-01
 0.2392369235948E-01
 0.3318901164451E-01
 0.4867255635066E-01
 0.6979300310127E-01
 0.9601700710893E-01
 0.1268624923094E+00
 0.1618551551856E+00
 0.4069707274356E+00
 0.3571696589775E+00
 0.3053906164945E+00
 0.2549031879887E+00
 0.2079216007254E+00
 0.1655120231075E+00
 0.1282585813515E+00
 0.9653893922911E-01
 0.7061909088672E-01
 0.5066855456944E-01
 0.3674182519798E-01
 0.2877628483539E-01
 0.2668217310248E-01
 0.3040409271832E-01
 0.3972636180090E-01
 0.5422381313739E-01
 0.7343486705860E-01
 0.9696657209577E-01
 0.1245044501828E+00
 0.1556821067631E+00
 0.3762985137935E+00
 0.3267420974745E+00
 0.2762665045653E+00
 0.2293161178275E+00
 0.1868818464001E+00
 0.1492573333608E+00
 0.1166391557795E+00
 0.8919945474218E-01
 0.6707459638133E-01
 0.5033405940167E-01
 0.3895966349124E-01
 0.3285923481875E-01
 0.3191227621049E-01
 0.3594988901765E-01
 0.4466955409665E-01
 0.5766184185656E-01
 0.7451016649337E-01
 0.9486238380287E-01
 0.1185704539215E+00
 0.1457700003873E+00
 0.3458584235608E+00
 0.2936014473837E+00
 0.2484891464146E+00
 0.2078666699206E+00
 0.1710707407274E+00
 0.1382651826453E+00
 0.1097497129204E+00
 0.8579234757347E-01
 0.6656660914716E-01
 0.5213635470574E-01
 0.4246244946332E-01
 0.3742839746540E-01
 0.3686294561029E-01
 0.4052087293749E-01
 0.4805476308092E-01
 0.5904093842914E-01
 0.7302774218975E-01
 0.8958191660019E-01
 0.1083399214851E+00
 0.1298590961818E+00
</DataArray>
<DataArray type="Float64" Name="OI" NumberOfComponents="1" ComponentName0="OI" format="ascii">
 0.6289152652553E+00
 0.5734393569166E+00
 0.5049068850743E+00
 0.4570406788905E+00
 0.4076329832428E+00
 0.3581148853628E+00
 0.3071747028821E+00
 0.2545978931919E+00
 0.2001014981140E+00
 0.1434613377548E+00
 0.8442640824307E-01
 0.2270552079228E-01
 0.4205739226035E-01
 0.1103066593091E+00
 0.1826053754149E+00
 0.2596940195761E+00
 0.3425816305434E+00
 0.4327587550189E+00
 0.5326863650704E+00
 0.6461481339827E+00
 0.7745369685923E+00
 0.9138426193328E+00
 0.1058120585625E+01
 0.1202824654393E+01
 0.1345404632013E+01
 0.1484620923406E+01
 0.1619688712981E+01
 0.1749638305703E+01
 0.1872762214159E+01
 0.1986044006517E+01
 0.2086794103010E+01
 0.2176657443138E+01
 0.2259738820211E+01
 0.2339129474022E+01
 0.2418302544605E+01
 0.2500711060945E+01
 0.2596277664761E+01
 0.2692122992628E+01
 0.2889770195339E+01
 0.2577012008205E+01
 0.5153220395865E+01
 0.4881561785552E+00
 0.4995874491805E+00
 0.4441374389789E+00
 0.3949581631673E+00
 0.3483150530587E+00
 0.3005655086621E+00
 0.2515250074446E+00
 0.2007151418533E+00
 0.1479177711594E+00
 0.9290882305879E-01
 0.3545557935963E-01
 0.2472169180717E-01
 0.8795568759200E-01
 0.1546759667574E+00
 0.2254225591330E+00
 0.3009008399861E+00
 0.3820621981047E+00
 0.4702398055739E+00
 0.5670837810962E+00
 0.6738625707192E+00
 0.7901815716753E+00
 0.9134932911180E+00
 0.1040246776942E+01
 0.1167262154291E+01
 0.1292249810397E+01
 0.1413619204068E+01
 0.1530050357128E+01
 0.1640069532782E+01
 0.1741822684099E+01
 0.1833435597160E+01
 0.1913665068873E+01
 0.1982050452804E+01
 0.2038575864271E+01
 0.2082845479318E+01
 0.2112660372362E+01
 0.2123693559784E+01
 0.2100945377588E+01
 0.2032466916755E+01
 0.1786094254696E+01
 0.1383675961794E+01
 0.4458893163305E+01
 0.3874346170513E+00
 0.4101355233250E+00
 0.3785908397568E+00
 0.3333219703327E+00
 0.2891565334956E+00
 0.2437428891123E+00
 0.1967003740983E+00
 0.1477872239015E+00
 0.9679103596974E-01
 0.4353021084062E-01
 0.1223849964220E-01
 0.7068781298354E-01
 0.1321920517497E+00
 0.1971281271477E+00
 0.2659901003432E+00
 0.3394101308600E+00
 0.4182027387914E+00
 0.5033335462104E+00
 0.5955382593353E+00
 0.6947541320733E+00
 0.7999204651203E+00
 0.9092219609379E+00
 0.1020466189853E+01
 0.1131440016890E+01
 0.1240174912646E+01
 0.1344968465829E+01
 0.1444222487247E+01
 0.1536252931155E+01
 0.1619346752360E+01
 0.1692137298565E+01
 0.1753488996628E+01
 0.1801757745786E+01
 0.1834704941441E+01
 0.1849226285603E+01
 0.1840181680878E+01
 0.1797748487945E+01
 0.1706864379494E+01
 0.1537650536247E+01
 0.1245894202921E+01
 0.1342796714863E+01
 0.4152769921679E+01
 0.3057494257522E+00
 0.3259218371899E+00
 0.3089224168344E+00
 0.2715647407961E+00
 0.2304840459998E+00
 0.1876248973803E+00
 0.1427607300233E+00
 0.9584415957394E-01
 0.4675677389071E-01
 0.4867142331656E-02
 0.5859292443907E-01
 0.1151897949890E+00
 0.1747690486040E+00
 0.2376722020472E+00
 0.3043261904378E+00
 0.3752554349637E+00
 0.4510675394660E+00
 0.5322876386699E+00
 0.6189452587851E+00
 0.7102924361157E+00
 0.8050457754735E+00
 0.9018198775916E+00
 0.9992040145843E+00
 0.1095643522133E+01
 0.1189485466871E+01
 0.1279061869524E+01
 0.1362692239754E+01
 0.1438680997659E+01
 0.1505479372891E+01
 0.1561869357330E+01
 0.1606531309886E+01
 0.1637174454888E+01
 0.1650456544144E+01
 0.1642047983074E+01
 0.1605735393697E+01
 0.1532611801463E+01
 0.1411821376559E+01
 0.1233827359290E+01
 0.1083502433466E+01
 0.1647130647222E+01
 0.3868699540908E+01
 0.2350461999279E+00
 0.2492369170389E+00
 0.2394688632574E+00
 0.2096181906227E+00
 0.1724643979457E+00
 0.1323071537421E+00
 0.8975445686335E-01
 0.4494280905642E-01
 0.3027797442378E-02
 0.5172443052403E-01
 0.1036475899149E+00
 0.1582351569289E+00
 0.2157041478518E+00
 0.2763382717755E+00
 0.3404799160273E+00
 0.4085181899380E+00
 0.4808184016311E+00
 0.5575001523419E+00
 0.6381130217508E+00
 0.7215764302008E+00
 0.8065745815161E+00
 0.8920010169430E+00
 0.9769101272009E+00
 0.1060193882049E+01
 0.1140484518759E+01
 0.1216236598955E+01
 0.1285823201240E+01
 0.1347644108269E+01
 0.1400289783494E+01
 0.1442570646965E+01
 0.1473017623300E+01
 0.1489106196021E+01
 0.1487246602112E+01
 0.1463095092835E+01
 0.1411523990420E+01
 0.1327572655880E+01
 0.1210576644463E+01
 0.1087503747973E+01
 0.1135213605960E+01
 0.1918260838538E+01
 0.3629595808839E+01
 0.1714952562674E+00
 0.1793073001391E+00
 0.1724010257643E+00
 0.1482975214773E+00
 0.1152225670955E+00
 0.7791851811519E-01
 0.3778415398953E-01
 0.5741610652371E-02
 0.5013952267076E-01
 0.9753460316628E-01
 0.1474004455922E+00
 0.1998425209055E+00
 0.2550294074928E+00
 0.3131765271215E+00
 0.3745290097444E+00
 0.4393251270464E+00
 0.5076894363602E+00
 0.5794140304640E+00
 0.6537481334162E+00
 0.7294735652279E+00
 0.8053259416449E+00
 0.8803950443561E+00
 0.9540249033493E+00
 0.1025417474664E+01
 0.1093456546400E+01
 0.1156769712848E+01
 0.1213868084759E+01
 0.1263302241623E+01
 0.1303795491241E+01
 0.1334193888897E+01
 0.1353017642863E+01
 0.1357861761666E+01
 0.1345520025296E+01
 0.1312619297815E+01
 0.1256515575583E+01
 0.1177926102874E+01
 0.1089937154788E+01
 0.1052881795769E+01
 0.1273797067550E+01
 0.2103230647758E+01
 0.3436846993805E+01
 0.1130165668119E+00
 0.1149903227144E+00
 0.1085153048727E+00
 0.8836201364969E-01
 0.5901728032420E-01
 0.2469287117043E-01
 0.1379457323152E-01
 0.5394895501895E-01
 0.9684726740671E-01
 0.1421565085532E+00
 0.1898665809790E+00
 0.2400411752445E+00
 0.2927907343624E+00
 0.3482556220269E+00
 0.4065767926326E+00
 0.4678399000539E+00
 0.5319545342582E+00
 0.5984698963400E+00
 0.6664642699913E+00
 0.7346909664796E+00
 0.8019736593622E+00
 0.8675511232063E+00
 0.9309593125060E+00
 0.9916252106679E+00
 0.1048655600494E+01
 0.1100877133904E+01
 0.1146987162545E+01
 0.1185719475579E+01
 0.1215947978513E+01
 0.1236617414258E+01
 0.1246398054234E+01
 0.1243288418636E+01
 0.1224920134513E+01
 0.1189543902071E+01
 0.1137744941060E+01
 0.1076766991864E+01
 0.1033233681131E+01
 0.1088413443997E+01
 0.1424916666260E+01
 0.2220343854390E+01
 0.3282893381700E+01
 0.5838185732203E-01
 0.5531452018737E-01
 0.4795318547609E-01
 0.3032444884135E-01
 0.5189155347837E-02
 0.2811061419541E-01
 0.6340615191116E-01
 0.1016546577082E+00
 0.1424397347910E+00
 0.1855960289333E+00
 0.2310696132428E+00
 0.2788704252469E+00
 0.3290466446210E+00
 0.3816603955902E+00
 0.4367477469845E+00
 0.4942513688604E+00
 0.5539031914466E+00
 0.6150852959459E+00
 0.6767945621709E+00
 0.7378173128950E+00
 0.7970806590282E+00
 0.8539451024178E+00
 0.9080845195159E+00
 0.9590995270632E+00
 0.1006297857581E+01
 0.1048716022208E+01
 0.1085263280899E+01
 0.1114879389005E+01
 0.1136620869346E+01
 0.1149610631592E+01
 0.1152814140742E+01
 0.1144844408715E+01
 0.1124464999704E+01
 0.1091904025582E+01
 0.1051279096862E+01
 0.1016269780891E+01
 0.1024002509034E+01
 0.1160385836214E+01
 0.1560124993563E+01
 0.2292302868268E+01
 0.3159192270301E+01
 0.7301177652340E-02
 0.4060955651009E-02
 0.9473471143533E-02
 0.2579979012241E-01
 0.4971476009889E-01
 0.7902724531882E-01
 0.1121620132649E+00
 0.1482652810426E+00
 0.1869072058032E+00
 0.2278684912223E+00
 0.2710409877160E+00
 0.3163787839040E+00
 0.3638667706627E+00
 0.4134892020804E+00
 0.4651821748719E+00
 0.5187625952409E+00
 0.5738248946684E+00
 0.6296463407203E+00
 0.6852031739685E+00
 0.7393495732441E+00
 0.7911219308860E+00
 0.8399869564717E+00
 0.8857273058824E+00
 0.9280868698103E+00
 0.9665578253003E+00
 0.1000388457751E+01
 0.1028712473559E+01
 0.1050693407467E+01
 0.1065606441240E+01
 0.1072827632412E+01
 0.1071732015691E+01
 0.1061688057944E+01
 0.1042751367015E+01
 0.1017263769799E+01
 0.9928283188950E+00
 0.9886067636482E+00
 0.1047306423441E+01
 0.1246222001015E+01
 0.1672781695817E+01
 0.2335710770613E+01
 0.3058759370588E+01
 0.4263372561287E-01
 0.5373050407654E-01
 0.6390983996280E-01
 0.7954399553401E-01
 0.1015844552511E+00
 0.1287603600009E+00
 0.1597623807610E+00
 0.1937522668638E+00
 0.2302540435260E+00
 0.2689964128649E+00
 0.3098195071704E+00
 0.3526230431734E+00
 0.3973302070548E+00
 0.4438509904608E+00
 0.4920308169301E+00
 0.5415820318222E+00
 0.5919997025840E+00
 0.6425052531783E+00
 0.6920951259853E+00
 0.7397110717799E+00
 0.7845004336305E+00
 0.8260275958688E+00
 0.8641689713977E+00
 0.8987941481669E+00
 0.9295673218828E+00
 0.9559455864903E+00
 0.9772920552012E+00
 0.9930079258521E+00
 0.1002619990388E+01
 0.1005818377574E+01
 0.1002468353802E+01
 0.9927747390279E+00
 0.9781453948876E+00
 0.9630127204179E+00
 0.9581024678848E+00
 0.9863700221209E+00
 0.1090787894635E+01
 0.1333284440304E+01
 0.1764189471845E+01
 0.2361405388875E+01
 0.2976380081756E+01
 0.8967316853284E-01
 0.1037684489913E+00
 0.1157238428069E+00
 0.1311818787248E+00
 0.1518328827665E+00
 0.1771515595869E+00
 0.2061634606628E+00
 0.2381076733432E+00
 0.2724929314139E+00
 0.3090090737045E+00
 0.3474507788518E+00
 0.3876672219925E+00
 0.4295237258496E+00
 0.4728623185797E+00
 0.5174499982624E+00
 0.5629170046507E+00
 0.6086928744164E+00
 0.6539806805616E+00
 0.6978243604472E+00
 0.7392642669988E+00
 0.7775585936349E+00
 0.8123649537262E+00
 0.8436463624670E+00
 0.8713880305614E+00
 0.8954165168230E+00
 0.9153921912727E+00
 0.9309079556034E+00
 0.9416125371139E+00
 0.9473104698479E+00
 0.9480501752698E+00
 0.9442375246144E+00
 0.9369478064589E+00
 0.9289274753367E+00
 0.9265407890864E+00
 0.9429756779580E+00
 0.1002866826283E+01
 0.1145256748261E+01
 0.1415503904819E+01
 0.1837880204198E+01
 0.2376232983550E+01
 0.2908251655233E+01
 0.1349597244907E+00
 0.1515505640911E+00
 0.1651617539497E+00
 0.1807651674134E+00
 0.2004202859897E+00
 0.2241628071858E+00
 0.2513489550038E+00
 0.2813352133513E+00
 0.3136442463494E+00
 0.3479422544246E+00
 0.3839865982469E+00
 0.4215814621188E+00
 0.4605399874816E+00
 0.5006445551854E+00
 0.5415976098787E+00
 0.5829691855302E+00
 0.6241520925653E+00
 0.6643592925117E+00
 0.7027003537166E+00
 0.7383201908156E+00
 0.7705869981366E+00
 0.7992494417505E+00
 0.8243541693884E+00
 0.8459961353898E+00
 0.8641563644719E+00
 0.8786916407657E+00
 0.8894220465599E+00
 0.8962496412875E+00
 0.8992749381303E+00
 0.8989333402853E+00
 0.8961972478855E+00
 0.8930106270750E+00
 0.8933827758945E+00
 0.9053203310917E+00
 0.9435777211649E+00
 0.1032394512410E+01
 0.1204495090369E+01
 0.1490513766181E+01
 0.1897537233469E+01
 0.2384497208034E+01
 0.2851584249379E+01
 0.1786889010243E+00
 0.1973454896469E+00
 0.2124706450214E+00
 0.2284109857029E+00
 0.2473726109498E+00
 0.2697923887389E+00
 0.2953208840759E+00
 0.3234492187335E+00
 0.3537358862097E+00
 0.3858379053733E+00
 0.4194842646221E+00
 0.4544408973879E+00
 0.4904758171895E+00
 0.5273213972758E+00
 0.5646299545344E+00
 0.6019316024174E+00
 0.6386062953824E+00
 0.6738979112750E+00
 0.7069935828727E+00
 0.7371457086090E+00
 0.7638312674785E+00
 0.7868889227023E+00
 0.8064480017371E+00
 0.8227094930365E+00
 0.8358020284193E+00
 0.8457712555427E+00
 0.8526597690296E+00
 0.8566250458954E+00
 0.8580745130490E+00
 0.8578464159833E+00
 0.8574863270786E+00
 0.8597744691753E+00
 0.8698464205073E+00
 0.8969422707928E+00
 0.9563851500243E+00
 0.1070389357012E+01
 0.1264609076119E+01
 0.1557846558958E+01
 0.1946349213289E+01
 0.2388920474859E+01
 0.2804290124453E+01
 0.2210354981749E+00
 0.2413928920280E+00
 0.2578728599898E+00
 0.2742534713275E+00
 0.2927479362248E+00
 0.3140639892899E+00
 0.3380972890929E+00
 0.3644742541531E+00
 0.3928030469385E+00
 0.4227437373432E+00
 0.4540058740739E+00
 0.4863245663832E+00
 0.5194306430944E+00
 0.5530167970204E+00
 0.5866994078770E+00
 0.6199868122257E+00
 0.6522655176958E+00
 0.6828258216092E+00
 0.7109401166438E+00
 0.7359693146195E+00
 0.7574977000067E+00
 0.7754532827771E+00
 0.7900478791335E+00
 0.8015857692642E+00
 0.8103369033205E+00
 0.8165279147036E+00
 0.8204178522208E+00
 0.8224186664542E+00
 0.8232496484489E+00
 0.8241575098668E+00
 0.8272511311159E+00
 0.8360841954706E+00
 0.8567214945717E+00
 0.8991444841847E+00
 0.9783090147286E+00
 0.1113398719017E+01
 0.1323326502618E+01
 0.1617926953889E+01
 0.1986894924159E+01
 0.2391245325073E+01
 0.2764765044430E+01
 0.2621456087929E+00
 0.2838942771448E+00
 0.3015661024123E+00
 0.3184312051156E+00
 0.3366239100217E+00
 0.3570206209936E+00
 0.3797102868458E+00
 0.4044445278220E+00
 0.4308878446300E+00
 0.4587127322270E+00
 0.4876176033668E+00
 0.5173143954237E+00
 0.5475051313443E+00
 0.5778533017061E+00
 0.6079527688752E+00
 0.6373059131723E+00
 0.6653213464282E+00
 0.6913470860178E+00
 0.7147455418842E+00
 0.7349859237510E+00
 0.7517580779702E+00
 0.7650786881967E+00
 0.7752419339142E+00
 0.7826529366164E+00
 0.7877169814895E+00
 0.7908337378546E+00
 0.7924718285348E+00
 0.7932945122345E+00
 0.7943331992731E+00
 0.7972399847815E+00
 0.8046609565790E+00
 0.8208286930938E+00
 0.8524880925090E+00
 0.9098461916909E+00
 0.1006747781390E+01
 0.1158927467197E+01
 0.1379426899744E+01
 0.1671539645491E+01
 0.2021205895047E+01
 0.2392609081110E+01
 0.2731740342489E+01
 0.3021426363601E+00
 0.3250198871781E+00
 0.3437257241746E+00
 0.3610808928597E+00
 0.3790898575894E+00
 0.3987197482896E+00
 0.4202039358380E+00
 0.4434029948605E+00
 0.4680387486716E+00
 0.4938025564883E+00
 0.5203889698989E+00
 0.5474942404404E+00
 0.5748000008530E+00
 0.6019507462258E+00
 0.6285301384830E+00
 0.6540481255783E+00
 0.6779477212620E+00
 0.6996427671361E+00
 0.7185883704924E+00
 0.7343609496478E+00
 0.7467538785370E+00
 0.7558715844528E+00
 0.7620901983443E+00
 0.7659131846583E+00
 0.7678753742401E+00
 0.7685416673809E+00
 0.7685830370359E+00
 0.7689093470597E+00
 0.7708604733828E+00
 0.7764823648971E+00
 0.7889149497163E+00
 0.8129443685410E+00
 0.8557143906621E+00
 0.9271825132404E+00
 0.1039590179388E+01
 0.1205237549935E+01
 0.1432335222543E+01
 0.1719554984777E+01
 0.2050870527757E+01
 0.2393786245025E+01
 0.2704185256527E+01
 0.3411325896183E+00
 0.3649153609581E+00
 0.3845075704689E+00
 0.4023341015431E+00
 0.4202414240376E+00
 0.4392292618304E+00
 0.4596320554023E+00
 0.4814002583047E+00
 0.5043098844602E+00
 0.5280749258676E+00
 0.5523921143202E+00
 0.5769490318284E+00
 0.6014150472149E+00
 0.6254252835975E+00
 0.6485642367649E+00
 0.6703607889181E+00
 0.6903019482079E+00
 0.7078730420139E+00
 0.7226230518201E+00
 0.7342338619458E+00
 0.7426000320044E+00
 0.7479124412426E+00
 0.7506283332034E+00
 0.7513468374972E+00
 0.7507267247218E+00
 0.7494906492200E+00
 0.7485047088102E+00
 0.7489195167089E+00
 0.7523759865872E+00
 0.7612933478138E+00
 0.7792441659385E+00
 0.8114179911302E+00
 0.8650717392345E+00
 0.9495280646375E+00
 0.1075175765194E+01
 0.1251156390322E+01
 0.1481852500684E+01
 0.1762786321005E+01
 0.2077123569083E+01
 0.2395359515545E+01
 0.2681247421380E+01
 0.3792080205667E+00
 0.4037069906251E+00
 0.4240507792985E+00
 0.4423157181771E+00
 0.4601769295625E+00
 0.4786242206957E+00
 0.4980561436926E+00
 0.5184933659318E+00
 0.5397602444752E+00
 0.5615949365014E+00
 0.5837011121193E+00
 0.6057640202008E+00
 0.6274483551672E+00
 0.6483886951889E+00
 0.6681800503254E+00
 0.6863796391601E+00
 0.7025258225087E+00
 0.7161791933600E+00
 0.7269826692233E+00
 0.7347213448517E+00
 0.7393883196788E+00
 0.7412592517131E+00
 0.7408712160826E+00
 0.7389161403018E+00
 0.7361713528254E+00
 0.7335102383203E+00
 0.7319869511031E+00
 0.7329858702539E+00
 0.7384373659880E+00
 0.7511036361329E+00
 0.7749121991403E+00
 0.8152918913656E+00
 0.8793503445591E+00
 0.9755034140393E+00
 0.1112231793508E+01
 0.1295917491617E+01
 0.1527990912254E+01
 0.1801914110901E+01
 0.2100885571579E+01
 0.2397851531970E+01
 0.2662229390149E+01
 0.4164508858703E+00
 0.4415057649424E+00
 0.4624802998851E+00
 0.4811433895246E+00
 0.4989949321969E+00
 0.5169842799602E+00
 0.5355434928074E+00
 0.5547445927827E+00
 0.5744528552448E+00
 0.5944303857439E+00
 0.6143913256576E+00
 0.6340241233725E+00
 0.6529956808788E+00
 0.6709479313947E+00
 0.6874947281417E+00
 0.7022292737247E+00
 0.7147467986777E+00
 0.7246854770676E+00
 0.7317813777125E+00
 0.7359201361332E+00
 0.7371904657053E+00
 0.7359507811968E+00
 0.7328163202227E+00
 0.7285688019229E+00
 0.7240990029088E+00
 0.7204245084006E+00
 0.7187805766156E+00
 0.7207769646827E+00
 0.7286171949487E+00
 0.7453663448486E+00
 0.7752165676469E+00
 0.8236713716380E+00
 0.8974710082126E+00
 0.1003965028896E+01
 0.1149803410356E+01
 0.1339038310602E+01
 0.1570874869224E+01
 0.1837486710947E+01
 0.2122688210003E+01
 0.2401828401779E+01
 0.2646605014102E+01
 0.4529345685930E+00
 0.4784106227789E+00
 0.4999089719531E+00
 0.5189275390364E+00
 0.5367926335226E+00
 0.5543917024817E+00
 0.5721655469317E+00
 0.5902202744037E+00
 0.6084539421910E+00
 0.6266511041958E+00
 0.6445388052841E+00
 0.6618133708281E+00
 0.6781499826213E+00
 0.6932048378749E+00
 0.7066176605980E+00
 0.7180237374727E+00
 0.7270791674335E+00
 0.7335008689314E+00
 0.7371166216732E+00
 0.7379095974144E+00
 0.7360609547174E+00
 0.7320095574500E+00
 0.7264468331675E+00
 0.7202412156400E+00
 0.7143921160609E+00
 0.7100552285276E+00
 0.7086398665786E+00
 0.7119709397721E+00
 0.7225037041042E+00
 0.7435573395644E+00
 0.7794915851264E+00
 0.8357325124512E+00
 0.9184900895977E+00
 0.1033983696291E+01
 0.1187187224399E+01
 0.1380233669929E+01
 0.1610676427650E+01
 0.1869972370422E+01
 0.2142705430218E+01
 0.2407477705147E+01
 0.2634319430420E+01
 0.4887212473594E+00
 0.5144962385614E+00
 0.5364162573249E+00
 0.5557399023154E+00
 0.5736243814946E+00
 0.5908811123032E+00
 0.6079401788877E+00
 0.6249267536461E+00
 0.6417636697842E+00
 0.6582557668029E+00
 0.6741446759347E+00
 0.6891386038638E+00
 0.7029263803376E+00
 0.7151844780733E+00
 0.7255843354194E+00
 0.7338080136280E+00
 0.7395750519629E+00
 0.7426810622451E+00
 0.7430431577383E+00
 0.7407382479767E+00
 0.7360360355999E+00
 0.7294526984961E+00
 0.7217529732059E+00
 0.7138881174465E+00
 0.7069606618280E+00
 0.7022573877599E+00
 0.7013526781140E+00
 0.7062722800527E+00
 0.7196947093247E+00
 0.7451362601747E+00
 0.7870265769992E+00
 0.8505863303453E+00
 0.9413937355435E+00
 0.1064554752952E+01
 0.1223569624048E+01
 0.1419028511916E+01
 0.1647295716021E+01
 0.1899470503606E+01
 0.2161118306767E+01
 0.2413056496304E+01
 0.2631165599484E+01
 0.5238766113397E+00
 0.5498450379877E+00
 0.5720986262618E+00
 0.5916799763591E+00
 0.6095845092194E+00
 0.6265382760398E+00
 0.6429455074141E+00
 0.6589374873555E+00
 0.6744541393120E+00
 0.6893178894970E+00
 0.7032858527463E+00
 0.7160812951258E+00
 0.7274111778574E+00
 0.7369772411241E+00
 0.7444873147445E+00
 0.7496737117699E+00
 0.7523209210344E+00
 0.7523024665780E+00
 0.7496220377113E+00
 0.7444463099702E+00
 0.7371294959788E+00
 0.7282618484324E+00
 0.7186784826323E+00
 0.7094097217783E+00
 0.7016560325110E+00
 0.6968284851945E+00
 0.6966569789912E+00
 0.7033516102628E+00
 0.7197819255535E+00
 0.7496021559166E+00
 0.7972222866249E+00
 0.8675593128935E+00
 0.9655090961302E+00
 0.1095127608394E+01
 0.1258647665038E+01
 0.1455436309581E+01
 0.1681013442084E+01
 0.1926387427047E+01
 0.2178050119608E+01
 0.2418831765250E+01
 0.2630102318188E+01
 0.5584581874603E+00
 0.5845434074063E+00
 0.6070645813974E+00
 0.6268705419551E+00
 0.6448026190034E+00
 0.6614955991915E+00
 0.6773159744844E+00
 0.6923899608599E+00
 0.7066672362727E+00
 0.7199846409462E+00
 0.7321148589777E+00
 0.7427984690423E+00
 0.7517640548671E+00
 0.7587425521602E+00
 0.7634817628500E+00
 0.7657667264223E+00
 0.7654476615453E+00
 0.7624749012671E+00
 0.7569360376004E+00
 0.7490839106769E+00
 0.7393537263901E+00
 0.7284071167420E+00
 0.7171472292341E+00
 0.7066805031498E+00
 0.6983012559446E+00
 0.6935391850465E+00
 0.6942707949833E+00
 0.7028737355805E+00
 0.7223757693825E+00
 0.7565125960242E+00
 0.8095979547399E+00
 0.8861751850930E+00
 0.9904428148084E+00
 0.1125489170495E+01
 0.1292465510260E+01
 0.1489769292170E+01
 0.1712333700707E+01
 0.1951232890608E+01
 0.2193869594393E+01
 0.2424925539578E+01
 0.2628938026837E+01
 0.5925188408995E+00
 0.6186590349417E+00
 0.6413938341440E+00
 0.6613968405834E+00
 0.6793632874641E+00
 0.6958335044276E+00
 0.7111272442480E+00
 0.7253563377203E+00
 0.7384735810673E+00
 0.7503269762727E+00
 0.7607043919556E+00
 0.7693653265052E+00
 0.7760627259837E+00
 0.7805598096845E+00
 0.7826470405229E+00
 0.7821638058705E+00
 0.7790261392516E+00
 0.7732596230475E+00
 0.7650328455751E+00
 0.7546811142107E+00
 0.7427170926630E+00
 0.7298710749993E+00
 0.7171118632120E+00
 0.7056190853565E+00
 0.6967768336408E+00
 0.6922274551377E+00
 0.6939840510258E+00
 0.7045730479144E+00
 0.7271461465563E+00
 0.7654673017333E+00
 0.8236914342642E+00
 0.9059448285590E+00
 0.1015742894475E+01
 0.1155302094538E+01
 0.1324862098817E+01
 0.1522060760877E+01
 0.1741438320501E+01
 0.1974246799587E+01
 0.2208766775746E+01
 0.2431353290932E+01
 0.2628800330479E+01
 0.6261079869646E+00
 0.6522548731106E+00
 0.6751605605004E+00
 0.6953391690483E+00
 0.7133476526574E+00
 0.7296305974415E+00
 0.7444543405101E+00
 0.7579086766112E+00
 0.7699436458393E+00
 0.7804152254962E+00
 0.7891257433550E+00
 0.7958546702893E+00
 0.8003813754483E+00
 0.8025036887517E+00
 0.8020566327846E+00
 0.7989348300596E+00
 0.7931196321453E+00
 0.7847099384941E+00
 0.7739522446049E+00
 0.7612605690572E+00
 0.7472215074484E+00
 0.7326313067817E+00
 0.7185220256909E+00
 0.7061435318433E+00
 0.6969655055342E+00
 0.6927364993880E+00
 0.6955951131035E+00
 0.7081963749867E+00
 0.7337818317913E+00
 0.7760962385263E+00
 0.8390883657849E+00
 0.9264470434790E+00
 0.1041038905385E+01
 0.1184308059032E+01
 0.1355733645316E+01
 0.1552365072436E+01
 0.1768497389522E+01
 0.1995633940933E+01
 0.2222900253691E+01
 0.2438116849359E+01
 0.2629722270067E+01
 0.6592721058455E+00
 0.6853897353445E+00
 0.7084341224413E+00
 0.7287733270387E+00
 0.7468334619542E+00
 0.7629633886409E+00
 0.7773711930431E+00
 0.7901184402910E+00
 0.8011473081587E+00
 0.8103187300978E+00
 0.8174485381833E+00
 0.8223367665135E+00
 0.8247906688121E+00
 0.8246443354133E+00
 0.8217785540519E+00
 0.8161434397878E+00
 0.8077846774960E+00
 0.7968722461071E+00
 0.7837273173569E+00
 0.7688388345745E+00
 0.7528638303766E+00
 0.7366618183019E+00
 0.7213256900242E+00
 0.7081725291677E+00
 0.6987532036184E+00
 0.6949154796509E+00
 0.6989114210908E+00
 0.7135038285744E+00
 0.7419917498101E+00
 0.7880607630425E+00
 0.8554211449711E+00
 0.9473224860428E+00
 0.1066029567820E+01
 0.1212311278021E+01
 0.1385017627025E+01
 0.1580748180852E+01
 0.1793663775704E+01
 0.2015565330331E+01
 0.2236373276959E+01
 0.2445147196481E+01
 0.2631596183576E+01
 0.6920551294897E+00
 0.7181188335932E+00
 0.7412796505429E+00
 0.7617710291718E+00
 0.7798951766947E+00
 0.7959061220251E+00
 0.8099503003997E+00
 0.8220561044616E+00
 0.8321534835816E+00
 0.8401055428984E+00
 0.8457405280000E+00
 0.8488792539282E+00
 0.8493578037991E+00
 0.8470475854774E+00
 0.8418757551015E+00
 0.8338476391461E+00
 0.8230718611978E+00
 0.8097869909768E+00
 0.7943855359246E+00
 0.7774275681293E+00
 0.7596371062383E+00
 0.7419342693008E+00
 0.7254703159096E+00
 0.7116263955552E+00
 0.7020298756107E+00
 0.6986201920242E+00
 0.7037501732541E+00
 0.7202697126749E+00
 0.7515060680040E+00
 0.8010540428172E+00
 0.8723667820369E+00
 0.9682670380529E+00
 0.1090471475747E+01
 0.1239164920624E+01
 0.1412680885547E+01
 0.1607280283786E+01
 0.1817071613546E+01
 0.2034176613674E+01
 0.2249241606579E+01
 0.2452363664596E+01
 0.2634282818402E+01
 0.7244987485453E+00
 0.7504942286844E+00
 0.7737585362457E+00
 0.7944002763616E+00
 0.8126041113911E+00
 0.8285306846687E+00
 0.8422624868384E+00
 0.8537908522906E+00
 0.8630298281844E+00
 0.8698421840993E+00
 0.8740674303083E+00
 0.8755470910072E+00
 0.8741465886927E+00
 0.8697751957717E+00
 0.8624065219217E+00
 0.8521003650570E+00
 0.8390265480762E+00
 0.8234895352904E+00
 0.8059497444289E+00
 0.7870345847295E+00
 0.7675316584685E+00
 0.7484190483026E+00
 0.7309038490169E+00
 0.7164279562168E+00
 0.7066902237277E+00
 0.7037137279348E+00
 0.7099390444140E+00
 0.7282833969316E+00
 0.7620769713991E+00
 0.8148007578955E+00
 0.8896439690305E+00
 0.9890251183628E+00
 0.1114169145859E+01
 0.1264760159665E+01
 0.1438710611361E+01
 0.1632031002771E+01
 0.1838835916169E+01
 0.2051571758124E+01
 0.2261533578678E+01
 0.2459689157057E+01
 0.2637640150078E+01
 0.7566426636045E+00
 0.7825652033555E+00
 0.8059288483414E+00
 0.8267256865625E+00
 0.8450285856415E+00
 0.8609065680372E+00
 0.8743767248597E+00
 0.8853903298063E+00
 0.8938424892174E+00
 0.8995934322779E+00
 0.9024927918416E+00
 0.9024025169410E+00
 0.8992175233361E+00
 0.8928850635086E+00
 0.8834248444863E+00
 0.8709500061121E+00
 0.8556895405136E+00
 0.8380109375580E+00
 0.8184390329808E+00
 0.7976647934553E+00
 0.7765360489360E+00
 0.7560862108718E+00
 0.7375755925632E+00
 0.7225033172090E+00
 0.7126343870438E+00
 0.7100671268844E+00
 0.7173168994650E+00
 0.7373500692337E+00
 0.7734790529927E+00
 0.8290561723508E+00
 0.9070096588721E+00
 0.1009383258001E+01
 0.1136966419831E+01
 0.1289017379596E+01
 0.1463107614220E+01
 0.1655066321107E+01
 0.1859053590667E+01
 0.2067830096101E+01
 0.2273262600028E+01
 0.2467053188003E+01
 0.2641533751235E+01
 0.7885247949631E+00
 0.8143785752456E+00
 0.8378456908421E+00
 0.8588087949267E+00
 0.8772340871506E+00
 0.8931008745226E+00
 0.9063600185259E+00
 0.9169204618113E+00
 0.9246559076799E+00
 0.9294221564659E+00
 0.9310778824410E+00
 0.9295050328126E+00
 0.9246278885053E+00
 0.9164314395576E+00
 0.9049807621637E+00
 0.8904408790160E+00
 0.8730976755363E+00
 0.8533786524243E+00
 0.8318695164810E+00
 0.8093210259642E+00
 0.7866379217205E+00
 0.7649063014624E+00
 0.7454369737331E+00
 0.7297825596876E+00
 0.7197685799056E+00
 0.7175600105511E+00
 0.7257344595934E+00
 0.7472913117543E+00
 0.7855093240351E+00
 0.8436047323258E+00
 0.9242554485947E+00
 0.1029164179889E+01
 0.1158739189386E+01
 0.1311879214362E+01
 0.1485881400220E+01
 0.1676446865780E+01
 0.1877805607607E+01
 0.2083012756890E+01
 0.2284433922986E+01
 0.2474392381764E+01
 0.2645841177217E+01
 0.8201814613853E+00
 0.8459789628450E+00
 0.8695615133637E+00
 0.8907083271073E+00
 0.9092834397914E+00
 0.9251783568102E+00
 0.9382773340000E+00
 0.9484453163518E+00
 0.9555326628593E+00
 0.9593891805051E+00
 0.9598816109105E+00
 0.9569113941080E+00
 0.9504318348255E+00
 0.9404651275893E+00
 0.9271206794893E+00
 0.9106136589483E+00
 0.8912843597238E+00
 0.8696171536679E+00
 0.8462550242398E+00
 0.8220047667111E+00
 0.7978247444436E+00
 0.7748510760911E+00
 0.7544422241149E+00
 0.7382003711953E+00
 0.7280056924527E+00
 0.7260811844136E+00
 0.7350548874685E+00
 0.7579454749300E+00
 0.7979868882403E+00
 0.8582583482042E+00
 0.9412039794624E+00
 0.1048221491987E+01
 0.1179389322185E+01
 0.1333305078800E+01
 0.1507046621120E+01
 0.1696227169852E+01
 0.1895159473010E+01
 0.2097167560112E+01
 0.2295048437188E+01
 0.2481650628520E+01
 0.2650454059627E+01
 0.8516475356141E+00
 0.8774090162458E+00
 0.9011263856613E+00
 0.9224804525872E+00
 0.9412369770274E+00
 0.9572014858545E+00
 0.9701915721247E+00
 0.9800270139999E+00
 0.9865333571208E+00
 0.9895531795158E+00
 0.9889604635095E+00
 0.9846756156317E+00
 0.9766804727658E+00
 0.9650336715256E+00
 0.9498876562047E+00
 0.9315057696672E+00
 0.9102800498973E+00
 0.8867484905229E+00
 0.8616077127861E+00
 0.8357167995944E+00
 0.8100844641764E+00
 0.7858941444840E+00
 0.7645489923424E+00
 0.7476966275009E+00
 0.7372658561208E+00
 0.7355291952826E+00
 0.7451542733850E+00
 0.7691678559823E+00
 0.8107523559278E+00
 0.8728545161818E+00
 0.9577055162886E+00
 0.1066435044110E+01
 0.1198839660142E+01
 0.1353266917506E+01
 0.1526620572622E+01
 0.1714455555096E+01
 0.1911171525374E+01
 0.2110332568605E+01
 0.2305104991809E+01
 0.2488779327664E+01
 0.2655279018323E+01
 0.8829565823058E+00
 0.9087096203410E+00
 0.9325882429116E+00
 0.9541790198223E+00
 0.9731527160495E+00
 0.9892305375816E+00
 0.1002163570527E+01
 0.1011725668896E+01
 0.1017716528262E+01
 0.1019970596203E+01
 0.1018368453017E+01
 0.1012848976934E+01
 0.1003421952299E+01
 0.9901815209216E+00
 0.9733216628663E+00
 0.9531517268503E+00
 0.9301126755890E+00
 0.9047927759870E+00
 0.8779386032764E+00
 0.8504577751725E+00
 0.8234060844517E+00
 0.7980115394862E+00
 0.7757188955663E+00
 0.7582169265488E+00
 0.7474769664612E+00
 0.7458128277699E+00
 0.7559220077147E+00
 0.7808306967681E+00
 0.8236670685574E+00
 0.8872543922353E+00
 0.9736347913674E+00
 0.1083706923948E+01
 0.1217029926049E+01
 0.1371745907207E+01
 0.1544621443042E+01
 0.1731174326921E+01
 0.1925888869876E+01
 0.2122538648562E+01
 0.2314601957826E+01
 0.2495737666462E+01
 0.2660237992321E+01
 0.9141409834355E+00
 0.9399200776044E+00
 0.9639931088487E+00
 0.9858557771579E+00
 0.1005086531934E+01
 0.1021323693577E+01
 0.1034252128270E+01
 0.1043599354017E+01
 0.1049138582225E+01
 0.1050695570330E+01
 0.1048157072151E+01
 0.1041480022475E+01
 0.1030701527066E+01
 0.1015950170083E+01
 0.9974597991738E+00
 0.9755834334652E+00
 0.9508080038740E+00
 0.9237686095297E+00
 0.8952580477292E+00
 0.8662287043561E+00
 0.8377801704878E+00
 0.8111822208935E+00
 0.7879180148855E+00
 0.7697130748626E+00
 0.7585751571294E+00
 0.7568515304282E+00
 0.7672610406176E+00
 0.7928230337532E+00
 0.8366122101116E+00
 0.9013409145055E+00
 0.9888881693582E+00
 0.1099958055516E+01
 0.1233913400341E+01
 0.1388729909223E+01
 0.1561067091718E+01
 0.1746420096969E+01
 0.1939350933422E+01
 0.2133811332632E+01
 0.2323538345694E+01
 0.2502492868597E+01
 0.2665268224725E+01
 0.9452320551890E+00
 0.9710782771451E+00
 0.9953853042150E+00
 0.1017560585323E+01
 0.1037092334534E+01
 0.1053537155590E+01
 0.1066514051255E+01
 0.1075704088563E+01
 0.1080853744572E+01
 0.1081779880571E+01
 0.1078375251385E+01
 0.1070614557378E+01
 0.1058561604783E+01
 0.1042378273711E+01
 0.1022336479034E+01
 0.9988304325047E+00
 0.9723899532152E+00
 0.9436934420854E+00
 0.9135761330761E+00
 0.8830313884120E+00
 0.8531992927479E+00
 0.8253885230453E+00
 0.8011173416640E+00
 0.7821435293152E+00
 0.7705052241948E+00
 0.7685757722913E+00
 0.7790880439971E+00
 0.8050504443924E+00
 0.8494878801052E+00
 0.9150170517473E+00
 0.1003381167349E+01
 0.1115125358352E+01
 0.1249454253257E+01
 0.1404211515639E+01
 0.1575974201299E+01
 0.1760224135603E+01
 0.1951590687080E+01
 0.2144172190785E+01
 0.2331914625927E+01
 0.2509020366546E+01
 0.2670322032404E+01
 0.9762601595373E+00
 0.1002220854232E+01
 0.1026807644577E+01
 0.1049341623377E+01
 0.1069222246477E+01
 0.1085925268659E+01
 0.1099004210494E+01
 0.1108093838049E+01
 0.1112914020678E+01
 0.1113272888585E+01
 0.1109069311181E+01
 0.1100295629188E+01
 0.1087041774953E+01
 0.1069501731037E+01
 0.1047983575491E+01
 0.1022920111553E+01
 0.9948808521913E+00
 0.9645838805792E+00
 0.9329030215342E+00
 0.9008687847550E+00
 0.8696584086940E+00
 0.8406165454369E+00
 0.8152931721365E+00
 0.7954737890068E+00
 0.7832209941744E+00
 0.7809273275327E+00
 0.7913334879000E+00
 0.8174347250068E+00
 0.8622121802235E+00
 0.9282042199820E+00
 0.1017046328165E+01
 0.1129159403401E+01
 0.1263625414854E+01
 0.1418186546281E+01
 0.1589357673906E+01
 0.1772612686172E+01
 0.1962635574923E+01
 0.2153639827025E+01
 0.2339733312962E+01
 0.2515303872549E+01
 0.2675366430598E+01
 0.1007254813865E+01
 0.1033383345714E+01
 0.1058301634036E+01
 0.1081245594062E+01
 0.1101526786410E+01
 0.1118540654956E+01
 0.1131775613875E+01
 0.1140820527131E+01
 0.1145369164834E+01
 0.1145221486179E+01
 0.1140282910417E+01
 0.1130563498424E+01
 0.1116178817749E+01
 0.1097353743487E+01
 0.1074430531714E+01
 0.1047877866496E+01
 0.1018301651409E+01
 0.9864559411022E+00
 0.9532492369875E+00
 0.9197453184392E+00
 0.8871551923510E+00
 0.8568564949711E+00
 0.8304274572914E+00
 0.8096767427815E+00
 0.7966856421807E+00
 0.7938595011902E+00
 0.8039416587478E+00
 0.8299135458225E+00
 0.8747203695133E+00
 0.9408409086507E+00
 0.1029831450735E+01
 0.1142022522893E+01
 0.1276406903934E+01
 0.1430652904937E+01
 0.1601230198272E+01
 0.1783607221248E+01
 0.1972508201048E+01
 0.2162230588593E+01
 0.2346999356090E+01
 0.2521335343639E+01
 0.2680382691730E+01
 0.1038244800969E+01
 0.1064600345002E+01
 0.1089907658865E+01
 0.1113317931633E+01
 0.1134055058445E+01
 0.1151434356759E+01
 0.1164879487698E+01
 0.1173934060075E+01
 0.1178266652612E+01
 0.1177670039940E+01
 0.1172056985821E+01
 0.1161455593445E+01
 0.1146006690455E+01
 0.1125964843176E+01
 0.1101704436358E+01
 0.1073727223642E+01
 0.1042672088750E+01
 0.1009325251585E+01
 0.9746258986945E+00
 0.9396671407940E+00
 0.9056903127898E+00
 0.8741029801063E+00
 0.8465081071550E+00
 0.8247329709847E+00
 0.8108719607245E+00
 0.8073373031444E+00
 0.8168706382895E+00
 0.8424401138579E+00
 0.8869641204228E+00
 0.9528815317284E+00
 0.1041698160268E+01
 0.1153687320998E+01
 0.1287784537393E+01
 0.1441609711276E+01
 0.1611601924246E+01
 0.1793224620491E+01
 0.1981226802767E+01
 0.2169959033991E+01
 0.2353720355285E+01
 0.2527114849245E+01
 0.2685365824557E+01
 0.1069258282080E+01
 0.1095905659653E+01
 0.1121665184197E+01
 0.1145603014059E+01
 0.1166854947304E+01
 0.1184655985239E+01
 0.1198365362041E+01
 0.1207482341042E+01
 0.1211651647586E+01
 0.1210660324052E+01
 0.1204429673249E+01
 0.1193006440881E+01
 0.1176556483333E+01
 0.1155362884901E+01
 0.1129830056777E+01
 0.1100489914579E+01
 0.1068010803000E+01
 0.1033207199635E+01
 0.9970448983942E+00
 0.9606423314163E+00
 0.9252676575694E+00
 0.8923552525228E+00
 0.8635292447982E+00
 0.8406309974822E+00
 0.8257625783178E+00
 0.8213375762866E+00
 0.8300922588320E+00
 0.8549828668004E+00
 0.8989108968183E+00
 0.9642955090430E+00
 0.1052620797614E+01
 0.1164135538626E+01
 0.1297748957010E+01
 0.1451056645128E+01
 0.1620480199616E+01
 0.1801477257850E+01
 0.1988805529673E+01
 0.2176838188359E+01
 0.2359906616791E+01
 0.2532650339598E+01
 0.2690324018115E+01
 0.1100322915402E+01
 0.1127332475900E+01
 0.1153612959219E+01
 0.1178144385055E+01
 0.1199973323565E+01
 0.1218253877758E+01
 0.1232281161142E+01
 0.1241511294430E+01
 0.1245566962445E+01
 0.1244231441787E+01
 0.1237436212150E+01
 0.1225247574022E+01
 0.1207856348389E+01
 0.1185573006071E+01
 0.1158829835384E+01
 0.1128185909695E+01
 0.1094335402235E+01
 0.1058117032041E+01
 0.1020519027160E+01
 0.9826810494324E+00
 0.9458945063916E+00
 0.9116174008801E+00
 0.8814914143965E+00
 0.8573674972945E+00
 0.8413501365480E+00
 0.8358490936309E+00
 0.8435920568700E+00
 0.8675252244643E+00
 0.9105434771260E+00
 0.9750665879181E+00
 0.1062585619211E+01
 0.1173357246401E+01
 0.1306294937999E+01
 0.1458993469581E+01
 0.1627869350440E+01
 0.1808373002203E+01
 0.1995254552088E+01
 0.2182879613658E+01
 0.2365571064520E+01
 0.2537957330654E+01
 0.2695278059669E+01
 0.1131465982654E+01
 0.1158913533568E+01
 0.1185789234837E+01
 0.1210984989328E+01
 0.1233456260582E+01
 0.1252275262917E+01
 0.1266673295743E+01
 0.1276064880587E+01
 0.1280053009039E+01
 0.1278419730137E+01
 0.1271108828124E+01
 0.1258207414791E+01
 0.1239931397481E+01
 0.1216617551830E+01
 0.1188723847117E+01
 0.1156833408907E+01
 0.1121662485867E+01
 0.1084069905030E+01
 0.1045062051042E+01
 0.1005795632789E+01
 0.9675816533269E+00
 0.9318984947440E+00
 0.9004017417168E+00
 0.8749474597453E+00
 0.8576374288543E+00
 0.8508726325586E+00
 0.8573692381411E+00
 0.8800654123069E+00
 0.9218596322886E+00
 0.9851924039237E+00
 0.1071590292811E+01
 0.1181350339336E+01
 0.1313420947152E+01
 0.1465419703342E+01
 0.1633770486484E+01
 0.1813915128914E+01
 0.2000580009193E+01
 0.2188093306659E+01
 0.2370729016247E+01
 0.2543058512720E+01
 0.2700260737673E+01
 0.1162714526270E+01
 0.1190681315287E+01
 0.1218231998527E+01
 0.1244167425355E+01
 0.1267349265874E+01
 0.1286766433842E+01
 0.1301586755713E+01
 0.1311185103703E+01
 0.1315147733539E+01
 0.1313258643962E+01
 0.1305476590640E+01
 0.1291911127272E+01
 0.1272803568639E+01
 0.1248515965051E+01
 0.1219529718359E+01
 0.1186448790412E+01
 0.1150007621438E+01
 0.1111080886389E+01
 0.1070688736340E+01
 0.1030000645997E+01
 0.9903434775573E+00
 0.9532126783883E+00
 0.9202740471729E+00
 0.8933843088790E+00
 0.8746375057935E+00
 0.8664210348489E+00
 0.8714366656926E+00
 0.8926163683255E+00
 0.9328719653152E+00
 0.9946842798697E+00
 0.1079643679960E+01
 0.1188120318047E+01
 0.1319128932943E+01
 0.1470334427192E+01
 0.1638181323867E+01
 0.1818102143951E+01
 0.2004783805525E+01
 0.2192487434583E+01
 0.2375397832332E+01
 0.2547983290817E+01
 0.2705316241645E+01
 0.1194095500119E+01
 0.1222668254235E+01
 0.1250979231414E+01
 0.1277734220351E+01
 0.1301697529831E+01
 0.1321772930111E+01
 0.1337065200980E+01
 0.1346912008352E+01
 0.1350886532602E+01
 0.1348778615798E+01
 0.1340565242844E+01
 0.1326380440681E+01
 0.1306491459444E+01
 0.1281284640833E+01
 0.1251262507541E+01
 0.1217046518069E+01
 0.1179385276938E+01
 0.1139164910098E+01
 0.1097414824878E+01
 0.1055312876170E+01
 0.1014197961985E+01
 0.9755792136128E+00
 0.9411289110788E+00
 0.9126999823219E+00
 0.8923737505399E+00
 0.8825192589863E+00
 0.8858208787620E+00
 0.9052057396330E+00
 0.9436079146981E+00
 0.1003567260733E+01
 0.1086765899612E+01
 0.1193680349210E+01
 0.1323424340310E+01
 0.1473736219007E+01
 0.1641096022919E+01
 0.1820927522774E+01
 0.2007863260732E+01
 0.2196067913463E+01
 0.2379596441476E+01
 0.2552767263613E+01
 0.2710499568931E+01
 0.1225635936908E+01
 0.1254906964966E+01
 0.1284069192983E+01
 0.1311728132176E+01
 0.1336546194387E+01
 0.1357339728014E+01
 0.1373151047805E+01
 0.1383283659951E+01
 0.1387302145252E+01
 0.1385006886396E+01
 0.1376396999362E+01
 0.1361633438695E+01
 0.1341010125245E+01
 0.1314936743968E+01
 0.1283934546335E+01
 0.1248639006597E+01
 0.1209808707836E+01
 0.1168336682539E+01
 0.1125256957886E+01
 0.1081751275456E+01
 0.1039166657252E+01
 0.9990224689051E+00
 0.9629936888904E+00
 0.9329249677691E+00
 0.9108799259061E+00
 0.8992044278924E+00
 0.9005621457822E+00
 0.9178759698478E+00
 0.9541099197065E+00
 0.1011880381016E+01
 0.1092988670593E+01
 0.1198051605774E+01
 0.1326316352882E+01
 0.1475623221100E+01
 0.1642505044999E+01
 0.1822379367100E+01
 0.2009810614627E+01
 0.2198837830107E+01
 0.2383344744840E+01
 0.2557451645528E+01
 0.2715875948652E+01
 0.1257363135962E+01
 0.1287430502729E+01
 0.1317540739819E+01
 0.1346192483915E+01
 0.1371940644953E+01
 0.1393511439223E+01
 0.1409885547565E+01
 0.1420336104666E+01
 0.1424424515651E+01
 0.1421967301829E+01
 0.1412990309125E+01
 0.1397684313344E+01
 0.1376370841403E+01
 0.1349481989250E+01
 0.1317555241773E+01
 0.1281236445101E+01
 0.1241289799373E+01
 0.1198610540526E+01
 0.1154232548294E+01
 0.1109336848972E+01
 0.1065274589674E+01
 0.1023571853117E+01
 0.9859024748738E+00
 0.9540982965767E+00
 0.9302001938958E+00
 0.9165258741026E+00
 0.9157145527499E+00
 0.9306844758234E+00
 0.9644357436576E+00
 0.1019677161751E+01
 0.1098355935616E+01
 0.1201263896544E+01
 0.1327818376819E+01
 0.1475993354246E+01
 0.1642395039044E+01
 0.1822439985012E+01
 0.2010612388121E+01
 0.2200796705688E+01
 0.2386662897448E+01
 0.2562082635601E+01
 0.2721520293932E+01
 0.1289304875619E+01
 0.1320272657571E+01
 0.1351433685848E+01
 0.1381171537643E+01
 0.1407926829143E+01
 0.1430332517570E+01
 0.1447308854610E+01
 0.1458103303634E+01
 0.1462280621607E+01
 0.1459680073067E+01
 0.1450359580559E+01
 0.1434543082189E+01
 0.1412580829338E+01
 0.1384926385072E+01
 0.1352130840051E+01
 0.1314846579828E+01
 0.1273838864915E+01
 0.1230000261731E+01
 0.1184359601485E+01
 0.1138092487626E+01
 0.1092550111712E+01
 0.1049261691725E+01
 0.1009896012236E+01
 0.9762674931019E+00
 0.9503891073535E+00
 0.9345451822355E+00
 0.9313461252872E+00
 0.9437039088751E+00
 0.9746589483237E+00
 0.1027026333531E+01
 0.1102924772623E+01
 0.1203356602296E+01
 0.1327948790679E+01
 0.1474844702532E+01
 0.1640748774941E+01
 0.1821085401328E+01
 0.2010248598240E+01
 0.2201939595082E+01
 0.2389570462230E+01
 0.2566710734592E+01
 0.2727516692446E+01
 0.1321489655272E+01
 0.1353468290405E+01
 0.1385789212272E+01
 0.1416710914009E+01
 0.1444551604919E+01
 0.1467847471736E+01
 0.1485460077098E+01
 0.1496617033604E+01
 0.1500894260961E+01
 0.1498161491414E+01
 0.1488514864146E+01
 0.1472215265167E+01
 0.1449642943614E+01
 0.1421271937953E+01
 0.1387664149809E+01
 0.1349474453856E+01
 0.1307464397873E+01
 0.1262518824572E+01
 0.1215656480988E+01
 0.1168042741483E+01
 0.1121024689773E+01
 0.1076131039776E+01
 0.1035021543500E+01
 0.9994884738030E+00
 0.9715115682511E+00
 0.9533362232573E+00
 0.9475389772060E+00
 0.9570224901631E+00
 0.9848695077243E+00
 0.1034012779175E+01
 0.1106766600825E+01
 0.1204379942668E+01
 0.1326731996873E+01
 0.1472176104760E+01
 0.1637545149031E+01
 0.1818284807992E+01
 0.2008691823565E+01
 0.2202256012004E+01
 0.2392085427807E+01
 0.2571390007503E+01
 0.2733957944387E+01
 0.1353946973312E+01
 0.1387053720774E+01
 0.1420650338853E+01
 0.1452858067914E+01
 0.1481863124216E+01
 0.1506101084951E+01
 0.1524377308542E+01
 0.1535906750823E+01
 0.1540285794105E+01
 0.1537423600697E+01
 0.1527461496053E+01
 0.1510701527078E+01
 0.1487555327617E+01
 0.1458516326482E+01
 0.1424154233832E+01
 0.1385122112964E+01
 0.1342172786560E+01
 0.1296178126926E+01
 0.1248141628087E+01
 0.1199213541979E+01
 0.1150732636669E+01
 0.1104223437742E+01
 0.1061332606403E+01
 0.1023825400683E+01
 0.9936427565858E+00
 0.9729851832561E+00
 0.9643894852981E+00
 0.9707444152111E+00
 0.9951745530874E+00
 0.1040738692401E+01
 0.1109968693412E+01
 0.1204396606821E+01
 0.1324199822623E+01
 0.1467988000736E+01
 0.1632759295754E+01
 0.1813999966991E+01
 0.2005906114640E+01
 0.2201728667308E+01
 0.2394223080734E+01
 0.2576177289651E+01
 0.2740945162828E+01
 0.1386707648050E+01
 0.1421067176233E+01
 0.1456062467260E+01
 0.1489662827575E+01
 0.1519911252349E+01
 0.1545138634488E+01
 0.1564097627521E+01
 0.1575999403738E+01
 0.1580471829041E+01
 0.1577473814759E+01
 0.1567199693532E+01
 0.1549997277851E+01
 0.1526311030480E+01
 0.1496652537172E+01
 0.1461596061221E+01
 0.1421788269129E+01
 0.1377967982913E+01
 0.1330988653988E+01
 0.1281833224993E+01
 0.1231631861643E+01
 0.1181710776202E+01
 0.1133586596489E+01
 0.1088888760357E+01
 0.1049350473284E+01
 0.1016868013608E+01
 0.9935905698326E+00
 0.9820084717026E+00
 0.9849903056425E+00
 0.1005699225295E+01
 0.1047324935869E+01
 0.1112636001603E+01
 0.1203483782597E+01
 0.1320393328982E+01
 0.1462283595382E+01
 0.1626362851183E+01
 0.1808184582053E+01
 0.2001845739354E+01
 0.2200331999408E+01
 0.2395994712019E+01
 0.2581131325300E+01
 0.2748587422464E+01
 0.1419804190856E+01
 0.1455549316616E+01
 0.1492074011101E+01
 0.1527178007429E+01
 0.1558748025357E+01
 0.1585006104537E+01
 0.1604657053882E+01
 0.1616919181897E+01
 0.1621464838633E+01
 0.1618314473489E+01
 0.1607724098559E+01
 0.1590092229137E+01
 0.1565897584667E+01
 0.1535668461622E+01
 0.1499980118950E+01
 0.1459467920155E+01
 0.1414851123219E+01
 0.1366959093140E+01
 0.1316748798935E+01
 0.1265325307898E+01
 0.1213998035289E+01
 0.1164272005312E+01
 0.1117755235845E+01
 0.1076143650143E+01
 0.1041282669128E+01
 0.1015263184792E+01
 0.1000521380631E+01
 0.9998976912682E+00
 0.1016587614861E+01
 0.1053912584458E+01
 0.1114893299362E+01
 0.1201735631081E+01
 0.1315365107876E+01
 0.1455070430016E+01
 0.1618324437480E+01
 0.1800783669147E+01
 0.1996453757839E+01
 0.2198030477388E+01
 0.2397406144288E+01
 0.2586311823111E+01
 0.2757001481368E+01
 0.1453271242821E+01
 0.1490543850530E+01
 0.1528737132106E+01
 0.1565460109424E+01
 0.1598428149875E+01
 0.1625750387576E+01
 0.1646090451806E+01
 0.1658687192259E+01
 0.1663272705848E+01
 0.1659942338850E+01
 0.1649023275973E+01
 0.1630969916589E+01
 0.1606296555030E+01
 0.1575546466130E+01
 0.1539291993852E+01
 0.1498151936260E+01
 0.1452820111696E+01
 0.1404095906711E+01
 0.1352904777884E+01
 0.1300321660940E+01
 0.1247634972226E+01
 0.1196334469558E+01
 0.1148002510604E+01
 0.1104292300530E+01
 0.1066991810659E+01
 0.1038126057895E+01
 0.1020068440527E+01
 0.1015621507719E+01
 0.1028003767672E+01
 0.1060664632916E+01
 0.1116887649878E+01
 0.1199266251010E+01
 0.1309182155342E+01
 0.1446362465564E+01
 0.1608610450314E+01
 0.1791732957042E+01
 0.1989660409996E+01
 0.2194776645496E+01
 0.2398456060554E+01
 0.2591778417237E+01
 0.2766311543457E+01
 0.1487146088976E+01
 0.1526098263917E+01
 0.1566108602942E+01
 0.1604570124434E+01
 0.1639009542598E+01
 0.1667419457982E+01
 0.1688431356857E+01
 0.1701321040612E+01
 0.1705898179580E+01
 0.1702348019215E+01
 0.1691079158736E+01
 0.1672607182548E+01
 0.1647483054171E+01
 0.1616262927497E+01
 0.1579511917241E+01
 0.1537826604611E+01
 0.1491869157127E+01
 0.1442402852429E+01
 0.1390315987312E+01
 0.1336648344357E+01
 0.1282663228447E+01
 0.1229831563218E+01
 0.1179705795398E+01
 0.1133890766281E+01
 0.1094109971377E+01
 0.1062314316609E+01
 0.1040804784960E+01
 0.1032334579771E+01
 0.1040132721361E+01
 0.1067767833696E+01
 0.1118791184520E+01
 0.1196213179423E+01
 0.1301929430642E+01
 0.1436182820035E+01
 0.1597186270258E+01
 0.1780958372038E+01
 0.1981381299152E+01
 0.2190508870015E+01
 0.2399134122195E+01
 0.2597589510786E+01
 0.2776649020705E+01
 0.1521469268155E+01
 0.1562264687576E+01
 0.1604250825065E+01
 0.1644574451533E+01
 0.1680553909403E+01
 0.1710062503373E+01
 0.1731711707332E+01
 0.1744834302333E+01
 0.1749338233907E+01
 0.1745515323775E+01
 0.1733866448558E+01
 0.1714973630789E+01
 0.1689425236708E+01
 0.1657787747053E+01
 0.1620614283210E+01
 0.1578473142113E+01
 0.1531988272819E+01
 0.1481880462291E+01
 0.1428995099137E+01
 0.1374331839530E+01
 0.1319124913785E+01
 0.1264823004344E+01
 0.1212944433818E+01
 0.1165039833661E+01
 0.1122760731800E+01
 0.1087974982102E+01
 0.1062900518503E+01
 0.1050228071030E+01
 0.1053181543106E+01
 0.1075434628304E+01
 0.1120804175069E+01
 0.1192741468948E+01
 0.1293714222513E+01
 0.1424567333247E+01
 0.1584018054667E+01
 0.1768375678190E+01
 0.1971515341073E+01
 0.2185148729194E+01
 0.2399418878434E+01
 0.2603801000190E+01
 0.2788152205417E+01
 0.1556285301303E+01
 0.1599100936594E+01
 0.1643233034399E+01
 0.1685545951699E+01
 0.1723127356418E+01
 0.1753729987289E+01
 0.1775961448014E+01
 0.1789235856465E+01
 0.1793583315693E+01
 0.1789420542116E+01
 0.1777351973683E+01
 0.1758031057937E+01
 0.1732083776823E+01
 0.1700083845413E+01
 0.1662567140808E+01
 0.1620067174974E+01
 0.1573162737718E+01
 0.1522525477815E+01
 0.1468952031266E+01
 0.1413397042251E+01
 0.1357061922799E+01
 0.1301369948724E+01
 0.1247801207917E+01
 0.1197846101904E+01
 0.1153076215792E+01
 0.1115266666648E+01
 0.1086540698985E+01
 0.1069511867416E+01
 0.1067380327169E+01
 0.1083905119106E+01
 0.1123158358474E+01
 0.1189048367836E+01
 0.1284671455941E+01
 0.1411569176218E+01
 0.1569075327066E+01
 0.1753890384219E+01
 0.1959942432643E+01
 0.2178597942586E+01
 0.2399275494230E+01
 0.2610464904329E+01
 0.2800965644132E+01
 0.1591643567710E+01
 0.1636671762997E+01
 0.1683132733780E+01
 0.1727565151193E+01
 0.1766801015462E+01
 0.1798473602317E+01
 0.1821207960328E+01
 0.1834529046135E+01
 0.1838616457533E+01
 0.1834031637854E+01
 0.1821493999499E+01
 0.1801732859026E+01
 0.1775411324909E+01
 0.1743106630212E+01
 0.1705331648456E+01
 0.1662578170291E+01
 0.1615372502279E+01
 0.1564330225016E+01
 0.1510193281411E+01
 0.1453866545375E+01
 0.1396515165284E+01
 0.1339534182939E+01
 0.1284361527145E+01
 0.1232421220305E+01
 0.1185196445871E+01
 0.1144359131088E+01
 0.1111925191265E+01
 0.1090414848045E+01
 0.1082983099544E+01
 0.1093449015418E+01
 0.1126120452946E+01
 0.1185368613452E+01
 0.1274970089618E+01
 0.1397264785112E+01
 0.1552334677985E+01
 0.1737398113660E+01
 0.1946520790549E+01
 0.2170734657441E+01
 0.2398653361106E+01
 0.2617628060355E+01
 0.2815238638006E+01
 0.1627599368299E+01
 0.1675050377470E+01
 0.1724037404730E+01
 0.1770721616139E+01
 0.1811651664285E+01
 0.1844346068823E+01
 0.1867475273920E+01
 0.1880710637159E+01
 0.1884412248797E+01
 0.1879307365514E+01
 0.1866241510520E+01
 0.1846023428965E+01
 0.1819351964158E+01
 0.1786803454647E+01
 0.1748861504951E+01
 0.1705968831552E+01
 0.1658591550355E+01
 0.1607281941440E+01
 0.1552721209441E+01
 0.1495759863407E+01
 0.1437523727301E+01
 0.1379377231744E+01
 0.1322712511470E+01
 0.1268880997509E+01
 0.1219268551160E+01
 0.1175432684301E+01
 0.1139268365328E+01
 0.1113185010289E+01
 0.1100268585917E+01
 0.1104367485368E+01
 0.1129995779591E+01
 0.1181980310544E+01
 0.1264820740535E+01
 0.1381761434236E+01
 0.1533784978249E+01
 0.1718785747121E+01
 0.1931083900286E+01
 0.2161408703779E+01
 0.2397483693758E+01
 0.2625331382417E+01
 0.2831121583185E+01
 0.1664215227617E+01
 0.1714320310177E+01
 0.1766046560192E+01
 0.1815115514660E+01
 0.1857762301740E+01
 0.1891400708841E+01
 0.1914782992999E+01
 0.1927769531672E+01
 0.1930935647468E+01
 0.1925196311537E+01
 0.1911533473289E+01
 0.1890837570827E+01
 0.1863840674842E+01
 0.1831113069097E+01
 0.1793102353452E+01
 0.1750194449843E+01
 0.1702787206699E+01
 0.1651362045156E+01
 0.1596533259964E+01
 0.1539092592595E+01
 0.1480123957221E+01
 0.1420959373288E+01
 0.1362941958430E+01
 0.1307344365039E+01
 0.1255445798313E+01
 0.1208677381185E+01
 0.1168798583885E+01
 0.1138089388833E+01
 0.1119540776924E+01
 0.1116994823588E+01
 0.1135131868222E+01
 0.1179211314124E+01
 0.1254484651598E+01
 0.1365206829180E+01
 0.1513434599241E+01
 0.1697933903320E+01
 0.1913437109484E+01
 0.2150435015761E+01
 0.2395677072055E+01
 0.2633611304135E+01
 0.2848756287947E+01
 0.1701562506224E+01
 0.1754577703109E+01
 0.1809274220866E+01
 0.1860859388627E+01
 0.1905222626720E+01
 0.1939690713752E+01
 0.1963144871251E+01
 0.1975685207484E+01
 0.1978140638962E+01
 0.1971635888716E+01
 0.1957298120248E+01
 0.1936099953315E+01
 0.1908802846279E+01
 0.1875965101184E+01
 0.1837991188784E+01
 0.1795202237552E+01
 0.1747919416422E+01
 0.1696545375030E+01
 0.1641621159606E+01
 0.1583875546451E+01
 0.1524348520984E+01
 0.1464338608381E+01
 0.1405137238473E+01
 0.1347932232103E+01
 0.1293886468508E+01
 0.1244292023087E+01
 0.1200757464077E+01
 0.1165413740236E+01
 0.1141129251632E+01
 0.1131699864656E+01
 0.1141921913302E+01
 0.1177445983876E+01
 0.1244284045205E+01
 0.1347801164108E+01
 0.1491321215532E+01
 0.1674721369448E+01
 0.1893354934013E+01
 0.2137582710345E+01
 0.2393120957208E+01
 0.2642507899868E+01
 0.2868247351804E+01
 0.1739723425704E+01
 0.1795934134495E+01
 0.1853851912816E+01
 0.1908080134550E+01
 0.1954129314566E+01
 0.1989267967794E+01
 0.2012566920394E+01
 0.2024425816010E+01
 0.2025968714706E+01
 0.2018551278275E+01
 0.2003452254682E+01
 0.1981724614262E+01
 0.1954153825277E+01
 0.1921279542486E+01
 0.1883455734892E+01
 0.1840930601527E+01
 0.1793939947201E+01
 0.1742799351578E+01
 0.1687970040356E+01
 0.1630113821286E+01
 0.1570225384167E+01
 0.1509569542616E+01
 0.1449384075102E+01
 0.1390766180380E+01
 0.1334752514420E+01
 0.1282482873661E+01
 0.1235398805053E+01
 0.1195461873634E+01
 0.1165389141683E+01
 0.1148887012745E+01
 0.1150807895139E+01
 0.1177132074826E+01
 0.1234613885588E+01
 0.1329811954562E+01
 0.1467525549686E+01
 0.1649030998937E+01
 0.1870582469430E+01
 0.2122559217186E+01
 0.2389661716074E+01
 0.2652119189722E+01
 0.2889539557218E+01
 0.1778793684357E+01
 0.1838520022998E+01
 0.1899932386215E+01
 0.1956921153435E+01
 0.2004585955784E+01
 0.2040181258925E+01
 0.2063044932087E+01
 0.2073945888291E+01
 0.2074347170992E+01
 0.2065854344600E+01
 0.2049900607291E+01
 0.2027614536839E+01
 0.1999798519671E+01
 0.1966966249995E+01
 0.1929413788838E+01
 0.1887308341651E+01
 0.1840791494074E+01
 0.1790083038120E+01
 0.1735557474266E+01
 0.1677805783484E+01
 0.1617776719895E+01
 0.1556702185403E+01
 0.1495765214491E+01
 0.1435966997016E+01
 0.1378207979276E+01
 0.1323462046138E+01
 0.1272987106004E+01
 0.1228554528887E+01
 0.1192700632393E+01
 0.1168996776480E+01
 0.1162283180692E+01
 0.1178787495575E+01
 0.1225954819127E+01
 0.1311592437211E+01
 0.1442188864824E+01
 0.1620763031146E+01
 0.1844825684591E+01
 0.2105036729285E+01
 0.2384975378673E+01
 0.2662820368098E+01
 0.2912014185930E+01
 0.1818888754862E+01
 0.1882505282032E+01
 0.1947722978320E+01
 0.2007587752906E+01
 0.2056759882247E+01
 0.2092544319599E+01
 0.2114643733017E+01
 0.2124276526723E+01
 0.2123289765992E+01
 0.2113554378123E+01
 0.2096656619985E+01
 0.2073792847656E+01
 0.2045773764283E+01
 0.2013079511628E+01
 0.1975941157836E+01
 0.1934437102427E+01
 0.1888605565693E+01
 0.1838560974561E+01
 0.1784583253011E+01
 0.1727188303699E+01
 0.1667278698901E+01
 0.1606055045929E+01
 0.1544645082318E+01
 0.1483948320178E+01
 0.1424717858943E+01
 0.1367746281846E+01
 0.1314089156508E+01
 0.1265304600201E+01
 0.1223716305547E+01
 0.1192711314071E+01
 0.1177040824286E+01
 0.1183076851819E+01
 0.1218867410984E+01
 0.1293488976478E+01
 0.1415340768871E+01
 0.1589601220736E+01
 0.1815527781166E+01
 0.2084397224715E+01
 0.2378833894657E+01
 0.2674004624754E+01
 0.2940343318578E+01
 0.1860139753790E+01
 0.1928073129809E+01
 0.1997432846128E+01
 0.2060263848952E+01
 0.2110767133351E+01
 0.2146392176278E+01
 0.2167329304294E+01
 0.2175336927731E+01
 0.2172689671166E+01
 0.2161533000143E+01
 0.2143598698904E+01
 0.2120139023098E+01
 0.2091962570885E+01
 0.2059508181011E+01
 0.2022935569950E+01
 0.1982227310198E+01
 0.1937309312419E+01
 0.1888180528672E+01
 0.1835017710540E+01
 0.1778257250526E+01
 0.1718756032344E+01
 0.1657686356686E+01
 0.1596121343168E+01
 0.1534853782743E+01
 0.1474478380948E+01
 0.1415590923872E+01
 0.1359025898998E+01
 0.1306105202057E+01
 0.1258908072378E+01
 0.1220587034054E+01
 0.1195721659773E+01
 0.1190705010389E+01
 0.1214053923542E+01
 0.1276071761275E+01
 0.1387259037523E+01
 0.1555429467865E+01
 0.1782210371265E+01
 0.2060034747860E+01
 0.2370652393629E+01
 0.2686067021221E+01
 0.2973487866632E+01
 0.1902703224150E+01
 0.1975431057457E+01
 0.2049284914499E+01
 0.2115119115539E+01
 0.2166674040833E+01
 0.2201679367548E+01
 0.2220966454028E+01
 0.2226933091203E+01
 0.2222319479940E+01
 0.2209545006829E+01
 0.2190471211764E+01
 0.2166389360494E+01
 0.2138093442411E+01
 0.2105973263934E+01
 0.2070112058168E+01
 0.2030391039240E+01
 0.1986615761206E+01
 0.1938659553478E+01
 0.1886586932117E+01
 0.1830750434624E+01
 0.1771962878886E+01
 0.1711373095719E+01
 0.1650002220762E+01
 0.1588532987839E+01
 0.1527392336354E+01
 0.1466965842931E+01
 0.1407850896630E+01
 0.1351113467203E+01
 0.1298560015113E+01
 0.1253061362854E+01
 0.1218942017669E+01
 0.1202476937681E+01
 0.1212467322412E+01
 0.1260308866724E+01
 0.1358708294367E+01
 0.1518599762618E+01
 0.1744752791301E+01
 0.2031485926495E+01
 0.2360000374324E+01
 0.2698943891392E+01
 0.3010088935988E+01
 0.1946770632208E+01
 0.2024847240750E+01
 0.2103573175337E+01
 0.2172386334629E+01
 0.2224596118119E+01
 0.2258403314364E+01
 0.2275468088093E+01
 0.2278932191606E+01
 0.2272028856293E+01
 0.2257437790293E+01
 0.2237125138524E+01
 0.2212399314502E+01
 0.2184025609205E+01
 0.2152337717536E+01
 0.2117339133723E+01
 0.2078806217934E+01
 0.2036417234474E+01
 0.1989909386269E+01
 0.1939224642325E+01
 0.1884626566794E+01
 0.1826886079041E+01
 0.1767134866258E+01
 0.1706346183686E+01
 0.1645090281126E+01
 0.1583617626709E+01
 0.1522091245982E+01
 0.1460857232636E+01
 0.1400708381446E+01
 0.1343152792502E+01
 0.1290735055186E+01
 0.1247442084338E+01
 0.1219282581339E+01
 0.1215116722291E+01
 0.1247202245824E+01
 0.1330440225422E+01
 0.1479354692239E+01
 0.1702798994629E+01
 0.1998006134362E+01
 0.2346225403318E+01
 0.2712317577483E+01
 0.3050745895448E+01
 0.1992576279552E+01
 0.2076649696448E+01
 0.2160647434472E+01
 0.2232323859448E+01
 0.2284638972127E+01
 0.2316529695821E+01
 0.2330710253466E+01
 0.2331169529046E+01
 0.2321643527830E+01
 0.2305041698735E+01
 0.2283398940607E+01
 0.2258013950126E+01
 0.2229608051314E+01
 0.2198452976876E+01
 0.2164471852642E+01
 0.2127335597274E+01
 0.2086590088823E+01
 0.2041825753058E+01
 0.1992850081947E+01
 0.1939831211166E+01
 0.1883500541869E+01
 0.1824980376032E+01
 0.1765201643204E+01
 0.1704620553276E+01
 0.1643303209347E+01
 0.1581179367895E+01
 0.1518332492366E+01
 0.1455268850778E+01
 0.1393176962771E+01
 0.1334234993158E+01
 0.1282013296176E+01
 0.1242103271821E+01
 0.1223167184563E+01
 0.1237993524651E+01
 0.1303497918759E+01
 0.1438171205131E+01
 0.1656055766577E+01
 0.1958723509524E+01
 0.2328421710692E+01
 0.2725852485943E+01
 0.3096064151677E+01
 0.2040410362338E+01
 0.2131243905456E+01
 0.2220924968169E+01
 0.2295213742676E+01
 0.2346886587373E+01
 0.2375979424286E+01
 0.2386523054941E+01
 0.2383444075343E+01
 0.2370964035227E+01
 0.2352170462127E+01
 0.2329119661959E+01
 0.2303069143590E+01
 0.2274680421937E+01
 0.2244159289380E+01
 0.2211351322197E+01
 0.2175825378747E+01
 0.2136992700377E+01
 0.2094286558150E+01
 0.2047366022479E+01
 0.1996295238512E+01
 0.1941768138058E+01
 0.1884906604877E+01
 0.1826606075835E+01
 0.1767207859377E+01
 0.1706586704282E+01
 0.1644430630219E+01
 0.1580553232938E+01
 0.1515166580438E+01
 0.1449124884773E+01
 0.1384206237813E+01
 0.1323491718949E+01
 0.1272007610487E+01
 0.1237943325905E+01
 0.1234193861397E+01
 0.1279294684059E+01
 0.1395872615998E+01
 0.1604372416478E+01
 0.1912626503806E+01
 0.2305404647541E+01
 0.2739076253434E+01
 0.3146797637076E+01
 0.2090637299493E+01
 0.2189136523579E+01
 0.2284904085403E+01
 0.2361355665647E+01
 0.2411383570618E+01
 0.2436611698765E+01
 0.2442680379483E+01
 0.2435514358240E+01
 0.2419765249420E+01
 0.2398622339804E+01
 0.2374104618762E+01
 0.2347393274507E+01
 0.2319074396848E+01
 0.2289286385643E+01
 0.2257804367104E+01
 0.2224103732116E+01
 0.2187463068563E+01
 0.2147149155314E+01
 0.2102656326667E+01
 0.2053933048673E+01
 0.2001636650462E+01
 0.1946898291538E+01
 0.1890585608484E+01
 0.1832924465274E+01
 0.1773592209681E+01
 0.1712029631458E+01
 0.1647778743911E+01
 0.1580757504021E+01
 0.1511480254117E+01
 0.1441300860852E+01
 0.1372747798027E+01
 0.1310143358561E+01
 0.1260926633043E+01
 0.1237605380128E+01
 0.1259699190254E+01
 0.1353780713858E+01
 0.1547871798064E+01
 0.1858588436771E+01
 0.2275631653671E+01
 0.2751338082193E+01
 0.3203891601491E+01
 0.2143721908844E+01
 0.2250967832597E+01
 0.2353179027913E+01
 0.2431053554489E+01
 0.2478108848695E+01
 0.2498202558633E+01
 0.2498888941520E+01
 0.2487095290127E+01
 0.2467797019823E+01
 0.2444182159043E+01
 0.2418163756059E+01
 0.2390809464180E+01
 0.2362615520867E+01
 0.2333654586855E+01
 0.2303643456466E+01
 0.2271979239013E+01
 0.2237815955503E+01
 0.2200246915845E+01
 0.2158582851711E+01
 0.2112640432564E+01
 0.2063038783901E+01
 0.2010927872692E+01
 0.1957155278238E+01
 0.1901830539511E+01
 0.1844428504513E+01
 0.1784141105106E+01
 0.1720244201678E+01
 0.1652371782540E+01
 0.1580705045594E+01
 0.1506162832645E+01
 0.1430671182133E+01
 0.1357724056000E+01
 0.1293745454185E+01
 0.1250329317270E+01
 0.1247116546882E+01
 0.1313912789551E+01
 0.1487166158434E+01
 0.1795437007646E+01
 0.2237108502159E+01
 0.2761700407655E+01
 0.3268547149760E+01
 0.2200267657061E+01
 0.2317556677787E+01
 0.2426454560288E+01
 0.2504589725304E+01
 0.2546937569996E+01
 0.2560418785425E+01
 0.2554777708280E+01
 0.2537856786521E+01
 0.2514786355115E+01
 0.2488624397127E+01
 0.2461102727786E+01
 0.2433138397614E+01
 0.2405125618795E+01
 0.2377076471683E+01
 0.2348667042728E+01
 0.2319239347980E+01
 0.2287839481522E+01
 0.2253384846554E+01
 0.2214981394425E+01
 0.2172291866812E+01
 0.2125891217894E+01
 0.2076956052494E+01
 0.2026320254573E+01
 0.1973974773276E+01
 0.1919187850267E+01
 0.1860906002173E+01
 0.1798153370887E+01
 0.1730302513359E+01
 0.1657223815699E+01
 0.1579408355354E+01
 0.1498149058264E+01
 0.1416008240163E+01
 0.1338156386874E+01
 0.1274757128757E+01
 0.1244548924291E+01
 0.1279219092154E+01
 0.1423697396162E+01
 0.1722118726295E+01
 0.2187266347054E+01
 0.2768765142341E+01
 0.3342321147907E+01
 0.2261074037707E+01
 0.2389963289774E+01
 0.2505556178131E+01
 0.2582178146854E+01
 0.2617587327104E+01
 0.2622788003465E+01
 0.2609889553636E+01
 0.2587425231031E+01
 0.2560441516627E+01
 0.2531717411931E+01
 0.2502726715786E+01
 0.2474201731014E+01
 0.2446425815183E+01
 0.2419359235346E+01
 0.2392660520218E+01
 0.2365648998090E+01
 0.2337291108967E+01
 0.2306333915688E+01
 0.2271656212851E+01
 0.2232736888159E+01
 0.2190093629472E+01
 0.2144933220035E+01
 0.2098078390439E+01
 0.2049396260577E+01
 0.1997945594493E+01
 0.1942437812165E+01
 0.1881670994519E+01
 0.1814793379038E+01
 0.1741405540957E+01
 0.1661601294392E+01
 0.1576036365214E+01
 0.1486268063358E+01
 0.1396014353784E+01
 0.1313542691699E+01
 0.1255616557240E+01
 0.1253833034301E+01
 0.1360252306610E+01
 0.1638044330380E+01
 0.2122829563613E+01
 0.2770394553572E+01
 0.3427276723757E+01
 0.2327225233233E+01
 0.2469577666305E+01
 0.2591426767737E+01
 0.2663883350711E+01
 0.2689544910301E+01
 0.2684667890294E+01
 0.2663678039319E+01
 0.2635388970082E+01
 0.2604458348088E+01
 0.2573228903144E+01
 0.2542845000936E+01
 0.2513826092802E+01
 0.2486340226913E+01
 0.2460307936237E+01
 0.2435398155531E+01
 0.2410949772474E+01
 0.2385893095612E+01
 0.2358823739276E+01
 0.2328372537215E+01
 0.2293795104327E+01
 0.2255527682203E+01
 0.2214802172619E+01
 0.2172424784295E+01
 0.2128128251893E+01
 0.2080760981630E+01
 0.2028819394738E+01
 0.1970915218088E+01
 0.1906025821833E+01
 0.1833543750588E+01
 0.1753224147785E+01
 0.1665116903981E+01
 0.1569743579508E+01
 0.1469226071522E+01
 0.1369554403459E+01
 0.1284524806792E+01
 0.1243272390179E+01
 0.1301689151619E+01
 0.1543779618589E+01
 0.2039735409321E+01
 0.2763253612916E+01
 0.3526209022670E+01
 0.2400231785055E+01
 0.2558243869716E+01
 0.2685089793624E+01
 0.2749483910789E+01
 0.2761971875873E+01
 0.2745220977079E+01
 0.2715513154230E+01
 0.2681308757206E+01
 0.2646528930578E+01
 0.2612932546235E+01
 0.2581276176715E+01
 0.2551847564961E+01
 0.2524700264069E+01
 0.2499729721726E+01
 0.2476646339851E+01
 0.2454860049741E+01
 0.2433327541435E+01
 0.2410533049303E+01
 0.2384845993121E+01
 0.2355248893160E+01
 0.2322055690612E+01
 0.2286502550415E+01
 0.2249359042631E+01
 0.2210204286229E+01
 0.2167679294852E+01
 0.2120100188410E+01
 0.2065949987058E+01
 0.2004106083521E+01
 0.1933835765081E+01
 0.1854645423318E+01
 0.1766055006542E+01
 0.1667578766910E+01
 0.1559677974008E+01
 0.1445801212733E+01
 0.1335975845969E+01
 0.1254501432247E+01
 0.1255832066418E+01
 0.1442371385204E+01
 0.1933278390083E+01
 0.2742052397170E+01
 0.3642981836215E+01
 0.2482265795710E+01
 0.2658432449046E+01
 0.2787536548387E+01
 0.2838249415994E+01
 0.2833594495084E+01
 0.2803407200315E+01
 0.2764700110908E+01
 0.2724733437847E+01
 0.2686352490203E+01
 0.2650615687824E+01
 0.2617853865124E+01
 0.2588116517396E+01
 0.2561349443155E+01
 0.2537439103371E+01
 0.2516168639473E+01
 0.2497076994964E+01
 0.2479231550411E+01
 0.2461077376577E+01
 0.2440727420990E+01
 0.2416832370161E+01
 0.2389518609491E+01
 0.2359977765025E+01
 0.2328896423230E+01
 0.2295667536054E+01
 0.2258735563937E+01
 0.2216293622755E+01
 0.2166777311554E+01
 0.2109052621979E+01
 0.2042362438167E+01
 0.1966085440970E+01
 0.1879339191682E+01
 0.1780737031385E+01
 0.1669127849598E+01
 0.1545315918635E+01
 0.1415030851768E+01
 0.1295785771229E+01
 0.1234282901130E+01
 0.1341742432211E+01
 0.1798943955956E+01
 0.2698309946242E+01
 0.3783016926975E+01
 0.2576569054651E+01
 0.2773468934373E+01
 0.2899447221177E+01
 0.2928590773438E+01
 0.2902602330724E+01
 0.2858013185312E+01
 0.2810513331990E+01
 0.2765220212150E+01
 0.2723648424076E+01
 0.2686087900000E+01
 0.2652432769334E+01
 0.2622502667874E+01
 0.2596148577981E+01
 0.2573264265925E+01
 0.2553733182238E+01
 0.2537281743505E+01
 0.2523193771334E+01
 0.2509993563350E+01
 0.2495580890049E+01
 0.2478214372645E+01
 0.2457732892498E+01
 0.2435185845719E+01
 0.2411084802033E+01
 0.2384584659844E+01
 0.2353960225823E+01
 0.2317374502294E+01
 0.2273329163865E+01
 0.2220784530123E+01
 0.2159070469730E+01
 0.2087583948182E+01
 0.2005221615513E+01
 0.1909897300487E+01
 0.1799051331036E+01
 0.1670967980523E+01
 0.1526905625657E+01
 0.1376365183099E+01
 0.1252628574980E+01
 0.1258489846551E+01
 0.1635145863352E+01
 0.2618456122558E+01
 0.3953955705436E+01
 0.2688199063380E+01
 0.2907796712276E+01
 0.3020553795009E+01
 0.3017551444288E+01
 0.2966620524805E+01
 0.2907739346563E+01
 0.2852241709212E+01
 0.2802358453955E+01
 0.2758171198630E+01
 0.2719189915222E+01
 0.2684894809820E+01
 0.2654900137559E+01
 0.2628981063775E+01
 0.2607054084705E+01
 0.2589122623576E+01
 0.2575149540380E+01
 0.2564754707790E+01
 0.2556721087567E+01
 0.2548851325809E+01
 0.2538971350474E+01
 0.2526485221206E+01
 0.2512116357553E+01
 0.2496030147686E+01
 0.2477065576464E+01
 0.2453386806550E+01
 0.2423275534047E+01
 0.2385457941022E+01
 0.2339110938665E+01
 0.2283759523215E+01
 0.2218973958953E+01
 0.2143659227731E+01
 0.2055336432752E+01
 0.1950440379458E+01
 0.1825177765958E+01
 0.1676630597769E+01
 0.1506013166159E+01
 0.1329648319405E+01
 0.1222151070981E+01
 0.1450922608380E+01
 0.2481445228496E+01
 0.4166371136815E+01
 0.2825481663974E+01
 0.3067126326770E+01
 0.3148238772945E+01
 0.3100191120485E+01
 0.3022893353381E+01
 0.2951344702896E+01
 0.2889233503104E+01
 0.2835798270883E+01
 0.2789726041729E+01
 0.2749802399081E+01
 0.2715155140141E+01
 0.2685232264224E+01
 0.2659757993650E+01
 0.2638685295403E+01
 0.2622146372606E+01
 0.2610366963561E+01
 0.2603415466191E+01
 0.2600581805713E+01
 0.2599816301953E+01
 0.2598542955355E+01
 0.2595523681318E+01
 0.2590817472971E+01
 0.2583934829768E+01
 0.2573291079082E+01
 0.2557061746677E+01
 0.2533882060777E+01
 0.2502923823477E+01
 0.2463720783029E+01
 0.2416077040346E+01
 0.2359868339686E+01
 0.2294264678450E+01
 0.2216809576538E+01
 0.2123562920035E+01
 0.2009516644723E+01
 0.1868490423751E+01
 0.1694331306125E+01
 0.1486000421511E+01
 0.1275922908041E+01
 0.1284957461299E+01
 0.2258131397841E+01
 0.4433930292013E+01
 0.3003075622355E+01
 0.3257816790115E+01
 0.3274549654788E+01
 0.3169271228367E+01
 0.3068875888238E+01
 0.2987769228654E+01
 0.2920940378172E+01
 0.2865285979767E+01
 0.2818182022785E+01
 0.2777854738775E+01
 0.2743167496391E+01
 0.2713455906725E+01
 0.2688422785876E+01
 0.2668069054430E+01
 0.2652653458723E+01
 0.2642657496625E+01
 0.2638663111598E+01
 0.2640763857763E+01
 0.2647513258805E+01
 0.2656156444195E+01
 0.2664543027452E+01
 0.2671440560078E+01
 0.2675154922894E+01
 0.2673549850191E+01
 0.2665055685009E+01
 0.2649023458293E+01
 0.2625375726393E+01
 0.2594169778766E+01
 0.2555523188906E+01
 0.2509667864861E+01
 0.2456276450289E+01
 0.2393439326432E+01
 0.2317716334043E+01
 0.2224190501761E+01
 0.2105217940880E+01
 0.1949401454865E+01
 0.1742597475141E+01
 0.1471488556555E+01
 0.1237377060220E+01
 0.1924900045789E+01
 0.4770878662876E+01
 0.3249176310872E+01
 0.3482664778565E+01
 0.3380352784784E+01
 0.3216844078387E+01
 0.3103112465686E+01
 0.3016066104727E+01
 0.2947026506827E+01
 0.2890682601847E+01
 0.2843485961388E+01
 0.2803332592467E+01
 0.2768928576236E+01
 0.2739565036333E+01
 0.2714954997162E+01
 0.2695156535391E+01
 0.2680543180710E+01
 0.2671812824131E+01
 0.2670025474871E+01
 0.2676327254803E+01
 0.2690628770981E+01
 0.2710691879598E+01
 0.2733161780835E+01
 0.2754317243054E+01
 0.2770285589234E+01
 0.2778285967966E+01
 0.2777474807677E+01
 0.2768460322834E+01
 0.2752322178806E+01
 0.2729857044865E+01
 0.2701468332381E+01
 0.2667605035694E+01
 0.2628562017275E+01
 0.2583617579760E+01
 0.2531016039365E+01
 0.2467512300088E+01
 0.2386799314990E+01
 0.2276113189197E+01
 0.2115718913521E+01
 0.1866331543662E+01
 0.1469016135011E+01
 0.1554734500949E+01
 0.5183162518861E+01
 0.3625334620119E+01
 0.3719398962956E+01
 0.3428450742598E+01
 0.3241688129200E+01
 0.3124246980888E+01
 0.3035690902601E+01
 0.2967432888135E+01
 0.2911969945816E+01
 0.2865679700108E+01
 0.2826281351150E+01
 0.2792482125130E+01
 0.2763593192736E+01
 0.2739373101820E+01
 0.2719943428391E+01
 0.2705772344084E+01
 0.2697717112389E+01
 0.2697166850467E+01
 0.2706281886962E+01
 0.2727330937714E+01
 0.2760424219403E+01
 0.2800894991112E+01
 0.2840099466783E+01
 0.2870285763088E+01
 0.2888157067502E+01
 0.2894469352163E+01
 0.2891867942880E+01
 0.2883092074121E+01
 0.2869974998198E+01
 0.2853179042225E+01
 0.2832860406461E+01
 0.2809659250147E+01
 0.2784941754319E+01
 0.2760180103275E+01
 0.2735686031553E+01
 0.2708848044158E+01
 0.2673956288568E+01
 0.2610983621583E+01
 0.2504214121795E+01
 0.2180223552808E+01
 0.1659329654214E+01
 0.5655025050905E+01
 0.4296164888650E+01
 0.3798364029678E+01
 0.3407044630056E+01
 0.3247710156681E+01
 0.3130120545036E+01
 0.3047261347578E+01
 0.2982182466697E+01
 0.2929333007929E+01
 0.2884888335739E+01
 0.2846814430802E+01
 0.2813919698914E+01
 0.2785615249215E+01
 0.2761735932363E+01
 0.2742472040752E+01
 0.2728361503979E+01
 0.2720351281606E+01
 0.2719980963826E+01
 0.2729888663946E+01
 0.2755033396743E+01
 0.2802461094228E+01
 0.2867174175521E+01
 0.2930011623597E+01
 0.2976651129447E+01
 0.3004100014229E+01
 0.3016232061017E+01
 0.3018812526022E+01
 0.3016796757880E+01
 0.3013404597809E+01
 0.3009804931164E+01
 0.3004846182726E+01
 0.2997883097237E+01
 0.2994051908898E+01
 0.3000610280763E+01
 0.3022215682313E+01
 0.3063464350355E+01
 0.3128569648422E+01
 0.3230115104130E+01
 0.3349974557972E+01
 0.3623337816683E+01
 0.3244974696488E+01
 0.6693214802624E+01
 0.3575610524189E+00
 0.5203813591668E+00
 0.6666449773293E+00
 0.7961616198546E+00
 0.9101703266530E+00
 0.1010354133919E+01
 0.1098536710507E+01
 0.1176531225742E+01
 0.1245999874866E+01
 0.1308446173387E+01
 0.1365317191024E+01
 0.1417570808748E+01
 0.1466326342726E+01
 0.1513300073470E+01
 0.1559672180617E+01
 0.1605779080098E+01
 0.1651500474619E+01
 0.1696420864783E+01
 0.1739995195411E+01
 0.1780683798432E+01
 0.3463775652775E+00
 0.5166427610976E+00
 0.6686242744443E+00
 0.8029982279723E+00
 0.9211967113477E+00
 0.1025084909389E+01
 0.1116671418417E+01
 0.1197897012043E+01
 0.1270509007551E+01
 0.1336097375179E+01
 0.1396124023986E+01
 0.1451626847926E+01
 0.1503940968064E+01
 0.1554712786417E+01
 0.1605002386752E+01
 0.1655327057212E+01
 0.1705752442483E+01
 0.1756052793532E+01
 0.1804252584132E+01
 0.1845547412123E+01
 0.3356719220005E+00
 0.5133009406530E+00
 0.6708182652453E+00
 0.8096411639122E+00
 0.9316371871645E+00
 0.1038895210620E+01
 0.1133578257108E+01
 0.1217739060654E+01
 0.1293217684017E+01
 0.1361667617323E+01
 0.1424581390376E+01
 0.1483153608388E+01
 0.1538778670670E+01
 0.1593020309967E+01
 0.1646944647143E+01
 0.1701112176858E+01
 0.1755619168073E+01
 0.1809792958685E+01
 0.1861047473134E+01
 0.1905915359859E+01
 0.3255894969382E+00
 0.5102239446471E+00
 0.6730072918993E+00
 0.8159427829143E+00
 0.9413721458376E+00
 0.1051658577851E+01
 0.1149120813997E+01
 0.1235916500678E+01
 0.1313968915089E+01
 0.1384992888824E+01
 0.1450534070773E+01
 0.1511901077436E+01
 0.1570517981204E+01
 0.1627875253797E+01
 0.1685018284852E+01
 0.1742488848318E+01
 0.1800232502142E+01
 0.1857259597331E+01
 0.1911164412673E+01
 0.1959148767581E+01
 0.3161773463978E+00
 0.5073711978452E+00
 0.6750572927311E+00
 0.8217611046325E+00
 0.9502760346317E+00
 0.1063252438279E+01
 0.1163172600796E+01
 0.1252295388878E+01
 0.1332620444266E+01
 0.1405922751719E+01
 0.1473798342426E+01
 0.1537638304745E+01
 0.1598875450349E+01
 0.1658926034881E+01
 0.1718785712845E+01
 0.1778918969527E+01
 0.1839124051779E+01
 0.1898301277493E+01
 0.1954229809422E+01
 0.2004413438407E+01
 0.3074651560300E+00
 0.5047018231378E+00
 0.6768723484556E+00
 0.8269758995751E+00
 0.9582289920040E+00
 0.1073560461455E+01
 0.1175616133945E+01
 0.1266753433662E+01
 0.1349042378120E+01
 0.1424311682024E+01
 0.1494199535494E+01
 0.1560151724954E+01
 0.1623592226519E+01
 0.1685858944757E+01
 0.1747875016347E+01
 0.1810015430679E+01
 0.1871977836157E+01
 0.1932616541620E+01
 0.1989836196973E+01
 0.2041216775225E+01
 0.2994756031865E+00
 0.5021788191726E+00
 0.6783726585952E+00
 0.8314853606123E+00
 0.9651233060728E+00
 0.1082475859579E+01
 0.1186344765863E+01
 0.1279180730433E+01
 0.1363116784209E+01
 0.1440026520319E+01
 0.1511579058221E+01
 0.1579251078418E+01
 0.1644442634179E+01
 0.1708409788370E+01
 0.1771994791874E+01
 0.1835490444555E+01
 0.1898522276571E+01
 0.1959920480113E+01
 0.2017655659378E+01
 0.2069268770930E+01
 0.2922281608207E+00
 0.4997691536316E+00
 0.6794901921123E+00
 0.8352023839404E+00
 0.9708650332809E+00
 0.1089904208138E+01
 0.1195264444446E+01
 0.1289480879408E+01
 0.1374740320241E+01
 0.1452950773610E+01
 0.1525799956867E+01
 0.1594775255926E+01
 0.1661240705844E+01
 0.1726370026868E+01
 0.1790924798280E+01
 0.1855124957367E+01
 0.1918541221291E+01
 0.1979986356718E+01
 0.2037459646369E+01
 0.2088415855017E+01
 0.2857401149487E+00
 0.4974444156448E+00
 0.6801671059223E+00
 0.8380532526612E+00
 0.9753743226632E+00
 0.1095765033447E+01
 0.1202295325100E+01
 0.1297572716299E+01
 0.1383826690888E+01
 0.1462988194079E+01
 0.1536751094384E+01
 0.1606596725346E+01
 0.1673844125312E+01
 0.1739586380449E+01
 0.1804507838460E+01
 0.1868764001823E+01
 0.1931881857759E+01
 0.1992661040360E+01
 0.2049113675757E+01
 0.2098603540960E+01
 0.2800268170428E+00
 0.4951810948362E+00
 0.6803553543679E+00
 0.8399771512557E+00
 0.9785856634371E+00
 0.1099992779044E+01
 0.1207373141615E+01
 0.1303391975894E+01
 0.1390308827840E+01
 0.1470065542218E+01
 0.1544350162003E+01
 0.1614624300298E+01
 0.1682155593833E+01
 0.1747959190976E+01
 0.1812646669513E+01
 0.1876316249745E+01
 0.1938459593759E+01
 0.1997868429627E+01
 0.2052565342130E+01
 0.2099843833512E+01
 0.2751016396345E+00
 0.4929606954925E+00
 0.6800166156415E+00
 0.8409260688771E+00
 0.9804481151111E+00
 0.1102537504204E+01
 0.1210450290360E+01
 0.1306892705513E+01
 0.1394140643727E+01
 0.1474134617340E+01
 0.1548545640107E+01
 0.1618804534852E+01
 0.1686123013530E+01
 0.1751441265844E+01
 0.1815302667888E+01
 0.1877754376083E+01
 0.1938259974565E+01
 0.1995609725804E+01
 0.2047841971753E+01
 0.2092215235679E+01
 0.2709758713078E+00
 0.4907697429338E+00
 0.6791223110196E+00
 0.8408648294350E+00
 0.9809255178964E+00
 0.1103365388821E+01
 0.1211496634941E+01
 0.1308048321704E+01
 0.1395298280230E+01
 0.1475173553439E+01
 0.1549317816917E+01
 0.1619122128201E+01
 0.1685739083054E+01
 0.1750036827674E+01
 0.1812494882274E+01
 0.1873114865885E+01
 0.1931338947143E+01
 0.1985963441631E+01
 0.2035053627201E+01
 0.2075874248647E+01
 0.2676586153865E+00
 0.4885997180784E+00
 0.6776536089104E+00
 0.8397711247900E+00
 0.9799966323793E+00
 0.1102459058561E+01
 0.1210500031047E+01
 0.1306852288360E+01
 0.1393780845892E+01
 0.1473187450840E+01
 0.1546679052516E+01
 0.1615599640996E+01
 0.1681040452771E+01
 0.1743800306874E+01
 0.1804298864987E+01
 0.1862497152140E+01
 0.1917822168496E+01
 0.1969084718602E+01
 0.2014391824548E+01
 0.2051054868156E+01
 0.2651567159608E+00
 0.4864469408924E+00
 0.6756013731844E+00
 0.8376354860856E+00
 0.9776551683575E+00
 0.1099817716463E+01
 0.1207466563766E+01
 0.1303318406202E+01
 0.1389610653437E+01
 0.1468208404191E+01
 0.1540673404669E+01
 0.1608296628824E+01
 0.1672106414205E+01
 0.1732834739324E+01
 0.1790845008384E+01
 0.1846062028787E+01
 0.1897903413134E+01
 0.1945203129026E+01
 0.1986125659905E+01
 0.2018064914160E+01
 0.2634747079811E+00
 0.4843124106950E+00
 0.6729660368288E+00
 0.8344611613154E+00
 0.9739096799916E+00
 0.1095457075769E+01
 0.1202420505400E+01
 0.1297480734839E+01
 0.1382833001860E+01
 0.1460295007216E+01
 0.1531375714330E+01
 0.1597308261857E+01
 0.1659057107907E+01
 0.1717289670621E+01
 0.1772316288642E+01
 0.1824029318775E+01
 0.1871842044447E+01
 0.1914619531907E+01
 0.1950598039422E+01
 0.1977283367102E+01
 0.2626147818267E+00
 0.4822016106521E+00
 0.6697573943612E+00
 0.8302638835856E+00
 0.9687833146817E+00
 0.1089409091717E+01
 0.1195404003924E+01
 0.1289393171882E+01
 0.1373515546337E+01
 0.1449531394351E+01
 0.1518890209018E+01
 0.1582763457783E+01
 0.1642051225923E+01
 0.1697358500001E+01
 0.1748945346990E+01
 0.1796674755211E+01
 0.1839959675114E+01
 0.1877702557134E+01
 0.1908222691666E+01
 0.1929159511717E+01
 0.2625767398203E+00
 0.4801242752591E+00
 0.6659943049764E+00
 0.8250715180744E+00
 0.9623134060174E+00
 0.1081721491142E+01
 0.1186476512938E+01
 0.1279128714064E+01
 0.1361747295588E+01
 0.1436025868371E+01
 0.1503348667690E+01
 0.1564822550780E+01
 0.1621283203700E+01
 0.1673275237872E+01
 0.1721010882282E+01
 0.1764326095600E+01
 0.1802636150285E+01
 0.1834884861180E+01
 0.1859481728617E+01
 0.1874213430579E+01
 0.2633579430869E+00
 0.4780941264746E+00
 0.6617043118821E+00
 0.8189235913297E+00
 0.9545509168003E+00
 0.1072457112773E+01
 0.1175713986304E+01
 0.1266778435394E+01
 0.1347637282481E+01
 0.1419909165366E+01
 0.1484908193805E+01
 0.1543674530429E+01
 0.1596979920363E+01
 0.1645310684703E+01
 0.1688833364298E+01
 0.1727358495458E+01
 0.1760304866069E+01
 0.1786659008966E+01
 0.1804923271060E+01
 0.1813037123133E+01
 0.2649532399809E+00
 0.4761285807982E+00
 0.6569231814005E+00
 0.8118707083848E+00
 0.9455597413350E+00
 0.1061693074367E+01
 0.1163207863015E+01
 0.1252450218067E+01
 0.1331312952423E+01
 0.1401332406108E+01
 0.1463748643546E+01
 0.1519533891114E+01
 0.1569396940510E+01
 0.1613768057883E+01
 0.1652770087299E+01
 0.1686189132387E+01
 0.1713447320370E+01
 0.1733572681417E+01
 0.1745158586932E+01
 0.1746295472475E+01
 0.2673548792585E+00
 0.4742484308580E+00
 0.6516943689412E+00
 0.8039738667277E+00
 0.9354158794359E+00
 0.1049519784806E+01
 0.1149063868036E+01
 0.1236267270216E+01
 0.1312918310953E+01
 0.1380464779964E+01
 0.1440069756528E+01
 0.1492637138802E+01
 0.1538814343803E+01
 0.1578978110161E+01
 0.1613209594208E+01
 0.1641271061875E+01
 0.1662586744967E+01
 0.1676222845741E+01
 0.1680858162870E+01
 0.1674726336201E+01
 0.2705524186011E+00
 0.4724775065741E+00
 0.6460684220112E+00
 0.7953036807002E+00
 0.9242064995977E+00
 0.1036039824074E+01
 0.1133400658998E+01
 0.1218366467924E+01
 0.1292611875135E+01
 0.1357491011959E+01
 0.1414088044164E+01
 0.1463239014933E+01
 0.1505532206747E+01
 0.1541293804530E+01
 0.1570565521117E+01
 0.1593086302837E+01
 0.1608280687990E+01
 0.1615248459019E+01
 0.1612745924111E+01
 0.1599138290944E+01
 0.2745326440241E+00
 0.4708423219049E+00
 0.6401023319310E+00
 0.7859395317447E+00
 0.9120289104881E+00
 0.1021366715090E+01
 0.1116348348718E+01
 0.1198896558257E+01
 0.1270564472514E+01
 0.1332608663676E+01
 0.1386033493553E+01
 0.1431608503776E+01
 0.1469865812282E+01
 0.1501084626321E+01
 0.1525269933613E+01
 0.1542138179670E+01
 0.1551112473596E+01
 0.1551321336015E+01
 0.1541590120203E+01
 0.1520402018959E+01
 0.2792795186673E+00
 0.4693717141798E+00
 0.6338588477882E+00
 0.7759686620464E+00
 0.8989894619345E+00
 0.1005623612891E+01
 0.1098046934432E+01
 0.1178016260516E+01
 0.1246956931895E+01
 0.1306025320159E+01
 0.1356146148341E+01
 0.1398024696501E+01
 0.1432140674668E+01
 0.1458730633353E+01
 0.1477766257954E+01
 0.1488943001862E+01
 0.1491681539202E+01
 0.1485135146944E+01
 0.1468190742951E+01
 0.1439437509956E+01
 0.2847741787469E+00
 0.4680964839456E+00
 0.6274057680286E+00
 0.7654852315812E+00
 0.8852023991082E+00
 0.9889419389445E+00
 0.1078644666553E+01
 0.1155892304665E+01
 0.1221977712239E+01
 0.1277955717888E+01
 0.1324672632585E+01
 0.1362772592491E+01
 0.1392687479433E+01
 0.1414616367220E+01
 0.1428501953446E+01
 0.1434021231812E+01
 0.1430592796693E+01
 0.1417392668975E+01
 0.1393364820335E+01
 0.1357198070178E+01
 0.2909949915260E+00
 0.4670490435102E+00
 0.6208152255257E+00
 0.7545893588429E+00
 0.8707886933702E+00
 0.9714599873752E+00
 0.1058296388039E+01
 0.1132697443724E+01
 0.1195820513640E+01
 0.1248618866705E+01
 0.1291862681976E+01
 0.1326138917893E+01
 0.1351837040903E+01
 0.1369124761631E+01
 0.1377921107081E+01
 0.1377888378615E+01
 0.1368445280283E+01
 0.1348791588794E+01
 0.1317928940072E+01
 0.1274648625019E+01
 0.2979176856702E+00
 0.4662630826578E+00
 0.6141629825187E+00
 0.7433861659976E+00
 0.8558748732292E+00
 0.9533215291542E+00
 0.1037161874008E+01
 0.1108608474974E+01
 0.1168681912370E+01
 0.1218235216728E+01
 0.1257965744938E+01
 0.1288408039364E+01
 0.1309915379167E+01
 0.1322631189887E+01
 0.1326457160452E+01
 0.1321045927592E+01
 0.1305820514749E+01
 0.1280009188072E+01
 0.1242678668991E+01
 0.1192737460034E+01
 0.3055155575668E+00
 0.4657732601109E+00
 0.6075277532930E+00
 0.7319848516936E+00
 0.8405918814193E+00
 0.9346744423527E+00
 0.1015404202757E+01
 0.1083804306224E+01
 0.1140759063632E+01
 0.1187023923307E+01
 0.1223227717961E+01
 0.1249858051467E+01
 0.1267239016915E+01
 0.1275497794076E+01
 0.1274525991034E+01
 0.1263972667679E+01
 0.1243271161298E+01
 0.1211686645201E+01
 0.1168365709357E+01
 0.1112361958601E+01
 0.3137597539617E+00
 0.4656149281974E+00
 0.6009905686679E+00
 0.7204978085562E+00
 0.8250739756676E+00
 0.9156693860381E+00
 0.9931881771396E+00
 0.1058464090406E+01
 0.1112247503070E+01
 0.1155200251582E+01
 0.1187887868564E+01
 0.1210757103189E+01
 0.1224110578983E+01
 0.1228068216611E+01
 0.1222519550535E+01
 0.1207116777878E+01
 0.1181310591090E+01
 0.1144414170586E+01
 0.1095674927635E+01
 0.1034331732731E+01
 0.3226196246518E+00
 0.4658238996928E+00
 0.5946342040569E+00
 0.7090398136223E+00
 0.8094577027361E+00
 0.8964585460628E+00
 0.9706788237055E+00
 0.1032765458040E+01
 0.1083339082951E+01
 0.1122973166348E+01
 0.1152176001794E+01
 0.1171360024971E+01
 0.1180814758933E+01
 0.1180662816628E+01
 0.1170800206832E+01
 0.1150888972715E+01
 0.1120404018957E+01
 0.1078718355027E+01
 0.1025204473531E+01
 0.9593363205830E+00
 0.3320631249219E+00
 0.4664362606703E+00
 0.5885426872162E+00
 0.6977273156478E+00
 0.7938809707514E+00
 0.8771944756179E+00
 0.9480399911392E+00
 0.1006882871995E+01
 0.1054220076785E+01
 0.1090543157016E+01
 0.1116309938502E+01
 0.1131905333972E+01
 0.1137614724839E+01
 0.1133574441538E+01
 0.1119695904845E+01
 0.1095656970456E+01
 0.1060961787080E+01
 0.1015053002865E+01
 0.9574518205985E+00
 0.8879235176342E+00
 0.3420572594518E+00
 0.4674882348802E+00
 0.5828009054093E+00
 0.6866778446320E+00
 0.7784822419706E+00
 0.8580290452290E+00
 0.9254330568861E+00
 0.9809861128380E+00
 0.1025069468175E+01
 0.1058100332039E+01
 0.1080493367518E+01
 0.1092612696192E+01
 0.1094749025114E+01
 0.1087064769675E+01
 0.1069496154427E+01
 0.1041741411917E+01
 0.1003335206675E+01
 0.9537942888374E+00
 0.8928069629210E+00
 0.8204895114119E+00
 0.3525685385644E+00
 0.4690160976218E+00
 0.5774943358192E+00
 0.6760095799029E+00
 0.7633998763259E+00
 0.8391125193024E+00
 0.9030157483691E+00
 0.9552388956405E+00
 0.9960574247920E+00
 0.1025822797974E+01
 0.1044914123259E+01
 0.1053680932998E+01
 0.1052429058313E+01
 0.1041361178218E+01
 0.1020448665677E+01
 0.9894130831766E+00
 0.9478150859295E+00
 0.8952405488741E+00
 0.8315526819741E+00
 0.7572790166972E+00
 0.3635634136357E+00
 0.4710561322659E+00
 0.5727089294640E+00
 0.6658411180807E+00
 0.7487716486536E+00
 0.8205927555423E+00
 0.8809410606638E+00
 0.9297975937825E+00
 0.9673439254419E+00
 0.9938752919431E+00
 0.1009742905567E+01
 0.1015286674646E+01
 0.1010837244493E+01
 0.9966541066967E+00
 0.9727562779373E+00
 0.9388908688009E+00
 0.8946327128580E+00
 0.8396169922284E+00
 0.7738712451874E+00
 0.6983929146908E+00
 0.3750086271904E+00
 0.4736446101403E+00
 0.5685312079773E+00
 0.6562915281737E+00
 0.7347344879738E+00
 0.8026145391832E+00
 0.8593562768064E+00
 0.9048100913198E+00
 0.9390775592014E+00
 0.9624080645350E+00
 0.9751324695539E+00
 0.9775838691364E+00
 0.9701262994552E+00
 0.9530952475770E+00
 0.9265738340630E+00
 0.8903394104445E+00
 0.8439622521563E+00
 0.7870860248654E+00
 0.7198592056478E+00
 0.6438022012316E+00
 0.3868713607345E+00
 0.4768177443465E+00
 0.5650487100192E+00
 0.6474808349432E+00
 0.7214244844984E+00
 0.7853189952500E+00
 0.8384020425477E+00
 0.8804147449316E+00
 0.9113944667185E+00
 0.9315558992243E+00
 0.9412170702513E+00
 0.9407040546247E+00
 0.9304201114637E+00
 0.9107972364246E+00
 0.8820048896965E+00
 0.8438641117811E+00
 0.7959217416760E+00
 0.7377618679072E+00
 0.6695563489807E+00
 0.5933797429370E+00
 0.3991188770121E+00
 0.4806115778473E+00
 0.5623510362324E+00
 0.6395312626749E+00
 0.7089771250142E+00
 0.7688429498234E+00
 0.8182114014316E+00
 0.8567395071831E+00
 0.8844174910245E+00
 0.9014372226767E+00
 0.9081119324914E+00
 0.9047569339840E+00
 0.8918164746480E+00
 0.8698373202219E+00
 0.8390993893702E+00
 0.7995015270432E+00
 0.7505652060751E+00
 0.6917267784611E+00
 0.6229880941508E+00
 0.5469503144308E+00
 0.4117170630520E+00
 0.4850613792551E+00
 0.5605327011455E+00
 0.6325695990077E+00
 0.6975277644329E+00
 0.7533177277576E+00
 0.7989087400333E+00
 0.8339012965762E+00
 0.8582556572063E+00
 0.8721533144942E+00
 0.8759123736704E+00
 0.8698304699723E+00
 0.8543899647931E+00
 0.8302667758957E+00
 0.7978622446429E+00
 0.7572003475950E+00
 0.7078557318456E+00
 0.6490303832858E+00
 0.5802306073409E+00
 0.5043468009259E+00
 0.4246249712587E+00
 0.4902027812240E+00
 0.5596987536673E+00
 0.6267333058994E+00
 0.6872102566823E+00
 0.7388669989100E+00
 0.7806086528961E+00
 0.8120058070268E+00
 0.8330042095604E+00
 0.8437878727985E+00
 0.8446925824700E+00
 0.8359893709721E+00
 0.8181934351711E+00
 0.7921195447383E+00
 0.7582844828359E+00
 0.7168354230689E+00
 0.6675569913208E+00
 0.6096555032626E+00
 0.5414872927299E+00
 0.4655583629058E+00
 0.4377824737203E+00
 0.4960617470982E+00
 0.5599981280780E+00
 0.6221718460792E+00
 0.6781513765281E+00
 0.7256045544448E+00
 0.7634147810558E+00
 0.7911473166811E+00
 0.8087465199552E+00
 0.8164071368275E+00
 0.8145040963601E+00
 0.8032725298389E+00
 0.7832540081842E+00
 0.7554185121909E+00
 0.7203635043517E+00
 0.6783244665539E+00
 0.6292255611540E+00
 0.5729650791656E+00
 0.5073860595123E+00
 0.4311661538188E+00
 0.4509759219271E+00
 0.5028269512365E+00
 0.5616562358610E+00
 0.6190277142070E+00
 0.6704646867468E+00
 0.7136319565590E+00
 0.7474201070150E+00
 0.7714067862370E+00
 0.7855549345856E+00
 0.7900697654232E+00
 0.7853677161221E+00
 0.7716860990991E+00
 0.7495753686409E+00
 0.7201564595426E+00
 0.6841227941605E+00
 0.6416575537207E+00
 0.5927316722766E+00
 0.5374124032283E+00
 0.4761934340479E+00
 0.4056864581666E+00
 0.9025410285817E+00
 0.3422195925275E+00
 0.7835579439231E-01
 0.1226203063861E-01
 0.2766749892357E-01
 0.5479127856613E-01
 0.7755410307504E-01
 0.9788876925981E-01
 0.1157393126059E+00
 0.1302966334450E+00
 0.1395545018751E+00
 0.1410585071924E+00
 0.1301821341193E+00
 0.1068242063794E+00
 0.7468018173256E-01
 0.3722793436876E-01
 0.6742828154336E-02
 0.3517559062444E-01
 0.6528607905774E-01
 0.1233544142916E+00
 0.9397233930624E+00
 0.6606794754359E+00
 0.2714427578389E+00
 0.1220891956624E+00
 0.5542401521753E-01
 0.1506913144192E-01
 0.1384440450927E-01
 0.3735438139836E-01
 0.5777680467603E-01
 0.7522215150836E-01
 0.8868796278204E-01
 0.9818635892485E-01
 0.9851743094669E-01
 0.8587355037292E-01
 0.6321250262685E-01
 0.3477187377159E-01
 0.7426160451731E-02
 0.1982060883302E-01
 0.4566651259113E-01
 0.8800038290647E-01
 0.8756713669844E+00
 0.7637619266793E+00
 0.4613947647898E+00
 0.2572687028261E+00
 0.1551632343920E+00
 0.9750218918294E-01
 0.5947118256380E-01
 0.3081939784240E-01
 0.6891604010556E-02
 0.1405875351358E-01
 0.3218010942955E-01
 0.4814611386378E-01
 0.5717383829156E-01
 0.5364895527329E-01
 0.3952192736040E-01
 0.1896502089061E-01
 0.3159599110550E-02
 0.2482151953920E-01
 0.5048267146027E-01
 0.1011026356550E+00
 0.8095080741465E+00
 0.7895807279482E+00
 0.5824231196890E+00
 0.3906542271312E+00
 0.2654999406873E+00
 0.1903087042888E+00
 0.1416478590838E+00
 0.1066026945992E+00
 0.7840158714940E-01
 0.5368620489187E-01
 0.3133420096088E-01
 0.1009092651835E-01
 0.6073639792986E-02
 0.9985684883188E-02
 0.2930540660267E-02
 0.1201886313396E-01
 0.3042060547374E-01
 0.5257964144982E-01
 0.8576104942820E-01
 0.1556751835832E+00
 0.7503837256866E+00
 0.7837910909518E+00
 0.6545566278095E+00
 0.4980028061272E+00
 0.3736281327572E+00
 0.2882404407827E+00
 0.2304817499256E+00
 0.1890888548286E+00
 0.1564745009898E+00
 0.1281661884298E+00
 0.1022170043913E+00
 0.7679978905579E-01
 0.5551776897202E-01
 0.4579529332927E-01
 0.4804298543987E-01
 0.5930665825542E-01
 0.7739711401185E-01
 0.1040719386806E+00
 0.1494271471068E+00
 0.2405995554047E+00
 0.6996327654613E+00
 0.7646887408154E+00
 0.6953092877487E+00
 0.5789814751723E+00
 0.4695411307301E+00
 0.3845280238998E+00
 0.3223376952233E+00
 0.2763945596451E+00
 0.2401802086412E+00
 0.2089707287830E+00
 0.1803523235895E+00
 0.1521071460048E+00
 0.1271768057554E+00
 0.1135071759776E+00
 0.1128813165993E+00
 0.1232216995764E+00
 0.1438129381878E+00
 0.1777898130966E+00
 0.2365767693055E+00
 0.3463276539246E+00
 0.6563346883086E+00
 0.7406201885788E+00
 0.7164582895729E+00
 0.6383373577996E+00
 0.5506053891809E+00
 0.4740905187446E+00
 0.4132620889977E+00
 0.3659917185869E+00
 0.3279787687174E+00
 0.2951516544455E+00
 0.2651080507587E+00
 0.2354997962137E+00
 0.2086780226192E+00
 0.1929553532346E+00
 0.1914926586889E+00
 0.2030911011195E+00
 0.2281759628068E+00
 0.2705545686341E+00
 0.3416360943732E+00
 0.4651177435257E+00
 0.6192108818011E+00
 0.7155763041971E+00
 0.7255555755866E+00
 0.6812919645156E+00
 0.6175316783168E+00
 0.5546492429156E+00
 0.5001954640892E+00
 0.4553022430752E+00
 0.4179729685214E+00
 0.3853269994447E+00
 0.3554117576929E+00
 0.3260503226453E+00
 0.2991358382607E+00
 0.2832226644123E+00
 0.2827551858824E+00
 0.2972691015158E+00
 0.3278701887902E+00
 0.3783592148328E+00
 0.4591947429524E+00
 0.5908645190300E+00
 0.5870497346211E+00
 0.6914595510775E+00
 0.7274156542487E+00
 0.7122432424707E+00
 0.6722783483327E+00
 0.6257546986005E+00
 0.5813463028288E+00
 0.5422078923042E+00
 0.5082391542011E+00
 0.4778651312546E+00
 0.4498441440261E+00
 0.4224269190790E+00
 0.3971997030745E+00
 0.3828350227094E+00
 0.3848681767540E+00
 0.4033497163505E+00
 0.4396202065483E+00
 0.4969740765612E+00
 0.5843782475657E+00
 0.7188568385979E+00
 0.5588200807526E+00
 0.6691075790363E+00
 0.7251021764568E+00
 0.7345897360206E+00
 0.7170312755471E+00
 0.6879292357919E+00
 0.6559229693372E+00
 0.6252206793585E+00
 0.5970764043654E+00
 0.5710802568575E+00
 0.5467711572587E+00
 0.5229823832650E+00
 0.5011224227870E+00
 0.4898413196351E+00
 0.4955001354608E+00
 0.5184340870549E+00
 0.5598703151498E+00
 0.6223070315784E+00
 0.7129859659034E+00
 0.8455366809241E+00
 0.5336792903935E+00
 0.6487974957634E+00
 0.7205492650510E+00
 0.7508507315054E+00
 0.7537867468430E+00
 0.7421005866049E+00
 0.7237773966118E+00
 0.7034089753297E+00
 0.6831071114232E+00
 0.6633782688411E+00
 0.6444783061029E+00
 0.6258707763626E+00
 0.6088715919465E+00
 0.6019455646891E+00
 0.6119724270644E+00
 0.6393776427276E+00
 0.6850554973420E+00
 0.7506034329149E+00
 0.8415168170719E+00
 0.9682862541019E+00
 0.5109525951197E+00
 0.6305087668647E+00
 0.7149517893932E+00
 0.7628429937176E+00
 0.7842105376206E+00
 0.7892840171971E+00
 0.7851129114001E+00
 0.7762487879789E+00
 0.7652695099748E+00
 0.7533336161089E+00
 0.7412799667112E+00
 0.7291673259874E+00
 0.7182590117400E+00
 0.7166568510996E+00
 0.7314408050604E+00
 0.7629927142354E+00
 0.8117829705080E+00
 0.8785458916957E+00
 0.9671401216597E+00
 0.1085247724098E+01
 0.4901065275058E+00
 0.6140662571108E+00
 0.7090140891898E+00
 0.7718418292153E+00
 0.8096185586472E+00
 0.8304212293916E+00
 0.8402859544100E+00
 0.8434793887639E+00
 0.8427631604199E+00
 0.8397131750327E+00
 0.8355943270994E+00
 0.8309738735872E+00
 0.8270677053793E+00
 0.8314365587887E+00
 0.8510581594701E+00
 0.8862053897178E+00
 0.9369457634310E+00
 0.1003288943957E+01
 0.1087636785990E+01
 0.1195173641003E+01
 0.4707238791819E+00
 0.5992203869454E+00
 0.7031117612754E+00
 0.7787114988419E+00
 0.8310062678332E+00
 0.8663102261001E+00
 0.8896855629436E+00
 0.9049919243587E+00
 0.9149854982470E+00
 0.9214709810233E+00
 0.9259883526123E+00
 0.9295020282705E+00
 0.9331642534700E+00
 0.9438320015137E+00
 0.9681148583838E+00
 0.1006174649691E+01
 0.1057786997233E+01
 0.1122447705794E+01
 0.1201319945141E+01
 0.1297303703287E+01
 0.4524819211716E+00
 0.5856926111651E+00
 0.6973992432569E+00
 0.7840067445701E+00
 0.8490945181126E+00
 0.8975849545213E+00
 0.9336677557971E+00
 0.9607538735080E+00
 0.9814773454029E+00
 0.9977311351750E+00
 0.1011200972424E+01
 0.1023132632812E+01
 0.1034590020932E+01
 0.1051591991732E+01
 0.1080160116427E+01
 0.1120387393695E+01
 0.1171932260165E+01
 0.1234051287996E+01
 0.1306933308125E+01
 0.1391261705004E+01
 0.4351336179741E+00
 0.5732007118015E+00
 0.6918829948369E+00
 0.7880517056076E+00
 0.8643786159789E+00
 0.9247214142115E+00
 0.9725258185158E+00
 0.1010763278861E+01
 0.1041882813780E+01
 0.1067768562907E+01
 0.1090151345224E+01
 0.1110452172998E+01
 0.1129625903724E+01
 0.1152759918187E+01
 0.1185111124485E+01
 0.1226749831915E+01
 0.1277416870298E+01
 0.1336471470030E+01
 0.1403518056257E+01
 0.1476960594538E+01
 0.4184907420292E+00
 0.5614710030163E+00
 0.6864728159110E+00
 0.7910026693804E+00
 0.8771764038003E+00
 0.9480577468184E+00
 0.1006483184253E+01
 0.1055025154905E+01
 0.1095923397603E+01
 0.1130992559662E+01
 0.1161937680423E+01
 0.1190267417762E+01
 0.1216824111228E+01
 0.1245728086449E+01
 0.1281345566945E+01
 0.1323706810193E+01
 0.1372754849585E+01
 0.1428364845766E+01
 0.1490222173652E+01
 0.1554497800579E+01
 0.4024057585291E+00
 0.5502425076875E+00
 0.6810189004699E+00
 0.7929022715007E+00
 0.8876748723432E+00
 0.9678219819029E+00
 0.1035700102057E+01
 0.1093542562175E+01
 0.1143384100319E+01
 0.1186935304632E+01
 0.1225832314258E+01
 0.1261603017935E+01
 0.1295001546881E+01
 0.1329228849870E+01
 0.1367709440414E+01
 0.1410381611819E+01
 0.1457190755311E+01
 0.1508703344421E+01
 0.1566065755315E+01
 0.1623949040372E+01
 0.3867533327087E+00
 0.5392551937582E+00
 0.6753528118635E+00
 0.7937294701784E+00
 0.8959768292289E+00
 0.9841647480263E+00
 0.1060287891304E+01
 0.1126316044792E+01
 0.1184105562326E+01
 0.1235249903349E+01
 0.1281279795135E+01
 0.1323694269448E+01
 0.1363210307826E+01
 0.1402250259789E+01
 0.1443371724900E+01
 0.1486410238739E+01
 0.1531127488531E+01
 0.1577642423308E+01
 0.1629461283556E+01
 0.1684962540934E+01
 0.3713487086921E+00
 0.5283143892737E+00
 0.6693215605421E+00
 0.7934491838397E+00
 0.9021579386148E+00
 0.9971910676459E+00
 0.1080322861232E+01
 0.1153349832873E+01
 0.1217976148685E+01
 0.1275698292370E+01
 0.1327934767041E+01
 0.1375994239819E+01
 0.1420700825402E+01
 0.1463975113798E+01
 0.1507574050788E+01
 0.1551398389620E+01
 0.1595083385724E+01
 0.1638126354297E+01
 0.1681494361016E+01
 0.1734367235824E+01
 0.4650436583303E+00
 0.5125622763843E+00
 0.5669613233955E+00
 0.6193624505977E+00
 0.6652852654199E+00
 0.7025812608707E+00
 0.7303018039741E+00
 0.7481885898362E+00
 0.7563770977777E+00
 0.7552068683020E+00
 0.7451932752205E+00
 0.7269482555808E+00
 0.7010624033128E+00
 0.6688085416118E+00
 0.6313905934851E+00
 0.5887900965521E+00
 0.5409174321021E+00
 0.4878261959974E+00
 0.4315225509349E+00
 0.3805361413086E+00
 0.4807404657150E+00
 0.5247760504670E+00
 0.5755018205432E+00
 0.6228385072889E+00
 0.6622391532820E+00
 0.6919224730768E+00
 0.7113738809853E+00
 0.7207377718732E+00
 0.7205123808813E+00
 0.7113498769489E+00
 0.6940652415559E+00
 0.6696140051571E+00
 0.6387632810399E+00
 0.6030326602294E+00
 0.5640161951770E+00
 0.5216811927542E+00
 0.4760302283953E+00
 0.4273290001949E+00
 0.3790255180710E+00
 0.3285543705131E+00
 0.4969273786851E+00
 0.5382253586944E+00
 0.5857599108312E+00
 0.6281149799150E+00
 0.6606903728432E+00
 0.6822499440273E+00
 0.6929011640366E+00
 0.6933300111171E+00
 0.6844753505487E+00
 0.6673474707677E+00
 0.6430615671003E+00
 0.6127433453231E+00
 0.5772986411757E+00
 0.5386215568755E+00
 0.4986343844899E+00
 0.4573004450093E+00
 0.4145955514416E+00
 0.3708532374519E+00
 0.3266454377766E+00
 0.2754943460144E+00
 0.5137047548945E+00
 0.5532675220659E+00
 0.5980622717358E+00
 0.6352975553704E+00
 0.6605198056858E+00
 0.6732851097752E+00
 0.6745250683568E+00
 0.6656001526956E+00
 0.6479579220054E+00
 0.6229755984621E+00
 0.5920227812919E+00
 0.5563194993661E+00
 0.5168889145553E+00
 0.4759913231383E+00
 0.4357649451883E+00
 0.3960204852456E+00
 0.3564650899883E+00
 0.3164926645909E+00
 0.2748923846698E+00
 0.2266766569302E+00
 0.5312725141014E+00
 0.5702423635057E+00
 0.6126637979532E+00
 0.6443879704968E+00
 0.6614590956180E+00
 0.6645708790631E+00
 0.6557060481246E+00
 0.6370227286388E+00
 0.6105183291722E+00
 0.5779134871766E+00
 0.5407737611469E+00
 0.5003404836557E+00
 0.4577084332050E+00
 0.4154367277511E+00
 0.3756957767330E+00
 0.3379731496798E+00
 0.3014602880219E+00
 0.2648136446428E+00
 0.2263889424391E+00
 0.1830896184686E+00
 0.5498915322655E+00
 0.5895303141641E+00
 0.6297488718831E+00
 0.6552318792456E+00
 0.6630384235035E+00
 0.6554393370608E+00
 0.6357148775876E+00
 0.6069230882494E+00
 0.5716147331329E+00
 0.5317929299341E+00
 0.4891313056432E+00
 0.4448019613941E+00
 0.3999020062884E+00
 0.3571874672741E+00
 0.3186756017839E+00
 0.2834100052239E+00
 0.2500999131921E+00
 0.2170027744305E+00
 0.1825177499871E+00
 0.1450070690229E+00
 0.5698963095389E+00
 0.6115433659882E+00
 0.6494078544265E+00
 0.6674707395695E+00
 0.6645372658465E+00
 0.6449825367638E+00
 0.6136300522972E+00
 0.5744997711974E+00
 0.5306446453951E+00
 0.4842374922069E+00
 0.4369338314019E+00
 0.3897226244263E+00
 0.3436207916262E+00
 0.3014754118092E+00
 0.2649944911962E+00
 0.2327429724791E+00
 0.2030366030086E+00
 0.1739302357440E+00
 0.1439911461828E+00
 0.1124540177286E+00
 0.5917108624774E+00
 0.6367153913528E+00
 0.6715887909436E+00
 0.6804795184609E+00
 0.6649323663570E+00
 0.6320283608336E+00
 0.5883469632137E+00
 0.5388610705834E+00
 0.4869954197051E+00
 0.4349134792952E+00
 0.3840838594394E+00
 0.3351786415491E+00
 0.2890532932464E+00
 0.2485519714274E+00
 0.2149587239421E+00
 0.1863658018724E+00
 0.1607668177778E+00
 0.1361125103352E+00
 0.1111047415965E+00
 0.8538298853097E-01
 0.6158696574857E+00
 0.6654822901827E+00
 0.6960273338719E+00
 0.6932840746209E+00
 0.6628394412158E+00
 0.6151249586983E+00
 0.5586057615733E+00
 0.4990831230264E+00
 0.4401134125576E+00
 0.3835934869061E+00
 0.3305965908780E+00
 0.2813360012395E+00
 0.2364402580932E+00
 0.1986778477426E+00
 0.1688340455137E+00
 0.1445582681601E+00
 0.1235742589235E+00
 0.1037704039967E+00
 0.8390645404230E-01
 0.6370350368314E-01
 0.6430434257562E+00
 0.6982466334146E+00
 0.7221445961682E+00
 0.7044526031883E+00
 0.6564495146028E+00
 0.5925420781852E+00
 0.5230495813460E+00
 0.4542993236838E+00
 0.3895957337527E+00
 0.3302303082874E+00
 0.2766480651364E+00
 0.2284746170102E+00
 0.1860782408652E+00
 0.1521071770195E+00
 0.1268157770626E+00
 0.1074629716007E+00
 0.9154476370629E-01
 0.7690400209971E-01
 0.6228336825496E-01
 0.4727871424301E-01
 0.6740708149896E+00
 0.7353156595561E+00
 0.7488964793181E+00
 0.7119528920676E+00
 0.6434664762270E+00
 0.5623065467113E+00
 0.4803314577810E+00
 0.4038317471596E+00
 0.3353048748590E+00
 0.2750340150322E+00
 0.2226137484591E+00
 0.1769989538499E+00
 0.1383138672391E+00
 0.1090762490293E+00
 0.8902248651588E-01
 0.7509565364325E-01
 0.6460359852553E-01
 0.5535193913738E-01
 0.4600861278667E-01
 0.3591827458370E-01
 0.7099960285329E+00
 0.7767922453140E+00
 0.7745467264008E+00
 0.7129665846532E+00
 0.6210639200394E+00
 0.5223040996798E+00
 0.4292963750423E+00
 0.3473730848913E+00
 0.2774981894444E+00
 0.2185369123248E+00
 0.1690842363071E+00
 0.1274282962432E+00
 0.9352831136311E-01
 0.6979606983810E-01
 0.5550350276385E-01
 0.4736954698092E-01
 0.4255425126363E-01
 0.3883579751261E-01
 0.3477283292295E-01
 0.2939233133803E-01
 0.7521102816463E+00
 0.8223796696574E+00
 0.7963177510324E+00
 0.7036569357887E+00
 0.5859051619617E+00
 0.4705045084351E+00
 0.3692708458567E+00
 0.2852158349099E+00
 0.2169469159828E+00
 0.1616196921717E+00
 0.1168414857817E+00
 0.8036144499015E-01
 0.5211491959890E-01
 0.3445676053900E-01
 0.2626707304921E-01
 0.2413044683084E-01
 0.2511326390218E-01
 0.2699644328501E-01
 0.2821883444937E-01
 0.2746610939279E-01
 0.8019876477226E+00
 0.8710218484497E+00
 0.8098428851406E+00
 0.6789088303390E+00
 0.5343256901794E+00
 0.4054016195733E+00
 0.3004844853872E+00
 0.2184909618807E+00
 0.1549915627414E+00
 0.1054623944283E+00
 0.6678388318772E-01
 0.3642514831664E-01
 0.1452696616139E-01
 0.3889720501439E-02
 0.2541792733434E-02
 0.5345115367840E-02
 0.1194024205951E-01
 0.1943350854877E-01
 0.2597069112437E-01
 0.2988286689262E-01
 0.8614853837553E+00
 0.9202124283485E+00
 0.8082947556764E+00
 0.6321365363696E+00
 0.4628893066098E+00
 0.3267972989260E+00
 0.2245874021302E+00
 0.1493093007283E+00
 0.9344814103062E-01
 0.5139414797539E-01
 0.1982601702398E-01
 0.4410916894511E-02
 0.1951220510443E-01
 0.2432138743554E-01
 0.2008580277533E-01
 0.1011142317622E-01
 0.2664028027686E-02
 0.1574860940694E-01
 0.2760676601705E-01
 0.3628635794024E-01
 0.9326073645694E+00
 0.9645930808586E+00
 0.7810013055493E+00
 0.5554804310323E+00
 0.3697649942822E+00
 0.2369967674439E+00
 0.1450623070786E+00
 0.8057531695179E-01
 0.3430474680039E-01
 0.1113572793715E-02
 0.2347742068038E-01
 0.4021047424759E-01
 0.4891582483401E-01
 0.4729948914232E-01
 0.3700823634039E-01
 0.2122356895467E-01
 0.3101983643531E-02
 0.1552527896679E-01
 0.3260081834944E-01
 0.4622258107793E-01
 0.1016955055211E+01
 0.9928566499338E+00
 0.7113531017002E+00
 0.4415031497011E+00
 0.2575833842691E+00
 0.1421941672634E+00
 0.6679203485878E-01
 0.1533641119778E-01
 0.2071418461495E-01
 0.4586756075067E-01
 0.6237330116218E-01
 0.7208345196308E-01
 0.7400640814807E-01
 0.6605921943227E-01
 0.4994568491726E-01
 0.2872076881850E-01
 0.5738189488418E-02
 0.1823011565073E-01
 0.4032369540145E-01
 0.5918932840202E-01
 0.1113223981338E+01
 0.9801388387970E+00
 0.5746120176271E+00
 0.2893428920378E+00
 0.1389517748562E+00
 0.5115119148572E-01
 0.5724312701352E-02
 0.4406159804043E-01
 0.7048601884086E-01
 0.8766264851379E-01
 0.9689035070902E-01
 0.9958084004394E-01
 0.9461656746919E-01
 0.8041244886732E-01
 0.5872001113177E-01
 0.3253151261477E-01
 0.5716746479421E-02
 0.2325044997369E-01
 0.5004425571011E-01
 0.7462785233030E-01
 0.1209781009588E+01
 0.8645212616042E+00
 0.3419286981793E+00
 0.1298897412442E+00
 0.3092109762268E-01
 0.2932282441625E-01
 0.6896873819026E-01
 0.9633492404183E-01
 0.1145715671026E+00
 0.1248164674774E+00
 0.1272726462289E+00
 0.1228701934154E+00
 0.1105874978166E+00
 0.8997460683252E-01
 0.6293032097186E-01
 0.3244867838871E-01
 0.4481581534747E-02
 0.3003486541323E-01
 0.6081671470167E-01
 0.9183707562736E-01
 0.1176261749489E+01
 0.4597282350363E+00
 0.9664686380024E-01
 0.3691353424789E-02
 0.5822359534040E-01
 0.9558892372753E-01
 0.1223990708647E+00
 0.1413168868815E+00
 0.1530116342733E+00
 0.1576315506273E+00
 0.1545995377808E+00
 0.1425834997212E+00
 0.1213132799004E+00
 0.9374490201924E-01
 0.6191591709909E-01
 0.2818532888317E-01
 0.7847769518366E-02
 0.3861486448076E-01
 0.7125932775051E-01
 0.1094113039428E+00
 0.1793143784342E+01
 0.1751065780080E+01
 0.1701347473937E+01
 0.1645506418955E+01
 0.1582230753591E+01
 0.1511184908255E+01
 0.1432232172090E+01
 0.1345369202811E+01
 0.1250680548647E+01
 0.1148349701222E+01
 0.1038694799252E+01
 0.9222340976829E+00
 0.7997948567785E+00
 0.6726933896715E+00
 0.5430349000658E+00
 0.4142241006657E+00
 0.2918564453143E+00
 0.1854293606053E+00
 0.1117594921661E+00
 0.1071384876378E+00
 0.1859149583658E+01
 0.1834745895231E+01
 0.1796346003331E+01
 0.1749466390653E+01
 0.1695480812220E+01
 0.1634275185545E+01
 0.1565571509796E+01
 0.1489095613401E+01
 0.1404646999395E+01
 0.1312122743314E+01
 0.1211549256733E+01
 0.1103135335322E+01
 0.9873618346285E+00
 0.8651298357762E+00
 0.7380056798653E+00
 0.6086329180980E+00
 0.4814606194213E+00
 0.3640826932445E+00
 0.2703534879756E+00
 0.2275436948350E+00
 0.1920347988108E+01
 0.1903741868874E+01
 0.1877893729250E+01
 0.1842485149355E+01
 0.1799146458535E+01
 0.1748430232663E+01
 0.1690334247949E+01
 0.1624664119844E+01
 0.1551187489449E+01
 0.1469718904496E+01
 0.1380175536384E+01
 0.1282632235394E+01
 0.1177391392666E+01
 0.1065081306430E+01
 0.9467983665639E+00
 0.8243150445093E+00
 0.7003723459970E+00
 0.5791024152155E+00
 0.4662869182483E+00
 0.3682503644112E+00
 0.1975861678313E+01
 0.1965486808638E+01
 0.1948427904813E+01
 0.1923387802590E+01
 0.1890464815175E+01
 0.1850038516390E+01
 0.1802187658304E+01
 0.1746776729733E+01
 0.1683569275193E+01
 0.1612308463984E+01
 0.1532772871697E+01
 0.1444816843859E+01
 0.1348402474093E+01
 0.1243623766570E+01
 0.1130715137023E+01
 0.1010017408737E+01
 0.8818359089871E+00
 0.7459713804833E+00
 0.6003536018696E+00
 0.4365779139274E+00
 0.2023684063237E+01
 0.2019039120373E+01
 0.2009093842560E+01
 0.1992459343310E+01
 0.1968617685746E+01
 0.1937430836845E+01
 0.1898789882106E+01
 0.1852469291001E+01
 0.1798139101364E+01
 0.1735399853515E+01
 0.1663809271879E+01
 0.1582891487509E+01
 0.1492122821099E+01
 0.1390883813285E+01
 0.1278355885731E+01
 0.1153320821542E+01
 0.1013776427252E+01
 0.8562169503207E+00
 0.6743040671189E+00
 0.4572679414844E+00
 0.2062876127845E+01
 0.2063494280007E+01
 0.2059501579650E+01
 0.2049718249546E+01
 0.2033358679361E+01
 0.2009938093879E+01
 0.1979064661828E+01
 0.1940312643680E+01
 0.1893168513218E+01
 0.1837019185480E+01
 0.1771143814859E+01
 0.1694691092248E+01
 0.1606629098979E+01
 0.1505653081410E+01
 0.1390030098691E+01
 0.1257348540689E+01
 0.1104133137610E+01
 0.9253005665810E+00
 0.7136456260515E+00
 0.4605577502915E+00
 0.2092885160077E+01
 0.2098151909345E+01
 0.2099160807630E+01
 0.2094914213078E+01
 0.2084542834195E+01
 0.2067333128331E+01
 0.2042642326994E+01
 0.2009806195268E+01
 0.1968078442306E+01
 0.1916592339223E+01
 0.1854328347815E+01
 0.1780071154200E+01
 0.1692343367099E+01
 0.1589303844595E+01
 0.1468598016101E+01
 0.1327149732880E+01
 0.1160897383526E+01
 0.9645369948258E+00
 0.7315135978932E+00
 0.4553318418015E+00
 0.2113432091715E+01
 0.2122607714222E+01
 0.2127717441355E+01
 0.2127869734294E+01
 0.2122159689240E+01
 0.2109724172307E+01
 0.2089712913884E+01
 0.2061233585035E+01
 0.2023299561633E+01
 0.1974786541570E+01
 0.1914391419192E+01
 0.1840584592657E+01
 0.1751547359896E+01
 0.1645088174270E+01
 0.1518535118411E+01
 0.1368609896955E+01
 0.1191309012824E+01
 0.9818635569981E+00
 0.7350032393222E+00
 0.4468640044717E+00
 0.2124386691313E+01
 0.2136636487608E+01
 0.2144953548442E+01
 0.2148481327571E+01
 0.2146284785012E+01
 0.2137392885393E+01
 0.2120791813571E+01
 0.2095392859252E+01
 0.2059993737233E+01
 0.2013240582817E+01
 0.1953590538860E+01
 0.1879271604621E+01
 0.1788236671955E+01
 0.1678111005868E+01
 0.1546137247319E+01
 0.1389131255275E+01
 0.1203479886369E+01
 0.9852589491802E+00
 0.7307511930593E+00
 0.4395314315836E+00
 0.2125716568823E+01
 0.2140137207329E+01
 0.2150747963101E+01
 0.2156684859731E+01
 0.2156980535277E+01
 0.2150584490700E+01
 0.2136360446350E+01
 0.2113066768212E+01
 0.2079329561615E+01
 0.2033614487049E+01
 0.1974199498568E+01
 0.1899148896041E+01
 0.1806289291414E+01
 0.1693190302095E+01
 0.1557157294960E+01
 0.1395251768332E+01
 0.1204373250295E+01
 0.9814933037704E+00
 0.7244245891937E+00
 0.4357285155497E+00
 0.2117488984751E+01
 0.2133162477428E+01
 0.2145149352707E+01
 0.2152569270374E+01
 0.2154428365138E+01
 0.2149622713157E+01
 0.2136933578414E+01
 0.2115013833371E+01
 0.2082369929581E+01
 0.2037343676835E+01
 0.1978096801755E+01
 0.1902600507195E+01
 0.1808632660627E+01
 0.1693786995910E+01
 0.1555502330987E+01
 0.1391127257313E+01
 0.1198054696949E+01
 0.9740284059484E+00
 0.7180409442927E+00
 0.4346134558907E+00
 0.2099852505810E+01
 0.2115873595859E+01
 0.2128331673174E+01
 0.2136342763051E+01
 0.2138903219730E+01
 0.2134884400093E+01
 0.2123025123087E+01
 0.2101920742796E+01
 0.2070010995608E+01
 0.2025569737383E+01
 0.1966699619243E+01
 0.1891334694330E+01
 0.1797254376280E+01
 0.1682113398024E+01
 0.1543495113859E+01
 0.1379001929259E+01
 0.1186415665052E+01
 0.9640291222406E+00
 0.7115756149178E+00
 0.4346416115672E+00
 0.2073032452395E+01
 0.2088515385495E+01
 0.2100559080459E+01
 0.2108297557773E+01
 0.2110741732008E+01
 0.2106770169965E+01
 0.2095119633212E+01
 0.2074375053951E+01
 0.2042960535632E+01
 0.1999133943618E+01
 0.1940988061345E+01
 0.1866461550198E+01
 0.1773363340342E+01
 0.1659414852089E+01
 0.1522316300823E+01
 0.1359848721144E+01
 0.1170041060853E+01
 0.9514993448371E+00
 0.7043274625813E+00
 0.4345421840535E+00
 0.2037330709216E+01
 0.2051409532691E+01
 0.2062171913716E+01
 0.2068793611068E+01
 0.2070327577028E+01
 0.2065693118100E+01
 0.2053665144729E+01
 0.2032863881082E+01
 0.2001746535618E+01
 0.1958603244406E+01
 0.1901560156691E+01
 0.1828592975134E+01
 0.1737554686504E+01
 0.1626221776729E+01
 0.1492364536001E+01
 0.1333851486180E+01
 0.1148814405512E+01
 0.9359674728967E+00
 0.6955067903826E+00
 0.4334340738589E+00
 0.1993127099596E+01
 0.2004956313124E+01
 0.2013586893142E+01
 0.2018258851546E+01
 0.2018094363667E+01
 0.2012086389871E+01
 0.1999086908007E+01
 0.1977795433060E+01
 0.1946749209868E+01
 0.1904317131158E+01
 0.1848700060748E+01
 0.1777940873155E+01
 0.1689948180315E+01
 0.1582538471021E+01
 0.1453502702424E+01
 0.1300707387186E+01
 0.1122255634307E+01
 0.9167984687395E+00
 0.6844094994684E+00
 0.4307361371525E+00
 0.1940881726182E+01
 0.1949639764044E+01
 0.1955304607365E+01
 0.1957199763728E+01
 0.1954540976278E+01
 0.1946424987118E+01
 0.1931817005818E+01
 0.1909537502133E+01
 0.1878249384352E+01
 0.1836447165512E+01
 0.1782450381037E+01
 0.1714404370576E+01
 0.1630292639538E+01
 0.1527966458429E+01
 0.1405199469941E+01
 0.1259779577798E+01
 0.1089665092429E+01
 0.8932926195251E+00
 0.6704259820532E+00
 0.4260648865991E+00
 0.1881138701953E+01
 0.1886035500608E+01
 0.1887922008025E+01
 0.1886219587649E+01
 0.1880256978675E+01
 0.1869259918676E+01
 0.1852338405733E+01
 0.1828471886720E+01
 0.1796492873893E+01
 0.1755069857260E+01
 0.1702690980662E+01
 0.1637650926099E+01
 0.1558045019051E+01
 0.1461777021229E+01
 0.1346590866990E+01
 0.1210142993763E+01
 0.1050147170564E+01
 0.8646789836406E+00
 0.6529989798609E+00
 0.4191647074971E+00
 0.1814530958082E+01
 0.1814820771272E+01
 0.1812148998457E+01
 0.1806043041362E+01
 0.1795957326615E+01
 0.1781264711742E+01
 0.1761244576053E+01
 0.1735067403018E+01
 0.1701775601959E+01
 0.1660260438847E+01
 0.1609235296983E+01
 0.1547206302304E+01
 0.1472443037113E+01
 0.1382955286951E+01
 0.1276487573993E+01
 0.1150553291129E+01
 0.1002548928435E+01
 0.8300412099019E+00
 0.6315578121502E+00
 0.4098675536515E+00
 0.1741784942273E+01
 0.1736784954364E+01
 0.1728826641567E+01
 0.1717544561122E+01
 0.1702523261118E+01
 0.1683291552322E+01
 0.1659313002671E+01
 0.1629971794530E+01
 0.1594552936960E+01
 0.1552215612043E+01
 0.1501958288656E+01
 0.1442574449689E+01
 0.1372598836952E+01
 0.1290247007026E+01
 0.1193357560878E+01
 0.1079360292919E+01
 0.9453206170071E+00
 0.7881668727529E+00
 0.6054141023514E+00
 0.3980766395675E+00
 0.1663724702395E+01
 0.1652839647521E+01
 0.1638945749644E+01
 0.1621778680720E+01
 0.1601048079671E+01
 0.1576436310378E+01
 0.1547593229678E+01
 0.1514125754213E+01
 0.1475580800629E+01
 0.1431419466223E+01
 0.1380979523526E+01
 0.1323422514488E+01
 0.1257661283821E+01
 0.1182264542548E+01
 0.1095339228968E+01
 0.9944040794245E+00
 0.8763023826223E+00
 0.7372807595016E+00
 0.5735507757963E+00
 0.3837384880618E+00
 0.1581270750686E+01
 0.1564021393811E+01
 0.1543657540909E+01
 0.1520002293176E+01
 0.1492875375127E+01
 0.1462098070948E+01
 0.1427493671622E+01
 0.1388883126642E+01
 0.1346074454752E+01
 0.1298843407366E+01
 0.1246901485611E+01
 0.1189845568181E+01
 0.1127081002346E+01
 0.1057707193465E+01
 0.9803524896449E+00
 0.8929479108410E+00
 0.7924497790755E+00
 0.6746156050573E+00
 0.5341992111830E+00
 0.3667329461044E+00
 0.1495427015472E+01
 0.1471479736050E+01
 0.1444265783633E+01
 0.1413673904845E+01
 0.1379610473193E+01
 0.1342009759171E+01
 0.1300840510359E+01
 0.1256109121064E+01
 0.1207858485042E+01
 0.1156160420776E+01
 0.1101097956677E+01
 0.1042731347498E+01
 0.9810378869470E+00
 0.9158094610969E+00
 0.8464820888478E+00
 0.7718570723383E+00
 0.6896585052691E+00
 0.5958789511113E+00
 0.4841594062093E+00
 0.3464757135414E+00
 0.1407274652123E+01
 0.1376476440351E+01
 0.1342230317608E+01
 0.1304465891241E+01
 0.1263148216249E+01
 0.1218291397132E+01
 0.1169970237434E+01
 0.1118330648214E+01
 0.1063598774478E+01
 0.1006087926509E+01
 0.9462011656764E+00
 0.8844253628907E+00
 0.8213089474948E+00
 0.7574088776159E+00
 0.6931794113527E+00
 0.6287493805120E+00
 0.5634805717468E+00
 0.4950923376253E+00
 0.4179166019110E+00
 0.3209101128722E+00
 0.1317951737646E+01
 0.1280364229018E+01
 0.1239146747673E+01
 0.1194248601164E+01
 0.1145667796794E+01
 0.1093465661062E+01
 0.1037781237526E+01
 0.9788466279922E+00
 0.9170042234846E+00
 0.8527265468070E+00
 0.7866390681686E+00
 0.7195456531578E+00
 0.6524547916149E+00
 0.5866013567151E+00
 0.5234507689267E+00
 0.4646534945901E+00
 0.4118684657529E+00
 0.3662352937828E+00
 0.3267735204989E+00
 0.2849224450778E+00
 0.1228623077211E+01
 0.1184548022381E+01
 0.1136699547350E+01
 0.1085035421872E+01
 0.1029571498556E+01
 0.9703952108327E+00
 0.9076800471824E+00
 0.8417023499787E+00
 0.7728621936472E+00
 0.7017105521018E+00
 0.6289855909552E+00
 0.5556618769798E+00
 0.4830177210045E+00
 0.4127278002075E+00
 0.3469904386091E+00
 0.2887008762501E+00
 0.2416867810889E+00
 0.2110389592994E+00
 0.2036517485110E+00
 0.2271808894080E+00
 0.1140440098146E+01
 0.1090429298848E+01
 0.1036587155798E+01
 0.9788839463309E+00
 0.9173567836481E+00
 0.8521214556890E+00
 0.7833857719609E+00
 0.7114657045007E+00
 0.6368066834658E+00
 0.5600133824991E+00
 0.4818927384984E+00
 0.4035174538177E+00
 0.3263217964007E+00
 0.2522496806057E+00
 0.1839879566600E+00
 0.1253237486742E+00
 0.8154779200348E-01
 0.5944717389839E-01
 0.7095372588169E-01
 0.1479962079783E+00
 0.1054490195780E+01
 0.9993317668369E+00
 0.9404150048449E+00
 0.8777429698547E+00
 0.8113982316012E+00
 0.7415553663152E+00
 0.6684949389362E+00
 0.5926205926129E+00
 0.5144826158776E+00
 0.4348127561584E+00
 0.3545774929074E+00
 0.2750629799664E+00
 0.1980229213634E+00
 0.1259969019888E+00
 0.6345912378474E-01
 0.2687886657185E-01
 0.4107578457633E-01
 0.4597354181317E-01
 0.1165805047725E-01
 0.1005903751697E+00
 0.9717398489029E+00
 0.9124140168560E+00
 0.8495634066567E+00
 0.7832519261083E+00
 0.7136415511925E+00
 0.6410091634997E+00
 0.5657634519775E+00
 0.4884649392646E+00
 0.4098543170406E+00
 0.3308959983084E+00
 0.2528487720078E+00
 0.1773954569316E+00
 0.1069762154112E+00
 0.4668619037035E-01
 0.2897877050467E-01
 0.5892007900397E-01
 0.7441393786387E-01
 0.6033570847601E-01
 0.4026602993419E-02
 0.1116039669302E+00
 0.8929851926704E+00
 0.8305952394822E+00
 0.7650781659273E+00
 0.6965797953237E+00
 0.6253666774869E+00
 0.5518491795053E+00
 0.4765998389775E+00
 0.4003732268969E+00
 0.3241350590165E+00
 0.2491100592910E+00
 0.1768694581746E+00
 0.1095484605169E+00
 0.5096534190877E-01
 0.2335505739203E-01
 0.5019846513729E-01
 0.6957874163160E-01
 0.6723861864655E-01
 0.3607899349405E-01
 0.3023991161620E-01
 0.1333630946139E+00
 0.8188233948372E+00
 0.7545202556544E+00
 0.6876304601532E+00
 0.6183841080733E+00
 0.5471581306505E+00
 0.4745040470325E+00
 0.4011614397068E+00
 0.3280698077997E+00
 0.2563901239264E+00
 0.1875486237924E+00
 0.1233400560760E+00
 0.6632996100765E-01
 0.2406043657160E-01
 0.3208071504493E-01
 0.5302746838509E-01
 0.5856073319668E-01
 0.4333377227710E-01
 0.4484413071536E-02
 0.6025361111917E-01
 0.1462231916855E+00
 0.7496457727825E+00
 0.6845616342785E+00
 0.6175326042289E+00
 0.5488513915612E+00
 0.4789924939512E+00
 0.4086371008667E+00
 0.3386701103846E+00
 0.2701739634417E+00
 0.2044346266540E+00
 0.1429745247721E+00
 0.8767060029610E-01
 0.4144750081179E-01
 0.1750970886879E-01
 0.3263293302625E-01
 0.4333676767991E-01
 0.3880043837405E-01
 0.1659599211685E-01
 0.2451624488662E-01
 0.8223852810772E-01
 0.1530433572127E+00
 0.6856485546491E+00
 0.6208468218865E+00
 0.5547823335490E+00
 0.4877674965265E+00
 0.4203547792539E+00
 0.3533380266603E+00
 0.2877159010419E+00
 0.2246581566927E+00
 0.1654917209209E+00
 0.1117193834333E+00
 0.6513992224001E-01
 0.2872593401246E-01
 0.1559262578749E-01
 0.2590486104686E-01
 0.2855794394857E-01
 0.1787118802772E-01
 0.8330630473929E-02
 0.4688261244191E-01
 0.9777184695421E-01
 0.1570529652634E+00
 0.6268609276891E+00
 0.5633018089367E+00
 0.4991130059964E+00
 0.4345833457859E+00
 0.3703387226587E+00
 0.3072802433891E+00
 0.2464930027788E+00
 0.1891795326942E+00
 0.1366287008300E+00
 0.9022154523180E-01
 0.5152661082709E-01
 0.2298324769555E-01
 0.1248349974749E-01
 0.1632820738031E-01
 0.1347328968125E-01
 0.4450069642221E-02
 0.2757878963148E-01
 0.6378847912726E-01
 0.1089184795491E+00
 0.1603878110153E+00
 0.5731936264113E+00
 0.5116980176309E+00
 0.4500340550850E+00
 0.3884651189152E+00
 0.3277289445741E+00
 0.2688538793795E+00
 0.2129932888779E+00
 0.1613331059251E+00
 0.1150572712515E+00
 0.7534912765831E-01
 0.4344269482795E-01
 0.2088961131464E-01
 0.1025386393013E-01
 0.8142206823983E-02
 0.5693357614625E-02
 0.1808792995965E-01
 0.4288140227674E-01
 0.7643306570119E-01
 0.1171853908232E+00
 0.1636954658919E+00
 0.5244976335866E+00
 0.4657142896302E+00
 0.4069241782403E+00
 0.3484524319296E+00
 0.2912559277135E+00
 0.2365302015377E+00
 0.1854725675277E+00
 0.1391956128450E+00
 0.9871647486682E-01
 0.6496814986717E-01
 0.3881001289136E-01
 0.2099796417613E-01
 0.1168654125234E-01
 0.9286603053347E-02
 0.1511694019356E-01
 0.3076027258283E-01
 0.5469200624325E-01
 0.8575054716953E-01
 0.1229677354982E+00
 0.1656011548495E+00
 0.4806425965581E+00
 0.4250222534872E+00
 0.3691186406055E+00
 0.3135905367799E+00
 0.2597882647007E+00
 0.2090911142334E+00
 0.1626702315796E+00
 0.1214811079726E+00
 0.8631298647629E-01
 0.5781935109305E-01
 0.3650783579962E-01
 0.2264097852936E-01
 0.1603820721332E-01
 0.1660195883404E-01
 0.2497577982479E-01
 0.4090385597329E-01
 0.6357248684267E-01
 0.9223303872745E-01
 0.1262346539762E+00
 0.1650559487321E+00
 0.4415197679899E+00
 0.3891510659560E+00
 0.3357298972817E+00
 0.2828012432038E+00
 0.2322708968467E+00
 0.1855828522902E+00
 0.1437165162393E+00
 0.1073671451866E+00
 0.7705304136106E-01
 0.5315535628840E-01
 0.3590364119612E-01
 0.2532575166014E-01
 0.2131004100383E-01
 0.2392369235948E-01
 0.3318901164451E-01
 0.4867255635066E-01
 0.6979300310127E-01
 0.9601700710893E-01
 0.1268624923094E+00
 0.1618551551856E+00
 0.4069707274356E+00
 0.3571696589775E+00
 0.3053906164945E+00
 0.2549031879887E+00
 0.2079216007254E+00
 0.1655120231075E+00
 0.1282585813515E+00
 0.9653893922911E-01
 0.7061909088672E-01
 0.5066855456944E-01
 0.3674182519798E-01
 0.2877628483539E-01
 0.2668217310248E-01
 0.3040409271832E-01
 0.3972636180090E-01
 0.5422381313739E-01
 0.7343486705860E-01
 0.9696657209577E-01
 0.1245044501828E+00
 0.1556821067631E+00
 0.3762985137935E+00
 0.3267420974745E+00
 0.2762665045653E+00
 0.2293161178275E+00
 0.1868818464001E+00
 0.1492573333608E+00
 0.1166391557795E+00
 0.8919945474218E-01
 0.6707459638133E-01
 0.5033405940167E-01
 0.3895966349124E-01
 0.3285923481875E-01
 0.3191227621049E-01
 0.3594988901765E-01
 0.4466955409665E-01
 0.5766184185656E-01
 0.7451016649337E-01
 0.9486238380287E-01
 0.1185704539215E+00
 0.1457700003873E+00
 0.3458584235608E+00
 0.2936014473837E+00
 0.2484891464146E+00
 0.2078666699206E+00
 0.1710707407274E+00
 0.1382651826453E+00
 0.1097497129204E+00
 0.8579234757347E-01
 0.6656660914716E-01
 0.5213635470574E-01
 0.4246244946332E-01
 0.3742839746540E-01
 0.3686294561029E-01
 0.4052087293749E-01
 0.4805476308092E-01
 0.5904093842914E-01
 0.7302774218975E-01
 0.8958191660019E-01
 0.1083399214851E+00
 0.1298590961818E+00
</DataArray>
<DataArray type="Float64" Name="CK" NumberOfComponents="1" ComponentName0="CK" format="ascii">
 0.0000000000000E+00
 0.0000000000000E+00
 0.0000000000000E+00
 0.0000000000000E+00
 0.0000000000000E+00
 0.0000000000000E+00
 0.0000000000000E+00
 0.0000000000000E+00
 0.0000000000000E+00
 0.0000000000000E+00
 0.0000000000000E+00
 0.0000000000000E+00
 0.0000000000000E+00
 0.0000000000000E+00
 0.0000000000000E+00
 0.0000000000000E+00
 0.0000000000000E+00
 0.0000000000000E+00
 0.0000000000000E+00
 0.0000000000000E+00
 0.0000000000000E+00
 0.0000000000000E+00
 0.0000000000000E+00
 0.0000000000000E+00
 0.0000000000000E+00
 0.0000000000000E+00
 0.0000000000000E+00
 0.0000000000000E+00
 0.0000000000000E+00
 0.0000000000000E+00
 0.0000000000000E+00
 0.0000000000000E+00
 0.0000000000000E+00
 0.0000000000000E+00
 0.0000000000000E+00
 0.0000000000000E+00
 0.0000000000000E+00
 0.0000000000000E+00
 0.0000000000000E+00
 0.0000000000000E+00
 0.0000000000000E+00
 0.0000000000000E+00
 0.0000000000000E+00
 0.0000000000000E+00
 0.0000000000000E+00
 0.0000000000000E+00
 0.0000000000000E+00
 0.0000000000000E+00
 0.0000000000000E+00
 0.0000000000000E+00
 0.0000000000000E+00
 0.0000000000000E+00
 0.0000000000000E+00
 0.0000000000000E+00
 0.0000000000000E+00
 0.0000000000000E+00
 0.0000000000000E+00
 0.0000000000000E+00
 0.0000000000000E+00
 0.0000000000000E+00
 0.0000000000000E+00
 0.0000000000000E+00
 0.0000000000000E+00
 0.0000000000000E+00
 0.0000000000000E+00
 0.0000000000000E+00
 0.0000000000000E+00
 0.0000000000000E+00
 0.0000000000000E+00
 0.0000000000000E+00
 0.0000000000000E+00
 0.0000000000000E+00
 0.0000000000000E+00
 0.0000000000000E+00
 0.0000000000000E+00
 0.0000000000000E+00
 0.0000000000000E+00
 0.0000000000000E+00
 0.0000000000000E+00
 0.0000000000000E+00
 0.0000000000000E+00
 0.0000000000000E+00
 0.0000000000000E+00
 0.0000000000000E+00
 0.0000000000000E+00
 0.0000000000000E+00
 0.0000000000000E+00
 0.0000000000000E+00
 0.0000000000000E+00
 0.0000000000000E+00
 0.0000000000000E+00
 0.0000000000000E+00
 0.0000000000000E+00
 0.0000000000000E+00
 0.0000000000000E+00
 0.0000000000000E+00
 0.0000000000000E+00
 0.0000000000000E+00
 0.0000000000000E+00
 0.0000000000000E+00
 0.0000000000000E+00
 0.0000000000000E+00
 0.0000000000000E+00
 0.0000000000000E+00
 0.0000000000000E+00
 0.0000000000000E+00
 0.0000000000000E+00
 0.0000000000000E+00
 0.0000000000000E+00
 0.0000000000000E+00
 0.0000000000000E+00
 0.0000000000000E+00
 0.0000000000000E+00
 0.0000000000000E+00
 0.0000000000000E+00
 0.0000000000000E+00
 0.0000000000000E+00
 0.0000000000000E+00
 0.0000000000000E+00
 0.0000000000000E+00
 0.0000000000000E+00
 0.0000000000000E+00
 0.0000000000000E+00
 0.0000000000000E+00
 0.0000000000000E+00
 0.0000000000000E+00
 0.0000000000000E+00
 0.0000000000000E+00
 0.0000000000000E+00
 0.0000000000000E+00
 0.0000000000000E+00
 0.0000000000000E+00
 0.0000000000000E+00
 0.0000000000000E+00
 0.0000000000000E+00
 0.0000000000000E+00
 0.0000000000000E+00
 0.0000000000000E+00
 0.0000000000000E+00
 0.0000000000000E+00
 0.0000000000000E+00
 0.0000000000000E+00
 0.0000000000000E+00
 0.0000000000000E+00
 0.0000000000000E+00
 0.0000000000000E+00
 0.0000000000000E+00
 0.0000000000000E+00
 0.0000000000000E+00
 0.0000000000000E+00
 0.0000000000000E+00
 0.0000000000000E+00
 0.0000000000000E+00
 0.0000000000000E+00
 0.0000000000000E+00
 0.0000000000000E+00
 0.0000000000000E+00
 0.0000000000000E+00
 0.0000000000000E+00
 0.0000000000000E+00
 0.0000000000000E+00
 0.0000000000000E+00
 0.0000000000000E+00
 0.0000000000000E+00
 0.0000000000000E+00
 0.0000000000000E+00
 0.0000000000000E+00
 0.0000000000000E+00
 0.0000000000000E+00
 0.0000000000000E+00
 0.0000000000000E+00
 0.0000000000000E+00
 0.0000000000000E+00
 0.0000000000000E+00
 0.0000000000000E+00
 0.0000000000000E+00
 0.0000000000000E+00
 0.0000000000000E+00
 0.0000000000000E+00
 0.0000000000000E+00
 0.0000000000000E+00
 0.0000000000000E+00
 0.0000000000000E+00
 0.0000000000000E+00
 0.0000000000000E+00
 0.0000000000000E+00
 0.0000000000000E+00
 0.0000000000000E+00
 0.0000000000000E+00
 0.0000000000000E+00
 0.0000000000000E+00
 0.0000000000000E+00
 0.0000000000000E+00
 0.0000000000000E+00
 0.0000000000000E+00
 0.0000000000000E+00
 0.0000000000000E+00
 0.0000000000000E+00
 0.0000000000000E+00
 0.0000000000000E+00
 0.0000000000000E+00
 0.0000000000000E+00
 0.0000000000000E+00
 0.0000000000000E+00
 0.0000000000000E+00
 0.0000000000000E+00
 0.0000000000000E+00
 0.0000000000000E+00
 0.0000000000000E+00
 0.0000000000000E+00
 0.0000000000000E+00
 0.0000000000000E+00
 0.0000000000000E+00
 0.0000000000000E+00
 0.0000000000000E+00
 0.0000000000000E+00
 0.0000000000000E+00
 0.0000000000000E+00
 0.0000000000000E+00
 0.0000000000000E+00
 0.0000000000000E+00
 0.0000000000000E+00
 0.0000000000000E+00
 0.0000000000000E+00
 0.0000000000000E+00
 0.0000000000000E+00
 0.0000000000000E+00
 0.0000000000000E+00
 0.0000000000000E+00
 0.0000000000000E+00
 0.0000000000000E+00
 0.0000000000000E+00
 0.0000000000000E+00
 0.0000000000000E+00
 0.0000000000000E+00
 0.0000000000000E+00
 0.0000000000000E+00
 0.0000000000000E+00
 0.0000000000000E+00
 0.0000000000000E+00
 0.0000000000000E+00
 0.0000000000000E+00
 0.0000000000000E+00
 0.0000000000000E+00
 0.0000000000000E+00
 0.0000000000000E+00
 0.0000000000000E+00
 0.0000000000000E+00
 0.0000000000000E+00
 0.0000000000000E+00
 0.0000000000000E+00
 0.0000000000000E+00
 0.0000000000000E+00
 0.0000000000000E+00
 0.0000000000000E+00
 0.0000000000000E+00
 0.0000000000000E+00
 0.0000000000000E+00
 0.0000000000000E+00
 0.0000000000000E+00
 0.0000000000000E+00
 0.0000000000000E+00
 0.0000000000000E+00
 0.0000000000000E+00
 0.0000000000000E+00
 0.0000000000000E+00
 0.0000000000000E+00
 0.0000000000000E+00
 0.0000000000000E+00
 0.0000000000000E+00
 0.0000000000000E+00
 0.0000000000000E+00
 0.0000000000000E+00
 0.0000000000000E+00
 0.0000000000000E+00
 0.0000000000000E+00
 0.0000000000000E+00
 0.0000000000000E+00
 0.0000000000000E+00
 0.0000000000000E+00
 0.0000000000000E+00
 0.0000000000000E+00
 0.0000000000000E+00
 0.0000000000000E+00
 0.0000000000000E+00
 0.0000000000000E+00
 0.0000000000000E+00
 0.0000000000000E+00
 0.0000000000000E+00
 0.0000000000000E+00
 0.0000000000000E+00
 0.0000000000000E+00
 0.0000000000000E+00
 0.0000000000000E+00
 0.0000000000000E+00
 0.0000000000000E+00
 0.0000000000000E+00
 0.0000000000000E+00
 0.0000000000000E+00
 0.0000000000000E+00
 0.0000000000000E+00
 0.0000000000000E+00
 0.0000000000000E+00
 0.0000000000000E+00
 0.0000000000000E+00
 0.0000000000000E+00
 0.0000000000000E+00
 0.0000000000000E+00
 0.0000000000000E+00
 0.0000000000000E+00
 0.0000000000000E+00
 0.0000000000000E+00
 0.0000000000000E+00
 0.0000000000000E+00
 0.0000000000000E+00
 0.0000000000000E+00
 0.0000000000000E+00
 0.0000000000000E+00
 0.0000000000000E+00
 0.0000000000000E+00
 0.0000000000000E+00
 0.0000000000000E+00
 0.0000000000000E+00
 0.0000000000000E+00
 0.0000000000000E+00
 0.0000000000000E+00
 0.0000000000000E+00
 0.0000000000000E+00
 0.0000000000000E+00
 0.0000000000000E+00
 0.0000000000000E+00
 0.0000000000000E+00
 0.0000000000000E+00
 0.0000000000000E+00
 0.0000000000000E+00
 0.0000000000000E+00
 0.0000000000000E+00
 0.0000000000000E+00
 0.0000000000000E+00
 0.0000000000000E+00
 0.0000000000000E+00
 0.0000000000000E+00
 0.0000000000000E+00
 0.0000000000000E+00
 0.0000000000000E+00
 0.0000000000000E+00
 0.0000000000000E+00
 0.0000000000000E+00
 0.0000000000000E+00
 0.0000000000000E+00
 0.0000000000000E+00
 0.0000000000000E+00
 0.0000000000000E+00
 0.0000000000000E+00
 0.0000000000000E+00
 0.0000000000000E+00
 0.0000000000000E+00
 0.0000000000000E+00
 0.0000000000000E+00
 0.0000000000000E+00
 0.0000000000000E+00
 0.0000000000000E+00
 0.0000000000000E+00
 0.0000000000000E+00
 0.0000000000000E+00
 0.0000000000000E+00
 0.0000000000000E+00
 0.0000000000000E+00
 0.0000000000000E+00
 0.0000000000000E+00
 0.0000000000000E+00
 0.0000000000000E+00
 0.0000000000000E+00
 0.0000000000000E+00
 0.0000000000000E+00
 0.0000000000000E+00
 0.0000000000000E+00
 0.0000000000000E+00
 0.0000000000000E+00
 0.0000000000000E+00
 0.0000000000000E+00
 0.0000000000000E+00
 0.0000000000000E+00
 0.0000000000000E+00
 0.0000000000000E+00
 0.0000000000000E+00
 0.0000000000000E+00
 0.0000000000000E+00
 0.0000000000000E+00
 0.0000000000000E+00
 0.0000000000000E+00
 0.0000000000000E+00
 0.0000000000000E+00
 0.0000000000000E+00
 0.0000000000000E+00
 0.0000000000000E+00
 0.0000000000000E+00
 0.0000000000000E+00
 0.0000000000000E+00
 0.0000000000000E+00
 0.0000000000000E+00
 0.0000000000000E+00
 0.0000000000000E+00
 0.0000000000000E+00
 0.0000000000000E+00
 0.0000000000000E+00
 0.0000000000000E+00
 0.0000000000000E+00
 0.0000000000000E+00
 0.0000000000000E+00
 0.0000000000000E+00
 0.0000000000000E+00
 0.0000000000000E+00
 0.0000000000000E+00
 0.0000000000000E+00
 0.0000000000000E+00
 0.0000000000000E+00
 0.0000000000000E+00
 0.0000000000000E+00
 0.0000000000000E+00
 0.0000000000000E+00
 0.0000000000000E+00
 0.0000000000000E+00
 0.0000000000000E+00
 0.0000000000000E+00
 0.0000000000000E+00
 0.0000000000000E+00
 0.0000000000000E+00
 0.0000000000000E+00
 0.0000000000000E+00
 0.0000000000000E+00
 0.0000000000000E+00
 0.0000000000000E+00
 0.0000000000000E+00
 0.0000000000000E+00
 0.0000000000000E+00
 0.0000000000000E+00
 0.0000000000000E+00
 0.0000000000000E+00
 0.0000000000000E+00
 0.0000000000000E+00
 0.0000000000000E+00
 0.0000000000000E+00
 0.0000000000000E+00
 0.0000000000000E+00
 0.0000000000000E+00
 0.0000000000000E+00
 0.0000000000000E+00
 0.0000000000000E+00
 0.0000000000000E+00
 0.0000000000000E+00
 0.0000000000000E+00
 0.0000000000000E+00
 0.0000000000000E+00
 0.0000000000000E+00
 0.0000000000000E+00
 0.0000000000000E+00
 0.0000000000000E+00
 0.0000000000000E+00
 0.0000000000000E+00
 0.0000000000000E+00
 0.0000000000000E+00
 0.0000000000000E+00
 0.0000000000000E+00
 0.0000000000000E+00
 0.0000000000000E+00
 0.0000000000000E+00
 0.0000000000000E+00
 0.0000000000000E+00
 0.0000000000000E+00
 0.0000000000000E+00
 0.0000000000000E+00
 0.0000000000000E+00
 0.0000000000000E+00
 0.0000000000000E+00
 0.0000000000000E+00
 0.0000000000000E+00
 0.0000000000000E+00
 0.0000000000000E+00
 0.0000000000000E+00
 0.0000000000000E+00
 0.0000000000000E+00
 0.0000000000000E+00
 0.0000000000000E+00
 0.0000000000000E+00
 0.0000000000000E+00
 0.0000000000000E+00
 0.0000000000000E+00
 0.0000000000000E+00
 0.0000000000000E+00
 0.0000000000000E+00
 0.0000000000000E+00
 0.0000000000000E+00
 0.0000000000000E+00
 0.0000000000000E+00
 0.0000000000000E+00
 0.0000000000000E+00
 0.0000000000000E+00
 0.0000000000000E+00
 0.0000000000000E+00
 0.0000000000000E+00
 0.0000000000000E+00
 0.0000000000000E+00
 0.0000000000000E+00
 0.0000000000000E+00
 0.0000000000000E+00
 0.0000000000000E+00
 0.0000000000000E+00
 0.0000000000000E+00
 0.0000000000000E+00
 0.0000000000000E+00
 0.0000000000000E+00
 0.0000000000000E+00
 0.0000000000000E+00
 0.0000000000000E+00
 0.0000000000000E+00
 0.0000000000000E+00
 0.0000000000000E+00
 0.0000000000000E+00
 0.0000000000000E+00
 0.0000000000000E+00
 0.0000000000000E+00
 0.0000000000000E+00
 0.0000000000000E+00
 0.0000000000000E+00
 0.0000000000000E+00
 0.0000000000000E+00
 0.0000000000000E+00
 0.0000000000000E+00
 0.0000000000000E+00
 0.0000000000000E+00
 0.0000000000000E+00
 0.0000000000000E+00
 0.0000000000000E+00
 0.0000000000000E+00
 0.0000000000000E+00
 0.0000000000000E+00
 0.0000000000000E+00
 0.0000000000000E+00
 0.0000000000000E+00
 0.0000000000000E+00
 0.0000000000000E+00
 0.0000000000000E+00
 0.0000000000000E+00
 0.0000000000000E+00
 0.0000000000000E+00
 0.0000000000000E+00
 0.0000000000000E+00
 0.0000000000000E+00
 0.0000000000000E+00
 0.0000000000000E+00
 0.0000000000000E+00
 0.0000000000000E+00
 0.0000000000000E+00
 0.0000000000000E+00
 0.0000000000000E+00
 0.0000000000000E+00
 0.0000000000000E+00
 0.0000000000000E+00
 0.0000000000000E+00
 0.0000000000000E+00
 0.0000000000000E+00
 0.0000000000000E+00
 0.0000000000000E+00
 0.0000000000000E+00
 0.0000000000000E+00
 0.0000000000000E+00
 0.0000000000000E+00
 0.0000000000000E+00
 0.0000000000000E+00
 0.0000000000000E+00
 0.0000000000000E+00
 0.0000000000000E+00
 0.0000000000000E+00
 0.0000000000000E+00
 0.0000000000000E+00
 0.0000000000000E+00
 0.0000000000000E+00
 0.0000000000000E+00
 0.0000000000000E+00
 0.0000000000000E+00
 0.0000000000000E+00
 0.0000000000000E+00
 0.0000000000000E+00
 0.0000000000000E+00
 0.0000000000000E+00
 0.0000000000000E+00
 0.0000000000000E+00
 0.0000000000000E+00
 0.0000000000000E+00
 0.0000000000000E+00
 0.0000000000000E+00
 0.0000000000000E+00
 0.0000000000000E+00
 0.0000000000000E+00
 0.0000000000000E+00
 0.0000000000000E+00
 0.0000000000000E+00
 0.0000000000000E+00
 0.0000000000000E+00
 0.0000000000000E+00
 0.0000000000000E+00
 0.0000000000000E+00
 0.0000000000000E+00
 0.0000000000000E+00
 0.0000000000000E+00
 0.0000000000000E+00
 0.0000000000000E+00
 0.0000000000000E+00
 0.0000000000000E+00
 0.0000000000000E+00
 0.0000000000000E+00
 0.0000000000000E+00
 0.0000000000000E+00
 0.0000000000000E+00
 0.0000000000000E+00
 0.0000000000000E+00
 0.0000000000000E+00
 0.0000000000000E+00
 0.0000000000000E+00
 0.0000000000000E+00
 0.0000000000000E+00
 0.0000000000000E+00
 0.0000000000000E+00
 0.0000000000000E+00
 0.0000000000000E+00
 0.0000000000000E+00
 0.0000000000000E+00
 0.0000000000000E+00
 0.0000000000000E+00
 0.0000000000000E+00
 0.0000000000000E+00
 0.0000000000000E+00
 0.0000000000000E+00
 0.0000000000000E+00
 0.0000000000000E+00
 0.0000000000000E+00
 0.0000000000000E+00
 0.0000000000000E+00
 0.0000000000000E+00
 0.0000000000000E+00
 0.0000000000000E+00
 0.0000000000000E+00
 0.0000000000000E+00
 0.0000000000000E+00
 0.0000000000000E+00
 0.0000000000000E+00
 0.0000000000000E+00
 0.0000000000000E+00
 0.0000000000000E+00
 0.0000000000000E+00
 0.0000000000000E+00
 0.0000000000000E+00
 0.0000000000000E+00
 0.0000000000000E+00
 0.0000000000000E+00
 0.0000000000000E+00
 0.0000000000000E+00
 0.0000000000000E+00
 0.0000000000000E+00
 0.0000000000000E+00
 0.0000000000000E+00
 0.0000000000000E+00
 0.0000000000000E+00
 0.0000000000000E+00
 0.0000000000000E+00
 0.0000000000000E+00
 0.0000000000000E+00
 0.0000000000000E+00
 0.0000000000000E+00
 0.0000000000000E+00
 0.0000000000000E+00
 0.0000000000000E+00
 0.0000000000000E+00
 0.0000000000000E+00
 0.0000000000000E+00
 0.0000000000000E+00
 0.0000000000000E+00
 0.0000000000000E+00
 0.0000000000000E+00
 0.0000000000000E+00
 0.0000000000000E+00
 0.0000000000000E+00
 0.0000000000000E+00
 0.0000000000000E+00
 0.0000000000000E+00
 0.0000000000000E+00
 0.0000000000000E+00
 0.0000000000000E+00
 0.0000000000000E+00
 0.0000000000000E+00
 0.0000000000000E+00
 0.0000000000000E+00
 0.0000000000000E+00
 0.0000000000000E+00
 0.0000000000000E+00
 0.0000000000000E+00
 0.0000000000000E+00
 0.0000000000000E+00
 0.0000000000000E+00
 0.0000000000000E+00
 0.0000000000000E+00
 0.0000000000000E+00
 0.0000000000000E+00
 0.0000000000000E+00
 0.0000000000000E+00
 0.0000000000000E+00
 0.0000000000000E+00
 0.0000000000000E+00
 0.0000000000000E+00
 0.0000000000000E+00
 0.0000000000000E+00
 0.0000000000000E+00
 0.0000000000000E+00
 0.0000000000000E+00
 0.0000000000000E+00
 0.0000000000000E+00
 0.0000000000000E+00
 0.0000000000000E+00
 0.0000000000000E+00
 0.0000000000000E+00
 0.0000000000000E+00
 0.0000000000000E+00
 0.0000000000000E+00
 0.0000000000000E+00
 0.0000000000000E+00
 0.0000000000000E+00
 0.0000000000000E+00
 0.0000000000000E+00
 0.0000000000000E+00
 0.0000000000000E+00
 0.0000000000000E+00
 0.0000000000000E+00
 0.0000000000000E+00
 0.0000000000000E+00
 0.0000000000000E+00
 0.0000000000000E+00
 0.0000000000000E+00
 0.0000000000000E+00
 0.0000000000000E+00
 0.0000000000000E+00
 0.0000000000000E+00
 0.0000000000000E+00
 0.0000000000000E+00
 0.0000000000000E+00
 0.0000000000000E+00
 0.0000000000000E+00
 0.0000000000000E+00
 0.0000000000000E+00
 0.0000000000000E+00
 0.0000000000000E+00
 0.0000000000000E+00
 0.0000000000000E+00
 0.0000000000000E+00
 0.0000000000000E+00
 0.0000000000000E+00
 0.0000000000000E+00
 0.0000000000000E+00
 0.0000000000000E+00
 0.0000000000000E+00
 0.0000000000000E+00
 0.0000000000000E+00
 0.0000000000000E+00
 0.0000000000000E+00
 0.0000000000000E+00
 0.0000000000000E+00
 0.0000000000000E+00
 0.0000000000000E+00
 0.0000000000000E+00
 0.0000000000000E+00
 0.0000000000000E+00
 0.0000000000000E+00
 0.0000000000000E+00
 0.0000000000000E+00
 0.0000000000000E+00
 0.0000000000000E+00
 0.0000000000000E+00
 0.0000000000000E+00
 0.0000000000000E+00
 0.0000000000000E+00
 0.0000000000000E+00
 0.0000000000000E+00
 0.0000000000000E+00
 0.0000000000000E+00
 0.0000000000000E+00
 0.0000000000000E+00
 0.0000000000000E+00
 0.0000000000000E+00
 0.0000000000000E+00
 0.0000000000000E+00
 0.0000000000000E+00
 0.0000000000000E+00
 0.0000000000000E+00
 0.0000000000000E+00
 0.0000000000000E+00
 0.0000000000000E+00
 0.0000000000000E+00
 0.0000000000000E+00
 0.0000000000000E+00
 0.0000000000000E+00
 0.0000000000000E+00
 0.0000000000000E+00
 0.0000000000000E+00
 0.0000000000000E+00
 0.0000000000000E+00
 0.0000000000000E+00
 0.0000000000000E+00
 0.0000000000000E+00
 0.0000000000000E+00
 0.0000000000000E+00
 0.0000000000000E+00
 0.0000000000000E+00
 0.0000000000000E+00
 0.0000000000000E+00
 0.0000000000000E+00
 0.0000000000000E+00
 0.0000000000000E+00
 0.0000000000000E+00
 0.0000000000000E+00
 0.0000000000000E+00
 0.0000000000000E+00
 0.0000000000000E+00
 0.0000000000000E+00
 0.0000000000000E+00
 0.0000000000000E+00
 0.0000000000000E+00
 0.0000000000000E+00
 0.0000000000000E+00
 0.0000000000000E+00
 0.0000000000000E+00
 0.0000000000000E+00
 0.0000000000000E+00
 0.0000000000000E+00
 0.0000000000000E+00
 0.0000000000000E+00
 0.0000000000000E+00
 0.0000000000000E+00
 0.0000000000000E+00
 0.0000000000000E+00
 0.0000000000000E+00
 0.0000000000000E+00
 0.0000000000000E+00
 0.0000000000000E+00
 0.0000000000000E+00
 0.0000000000000E+00
 0.0000000000000E+00
 0.0000000000000E+00
 0.0000000000000E+00
 0.0000000000000E+00
 0.0000000000000E+00
 0.0000000000000E+00
 0.0000000000000E+00
 0.0000000000000E+00
 0.0000000000000E+00
 0.0000000000000E+00
 0.0000000000000E+00
 0.0000000000000E+00
 0.0000000000000E+00
 0.0000000000000E+00
 0.0000000000000E+00
 0.0000000000000E+00
 0.0000000000000E+00
 0.0000000000000E+00
 0.0000000000000E+00
 0.0000000000000E+00
 0.0000000000000E+00
 0.0000000000000E+00
 0.0000000000000E+00
 0.0000000000000E+00
 0.0000000000000E+00
 0.0000000000000E+00
 0.0000000000000E+00
 0.0000000000000E+00
 0.0000000000000E+00
 0.0000000000000E+00
 0.0000000000000E+00
 0.0000000000000E+00
 0.0000000000000E+00
 0.0000000000000E+00
 0.0000000000000E+00
 0.0000000000000E+00
 0.0000000000000E+00
 0.0000000000000E+00
 0.0000000000000E+00
 0.0000000000000E+00
 0.0000000000000E+00
 0.0000000000000E+00
 0.0000000000000E+00
 0.0000000000000E+00
 0.0000000000000E+00
 0.0000000000000E+00
 0.0000000000000E+00
 0.0000000000000E+00
 0.0000000000000E+00
 0.0000000000000E+00
 0.0000000000000E+00
 0.0000000000000E+00
 0.0000000000000E+00
 0.0000000000000E+00
 0.0000000000000E+00
 0.0000000000000E+00
 0.0000000000000E+00
 0.0000000000000E+00
 0.0000000000000E+00
 0.0000000000000E+00
 0.0000000000000E+00
 0.0000000000000E+00
 0.0000000000000E+00
 0.0000000000000E+00
 0.0000000000000E+00
 0.0000000000000E+00
 0.0000000000000E+00
 0.0000000000000E+00
 0.0000000000000E+00
 0.0000000000000E+00
 0.0000000000000E+00
 0.0000000000000E+00
 0.0000000000000E+00
 0.0000000000000E+00
 0.0000000000000E+00
 0.0000000000000E+00
 0.0000000000000E+00
 0.0000000000000E+00
 0.0000000000000E+00
 0.0000000000000E+00
 0.0000000000000E+00
 0.0000000000000E+00
 0.0000000000000E+00
 0.0000000000000E+00
 0.0000000000000E+00
 0.0000000000000E+00
 0.0000000000000E+00
 0.0000000000000E+00
 0.0000000000000E+00
 0.0000000000000E+00
 0.0000000000000E+00
 0.0000000000000E+00
 0.0000000000000E+00
 0.0000000000000E+00
 0.0000000000000E+00
 0.0000000000000E+00
 0.0000000000000E+00
 0.0000000000000E+00
 0.0000000000000E+00
 0.0000000000000E+00
 0.0000000000000E+00
 0.0000000000000E+00
 0.0000000000000E+00
 0.0000000000000E+00
 0.0000000000000E+00
 0.0000000000000E+00
 0.0000000000000E+00
 0.0000000000000E+00
 0.0000000000000E+00
 0.0000000000000E+00
 0.0000000000000E+00
 0.0000000000000E+00
 0.0000000000000E+00
 0.0000000000000E+00
 0.0000000000000E+00
 0.0000000000000E+00
 0.0000000000000E+00
 0.0000000000000E+00
 0.0000000000000E+00
 0.0000000000000E+00
 0.0000000000000E+00
 0.0000000000000E+00
 0.0000000000000E+00
 0.0000000000000E+00
 0.0000000000000E+00
 0.0000000000000E+00
 0.0000000000000E+00
 0.0000000000000E+00
 0.0000000000000E+00
 0.0000000000000E+00
 0.0000000000000E+00
 0.0000000000000E+00
 0.0000000000000E+00
 0.0000000000000E+00
 0.0000000000000E+00
 0.0000000000000E+00
 0.0000000000000E+00
 0.0000000000000E+00
 0.0000000000000E+00
 0.0000000000000E+00
 0.0000000000000E+00
 0.0000000000000E+00
 0.0000000000000E+00
 0.0000000000000E+00
 0.0000000000000E+00
 0.0000000000000E+00
 0.0000000000000E+00
 0.0000000000000E+00
 0.0000000000000E+00
 0.0000000000000E+00
 0.0000000000000E+00
 0.0000000000000E+00
 0.0000000000000E+00
 0.0000000000000E+00
 0.0000000000000E+00
 0.0000000000000E+00
 0.0000000000000E+00
 0.0000000000000E+00
 0.0000000000000E+00
 0.0000000000000E+00
 0.0000000000000E+00
 0.0000000000000E+00
 0.0000000000000E+00
 0.0000000000000E+00
 0.0000000000000E+00
 0.0000000000000E+00
 0.0000000000000E+00
 0.0000000000000E+00
 0.0000000000000E+00
 0.0000000000000E+00
 0.0000000000000E+00
 0.0000000000000E+00
 0.0000000000000E+00
 0.0000000000000E+00
 0.0000000000000E+00
 0.0000000000000E+00
 0.0000000000000E+00
 0.0000000000000E+00
 0.0000000000000E+00
 0.0000000000000E+00
 0.0000000000000E+00
 0.0000000000000E+00
 0.0000000000000E+00
 0.0000000000000E+00
 0.0000000000000E+00
 0.0000000000000E+00
 0.0000000000000E+00
 0.0000000000000E+00
 0.0000000000000E+00
 0.0000000000000E+00
 0.0000000000000E+00
 0.0000000000000E+00
 0.0000000000000E+00
 0.0000000000000E+00
 0.0000000000000E+00
 0.0000000000000E+00
 0.0000000000000E+00
 0.0000000000000E+00
 0.0000000000000E+00
 0.0000000000000E+00
 0.0000000000000E+00
 0.0000000000000E+00
 0.0000000000000E+00
 0.0000000000000E+00
 0.0000000000000E+00
 0.0000000000000E+00
 0.0000000000000E+00
 0.0000000000000E+00
 0.0000000000000E+00
 0.0000000000000E+00
 0.0000000000000E+00
 0.0000000000000E+00
 0.0000000000000E+00
 0.0000000000000E+00
 0.0000000000000E+00
 0.0000000000000E+00
 0.0000000000000E+00
 0.0000000000000E+00
 0.0000000000000E+00
 0.0000000000000E+00
 0.0000000000000E+00
 0.0000000000000E+00
 0.0000000000000E+00
 0.0000000000000E+00
 0.0000000000000E+00
 0.0000000000000E+00
 0.0000000000000E+00
 0.0000000000000E+00
 0.0000000000000E+00
 0.0000000000000E+00
 0.0000000000000E+00
 0.0000000000000E+00
 0.0000000000000E+00
 0.0000000000000E+00
 0.0000000000000E+00
 0.0000000000000E+00
 0.0000000000000E+00
 0.0000000000000E+00
 0.0000000000000E+00
 0.0000000000000E+00
 0.0000000000000E+00
 0.0000000000000E+00
 0.0000000000000E+00
 0.0000000000000E+00
 0.0000000000000E+00
 0.0000000000000E+00
 0.0000000000000E+00
 0.0000000000000E+00
 0.0000000000000E+00
 0.0000000000000E+00
 0.0000000000000E+00
 0.0000000000000E+00
 0.0000000000000E+00
 0.0000000000000E+00
 0.0000000000000E+00
 0.0000000000000E+00
 0.0000000000000E+00
 0.0000000000000E+00
 0.0000000000000E+00
 0.0000000000000E+00
 0.0000000000000E+00
 0.0000000000000E+00
 0.0000000000000E+00
 0.0000000000000E+00
 0.0000000000000E+00
 0.0000000000000E+00
 0.0000000000000E+00
 0.0000000000000E+00
 0.0000000000000E+00
 0.0000000000000E+00
 0.0000000000000E+00
 0.0000000000000E+00
 0.0000000000000E+00
 0.0000000000000E+00
 0.0000000000000E+00
 0.0000000000000E+00
 0.0000000000000E+00
 0.0000000000000E+00
 0.0000000000000E+00
 0.0000000000000E+00
 0.0000000000000E+00
 0.0000000000000E+00
 0.0000000000000E+00
 0.0000000000000E+00
 0.0000000000000E+00
 0.0000000000000E+00
 0.0000000000000E+00
 0.0000000000000E+00
 0.0000000000000E+00
 0.0000000000000E+00
 0.0000000000000E+00
 0.0000000000000E+00
 0.0000000000000E+00
 0.0000000000000E+00
 0.0000000000000E+00
 0.0000000000000E+00
 0.0000000000000E+00
 0.0000000000000E+00
 0.0000000000000E+00
 0.0000000000000E+00
 0.0000000000000E+00
 0.0000000000000E+00
 0.0000000000000E+00
 0.0000000000000E+00
 0.0000000000000E+00
 0.0000000000000E+00
 0.0000000000000E+00
 0.0000000000000E+00
 0.0000000000000E+00
 0.0000000000000E+00
 0.0000000000000E+00
 0.0000000000000E+00
 0.0000000000000E+00
 0.0000000000000E+00
 0.0000000000000E+00
 0.0000000000000E+00
 0.0000000000000E+00
 0.0000000000000E+00
 0.0000000000000E+00
 0.0000000000000E+00
 0.0000000000000E+00
 0.0000000000000E+00
 0.0000000000000E+00
 0.0000000000000E+00
 0.0000000000000E+00
 0.0000000000000E+00
 0.0000000000000E+00
 0.0000000000000E+00
 0.0000000000000E+00
 0.0000000000000E+00
 0.0000000000000E+00
 0.0000000000000E+00
 0.0000000000000E+00
 0.0000000000000E+00
 0.0000000000000E+00
 0.0000000000000E+00
 0.0000000000000E+00
 0.0000000000000E+00
 0.0000000000000E+00
 0.0000000000000E+00
 0.0000000000000E+00
 0.0000000000000E+00
 0.0000000000000E+00
 0.0000000000000E+00
 0.0000000000000E+00
 0.0000000000000E+00
 0.0000000000000E+00
 0.0000000000000E+00
 0.0000000000000E+00
 0.0000000000000E+00
 0.0000000000000E+00
 0.0000000000000E+00
 0.0000000000000E+00
 0.0000000000000E+00
 0.0000000000000E+00
 0.0000000000000E+00
 0.0000000000000E+00
 0.0000000000000E+00
 0.0000000000000E+00
 0.0000000000000E+00
 0.0000000000000E+00
 0.0000000000000E+00
 0.0000000000000E+00
 0.0000000000000E+00
 0.0000000000000E+00
 0.0000000000000E+00
 0.0000000000000E+00
 0.0000000000000E+00
 0.0000000000000E+00
 0.0000000000000E+00
 0.0000000000000E+00
 0.0000000000000E+00
 0.0000000000000E+00
 0.0000000000000E+00
 0.0000000000000E+00
 0.0000000000000E+00
 0.0000000000000E+00
 0.0000000000000E+00
 0.0000000000000E+00
 0.0000000000000E+00
 0.0000000000000E+00
 0.0000000000000E+00
 0.0000000000000E+00
 0.0000000000000E+00
 0.0000000000000E+00
 0.0000000000000E+00
 0.0000000000000E+00
 0.0000000000000E+00
 0.0000000000000E+00
 0.0000000000000E+00
 0.0000000000000E+00
 0.0000000000000E+00
 0.0000000000000E+00
 0.0000000000000E+00
 0.0000000000000E+00
 0.0000000000000E+00
 0.0000000000000E+00
 0.0000000000000E+00
 0.0000000000000E+00
 0.0000000000000E+00
 0.0000000000000E+00
 0.0000000000000E+00
 0.0000000000000E+00
 0.0000000000000E+00
 0.0000000000000E+00
 0.0000000000000E+00
 0.0000000000000E+00
 0.0000000000000E+00
 0.0000000000000E+00
 0.0000000000000E+00
 0.0000000000000E+00
 0.0000000000000E+00
 0.0000000000000E+00
 0.0000000000000E+00
 0.0000000000000E+00
 0.0000000000000E+00
 0.0000000000000E+00
 0.0000000000000E+00
 0.0000000000000E+00
 0.0000000000000E+00
 0.0000000000000E+00
 0.0000000000000E+00
 0.0000000000000E+00
 0.0000000000000E+00
 0.0000000000000E+00
 0.0000000000000E+00
 0.0000000000000E+00
 0.0000000000000E+00
 0.0000000000000E+00
 0.0000000000000E+00
 0.0000000000000E+00
 0.0000000000000E+00
 0.0000000000000E+00
 0.0000000000000E+00
 0.0000000000000E+00
 0.0000000000000E+00
 0.0000000000000E+00
 0.0000000000000E+00
 0.0000000000000E+00
 0.0000000000000E+00
 0.0000000000000E+00
 0.0000000000000E+00
 0.0000000000000E+00
 0.0000000000000E+00
 0.0000000000000E+00
 0.0000000000000E+00
 0.0000000000000E+00
 0.0000000000000E+00
 0.0000000000000E+00
 0.0000000000000E+00
 0.0000000000000E+00
 0.0000000000000E+00
 0.0000000000000E+00
 0.0000000000000E+00
 0.0000000000000E+00
 0.0000000000000E+00
 0.0000000000000E+00
 0.0000000000000E+00
 0.0000000000000E+00
 0.0000000000000E+00
 0.0000000000000E+00
 0.0000000000000E+00
 0.0000000000000E+00
 0.0000000000000E+00
 0.0000000000000E+00
 0.0000000000000E+00
 0.0000000000000E+00
 0.0000000000000E+00
 0.0000000000000E+00
 0.0000000000000E+00
 0.0000000000000E+00
 0.0000000000000E+00
 0.0000000000000E+00
 0.0000000000000E+00
 0.0000000000000E+00
 0.0000000000000E+00
 0.0000000000000E+00
 0.0000000000000E+00
 0.0000000000000E+00
 0.0000000000000E+00
 0.0000000000000E+00
 0.0000000000000E+00
 0.0000000000000E+00
 0.0000000000000E+00
 0.0000000000000E+00
 0.0000000000000E+00
 0.0000000000000E+00
 0.0000000000000E+00
 0.0000000000000E+00
 0.0000000000000E+00
 0.0000000000000E+00
 0.0000000000000E+00
 0.0000000000000E+00
 0.0000000000000E+00
 0.0000000000000E+00
 0.0000000000000E+00
 0.0000000000000E+00
 0.0000000000000E+00
 0.0000000000000E+00
 0.0000000000000E+00
 0.0000000000000E+00
 0.0000000000000E+00
 0.0000000000000E+00
 0.0000000000000E+00
 0.0000000000000E+00
 0.0000000000000E+00
 0.0000000000000E+00
 0.0000000000000E+00
 0.0000000000000E+00
 0.0000000000000E+00
 0.0000000000000E+00
 0.0000000000000E+00
 0.0000000000000E+00
 0.0000000000000E+00
 0.0000000000000E+00
 0.0000000000000E+00
 0.0000000000000E+00
 0.0000000000000E+00
 0.0000000000000E+00
 0.0000000000000E+00
 0.0000000000000E+00
 0.0000000000000E+00
 0.0000000000000E+00
 0.0000000000000E+00
 0.0000000000000E+00
 0.0000000000000E+00
 0.0000000000000E+00
 0.0000000000000E+00
 0.0000000000000E+00
 0.0000000000000E+00
 0.0000000000000E+00
 0.0000000000000E+00
 0.0000000000000E+00
 0.0000000000000E+00
 0.0000000000000E+00
 0.0000000000000E+00
 0.0000000000000E+00
 0.0000000000000E+00
 0.0000000000000E+00
 0.0000000000000E+00
 0.0000000000000E+00
 0.0000000000000E+00
 0.0000000000000E+00
 0.0000000000000E+00
 0.0000000000000E+00
 0.0000000000000E+00
 0.0000000000000E+00
 0.0000000000000E+00
 0.0000000000000E+00
 0.0000000000000E+00
 0.0000000000000E+00
 0.0000000000000E+00
 0.0000000000000E+00
 0.0000000000000E+00
 0.0000000000000E+00
 0.0000000000000E+00
 0.0000000000000E+00
 0.0000000000000E+00
 0.0000000000000E+00
 0.0000000000000E+00
 0.0000000000000E+00
 0.0000000000000E+00
 0.0000000000000E+00
 0.0000000000000E+00
 0.0000000000000E+00
 0.0000000000000E+00
 0.0000000000000E+00
 0.0000000000000E+00
 0.0000000000000E+00
 0.0000000000000E+00
 0.0000000000000E+00
 0.0000000000000E+00
 0.0000000000000E+00
 0.0000000000000E+00
 0.0000000000000E+00
 0.0000000000000E+00
 0.0000000000000E+00
 0.0000000000000E+00
 0.0000000000000E+00
 0.0000000000000E+00
 0.0000000000000E+00
 0.0000000000000E+00
 0.0000000000000E+00
 0.0000000000000E+00
 0.0000000000000E+00
 0.0000000000000E+00
 0.0000000000000E+00
 0.0000000000000E+00
 0.0000000000000E+00
 0.0000000000000E+00
 0.0000000000000E+00
 0.0000000000000E+00
 0.0000000000000E+00
 0.0000000000000E+00
 0.0000000000000E+00
 0.0000000000000E+00
 0.0000000000000E+00
 0.0000000000000E+00
 0.0000000000000E+00
 0.0000000000000E+00
 0.0000000000000E+00
 0.0000000000000E+00
 0.0000000000000E+00
 0.0000000000000E+00
 0.0000000000000E+00
 0.0000000000000E+00
 0.0000000000000E+00
 0.0000000000000E+00
 0.0000000000000E+00
 0.0000000000000E+00
 0.0000000000000E+00
 0.0000000000000E+00
 0.0000000000000E+00
 0.0000000000000E+00
 0.0000000000000E+00
 0.0000000000000E+00
 0.0000000000000E+00
 0.0000000000000E+00
 0.0000000000000E+00
 0.0000000000000E+00
 0.0000000000000E+00
 0.0000000000000E+00
 0.0000000000000E+00
 0.0000000000000E+00
 0.0000000000000E+00
 0.0000000000000E+00
 0.0000000000000E+00
 0.0000000000000E+00
 0.0000000000000E+00
 0.0000000000000E+00
 0.0000000000000E+00
 0.0000000000000E+00
 0.0000000000000E+00
 0.0000000000000E+00
 0.0000000000000E+00
 0.0000000000000E+00
 0.0000000000000E+00
 0.0000000000000E+00
 0.0000000000000E+00
 0.0000000000000E+00
 0.0000000000000E+00
 0.0000000000000E+00
 0.0000000000000E+00
 0.0000000000000E+00
 0.0000000000000E+00
 0.0000000000000E+00
 0.0000000000000E+00
 0.0000000000000E+00
 0.0000000000000E+00
 0.0000000000000E+00
 0.0000000000000E+00
 0.0000000000000E+00
 0.0000000000000E+00
 0.0000000000000E+00
 0.0000000000000E+00
 0.0000000000000E+00
 0.0000000000000E+00
 0.0000000000000E+00
 0.0000000000000E+00
 0.0000000000000E+00
 0.0000000000000E+00
 0.0000000000000E+00
 0.0000000000000E+00
 0.0000000000000E+00
 0.0000000000000E+00
 0.0000000000000E+00
 0.0000000000000E+00
 0.0000000000000E+00
 0.0000000000000E+00
 0.0000000000000E+00
 0.0000000000000E+00
 0.0000000000000E+00
 0.0000000000000E+00
 0.0000000000000E+00
 0.0000000000000E+00
 0.0000000000000E+00
 0.0000000000000E+00
 0.0000000000000E+00
 0.0000000000000E+00
 0.0000000000000E+00
 0.0000000000000E+00
 0.0000000000000E+00
 0.0000000000000E+00
 0.0000000000000E+00
 0.0000000000000E+00
 0.0000000000000E+00
 0.0000000000000E+00
 0.0000000000000E+00
 0.0000000000000E+00
 0.0000000000000E+00
 0.0000000000000E+00
 0.0000000000000E+00
 0.0000000000000E+00
 0.0000000000000E+00
 0.0000000000000E+00
 0.0000000000000E+00
 0.0000000000000E+00
 0.0000000000000E+00
 0.0000000000000E+00
 0.0000000000000E+00
 0.0000000000000E+00
 0.0000000000000E+00
 0.0000000000000E+00
 0.0000000000000E+00
 0.0000000000000E+00
 0.0000000000000E+00
 0.0000000000000E+00
 0.0000000000000E+00
 0.0000000000000E+00
 0.0000000000000E+00
 0.0000000000000E+00
 0.0000000000000E+00
 0.0000000000000E+00
 0.0000000000000E+00
 0.0000000000000E+00
 0.0000000000000E+00
 0.0000000000000E+00
 0.0000000000000E+00
 0.0000000000000E+00
 0.0000000000000E+00
 0.0000000000000E+00
 0.0000000000000E+00
 0.0000000000000E+00
 0.0000000000000E+00
 0.0000000000000E+00
 0.0000000000000E+00
 0.0000000000000E+00
 0.0000000000000E+00
 0.0000000000000E+00
 0.0000000000000E+00
 0.0000000000000E+00
 0.0000000000000E+00
 0.0000000000000E+00
 0.0000000000000E+00
 0.0000000000000E+00
 0.0000000000000E+00
 0.0000000000000E+00
 0.0000000000000E+00
 0.0000000000000E+00
 0.0000000000000E+00
 0.0000000000000E+00
 0.0000000000000E+00
 0.0000000000000E+00
 0.0000000000000E+00
 0.0000000000000E+00
 0.0000000000000E+00
 0.0000000000000E+00
 0.0000000000000E+00
 0.0000000000000E+00
 0.0000000000000E+00
 0.0000000000000E+00
 0.0000000000000E+00
 0.0000000000000E+00
 0.0000000000000E+00
 0.0000000000000E+00
 0.0000000000000E+00
 0.0000000000000E+00
 0.0000000000000E+00
 0.0000000000000E+00
 0.0000000000000E+00
 0.0000000000000E+00
 0.0000000000000E+00
 0.0000000000000E+00
 0.0000000000000E+00
 0.0000000000000E+00
 0.0000000000000E+00
 0.0000000000000E+00
 0.0000000000000E+00
 0.0000000000000E+00
 0.0000000000000E+00
 0.0000000000000E+00
 0.0000000000000E+00
 0.0000000000000E+00
 0.0000000000000E+00
 0.0000000000000E+00
 0.0000000000000E+00
 0.0000000000000E+00
 0.0000000000000E+00
 0.0000000000000E+00
 0.0000000000000E+00
 0.0000000000000E+00
 0.0000000000000E+00
 0.0000000000000E+00
 0.0000000000000E+00
 0.0000000000000E+00
 0.0000000000000E+00
 0.0000000000000E+00
 0.0000000000000E+00
 0.0000000000000E+00
 0.0000000000000E+00
 0.0000000000000E+00
 0.0000000000000E+00
 0.0000000000000E+00
 0.0000000000000E+00
 0.0000000000000E+00
 0.0000000000000E+00
 0.0000000000000E+00
 0.0000000000000E+00
 0.0000000000000E+00
 0.0000000000000E+00
 0.0000000000000E+00
 0.0000000000000E+00
 0.0000000000000E+00
 0.0000000000000E+00
 0.0000000000000E+00
 0.0000000000000E+00
 0.0000000000000E+00
 0.0000000000000E+00
 0.0000000000000E+00
 0.0000000000000E+00
 0.0000000000000E+00
 0.0000000000000E+00
 0.0000000000000E+00
 0.0000000000000E+00
 0.0000000000000E+00
 0.0000000000000E+00
 0.0000000000000E+00
 0.0000000000000E+00
 0.0000000000000E+00
 0.0000000000000E+00
 0.0000000000000E+00
 0.0000000000000E+00
 0.0000000000000E+00
 0.0000000000000E+00
 0.0000000000000E+00
 0.0000000000000E+00
 0.0000000000000E+00
 0.0000000000000E+00
 0.0000000000000E+00
 0.0000000000000E+00
 0.0000000000000E+00
 0.0000000000000E+00
 0.0000000000000E+00
 0.0000000000000E+00
 0.0000000000000E+00
 0.0000000000000E+00
 0.0000000000000E+00
 0.0000000000000E+00
 0.0000000000000E+00
 0.0000000000000E+00
 0.0000000000000E+00
 0.0000000000000E+00
 0.0000000000000E+00
 0.0000000000000E+00
 0.0000000000000E+00
 0.0000000000000E+00
 0.0000000000000E+00
 0.0000000000000E+00
 0.0000000000000E+00
 0.0000000000000E+00
 0.0000000000000E+00
 0.0000000000000E+00
 0.0000000000000E+00
 0.0000000000000E+00
 0.0000000000000E+00
 0.0000000000000E+00
 0.0000000000000E+00
 0.0000000000000E+00
 0.0000000000000E+00
 0.0000000000000E+00
 0.0000000000000E+00
 0.0000000000000E+00
 0.0000000000000E+00
 0.0000000000000E+00
 0.0000000000000E+00
 0.0000000000000E+00
 0.0000000000000E+00
 0.0000000000000E+00
 0.0000000000000E+00
 0.0000000000000E+00
 0.0000000000000E+00
 0.0000000000000E+00
 0.0000000000000E+00
 0.0000000000000E+00
 0.0000000000000E+00
 0.0000000000000E+00
 0.0000000000000E+00
 0.0000000000000E+00
 0.0000000000000E+00
 0.0000000000000E+00
 0.0000000000000E+00
 0.0000000000000E+00
 0.0000000000000E+00
 0.0000000000000E+00
 0.0000000000000E+00
 0.0000000000000E+00
 0.0000000000000E+00
 0.0000000000000E+00
 0.0000000000000E+00
 0.0000000000000E+00
 0.0000000000000E+00
 0.0000000000000E+00
 0.0000000000000E+00
 0.0000000000000E+00
 0.0000000000000E+00
 0.0000000000000E+00
 0.0000000000000E+00
 0.0000000000000E+00
 0.0000000000000E+00
 0.0000000000000E+00
 0.0000000000000E+00
 0.0000000000000E+00
 0.0000000000000E+00
 0.0000000000000E+00
 0.0000000000000E+00
 0.0000000000000E+00
 0.0000000000000E+00
 0.0000000000000E+00
 0.0000000000000E+00
 0.0000000000000E+00
 0.0000000000000E+00
 0.0000000000000E+00
 0.0000000000000E+00
 0.0000000000000E+00
 0.0000000000000E+00
 0.0000000000000E+00
 0.0000000000000E+00
 0.0000000000000E+00
 0.0000000000000E+00
 0.0000000000000E+00
 0.0000000000000E+00
 0.0000000000000E+00
 0.0000000000000E+00
 0.0000000000000E+00
 0.0000000000000E+00
 0.0000000000000E+00
 0.0000000000000E+00
 0.0000000000000E+00
 0.0000000000000E+00
 0.0000000000000E+00
 0.0000000000000E+00
 0.0000000000000E+00
 0.0000000000000E+00
 0.0000000000000E+00
 0.0000000000000E+00
 0.0000000000000E+00
 0.0000000000000E+00
 0.0000000000000E+00
 0.0000000000000E+00
 0.0000000000000E+00
 0.0000000000000E+00
 0.0000000000000E+00
 0.0000000000000E+00
 0.0000000000000E+00
 0.0000000000000E+00
 0.0000000000000E+00
 0.0000000000000E+00
 0.0000000000000E+00
 0.0000000000000E+00
 0.0000000000000E+00
 0.0000000000000E+00
 0.0000000000000E+00
 0.0000000000000E+00
 0.0000000000000E+00
 0.0000000000000E+00
 0.0000000000000E+00
 0.0000000000000E+00
 0.0000000000000E+00
 0.0000000000000E+00
 0.0000000000000E+00
 0.0000000000000E+00
 0.0000000000000E+00
 0.0000000000000E+00
 0.0000000000000E+00
 0.0000000000000E+00
 0.0000000000000E+00
 0.0000000000000E+00
 0.0000000000000E+00
 0.0000000000000E+00
 0.0000000000000E+00
 0.0000000000000E+00
 0.0000000000000E+00
 0.0000000000000E+00
 0.0000000000000E+00
 0.0000000000000E+00
 0.0000000000000E+00
 0.0000000000000E+00
 0.0000000000000E+00
 0.0000000000000E+00
 0.0000000000000E+00
 0.0000000000000E+00
 0.0000000000000E+00
 0.0000000000000E+00
 0.0000000000000E+00
 0.0000000000000E+00
 0.0000000000000E+00
 0.0000000000000E+00
 0.0000000000000E+00
 0.0000000000000E+00
 0.0000000000000E+00
 0.0000000000000E+00
 0.0000000000000E+00
 0.0000000000000E+00
 0.0000000000000E+00
 0.0000000000000E+00
 0.0000000000000E+00
 0.0000000000000E+00
 0.0000000000000E+00
 0.0000000000000E+00
 0.0000000000000E+00
 0.0000000000000E+00
 0.0000000000000E+00
 0.0000000000000E+00
 0.0000000000000E+00
 0.0000000000000E+00
 0.0000000000000E+00
 0.0000000000000E+00
 0.0000000000000E+00
 0.0000000000000E+00
 0.0000000000000E+00
 0.0000000000000E+00
 0.0000000000000E+00
 0.0000000000000E+00
 0.0000000000000E+00
 0.0000000000000E+00
 0.0000000000000E+00
 0.0000000000000E+00
 0.0000000000000E+00
 0.0000000000000E+00
 0.0000000000000E+00
 0.0000000000000E+00
 0.0000000000000E+00
 0.0000000000000E+00
 0.0000000000000E+00
 0.0000000000000E+00
 0.0000000000000E+00
 0.0000000000000E+00
 0.0000000000000E+00
 0.0000000000000E+00
 0.0000000000000E+00
 0.0000000000000E+00
 0.0000000000000E+00
 0.0000000000000E+00
 0.0000000000000E+00
 0.0000000000000E+00
 0.0000000000000E+00
 0.0000000000000E+00
 0.0000000000000E+00
 0.0000000000000E+00
 0.0000000000000E+00
 0.0000000000000E+00
 0.0000000000000E+00
 0.0000000000000E+00
 0.0000000000000E+00
 0.0000000000000E+00
 0.0000000000000E+00
 0.0000000000000E+00
 0.0000000000000E+00
 0.0000000000000E+00
 0.0000000000000E+00
 0.0000000000000E+00
 0.0000000000000E+00
 0.0000000000000E+00
 0.0000000000000E+00
 0.0000000000000E+00
 0.0000000000000E+00
 0.0000000000000E+00
 0.0000000000000E+00
 0.0000000000000E+00
 0.0000000000000E+00
 0.0000000000000E+00
 0.0000000000000E+00
 0.0000000000000E+00
 0.0000000000000E+00
 0.0000000000000E+00
 0.0000000000000E+00
 0.0000000000000E+00
 0.0000000000000E+00
 0.0000000000000E+00
 0.0000000000000E+00
 0.0000000000000E+00
 0.0000000000000E+00
 0.0000000000000E+00
 0.0000000000000E+00
 0.0000000000000E+00
 0.0000000000000E+00
 0.0000000000000E+00
 0.0000000000000E+00
 0.0000000000000E+00
 0.0000000000000E+00
 0.0000000000000E+00
 0.0000000000000E+00
 0.0000000000000E+00
 0.0000000000000E+00
 0.0000000000000E+00
 0.0000000000000E+00
 0.0000000000000E+00
 0.0000000000000E+00
 0.0000000000000E+00
 0.0000000000000E+00
 0.0000000000000E+00
 0.0000000000000E+00
 0.0000000000000E+00
 0.0000000000000E+00
 0.0000000000000E+00
 0.0000000000000E+00
 0.0000000000000E+00
 0.0000000000000E+00
 0.0000000000000E+00
 0.0000000000000E+00
 0.0000000000000E+00
 0.0000000000000E+00
 0.0000000000000E+00
 0.0000000000000E+00
 0.0000000000000E+00
 0.0000000000000E+00
 0.0000000000000E+00
 0.0000000000000E+00
 0.0000000000000E+00
 0.0000000000000E+00
 0.0000000000000E+00
 0.0000000000000E+00
 0.0000000000000E+00
 0.0000000000000E+00
 0.0000000000000E+00
 0.0000000000000E+00
 0.0000000000000E+00
 0.0000000000000E+00
 0.0000000000000E+00
 0.0000000000000E+00
 0.0000000000000E+00
 0.0000000000000E+00
 0.0000000000000E+00
 0.0000000000000E+00
 0.0000000000000E+00
 0.0000000000000E+00
 0.0000000000000E+00
 0.0000000000000E+00
 0.0000000000000E+00
 0.0000000000000E+00
 0.0000000000000E+00
 0.0000000000000E+00
 0.0000000000000E+00
 0.0000000000000E+00
 0.0000000000000E+00
 0.0000000000000E+00
 0.0000000000000E+00
 0.0000000000000E+00
 0.0000000000000E+00
 0.0000000000000E+00
 0.0000000000000E+00
 0.0000000000000E+00
 0.0000000000000E+00
 0.0000000000000E+00
 0.0000000000000E+00
 0.0000000000000E+00
 0.0000000000000E+00
 0.0000000000000E+00
 0.0000000000000E+00
 0.0000000000000E+00
 0.0000000000000E+00
 0.0000000000000E+00
 0.0000000000000E+00
 0.0000000000000E+00
 0.0000000000000E+00
 0.0000000000000E+00
 0.0000000000000E+00
 0.0000000000000E+00
 0.0000000000000E+00
 0.0000000000000E+00
 0.0000000000000E+00
 0.0000000000000E+00
 0.0000000000000E+00
 0.0000000000000E+00
 0.0000000000000E+00
 0.0000000000000E+00
 0.0000000000000E+00
 0.0000000000000E+00
 0.0000000000000E+00
 0.0000000000000E+00
 0.0000000000000E+00
 0.0000000000000E+00
 0.0000000000000E+00
 0.0000000000000E+00
 0.0000000000000E+00
 0.0000000000000E+00
 0.0000000000000E+00
 0.0000000000000E+00
 0.0000000000000E+00
 0.0000000000000E+00
 0.0000000000000E+00
 0.0000000000000E+00
 0.0000000000000E+00
 0.0000000000000E+00
 0.0000000000000E+00
 0.0000000000000E+00
 0.0000000000000E+00
 0.0000000000000E+00
 0.0000000000000E+00
 0.0000000000000E+00
 0.0000000000000E+00
 0.0000000000000E+00
 0.0000000000000E+00
 0.0000000000000E+00
 0.0000000000000E+00
 0.0000000000000E+00
 0.0000000000000E+00
 0.0000000000000E+00
 0.0000000000000E+00
 0.0000000000000E+00
 0.0000000000000E+00
 0.0000000000000E+00
 0.0000000000000E+00
 0.0000000000000E+00
 0.0000000000000E+00
 0.0000000000000E+00
 0.0000000000000E+00
 0.0000000000000E+00
 0.0000000000000E+00
 0.0000000000000E+00
 0.0000000000000E+00
 0.0000000000000E+00
 0.0000000000000E+00
 0.0000000000000E+00
 0.0000000000000E+00
 0.0000000000000E+00
 0.0000000000000E+00
 0.0000000000000E+00
 0.0000000000000E+00
 0.0000000000000E+00
 0.0000000000000E+00
 0.0000000000000E+00
 0.0000000000000E+00
 0.0000000000000E+00
 0.0000000000000E+00
 0.0000000000000E+00
 0.0000000000000E+00
 0.0000000000000E+00
 0.0000000000000E+00
 0.0000000000000E+00
 0.0000000000000E+00
 0.0000000000000E+00
 0.0000000000000E+00
 0.0000000000000E+00
 0.0000000000000E+00
 0.0000000000000E+00
 0.0000000000000E+00
 0.0000000000000E+00
 0.0000000000000E+00
 0.0000000000000E+00
 0.0000000000000E+00
 0.0000000000000E+00
 0.0000000000000E+00
 0.0000000000000E+00
 0.0000000000000E+00
 0.0000000000000E+00
 0.0000000000000E+00
 0.0000000000000E+00
 0.0000000000000E+00
 0.0000000000000E+00
 0.0000000000000E+00
 0.0000000000000E+00
 0.0000000000000E+00
 0.0000000000000E+00
 0.0000000000000E+00
 0.0000000000000E+00
 0.0000000000000E+00
 0.0000000000000E+00
 0.0000000000000E+00
 0.0000000000000E+00
 0.0000000000000E+00
 0.0000000000000E+00
 0.0000000000000E+00
 0.0000000000000E+00
 0.0000000000000E+00
 0.0000000000000E+00
 0.0000000000000E+00
 0.0000000000000E+00
 0.0000000000000E+00
 0.0000000000000E+00
 0.0000000000000E+00
 0.0000000000000E+00
 0.0000000000000E+00
 0.0000000000000E+00
 0.0000000000000E+00
 0.0000000000000E+00
 0.0000000000000E+00
 0.0000000000000E+00
 0.0000000000000E+00
 0.0000000000000E+00
 0.0000000000000E+00
 0.0000000000000E+00
 0.0000000000000E+00
 0.0000000000000E+00
 0.0000000000000E+00
 0.0000000000000E+00
 0.0000000000000E+00
 0.0000000000000E+00
 0.0000000000000E+00
 0.0000000000000E+00
 0.0000000000000E+00
 0.0000000000000E+00
 0.0000000000000E+00
 0.0000000000000E+00
 0.0000000000000E+00
 0.0000000000000E+00
 0.0000000000000E+00
 0.0000000000000E+00
 0.0000000000000E+00
 0.0000000000000E+00
 0.0000000000000E+00
 0.0000000000000E+00
 0.0000000000000E+00
 0.0000000000000E+00
 0.0000000000000E+00
 0.0000000000000E+00
 0.0000000000000E+00
 0.0000000000000E+00
 0.0000000000000E+00
 0.0000000000000E+00
 0.0000000000000E+00
 0.0000000000000E+00
 0.0000000000000E+00
 0.0000000000000E+00
 0.0000000000000E+00
 0.0000000000000E+00
 0.0000000000000E+00
 0.0000000000000E+00
 0.0000000000000E+00
 0.0000000000000E+00
 0.0000000000000E+00
 0.0000000000000E+00
 0.0000000000000E+00
 0.0000000000000E+00
 0.0000000000000E+00
 0.0000000000000E+00
 0.0000000000000E+00
 0.0000000000000E+00
 0.0000000000000E+00
 0.0000000000000E+00
 0.0000000000000E+00
 0.0000000000000E+00
 0.0000000000000E+00
 0.0000000000000E+00
 0.0000000000000E+00
 0.0000000000000E+00
 0.0000000000000E+00
 0.0000000000000E+00
 0.0000000000000E+00
 0.0000000000000E+00
 0.0000000000000E+00
 0.0000000000000E+00
 0.0000000000000E+00
 0.0000000000000E+00
 0.0000000000000E+00
 0.0000000000000E+00
 0.0000000000000E+00
 0.0000000000000E+00
 0.0000000000000E+00
 0.0000000000000E+00
 0.0000000000000E+00
 0.0000000000000E+00
 0.0000000000000E+00
 0.0000000000000E+00
 0.0000000000000E+00
 0.0000000000000E+00
 0.0000000000000E+00
 0.0000000000000E+00
 0.0000000000000E+00
 0.0000000000000E+00
 0.0000000000000E+00
 0.0000000000000E+00
 0.0000000000000E+00
 0.0000000000000E+00
 0.0000000000000E+00
 0.0000000000000E+00
 0.0000000000000E+00
 0.0000000000000E+00
 0.0000000000000E+00
 0.0000000000000E+00
 0.0000000000000E+00
 0.0000000000000E+00
 0.0000000000000E+00
 0.0000000000000E+00
 0.0000000000000E+00
 0.0000000000000E+00
 0.0000000000000E+00
 0.0000000000000E+00
 0.0000000000000E+00
 0.0000000000000E+00
 0.0000000000000E+00
 0.0000000000000E+00
 0.0000000000000E+00
 0.0000000000000E+00
 0.0000000000000E+00
 0.0000000000000E+00
 0.0000000000000E+00
 0.0000000000000E+00
 0.0000000000000E+00
 0.0000000000000E+00
 0.0000000000000E+00
 0.0000000000000E+00
 0.0000000000000E+00
 0.0000000000000E+00
 0.0000000000000E+00
 0.0000000000000E+00
 0.0000000000000E+00
 0.0000000000000E+00
 0.0000000000000E+00
 0.0000000000000E+00
 0.0000000000000E+00
 0.0000000000000E+00
 0.0000000000000E+00
 0.0000000000000E+00
 0.0000000000000E+00
 0.0000000000000E+00
 0.0000000000000E+00
 0.0000000000000E+00
 0.0000000000000E+00
 0.0000000000000E+00
 0.0000000000000E+00
 0.0000000000000E+00
 0.0000000000000E+00
 0.0000000000000E+00
 0.0000000000000E+00
 0.0000000000000E+00
 0.0000000000000E+00
 0.0000000000000E+00
 0.0000000000000E+00
 0.0000000000000E+00
 0.0000000000000E+00
 0.0000000000000E+00
 0.0000000000000E+00
 0.0000000000000E+00
 0.0000000000000E+00
 0.0000000000000E+00
 0.0000000000000E+00
 0.0000000000000E+00
 0.0000000000000E+00
 0.0000000000000E+00
 0.0000000000000E+00
 0.0000000000000E+00
 0.0000000000000E+00
 0.0000000000000E+00
 0.0000000000000E+00
 0.0000000000000E+00
 0.0000000000000E+00
 0.0000000000000E+00
 0.0000000000000E+00
 0.0000000000000E+00
 0.0000000000000E+00
 0.0000000000000E+00
 0.0000000000000E+00
 0.0000000000000E+00
 0.0000000000000E+00
 0.0000000000000E+00
 0.0000000000000E+00
 0.0000000000000E+00
 0.0000000000000E+00
 0.0000000000000E+00
 0.0000000000000E+00
 0.0000000000000E+00
 0.0000000000000E+00
 0.0000000000000E+00
 0.0000000000000E+00
 0.0000000000000E+00
 0.0000000000000E+00
 0.0000000000000E+00
 0.0000000000000E+00
 0.0000000000000E+00
 0.0000000000000E+00
 0.0000000000000E+00
 0.0000000000000E+00
 0.0000000000000E+00
 0.0000000000000E+00
 0.0000000000000E+00
 0.0000000000000E+00
 0.0000000000000E+00
 0.0000000000000E+00
 0.0000000000000E+00
 0.0000000000000E+00
 0.0000000000000E+00
 0.0000000000000E+00
 0.0000000000000E+00
 0.0000000000000E+00
 0.0000000000000E+00
 0.0000000000000E+00
 0.0000000000000E+00
 0.0000000000000E+00
 0.0000000000000E+00
 0.0000000000000E+00
 0.0000000000000E+00
 0.0000000000000E+00
 0.0000000000000E+00
 0.0000000000000E+00
 0.0000000000000E+00
 0.0000000000000E+00
 0.0000000000000E+00
 0.0000000000000E+00
 0.0000000000000E+00
 0.0000000000000E+00
 0.0000000000000E+00
 0.0000000000000E+00
 0.0000000000000E+00
 0.0000000000000E+00
 0.0000000000000E+00
 0.0000000000000E+00
 0.0000000000000E+00
 0.0000000000000E+00
 0.0000000000000E+00
 0.0000000000000E+00
 0.0000000000000E+00
 0.0000000000000E+00
 0.0000000000000E+00
 0.0000000000000E+00
 0.0000000000000E+00
 0.0000000000000E+00
 0.0000000000000E+00
 0.0000000000000E+00
 0.0000000000000E+00
 0.0000000000000E+00
 0.0000000000000E+00
 0.0000000000000E+00
 0.0000000000000E+00
 0.0000000000000E+00
 0.0000000000000E+00
 0.0000000000000E+00
 0.0000000000000E+00
 0.0000000000000E+00
 0.0000000000000E+00
 0.0000000000000E+00
 0.0000000000000E+00
 0.0000000000000E+00
 0.0000000000000E+00
 0.0000000000000E+00
 0.0000000000000E+00
 0.0000000000000E+00
 0.0000000000000E+00
 0.0000000000000E+00
 0.0000000000000E+00
 0.0000000000000E+00
 0.0000000000000E+00
 0.0000000000000E+00
 0.0000000000000E+00
 0.0000000000000E+00
 0.0000000000000E+00
 0.0000000000000E+00
 0.0000000000000E+00
 0.0000000000000E+00
 0.0000000000000E+00
 0.0000000000000E+00
 0.0000000000000E+00
 0.0000000000000E+00
 0.0000000000000E+00
 0.0000000000000E+00
 0.0000000000000E+00
 0.0000000000000E+00
 0.0000000000000E+00
 0.0000000000000E+00
 0.0000000000000E+00
 0.0000000000000E+00
 0.0000000000000E+00
 0.0000000000000E+00
 0.0000000000000E+00
 0.0000000000000E+00
 0.0000000000000E+00
 0.0000000000000E+00
 0.0000000000000E+00
 0.0000000000000E+00
 0.0000000000000E+00
 0.0000000000000E+00
 0.0000000000000E+00
 0.0000000000000E+00
 0.0000000000000E+00
 0.0000000000000E+00
 0.0000000000000E+00
 0.0000000000000E+00
 0.0000000000000E+00
 0.0000000000000E+00
 0.0000000000000E+00
 0.0000000000000E+00
 0.0000000000000E+00
 0.0000000000000E+00
 0.0000000000000E+00
 0.0000000000000E+00
 0.0000000000000E+00
 0.0000000000000E+00
 0.0000000000000E+00
 0.0000000000000E+00
 0.0000000000000E+00
 0.0000000000000E+00
 0.0000000000000E+00
 0.0000000000000E+00
 0.0000000000000E+00
 0.0000000000000E+00
 0.0000000000000E+00
 0.0000000000000E+00
 0.0000000000000E+00
 0.0000000000000E+00
 0.0000000000000E+00
 0.0000000000000E+00
 0.0000000000000E+00
 0.0000000000000E+00
 0.0000000000000E+00
 0.0000000000000E+00
 0.0000000000000E+00
 0.0000000000000E+00
 0.0000000000000E+00
 0.0000000000000E+00
 0.0000000000000E+00
 0.0000000000000E+00
 0.0000000000000E+00
 0.0000000000000E+00
 0.0000000000000E+00
 0.0000000000000E+00
 0.0000000000000E+00
 0.0000000000000E+00
 0.0000000000000E+00
 0.0000000000000E+00
 0.0000000000000E+00
 0.0000000000000E+00
 0.0000000000000E+00
 0.0000000000000E+00
 0.0000000000000E+00
 0.0000000000000E+00
 0.0000000000000E+00
 0.0000000000000E+00
 0.0000000000000E+00
 0.0000000000000E+00
 0.0000000000000E+00
 0.0000000000000E+00
 0.0000000000000E+00
 0.0000000000000E+00
 0.0000000000000E+00
 0.0000000000000E+00
 0.0000000000000E+00
 0.0000000000000E+00
 0.0000000000000E+00
 0.0000000000000E+00
 0.0000000000000E+00
 0.0000000000000E+00
 0.0000000000000E+00
 0.0000000000000E+00
 0.0000000000000E+00
 0.0000000000000E+00
 0.0000000000000E+00
 0.0000000000000E+00
 0.0000000000000E+00
 0.0000000000000E+00
 0.0000000000000E+00
 0.0000000000000E+00
 0.0000000000000E+00
 0.0000000000000E+00
 0.0000000000000E+00
 0.0000000000000E+00
 0.0000000000000E+00
 0.0000000000000E+00
 0.0000000000000E+00
 0.0000000000000E+00
 0.0000000000000E+00
 0.0000000000000E+00
 0.0000000000000E+00
 0.0000000000000E+00
 0.0000000000000E+00
 0.0000000000000E+00
 0.0000000000000E+00
 0.0000000000000E+00
 0.0000000000000E+00
 0.0000000000000E+00
 0.0000000000000E+00
 0.0000000000000E+00
 0.0000000000000E+00
 0.0000000000000E+00
 0.0000000000000E+00
 0.0000000000000E+00
 0.0000000000000E+00
 0.0000000000000E+00
 0.0000000000000E+00
 0.0000000000000E+00
 0.0000000000000E+00
 0.0000000000000E+00
 0.0000000000000E+00
 0.0000000000000E+00
 0.0000000000000E+00
 0.0000000000000E+00
 0.0000000000000E+00
 0.0000000000000E+00
 0.0000000000000E+00
 0.0000000000000E+00
 0.0000000000000E+00
 0.0000000000000E+00
 0.0000000000000E+00
 0.0000000000000E+00
 0.0000000000000E+00
 0.0000000000000E+00
 0.0000000000000E+00
 0.0000000000000E+00
 0.0000000000000E+00
 0.0000000000000E+00
 0.0000000000000E+00
 0.0000000000000E+00
 0.0000000000000E+00
 0.0000000000000E+00
 0.0000000000000E+00
 0.0000000000000E+00
 0.0000000000000E+00
 0.0000000000000E+00
 0.0000000000000E+00
 0.0000000000000E+00
 0.0000000000000E+00
 0.0000000000000E+00
 0.0000000000000E+00
 0.0000000000000E+00
 0.0000000000000E+00
 0.0000000000000E+00
 0.0000000000000E+00
 0.0000000000000E+00
 0.0000000000000E+00
 0.0000000000000E+00
 0.0000000000000E+00
 0.0000000000000E+00
 0.0000000000000E+00
 0.0000000000000E+00
 0.0000000000000E+00
 0.0000000000000E+00
 0.0000000000000E+00
 0.0000000000000E+00
 0.0000000000000E+00
 0.0000000000000E+00
 0.0000000000000E+00
 0.0000000000000E+00
 0.0000000000000E+00
 0.0000000000000E+00
 0.0000000000000E+00
 0.0000000000000E+00
 0.0000000000000E+00
 0.0000000000000E+00
 0.0000000000000E+00
 0.0000000000000E+00
 0.0000000000000E+00
 0.0000000000000E+00
 0.0000000000000E+00
 0.0000000000000E+00
 0.0000000000000E+00
 0.0000000000000E+00
 0.0000000000000E+00
 0.0000000000000E+00
 0.0000000000000E+00
 0.0000000000000E+00
 0.0000000000000E+00
 0.0000000000000E+00
 0.0000000000000E+00
 0.0000000000000E+00
 0.0000000000000E+00
 0.0000000000000E+00
 0.0000000000000E+00
 0.0000000000000E+00
 0.0000000000000E+00
 0.0000000000000E+00
 0.0000000000000E+00
 0.0000000000000E+00
 0.0000000000000E+00
 0.0000000000000E+00
 0.0000000000000E+00
 0.0000000000000E+00
 0.0000000000000E+00
 0.0000000000000E+00
 0.0000000000000E+00
 0.0000000000000E+00
 0.0000000000000E+00
 0.0000000000000E+00
 0.0000000000000E+00
 0.0000000000000E+00
 0.0000000000000E+00
 0.0000000000000E+00
 0.0000000000000E+00
 0.0000000000000E+00
 0.0000000000000E+00
 0.0000000000000E+00
 0.0000000000000E+00
 0.0000000000000E+00
 0.0000000000000E+00
 0.0000000000000E+00
 0.0000000000000E+00
 0.0000000000000E+00
 0.0000000000000E+00
 0.0000000000000E+00
 0.0000000000000E+00
 0.0000000000000E+00
 0.0000000000000E+00
 0.0000000000000E+00
 0.0000000000000E+00
 0.0000000000000E+00
 0.0000000000000E+00
 0.0000000000000E+00
 0.0000000000000E+00
 0.0000000000000E+00
 0.0000000000000E+00
 0.0000000000000E+00
 0.0000000000000E+00
 0.0000000000000E+00
 0.0000000000000E+00
 0.0000000000000E+00
 0.0000000000000E+00
 0.0000000000000E+00
 0.0000000000000E+00
 0.0000000000000E+00
 0.0000000000000E+00
 0.0000000000000E+00
 0.0000000000000E+00
 0.0000000000000E+00
 0.0000000000000E+00
 0.0000000000000E+00
 0.0000000000000E+00
 0.0000000000000E+00
 0.0000000000000E+00
 0.0000000000000E+00
 0.0000000000000E+00
 0.0000000000000E+00
 0.0000000000000E+00
 0.0000000000000E+00
 0.0000000000000E+00
 0.0000000000000E+00
 0.0000000000000E+00
 0.0000000000000E+00
 0.0000000000000E+00
 0.0000000000000E+00
 0.0000000000000E+00
 0.0000000000000E+00
 0.0000000000000E+00
 0.0000000000000E+00
 0.0000000000000E+00
 0.0000000000000E+00
 0.0000000000000E+00
 0.0000000000000E+00
 0.0000000000000E+00
 0.0000000000000E+00
 0.0000000000000E+00
 0.0000000000000E+00
 0.0000000000000E+00
 0.0000000000000E+00
 0.0000000000000E+00
 0.0000000000000E+00
 0.0000000000000E+00
 0.0000000000000E+00
 0.0000000000000E+00
 0.0000000000000E+00
 0.0000000000000E+00
 0.0000000000000E+00
 0.0000000000000E+00
 0.0000000000000E+00
 0.0000000000000E+00
 0.0000000000000E+00
 0.0000000000000E+00
 0.0000000000000E+00
 0.0000000000000E+00
 0.0000000000000E+00
 0.0000000000000E+00
 0.0000000000000E+00
 0.0000000000000E+00
 0.0000000000000E+00
 0.0000000000000E+00
 0.0000000000000E+00
 0.0000000000000E+00
 0.0000000000000E+00
 0.0000000000000E+00
 0.0000000000000E+00
 0.0000000000000E+00
 0.0000000000000E+00
 0.0000000000000E+00
 0.0000000000000E+00
 0.0000000000000E+00
 0.0000000000000E+00
 0.0000000000000E+00
 0.0000000000000E+00
 0.0000000000000E+00
 0.0000000000000E+00
 0.0000000000000E+00
 0.0000000000000E+00
 0.0000000000000E+00
 0.0000000000000E+00
 0.0000000000000E+00
 0.0000000000000E+00
 0.0000000000000E+00
 0.0000000000000E+00
 0.0000000000000E+00
 0.0000000000000E+00
 0.0000000000000E+00
 0.0000000000000E+00
 0.0000000000000E+00
 0.0000000000000E+00
 0.0000000000000E+00
 0.0000000000000E+00
 0.0000000000000E+00
 0.0000000000000E+00
 0.0000000000000E+00
 0.0000000000000E+00
 0.0000000000000E+00
 0.0000000000000E+00
 0.0000000000000E+00
 0.0000000000000E+00
 0.0000000000000E+00
 0.0000000000000E+00
 0.0000000000000E+00
 0.0000000000000E+00
 0.0000000000000E+00
 0.0000000000000E+00
 0.0000000000000E+00
 0.0000000000000E+00
 0.0000000000000E+00
 0.0000000000000E+00
 0.0000000000000E+00
 0.0000000000000E+00
 0.0000000000000E+00
 0.0000000000000E+00
 0.0000000000000E+00
 0.0000000000000E+00
 0.0000000000000E+00
 0.0000000000000E+00
 0.0000000000000E+00
 0.0000000000000E+00
 0.0000000000000E+00
 0.0000000000000E+00
 0.0000000000000E+00
 0.0000000000000E+00
 0.0000000000000E+00
 0.0000000000000E+00
 0.0000000000000E+00
 0.0000000000000E+00
 0.0000000000000E+00
 0.0000000000000E+00
 0.0000000000000E+00
 0.0000000000000E+00
 0.0000000000000E+00
 0.0000000000000E+00
 0.0000000000000E+00
 0.0000000000000E+00
 0.0000000000000E+00
 0.0000000000000E+00
 0.0000000000000E+00
 0.0000000000000E+00
 0.0000000000000E+00
 0.0000000000000E+00
 0.0000000000000E+00
 0.0000000000000E+00
 0.0000000000000E+00
 0.0000000000000E+00
 0.0000000000000E+00
 0.0000000000000E+00
 0.0000000000000E+00
 0.0000000000000E+00
 0.0000000000000E+00
 0.0000000000000E+00
 0.0000000000000E+00
 0.0000000000000E+00
 0.0000000000000E+00
 0.0000000000000E+00
 0.0000000000000E+00
 0.0000000000000E+00
 0.0000000000000E+00
 0.0000000000000E+00
 0.0000000000000E+00
 0.0000000000000E+00
 0.0000000000000E+00
 0.0000000000000E+00
 0.0000000000000E+00
 0.0000000000000E+00
 0.0000000000000E+00
 0.0000000000000E+00
 0.0000000000000E+00
 0.0000000000000E+00
 0.0000000000000E+00
 0.0000000000000E+00
 0.0000000000000E+00
 0.0000000000000E+00
 0.0000000000000E+00
 0.0000000000000E+00
 0.0000000000000E+00
 0.0000000000000E+00
 0.0000000000000E+00
 0.0000000000000E+00
 0.0000000000000E+00
 0.0000000000000E+00
 0.0000000000000E+00
 0.0000000000000E+00
 0.0000000000000E+00
 0.0000000000000E+00
 0.0000000000000E+00
 0.0000000000000E+00
 0.0000000000000E+00
 0.0000000000000E+00
 0.0000000000000E+00
 0.0000000000000E+00
 0.0000000000000E+00
 0.0000000000000E+00
 0.0000000000000E+00
 0.0000000000000E+00
 0.0000000000000E+00
 0.0000000000000E+00
 0.0000000000000E+00
 0.0000000000000E+00
 0.0000000000000E+00
 0.0000000000000E+00
 0.0000000000000E+00
 0.0000000000000E+00
 0.0000000000000E+00
 0.0000000000000E+00
 0.0000000000000E+00
 0.0000000000000E+00
 0.0000000000000E+00
 0.0000000000000E+00
 0.0000000000000E+00
 0.0000000000000E+00
 0.0000000000000E+00
 0.0000000000000E+00
 0.0000000000000E+00
 0.0000000000000E+00
 0.0000000000000E+00
 0.0000000000000E+00
 0.0000000000000E+00
 0.0000000000000E+00
 0.0000000000000E+00
 0.0000000000000E+00
 0.0000000000000E+00
 0.0000000000000E+00
 0.0000000000000E+00
 0.0000000000000E+00
 0.0000000000000E+00
 0.0000000000000E+00
 0.0000000000000E+00
 0.0000000000000E+00
 0.0000000000000E+00
 0.0000000000000E+00
 0.0000000000000E+00
 0.0000000000000E+00
 0.0000000000000E+00
 0.0000000000000E+00
 0.0000000000000E+00
 0.0000000000000E+00
 0.0000000000000E+00
 0.0000000000000E+00
 0.0000000000000E+00
 0.0000000000000E+00
 0.0000000000000E+00
 0.0000000000000E+00
 0.0000000000000E+00
 0.0000000000000E+00
 0.0000000000000E+00
 0.0000000000000E+00
 0.0000000000000E+00
 0.0000000000000E+00
 0.0000000000000E+00
 0.0000000000000E+00
 0.0000000000000E+00
 0.0000000000000E+00
 0.0000000000000E+00
 0.0000000000000E+00
 0.0000000000000E+00
 0.0000000000000E+00
 0.0000000000000E+00
 0.0000000000000E+00
 0.0000000000000E+00
 0.0000000000000E+00
 0.0000000000000E+00
 0.0000000000000E+00
 0.0000000000000E+00
 0.0000000000000E+00
 0.0000000000000E+00
 0.0000000000000E+00
 0.0000000000000E+00
 0.0000000000000E+00
 0.0000000000000E+00
 0.0000000000000E+00
 0.0000000000000E+00
 0.0000000000000E+00
 0.0000000000000E+00
 0.0000000000000E+00
 0.0000000000000E+00
 0.0000000000000E+00
 0.0000000000000E+00
 0.0000000000000E+00
 0.0000000000000E+00
 0.0000000000000E+00
 0.0000000000000E+00
 0.0000000000000E+00
 0.0000000000000E+00
 0.0000000000000E+00
 0.0000000000000E+00
 0.0000000000000E+00
 0.0000000000000E+00
 0.0000000000000E+00
 0.0000000000000E+00
 0.0000000000000E+00
 0.0000000000000E+00
 0.0000000000000E+00
 0.0000000000000E+00
 0.0000000000000E+00
 0.0000000000000E+00
 0.0000000000000E+00
 0.0000000000000E+00
 0.0000000000000E+00
 0.0000000000000E+00
 0.0000000000000E+00
 0.0000000000000E+00
 0.0000000000000E+00
 0.0000000000000E+00
 0.0000000000000E+00
 0.0000000000000E+00
 0.0000000000000E+00
 0.0000000000000E+00
 0.0000000000000E+00
 0.0000000000000E+00
 0.0000000000000E+00
 0.0000000000000E+00
 0.0000000000000E+00
 0.0000000000000E+00
 0.0000000000000E+00
 0.0000000000000E+00
 0.0000000000000E+00
 0.0000000000000E+00
 0.0000000000000E+00
 0.0000000000000E+00
 0.0000000000000E+00
 0.0000000000000E+00
 0.0000000000000E+00
 0.0000000000000E+00
 0.0000000000000E+00
 0.0000000000000E+00
 0.0000000000000E+00
 0.0000000000000E+00
 0.0000000000000E+00
 0.0000000000000E+00
 0.0000000000000E+00
 0.0000000000000E+00
 0.0000000000000E+00
 0.0000000000000E+00
 0.0000000000000E+00
 0.0000000000000E+00
 0.0000000000000E+00
 0.0000000000000E+00
 0.0000000000000E+00
 0.0000000000000E+00
 0.0000000000000E+00
 0.0000000000000E+00
 0.0000000000000E+00
 0.0000000000000E+00
 0.0000000000000E+00
 0.0000000000000E+00
 0.0000000000000E+00
 0.0000000000000E+00
 0.0000000000000E+00
 0.0000000000000E+00
 0.0000000000000E+00
 0.0000000000000E+00
 0.0000000000000E+00
 0.0000000000000E+00
 0.0000000000000E+00
 0.0000000000000E+00
 0.0000000000000E+00
 0.0000000000000E+00
 0.0000000000000E+00
 0.0000000000000E+00
 0.0000000000000E+00
 0.0000000000000E+00
 0.0000000000000E+00
 0.0000000000000E+00
 0.0000000000000E+00
 0.0000000000000E+00
 0.0000000000000E+00
 0.0000000000000E+00
 0.0000000000000E+00
 0.0000000000000E+00
 0.0000000000000E+00
 0.0000000000000E+00
 0.0000000000000E+00
 0.0000000000000E+00
 0.0000000000000E+00
 0.0000000000000E+00
 0.0000000000000E+00
 0.0000000000000E+00
 0.0000000000000E+00
 0.0000000000000E+00
 0.0000000000000E+00
 0.0000000000000E+00
 0.0000000000000E+00
 0.0000000000000E+00
 0.0000000000000E+00
 0.0000000000000E+00
 0.0000000000000E+00
 0.0000000000000E+00
 0.0000000000000E+00
 0.0000000000000E+00
 0.0000000000000E+00
 0.0000000000000E+00
 0.0000000000000E+00
 0.0000000000000E+00
 0.0000000000000E+00
 0.0000000000000E+00
 0.0000000000000E+00
 0.0000000000000E+00
 0.0000000000000E+00
 0.0000000000000E+00
 0.0000000000000E+00
 0.0000000000000E+00
 0.0000000000000E+00
 0.0000000000000E+00
 0.0000000000000E+00
 0.0000000000000E+00
 0.0000000000000E+00
 0.0000000000000E+00
 0.0000000000000E+00
 0.0000000000000E+00
 0.0000000000000E+00
 0.0000000000000E+00
 0.0000000000000E+00
 0.0000000000000E+00
 0.0000000000000E+00
 0.0000000000000E+00
 0.0000000000000E+00
 0.0000000000000E+00
 0.0000000000000E+00
 0.0000000000000E+00
 0.0000000000000E+00
 0.0000000000000E+00
 0.0000000000000E+00
 0.0000000000000E+00
 0.0000000000000E+00
 0.0000000000000E+00
 0.0000000000000E+00
 0.0000000000000E+00
 0.0000000000000E+00
 0.0000000000000E+00
 0.0000000000000E+00
 0.0000000000000E+00
 0.0000000000000E+00
 0.0000000000000E+00
 0.0000000000000E+00
 0.0000000000000E+00
 0.0000000000000E+00
 0.0000000000000E+00
 0.0000000000000E+00
 0.0000000000000E+00
 0.0000000000000E+00
 0.0000000000000E+00
 0.0000000000000E+00
 0.0000000000000E+00
 0.0000000000000E+00
 0.0000000000000E+00
 0.0000000000000E+00
 0.0000000000000E+00
 0.0000000000000E+00
 0.0000000000000E+00
 0.0000000000000E+00
 0.0000000000000E+00
 0.0000000000000E+00
 0.0000000000000E+00
 0.0000000000000E+00
 0.0000000000000E+00
 0.0000000000000E+00
 0.0000000000000E+00
 0.0000000000000E+00
 0.0000000000000E+00
 0.0000000000000E+00
 0.0000000000000E+00
 0.0000000000000E+00
 0.0000000000000E+00
 0.0000000000000E+00
 0.0000000000000E+00
 0.0000000000000E+00
 0.0000000000000E+00
 0.0000000000000E+00
 0.0000000000000E+00
 0.0000000000000E+00
 0.0000000000000E+00
 0.0000000000000E+00
 0.0000000000000E+00
 0.0000000000000E+00
 0.0000000000000E+00
 0.0000000000000E+00
 0.0000000000000E+00
 0.0000000000000E+00
 0.0000000000000E+00
 0.0000000000000E+00
 0.0000000000000E+00
 0.0000000000000E+00
 0.0000000000000E+00
 0.0000000000000E+00
 0.0000000000000E+00
 0.0000000000000E+00
 0.0000000000000E+00
 0.0000000000000E+00
 0.0000000000000E+00
 0.0000000000000E+00
 0.0000000000000E+00
 0.0000000000000E+00
 0.0000000000000E+00
 0.0000000000000E+00
 0.0000000000000E+00
 0.0000000000000E+00
 0.0000000000000E+00
 0.0000000000000E+00
 0.0000000000000E+00
 0.0000000000000E+00
 0.0000000000000E+00
 0.0000000000000E+00
 0.0000000000000E+00
 0.0000000000000E+00
 0.0000000000000E+00
 0.0000000000000E+00
 0.0000000000000E+00
 0.0000000000000E+00
 0.0000000000000E+00
 0.0000000000000E+00
 0.0000000000000E+00
 0.0000000000000E+00
 0.0000000000000E+00
 0.0000000000000E+00
 0.0000000000000E+00
 0.0000000000000E+00
 0.0000000000000E+00
 0.0000000000000E+00
 0.0000000000000E+00
 0.0000000000000E+00
 0.0000000000000E+00
 0.0000000000000E+00
 0.0000000000000E+00
 0.0000000000000E+00
 0.0000000000000E+00
 0.0000000000000E+00
 0.0000000000000E+00
 0.0000000000000E+00
 0.0000000000000E+00
 0.0000000000000E+00
 0.0000000000000E+00
 0.0000000000000E+00
 0.0000000000000E+00
 0.0000000000000E+00
 0.0000000000000E+00
 0.0000000000000E+00
 0.0000000000000E+00
 0.0000000000000E+00
 0.0000000000000E+00
 0.0000000000000E+00
 0.0000000000000E+00
 0.0000000000000E+00
 0.0000000000000E+00
 0.0000000000000E+00
 0.0000000000000E+00
 0.0000000000000E+00
 0.0000000000000E+00
 0.0000000000000E+00
 0.0000000000000E+00
 0.0000000000000E+00
 0.0000000000000E+00
 0.0000000000000E+00
 0.0000000000000E+00
 0.0000000000000E+00
 0.0000000000000E+00
 0.0000000000000E+00
 0.0000000000000E+00
 0.0000000000000E+00
 0.0000000000000E+00
 0.0000000000000E+00
 0.0000000000000E+00
 0.0000000000000E+00
 0.0000000000000E+00
 0.0000000000000E+00
 0.0000000000000E+00
 0.0000000000000E+00
 0.0000000000000E+00
 0.0000000000000E+00
 0.0000000000000E+00
 0.0000000000000E+00
 0.0000000000000E+00
 0.0000000000000E+00
 0.0000000000000E+00
 0.0000000000000E+00
 0.0000000000000E+00
 0.0000000000000E+00
 0.0000000000000E+00
 0.0000000000000E+00
 0.0000000000000E+00
 0.0000000000000E+00
 0.0000000000000E+00
 0.0000000000000E+00
 0.0000000000000E+00
 0.0000000000000E+00
 0.0000000000000E+00
 0.0000000000000E+00
 0.0000000000000E+00
 0.0000000000000E+00
 0.0000000000000E+00
 0.0000000000000E+00
 0.0000000000000E+00
 0.0000000000000E+00
 0.0000000000000E+00
 0.0000000000000E+00
 0.0000000000000E+00
 0.0000000000000E+00
 0.0000000000000E+00
 0.0000000000000E+00
 0.0000000000000E+00
 0.0000000000000E+00
 0.0000000000000E+00
 0.0000000000000E+00
 0.0000000000000E+00
 0.0000000000000E+00
 0.0000000000000E+00
 0.0000000000000E+00
 0.0000000000000E+00
 0.0000000000000E+00
 0.0000000000000E+00
 0.0000000000000E+00
 0.0000000000000E+00
 0.0000000000000E+00
 0.0000000000000E+00
 0.0000000000000E+00
 0.0000000000000E+00
 0.0000000000000E+00
 0.0000000000000E+00
 0.0000000000000E+00
 0.0000000000000E+00
 0.0000000000000E+00
 0.0000000000000E+00
 0.0000000000000E+00
 0.0000000000000E+00
 0.0000000000000E+00
 0.0000000000000E+00
 0.0000000000000E+00
 0.0000000000000E+00
 0.0000000000000E+00
 0.0000000000000E+00
 0.0000000000000E+00
 0.0000000000000E+00
 0.0000000000000E+00
 0.0000000000000E+00
 0.0000000000000E+00
 0.0000000000000E+00
 0.0000000000000E+00
 0.0000000000000E+00
 0.0000000000000E+00
 0.0000000000000E+00
 0.0000000000000E+00
 0.0000000000000E+00
 0.0000000000000E+00
 0.0000000000000E+00
 0.0000000000000E+00
 0.0000000000000E+00
 0.0000000000000E+00
 0.0000000000000E+00
 0.0000000000000E+00
 0.0000000000000E+00
 0.0000000000000E+00
 0.0000000000000E+00
 0.0000000000000E+00
 0.0000000000000E+00
 0.0000000000000E+00
 0.0000000000000E+00
 0.0000000000000E+00
 0.0000000000000E+00
 0.0000000000000E+00
 0.0000000000000E+00
 0.0000000000000E+00
 0.0000000000000E+00
 0.0000000000000E+00
 0.0000000000000E+00
 0.0000000000000E+00
 0.0000000000000E+00
 0.0000000000000E+00
 0.0000000000000E+00
 0.0000000000000E+00
 0.0000000000000E+00
 0.0000000000000E+00
 0.0000000000000E+00
 0.0000000000000E+00
 0.0000000000000E+00
 0.0000000000000E+00
 0.0000000000000E+00
 0.0000000000000E+00
 0.0000000000000E+00
 0.0000000000000E+00
 0.0000000000000E+00
 0.0000000000000E+00
 0.0000000000000E+00
 0.0000000000000E+00
 0.0000000000000E+00
 0.0000000000000E+00
 0.0000000000000E+00
 0.0000000000000E+00
 0.0000000000000E+00
 0.0000000000000E+00
 0.0000000000000E+00
 0.0000000000000E+00
 0.0000000000000E+00
 0.0000000000000E+00
 0.0000000000000E+00
 0.0000000000000E+00
 0.0000000000000E+00
 0.0000000000000E+00
 0.0000000000000E+00
 0.0000000000000E+00
 0.0000000000000E+00
 0.0000000000000E+00
 0.0000000000000E+00
 0.0000000000000E+00
 0.0000000000000E+00
 0.0000000000000E+00
 0.0000000000000E+00
 0.0000000000000E+00
 0.0000000000000E+00
 0.0000000000000E+00
 0.0000000000000E+00
 0.0000000000000E+00
 0.0000000000000E+00
 0.0000000000000E+00
 0.0000000000000E+00
 0.0000000000000E+00
 0.0000000000000E+00
 0.0000000000000E+00
 0.0000000000000E+00
 0.0000000000000E+00
 0.0000000000000E+00
 0.0000000000000E+00
 0.0000000000000E+00
 0.0000000000000E+00
 0.0000000000000E+00
 0.0000000000000E+00
 0.0000000000000E+00
 0.0000000000000E+00
 0.0000000000000E+00
 0.0000000000000E+00
 0.0000000000000E+00
 0.0000000000000E+00
 0.0000000000000E+00
 0.0000000000000E+00
 0.0000000000000E+00
 0.0000000000000E+00
 0.0000000000000E+00
 0.0000000000000E+00
 0.0000000000000E+00
 0.0000000000000E+00
 0.0000000000000E+00
 0.0000000000000E+00
 0.0000000000000E+00
 0.0000000000000E+00
 0.0000000000000E+00
 0.0000000000000E+00
 0.0000000000000E+00
 0.0000000000000E+00
 0.0000000000000E+00
 0.0000000000000E+00
 0.0000000000000E+00
 0.0000000000000E+00
 0.0000000000000E+00
 0.0000000000000E+00
 0.0000000000000E+00
 0.0000000000000E+00
 0.0000000000000E+00
 0.0000000000000E+00
 0.0000000000000E+00
 0.0000000000000E+00
 0.0000000000000E+00
 0.0000000000000E+00
 0.0000000000000E+00
 0.0000000000000E+00
 0.0000000000000E+00
 0.0000000000000E+00
 0.0000000000000E+00
 0.0000000000000E+00
 0.0000000000000E+00
 0.0000000000000E+00
 0.0000000000000E+00
 0.0000000000000E+00
 0.0000000000000E+00
 0.0000000000000E+00
 0.0000000000000E+00
 0.0000000000000E+00
 0.0000000000000E+00
 0.0000000000000E+00
 0.0000000000000E+00
 0.0000000000000E+00
 0.0000000000000E+00
 0.0000000000000E+00
 0.0000000000000E+00
 0.0000000000000E+00
 0.0000000000000E+00
 0.0000000000000E+00
 0.0000000000000E+00
 0.0000000000000E+00
 0.0000000000000E+00
 0.0000000000000E+00
 0.0000000000000E+00
 0.0000000000000E+00
 0.0000000000000E+00
 0.0000000000000E+00
 0.0000000000000E+00
 0.0000000000000E+00
 0.0000000000000E+00
 0.0000000000000E+00
 0.0000000000000E+00
 0.0000000000000E+00
 0.0000000000000E+00
 0.0000000000000E+00
 0.0000000000000E+00
 0.0000000000000E+00
 0.0000000000000E+00
 0.0000000000000E+00
 0.0000000000000E+00
 0.0000000000000E+00
 0.0000000000000E+00
 0.0000000000000E+00
 0.0000000000000E+00
 0.0000000000000E+00
 0.0000000000000E+00
 0.0000000000000E+00
 0.0000000000000E+00
 0.0000000000000E+00
 0.0000000000000E+00
 0.0000000000000E+00
 0.0000000000000E+00
 0.0000000000000E+00
 0.0000000000000E+00
 0.0000000000000E+00
 0.0000000000000E+00
 0.0000000000000E+00
 0.0000000000000E+00
 0.0000000000000E+00
 0.0000000000000E+00
 0.0000000000000E+00
 0.0000000000000E+00
 0.0000000000000E+00
 0.0000000000000E+00
 0.0000000000000E+00
 0.0000000000000E+00
 0.0000000000000E+00
 0.0000000000000E+00
 0.0000000000000E+00
 0.0000000000000E+00
 0.0000000000000E+00
 0.0000000000000E+00
 0.0000000000000E+00
 0.0000000000000E+00
 0.0000000000000E+00
 0.0000000000000E+00
 0.0000000000000E+00
 0.0000000000000E+00
 0.0000000000000E+00
 0.0000000000000E+00
 0.0000000000000E+00
 0.0000000000000E+00
 0.0000000000000E+00
 0.0000000000000E+00
 0.0000000000000E+00
 0.0000000000000E+00
 0.0000000000000E+00
 0.0000000000000E+00
 0.0000000000000E+00
 0.0000000000000E+00
 0.0000000000000E+00
 0.0000000000000E+00
 0.0000000000000E+00
 0.0000000000000E+00
 0.0000000000000E+00
 0.0000000000000E+00
 0.0000000000000E+00
 0.0000000000000E+00
 0.0000000000000E+00
 0.0000000000000E+00
 0.0000000000000E+00
 0.0000000000000E+00
 0.0000000000000E+00
 0.0000000000000E+00
 0.0000000000000E+00
 0.0000000000000E+00
 0.0000000000000E+00
 0.0000000000000E+00
 0.0000000000000E+00
 0.0000000000000E+00
 0.0000000000000E+00
 0.0000000000000E+00
 0.0000000000000E+00
 0.0000000000000E+00
 0.0000000000000E+00
 0.0000000000000E+00
 0.0000000000000E+00
 0.0000000000000E+00
 0.0000000000000E+00
 0.0000000000000E+00
 0.0000000000000E+00
 0.0000000000000E+00
 0.0000000000000E+00
 0.0000000000000E+00
 0.0000000000000E+00
 0.0000000000000E+00
 0.0000000000000E+00
 0.0000000000000E+00
 0.0000000000000E+00
 0.0000000000000E+00
 0.0000000000000E+00
 0.0000000000000E+00
 0.0000000000000E+00
 0.0000000000000E+00
 0.0000000000000E+00
 0.0000000000000E+00
 0.0000000000000E+00
 0.0000000000000E+00
 0.0000000000000E+00
 0.0000000000000E+00
 0.0000000000000E+00
 0.0000000000000E+00
 0.0000000000000E+00
 0.0000000000000E+00
 0.0000000000000E+00
 0.0000000000000E+00
 0.0000000000000E+00
 0.0000000000000E+00
 0.0000000000000E+00
 0.0000000000000E+00
 0.0000000000000E+00
 0.0000000000000E+00
 0.0000000000000E+00
 0.0000000000000E+00
 0.0000000000000E+00
 0.0000000000000E+00
 0.0000000000000E+00
 0.0000000000000E+00
 0.0000000000000E+00
 0.0000000000000E+00
 0.0000000000000E+00
 0.0000000000000E+00
 0.0000000000000E+00
 0.0000000000000E+00
 0.0000000000000E+00
 0.0000000000000E+00
 0.0000000000000E+00
 0.0000000000000E+00
 0.0000000000000E+00
 0.0000000000000E+00
 0.0000000000000E+00
 0.0000000000000E+00
 0.0000000000000E+00
 0.0000000000000E+00
 0.0000000000000E+00
 0.0000000000000E+00
 0.0000000000000E+00
 0.0000000000000E+00
 0.0000000000000E+00
 0.0000000000000E+00
 0.0000000000000E+00
 0.0000000000000E+00
 0.0000000000000E+00
 0.0000000000000E+00
 0.0000000000000E+00
 0.0000000000000E+00
 0.0000000000000E+00
 0.0000000000000E+00
 0.0000000000000E+00
 0.0000000000000E+00
 0.0000000000000E+00
 0.0000000000000E+00
 0.0000000000000E+00
 0.0000000000000E+00
 0.0000000000000E+00
 0.0000000000000E+00
 0.0000000000000E+00
 0.0000000000000E+00
 0.0000000000000E+00
 0.0000000000000E+00
 0.0000000000000E+00
 0.0000000000000E+00
 0.0000000000000E+00
 0.0000000000000E+00
 0.0000000000000E+00
 0.0000000000000E+00
 0.0000000000000E+00
 0.0000000000000E+00
 0.0000000000000E+00
 0.0000000000000E+00
 0.0000000000000E+00
 0.0000000000000E+00
 0.0000000000000E+00
 0.0000000000000E+00
 0.0000000000000E+00
 0.0000000000000E+00
 0.0000000000000E+00
 0.0000000000000E+00
 0.0000000000000E+00
 0.0000000000000E+00
 0.0000000000000E+00
 0.0000000000000E+00
 0.0000000000000E+00
 0.0000000000000E+00
 0.0000000000000E+00
 0.0000000000000E+00
 0.0000000000000E+00
 0.0000000000000E+00
 0.0000000000000E+00
 0.0000000000000E+00
 0.0000000000000E+00
 0.0000000000000E+00
 0.0000000000000E+00
 0.0000000000000E+00
 0.0000000000000E+00
 0.0000000000000E+00
 0.0000000000000E+00
 0.0000000000000E+00
 0.0000000000000E+00
 0.0000000000000E+00
 0.0000000000000E+00
 0.0000000000000E+00
 0.0000000000000E+00
 0.0000000000000E+00
 0.0000000000000E+00
 0.0000000000000E+00
 0.0000000000000E+00
 0.0000000000000E+00
 0.0000000000000E+00
 0.0000000000000E+00
 0.0000000000000E+00
 0.0000000000000E+00
 0.0000000000000E+00
 0.0000000000000E+00
 0.0000000000000E+00
 0.0000000000000E+00
 0.0000000000000E+00
 0.0000000000000E+00
 0.0000000000000E+00
 0.0000000000000E+00
 0.0000000000000E+00
 0.0000000000000E+00
 0.0000000000000E+00
 0.0000000000000E+00
 0.0000000000000E+00
 0.0000000000000E+00
 0.0000000000000E+00
 0.0000000000000E+00
 0.0000000000000E+00
 0.0000000000000E+00
 0.0000000000000E+00
 0.0000000000000E+00
 0.0000000000000E+00
 0.0000000000000E+00
 0.0000000000000E+00
 0.0000000000000E+00
 0.0000000000000E+00
 0.0000000000000E+00
 0.0000000000000E+00
 0.0000000000000E+00
 0.0000000000000E+00
 0.0000000000000E+00
 0.0000000000000E+00
 0.0000000000000E+00
 0.0000000000000E+00
 0.0000000000000E+00
 0.0000000000000E+00
 0.0000000000000E+00
 0.0000000000000E+00
 0.0000000000000E+00
 0.0000000000000E+00
 0.0000000000000E+00
 0.0000000000000E+00
 0.0000000000000E+00
 0.0000000000000E+00
 0.0000000000000E+00
 0.0000000000000E+00
 0.0000000000000E+00
 0.0000000000000E+00
 0.0000000000000E+00
 0.0000000000000E+00
 0.0000000000000E+00
 0.0000000000000E+00
 0.0000000000000E+00
 0.0000000000000E+00
 0.0000000000000E+00
 0.0000000000000E+00
 0.0000000000000E+00
 0.0000000000000E+00
 0.0000000000000E+00
 0.0000000000000E+00
 0.0000000000000E+00
 0.0000000000000E+00
 0.0000000000000E+00
 0.0000000000000E+00
 0.0000000000000E+00
 0.0000000000000E+00
 0.0000000000000E+00
 0.0000000000000E+00
 0.0000000000000E+00
 0.0000000000000E+00
 0.0000000000000E+00
 0.0000000000000E+00
 0.0000000000000E+00
 0.0000000000000E+00
 0.0000000000000E+00
 0.0000000000000E+00
 0.0000000000000E+00
 0.0000000000000E+00
 0.0000000000000E+00
 0.0000000000000E+00
 0.0000000000000E+00
 0.0000000000000E+00
 0.0000000000000E+00
 0.0000000000000E+00
 0.0000000000000E+00
 0.0000000000000E+00
 0.0000000000000E+00
 0.0000000000000E+00
 0.0000000000000E+00
 0.0000000000000E+00
 0.0000000000000E+00
 0.0000000000000E+00
 0.0000000000000E+00
 0.0000000000000E+00
 0.0000000000000E+00
 0.0000000000000E+00
 0.0000000000000E+00
 0.0000000000000E+00
 0.0000000000000E+00
 0.0000000000000E+00
 0.0000000000000E+00
 0.0000000000000E+00
 0.0000000000000E+00
 0.0000000000000E+00
 0.0000000000000E+00
 0.0000000000000E+00
 0.0000000000000E+00
 0.0000000000000E+00
 0.0000000000000E+00
 0.0000000000000E+00
 0.0000000000000E+00
 0.0000000000000E+00
 0.0000000000000E+00
 0.0000000000000E+00
 0.0000000000000E+00
 0.0000000000000E+00
 0.0000000000000E+00
 0.0000000000000E+00
 0.0000000000000E+00
 0.0000000000000E+00
 0.0000000000000E+00
 0.0000000000000E+00
 0.0000000000000E+00
 0.0000000000000E+00
 0.0000000000000E+00
 0.0000000000000E+00
 0.0000000000000E+00
 0.0000000000000E+00
 0.0000000000000E+00
 0.0000000000000E+00
 0.0000000000000E+00
 0.0000000000000E+00
 0.0000000000000E+00
 0.0000000000000E+00
 0.0000000000000E+00
 0.0000000000000E+00
 0.0000000000000E+00
 0.0000000000000E+00
 0.0000000000000E+00
 0.0000000000000E+00
 0.0000000000000E+00
 0.0000000000000E+00
 0.0000000000000E+00
 0.0000000000000E+00
 0.0000000000000E+00
 0.0000000000000E+00
 0.0000000000000E+00
 0.0000000000000E+00
 0.0000000000000E+00
 0.0000000000000E+00
 0.0000000000000E+00
 0.0000000000000E+00
 0.0000000000000E+00
 0.0000000000000E+00
 0.0000000000000E+00
 0.0000000000000E+00
 0.0000000000000E+00
 0.0000000000000E+00
 0.0000000000000E+00
 0.0000000000000E+00
 0.0000000000000E+00
 0.0000000000000E+00
 0.0000000000000E+00
 0.0000000000000E+00
 0.0000000000000E+00
 0.0000000000000E+00
 0.0000000000000E+00
 0.0000000000000E+00
 0.0000000000000E+00
 0.0000000000000E+00
 0.0000000000000E+00
 0.0000000000000E+00
 0.0000000000000E+00
 0.0000000000000E+00
 0.0000000000000E+00
 0.0000000000000E+00
 0.0000000000000E+00
 0.0000000000000E+00
 0.0000000000000E+00
 0.0000000000000E+00
 0.0000000000000E+00
 0.0000000000000E+00
 0.0000000000000E+00
 0.0000000000000E+00
 0.0000000000000E+00
 0.0000000000000E+00
 0.0000000000000E+00
 0.0000000000000E+00
 0.0000000000000E+00
 0.0000000000000E+00
 0.0000000000000E+00
 0.0000000000000E+00
 0.0000000000000E+00
 0.0000000000000E+00
 0.0000000000000E+00
 0.0000000000000E+00
 0.0000000000000E+00
 0.0000000000000E+00
 0.0000000000000E+00
 0.0000000000000E+00
 0.0000000000000E+00
 0.0000000000000E+00
 0.0000000000000E+00
 0.0000000000000E+00
 0.0000000000000E+00
 0.0000000000000E+00
 0.0000000000000E+00
 0.0000000000000E+00
 0.0000000000000E+00
 0.0000000000000E+00
 0.0000000000000E+00
 0.0000000000000E+00
 0.0000000000000E+00
 0.0000000000000E+00
 0.0000000000000E+00
 0.0000000000000E+00
 0.0000000000000E+00
 0.0000000000000E+00
 0.0000000000000E+00
 0.0000000000000E+00
 0.0000000000000E+00
 0.0000000000000E+00
 0.0000000000000E+00
 0.0000000000000E+00
 0.0000000000000E+00
 0.0000000000000E+00
 0.0000000000000E+00
 0.0000000000000E+00
 0.0000000000000E+00
 0.0000000000000E+00
 0.0000000000000E+00
 0.0000000000000E+00
 0.0000000000000E+00
 0.0000000000000E+00
 0.0000000000000E+00
 0.0000000000000E+00
 0.0000000000000E+00
 0.0000000000000E+00
 0.0000000000000E+00
 0.0000000000000E+00
 0.0000000000000E+00
 0.0000000000000E+00
 0.0000000000000E+00
 0.0000000000000E+00
 0.0000000000000E+00
 0.0000000000000E+00
 0.0000000000000E+00
 0.0000000000000E+00
 0.0000000000000E+00
 0.0000000000000E+00
 0.0000000000000E+00
 0.0000000000000E+00
 0.0000000000000E+00
 0.0000000000000E+00
 0.0000000000000E+00
 0.0000000000000E+00
 0.0000000000000E+00
 0.0000000000000E+00
 0.0000000000000E+00
 0.0000000000000E+00
 0.0000000000000E+00
 0.0000000000000E+00
 0.0000000000000E+00
 0.0000000000000E+00
 0.0000000000000E+00
 0.0000000000000E+00
 0.0000000000000E+00
 0.0000000000000E+00
 0.0000000000000E+00
 0.0000000000000E+00
 0.0000000000000E+00
 0.0000000000000E+00
 0.0000000000000E+00
 0.0000000000000E+00
 0.0000000000000E+00
 0.0000000000000E+00
 0.0000000000000E+00
 0.0000000000000E+00
 0.0000000000000E+00
 0.0000000000000E+00
 0.0000000000000E+00
 0.0000000000000E+00
 0.0000000000000E+00
 0.0000000000000E+00
 0.0000000000000E+00
 0.0000000000000E+00
 0.0000000000000E+00
 0.0000000000000E+00
 0.0000000000000E+00
 0.0000000000000E+00
 0.0000000000000E+00
 0.0000000000000E+00
 0.0000000000000E+00
 0.0000000000000E+00
 0.0000000000000E+00
 0.0000000000000E+00
 0.0000000000000E+00
 0.0000000000000E+00
 0.0000000000000E+00
 0.0000000000000E+00
 0.0000000000000E+00
 0.0000000000000E+00
 0.0000000000000E+00
 0.0000000000000E+00
 0.0000000000000E+00
 0.0000000000000E+00
 0.0000000000000E+00
 0.0000000000000E+00
 0.0000000000000E+00
 0.0000000000000E+00
 0.0000000000000E+00
 0.0000000000000E+00
 0.0000000000000E+00
 0.0000000000000E+00
 0.0000000000000E+00
 0.0000000000000E+00
 0.0000000000000E+00
 0.0000000000000E+00
 0.0000000000000E+00
 0.0000000000000E+00
 0.0000000000000E+00
 0.0000000000000E+00
 0.0000000000000E+00
 0.0000000000000E+00
 0.0000000000000E+00
 0.0000000000000E+00
 0.0000000000000E+00
 0.0000000000000E+00
 0.0000000000000E+00
 0.0000000000000E+00
 0.0000000000000E+00
 0.0000000000000E+00
 0.0000000000000E+00
 0.0000000000000E+00
 0.0000000000000E+00
 0.0000000000000E+00
 0.0000000000000E+00
 0.0000000000000E+00
 0.0000000000000E+00
 0.0000000000000E+00
 0.0000000000000E+00
 0.0000000000000E+00
 0.0000000000000E+00
 0.0000000000000E+00
 0.0000000000000E+00
 0.0000000000000E+00
 0.0000000000000E+00
 0.0000000000000E+00
 0.0000000000000E+00
 0.0000000000000E+00
 0.0000000000000E+00
 0.0000000000000E+00
 0.0000000000000E+00
 0.0000000000000E+00
 0.0000000000000E+00
 0.0000000000000E+00
 0.0000000000000E+00
 0.0000000000000E+00
 0.0000000000000E+00
 0.0000000000000E+00
 0.0000000000000E+00
 0.0000000000000E+00
 0.0000000000000E+00
 0.0000000000000E+00
 0.0000000000000E+00
 0.0000000000000E+00
 0.0000000000000E+00
 0.0000000000000E+00
 0.0000000000000E+00
 0.0000000000000E+00
 0.0000000000000E+00
 0.0000000000000E+00
 0.0000000000000E+00
 0.0000000000000E+00
 0.0000000000000E+00
 0.0000000000000E+00
 0.0000000000000E+00
 0.0000000000000E+00
 0.0000000000000E+00
 0.0000000000000E+00
 0.0000000000000E+00
 0.0000000000000E+00
 0.0000000000000E+00
 0.0000000000000E+00
 0.0000000000000E+00
 0.0000000000000E+00
 0.0000000000000E+00
 0.0000000000000E+00
 0.0000000000000E+00
 0.0000000000000E+00
 0.0000000000000E+00
 0.0000000000000E+00
 0.0000000000000E+00
 0.0000000000000E+00
 0.0000000000000E+00
 0.0000000000000E+00
 0.0000000000000E+00
 0.0000000000000E+00
 0.0000000000000E+00
 0.0000000000000E+00
 0.0000000000000E+00
 0.0000000000000E+00
 0.0000000000000E+00
 0.0000000000000E+00
 0.0000000000000E+00
 0.0000000000000E+00
 0.0000000000000E+00
 0.0000000000000E+00
 0.0000000000000E+00
 0.0000000000000E+00
 0.0000000000000E+00
 0.0000000000000E+00
 0.0000000000000E+00
 0.0000000000000E+00
 0.0000000000000E+00
 0.0000000000000E+00
 0.0000000000000E+00
 0.0000000000000E+00
 0.0000000000000E+00
 0.0000000000000E+00
 0.0000000000000E+00
 0.0000000000000E+00
 0.0000000000000E+00
 0.0000000000000E+00
 0.0000000000000E+00
 0.0000000000000E+00
 0.0000000000000E+00
 0.0000000000000E+00
 0.0000000000000E+00
 0.0000000000000E+00
 0.0000000000000E+00
 0.0000000000000E+00
 0.0000000000000E+00
 0.0000000000000E+00
 0.0000000000000E+00
 0.0000000000000E+00
 0.0000000000000E+00
 0.0000000000000E+00
 0.0000000000000E+00
 0.0000000000000E+00
 0.0000000000000E+00
 0.0000000000000E+00
 0.0000000000000E+00
 0.0000000000000E+00
 0.0000000000000E+00
 0.0000000000000E+00
 0.0000000000000E+00
 0.0000000000000E+00
 0.0000000000000E+00
 0.0000000000000E+00
 0.0000000000000E+00
 0.0000000000000E+00
 0.0000000000000E+00
 0.0000000000000E+00
 0.0000000000000E+00
 0.0000000000000E+00
 0.0000000000000E+00
 0.0000000000000E+00
 0.0000000000000E+00
 0.0000000000000E+00
 0.0000000000000E+00
 0.0000000000000E+00
 0.0000000000000E+00
 0.0000000000000E+00
 0.0000000000000E+00
 0.0000000000000E+00
 0.0000000000000E+00
 0.0000000000000E+00
 0.0000000000000E+00
 0.0000000000000E+00
 0.0000000000000E+00
 0.0000000000000E+00
 0.0000000000000E+00
 0.0000000000000E+00
 0.0000000000000E+00
 0.0000000000000E+00
 0.0000000000000E+00
 0.0000000000000E+00
 0.0000000000000E+00
 0.0000000000000E+00
 0.0000000000000E+00
 0.0000000000000E+00
 0.0000000000000E+00
 0.0000000000000E+00
 0.0000000000000E+00
 0.0000000000000E+00
 0.0000000000000E+00
 0.0000000000000E+00
 0.0000000000000E+00
 0.0000000000000E+00
 0.0000000000000E+00
 0.0000000000000E+00
 0.0000000000000E+00
 0.0000000000000E+00
 0.0000000000000E+00
 0.0000000000000E+00
 0.0000000000000E+00
 0.0000000000000E+00
 0.0000000000000E+00
 0.0000000000000E+00
 0.0000000000000E+00
 0.0000000000000E+00
 0.0000000000000E+00
 0.0000000000000E+00
 0.0000000000000E+00
 0.0000000000000E+00
 0.0000000000000E+00
 0.0000000000000E+00
 0.0000000000000E+00
 0.0000000000000E+00
 0.0000000000000E+00
 0.0000000000000E+00
 0.0000000000000E+00
 0.0000000000000E+00
 0.0000000000000E+00
 0.0000000000000E+00
 0.0000000000000E+00
 0.0000000000000E+00
 0.0000000000000E+00
 0.0000000000000E+00
 0.0000000000000E+00
 0.0000000000000E+00
 0.0000000000000E+00
 0.0000000000000E+00
 0.0000000000000E+00
 0.0000000000000E+00
 0.0000000000000E+00
 0.0000000000000E+00
 0.0000000000000E+00
 0.0000000000000E+00
 0.0000000000000E+00
 0.0000000000000E+00
 0.0000000000000E+00
 0.0000000000000E+00
 0.0000000000000E+00
 0.0000000000000E+00
 0.0000000000000E+00
 0.0000000000000E+00
 0.0000000000000E+00
 0.0000000000000E+00
 0.0000000000000E+00
 0.0000000000000E+00
 0.0000000000000E+00
 0.0000000000000E+00
 0.0000000000000E+00
 0.0000000000000E+00
 0.0000000000000E+00
 0.0000000000000E+00
 0.0000000000000E+00
 0.0000000000000E+00
 0.0000000000000E+00
 0.0000000000000E+00
 0.0000000000000E+00
 0.0000000000000E+00
 0.0000000000000E+00
 0.0000000000000E+00
 0.0000000000000E+00
 0.0000000000000E+00
 0.0000000000000E+00
 0.0000000000000E+00
 0.0000000000000E+00
 0.0000000000000E+00
 0.0000000000000E+00
 0.0000000000000E+00
 0.0000000000000E+00
 0.0000000000000E+00
 0.0000000000000E+00
 0.0000000000000E+00
 0.0000000000000E+00
 0.0000000000000E+00
 0.0000000000000E+00
 0.0000000000000E+00
 0.0000000000000E+00
 0.0000000000000E+00
 0.0000000000000E+00
 0.0000000000000E+00
 0.0000000000000E+00
 0.0000000000000E+00
 0.0000000000000E+00
 0.0000000000000E+00
 0.0000000000000E+00
 0.0000000000000E+00
 0.0000000000000E+00
 0.0000000000000E+00
 0.0000000000000E+00
 0.0000000000000E+00
 0.0000000000000E+00
 0.0000000000000E+00
 0.0000000000000E+00
 0.0000000000000E+00
 0.0000000000000E+00
 0.0000000000000E+00
 0.0000000000000E+00
 0.0000000000000E+00
 0.0000000000000E+00
 0.0000000000000E+00
 0.0000000000000E+00
 0.0000000000000E+00
 0.0000000000000E+00
 0.0000000000000E+00
 0.0000000000000E+00
 0.0000000000000E+00
 0.0000000000000E+00
 0.0000000000000E+00
 0.0000000000000E+00
 0.0000000000000E+00
 0.0000000000000E+00
 0.0000000000000E+00
 0.0000000000000E+00
 0.0000000000000E+00
 0.0000000000000E+00
 0.0000000000000E+00
 0.0000000000000E+00
 0.0000000000000E+00
 0.0000000000000E+00
 0.0000000000000E+00
 0.0000000000000E+00
 0.0000000000000E+00
 0.0000000000000E+00
 0.0000000000000E+00
 0.0000000000000E+00
 0.0000000000000E+00
 0.0000000000000E+00
 0.0000000000000E+00
 0.0000000000000E+00
 0.0000000000000E+00
 0.0000000000000E+00
 0.0000000000000E+00
 0.0000000000000E+00
 0.0000000000000E+00
 0.0000000000000E+00
 0.0000000000000E+00
 0.0000000000000E+00
 0.0000000000000E+00
 0.0000000000000E+00
 0.0000000000000E+00
 0.0000000000000E+00
 0.0000000000000E+00
 0.0000000000000E+00
 0.0000000000000E+00
 0.0000000000000E+00
 0.0000000000000E+00
 0.0000000000000E+00
 0.0000000000000E+00
 0.0000000000000E+00
 0.0000000000000E+00
 0.0000000000000E+00
 0.0000000000000E+00
 0.0000000000000E+00
 0.0000000000000E+00
 0.0000000000000E+00
 0.0000000000000E+00
 0.0000000000000E+00
 0.0000000000000E+00
 0.0000000000000E+00
 0.0000000000000E+00
 0.0000000000000E+00
 0.0000000000000E+00
 0.0000000000000E+00
 0.0000000000000E+00
 0.0000000000000E+00
 0.0000000000000E+00
 0.0000000000000E+00
 0.0000000000000E+00
 0.0000000000000E+00
 0.0000000000000E+00
 0.0000000000000E+00
 0.0000000000000E+00
 0.0000000000000E+00
 0.0000000000000E+00
 0.0000000000000E+00
 0.0000000000000E+00
 0.0000000000000E+00
 0.0000000000000E+00
 0.0000000000000E+00
 0.0000000000000E+00
 0.0000000000000E+00
 0.0000000000000E+00
 0.0000000000000E+00
 0.0000000000000E+00
 0.0000000000000E+00
 0.0000000000000E+00
 0.0000000000000E+00
 0.0000000000000E+00
 0.0000000000000E+00
 0.0000000000000E+00
 0.0000000000000E+00
 0.0000000000000E+00
 0.0000000000000E+00
 0.0000000000000E+00
 0.0000000000000E+00
 0.0000000000000E+00
 0.0000000000000E+00
 0.0000000000000E+00
 0.0000000000000E+00
 0.0000000000000E+00
 0.0000000000000E+00
 0.0000000000000E+00
 0.0000000000000E+00
 0.0000000000000E+00
 0.0000000000000E+00
 0.0000000000000E+00
 0.0000000000000E+00
 0.0000000000000E+00
 0.0000000000000E+00
 0.0000000000000E+00
 0.0000000000000E+00
 0.0000000000000E+00
 0.0000000000000E+00
 0.0000000000000E+00
 0.0000000000000E+00
 0.0000000000000E+00
 0.0000000000000E+00
 0.0000000000000E+00
 0.0000000000000E+00
 0.0000000000000E+00
 0.0000000000000E+00
 0.0000000000000E+00
 0.0000000000000E+00
 0.0000000000000E+00
 0.0000000000000E+00
 0.0000000000000E+00
 0.0000000000000E+00
 0.0000000000000E+00
 0.0000000000000E+00
 0.0000000000000E+00
 0.0000000000000E+00
 0.0000000000000E+00
 0.0000000000000E+00
 0.0000000000000E+00
 0.0000000000000E+00
 0.0000000000000E+00
 0.0000000000000E+00
 0.0000000000000E+00
 0.0000000000000E+00
 0.0000000000000E+00
 0.0000000000000E+00
 0.0000000000000E+00
 0.0000000000000E+00
 0.0000000000000E+00
 0.0000000000000E+00
 0.0000000000000E+00
 0.0000000000000E+00
 0.0000000000000E+00
 0.0000000000000E+00
 0.0000000000000E+00
 0.0000000000000E+00
 0.0000000000000E+00
 0.0000000000000E+00
 0.0000000000000E+00
 0.0000000000000E+00
 0.0000000000000E+00
 0.0000000000000E+00
 0.0000000000000E+00
 0.0000000000000E+00
 0.0000000000000E+00
 0.0000000000000E+00
 0.0000000000000E+00
 0.0000000000000E+00
 0.0000000000000E+00
 0.0000000000000E+00
 0.0000000000000E+00
 0.0000000000000E+00
 0.0000000000000E+00
 0.0000000000000E+00
 0.0000000000000E+00
 0.0000000000000E+00
 0.0000000000000E+00
 0.0000000000000E+00
 0.0000000000000E+00
 0.0000000000000E+00
 0.0000000000000E+00
 0.0000000000000E+00
 0.0000000000000E+00
 0.0000000000000E+00
 0.0000000000000E+00
 0.0000000000000E+00
 0.0000000000000E+00
 0.0000000000000E+00
 0.0000000000000E+00
 0.0000000000000E+00
 0.0000000000000E+00
 0.0000000000000E+00
 0.0000000000000E+00
 0.0000000000000E+00
 0.0000000000000E+00
 0.0000000000000E+00
 0.0000000000000E+00
 0.0000000000000E+00
 0.0000000000000E+00
 0.0000000000000E+00
 0.0000000000000E+00
 0.0000000000000E+00
 0.0000000000000E+00
 0.0000000000000E+00
 0.0000000000000E+00
 0.0000000000000E+00
 0.0000000000000E+00
 0.0000000000000E+00
 0.0000000000000E+00
 0.0000000000000E+00
 0.0000000000000E+00
 0.0000000000000E+00
 0.0000000000000E+00
 0.0000000000000E+00
 0.0000000000000E+00
 0.0000000000000E+00
 0.0000000000000E+00
 0.0000000000000E+00
 0.0000000000000E+00
 0.0000000000000E+00
 0.0000000000000E+00
 0.0000000000000E+00
 0.0000000000000E+00
 0.0000000000000E+00
 0.0000000000000E+00
 0.0000000000000E+00
 0.0000000000000E+00
 0.0000000000000E+00
 0.0000000000000E+00
 0.0000000000000E+00
 0.0000000000000E+00
 0.0000000000000E+00
 0.0000000000000E+00
 0.0000000000000E+00
 0.0000000000000E+00
 0.0000000000000E+00
 0.0000000000000E+00
 0.0000000000000E+00
 0.0000000000000E+00
 0.0000000000000E+00
 0.0000000000000E+00
 0.0000000000000E+00
 0.0000000000000E+00
 0.0000000000000E+00
 0.0000000000000E+00
 0.0000000000000E+00
 0.0000000000000E+00
 0.0000000000000E+00
 0.0000000000000E+00
 0.0000000000000E+00
 0.0000000000000E+00
 0.0000000000000E+00
 0.0000000000000E+00
 0.0000000000000E+00
 0.0000000000000E+00
 0.0000000000000E+00
 0.0000000000000E+00
 0.0000000000000E+00
 0.0000000000000E+00
 0.0000000000000E+00
 0.0000000000000E+00
 0.0000000000000E+00
 0.0000000000000E+00
 0.0000000000000E+00
 0.0000000000000E+00
 0.0000000000000E+00
 0.0000000000000E+00
 0.0000000000000E+00
 0.0000000000000E+00
 0.0000000000000E+00
 0.0000000000000E+00
 0.0000000000000E+00
 0.0000000000000E+00
 0.0000000000000E+00
 0.0000000000000E+00
 0.0000000000000E+00
 0.0000000000000E+00
 0.0000000000000E+00
 0.0000000000000E+00
 0.0000000000000E+00
 0.0000000000000E+00
 0.0000000000000E+00
 0.0000000000000E+00
 0.0000000000000E+00
 0.0000000000000E+00
 0.0000000000000E+00
 0.0000000000000E+00
 0.0000000000000E+00
 0.0000000000000E+00
 0.0000000000000E+00
 0.0000000000000E+00
 0.0000000000000E+00
 0.0000000000000E+00
 0.0000000000000E+00
 0.0000000000000E+00
 0.0000000000000E+00
 0.0000000000000E+00
 0.0000000000000E+00
 0.0000000000000E+00
 0.0000000000000E+00
 0.0000000000000E+00
 0.0000000000000E+00
 0.0000000000000E+00
 0.0000000000000E+00
 0.0000000000000E+00
 0.0000000000000E+00
 0.0000000000000E+00
 0.0000000000000E+00
 0.0000000000000E+00
 0.0000000000000E+00
 0.0000000000000E+00
 0.0000000000000E+00
 0.0000000000000E+00
 0.0000000000000E+00
 0.0000000000000E+00
 0.0000000000000E+00
 0.0000000000000E+00
 0.0000000000000E+00
 0.0000000000000E+00
 0.0000000000000E+00
 0.0000000000000E+00
 0.0000000000000E+00
 0.0000000000000E+00
 0.0000000000000E+00
 0.0000000000000E+00
 0.0000000000000E+00
 0.0000000000000E+00
 0.0000000000000E+00
 0.0000000000000E+00
 0.0000000000000E+00
 0.0000000000000E+00
 0.0000000000000E+00
 0.0000000000000E+00
 0.0000000000000E+00
 0.0000000000000E+00
 0.0000000000000E+00
 0.0000000000000E+00
 0.0000000000000E+00
 0.0000000000000E+00
 0.0000000000000E+00
 0.0000000000000E+00
 0.0000000000000E+00
 0.0000000000000E+00
 0.0000000000000E+00
 0.0000000000000E+00
 0.0000000000000E+00
 0.0000000000000E+00
 0.0000000000000E+00
 0.0000000000000E+00
 0.0000000000000E+00
 0.0000000000000E+00
 0.0000000000000E+00
 0.0000000000000E+00
 0.0000000000000E+00
 0.0000000000000E+00
 0.0000000000000E+00
 0.0000000000000E+00
 0.0000000000000E+00
 0.0000000000000E+00
 0.0000000000000E+00
 0.0000000000000E+00
 0.0000000000000E+00
 0.0000000000000E+00
 0.0000000000000E+00
 0.0000000000000E+00
 0.0000000000000E+00
 0.0000000000000E+00
 0.0000000000000E+00
 0.0000000000000E+00
 0.0000000000000E+00
 0.0000000000000E+00
 0.0000000000000E+00
 0.0000000000000E+00
 0.0000000000000E+00
 0.0000000000000E+00
 0.0000000000000E+00
 0.0000000000000E+00
 0.0000000000000E+00
 0.0000000000000E+00
 0.0000000000000E+00
 0.0000000000000E+00
 0.0000000000000E+00
 0.0000000000000E+00
 0.0000000000000E+00
 0.0000000000000E+00
 0.0000000000000E+00
 0.0000000000000E+00
 0.0000000000000E+00
 0.0000000000000E+00
 0.0000000000000E+00
 0.0000000000000E+00
 0.0000000000000E+00
 0.0000000000000E+00
 0.0000000000000E+00
 0.0000000000000E+00
 0.0000000000000E+00
 0.0000000000000E+00
 0.0000000000000E+00
 0.0000000000000E+00
 0.0000000000000E+00
 0.0000000000000E+00
 0.0000000000000E+00
 0.0000000000000E+00
 0.0000000000000E+00
 0.0000000000000E+00
 0.0000000000000E+00
 0.0000000000000E+00
 0.0000000000000E+00
 0.0000000000000E+00
 0.0000000000000E+00
 0.0000000000000E+00
 0.0000000000000E+00
 0.0000000000000E+00
 0.0000000000000E+00
 0.0000000000000E+00
 0.0000000000000E+00
 0.0000000000000E+00
 0.0000000000000E+00
 0.0000000000000E+00
 0.0000000000000E+00
 0.0000000000000E+00
 0.0000000000000E+00
 0.0000000000000E+00
 0.0000000000000E+00
 0.0000000000000E+00
 0.0000000000000E+00
 0.0000000000000E+00
 0.0000000000000E+00
 0.0000000000000E+00
 0.0000000000000E+00
 0.0000000000000E+00
 0.0000000000000E+00
 0.0000000000000E+00
 0.0000000000000E+00
 0.0000000000000E+00
 0.0000000000000E+00
 0.0000000000000E+00
 0.0000000000000E+00
 0.0000000000000E+00
 0.0000000000000E+00
 0.0000000000000E+00
 0.0000000000000E+00
 0.0000000000000E+00
 0.0000000000000E+00
 0.0000000000000E+00
 0.0000000000000E+00
 0.0000000000000E+00
 0.0000000000000E+00
 0.0000000000000E+00
 0.0000000000000E+00
 0.0000000000000E+00
 0.0000000000000E+00
 0.0000000000000E+00
 0.0000000000000E+00
 0.0000000000000E+00
 0.0000000000000E+00
 0.0000000000000E+00
 0.0000000000000E+00
 0.0000000000000E+00
 0.0000000000000E+00
 0.0000000000000E+00
 0.0000000000000E+00
 0.0000000000000E+00
 0.0000000000000E+00
 0.0000000000000E+00
 0.0000000000000E+00
 0.0000000000000E+00
 0.0000000000000E+00
 0.0000000000000E+00
 0.0000000000000E+00
 0.0000000000000E+00
 0.0000000000000E+00
 0.0000000000000E+00
 0.0000000000000E+00
 0.0000000000000E+00
 0.0000000000000E+00
 0.0000000000000E+00
 0.0000000000000E+00
 0.0000000000000E+00
 0.0000000000000E+00
 0.0000000000000E+00
 0.0000000000000E+00
 0.0000000000000E+00
 0.0000000000000E+00
 0.0000000000000E+00
 0.0000000000000E+00
 0.0000000000000E+00
 0.0000000000000E+00
 0.0000000000000E+00
 0.0000000000000E+00
 0.0000000000000E+00
 0.0000000000000E+00
 0.0000000000000E+00
 0.0000000000000E+00
 0.0000000000000E+00
 0.0000000000000E+00
 0.0000000000000E+00
 0.0000000000000E+00
 0.0000000000000E+00
 0.0000000000000E+00
 0.0000000000000E+00
 0.0000000000000E+00
 0.0000000000000E+00
 0.0000000000000E+00
 0.0000000000000E+00
 0.0000000000000E+00
 0.0000000000000E+00
 0.0000000000000E+00
 0.0000000000000E+00
 0.0000000000000E+00
 0.0000000000000E+00
 0.0000000000000E+00
 0.0000000000000E+00
 0.0000000000000E+00
 0.0000000000000E+00
 0.0000000000000E+00
 0.0000000000000E+00
 0.0000000000000E+00
 0.0000000000000E+00
 0.0000000000000E+00
 0.0000000000000E+00
 0.0000000000000E+00
 0.0000000000000E+00
 0.0000000000000E+00
 0.0000000000000E+00
 0.0000000000000E+00
 0.0000000000000E+00
 0.0000000000000E+00
 0.0000000000000E+00
 0.0000000000000E+00
 0.0000000000000E+00
 0.0000000000000E+00
 0.0000000000000E+00
 0.0000000000000E+00
 0.0000000000000E+00
 0.0000000000000E+00
 0.0000000000000E+00
 0.0000000000000E+00
 0.0000000000000E+00
 0.0000000000000E+00
 0.0000000000000E+00
 0.0000000000000E+00
 0.0000000000000E+00
 0.0000000000000E+00
 0.0000000000000E+00
 0.0000000000000E+00
 0.0000000000000E+00
 0.0000000000000E+00
 0.0000000000000E+00
 0.0000000000000E+00
 0.0000000000000E+00
 0.0000000000000E+00
 0.0000000000000E+00
 0.0000000000000E+00
 0.0000000000000E+00
 0.0000000000000E+00
 0.0000000000000E+00
 0.0000000000000E+00
 0.0000000000000E+00
 0.0000000000000E+00
 0.0000000000000E+00
 0.0000000000000E+00
 0.0000000000000E+00
 0.0000000000000E+00
 0.0000000000000E+00
 0.0000000000000E+00
 0.0000000000000E+00
 0.0000000000000E+00
 0.0000000000000E+00
 0.0000000000000E+00
 0.0000000000000E+00
 0.0000000000000E+00
 0.0000000000000E+00
 0.0000000000000E+00
 0.0000000000000E+00
 0.0000000000000E+00
 0.0000000000000E+00
 0.0000000000000E+00
 0.0000000000000E+00
 0.0000000000000E+00
 0.0000000000000E+00
 0.0000000000000E+00
 0.0000000000000E+00
 0.0000000000000E+00
 0.0000000000000E+00
 0.0000000000000E+00
 0.0000000000000E+00
 0.0000000000000E+00
 0.0000000000000E+00
 0.0000000000000E+00
 0.0000000000000E+00
 0.0000000000000E+00
 0.0000000000000E+00
 0.0000000000000E+00
 0.0000000000000E+00
 0.0000000000000E+00
 0.0000000000000E+00
 0.0000000000000E+00
 0.0000000000000E+00
 0.0000000000000E+00
 0.0000000000000E+00
 0.0000000000000E+00
 0.0000000000000E+00
 0.0000000000000E+00
 0.0000000000000E+00
 0.0000000000000E+00
 0.0000000000000E+00
 0.0000000000000E+00
 0.0000000000000E+00
 0.0000000000000E+00
 0.0000000000000E+00
 0.0000000000000E+00
 0.0000000000000E+00
 0.0000000000000E+00
 0.0000000000000E+00
 0.0000000000000E+00
 0.0000000000000E+00
 0.0000000000000E+00
 0.0000000000000E+00
 0.0000000000000E+00
 0.0000000000000E+00
 0.0000000000000E+00
 0.0000000000000E+00
 0.0000000000000E+00
 0.0000000000000E+00
 0.0000000000000E+00
 0.0000000000000E+00
 0.0000000000000E+00
 0.0000000000000E+00
 0.0000000000000E+00
 0.0000000000000E+00
 0.0000000000000E+00
 0.0000000000000E+00
 0.0000000000000E+00
 0.0000000000000E+00
 0.0000000000000E+00
 0.0000000000000E+00
 0.0000000000000E+00
 0.0000000000000E+00
 0.0000000000000E+00
 0.0000000000000E+00
 0.0000000000000E+00
 0.0000000000000E+00
 0.0000000000000E+00
 0.0000000000000E+00
 0.0000000000000E+00
 0.0000000000000E+00
 0.0000000000000E+00
 0.0000000000000E+00
 0.0000000000000E+00
 0.0000000000000E+00
 0.0000000000000E+00
 0.0000000000000E+00
 0.0000000000000E+00
 0.0000000000000E+00
 0.0000000000000E+00
 0.0000000000000E+00
 0.0000000000000E+00
 0.0000000000000E+00
 0.0000000000000E+00
 0.0000000000000E+00
 0.0000000000000E+00
 0.0000000000000E+00
 0.0000000000000E+00
 0.0000000000000E+00
 0.0000000000000E+00
 0.0000000000000E+00
 0.0000000000000E+00
 0.0000000000000E+00
 0.0000000000000E+00
 0.0000000000000E+00
 0.0000000000000E+00
 0.0000000000000E+00
 0.0000000000000E+00
 0.0000000000000E+00
 0.0000000000000E+00
 0.0000000000000E+00
 0.0000000000000E+00
 0.0000000000000E+00
 0.0000000000000E+00
 0.0000000000000E+00
 0.0000000000000E+00
 0.0000000000000E+00
 0.0000000000000E+00
 0.0000000000000E+00
 0.0000000000000E+00
 0.0000000000000E+00
 0.0000000000000E+00
 0.0000000000000E+00
 0.0000000000000E+00
 0.0000000000000E+00
 0.0000000000000E+00
 0.0000000000000E+00
 0.0000000000000E+00
 0.0000000000000E+00
 0.0000000000000E+00
 0.0000000000000E+00
 0.0000000000000E+00
 0.0000000000000E+00
 0.0000000000000E+00
 0.0000000000000E+00
 0.0000000000000E+00
 0.0000000000000E+00
 0.0000000000000E+00
 0.0000000000000E+00
 0.0000000000000E+00
 0.0000000000000E+00
 0.0000000000000E+00
 0.0000000000000E+00
 0.0000000000000E+00
 0.0000000000000E+00
 0.0000000000000E+00
 0.0000000000000E+00
 0.0000000000000E+00
 0.0000000000000E+00
 0.0000000000000E+00
 0.0000000000000E+00
 0.0000000000000E+00
 0.0000000000000E+00
 0.0000000000000E+00
 0.0000000000000E+00
 0.0000000000000E+00
 0.0000000000000E+00
 0.0000000000000E+00
 0.0000000000000E+00
 0.0000000000000E+00
 0.0000000000000E+00
 0.0000000000000E+00
 0.0000000000000E+00
 0.0000000000000E+00
 0.0000000000000E+00
 0.0000000000000E+00
 0.0000000000000E+00
 0.0000000000000E+00
 0.0000000000000E+00
 0.0000000000000E+00
 0.0000000000000E+00
 0.0000000000000E+00
 0.0000000000000E+00
 0.0000000000000E+00
 0.0000000000000E+00
 0.0000000000000E+00
 0.0000000000000E+00
 0.0000000000000E+00
 0.0000000000000E+00
 0.0000000000000E+00
 0.0000000000000E+00
 0.0000000000000E+00
 0.0000000000000E+00
 0.0000000000000E+00
 0.0000000000000E+00
 0.0000000000000E+00
 0.0000000000000E+00
 0.0000000000000E+00
 0.0000000000000E+00
 0.0000000000000E+00
 0.0000000000000E+00
 0.0000000000000E+00
 0.0000000000000E+00
 0.0000000000000E+00
 0.0000000000000E+00
 0.0000000000000E+00
 0.0000000000000E+00
 0.0000000000000E+00
 0.0000000000000E+00
 0.0000000000000E+00
 0.0000000000000E+00
 0.0000000000000E+00
 0.0000000000000E+00
 0.0000000000000E+00
 0.0000000000000E+00
 0.0000000000000E+00
 0.0000000000000E+00
 0.0000000000000E+00
 0.0000000000000E+00
 0.0000000000000E+00
 0.0000000000000E+00
 0.0000000000000E+00
 0.0000000000000E+00
 0.0000000000000E+00
 0.0000000000000E+00
 0.0000000000000E+00
 0.0000000000000E+00
 0.0000000000000E+00
 0.0000000000000E+00
 0.0000000000000E+00
 0.0000000000000E+00
 0.0000000000000E+00
 0.0000000000000E+00
 0.0000000000000E+00
 0.0000000000000E+00
 0.0000000000000E+00
 0.0000000000000E+00
 0.0000000000000E+00
 0.0000000000000E+00
 0.0000000000000E+00
 0.0000000000000E+00
 0.0000000000000E+00
 0.0000000000000E+00
 0.0000000000000E+00
 0.0000000000000E+00
 0.0000000000000E+00
 0.0000000000000E+00
 0.0000000000000E+00
 0.0000000000000E+00
 0.0000000000000E+00
 0.0000000000000E+00
 0.0000000000000E+00
 0.0000000000000E+00
 0.0000000000000E+00
 0.0000000000000E+00
 0.0000000000000E+00
 0.0000000000000E+00
 0.0000000000000E+00
 0.0000000000000E+00
 0.0000000000000E+00
 0.0000000000000E+00
 0.0000000000000E+00
 0.0000000000000E+00
 0.0000000000000E+00
 0.0000000000000E+00
 0.0000000000000E+00
 0.0000000000000E+00
 0.0000000000000E+00
 0.0000000000000E+00
 0.0000000000000E+00
 0.0000000000000E+00
 0.0000000000000E+00
 0.0000000000000E+00
 0.0000000000000E+00
 0.0000000000000E+00
 0.0000000000000E+00
 0.0000000000000E+00
 0.0000000000000E+00
 0.0000000000000E+00
 0.0000000000000E+00
 0.0000000000000E+00
 0.0000000000000E+00
 0.0000000000000E+00
 0.0000000000000E+00
 0.0000000000000E+00
 0.0000000000000E+00
 0.0000000000000E+00
 0.0000000000000E+00
 0.0000000000000E+00
 0.0000000000000E+00
 0.0000000000000E+00
 0.0000000000000E+00
 0.0000000000000E+00
 0.0000000000000E+00
 0.0000000000000E+00
 0.0000000000000E+00
 0.0000000000000E+00
 0.0000000000000E+00
 0.0000000000000E+00
 0.0000000000000E+00
 0.0000000000000E+00
 0.0000000000000E+00
 0.0000000000000E+00
 0.0000000000000E+00
 0.0000000000000E+00
 0.0000000000000E+00
 0.0000000000000E+00
 0.0000000000000E+00
 0.0000000000000E+00
 0.0000000000000E+00
 0.0000000000000E+00
 0.0000000000000E+00
 0.0000000000000E+00
 0.0000000000000E+00
 0.0000000000000E+00
 0.0000000000000E+00
 0.0000000000000E+00
 0.0000000000000E+00
 0.0000000000000E+00
 0.0000000000000E+00
 0.0000000000000E+00
 0.0000000000000E+00
 0.0000000000000E+00
 0.0000000000000E+00
 0.0000000000000E+00
 0.0000000000000E+00
 0.0000000000000E+00
 0.0000000000000E+00
 0.0000000000000E+00
 0.0000000000000E+00
 0.0000000000000E+00
 0.0000000000000E+00
 0.0000000000000E+00
 0.0000000000000E+00
 0.0000000000000E+00
 0.0000000000000E+00
 0.0000000000000E+00
 0.0000000000000E+00
 0.0000000000000E+00
 0.0000000000000E+00
 0.0000000000000E+00
 0.0000000000000E+00
 0.0000000000000E+00
 0.0000000000000E+00
 0.0000000000000E+00
 0.0000000000000E+00
 0.0000000000000E+00
 0.0000000000000E+00
 0.0000000000000E+00
 0.0000000000000E+00
 0.0000000000000E+00
 0.0000000000000E+00
 0.0000000000000E+00
 0.0000000000000E+00
 0.0000000000000E+00
 0.0000000000000E+00
 0.0000000000000E+00
 0.0000000000000E+00
 0.0000000000000E+00
 0.0000000000000E+00
 0.0000000000000E+00
 0.0000000000000E+00
 0.0000000000000E+00
 0.0000000000000E+00
 0.0000000000000E+00
 0.0000000000000E+00
 0.0000000000000E+00
 0.0000000000000E+00
 0.0000000000000E+00
 0.0000000000000E+00
 0.0000000000000E+00
 0.0000000000000E+00
 0.0000000000000E+00
 0.0000000000000E+00
 0.0000000000000E+00
 0.0000000000000E+00
 0.0000000000000E+00
 0.0000000000000E+00
 0.0000000000000E+00
 0.0000000000000E+00
 0.0000000000000E+00
 0.0000000000000E+00
 0.0000000000000E+00
 0.0000000000000E+00
 0.0000000000000E+00
 0.0000000000000E+00
 0.0000000000000E+00
 0.0000000000000E+00
 0.0000000000000E+00
 0.0000000000000E+00
 0.0000000000000E+00
 0.0000000000000E+00
 0.0000000000000E+00
 0.0000000000000E+00
 0.0000000000000E+00
 0.0000000000000E+00
 0.0000000000000E+00
 0.0000000000000E+00
 0.0000000000000E+00
 0.0000000000000E+00
 0.0000000000000E+00
 0.0000000000000E+00
 0.0000000000000E+00
 0.0000000000000E+00
 0.0000000000000E+00
 0.0000000000000E+00
 0.0000000000000E+00
 0.0000000000000E+00
 0.0000000000000E+00
 0.0000000000000E+00
 0.0000000000000E+00
 0.0000000000000E+00
 0.0000000000000E+00
 0.0000000000000E+00
 0.0000000000000E+00
 0.0000000000000E+00
 0.0000000000000E+00
 0.0000000000000E+00
 0.0000000000000E+00
 0.0000000000000E+00
 0.0000000000000E+00
 0.0000000000000E+00
 0.0000000000000E+00
 0.0000000000000E+00
 0.0000000000000E+00
 0.0000000000000E+00
 0.0000000000000E+00
 0.0000000000000E+00
 0.0000000000000E+00
 0.0000000000000E+00
 0.0000000000000E+00
 0.0000000000000E+00
 0.0000000000000E+00
 0.0000000000000E+00
 0.0000000000000E+00
 0.0000000000000E+00
 0.0000000000000E+00
 0.0000000000000E+00
 0.0000000000000E+00
 0.0000000000000E+00
 0.0000000000000E+00
 0.0000000000000E+00
 0.0000000000000E+00
 0.0000000000000E+00
 0.0000000000000E+00
 0.0000000000000E+00
 0.0000000000000E+00
 0.0000000000000E+00
 0.0000000000000E+00
 0.0000000000000E+00
 0.0000000000000E+00
 0.0000000000000E+00
 0.0000000000000E+00
 0.0000000000000E+00
 0.0000000000000E+00
 0.0000000000000E+00
 0.0000000000000E+00
 0.0000000000000E+00
 0.0000000000000E+00
 0.0000000000000E+00
 0.0000000000000E+00
 0.0000000000000E+00
 0.0000000000000E+00
 0.0000000000000E+00
 0.0000000000000E+00
 0.0000000000000E+00
 0.0000000000000E+00
 0.0000000000000E+00
 0.0000000000000E+00
 0.0000000000000E+00
 0.0000000000000E+00
 0.0000000000000E+00
 0.0000000000000E+00
 0.0000000000000E+00
 0.0000000000000E+00
 0.0000000000000E+00
 0.0000000000000E+00
 0.0000000000000E+00
 0.0000000000000E+00
 0.0000000000000E+00
 0.0000000000000E+00
 0.0000000000000E+00
 0.0000000000000E+00
 0.0000000000000E+00
 0.0000000000000E+00
 0.0000000000000E+00
 0.0000000000000E+00
 0.0000000000000E+00
 0.0000000000000E+00
 0.0000000000000E+00
 0.0000000000000E+00
 0.0000000000000E+00
 0.0000000000000E+00
 0.0000000000000E+00
 0.0000000000000E+00
 0.0000000000000E+00
 0.0000000000000E+00
 0.0000000000000E+00
 0.0000000000000E+00
 0.0000000000000E+00
 0.0000000000000E+00
 0.0000000000000E+00
 0.0000000000000E+00
 0.0000000000000E+00
 0.0000000000000E+00
 0.0000000000000E+00
 0.0000000000000E+00
 0.0000000000000E+00
 0.0000000000000E+00
 0.0000000000000E+00
 0.0000000000000E+00
 0.0000000000000E+00
 0.0000000000000E+00
 0.0000000000000E+00
 0.0000000000000E+00
 0.0000000000000E+00
 0.0000000000000E+00
 0.0000000000000E+00
 0.0000000000000E+00
 0.0000000000000E+00
 0.0000000000000E+00
 0.0000000000000E+00
 0.0000000000000E+00
 0.0000000000000E+00
 0.0000000000000E+00
 0.0000000000000E+00
 0.0000000000000E+00
 0.0000000000000E+00
 0.0000000000000E+00
 0.0000000000000E+00
 0.0000000000000E+00
 0.0000000000000E+00
 0.0000000000000E+00
 0.0000000000000E+00
 0.0000000000000E+00
 0.0000000000000E+00
 0.0000000000000E+00
 0.0000000000000E+00
 0.0000000000000E+00
 0.0000000000000E+00
 0.0000000000000E+00
 0.0000000000000E+00
 0.0000000000000E+00
 0.0000000000000E+00
 0.0000000000000E+00
 0.0000000000000E+00
 0.0000000000000E+00
 0.0000000000000E+00
 0.0000000000000E+00
 0.0000000000000E+00
 0.0000000000000E+00
 0.0000000000000E+00
 0.0000000000000E+00
 0.0000000000000E+00
 0.0000000000000E+00
 0.0000000000000E+00
 0.0000000000000E+00
 0.0000000000000E+00
 0.0000000000000E+00
 0.0000000000000E+00
 0.0000000000000E+00
 0.0000000000000E+00
 0.0000000000000E+00
 0.0000000000000E+00
 0.0000000000000E+00
 0.0000000000000E+00
 0.0000000000000E+00
 0.0000000000000E+00
 0.0000000000000E+00
 0.0000000000000E+00
 0.0000000000000E+00
 0.0000000000000E+00
 0.0000000000000E+00
 0.0000000000000E+00
 0.0000000000000E+00
 0.0000000000000E+00
 0.0000000000000E+00
 0.0000000000000E+00
 0.0000000000000E+00
 0.0000000000000E+00
 0.0000000000000E+00
 0.0000000000000E+00
 0.0000000000000E+00
 0.0000000000000E+00
 0.0000000000000E+00
 0.0000000000000E+00
 0.0000000000000E+00
 0.0000000000000E+00
 0.0000000000000E+00
 0.0000000000000E+00
 0.0000000000000E+00
 0.0000000000000E+00
 0.0000000000000E+00
 0.0000000000000E+00
 0.0000000000000E+00
 0.0000000000000E+00
 0.0000000000000E+00
 0.0000000000000E+00
 0.0000000000000E+00
 0.0000000000000E+00
 0.0000000000000E+00
 0.0000000000000E+00
 0.0000000000000E+00
 0.0000000000000E+00
 0.0000000000000E+00
 0.0000000000000E+00
 0.0000000000000E+00
 0.0000000000000E+00
 0.0000000000000E+00
 0.0000000000000E+00
 0.0000000000000E+00
 0.0000000000000E+00
 0.0000000000000E+00
 0.0000000000000E+00
 0.0000000000000E+00
 0.0000000000000E+00
 0.0000000000000E+00
 0.0000000000000E+00
 0.0000000000000E+00
 0.0000000000000E+00
 0.0000000000000E+00
 0.0000000000000E+00
 0.0000000000000E+00
 0.0000000000000E+00
 0.0000000000000E+00
 0.0000000000000E+00
 0.0000000000000E+00
 0.0000000000000E+00
 0.0000000000000E+00
 0.0000000000000E+00
 0.0000000000000E+00
 0.0000000000000E+00
 0.0000000000000E+00
 0.0000000000000E+00
 0.0000000000000E+00
 0.0000000000000E+00
 0.0000000000000E+00
 0.0000000000000E+00
 0.0000000000000E+00
 0.0000000000000E+00
 0.0000000000000E+00
 0.0000000000000E+00
 0.0000000000000E+00
 0.0000000000000E+00
 0.0000000000000E+00
 0.0000000000000E+00
 0.0000000000000E+00
 0.0000000000000E+00
 0.0000000000000E+00
 0.0000000000000E+00
 0.0000000000000E+00
 0.0000000000000E+00
 0.0000000000000E+00
 0.0000000000000E+00
 0.0000000000000E+00
 0.0000000000000E+00
 0.0000000000000E+00
 0.0000000000000E+00
 0.0000000000000E+00
 0.0000000000000E+00
 0.0000000000000E+00
 0.0000000000000E+00
 0.0000000000000E+00
 0.0000000000000E+00
 0.0000000000000E+00
 0.0000000000000E+00
 0.0000000000000E+00
 0.0000000000000E+00
 0.0000000000000E+00
 0.0000000000000E+00
 0.0000000000000E+00
 0.0000000000000E+00
 0.0000000000000E+00
 0.0000000000000E+00
 0.0000000000000E+00
 0.0000000000000E+00
 0.0000000000000E+00
 0.0000000000000E+00
 0.0000000000000E+00
 0.0000000000000E+00
 0.0000000000000E+00
 0.0000000000000E+00
 0.0000000000000E+00
 0.0000000000000E+00
 0.0000000000000E+00
 0.0000000000000E+00
 0.0000000000000E+00
 0.0000000000000E+00
 0.0000000000000E+00
 0.0000000000000E+00
 0.0000000000000E+00
 0.0000000000000E+00
 0.0000000000000E+00
 0.0000000000000E+00
 0.0000000000000E+00
 0.0000000000000E+00
 0.0000000000000E+00
 0.0000000000000E+00
 0.0000000000000E+00
 0.0000000000000E+00
 0.0000000000000E+00
 0.0000000000000E+00
 0.0000000000000E+00
 0.0000000000000E+00
 0.0000000000000E+00
 0.0000000000000E+00
 0.0000000000000E+00
 0.0000000000000E+00
 0.0000000000000E+00
 0.0000000000000E+00
 0.0000000000000E+00
 0.0000000000000E+00
 0.0000000000000E+00
 0.0000000000000E+00
 0.0000000000000E+00
 0.0000000000000E+00
 0.0000000000000E+00
 0.0000000000000E+00
 0.0000000000000E+00
 0.0000000000000E+00
 0.0000000000000E+00
 0.0000000000000E+00
 0.0000000000000E+00
 0.0000000000000E+00
 0.0000000000000E+00
 0.0000000000000E+00
 0.0000000000000E+00
 0.0000000000000E+00
 0.0000000000000E+00
 0.0000000000000E+00
 0.0000000000000E+00
 0.0000000000000E+00
 0.0000000000000E+00
 0.0000000000000E+00
 0.0000000000000E+00
 0.0000000000000E+00
 0.0000000000000E+00
 0.0000000000000E+00
 0.0000000000000E+00
 0.0000000000000E+00
 0.0000000000000E+00
 0.0000000000000E+00
 0.0000000000000E+00
 0.0000000000000E+00
 0.0000000000000E+00
 0.0000000000000E+00
 0.0000000000000E+00
 0.0000000000000E+00
 0.0000000000000E+00
 0.0000000000000E+00
 0.0000000000000E+00
 0.0000000000000E+00
 0.0000000000000E+00
 0.0000000000000E+00
 0.0000000000000E+00
 0.0000000000000E+00
 0.0000000000000E+00
 0.0000000000000E+00
 0.0000000000000E+00
 0.0000000000000E+00
 0.0000000000000E+00
 0.0000000000000E+00
 0.0000000000000E+00
 0.0000000000000E+00
 0.0000000000000E+00
 0.0000000000000E+00
 0.0000000000000E+00
 0.0000000000000E+00
 0.0000000000000E+00
 0.0000000000000E+00
 0.0000000000000E+00
 0.0000000000000E+00
 0.0000000000000E+00
 0.0000000000000E+00
 0.0000000000000E+00
 0.0000000000000E+00
 0.0000000000000E+00
 0.0000000000000E+00
 0.0000000000000E+00
 0.0000000000000E+00
 0.0000000000000E+00
 0.0000000000000E+00
 0.0000000000000E+00
 0.0000000000000E+00
 0.0000000000000E+00
 0.0000000000000E+00
 0.0000000000000E+00
 0.0000000000000E+00
 0.0000000000000E+00
 0.0000000000000E+00
 0.0000000000000E+00
 0.0000000000000E+00
 0.0000000000000E+00
 0.0000000000000E+00
 0.0000000000000E+00
 0.0000000000000E+00
 0.0000000000000E+00
 0.0000000000000E+00
 0.0000000000000E+00
 0.0000000000000E+00
 0.0000000000000E+00
 0.0000000000000E+00
 0.0000000000000E+00
 0.0000000000000E+00
 0.0000000000000E+00
 0.0000000000000E+00
 0.0000000000000E+00
 0.0000000000000E+00
 0.0000000000000E+00
 0.0000000000000E+00
 0.0000000000000E+00
 0.0000000000000E+00
 0.0000000000000E+00
 0.0000000000000E+00
 0.0000000000000E+00
 0.0000000000000E+00
 0.0000000000000E+00
 0.0000000000000E+00
 0.0000000000000E+00
 0.0000000000000E+00
 0.0000000000000E+00
 0.0000000000000E+00
 0.0000000000000E+00
 0.0000000000000E+00
 0.0000000000000E+00
 0.0000000000000E+00
 0.0000000000000E+00
 0.0000000000000E+00
 0.0000000000000E+00
 0.0000000000000E+00
 0.0000000000000E+00
 0.0000000000000E+00
 0.0000000000000E+00
 0.0000000000000E+00
 0.0000000000000E+00
 0.0000000000000E+00
 0.0000000000000E+00
 0.0000000000000E+00
 0.0000000000000E+00
 0.0000000000000E+00
 0.0000000000000E+00
 0.0000000000000E+00
 0.0000000000000E+00
 0.0000000000000E+00
 0.0000000000000E+00
 0.0000000000000E+00
 0.0000000000000E+00
 0.0000000000000E+00
 0.0000000000000E+00
 0.0000000000000E+00
 0.0000000000000E+00
 0.0000000000000E+00
 0.0000000000000E+00
 0.0000000000000E+00
 0.0000000000000E+00
 0.0000000000000E+00
 0.0000000000000E+00
 0.0000000000000E+00
 0.0000000000000E+00
 0.0000000000000E+00
 0.0000000000000E+00
 0.0000000000000E+00
 0.0000000000000E+00
 0.0000000000000E+00
 0.0000000000000E+00
 0.0000000000000E+00
 0.0000000000000E+00
 0.0000000000000E+00
 0.0000000000000E+00
 0.0000000000000E+00
 0.0000000000000E+00
 0.0000000000000E+00
 0.0000000000000E+00
 0.0000000000000E+00
 0.0000000000000E+00
 0.0000000000000E+00
 0.0000000000000E+00
 0.0000000000000E+00
 0.0000000000000E+00
</DataArray>
<DataArray type="Int32" Name="Region" format="ascii">
           1
           1
           1
           1
           1
           1
           1
           1
           1
           1
           1
           1
           1
           1
           1
           1
           1
           1
           1
           1
           1
           1
           1
           1
           1
           1
           1
           1
           1
           1
           1
           1
           1
           1
           1
           1
           1
           1
           1
           1
           1
           1
           1
           1
           1
           1
           1
           1
           1
           1
           1
           1
           1
           1
           1
           1
           1
           1
           1
           1
           1
           1
           1
           1
           1
           1
           1
           1
           1
           1
           1
           1
           1
           1
           1
           1
           1
           1
           1
           1
           1
           1
           1
           1
           1
           1
           1
           1
           1
           1
           1
           1
           1
           1
           1
           1
           1
           1
           1
           1
           1
           1
           1
           1
           1
           1
           1
           1
           1
           1
           1
           1
           1
           1
           1
           1
           1
           1
           1
           1
           1
           1
           1
           1
           1
           1
           1
           1
           1
           1
           1
           1
           1
           1
           1
           1
           1
           1
           1
           1
           1
           1
           1
           1
           1
           1
           1
           1
           1
           1
           1
           1
           1
           1
           1
           1
           1
           1
           1
           1
           1
           1
           1
           1
           1
           1
           1
           1
           1
           1
           1
           1
           1
           1
           1
           1
           1
           1
           1
           1
           1
           1
           1
           1
           1
           1
           1
           1
           1
           1
           1
           1
           1
           1
           1
           1
           1
           1
           1
           1
           1
           1
           1
           1
           1
           1
           1
           1
           1
           1
           1
           1
           1
           1
           1
           1
           1
           1
           1
           1
           1
           1
           1
           1
           1
           1
           1
           1
           1
           1
           1
           1
           1
           1
           1
           1
           1
           1
           1
           1
           1
           1
           1
           1
           1
           1
           1
           1
           1
           1
           1
           1
           1
           1
           1
           1
           1
           1
           1
           1
           1
           1
           1
           1
           1
           1
           1
           1
           1
           1
           1
           1
           1
           1
           1
           1
           1
           1
           1
           1
           1
           1
           1
           1
           1
           1
           1
           1
           1
           1
           1
           1
           1
           1
           1
           1
           1
           1
           1
           1
           1
           1
           1
           1
           1
           1
           1
           1
           1
           1
           1
           1
           1
           1
           1
           1
           1
           1
           1
           1
           1
           1
           1
           1
           1
           1
           1
           1
           1
           1
           1
           1
           1
           1
           1
           1
           1
           1
           1
           1
           1
           1
           1
           1
           1
           1
           1
           1
           1
           1
           1
           1
           1
           1
           1
           1
           1
           1
           1
           1
           1
           1
           1
           1
           1
           1
           1
           1
           1
           1
           1
           1
           1
           1
           1
           1
           1
           1
           1
           1
           1
           1
           1
           1
           1
           1
           1
           1
           1
           1
           1
           1
           1
           1
           1
           1
           1
           1
           1
           1
           1
           1
           1
           1
           1
           1
           1
           1
           1
           1
           1
           1
           1
           1
           1
           1
           1
           1
           1
           1
           1
           1
           1
           1
           1
           1
           1
           1
           1
           1
           1
           1
           1
           1
           1
           1
           1
           1
           1
           1
           1
           1
           1
           1
           1
           1
           1
           1
           1
           1
           1
           1
           1
           1
           1
           1
           1
           1
           1
           1
           1
           1
           1
           1
           1
           1
           1
           1
           1
           1
           1
           1
           1
           1
           1
           1
           1
           1
           1
           1
           1
           1
           1
           1
           1
           1
           1
           1
           1
           1
           1
           1
           1
           1
           1
           1
           1
           1
           1
           1
           1
           1
           1
           1
           1
           1
           1
           1
           1
           1
           1
           1
           1
           1
           1
           1
           1
           1
           1
           1
           1
           1
           1
           1
           1
           1
           1
           1
           1
           1
           1
           1
           1
           1
           1
           1
           1
           1
           1
           1
           1
           1
           1
           1
           1
           1
           1
           1
           1
           1
           1
           1
           1
           1
           1
           1
           1
           1
           1
           1
           1
           1
           1
           1
           1
           1
           1
           1
           1
           1
           1
           1
           1
           1
           1
           1
           1
           1
           1
           1
           1
           1
           1
           1
           1
           1
           1
           1
           1
           1
           1
           1
           1
           1
           1
           1
           1
           1
           1
           1
           1
           1
           1
           1
           1
           1
           1
           1
           1
           1
           1
           1
           1
           1
           1
           1
           1
           1
           1
           1
           1
           1
           1
           1
           1
           1
           1
           1
           1
           1
           1
           1
           1
           1
           1
           1
           1
           1
           1
           1
           1
           1
           1
           1
           1
           1
           1
           1
           1
           1
           1
           1
           1
           1
           1
           1
           1
           1
           1
           1
           1
           1
           1
           1
           1
           1
           1
           1
           1
           1
           1
           1
           1
           1
           1
           1
           1
           1
           1
           1
           1
           1
           1
           1
           1
           1
           1
           1
           1
           1
           1
           1
           1
           1
           1
           1
           1
           1
           1
           1
           1
           1
           1
           1
           1
           1
           1
           1
           1
           1
           1
           1
           1
           1
           1
           1
           1
           1
           1
           1
           1
           1
           1
           1
           1
           1
           1
           1
           1
           1
           1
           1
           1
           1
           1
           1
           1
           1
           1
           1
           1
           1
           1
           1
           1
           1
           1
           1
           1
           1
           1
           1
           1
           1
           1
           1
           1
           1
           1
           1
           1
           1
           1
           1
           1
           1
           1
           1
           1
           1
           1
           1
           1
           1
           1
           1
           1
           1
           1
           1
           1
           1
           1
           1
           1
           1
           1
           1
           1
           1
           1
           1
           1
           1
           1
           1
           1
           1
           1
           1
           1
           1
           1
           1
           1
           1
           1
           1
           1
           1
           1
           1
           1
           1
           1
           1
           1
           1
           1
           1
           1
           1
           1
           1
           1
           1
           1
           1
           1
           1
           1
           1
           1
           1
           1
           1
           1
           1
           1
           1
           1
           1
           1
           1
           1
           1
           1
           1
           1
           1
           1
           1
           1
           1
           1
           1
           1
           1
           1
           1
           1
           1
           1
           1
           1
           1
           1
           1
           1
           1
           1
           1
           1
           1
           1
           1
           1
           1
           1
           1
           1
           1
           1
           1
           1
           1
           1
           1
           1
           1
           1
           1
           1
           1
           1
           1
           1
           1
           1
           1
           1
           1
           1
           1
           1
           1
           1
           1
           1
           1
           1
           1
           1
           1
           1
           1
           1
           1
           1
           1
           1
           1
           1
           1
           1
           1
           1
           1
           1
           1
           1
           1
           1
           1
           1
           1
           1
           1
           1
           1
           1
           1
           1
           1
           1
           1
           1
           1
           1
           1
           1
           1
           1
           1
           1
           1
           1
           1
           1
           1
           1
           1
           1
           1
           1
           1
           1
           1
           1
           1
           1
           1
           1
           1
           1
           1
           1
           1
           1
           1
           1
           1
           1
           1
           1
           1
           1
           1
           1
           1
           1
           1
           1
           1
           1
           1
           1
           1
           1
           1
           1
           1
           1
           1
           1
           1
           1
           1
           1
           1
           1
           1
           1
           1
           1
           1
           1
           1
           1
           1
           1
           1
           1
           1
           1
           1
           1
           1
           1
           1
           1
           1
           1
           1
           1
           1
           1
           1
           1
           1
           1
           1
           1
           1
           1
           1
           1
           1
           1
           1
           1
           1
           1
           1
           1
           1
           1
           1
           1
           1
           1
           1
           1
           1
           1
           1
           1
           1
           1
           1
           1
           1
           1
           1
           1
           1
           1
           1
           1
           1
           1
           1
           1
           1
           1
           1
           1
           1
           1
           1
           1
           1
           1
           1
           1
           1
           1
           1
           1
           1
           1
           1
           1
           1
           1
           1
           1
           1
           1
           1
           1
           1
           1
           1
           1
           1
           1
           1
           1
           1
           1
           1
           1
           1
           1
           1
           1
           1
           1
           1
           1
           1
           1
           1
           1
           1
           1
           1
           1
           1
           1
           1
           1
           1
           1
           1
           1
           1
           1
           1
           1
           1
           1
           1
           1
           1
           1
           1
           1
           1
           1
           1
           1
           1
           1
           1
           1
           1
           1
           1
           1
           1
           1
           1
           1
           1
           1
           1
           1
           1
           1
           1
           1
           1
           1
           1
           1
           1
           1
           1
           1
           1
           1
           1
           1
           1
           1
           1
           1
           1
           1
           1
           1
           1
           1
           1
           1
           1
           1
           1
           1
           1
           1
           1
           1
           1
           1
           1
           1
           1
           1
           1
           1
           1
           1
           1
           1
           1
           1
           1
           1
           1
           1
           1
           1
           1
           1
           1
           1
           1
           1
           1
           1
           1
           1
           1
           1
           1
           1
           1
           1
           1
           1
           1
           1
           1
           1
           1
           1
           1
           1
           1
           1
           1
           1
           1
           1
           1
           1
           1
           1
           1
           1
           1
           1
           1
           1
           1
           1
           1
           1
           1
           1
           1
           1
           1
           1
           1
           1
           1
           1
           1
           1
           1
           1
           1
           1
           1
           1
           1
           1
           1
           1
           1
           1
           1
           1
           1
           1
           1
           1
           1
           1
           1
           1
           1
           1
           1
           1
           1
           1
           1
           1
           1
           1
           1
           1
           1
           1
           1
           1
           1
           1
           1
           1
           1
           1
           1
           1
           1
           1
           1
           1
           1
           1
           1
           1
           1
           1
           1
           1
           1
           1
           1
           1
           1
           1
           1
           1
           1
           1
           1
           1
           1
           1
           1
           1
           1
           1
           1
           1
           1
           1
           1
           1
           1
           1
           1
           1
           1
           1
           1
           1
           1
           1
           1
           1
           1
           1
           1
           1
           1
           1
           1
           1
           1
           1
           1
           1
           1
           1
           1
           1
           1
           1
           1
           1
           1
           1
           1
           1
           1
           1
           1
           1
           1
           1
           1
           1
           1
           1
           1
           1
           1
           1
           1
           1
           1
           1
           1
           1
           1
           1
           1
           1
           1
           1
           1
           1
           1
           1
           1
           1
           1
           1
           1
           1
           1
           1
           1
           1
           1
           1
           1
           1
           1
           1
           1
           1
           1
           1
           1
           1
           1
           1
           1
           1
           1
           1
           1
           1
           1
           1
           1
           1
           1
           1
           1
           1
           1
           1
           1
           1
           1
           1
           1
           1
           1
           1
           1
           1
           1
           1
           1
           1
           1
           1
           1
           1
           1
           1
           1
           1
           1
           1
           1
           1
           1
           1
           1
           1
           1
           1
           1
           1
           1
           1
           1
           1
           1
           1
           1
           1
           1
           1
           1
           1
           1
           1
           1
           1
           1
           1
           1
           1
           1
           1
           1
           1
           1
           1
           1
           1
           1
           1
           1
           1
           1
           1
           1
           1
           1
           1
           1
           1
           1
           1
           1
           1
           1
           1
           1
           1
           1
           1
           1
           1
           1
           1
           1
           1
           1
           1
           1
           1
           1
           1
           1
           1
           1
           1
           1
           1
           1
           1
           1
           1
           1
           1
           1
           1
           1
           1
           1
           1
           1
           1
           1
           1
           1
           1
           1
           1
           1
           1
           1
           1
           1
           1
           1
           1
           1
           1
           1
           1
           1
           1
           1
           1
           1
           1
           1
           1
           1
           1
           1
           1
           1
           1
           1
           1
           1
           1
           1
           1
           1
           1
           1
           1
           1
           1
           1
           1
           1
           1
           1
           1
           1
           1
           1
           1
           1
           1
           1
           1
           1
           1
           1
           1
           1
           1
           1
           1
           1
           1
           1
           1
           1
           1
           1
           1
           1
           1
           1
           1
           1
           1
           1
           1
           1
           1
           1
           1
           1
           1
           1
           1
           1
           1
           1
           1
           1
           1
           1
           1
           1
           1
           1
           1
           1
           1
           1
           1
           1
           1
           1
           1
           1
           1
           1
           1
           1
           1
           1
           1
           1
           1
           1
           1
           1
           1
           1
           1
           1
           1
           1
           1
           1
           1
           1
           1
           1
           1
           1
           1
           1
           1
           1
           1
           1
           1
           1
           1
           1
           1
           1
           1
           1
           1
           1
           1
           1
           1
           1
           1
           1
           1
           1
           1
           1
           1
           1
           1
           1
           1
           1
           1
           1
           1
           1
           1
           1
           1
           1
           1
           1
           1
           1
           1
           1
           1
           1
           1
           1
           1
           1
           1
           1
           1
           1
           1
           1
           1
           1
           1
           1
           1
           1
           1
           1
           1
           1
           1
           1
           1
           1
           1
           1
           1
           1
           1
           1
           1
           1
           1
           1
           1
           1
           1
           1
           1
           1
           1
           1
           1
           1
           1
           1
           1
           1
           1
           1
           1
           1
           1
           1
           1
           1
           1
           1
           1
           1
           1
           1
           1
           1
           1
           1
           1
           1
           1
           1
           1
           1
           1
           1
           1
           1
           1
           1
           1
           1
           1
           1
           1
           1
           1
           1
           1
           1
           1
           1
           1
           1
           1
           1
           1
           1
           1
           1
           1
           1
           1
           1
           1
           1
           1
           1
           1
           1
           1
           1
           1
           1
           1
           1
           1
           1
           1
           1
           1
           1
           1
           1
           1
           1
           1
           1
           1
           1
           1
           1
           1
           1
           1
           1
           1
           1
           1
           1
           1
           1
           1
           1
           1
           1
           1
           1
           1
           1
           1
           1
           1
           1
           1
           1
           1
           1
           1
           1
           1
           1
           1
           1
           1
           1
           1
           1
           1
           1
           1
           1
           1
           1
           1
           1
           1
           1
           1
           1
           1
           1
           1
           1
           1
           1
           1
           1
           1
           1
           1
           1
           1
           1
           1
           1
           1
           1
           1
           1
           1
           1
           1
           1
           1
           1
           1
           1
           1
           1
           1
           1
           1
           1
           1
           1
           1
           1
           1
           1
           1
           1
           1
           1
           1
           1
           1
           1
           1
           1
           1
           1
           1
           1
           1
           1
           1
           1
           1
           1
           1
           1
           1
           1
           1
           1
           1
           1
           1
           1
           1
           1
           1
           1
           1
           1
           1
           1
           1
           1
           1
           1
           1
           1
           1
           1
           1
           1
           1
           1
           1
           1
           1
           1
           1
           1
           1
           1
           1
           1
           1
           1
           1
           1
           1
           1
           1
           1
           1
           1
           1
           1
           1
           1
           1
           1
           1
           1
           1
           1
           1
           1
           1
           1
           1
           1
           1
           1
           1
           1
           1
           1
           1
           1
           1
           1
           1
           1
           1
           1
           1
           1
           1
           1
           1
           1
           1
           1
           1
           1
           1
           1
           1
           1
           1
           1
           1
           1
           1
           1
           1
           1
           1
           1
           1
           1
           1
           1
           1
           1
           1
           1
           1
           1
           1
           1
           1
           1
           1
           1
           1
           1
           1
           1
           1
           1
           1
           1
           1
           1
           1
           1
           1
           1
           1
           1
           1
           1
           1
           1
           1
           1
           1
           1
           1
           1
           1
           1
           1
           1
           1
           1
           1
           1
           1
           1
           1
           1
           1
           1
           1
           1
           1
           1
           1
           1
           1
           1
           1
           1
           1
           1
           1
           1
           1
           1
           1
           1
           1
           1
           1
           1
           1
           1
           1
           1
           1
           1
           1
           1
           1
           1
           1
           1
           1
           1
           1
           1
           1
           1
           1
           1
           1
           1
           1
           1
           1
           1
           1
           1
           1
           1
           1
           1
           1
           1
           1
           1
           1
           1
           1
           1
           1
           1
           1
           1
           1
           1
           1
           1
           1
           1
           1
           1
           1
           1
           1
           1
           1
           1
           1
           1
           1
           1
           1
           1
           1
           1
           1
           1
           1
           1
           1
           1
           1
           1
           1
           1
           1
           1
           1
           1
           1
           1
           1
           1
           1
           1
           1
           1
           1
           1
           1
           1
           1
           1
           1
           1
           1
           1
           1
           1
           1
           1
           1
           1
           1
           1
           1
           1
           1
           1
           1
           1
           1
           1
           1
           1
           1
           1
           1
           1
           1
           1
           1
           1
           1
           1
           1
           1
           1
           1
           1
           1
           1
           1
           1
           1
           1
           1
           1
           1
           1
           1
           1
           1
           1
           1
           1
           1
           1
           1
           1
           1
           1
           1
           1
           1
           1
           1
           1
           1
           1
           1
           1
           1
           1
           1
           1
           1
           1
           1
           1
           1
           1
           1
           1
           1
           1
           1
           1
           1
           1
           1
           1
           1
           1
           1
           1
           1
           1
           1
           1
           1
           1
           1
           1
           1
           1
           1
           1
           1
           1
           1
           1
           1
           1
           1
           1
           1
           1
           1
           1
           1
           1
           1
           1
           1
           1
           1
           1
           1
           1
           1
           1
           1
           1
           1
           1
           1
           1
           1
           1
           1
           1
           1
           1
           1
           1
           1
           1
           1
           1
           1
           1
           1
           1
           1
           1
           1
           1
           1
           1
           1
           1
           1
           1
           1
           1
           1
           1
           1
           1
           1
           1
           1
           1
           1
           1
           1
           1
           1
           1
           1
           1
           1
           1
           1
           1
           1
           1
           1
           1
           1
           1
           1
           1
           1
           1
           1
           1
           1
           1
           1
           1
           1
           1
           1
           1
           1
           1
           1
           1
           1
           1
           1
           1
           1
           1
           1
           1
           1
           1
           1
           1
           1
           1
           1
           1
           1
           1
           1
           1
           1
           1
           1
           1
           1
           1
           1
           1
           1
           1
           1
           1
           1
           1
           1
           1
           1
           1
           1
           1
           1
           1
           1
           1
           1
           1
           1
           1
           1
           1
           1
           1
           1
           1
           1
           1
           1
           1
           1
           1
           1
           1
           1
           1
           1
           1
           1
           1
           1
           1
           1
           1
           1
           1
           1
           1
           1
           1
           1
           1
           1
           1
           1
           1
           1
           1
           1
           1
           1
           1
           1
           1
           1
           1
           1
           1
           1
           1
           1
           1
           1
           1
           1
           1
           1
           1
           1
           1
           1
           1
           1
           1
           1
           1
           1
           1
           1
           1
           1
           1
           1
           1
           1
           1
           1
           1
           1
           1
           1
           1
           1
           1
           1
           1
           1
           1
           1
           1
           1
           1
           1
           1
           1
           1
           1
           1
           1
           1
           1
           1
           1
           1
           1
           1
           1
           1
           1
           1
           1
           1
           1
           1
           1
           1
           1
           1
           1
           1
           1
           1
           1
           1
           1
           1
           1
           1
           1
           1
           1
           1
           1
           1
           1
           1
           1
           1
           1
           1
           1
           1
           1
           1
           1
           1
           1
           1
           1
           1
           1
           1
           1
           1
           1
           1
           1
           1
           1
           1
           1
           1
           1
           1
           1
           1
           1
           1
           1
           1
           1
           1
           1
           1
           1
           1
           1
           1
           1
           1
           1
           1
           1
           1
           1
           1
           1
           1
           1
           1
           1
           1
           1
           1
           1
           1
           1
           1
           1
           1
           1
           1
           1
           1
           1
           1
           1
           1
           1
           1
           1
           1
           1
           1
           1
           1
           1
           1
           1
           1
           1
           1
           1
           1
           1
           1
           1
           1
           1
           1
           1
           1
           1
           1
           1
           1
           1
           1
           1
           1
           1
           1
           1
           1
           1
           1
           1
           1
           1
           1
           1
           1
           1
           1
           1
           1
           1
           1
           1
           1
           1
           1
           1
           1
           1
           1
           1
           1
           1
           1
           1
           1
           1
           1
           1
           1
           1
           1
           1
           1
           1
           1
           1
           1
           1
           1
           1
           1
           1
           1
           1
           1
           1
           1
           1
           1
           1
           1
           1
           1
           1
           1
           1
           1
           1
           1
           1
           1
           1
           1
           1
           1
           1
           1
           1
           1
           1
           1
           1
           1
           1
           1
           1
           1
           1
           1
           1
           1
           1
           1
           1
           1
           1
           1
           1
           1
           1
           1
           1
           1
           1
           1
           1
           1
           1
           1
           1
           1
           1
           1
           1
           1
           1
           1
           1
           1
           1
           1
           1
           1
           1
           1
           1
           1
           1
           1
           1
           1
           1
           1
           1
           1
           1
           1
           1
           1
           1
           1
           1
           1
           1
           1
           1
           1
           1
           1
           1
           1
           1
           1
           1
           1
           1
           1
           1
           1
           1
           1
           1
           1
           1
           1
           1
           1
           1
           1
           1
           1
           1
           1
           1
           1
           1
           1
           1
           1
           1
           1
           1
           1
           1
           1
           1
           1
           1
           1
           1
           1
           1
           1
           1
           1
           1
           1
           1
           1
           1
           1
           1
           1
           1
           1
           1
           1
           1
           1
           1
           1
           1
           1
           1
           1
           1
           1
           1
           1
           1
           1
           1
           1
           1
           1
           1
           1
           1
           1
           1
           1
           1
           1
           1
           1
           1
           1
           1
           1
           1
           1
           1
           1
           1
           1
           1
           1
           1
           1
           1
           1
           1
           1
           1
           1
           1
           1
           1
           1
           1
           1
           1
           1
           1
           1
           1
           1
           1
           1
           1
           1
           1
           1
           1
           1
           1
           1
           1
           1
           1
           1
           1
           1
           1
           1
           1
           1
           1
           1
           1
           1
           1
           1
           1
           1
           1
           1
           1
           1
           1
           1
           1
           1
           1
           1
           1
           1
           1
           1
           1
           1
           1
           1
           1
           1
           1
           1
           1
           1
           1
           1
           1
           1
           1
           1
           1
           1
           1
           1
           1
           1
           1
           1
           1
           1
           1
           1
           1
           1
           1
           1
           1
           1
           1
           1
           1
           1
           1
           1
           1
           1
           1
           1
           1
           1
           1
           1
           1
           1
           1
           1
           1
           1
           1
           1
           1
           1
           1
           1
           1
           1
           1
           1
           1
           1
           1
           1
           1
           1
           1
           1
           1
           1
           1
           1
           1
           1
           1
           1
           1
           1
           1
           1
           1
           1
           1
           1
           1
           1
           1
           1
           1
           1
           1
           1
           1
           1
           1
           1
           1
           1
           1
           1
           1
           1
           1
           1
           1
           1
           1
           1
           1
           1
           1
           1
           1
           1
           1
           1
           1
           1
           1
           1
           1
           1
           1
           1
           1
           1
           1
           1
           1
           1
           1
           1
           1
           1
           1
           1
           1
           1
           1
           1
           1
           1
           1
           1
           1
           1
           1
           1
           1
           1
           1
           1
           1
           1
           1
           1
           1
           1
           1
           1
           1
           1
           1
           1
           1
           1
           1
           1
           1
           1
           1
           1
           1
           1
           1
           1
           1
           1
           1
           2
           2
           2
           2
           2
           2
           2
           2
           2
           2
           2
           2
           2
           2
           2
           2
           2
           2
           2
           2
           2
           2
           2
           2
           2
           2
           2
           2
           2
           2
           2
           2
           2
           2
           2
           2
           2
           2
           2
           2
           2
           2
           2
           2
           2
           2
           2
           2
           2
           2
           2
           2
           2
           2
           2
           2
           2
           2
           2
           2
           2
           2
           2
           2
           2
           2
           2
           2
           2
           2
           2
           2
           2
           2
           2
           2
           2
           2
           2
           2
           2
           2
           2
           2
           2
           2
           2
           2
           2
           2
           2
           2
           2
           2
           2
           2
           2
           2
           2
           2
           2
           2
           2
           2
           2
           2
           2
           2
           2
           2
           2
           2
           2
           2
           2
           2
           2
           2
           2
           2
           2
           2
           2
           2
           2
           2
           2
           2
           2
           2
           2
           2
           2
           2
           2
           2
           2
           2
           2
           2
           2
           2
           2
           2
           2
           2
           2
           2
           2
           2
           2
           2
           2
           2
           2
           2
           2
           2
           2
           2
           2
           2
           2
           2
           2
           2
           2
           2
           2
           2
           2
           2
           2
           2
           2
           2
           2
           2
           2
           2
           2
           2
           2
           2
           2
           2
           2
           2
           2
           2
           2
           2
           2
           2
           2
           2
           2
           2
           2
           2
           2
           2
           2
           2
           2
           2
           2
           2
           2
           2
           2
           2
           2
           2
           2
           2
           2
           2
           2
           2
           2
           2
           2
           2
           2
           2
           2
           2
           2
           2
           2
           2
           2
           2
           2
           2
           2
           2
           2
           2
           2
           2
           2
           2
           2
           2
           2
           2
           2
           2
           2
           2
           2
           2
           2
           2
           2
           2
           2
           2
           2
           2
           2
           2
           2
           2
           2
           2
           2
           2
           2
           2
           2
           2
           2
           2
           2
           2
           2
           2
           2
           2
           2
           2
           2
           2
           2
           2
           2
           2
           2
           2
           2
           2
           2
           2
           2
           2
           2
           2
           2
           2
           2
           2
           2
           2
           2
           2
           2
           2
           2
           2
           2
           2
           2
           2
           2
           2
           2
           2
           2
           2
           2
           2
           2
           2
           2
           2
           2
           2
           2
           2
           2
           2
           2
           2
           2
           2
           2
           2
           2
           2
           2
           2
           2
           2
           2
           2
           2
           2
           2
           2
           2
           2
           2
           2
           2
           2
           2
           2
           2
           2
           2
           2
           2
           2
           2
           2
           2
           2
           2
           2
           2
           2
           2
           2
           2
           2
           2
           2
           2
           2
           2
           2
           2
           2
           2
           2
           2
           2
           2
           2
           2
           2
           2
           2
           2
           2
           2
           2
           2
           2
           2
           2
           2
           2
           2
           2
           2
           2
           2
           2
           2
           2
           2
           2
           2
           2
           2
           2
           2
           2
           2
           2
           2
           2
           2
           2
           2
           2
           2
           2
           2
           2
           2
           2
           2
           2
           2
           2
           2
           2
           2
           2
           2
           2
           2
           2
           2
           2
           2
           2
           2
           2
           2
           2
           2
           2
           2
           2
           2
           2
           2
           2
           2
           2
           2
           2
           2
           2
           2
           2
           2
           2
           2
           2
           2
           2
           2
           2
           2
           2
           2
           2
           2
           2
           2
           2
           2
           2
           2
           2
           2
           2
           2
           2
           2
           2
           2
           2
           2
           2
           2
           2
           2
           2
           2
           2
           2
           2
           2
           2
           2
           2
           2
           2
           2
           2
           2
           2
           2
           2
           2
           2
           2
           2
           2
           2
           2
           2
           2
           2
           2
           2
           2
           2
           2
           2
           2
           2
           2
           2
           2
           2
           2
           2
           2
           2
           2
           2
           2
           2
           2
           2
           2
           2
           2
           2
           2
           2
           2
           2
           2
           2
           2
           2
           2
           2
           2
           2
           2
           2
           2
           2
           2
           2
           2
           2
           2
           2
           2
           2
           2
           2
           2
           2
           2
           2
           2
           2
           2
           2
           2
           2
           2
           2
           2
           2
           2
           2
           2
           2
           2
           2
           2
           2
           2
           2
           2
           2
           2
           2
           2
           2
           2
           2
           2
           2
           2
           2
           2
           2
           2
           2
           2
           2
           2
           2
           2
           2
           2
           2
           2
           2
           2
           2
           2
           2
           2
           2
           2
           2
           2
           2
           2
           2
           2
           2
           2
           2
           2
           2
           2
           2
           2
           2
           2
           2
           2
           2
           2
           2
           2
           2
           2
           2
           2
           2
           2
           2
           2
           2
           2
           2
           2
           2
           2
           2
           2
           2
           2
           2
           2
           2
           2
           2
           2
           2
           2
           2
           2
           2
           2
           2
           2
           2
           2
           2
           2
           2
           2
           2
           2
           2
           2
           2
           2
           2
           2
           2
           2
           2
           2
           2
           2
           2
           2
           2
           2
           2
           2
           2
           2
           2
           2
           2
           2
           2
           2
           2
           2
           2
           2
           2
           2
           2
           2
           2
           2
           2
           2
           2
           2
           2
           2
           2
           2
           2
           2
           2
           2
           2
           2
           2
           2
           2
           2
           2
           2
           2
           2
           2
           2
           2
           2
           2
           2
           2
           2
           2
           2
           2
           2
           2
           2
           2
           2
           2
           2
           2
           2
           2
           2
           2
           2
           2
           2
           2
           2
           2
           2
           2
           2
           2
           2
           2
           2
           2
           2
           2
           2
           2
           2
           2
           2
           2
           2
           2
           2
           2
           2
           2
           2
           2
           2
           2
           2
           2
           2
           2
           2
           2
           2
           2
           2
           2
           2
           2
           2
           2
           2
           2
           2
           2
           2
           2
           2
           2
           2
           2
           2
           2
           2
           2
           2
           2
           2
           2
           2
           2
           2
           2
           2
           2
           2
           2
           2
           2
           2
           2
           2
           2
           2
           2
           2
           2
           2
           2
           2
           2
           2
           2
           2
           2
           2
           2
           2
           2
           2
           2
           2
           2
           2
           2
           2
           2
           2
           2
           2
           2
           2
           2
           2
           2
           2
           2
           2
           2
           2
           2
           2
           2
           2
           2
           2
           2
           2
           2
           2
           2
           2
           2
           2
           2
           2
           2
           2
           2
           2
           2
           2
           2
           2
           2
           2
           2
           2
           2
           2
           2
           2
           2
           2
           2
           2
           2
           2
           2
           2
           2
           2
           2
           2
           2
           2
           2
           2
           2
           2
           2
           2
           2
           2
           2
           2
           2
           2
           2
           2
           2
           2
           2
           2
           2
           2
           2
           2
           2
           2
           2
           2
           2
           2
           2
           2
           2
           2
           2
           2
           2
           2
           2
           2
           2
           2
           2
           2
           2
           2
           2
           2
           2
           2
           2
           2
           2
           2
           2
           2
           2
           2
           2
           2
           2
           2
           2
           2
           2
           2
           2
           2
           2
           2
           2
           2
           2
           2
           2
           2
           2
           2
           2
           2
           2
           2
           2
           2
           2
           2
           2
           2
           2
           2
           2
           2
           2
           2
           2
           2
           2
           2
           2
           2
           2
           2
           2
           2
           2
           2
           2
           2
           2
           2
           2
           2
           2
           2
           2
           2
           2
           2
           2
           2
           2
           2
           2
           2
           2
           2
           2
           2
           2
           2
           2
           2
           2
           2
           2
           2
           2
           2
           2
           2
           2
           2
           2
           2
           2
           2
           2
           2
           2
           2
           2
           2
           2
           2
           2
           2
           2
           2
           2
           2
           2
           2
           2
           2
           2
           2
           2
           2
           2
           2
           2
           2
           2
           2
           2
           2
           2
           2
           2
           2
           2
           2
           2
           2
           2
           2
           2
           2
           2
           2
           2
           2
           2
           2
           2
           2
           2
           2
           2
           2
           2
           2
           2
           2
           2
           2
           2
           2
           2
           2
           2
           2
           2
           2
           2
           2
           2
           2
           2
           2
           2
           2
           2
           2
           2
           2
           2
           2
           2
           2
           2
           2
           2
           2
           2
           2
           2
           2
           2
           2
           2
           2
           2
           2
           2
           2
           2
           2
           2
           2
           2
           2
           2
           2
           2
           2
           2
           2
           2
           2
           2
           2
           2
           2
           2
           2
           2
           2
           2
           2
           2
           2
           2
           2
           2
           2
           2
           2
           2
           2
           2
           2
           2
           2
           2
           2
           2
           2
           2
           2
           2
           2
           2
           2
           2
           2
           2
           2
           2
           2
           2
           2
           2
           2
           2
           2
           2
           2
           2
           2
           2
           2
           2
           2
           2
           2
           2
           2
           2
           2
           2
           2
           2
           2
           2
           2
           2
           2
           2
           2
           2
           2
           2
           2
           2
           2
           2
           2
           2
           2
           2
           2
           2
           2
           2
           2
           2
           2
           2
           2
           2
           2
           2
           2
           2
           2
           2
           2
           2
           2
           2
           2
           2
           2
           2
           2
           2
           2
           2
           2
           2
           2
           2
           2
           2
           2
           2
           2
           2
           2
           2
           2
           2
           2
           2
           2
           2
           2
           2
           2
           2
           2
           2
           2
           2
           2
           2
           2
           2
           2
           2
           2
           2
           2
           2
           2
           2
           2
           2
           2
           2
           2
           2
           2
           2
           2
           2
           2
           2
           2
           2
           2
           2
           2
           2
           2
           2
           2
           2
           2
           2
           2
           2
           2
           2
           2
           2
           2
           2
           2
           2
           2
           2
           2
           2
           2
           2
           2
           2
           2
           2
           2
           2
           2
           2
           2
           2
           2
           2
           2
           2
           2
           2
           2
           2
           2
           2
           2
           2
           2
           2
           2
           2
           2
           2
           2
           2
           2
           2
           2
           2
           2
           2
           2
           2
           2
           2
           2
           2
           2
           2
           2
           2
           2
           2
           2
           2
           2
           2
           2
           2
           2
           2
           2
           2
           2
           2
           2
           2
           2
           2
           2
           2
           2
           2
           2
           2
           2
           2
           2
           2
           2
           2
           2
           2
           2
           2
           2
           2
           2
           2
           2
           2
           2
           2
           2
           2
           2
           2
           2
           2
           2
           2
           2
           2
           2
           2
           2
           2
           2
           2
           2
           2
           2
           2
           2
           2
           2
           2
           2
           2
           2
           2
           2
           2
           2
           2
           2
           2
           2
           2
           2
           2
           2
           2
           2
           2
           2
           2
           2
           2
           2
           2
           2
           2
           2
           2
           2
           2
           2
           2
           2
           2
           2
           2
           2
           2
           2
           2
           2
           2
           2
           2
           2
           2
           2
           2
           2
           2
           2
           2
           2
           2
           2
           2
           2
           2
           2
           2
           2
           2
           2
           2
           2
           2
           2
           2
           2
           2
           2
           2
           2
           2
           2
           2
           2
           2
           2
           2
           2
           2
           2
           2
           2
           2
           2
           2
           2
           2
           2
           2
           2
           2
           2
           2
           2
           2
           2
           2
           2
           2
           2
           2
           2
           2
           2
           2
           2
           2
           2
           2
           2
           2
           2
           2
           2
           2
           2
           2
           2
           2
           2
           2
           2
           2
           2
           2
           2
           2
           2
           2
           2
           2
           2
           2
           2
           2
           2
           2
           2
           2
           2
           2
           2
           2
           2
           2
           2
           2
           2
           2
           2
           2
           2
           2
           2
           2
           2
           2
           2
           2
           2
           2
           2
           2
           2
           2
           2
           2
           2
           2
           2
           2
           2
           2
           2
           2
           2
           2
           2
           2
           2
           2
           2
           2
           2
           2
           2
           2
           2
           2
           2
           2
           2
           2
           2
           2
           2
           2
           2
           2
           2
           2
           2
           2
           2
           2
           2
           2
           2
           2
           2
           2
           2
           2
           2
           2
           2
           2
           2
           2
           2
           2
           2
           2
           2
           2
           2
           2
           2
           2
           2
           2
           2
           2
           2
           2
           2
           2
           2
           2
           2
           2
           2
           2
           2
           2
           2
           2
           2
           2
           2
           2
           2
           2
           2
           2
           2
           2
           2
           2
           2
           2
           2
           2
           2
           2
           2
           2
           2
           2
           2
           2
           2
           2
           2
           2
           2
           2
           2
           2
           2
           2
           2
           2
           2
           2
           2
           2
           2
           2
           2
           2
           2
           2
           2
           2
           2
           2
           2
           2
           2
           2
           2
           2
           2
           2
           2
           2
           2
           2
           2
           2
           2
           2
           2
           2
           2
           2
           2
           2
           2
           2
           2
           2
           2
           2
           2
           2
           2
           2
           2
           2
           2
           2
           2
           2
           2
           2
           2
           2
           2
           2
           2
           2
           2
           2
           2
           2
           2
           2
           2
           2
           2
           2
           2
           2
           2
           2
           2
           2
           2
           2
           2
           2
           2
           2
           2
           2
           2
           2
           2
           2
           2
           2
           2
           2
           2
           2
           2
           2
           2
           2
           2
           2
           2
           2
           2
           2
           2
           2
           2
           2
           2
           2
           2
           2
           2
           2
           2
           2
           2
           2
           2
           2
           2
           2
           2
           2
           2
           2
           2
           2
           2
           2
           2
           2
           2
           2
           2
           2
           2
           2
           2
           2
           2
           2
           2
           2
           2
           2
           2
           2
           2
           2
           2
           2
           2
           2
           2
           2
           2
           2
           2
           2
           2
           2
           2
           2
           2
           2
           2
           2
           2
           2
           2
           2
           2
           2
           2
           2
           2
           2
           2
           2
           2
           2
           2
           2
           2
           2
           2
           2
           2
           2
           2
           2
           2
           2
           2
           2
           2
           2
           2
           2
           2
           2
           2
           2
           2
           2
           2
           2
           2
           2
           2
           2
           2
           2
           2
           2
           2
           2
           2
           2
           2
           2
           2
           2
           2
           2
           2
           2
           2
           2
           2
           2
           2
           2
           2
           2
           2
           2
           2
           2
           2
           2
           2
           2
           2
           2
           2
           2
           2
           2
           2
           2
           2
           2
           2
           2
           2
           2
           2
           2
           2
           2
           2
           2
           2
           2
           2
           2
           2
           2
           2
           2
           2
           2
           2
           2
           2
           2
           2
           2
           2
           2
           2
           2
           2
           2
           2
           2
           2
           2
           2
           2
           2
           2
           2
           2
           2
           2
           2
           2
           2
           2
           2
           2
           2
           2
           2
           2
           2
           2
           2
           2
           2
           2
           2
           2
           2
           2
           2
           2
           2
           2
           2
           2
           2
           2
           2
           2
           2
           2
           2
           2
           2
           2
           2
           2
           2
           2
           2
           2
           2
           2
           2
           2
           2
           2
           2
           2
           2
           2
           2
           2
           2
           2
           2
           2
           2
           2
           2
           2
           2
           2
           2
           2
           2
           2
           2
           2
           2
           2
           2
           2
           2
           2
           2
           2
           2
           2
           2
           2
           2
           2
           2
           2
           2
           2
           2
           2
           2
           2
           2
           2
           2
           2
           2
           2
           2
           2
           2
           2
           2
           2
           2
           2
           2
           2
           2
           2
           2
           2
           2
           2
           2
           2
           2
           2
           2
           2
           2
           2
           2
           2
           2
           2
           2
           2
           2
           2
           2
           2
           2
           2
           2
           2
           2
           2
           2
           2
           2
           2
           2
           2
           2
           2
           2
           2
           2
           2
           2
           2
           2
           2
           2
           2
           2
           2
           2
           2
           2
           2
           2
           2
           2
           2
           2
           2
           2
           2
           2
           2
           2
           2
           2
           2
           2
           2
           2
           2
           2
           2
           2
           2
           2
           2
           2
           2
           2
           2
           2
           2
           2
           2
           2
           2
           2
           2
           2
           2
           2
           2
           2
           2
           2
           2
           2
           2
           2
           2
           2
           2
           2
           2
           2
           2
           2
           2
           2
           2
           2
           2
           2
           2
           2
           2
           2
           2
           2
           2
           2
           2
           2
           2
           2
           2
           2
           2
           2
           2
           2
           2
           2
           2
           2
           2
           2
           2
           2
           2
           2
           2
           2
           2
           2
           2
           2
           2
           2
           2
           2
           2
           2
           2
           2
           2
           2
           2
           2
           2
           2
           2
           2
           2
           2
           2
           2
           2
           2
           2
           2
           2
           2
           2
           2
           2
           2
           2
           2
           2
           2
           2
           2
           2
           2
           2
           2
           2
           2
           2
           2
           2
           2
           2
           2
           2
           2
           2
           2
           2
           2
           2
           2
           2
</DataArray>
</CellData>
</Piece>
</UnstructuredGrid>
</VTKFile>
